
units lj                  # Use reduced LJ style units
atom_style atomic         # Uncharged point particles
atom_modify map hash      # Needed for indexing of clusters etc
                          # Used to be able to find where atoms are in relation to each other.

lattice fcc 1.0 spacing 1 1 1
Lattice spacing in x,y,z = 1.5874011 1.5874011 1.5874011
region box block 0 10 0 10 0 10 units lattice
create_box 2 box
Created orthogonal box = (0.0000000 0.0000000 0.0000000) to (15.874011 15.874011 15.874011)
  3 by 4 by 4 MPI processor grid
create_atoms 1 box
Created 4000 atoms
  using lattice units in orthogonal box = (0.0000000 0.0000000 0.0000000) to (15.874011 15.874011 15.874011)
  create_atoms CPU = 0.012 seconds
set type 1 type/fraction 2 0.47 78393
Setting atom values ...
  1873 settings made for type/fraction
mass 1 1.0
mass 2 1.0
pair_style lj/cut  3.5
pair_modify tail  yes
pair_coeff 1  1  1.0  1.0   # Intearaction between 1 and 1 set with epsilon = 1 and sigma = 1
pair_coeff 1  2  1.5  0.8
pair_coeff 2  2  0.5  0.88

write_data data.0
System init for write_data ...
Neighbor list info ...
  update every 1 steps, delay 10 steps, check yes
  max neighbors/atom: 2000, page size: 100000
  master list distance cutoff = 3.8
  ghost atom cutoff = 3.8
  binsize = 1.9, bins = 9 9 9
  1 neighbor lists, perpetual/occasional/extra = 1 0 0
  (1) pair lj/cut, perpetual
      attributes: half, newton on
      pair build: half/bin/atomonly/newton
      stencil: half/bin/3d
      bin: standard
WARNING: Not all mixed pair coeffs generated from mixing. Use write_data with 'pair ij' option to store all pair coeffs. (../write_data.cpp:312)


#############################
#   M E L T   S Y S T E M   #
#############################

velocity all create 2.4 6583654 mom yes dist gaussian # Assign velocities
                                                    # Temperature 2.4, random number seed, zero linear momentum
                                                                                # Gaussian distribution

timestep 0.002   # simulation timestep
thermo 1000       # output thermodynamic data every 1000 steps bf 100

# Define a fix  in this case with index 1 applied to all
# particles in the simulation. This fix is for simulations
# in the anisotropic NPT ensemble. Note that we use the MTK
# correction.
fix 1 all npt temp 2.4 2.4 0.1 iso 5.68 5.68 0.5 mtk yes tchain 5 pchain 5 # Use NPT ensemble
                                                                         # Set temperature and pressure and damping
                                                                         # Numbers of thermostats in chain and in barostat
run 10000          # run for 10000 steps
Per MPI rank memory allocation (min/avg/max) = 3.642 | 3.644 | 3.648 Mbytes
Step Temp E_pair E_mol TotEng Press Volume 
       0          2.4   -5.4815223            0   -1.8824223   -4.2035566         4000 
    1000    2.3825714   -4.9000335            0   -1.3270699    6.0867597    3743.2408 
    2000     2.341829   -4.9464291            0   -1.4345638    5.7161379    3759.2991 
    3000    2.4465248   -4.9365746            0   -1.2677049    6.0341126    3744.7321 
    4000    2.3776019   -4.9217814            0   -1.3562701    5.8041622    3750.2731 
    5000    2.3988275   -4.9416998            0   -1.3443581    5.9230044     3737.689 
    6000    2.3432074   -4.9695336            0   -1.4556012    5.7288901     3746.994 
    7000    2.3758388   -4.9474017            0   -1.3845345    6.1175773    3719.3713 
    8000    2.3921739   -4.9085847            0    -1.321221    5.7006138    3778.3341 
    9000    2.3886403   -4.9002674            0   -1.3182027    5.5493631     3790.386 
   10000    2.3911118   -4.9900636            0   -1.4042926    5.5946995    3741.7745 
Loop time of 2.55633 on 48 procs for 10000 steps with 4000 atoms

Performance: 675968.602 tau/day, 3911.855 timesteps/s
99.6% CPU use with 48 MPI tasks x no OpenMP threads

MPI task timing breakdown:
Section |  min time  |  avg time  |  max time  |%varavg| %total
---------------------------------------------------------------
Pair    | 1.1519     | 1.2234     | 1.2981     |   3.1 | 47.86
Neigh   | 0.21237    | 0.21986    | 0.22817    |   0.8 |  8.60
Comm    | 0.79221    | 0.86012    | 0.92966    |   3.7 | 33.65
Output  | 0.00024924 | 0.00025601 | 0.00040295 |   0.0 |  0.01
Modify  | 0.20776    | 0.23714    | 0.2669     |   2.9 |  9.28
Other   |            | 0.01558    |            |       |  0.61

Nlocal:        83.3333 ave          95 max          71 min
Histogram: 1 0 4 3 13 14 7 3 2 1
Nghost:        1711.23 ave        1747 max        1673 min
Histogram: 1 2 5 3 8 13 7 4 4 1
Neighs:        10211.6 ave       12092 max        8588 min
Histogram: 1 2 6 7 14 9 4 2 2 1

Total # of neighbors = 490159
Ave neighs/atom = 122.53975
Neighbor list builds = 904
Dangerous builds = 190

# Equilibrate just above the melting temperature to avoid step fn in T

fix 1 all npt temp 1.25 1.25 0.1 iso 5.68 5.68 0.5 mtk yes tchain 5 pchain 5
run 2000
Per MPI rank memory allocation (min/avg/max) = 3.644 | 3.646 | 3.649 Mbytes
Step Temp E_pair E_mol TotEng Press Volume 
   10000    2.3911118   -4.9900636            0   -1.4042926    5.5946995    3741.7745 
   11000    1.2385614   -7.0241653            0   -5.1667877     5.844191    2939.1109 
   12000    1.2807906   -7.1045828            0   -5.1838772    6.0007255    2918.2779 
Loop time of 0.62975 on 48 procs for 2000 steps with 4000 atoms

Performance: 548789.115 tau/day, 3175.863 timesteps/s
99.6% CPU use with 48 MPI tasks x no OpenMP threads

MPI task timing breakdown:
Section |  min time  |  avg time  |  max time  |%varavg| %total
---------------------------------------------------------------
Pair    | 0.28983    | 0.30831    | 0.33345    |   2.0 | 48.96
Neigh   | 0.040665   | 0.042491   | 0.045015   |   0.5 |  6.75
Comm    | 0.20303    | 0.22878    | 0.25083    |   2.6 | 36.33
Output  | 5.2159e-05 | 5.4808e-05 | 7.2189e-05 |   0.0 |  0.01
Modify  | 0.040845   | 0.045147   | 0.049745   |   1.2 |  7.17
Other   |            | 0.004967   |            |       |  0.79

Nlocal:        83.3333 ave          91 max          76 min
Histogram: 1 2 6 5 14 3 10 1 4 2
Nghost:        2033.54 ave        2054 max        2009 min
Histogram: 4 1 4 4 7 6 8 6 4 4
Neighs:        13126.2 ave       14938 max       11782 min
Histogram: 5 4 5 9 7 8 3 3 3 1

Total # of neighbors = 630057
Ave neighs/atom = 157.51425
Neighbor list builds = 142
Dangerous builds = 8

#############################
# L I N E A R  Q U E N C H  #
#############################

# Define solid atoms. This closely follows ten Wolde  Ruiz-Montero and Frenkel  Faraday Discuss  1996  104  93-110
# Compute components of the per-atom q6 vector
compute q6 all orientorder/atom degrees 1 6 components 6 nnn NULL cutoff 1.3 # compute the Q6 parameter.
                                                                             # Use all neighbours within 1.3 unit cell.

# get number of connections
compute coord_number all coord/atom orientorder q6 0.5

# An atom is solid if it has 8 or more connections (of a possible 14)
variable is_solid atom c_coord_number>=8
group solid dynamic all var is_solid    # Must be dynamic to update
dynamic group solid defined

# do clustering
compute cluster solid cluster/atom 1.3 # Create a cluster where all atoms within are solid and max 1.3 units from another member

# define chunks one chunk per cluster
compute clus_chunks solid chunk/atom c_cluster nchunk every compress yes  # Says which atoms are in which chunk

# count the size of each chunk
compute size_chunks solid property/chunk clus_chunks count


# Find the maximum entry in the vector of chunk sizes
variable max_n equal max(c_size_chunks)


# Thermo style which includes this variable
# thermo_style custom step temp pe vol v_max_n

thermo ${N}  # Print the thermo information every 100 steps
thermo 1000  

# Reset the npt fix at a lower temperature (below freezing)
fix 1  all npt temp  ${temp} ${temp}  0.1  iso  5.68  5.68  0.5  mtk yes tchain  5  pchain  5
fix 1  all npt temp  0.45 ${temp}  0.1  iso  5.68  5.68  0.5  mtk yes tchain  5  pchain  5
fix 1  all npt temp  0.45 0.45  0.1  iso  5.68  5.68  0.5  mtk yes tchain  5  pchain  5

dump dmp2 all dcd ${N} traj.dcd
dump dmp2 all dcd 1000 traj.dcd


compute msd all msd com yes
variable twopoint equal c_msd[4]/6/(step*dt+1.0e-6)
fix 9 all vector 10 c_msd[4]
variable fit equal slope(f_9)/6/(10*dt)
thermo_style custom step temp pe c_msd[4] v_twopoint v_fit v_max_n

fix 1 all npt temp 1.25 ${temp} 0.1 iso 5.68 5.68 0.5 mtk yes tchain 5 pchain 5
fix 1 all npt temp 1.25 0.45 0.1 iso 5.68 5.68 0.5 mtk yes tchain 5 pchain 5
run 5000000 # 5000000  # Run for this many steps
Neighbor list info ...
  update every 1 steps, delay 10 steps, check yes
  max neighbors/atom: 2000, page size: 100000
  master list distance cutoff = 3.8
  ghost atom cutoff = 3.8
  binsize = 1.9, bins = 8 8 8
  4 neighbor lists, perpetual/occasional/extra = 1 3 0
  (1) pair lj/cut, perpetual
      attributes: half, newton on
      pair build: half/bin/atomonly/newton
      stencil: half/bin/3d
      bin: standard
  (2) compute orientorder/atom, occasional
      attributes: full, newton on
      pair build: full/bin/atomonly
      stencil: full/bin/3d
      bin: standard
  (3) compute coord/atom, occasional
      attributes: full, newton on
      pair build: full/bin/atomonly
      stencil: full/bin/3d
      bin: standard
  (4) compute cluster/atom, occasional
      attributes: full, newton on
      pair build: full/bin/atomonly
      stencil: full/bin/3d
      bin: standard
Per MPI rank memory allocation (min/avg/max) = 9.835 | 9.840 | 9.844 Mbytes
Step Temp PotEng c_msd[4] v_twopoint v_fit v_max_n 
   12000    1.2807906   -7.1045828 7.6006748e-31 5.2782462e-33 8.3333333e+20            1 
   13000     1.235432   -7.1563591   0.44637032 0.0028613481  0.035648694            2 
   14000     1.264565   -7.1720225   0.83572078 0.0049745283  0.033956445            4 
   15000    1.2487764    -7.076174    1.2384264 0.0068801463  0.033011354            2 
   16000     1.225305   -7.1175527    1.6495924 0.0085916266  0.033345277            3 
   17000    1.2541734   -7.1383267    2.0217878  0.009910724  0.033449334            2 
   18000    1.2294003   -7.1623346    2.4110989  0.011162495  0.033129278            2 
   19000    1.2405198   -7.1368383    2.7786332  0.012186987  0.032736462            2 
   20000    1.2361961   -7.1339502    3.2871884  0.013696618  0.033028954            1 
   21000     1.270048   -7.1538756    3.6863346  0.014628312   0.03344902            2 
   22000    1.2653182   -7.1772679    4.0508418  0.015344097  0.033625854            2 
   23000    1.2657781   -7.1343979    4.4277505  0.016042574  0.033511985            3 
   24000    1.2871613   -7.1378673    4.8743551  0.016924844  0.033517723            1 
   25000    1.2753085   -7.1194166    5.2953994  0.017651331  0.033595663            1 
   26000    1.2675106   -7.1259962    5.6162879  0.018000922  0.033484379            2 
   27000    1.2607189   -7.1235053    5.9481089  0.018358361  0.033298506            1 
   28000    1.2328425   -7.1578656    6.3100571  0.018779932  0.033103047            3 
   29000    1.2658109   -7.1780324    6.6927855  0.019232142  0.032940455            1 
   30000    1.2405061   -7.1831983    7.1163927  0.019767757  0.032862463            3 
   31000    1.2517195   -7.1213356    7.5533277  0.020304644  0.032867176            1 
   32000    1.2413502   -7.1342122    8.0073538  0.020852483  0.032869864            1 
   33000    1.2612735   -7.1500674    8.3855787  0.021175704   0.03292523            2 
   34000    1.2574787   -7.1487041    8.7389813  0.021419071  0.032936706            1 
   35000    1.2518788   -7.1333326    9.1589329  0.021806983  0.032932137            1 
   36000    1.2170669   -7.1524462    9.5521796  0.022111526  0.032943815            5 
   37000     1.237091   -7.1330801    9.9408934  0.022389399   0.03294433            1 
   38000    1.2640036   -7.1357837    10.310356  0.022610429  0.032948399            1 
   39000    1.2527745   -7.1552538     10.63464   0.02272359  0.032894582            1 
   40000     1.251101   -7.1317478    10.984892  0.022885191  0.032819988            2 
   41000    1.2458687   -7.1576523    11.237681  0.022840815  0.032714595            2 
   42000    1.2354325    -7.210591    11.663693  0.023142247  0.032593742            2 
   43000      1.21862   -7.1759314    12.032303  0.023318417  0.032496103            3 
   44000    1.2512232   -7.1343788    12.439137  0.023558972  0.032410962            1 
   45000    1.2319861   -7.1308951    12.738349  0.023589534  0.032328038            2 
   46000     1.218959   -7.1621872    13.207425  0.023926494  0.032257027            1 
   47000    1.2118376   -7.1815774    13.634689  0.024174981  0.032240981            4 
   48000    1.2437886   -7.1313956     13.88523  0.024106303  0.032187823            2 
   49000    1.2515535   -7.1331665    14.190803  0.024134018  0.032113356            3 
   50000    1.2595948    -7.137292    14.545062   0.02424177  0.032027051            1 
   51000    1.2135185   -7.1001919    14.984064  0.024483765  0.031958881            1 
   52000    1.2512041    -7.208444    15.384293  0.024654315  0.031900445            1 
   53000    1.2360862     -7.09477    15.967488  0.025106113  0.031895778            1 
   54000    1.2348011   -7.1173778    16.451839   0.02538864  0.031914875            1 
   55000    1.2421295   -7.2017166    16.850621  0.025531244  0.031956373            3 
   56000    1.2326167   -7.2489634     17.24941  0.025668765  0.032015563            2 
   57000    1.2694588   -7.1255835    17.735968  0.025929777  0.032078841            1 
   58000    1.2161465    -7.169907    18.174912   0.02611338  0.032137666            2 
   59000    1.2555001   -7.1286892    18.490441  0.026116442  0.032177676            3 
   60000    1.2344787   -7.1670467    18.867538  0.026204914  0.032218108            1 
   61000    1.2526695   -7.1468759    19.321721  0.026395794  0.032264895            1 
   62000    1.2587525   -7.1727202    19.701638  0.026480696  0.032298104            3 
   63000    1.2225719   -7.1427555     20.06242  0.026537592  0.032332377            1 
   64000    1.2545668   -7.1132234    20.553315  0.026762129  0.032369356            1 
   65000    1.2113343   -7.1497632    21.033151  0.026965577  0.032417385            5 
   66000     1.232611   -7.1527503    21.289587  0.026880792  0.032455387            5 
   67000    1.2772186   -7.1494677    21.775998  0.027084575   0.03248479            1 
   68000    1.2664586   -7.1581918     22.02227  0.026988076  0.032510568            3 
   69000    1.2404449   -7.1614452    22.502466  0.027176891  0.032537374            2 
   70000    1.2347837   -7.1282749    22.848064  0.027200076  0.032560349            2 
   71000     1.248209   -7.1776489    23.252561  0.027291738  0.032575461            2 
   72000    1.2401277   -7.1613908    23.494751  0.027192998  0.032576672            3 
   73000    1.2322911   -7.1199986    23.962673  0.027354649  0.032574632            1 
   74000    1.2247055   -7.1584915    24.325984  0.027394126  0.032573317            2 
   75000     1.237469   -7.1251104    24.703618  0.027448464  0.032567563            2 
   76000    1.2592419    -7.163739    24.875848  0.027276149  0.032560891            2 
   77000    1.2371742   -7.1629697    25.360973  0.027446941  0.032547664            1 
   78000    1.2488032   -7.1859613     25.70546  0.027463098  0.032534313            2 
   79000    1.2209863   -7.1550407    26.063366  0.027493002  0.032520332            3 
   80000    1.2392479   -7.1429782    26.663421  0.027774397  0.032511843            1 
   81000    1.2297103    -7.172122    26.885335   0.02765981  0.032508896            2 
   82000    1.2278087   -7.2023437    27.303931  0.027747897  0.032505454            1 
   83000    1.2443501   -7.1623365    27.645086   0.02775611  0.032487286            1 
   84000    1.2197552   -7.1339324    28.194787  0.027971019  0.032477912            4 
   85000    1.2575548   -7.1883725    28.434829  0.027877283  0.032470083            3 
   86000    1.2361112   -7.1853145    28.718369  0.027827877  0.032459444            1 
   87000    1.2376172   -7.1869318    29.035767  0.027812037  0.032435669            2 
   88000    1.1912947   -7.1863094    29.377249  0.027819364  0.032415997            1 
   89000    1.2169072   -7.1577747    29.931555    0.0280258  0.032396764            2 
   90000     1.228723    -7.201373    30.317205  0.028071486  0.032393749            2 
   91000    1.2402496   -7.1829637    30.837395  0.028239372  0.032395929            2 
   92000    1.2076783   -7.1623717    31.396142  0.028438534  0.032400909            2 
   93000    1.2186458   -7.1611244    31.868969  0.028556424  0.032414182            1 
   94000    1.2535716   -7.1823942    32.158866  0.028509633  0.032431396            5 
   95000    1.2177833    -7.209744    32.408959  0.028428911  0.032438884            4 
   96000    1.2216804   -7.1889108    32.482359  0.028196492  0.032429691            3 
   97000    1.2530419   -7.1719149    33.023752   0.02837092  0.032416087            2 
   98000    1.2516078   -7.2145466    33.494616  0.028481816   0.03241108            2 
   99000    1.2485301   -7.1705927    33.849527  0.028492868   0.03240791            3 
  100000    1.2157045   -7.1276999    34.459078  0.028715898  0.032406504            3 
  101000    1.2425827   -7.1651045    34.759389  0.028679364  0.032406497            2 
  102000    1.2365206   -7.1926352    34.981635  0.028579767  0.032403653            1 
  103000    1.2292714   -7.1443943    35.462302  0.028691183  0.032399083            5 
  104000    1.2514904   -7.1431287    35.680812  0.028590394  0.032388572            2 
  105000    1.2351044   -7.1829915    36.265152  0.028781867  0.032378899            3 
  106000    1.2174892   -7.2032384    36.686743  0.028841779  0.032372329            1 
  107000    1.2157417   -7.2044489    37.041032  0.028848156  0.032371855            2 
  108000     1.242304   -7.1812825    37.405497  0.028862266  0.032370954            3 
  109000    1.2297043   -7.1886505    37.828682  0.028921011  0.032376375            1 
  110000    1.2218118   -7.2275169    38.298512  0.029014024  0.032380644            3 
  111000    1.2524493   -7.1754887    38.686231  0.029043717  0.032388584            2 
  112000    1.2406623   -7.1459981    39.016027  0.029029782  0.032393342            1 
  113000    1.2523062   -7.1708517    39.409017  0.029062697  0.032393846            1 
  114000    1.2340277   -7.2082068    39.804127  0.029096584  0.032395499            1 
  115000    1.2391687   -7.1567427    40.337577  0.029230128  0.032397079            2 
  116000    1.2454017   -7.1936351    40.539445  0.029123165  0.032398545            2 
  117000    1.2109037   -7.1338859    41.042962  0.029232879  0.032392257            2 
  118000    1.2296895   -7.1318729    41.205852  0.029100178  0.032385744            1 
  119000    1.2337629   -7.2041751    41.435109  0.029016183  0.032374987            2 
  120000    1.2242158   -7.1697561     41.60478  0.028892208  0.032355995            1 
  121000    1.2386487   -7.1969413    41.842708  0.028817292  0.032334536            1 
  122000    1.2311369   -7.1694894    42.161782  0.028799031   0.03230994            2 
  123000    1.2278333   -7.2611549    42.507683  0.028799243  0.032283364            2 
  124000    1.2212387   -7.1473615    43.354239  0.029135913   0.03226452            2 
  125000    1.2310432   -7.2083219    43.495168  0.028996779  0.032252473            2 
  126000    1.2454415   -7.1577778    44.021359  0.029114655  0.032238878            2 
  127000    1.2257757   -7.1816236    44.435659  0.029157257  0.032229148            2 
  128000    1.2452647   -7.1846667    44.720135  0.029114671  0.032222252            1 
  129000    1.2128305   -7.2205857    44.785272  0.028931054  0.032204744            1 
  130000    1.2163248   -7.2186769    45.397865  0.029101195  0.032187724            2 
  131000    1.1956187   -7.1831753    45.678477  0.029057556  0.032175121            3 
  132000    1.2272112    -7.181891    46.169124  0.029147174   0.03216266            3 
  133000    1.2333154   -7.1674333    46.583018  0.029187355  0.032151378            1 
  134000    1.2254655   -7.1860627    46.829697  0.029122946  0.032135581            2 
  135000    1.2268248   -7.2044596    47.189489  0.029129314  0.032123148            3 
  136000    1.2293617   -7.1866782    47.655663  0.029200774  0.032111083            2 
  137000    1.2296499   -7.2351571    48.052922  0.029229271  0.032099367            1 
  138000    1.2292102   -7.1701538    48.573135  0.029331603  0.032087518            2 
  139000    1.2516466   -7.2268784    48.764009  0.029235018  0.032079797            2 
  140000    1.2294365     -7.20478    49.324228   0.02935966  0.032074077            3 
  141000    1.2438554   -7.1536022     49.49492  0.029252317  0.032064817            2 
  142000    1.2574085   -7.2035771    49.886973  0.029276392  0.032053198            1 
  143000     1.217248   -7.1647475    50.194013   0.02925059  0.032038593            3 
  144000     1.242432    -7.175751    50.429354  0.029183654  0.032022421            2 
  145000    1.2402918   -7.1584357    50.931498  0.029270976  0.032012929            3 
  146000     1.232435   -7.2489108    51.383771  0.029328636  0.032004526            3 
  147000    1.2312832   -7.2094335    52.022232  0.029491061  0.031997534            2 
  148000    1.2569892   -7.1786891    52.457717  0.029537003   0.03199535            2 
  149000    1.2476256   -7.1707926    52.789628    0.0295244  0.031995308            1 
  150000    1.2380946    -7.204328    53.214696   0.02956372  0.031991488            2 
  151000    1.2319966   -7.1588481    53.541439  0.029548256  0.031987113            1 
  152000    1.2324508   -7.2103618    53.752575  0.029469613  0.031982971            1 
  153000    1.2310879   -7.2036013    54.365396  0.029610782  0.031980091            1 
  154000    1.2265981   -7.2030706    54.609655  0.029550679  0.031975834            5 
  155000    1.2563163   -7.2164411    54.814784  0.029470314  0.031967463            4 
  156000    1.2111097   -7.2016075    55.075544  0.029420697  0.031957553            5 
  157000    1.1943244   -7.1774348    55.759282  0.029596222  0.031948215            3 
  158000    1.2132591   -7.2048428    55.874323   0.02946958  0.031941223            1 
  159000    1.2154852   -7.1820259    56.293906  0.029504144  0.031933722            1 
  160000    1.2553188   -7.1772507    57.019917  0.029697874  0.031927293            1 
  161000    1.2249818   -7.1759493     57.31382  0.029665538  0.031920782            3 
  162000    1.2131925   -7.1589698    57.367869  0.029510221  0.031912751            1 
  163000     1.211489   -7.1895318    57.610829  0.029453389  0.031906192            2 
  164000    1.2091355   -7.1896478    58.319319    0.0296338  0.031899734            2 
  165000     1.228009   -7.2001238    58.421574  0.029505845  0.031890913            2 
  166000    1.2416482   -7.2635584    58.552544  0.029393848  0.031879877            3 
  167000    1.2315757   -7.2107573    59.004353   0.02944329  0.031868909            2 
  168000    1.2284431   -7.1923988    59.487431  0.029507654  0.031855822            1 
  169000    1.1941471   -7.2148583    59.578567  0.029377991  0.031843212            2 
  170000    1.1901141   -7.1899693    59.941757  0.029383214  0.031827795            4 
  171000    1.2563948   -7.1572551    60.486194  0.029476703  0.031814451            3 
  172000    1.2354353   -7.1933079    60.845639  0.029479476  0.031800232            3 
  173000    1.2391823   -7.2413478    61.136197  0.029449035  0.031787686            3 
  174000    1.2224132   -7.2105551    61.457166  0.029433509  0.031774912            1 
  175000    1.2011009   -7.1982831    61.928245  0.029489641  0.031763729            1 
  176000    1.2345251   -7.1724255    62.427106  0.029558289  0.031752375            1 
  177000    1.2065561   -7.2314598     62.66138  0.029501591  0.031741159            1 
  178000    1.2127626   -7.1974352    63.200579  0.029588286  0.031730708            2 
  179000    1.2200027   -7.1829643    63.647624   0.02963111  0.031723705            2 
  180000    1.2084272   -7.2236959    63.838846  0.029555021  0.031714056            2 
  181000    1.2084232   -7.1993598    64.233102  0.029573251  0.031704561            2 
  182000    1.2259503   -7.1930298    64.751666  0.029648198  0.031695914            1 
  183000    1.2152784   -7.1975766    64.821642  0.029518052  0.031687738            1 
  184000    1.2426032   -7.2003718    65.218752  0.029537478  0.031677739            1 
  185000    1.2129674   -7.1884741    65.915665  0.029691741  0.031666296            4 
  186000     1.251808   -7.2014203    66.007949  0.029573454  0.031655819            2 
  187000    1.2369119   -7.2523935    66.404107  0.029591848   0.03164681            2 
  188000    1.2087109   -7.2145387    66.877412  0.029644243  0.031636397            3 
  189000     1.224747   -7.1460706    67.156094  0.029610271  0.031627736            1 
  190000    1.2459668   -7.1976175    67.263278  0.029501438  0.031616704            1 
  191000     1.233753   -7.2660864    67.398352  0.029405913  0.031601917            1 
  192000    1.2251969    -7.226761    67.731402   0.02939731  0.031589156            1 
  193000    1.2062138   -7.2206016    67.929602  0.029330571  0.031573778            1 
  194000    1.2177086   -7.2516872     68.32393  0.029348767  0.031555664            2 
  195000    1.2105399   -7.2458397    68.388607    0.0292259  0.031535831            1 
  196000    1.2031253   -7.2044035    69.087972  0.029374138  0.031516107            1 
  197000    1.2404626   -7.2290947    69.135724   0.02924523  0.031498228            4 
  198000     1.238405   -7.2062661    69.763696  0.029361825  0.031482347            1 
  199000    1.2348734   -7.2270027    70.112928  0.029360522  0.031466159            4 
  200000    1.2121987    -7.238461    70.298403  0.029291001  0.031450035            1 
  201000    1.2389391   -7.1772564      71.1324  0.029491045  0.031436093            1 
  202000    1.2218779   -7.1970181    71.385714  0.029449552  0.031423758            2 
  203000     1.224021   -7.1797251    71.835018  0.029488924  0.031411225            2 
  204000    1.2378991   -7.2252457    72.009941  0.029415826  0.031399426            1 
  205000    1.2348716   -7.1792402    72.590395  0.029508291  0.031385857            2 
  206000    1.2357688   -7.2118093    72.921007  0.029498789  0.031371498            1 
  207000    1.2323927   -7.1795922    72.992658  0.029385128  0.031355919            1 
  208000    1.2273381   -7.2478369    72.849284  0.029186412  0.031339238            2 
  209000    1.2170145   -7.1949638    74.031819  0.029518269  0.031324533            1 
  210000    1.2114817   -7.2441957    74.037542  0.029379977  0.031313077            2 
  211000      1.20727   -7.1638585    74.858664  0.029565033  0.031301017            1 
  212000    1.2180708   -7.2210667    74.832702   0.02941537  0.031288364            6 
  213000    1.2437257   -7.2063019    75.054793   0.02936416  0.031274213            3 
  214000    1.2224415   -7.2317929      75.5967  0.029437967  0.031261115            2 
  215000    1.2286482   -7.2060604    75.667147  0.029328352  0.031246799            1 
  216000    1.1892563   -7.2181523    76.195489  0.029396408  0.031233274            1 
  217000    1.2069849   -7.2209552    76.501379   0.02937841  0.031220294            3 
  218000    1.2261327   -7.2135719    76.932025  0.029408266  0.031207531            2 
  219000    1.2491158   -7.1973295    77.498465  0.029489522  0.031194583            1 
  220000    1.2128052   -7.2433392    77.873754  0.029497634  0.031184597            1 
  221000     1.191256   -7.1577943    78.432622  0.029574895  0.031175448            2 
  222000    1.2193893   -7.2761576    78.205429  0.029356392  0.031164531            4 
  223000    1.2221216    -7.242645    78.699938  0.029409543  0.031152173            2 
  224000    1.2194724   -7.2800619    79.238687  0.029478678  0.031141104            4 
  225000    1.2466056    -7.232869    79.724501  0.029527593  0.031130547            2 
  226000    1.2145334   -7.2008755    80.215895  0.029578132   0.03112316            1 
  227000    1.2043329   -7.2336195    80.525564  0.029561514  0.031116797            3 
  228000    1.2198519   -7.2449249    80.621776  0.029467023  0.031110428            3 
  229000    1.2313158   -7.2116742    81.154345  0.029532149  0.031101933            6 
  230000    1.2044342   -7.2129733     81.41932  0.029499754  0.031094018            1 
  231000    1.2537421   -7.2099786    81.959332  0.029566858  0.031086117            2 
  232000    1.1961108   -7.2131458    82.297273  0.029560802  0.031078621            2 
  233000    1.2125488   -7.2859808    82.390464  0.029467262  0.031068492            1 
  234000    1.2286777   -7.2174958    82.582986  0.029409895  0.031058197            3 
  235000    1.2149935   -7.1964983    83.199266  0.029503286  0.031048896            2 
  236000    1.2070424   -7.2463665     83.40426  0.029450657  0.031039465            2 
  237000    1.1919925   -7.2097212    83.951965  0.029518975  0.031031856            3 
  238000    1.2089919   -7.2538168    84.317061   0.02952278  0.031024853            2 
  239000    1.2062774   -7.2352639    84.727368  0.029542318  0.031017525            2 
  240000    1.2049743   -7.2734764    84.699757  0.029409638  0.031007079            1 
  241000    1.2258534    -7.214081    85.182247  0.029454442  0.030998042            1 
  242000    1.1904564   -7.2252442    85.609763  0.029479946  0.030987613            3 
  243000    1.2149801   -7.2527209    85.582136  0.029349155   0.03097668            1 
  244000     1.203173   -7.2760338    85.447961  0.029183047    0.0309645            3 
  245000    1.1989042   -7.2360026    86.682431   0.02948382  0.030951797            2 
  246000     1.225889   -7.2638142    86.748389  0.029386311   0.03094044            1 
  247000    1.1956128   -7.2258746     86.95397  0.029336697  0.030927416            4 
  248000     1.192347   -7.2312638    87.369381  0.029357991  0.030917316            3 
  249000    1.2334609   -7.2386352    87.988707  0.029447358  0.030907682            2 
  250000    1.2079858   -7.2317949     88.10987  0.029369957  0.030898328            3 
  251000    1.2114116   -7.2591326    88.467325  0.029371622  0.030889287            3 
  252000    1.2017089   -7.2465872    88.638368   0.02931163  0.030878904            2 
  253000    1.1854781   -7.1945863    89.543456  0.029493892  0.030870202            1 
  254000    1.1984455   -7.2580282    89.526124  0.029372088  0.030860447            1 
  255000    1.2119902   -7.1946313    90.254993  0.029495096  0.030850852            2 
  256000    1.2232481   -7.2625168    90.482395  0.029453904  0.030843917            1 
  257000    1.2112253   -7.2400016    91.220865   0.02957875  0.030837432            1 
  258000    1.2130555   -7.2411237    91.399303  0.029521739  0.030830885            1 
  259000    1.2260689   -7.2431183    91.763289  0.029524868  0.030824832            2 
  260000    1.2282596   -7.2231142    92.009204  0.029490129  0.030818065            2 
  261000    1.2069326   -7.2648878    92.268859  0.029460044  0.030810683            1 
  262000    1.2016658   -7.2210157    92.744389  0.029498851  0.030802336            1 
  263000    1.1966759   -7.2484871    93.072034  0.029490505  0.030794917            1 
  264000    1.2220891   -7.2823214    93.091309  0.029384883   0.03078785            1 
  265000    1.2304272    -7.231864    93.795258  0.029495364  0.030780162            2 
  266000     1.201183   -7.2413529    94.284991  0.029537904  0.030773087            2 
  267000    1.2061434   -7.2608235    94.468018    0.0294844  0.030766842            2 
  268000    1.2076086   -7.2035524    95.286663  0.029628938  0.030761162            4 
  269000    1.2317264   -7.2486179    95.653683  0.029632492  0.030755751            2 
  270000    1.2268003   -7.2703506    95.783543  0.029562822  0.030749148            4 
  271000    1.1998161    -7.281727    96.143606  0.029564454  0.030744712            3 
  272000    1.2266972   -7.2145343    96.369334  0.029524918  0.030739793            1 
  273000    1.1876047   -7.2406717    97.181062  0.029664549  0.030735994            5 
  274000    1.1921258   -7.2092742    97.638781  0.029695493  0.030731407            1 
  275000    1.2193493   -7.2733928    97.639782  0.029587813  0.030727359            3 
  276000    1.2187076   -7.2079375    98.018634  0.029594998  0.030723475            2 
  277000    1.2233731   -7.2115999    98.479953  0.029626941  0.030718965            3 
  278000    1.1880092   -7.2483529    98.487945  0.029522765  0.030714109            1 
  279000    1.2053354   -7.2312124    99.023407  0.029576884  0.030709604            2 
  280000    1.2264108   -7.2286091    99.794973  0.029700885   0.03070602            1 
  281000    1.1961976   -7.2647749    100.07529  0.029678318  0.030703121            2 
  282000    1.1857962   -7.2044833     100.2467  0.029623731  0.030700977            2 
  283000    1.1899356   -7.2279086    100.62654  0.029630902  0.030697232            1 
  284000    1.2109786   -7.2278283    101.33564  0.029734636  0.030693594            2 
  285000    1.2561246   -7.2390012    101.33155  0.029629107  0.030689741            1 
  286000    1.2044688   -7.2650519    101.46828  0.029565349  0.030686116            1 
  287000    1.2081313   -7.2300416    101.85145  0.029573592    0.0306802            2 
  288000    1.2191855   -7.2627735    101.82548  0.029463391  0.030673835            2 
  289000    1.1837704     -7.25483    102.40223  0.029527747  0.030666851            2 
  290000    1.1923881   -7.2452984    102.75921   0.02952851  0.030660662            2 
  291000    1.2175601    -7.234193    103.11526  0.029528997  0.030654617            3 
  292000    1.2203226   -7.2563169    103.36579  0.029499368   0.03064862            1 
  293000      1.21882   -7.2025338    103.84217  0.029534179  0.030641743            1 
  294000    1.2109992   -7.2453633     104.1806  0.029529648  0.030635812            1 
  295000    1.2138353   -7.2861204    104.65048  0.029562283   0.03063025            3 
  296000    1.1775243   -7.1743014    105.13889  0.029599912  0.030624375            4 
  297000    1.2058744   -7.2218092    105.72471   0.02966462  0.030619719            3 
  298000    1.2007041   -7.1984731    106.28988   0.02972312  0.030615907            2 
  299000    1.2092949    -7.265417    106.10648  0.029572597  0.030611376            4 
  300000    1.2122666   -7.2701942    106.51191  0.029586641  0.030607183            2 
  301000    1.2100884   -7.2588415    107.15358  0.029665997  0.030603368            3 
  302000    1.2064576   -7.2637023    107.63253  0.029699926  0.030599576            1 
  303000    1.1983666   -7.2479832    107.76543  0.029638457  0.030595708            1 
  304000    1.1821309   -7.2071941    108.75584  0.029812457  0.030593566            1 
  305000    1.2009575   -7.2534721    108.66226  0.029689142   0.03059225            3 
  306000    1.1991077   -7.2502941    109.11258  0.029714755  0.030590498            2 
  307000    1.1870604   -7.1924912     109.8046   0.02980581  0.030588869            2 
  308000    1.2164762   -7.2753878    110.01177   0.02976509   0.03058704            1 
  309000    1.2112105   -7.2363036     110.3389  0.029756984  0.030585293            1 
  310000     1.215792   -7.2703935    110.17101  0.029615862  0.030583365            2 
  311000     1.201616   -7.2622416    110.94952  0.029729239  0.030581337            3 
  312000    1.2070577   -7.2223383    110.98861  0.029644393  0.030579331            3 
  313000    1.2039627    -7.264957    111.39615  0.029658186   0.03057613            2 
  314000     1.216722   -7.3038576    111.29173  0.029536022  0.030572333            2 
  315000    1.2147581    -7.266572    111.85633  0.029591622  0.030569238            1 
  316000    1.2160515   -7.2945709    112.14814  0.029574931  0.030565608            1 
  317000    1.1622795     -7.24977     112.7489  0.029639564  0.030562045            2 
  318000    1.1961802   -7.2259983    113.21114   0.02966749  0.030558092            2 
  319000    1.2100382   -7.2610714    113.45233  0.029637495  0.030555069            3 
  320000    1.2115131   -7.2586927    113.86528  0.029652415  0.030551982            2 
  321000    1.2068227    -7.246762    114.32841  0.029680272  0.030549938            4 
  322000    1.1678059   -7.2298359    115.10713   0.02978963  0.030547698            1 
  323000    1.1901372   -7.2636482    114.75164  0.029605687  0.030544764            2 
  324000    1.1977717   -7.3237802    114.80204  0.029527273  0.030540141            2 
  325000    1.1852484   -7.2996458    115.34657  0.029576045  0.030535839            3 
  326000    1.2044505   -7.2964422    115.98594  0.029648757  0.030532342            1 
  327000     1.184674   -7.3003532    116.05487  0.029575656  0.030528419            2 
  328000    1.2174534   -7.2946877    116.70106  0.029649658  0.030525749            2 
  329000    1.2101086   -7.2300825    117.65946  0.029802295  0.030524504            1 
  330000    1.2114789   -7.2913432    117.72553  0.029728669  0.030522956            2 
  331000    1.1848635    -7.298185    118.20576  0.029759757  0.030521053            1 
  332000    1.1924471    -7.268523    118.43005  0.029726418  0.030518851            2 
  333000    1.1952764   -7.2965112    118.76471  0.029720898  0.030515949            2 
  334000    1.1989847   -7.2823958    118.89946  0.029665533  0.030513884            2 
  335000    1.2326407   -7.3166866    119.09289  0.029625097  0.030512011            4 
  336000    1.1897287   -7.2788929     120.0298  0.029769295  0.030509778            2 
  337000    1.2007702   -7.3109305    119.85065  0.029636658  0.030507728            2 
  338000    1.2041922   -7.2613507    119.93999  0.029571003  0.030505077            2 
  339000    1.2274191   -7.2781992    120.98663  0.029741059   0.03050333            3 
  340000    1.1956819   -7.2583486    121.37766  0.029749425  0.030502145            2 
  341000    1.1681064   -7.2703363    122.17019  0.029855862  0.030501126            4 
  342000    1.2014505   -7.2578313    122.57828  0.029868001   0.03050064            2 
  343000    1.2075855   -7.2898365    122.88014  0.029854262  0.030500444            3 
  344000    1.1845852   -7.3022006    122.48698  0.029672233  0.030498934            6 
  345000    1.1959686   -7.2768574    123.08088  0.029729682  0.030498654            1 
  346000    1.2097893   -7.2504019    123.30659  0.029698119  0.030497971            3 
  347000    1.1705432   -7.2789633    123.84034  0.029740716  0.030496444            1 
  348000    1.1691047    -7.267505    123.81095  0.029648215  0.030495074            6 
  349000    1.1931323   -7.2962148     124.7862  0.029796132  0.030494232            1 
  350000    1.2054518   -7.2945388    124.80424  0.029715294  0.030493495            2 
  351000    1.1919684   -7.2252551    125.61914  0.029824107  0.030492876            2 
  352000    1.1486269    -7.254839    125.79948  0.029782075  0.030491898            2 
  353000    1.1831366    -7.278851    125.98236  0.029740879  0.030491228            2 
  354000    1.1926612   -7.3070597    126.03358  0.029668922   0.03049009            1 
  355000     1.202427   -7.2910413    126.57332  0.029712047  0.030490012            1 
  356000    1.1795999   -7.3001188    127.41747  0.029826187  0.030489637            3 
  357000    1.1969465   -7.2773203    127.36886  0.029731293  0.030489206            1 
  358000    1.1896247    -7.310039     127.4878   0.02967593  0.030487127            1 
  359000    1.1868077   -7.2765706    128.13188  0.029742776  0.030484028            2 
  360000    1.2084896   -7.3030731    127.78797  0.029580549  0.030482025            2 
  361000    1.1976172   -7.3196927    128.43588  0.029648171  0.030479137            3 
  362000    1.1597189   -7.2316355    128.89636  0.029672273  0.030476785            3 
  363000    1.1753482   -7.2761218    129.34461  0.029693437   0.03047579            2 
  364000    1.2034652   -7.2764758    129.86173   0.02973025  0.030474259            3 
  365000    1.1693225   -7.2503892    130.72379  0.029845613  0.030473726            6 
  366000    1.2003071   -7.2801857    130.34673  0.029678218  0.030472068            3 
  367000     1.205278   -7.2958421    130.72376   0.02968296  0.030468891            2 
  368000    1.2116743   -7.2909979    130.87774   0.02963717  0.030465385            2 
  369000    1.1863851   -7.2725929    130.99522  0.029583383  0.030461676            2 
  370000    1.1941143   -7.2796648    131.01962  0.029508922  0.030457273            2 
  371000    1.1898924   -7.3013227    131.25681  0.029482663  0.030452244            3 
  372000    1.2051637   -7.2314814    132.25919  0.029627954  0.030447735            4 
  373000    1.1843095   -7.3298475     132.1102  0.029515237  0.030442397            2 
  374000    1.1917052   -7.2670891    132.77398  0.029584221  0.030437871            2 
  375000    1.2191983   -7.2865131    132.73855  0.029497456   0.03043314            2 
  376000    1.2070162   -7.2412403    133.62157  0.029614709  0.030428033            2 
  377000    1.1865417   -7.2587873    133.98529  0.029616554  0.030423138            4 
  378000    1.1938802   -7.2696123    133.84052  0.029506287  0.030418042            2 
  379000    1.2256135   -7.3067779    134.36913  0.029544664  0.030412883            2 
  380000    1.1979907   -7.3057485    133.89985  0.029364003  0.030407044            2 
  381000    1.2046507   -7.2790285    135.15894  0.029562323  0.030402011            3 
  382000    1.1779425   -7.2655845    135.14687  0.029482301  0.030397148            1 
  383000    1.1854443   -7.3302133    135.47156  0.029475971  0.030391429            2 
  384000     1.214723   -7.2858588     136.0795  0.029531142  0.030386065            8 
  385000    1.1595981   -7.3020325    136.00906  0.029439191  0.030380576            2 
  386000    1.1886004   -7.3223148    136.69267  0.029510506  0.030375227            2 
  387000    1.2031451   -7.2408006    137.09522  0.029520934  0.030370534            2 
  388000    1.2107681   -7.2937617    137.04204  0.029433429  0.030365515            2 
  389000    1.1861564   -7.2766065    138.53532  0.029677661  0.030361036            2 
  390000    1.1956843   -7.3032902    138.62427   0.02962057  0.030357303            1 
  391000    1.2062572   -7.3171624    138.51362  0.029521233   0.03035299            6 
  392000    1.1766384    -7.259807    139.65597  0.029688769  0.030349341            3 
  393000    1.1996631   -7.3116787    139.18319  0.029512976  0.030345097            2 
  394000     1.216031   -7.3397786    139.04697  0.029409258  0.030340551            2 
  395000    1.2032928   -7.3388622    139.81832  0.029497537  0.030335569            1 
  396000    1.1948127   -7.2923279     140.2851  0.029521276  0.030331088            3 
  397000     1.164883   -7.2869326    140.67493  0.029528743  0.030327065            2 
  398000    1.1797279   -7.3361979    140.15431  0.029345543   0.03032305            2 
  399000    1.1810126   -7.3081258    141.52072  0.029557377  0.030318488            2 
  400000    1.1889318   -7.2556504     142.3974  0.029666124   0.03031499            1 
  401000    1.1846862   -7.3212404    141.55749  0.029417599  0.030311862            2 
  402000    1.1957348   -7.2393992    142.51014  0.029541902  0.030308069            3 
  403000    1.1708434   -7.3327079    142.83863  0.029536525  0.030304269            1 
  404000    1.1913266   -7.2622943    142.71396  0.029437698  0.030299499            1 
  405000    1.1822581   -7.2244119     144.1584  0.029662222  0.030295471            3 
  406000    1.1770283   -7.2548847    143.46342  0.029446515  0.030291578            2 
  407000    1.1915763   -7.3447326    143.74827  0.029432488  0.030286359            3 
  408000    1.1890931   -7.2398182    144.78849  0.029572812  0.030281819            2 
  409000    1.1899028   -7.2896581    145.07259  0.029558392  0.030277344            2 
  410000     1.173246   -7.2802505    145.40486  0.029553834  0.030272905            3 
  411000    1.1769973   -7.3281285    145.47207  0.029495553  0.030268742            2 
  412000    1.1549315   -7.2870388    145.74384  0.029478932  0.030263767            1 
  413000    1.1812796   -7.2928872    146.19815  0.029499223  0.030259076            2 
  414000    1.2163425   -7.2605488    146.03575   0.02939528  0.030254166            2 
  415000    1.1742947   -7.2930318    146.93755  0.029505531  0.030249643            2 
  416000    1.1888161   -7.3556542     146.7228  0.029391586   0.03024544            2 
  417000    1.1944771   -7.3137964    146.82151   0.02934083  0.030241004            2 
  418000    1.2052951   -7.3151482    148.13414  0.029532324  0.030236513            1 
  419000    1.2090456   -7.2780865    147.90596  0.029416461  0.030232038            1 
  420000    1.1740328   -7.2408715     148.7418  0.029512261  0.030227397            1 
  421000    1.2000544   -7.2914174    149.21208   0.02953525  0.030223439            3 
  422000     1.188616   -7.2794116    149.09308  0.029441761  0.030219666            1 
  423000     1.173942   -7.2975581    149.33702  0.029420217  0.030214985            1 
  424000     1.147185   -7.3460464    149.51097  0.029385019  0.030210177            1 
  425000    1.1891068   -7.3073294     149.9805  0.029407941   0.03020557            2 
  426000    1.1673255   -7.3337698    150.35053  0.029411294  0.030201361            2 
  427000    1.1977321   -7.2637848    151.27097  0.029522047  0.030197316            2 
  428000    1.1833798   -7.2552511    151.74802  0.029545955  0.030194203            4 
  429000    1.2032841     -7.29947    151.86287  0.029499392  0.030190362            2 
  430000    1.1796868   -7.3013934    152.37338  0.029529724  0.030186176            1 
  431000    1.1750721   -7.3496885    152.02999  0.029394816  0.030181986            2 
  432000    1.1690668    -7.280838    152.88485  0.029491677  0.030178435            3 
  433000    1.1874374   -7.3159786    152.71607  0.029391084  0.030173886            2 
  434000    1.1871631   -7.2996348    153.05967  0.029389338  0.030168729            1 
  435000     1.175436   -7.2850509    153.75414  0.029454817  0.030164615            2 
  436000    1.1508586   -7.2988256    154.64835   0.02955817  0.030160858            2 
  437000    1.1789167   -7.2620563     154.8189  0.029523054  0.030157116            2 
  438000    1.1665605   -7.3100202    154.66607  0.029426574  0.030153554            1 
  439000    1.1671778   -7.3213533    155.13213  0.029448012  0.030149645            2 
  440000    1.1821995   -7.3312207    155.39664  0.029431182  0.030145418            2 
  441000    1.2202316   -7.3161276    155.67882  0.029417766  0.030141115            1 
  442000     1.194407   -7.3088723    156.06625  0.029424256  0.030137341            2 
  443000    1.1577896   -7.2912511    156.52372  0.029443891  0.030134196            1 
  444000    1.1740761   -7.3034131     157.0303  0.029472654  0.030130678            4 
  445000    1.1757562   -7.2785493    157.49365  0.029493192  0.030126609            3 
  446000    1.2004575   -7.2795777    157.96842  0.029515773  0.030122622            5 
  447000    1.1958949    -7.275414    158.06625  0.029467981  0.030119011            2 
  448000    1.1790373    -7.266651    158.51838  0.029486306  0.030115502            3 
  449000    1.1643883   -7.2676037    159.52095   0.02960671  0.030112362            3 
  450000    1.1751221   -7.2902531    158.88392  0.029422948  0.030109194            1 
  451000    1.1781735   -7.2889255     159.1842  0.029413192  0.030105277            2 
  452000     1.168628   -7.3588243    159.66662  0.029437062  0.030101346            2 
  453000    1.1574239   -7.3140186    160.48457  0.029522549  0.030098032            2 
  454000    1.1675367   -7.3326297    160.00006  0.029368587  0.030094858            1 
  455000    1.2062332   -7.2942668    160.59283  0.029412607  0.030091169            3 
  456000    1.1839023   -7.3188305    160.84503  0.029394195  0.030086996            1 
  457000    1.1656647   -7.2897217     160.4799  0.029263293  0.030081387            3 
  458000       1.1723   -7.3341986    160.63486  0.029227594  0.030075362            2 
  459000    1.1803181   -7.3594379    160.75733  0.029186153  0.030068549            1 
  460000    1.1765058   -7.3084638      161.376  0.029234783  0.030062022            2 
  461000    1.1595558   -7.3135468    161.52064  0.029197512  0.030055585            4 
  462000    1.1776708   -7.3654221    161.50915  0.029132241  0.030048885            2 
  463000    1.1733464   -7.3122275      162.937  0.029326314  0.030042819            1 
  464000    1.1809556   -7.2951657    163.05254  0.029283861  0.030037357            1 
  465000    1.1737767   -7.3469418    163.08983  0.029227569  0.030032331            1 
  466000    1.1922566   -7.3116716     164.0126  0.029329864  0.030027315            2 
  467000    1.1634074   -7.3406995    164.32394  0.029322615  0.030022309            2 
  468000     1.191011   -7.2665159    164.80999  0.029346508   0.03001772            1 
  469000    1.1646157   -7.2855191    165.27963  0.029367383  0.030013075            1 
  470000    1.2053099    -7.289355    165.73231  0.029385162   0.03000874            2 
  471000    1.1964615   -7.2856794    166.02673  0.029374863  0.030004364            2 
  472000    1.1573149   -7.3803726     165.7117  0.029257008  0.029999032            2 
  473000    1.1832558   -7.3300204     166.1805  0.029277748  0.029993904            2 
  474000    1.1641924   -7.3411896    166.43572  0.029260851  0.029989325            3 
  475000    1.1786624   -7.3423681    167.05947  0.029308679  0.029983921            2 
  476000    1.1701187   -7.3461559    167.19065  0.029270071  0.029979206            2 
  477000    1.1694531   -7.4059849    167.17818   0.02920653  0.029974346            4 
  478000    1.1862255   -7.3659509    167.47262  0.029196761  0.029969103            1 
  479000    1.2072605   -7.3096471    168.57825  0.029328158  0.029964197            1 
  480000    1.1689839   -7.3840671    168.18847  0.029199388  0.029959564            4 
  481000    1.1489937   -7.3405527     168.9115  0.029263946  0.029954494            1 
  482000    1.1735348   -7.3372894    168.84622  0.029191947  0.029949846            1 
  483000    1.1567395   -7.3026355    169.74885  0.029287241   0.02994531            2 
  484000    1.1724019   -7.3125104    170.06761  0.029281614  0.029940135            1 
  485000    1.1756045   -7.3146402    170.61889   0.02931596  0.029935275            2 
  486000    1.1721527   -7.3501509    170.59293  0.029251188  0.029930316            1 
  487000    1.1867351   -7.3385252    170.60542  0.029193261  0.029925453            2 
  488000    1.1770175   -7.3546538    171.26282  0.029245701  0.029920963            1 
  489000    1.1780723    -7.327785    171.76524  0.029271514  0.029916171            1 
  490000    1.1616139   -7.3325357    171.20205  0.029115994  0.029911306            1 
  491000    1.1808364   -7.3190731     171.6337  0.029129955     0.029906            2 
  492000    1.1660041   -7.3003444    172.57284  0.029229817  0.029900535            1 
  493000     1.150331   -7.3290629    172.30134  0.029124635  0.029894922            2 
  494000    1.1833747   -7.3539333     172.5161  0.029101907  0.029889304            4 
  495000    1.1874662   -7.3287919    173.68002   0.02923906  0.029883895            3 
  496000    1.1632083   -7.3306184    173.50248  0.029150283  0.029878784            2 
  497000    1.1896703   -7.2806567    174.63736  0.029281919  0.029874465            2 
  498000    1.1600926   -7.3537169     174.8386  0.029256794  0.029870323            1 
  499000    1.1805574   -7.3277639    175.46793  0.029303261  0.029866353            3 
  500000     1.151848   -7.3026729    176.21139  0.029368565  0.029862719            1 
  501000    1.1887598   -7.3513391    175.65954  0.029218153  0.029858749            1 
  502000    1.1695193   -7.2780928    176.69317  0.029331536  0.029854574            2 
  503000     1.178687   -7.3137403    176.87398  0.029303177  0.029850778            1 
  504000    1.1668238     -7.33927    176.86871  0.029244164  0.029847417            1 
  505000    1.1532866   -7.2964345    177.95182  0.029364986  0.029843814            1 
  506000    1.1890737     -7.35262    178.17486  0.029343685  0.029840601            2 
  507000    1.1616247   -7.3136495    178.32422  0.029310358  0.029836694            2 
  508000    1.2015467   -7.3262993    178.56335  0.029291888  0.029832925            3 
  509000    1.1615994   -7.3803166    178.34539  0.029198656  0.029829084            1 
  510000    1.1446278   -7.3338104    179.47774  0.029326428  0.029825028            1 
  511000    1.1505581    -7.326274    179.59321  0.029287868  0.029821472            3 
  512000    1.1690341   -7.3397751    179.50671  0.029216588  0.029817696            1 
  513000    1.1804698   -7.3439028    180.13861  0.029262282  0.029813897            1 
  514000    1.1796816   -7.3527985    179.59203  0.029116736  0.029809887            1 
  515000    1.1608946    -7.344085    180.34701  0.029182363  0.029806398            3 
  516000    1.1705207   -7.3059475    181.41355  0.029298054  0.029802381            6 
  517000     1.182709   -7.3683851    181.35298  0.029231621  0.029798384            2 
  518000    1.1772557   -7.3472745    181.43308  0.029188075  0.029794632            3 
  519000     1.154369    -7.341656    181.27114  0.029105835  0.029790506            1 
  520000    1.1528644   -7.3591854    182.48119   0.02924378  0.029786411            1 
  521000    1.1472673   -7.3564331    183.15249  0.029295024  0.029782678            1 
  522000    1.1550065   -7.2982345    183.52779  0.029298817  0.029778714            1 
  523000     1.157512   -7.3666134    183.22903  0.029195192  0.029774906            2 
  524000    1.1774726     -7.32875    184.18284  0.029291164  0.029771051            2 
  525000    1.1512745   -7.3312815    183.64961  0.029150732  0.029767135            1 
  526000    1.1839594   -7.3400251    183.87201  0.029130547  0.029763498            1 
  527000     1.174418   -7.3812755    184.53703  0.029180428  0.029759426            2 
  528000    1.1678496   -7.3549624    185.16182  0.029223771  0.029755413            1 
  529000    1.1904638   -7.3838878     185.4141   0.02920827  0.029752118            9 
  530000     1.169214   -7.3946555    185.36311  0.029145143  0.029748962            6 
  531000    1.1537652   -7.3506815    187.31266  0.029396212  0.029746201            1 
  532000    1.1945589   -7.3285464    187.02932  0.029296572  0.029743493            2 
  533000    1.1732386   -7.3191903     187.4728  0.029310944  0.029740576            3 
  534000    1.1363875   -7.3227264     187.7908  0.029305681  0.029738181            1 
  535000    1.1701646   -7.3446062    188.35426  0.029338669  0.029735777            2 
  536000    1.1656423   -7.3741804    188.20066  0.029260052  0.029733391            2 
  537000    1.1574112   -7.3157646    188.87241  0.029309809  0.029730586            2 
  538000    1.1567195   -7.3733961    188.56865  0.029208279  0.029727268            1 
  539000    1.1678205   -7.3942859    188.75185  0.029182413  0.029723817            1 
  540000    1.1608721   -7.3379303    188.99532  0.029165944  0.029719797            2 
  541000    1.1572912   -7.3404844    190.11136  0.029283944  0.029715915            1 
  542000    1.1893468   -7.2967519    190.40035  0.029274347  0.029712292            2 
  543000    1.1588798   -7.3239277    191.36025  0.029367748  0.029709561            1 
  544000     1.165318   -7.3288845    191.55638  0.029343808  0.029706936            2 
  545000    1.1610596   -7.3626766    191.02849   0.02920925  0.029703811            1 
  546000    1.1855324   -7.2647714    192.48458  0.029377988  0.029700905            1 
  547000    1.1680566   -7.3308175    191.81672  0.029222535  0.029698205            2 
  548000    1.1964212   -7.3384585    192.40891  0.029259262  0.029695235            4 
  549000    1.1646694   -7.4151484    192.21888  0.029177122  0.029691475            2 
  550000    1.1710687   -7.3329798    193.03346  0.029247494   0.02968809            6 
  551000    1.1807299   -7.3709463    192.81867  0.029161928  0.029684257            1 
  552000    1.1596295   -7.3896305    192.74887  0.029098561  0.029680575            2 
  553000    1.1793587   -7.3375664    193.44422  0.029150726  0.029677003            2 
  554000    1.1810592   -7.3987827    193.33658  0.029081917  0.029673104            1 
  555000    1.1611233   -7.3485109    193.77526  0.029095384  0.029669087            2 
  556000    1.1480912   -7.3658884    193.76934  0.029042167  0.029664979            1 
  557000    1.1564012   -7.3356228    194.71937  0.029132162  0.029660562            2 
  558000    1.1597727   -7.2964061    195.14645  0.029143735    0.0296563            3 
  559000    1.1500052   -7.3805124    194.44376  0.028986846  0.029651618            2 
  560000    1.1550951   -7.3564313    195.01307  0.029019802  0.029646762            1 
  561000    1.1615987   -7.3620854    195.44688  0.029032514  0.029641918            2 
  562000    1.1423952   -7.3616637    195.56868  0.028998915  0.029636646            2 
  563000    1.1491992   -7.3599554    195.38874  0.028920773  0.029631578            1 
  564000     1.184838   -7.3831928    195.99902  0.028959666  0.029626374            3 
  565000    1.1671734    -7.333321    196.78406  0.029024198  0.029620636            5 
  566000     1.148712   -7.3088975    197.00511  0.029005464  0.029615191            2 
  567000    1.1566707   -7.3066459    198.24139  0.029136007  0.029610303            2 
  568000    1.1537223   -7.4107031    197.36027  0.028955439   0.02960554            1 
  569000    1.1511395   -7.3735831    197.46551  0.028919963   0.02960067            2 
  570000    1.1554704    -7.381398    198.07344  0.028958105  0.029595432            1 
  571000    1.1771655   -7.3560789    197.88493  0.028879879  0.029590206            2 
  572000    1.1579613   -7.3738658    198.36634  0.028899524  0.029584362            4 
  573000    1.1502641   -7.3814602    198.68105  0.028894859  0.029578524            2 
  574000    1.1543669   -7.3957029    198.87845  0.028873178   0.02957197            4 
  575000    1.1824237   -7.4076831    199.18719  0.028867708  0.029565533            3 
  576000    1.1460111   -7.3912057     199.6954  0.028891117  0.029559467            4 
  577000    1.1502013   -7.3697619    199.79261  0.028855085  0.029553215            2 
  578000    1.1331528   -7.3061019    200.22518  0.028867529  0.029546997            2 
  579000    1.1722345   -7.3640219     200.7004  0.028886068  0.029541044            3 
  580000    1.1211005   -7.3354704    201.50219  0.028951464  0.029535558            1 
  581000    1.1547312   -7.3691255    201.08768   0.02884218  0.029529946            4 
  582000    1.1614119   -7.3107687    202.05285   0.02893082  0.029523816            2 
  583000    1.1523008   -7.3451413    202.19568  0.028901612  0.029517917            2 
  584000    1.1544161   -7.3304202    201.77245  0.028791731  0.029512031            2 
  585000    1.1729549   -7.3665598    202.24306  0.028809553  0.029506042            2 
  586000     1.146118   -7.3819849    202.79417  0.028838761  0.029500077            1 
  587000    1.1431187   -7.3786463    202.32336  0.028722794  0.029493427            2 
  588000    1.1611792   -7.3422531    203.06521  0.028779082  0.029486751            1 
  589000     1.137302   -7.3798971    203.02021  0.028723855  0.029479856            3 
  590000     1.163433   -7.3237499    203.60409   0.02875764  0.029473556            4 
  591000    1.1558216   -7.4023456    203.73571   0.02872754  0.029467032            2 
  592000    1.1910701   -7.3782001    203.80355  0.028688562  0.029459956            1 
  593000    1.1623302   -7.3787767    204.21474  0.028697968  0.029453284            1 
  594000    1.1399718   -7.3502947    205.09742  0.028773487  0.029446573            2 
  595000    1.1640074   -7.3637054    204.53032  0.028645703  0.029440082            3 
  596000    1.1593925   -7.3794803    205.13541  0.028682244  0.029433659            2 
  597000    1.1461399   -7.4199405    205.15264  0.028636605  0.029426969            2 
  598000    1.1331154   -7.4082209    205.40284  0.028623585  0.029419604            1 
  599000    1.1295359    -7.338691    206.36954  0.028710287   0.02941268            2 
  600000    1.1567104   -7.3708491    205.94755  0.028603826  0.029405633            1 
  601000    1.1505462   -7.3282903    206.77798  0.028671379  0.029398537            2 
  602000       1.1577   -7.3909699    206.60377  0.028599636  0.029391687            2 
  603000    1.1385111   -7.3836868    205.94137  0.028460665  0.029384433            3 
  604000      1.13266   -7.3708666    207.10535  0.028574138  0.029376775            3 
  605000    1.1460554   -7.3572437    207.77251  0.028618803  0.029369348            1 
  606000    1.1530952   -7.4013046    208.18147  0.028627815  0.029362098            3 
  607000    1.1406129   -7.3271903    208.53344  0.028628973  0.029355232            1 
  608000    1.1557399   -7.3548133    208.39825  0.028563356  0.029348284            2 
  609000    1.1437641     -7.36659    209.41149  0.028655103  0.029341395            1 
  610000    1.1574942   -7.4189652    208.81578  0.028526745  0.029334356            3 
  611000    1.1594985   -7.3387545    210.22992  0.028672929  0.029327619            2 
  612000    1.1582247   -7.3507684    210.59698   0.02867606  0.029320929            4 
  613000    1.1591514   -7.4023593    210.52647  0.028619694  0.029314194            4 
  614000    1.1298292   -7.4016788    210.45628  0.028563556   0.02930694            3 
  615000    1.1826861   -7.4286431    210.75007   0.02855692  0.029299809            2 
  616000    1.1529355   -7.3866975    210.91796  0.028533274  0.029292733            3 
  617000     1.158471   -7.3909669    210.86695   0.02848014  0.029285878            1 
  618000    1.1594654   -7.4097174    211.26629  0.028487903  0.029278452            5 
  619000    1.1549255   -7.4207605    211.38753  0.028458203  0.029270868            1 
  620000    1.1504271   -7.3675765    211.84285  0.028473501   0.02926344            3 
  621000    1.1697752   -7.3623102    212.65216  0.028536253    0.0292559            2 
  622000    1.1415778   -7.3518448     213.2257  0.028567217  0.029248242            1 
  623000    1.1198088   -7.3720212    212.62254  0.028440682   0.02924117            4 
  624000    1.1366199   -7.3573594    213.39226  0.028497898  0.029234109            2 
  625000    1.1318284   -7.3563456    213.92705  0.028523607  0.029227083            7 
  626000    1.1389701   -7.3692498    213.81127  0.028462629  0.029220036            2 
  627000    1.1587521   -7.3964128      213.977   0.02843926  0.029212694            2 
  628000    1.1390807   -7.3446197    214.66961  0.028485883   0.02920545            1 
  629000    1.1630037   -7.3569056    214.49426  0.028417363  0.029198218            1 
  630000    1.1781239   -7.4271511    214.95593  0.028433324  0.029191023            2 
  631000    1.1600725   -7.4321171    215.19292  0.028419561  0.029184236            2 
  632000    1.1175262   -7.4014739    216.09917  0.028494089  0.029177352            2 
  633000    1.1699221    -7.440315    215.91869  0.028425315  0.029170548            2 
  634000    1.1607101   -7.3981333    216.78436  0.028494264  0.029164145            1 
  635000    1.1733195   -7.3670432    217.78934  0.028581278   0.02915789            2 
  636000    1.1534942   -7.3635916    217.37537  0.028482098  0.029151518            2 
  637000    1.1350979   -7.3744441     217.5163  0.028455822  0.029145036            3 
  638000    1.1453984   -7.4150537    217.45633  0.028403386  0.029138152            3 
  639000    1.1496536   -7.4204714    217.70946  0.028391948  0.029130899            2 
  640000    1.1537958   -7.3591521    218.27958   0.02842182  0.029123776            2 
  641000    1.1533656   -7.4100107    218.03821  0.028346101  0.029116868            2 
  642000    1.1755171   -7.4175554    218.21961  0.028325494  0.029109751            3 
  643000    1.1681003   -7.3907843    219.09359  0.028394711   0.02910218            2 
  644000    1.1554356   -7.3757798    219.82556  0.028445336  0.029094419            4 
  645000    1.1488832   -7.4171034    219.28777  0.028331753  0.029086773            1 
  646000    1.1455268   -7.4051604    219.57039  0.028324353  0.029078923            4 
  647000    1.1634525   -7.4634686    218.63253   0.02815978   0.02907092            3 
  648000     1.141762   -7.3691002    220.09824  0.028304815  0.029062879            1 
  649000    1.1149268   -7.3873961    220.44985  0.028306349  0.029055136            2 
  650000    1.1524677    -7.352867    220.42326  0.028259392  0.029047509            2 
  651000    1.1503968   -7.4035793    221.42474  0.028344181  0.029040071            2 
  652000    1.1495908   -7.3999895      221.203  0.028272367  0.029032709            1 
  653000    1.1223137   -7.4160735    221.58657  0.028278021   0.02902529            3 
  654000    1.1460602   -7.4293682    220.77245  0.028131046  0.029017621            4 
  655000    1.1643729   -7.3827337    222.26788  0.028278356  0.029009975            2 
  656000    1.1481926   -7.4349717    221.77058  0.028172076  0.029002059            2 
  657000    1.1285969   -7.3600594    224.00258  0.028412301  0.028994843            1 
  658000    1.1227484   -7.3533371    224.08846  0.028379997  0.028987987            1 
  659000    1.1474811   -7.3951926    222.97238  0.028195799   0.02898056            3 
  660000    1.1477133   -7.3985545    224.11353  0.028297163  0.028973439            5 
  661000    1.1637749    -7.411767    224.39688  0.028290076  0.028966254            4 
  662000    1.1386097   -7.4376015    223.61176  0.028148509  0.028958911            2 
  663000    1.1507517   -7.3936345    223.73434   0.02812146  0.028951072            2 
  664000    1.1386494   -7.3907605    224.08917  0.028123641  0.028943297            1 
  665000    1.1599577   -7.3669869    225.71789   0.02828545  0.028935727            3 
  666000    1.1441527   -7.3523761    225.87829   0.02826305  0.028928647            1 
  667000    1.1288181   -7.4575969    224.97318  0.028107594  0.028921207            1 
  668000    1.1472053    -7.399459    225.67564  0.028153148  0.028913715            3 
  669000    1.1552572   -7.4104569    225.12845  0.028042906  0.028905861            3 
  670000    1.1405924   -7.3834325    226.97197  0.028230345  0.028898108            1 
  671000    1.1275266    -7.419526    226.37076  0.028113606  0.028890157            5 
  672000    1.1419439   -7.3965639    227.59961  0.028224159  0.028882211            1 
  673000    1.1646879   -7.4353207    226.90124  0.028095745  0.028874185            1 
  674000    1.1393573   -7.3954661    227.50409  0.028128596  0.028866544            2 
  675000    1.1468639   -7.3745216    228.48633  0.028208189   0.02885905            1 
  676000    1.1410564   -7.4006509    228.76128  0.028200355  0.028851587            5 
  677000    1.1604022      -7.4613    227.81735   0.02804251  0.028843927            3 
  678000    1.1409629   -7.3940715    229.04195  0.028151666  0.028836555            2 
  679000    1.1298578   -7.4215039    229.01933  0.028107429  0.028829326            3 
  680000    1.1317785   -7.4124435    229.57013  0.028133594  0.028821718            1 
  681000    1.1565408   -7.3204003    230.97764  0.028264518  0.028814563            2 
  682000    1.1144037   -7.3492375     230.3774  0.028149731  0.028807374            2 
  683000    1.1476018    -7.383331    230.75508  0.028154597   0.02880011            1 
  684000    1.1365622   -7.3823819    230.33693  0.028062492  0.028792798            2 
  685000    1.1385095   -7.4093214    230.90252  0.028090331  0.028785385            1 
  686000    1.1520208   -7.4615813    230.37079   0.02798479  0.028777531            3 
  687000    1.1334393   -7.3967086    230.65281  0.027978264  0.028769971            1 
  688000    1.1395404   -7.4015821    231.86227  0.028084093  0.028762409            3 
  689000    1.1430907   -7.3969536     231.7955  0.028035257  0.028754721            2 
  690000    1.1229394   -7.3939948    232.46536  0.028075526  0.028746926            2 
  691000    1.1385058    -7.417584      232.523  0.028041847   0.02873967            4 
  692000     1.126991   -7.3543057    233.84501  0.028160526  0.028732481            2 
  693000    1.1402081   -7.4141343     232.7675  0.027990319  0.028725321            3 
  694000    1.1347399   -7.3971323    233.65152  0.028056139  0.028718167            2 
  695000    1.1309572   -7.4146517    233.70618  0.028022324  0.028710879            8 
  696000    1.1275454   -7.3840738    233.78702   0.02799174  0.028703521            2 
  697000    1.1603264   -7.4010821    234.90285  0.028084989  0.028696426            2 
  698000    1.1393572   -7.4411554    234.25912  0.027967899  0.028688836            3 
  699000    1.1344763   -7.4032178    234.86348  0.027999938  0.028681771            6 
  700000    1.1509919   -7.3905752    235.71712  0.028061562  0.028674587            2 
  701000    1.1191951   -7.4383577     235.1426  0.027953233  0.028667165            3 
  702000    1.1301035    -7.415638    236.25668  0.028045665  0.028659688            3 
  703000    1.1403801   -7.3861702    236.50222  0.028034877  0.028652312            1 
  704000      1.13565    -7.383464    235.79392  0.027911212    0.0286449            1 
  705000    1.1473383   -7.4312676    236.12332  0.027910557  0.028637415            1 
  706000    1.1531284   -7.4403653    235.50346  0.027797859  0.028629946            2 
  707000    1.1377306    -7.347351       238.22  0.028078736  0.028622488            2 
  708000    1.1363407   -7.4385559    236.91287  0.027885225  0.028615013            2 
  709000    1.1510932   -7.3581234    237.96804  0.027969916  0.028607508            2 
  710000    1.1552825   -7.4448219    237.05451    0.0278233    0.0286002            1 
  711000    1.1409457   -7.3681827    239.26983  0.028043814   0.02859266            1 
  712000    1.1315175   -7.4564696    236.96808  0.027735028  0.028584805            2 
  713000    1.1359753    -7.422249    237.98084  0.027814498  0.028576813            2 
  714000    1.1394192   -7.3700291    239.45532  0.027947633  0.028568939            2 
  715000    1.1345756   -7.3951267     239.0807  0.027864883  0.028561068            4 
  716000    1.0988458   -7.4321419    239.27092  0.027848106  0.028553239            1 
  717000    1.1258675   -7.4330243    239.45611  0.027830789  0.028545279            1 
  718000    1.1146525   -7.4093947    240.02313  0.027857838  0.028537546            2 
  719000    1.1124875   -7.4130998    240.53033  0.027877878  0.028529671            1 
  720000     1.140368   -7.3665822    240.65825  0.027853964  0.028522079            7 
  721000    1.1309161   -7.3957129    240.43054  0.027789013  0.028513878            2 
  722000    1.1395389   -7.4573757    240.69171  0.027780668  0.028505503            1 
  723000    1.1314303   -7.4193293    241.33052  0.027815874  0.028497173            2 
  724000    1.1643726   -7.4190534    241.41407   0.02778707  0.028489156            2 
  725000    1.1413208   -7.4233452    241.13967  0.027717204  0.028480912            3 
  726000    1.1401016   -7.4530316    241.65882  0.027738615   0.02847258            3 
  727000    1.1251878   -7.4301707     240.8458  0.027607267   0.02846389            2 
  728000    1.1444883   -7.4078397    242.65716  0.027776689  0.028455487            3 
  729000    1.1397367   -7.4118645    242.62171  0.027734535  0.028447307            1 
  730000    1.1512995   -7.3882997    242.51139  0.027683949  0.028438996            4 
  731000    1.1224311   -7.3959416    242.26358  0.027617827  0.028430505            3 
  732000    1.1314769   -7.4195117    243.49402  0.027720175  0.028422195            2 
  733000    1.1579958   -7.3963277    243.62393  0.027697127  0.028413817            2 
  734000    1.1361959   -7.4334247    243.51004  0.027646462  0.028405595            2 
  735000    1.1218404   -7.4099114     243.4767  0.027605069  0.028397001            1 
  736000    1.1264898   -7.4173449    244.28195  0.027658735  0.028388678            1 
  737000    1.1299586   -7.4110074    245.59033  0.027769147  0.028380657            1 
  738000    1.1434152   -7.4207106    245.20001  0.027687445  0.028372614            2 
  739000    1.1539345   -7.3722389    246.72185  0.027821589  0.028365017            1 
  740000    1.1156711   -7.4474453    245.28621   0.02762232  0.028357282            3 
  741000    1.1100928   -7.4105899    247.13688  0.027793171  0.028349588            3 
  742000    1.1395549   -7.4501684    246.24575  0.027655633  0.028341925            1 
  743000    1.1331078   -7.4141026    246.80666  0.027681322  0.028334241            3 
  744000    1.1353352   -7.4516289     248.0769  0.027786391  0.028326599            1 
  745000    1.1503639   -7.4265065    247.24962  0.027656557  0.028318845            3 
  746000    1.1473616   -7.4120225     247.6755  0.027667058  0.028311387            2 
  747000    1.0887628   -7.4239715    247.66156  0.027628465  0.028303916            2 
  748000    1.1349519   -7.4210295    248.18888  0.027650276  0.028296225            1 
  749000    1.1425352   -7.4073549    248.89159  0.027691544  0.028288903            2 
  750000    1.1088948   -7.4146679    248.82103  0.027646781  0.028281476            2 
  751000    1.1366765   -7.4237578    249.26808  0.027659574  0.028274071            4 
  752000    1.1229712   -7.4125593    249.95649   0.02769908  0.028266637            2 
  753000    1.1386289   -7.4220577    249.78873  0.027643728  0.028259066            2 
  754000    1.1336323   -7.4114666    250.11797  0.027643454  0.028251917            1 
  755000    1.1266141    -7.439317    250.46894  0.027645578    0.0282447            2 
  756000    1.1057897   -7.4754056     249.7752   0.02753254  0.028237601            2 
  757000    1.1536516   -7.4792328    250.88754  0.027618619  0.028230148            3 
  758000    1.1365775   -7.4428601    251.49951  0.027649463   0.02822253            1 
  759000    1.1288266   -7.4341869    251.30417  0.027591587  0.028214911            2 
  760000    1.1287631   -7.4451944     251.7172  0.027600571  0.028207254            3 
  761000    1.1418937   -7.4591387    251.80095  0.027573472  0.028199692            2 
  762000    1.1081388   -7.4072388    252.46259  0.027609645   0.02819241            3 
  763000    1.1449304   -7.4332298    252.90366  0.027621632  0.028185313            2 
  764000    1.1481128   -7.4204652    252.71874  0.027565308  0.028177932            1 
  765000    1.1219228   -7.5082659    252.61789  0.027518289  0.028170286            5 
  766000    1.1265383   -7.4357237    253.39206  0.027566587  0.028162656            4 
  767000    1.1346285   -7.4729668    253.82097  0.027577245  0.028154853            2 
  768000    1.1362455   -7.4409606    253.27824  0.027482448  0.028147473            2 
  769000    1.0991428   -7.4093776    254.58555  0.027588378  0.028140101            1 
  770000    1.1387337   -7.4830773    253.95686  0.027484509  0.028132802            2 
  771000     1.114563   -7.4447301    254.31249  0.027487299  0.028125351            1 
  772000    1.1590036    -7.464826    254.61124  0.027483943   0.02811794            3 
  773000    1.1228266   -7.4675492    254.74814  0.027463145  0.028110223            9 
  774000    1.1247156   -7.4586891    254.69039  0.027421446  0.028102637            2 
  775000    1.1315177   -7.4731705    255.73277  0.027498148   0.02809485            5 
  776000    1.1013558    -7.440961    255.95596   0.02748668  0.028087197            1 
  777000    1.1233818   -7.4407584    256.19366  0.027476798  0.028079904            3 
  778000     1.120168   -7.4390457    257.09112  0.027537609  0.028072256            8 
  779000    1.1199906   -7.4502579    257.23679  0.027517843  0.028064814            1 
  780000    1.1231953   -7.4509255    256.85042  0.027441285  0.028057688            2 
  781000    1.1483639   -7.4146065    257.82837  0.027510496  0.028050131            3 
  782000    1.1409522    -7.448226    258.11787  0.027506167  0.028043108            5 
  783000    1.1280781   -7.4972624     257.7647   0.02743345  0.028035861            1 
  784000    1.1463023   -7.4300332    258.92733  0.027522037    0.0280287            2 
  785000    1.1351319   -7.4419962    258.82831  0.027476466  0.028021516            2 
  786000    1.1201918    -7.402855    259.52261   0.02751512   0.02801439            1 
  787000    1.1550511   -7.4527823    259.30332  0.027456938  0.028007211            2 
  788000    1.1336131   -7.4568071    259.50582  0.027443509  0.027999859            1 
  789000    1.1629702   -7.4213969    260.08912  0.027470334  0.027992642            4 
  790000    1.1215721   -7.4025993    259.96274  0.027422229  0.027985893            1 
  791000    1.1026205   -7.4521149    260.64003  0.027458916  0.027978996            2 
  792000    1.1095588   -7.4327559    260.80898  0.027442022  0.027971803            4 
  793000     1.122493   -7.4358428    260.41796  0.027366327  0.027964344            3 
  794000    1.1361987   -7.4580583    260.59435  0.027350373  0.027956809            2 
  795000    1.1325172   -7.4707557    261.22904  0.027382499  0.027949307            3 
  796000    1.1363001   -7.4356113    261.32612  0.027358262  0.027941828            2 
  797000    1.1357434    -7.459466    260.59639  0.027247636  0.027934272            3 
  798000    1.1528304   -7.4716346    261.03095  0.027258871  0.027926481            3 
  799000    1.1271256   -7.4564676    260.77959  0.027198539  0.027919028            2 
  800000    1.1140361   -7.4918953    261.54371  0.027244137  0.027910783            1 
  801000     1.136045   -7.4383908    261.85436  0.027242443  0.027902518            3 
  802000    1.1084082   -7.4704486    262.06437  0.027230296  0.027894516            4 
  803000    1.0974534    -7.461721    262.88428  0.027281474  0.027886315            2 
  804000    1.1491201   -7.4557877    263.09175  0.027269046  0.027878308            2 
  805000    1.1213903    -7.433565     263.6391  0.027291832  0.027870342            1 
  806000    1.1240095   -7.4559418    264.11402  0.027307074  0.027862367            2 
  807000    1.1423681   -7.4489042    263.96251  0.027257591  0.027854507            3 
  808000    1.1383638    -7.454563    263.66913  0.027193598   0.02784649            3 
  809000    1.1264059   -7.4705398    263.88599  0.027182323  0.027838152            3 
  810000    1.1187769   -7.4849054    263.84267  0.027144308  0.027829679            3 
  811000    1.1216021   -7.4858521    263.62277  0.027088242  0.027821174            1 
  812000    1.1396371   -7.4502548    264.28744  0.027123096    0.0278128            3 
  813000    1.1104755    -7.434382    265.06403  0.027169335  0.027804527            1 
  814000     1.138645   -7.4496497     265.1154  0.027141216  0.027796388            3 
  815000    1.1296562   -7.4605982    264.52223  0.027047263  0.027787968            1 
  816000    1.1366443   -7.4444447    265.68003  0.027132356  0.027779427            1 
  817000    1.1354613   -7.4381792    265.70415  0.027101606  0.027771169            2 
  818000    1.1119976   -7.4633297    266.19767  0.027118752  0.027762902            1 
  819000    1.1237332   -7.4520833    266.18519   0.02708437  0.027754764            1 
  820000    1.1174125   -7.5125724    265.69436  0.027001459  0.027746385            2 
  821000    1.1127241   -7.4745236    266.99274  0.027100359  0.027738005            3 
  822000     1.121054   -7.5027854    266.25886  0.026992991  0.027729397            1 
  823000    1.1241507    -7.476208    266.32763  0.026967155  0.027720581            3 
  824000    1.1277437   -7.4682374    266.90898  0.026993222  0.027711816            4 
  825000    1.1294029   -7.4748497    266.74598  0.026944038  0.027702995            2 
  826000    1.1405141   -7.4968076    266.99992  0.026937038  0.027694235            2 
  827000    1.0793883   -7.4402403     268.5746   0.02706314   0.02768568            3 
  828000    1.1129143   -7.4707202    268.59784  0.027032794  0.027677178            2 
  829000    1.1579203   -7.4693187    268.88888  0.027029441  0.027668834            1 
  830000      1.11088   -7.4456818    268.86908  0.026994887  0.027660508            2 
  831000    1.1164357   -7.4609513    268.99839   0.02697537   0.02765239            3 
  832000     1.119072   -7.4472307    270.06367  0.027049647  0.027644016            4 
  833000    1.1171819   -7.4567666    270.65908  0.027076739  0.027635907            5 
  834000    1.1332545   -7.4493591    270.22572  0.027000972  0.027627875            2 
  835000    1.1248504   -7.4387697      270.733  0.027019261  0.027620025            1 
  836000     1.118144   -7.4917565    269.73538  0.026887498  0.027612026            1 
  837000    1.1079215   -7.4697887    271.07348  0.026988598  0.027603758            1 
  838000    1.1252179   -7.4662197    270.74837  0.026924063  0.027595603            2 
  839000    1.1384107   -7.4785052    271.19616  0.026936449  0.027587448            4 
  840000    1.1223121   -7.4584805    272.53116  0.027036821  0.027579309            1 
  841000    1.1211754   -7.4757063    271.96339  0.026948413  0.027571265            3 
  842000    1.1127278   -7.4566096    272.35273  0.026954941  0.027563329            3 
  843000    1.1115296   -7.4217456    273.65809  0.027052005  0.027555341            1 
  844000    1.1099179   -7.5025771    273.39154  0.026993635  0.027547444            5 
  845000    1.1132229   -7.4789502    273.10087  0.026933025  0.027539724            4 
  846000      1.13393   -7.5241986    272.87729  0.026879165  0.027532257            1 
  847000    1.1369579   -7.4346918    274.59215   0.02701615  0.027524777            3 
  848000    1.1158232   -7.4620869    274.54273  0.026979435  0.027517386            2 
  849000    1.0991934   -7.4580227     275.5092  0.027042521  0.027510118            2 
  850000    1.1113913   -7.5316248    274.56796  0.026918427  0.027502733            1 
  851000    1.1316828   -7.4386718    275.48137   0.02697624  0.027495413            2 
  852000    1.1129893   -7.4985347    276.17364  0.027012289  0.027488387            3 
  853000    1.1313966   -7.4919556    276.42636   0.02700531   0.02748169            1 
  854000    1.1129562   -7.4459738    277.84997  0.027112605  0.027474801            2 
  855000    1.1273397   -7.4938515    277.28459  0.027025788  0.027467799            4 
  856000    1.0940859   -7.5327335    275.85389  0.026854935   0.02746045            3 
  857000     1.109965    -7.500386    276.76846   0.02691253   0.02745317            2 
  858000    1.1205441   -7.4781004     278.2673  0.027026738  0.027446178            3 
  859000    1.1181081   -7.4554323    279.10726  0.027076762  0.027439138            3 
  860000    1.1395607   -7.4991684    278.39069  0.026975842  0.027432275            2 
  861000    1.1101183   -7.5047899    278.93271  0.026996971  0.027425542            2 
  862000     1.095009   -7.4990465    278.96273  0.026968554  0.027418576            3 
  863000    1.1024493   -7.4733859    279.47881  0.026987139  0.027411577            6 
  864000    1.1063063    -7.459008    279.12308  0.026921593  0.027404538            1 
  865000    1.1385467   -7.4814668    279.92107  0.026967347  0.027397472            3 
  866000    1.1291355   -7.4997402    279.65215   0.02691033   0.02739036            4 
  867000    1.1625543    -7.519754    279.57552  0.026871926  0.027382972            2 
  868000     1.093676   -7.4926922    279.46679  0.026830529  0.027375812            2 
  869000    1.1020551    -7.529974    279.44798   0.02679785  0.027368586            2 
  870000    1.1028049   -7.4829398    280.20794  0.026839841  0.027361345            2 
  871000    1.1062421   -7.5144305    280.02941  0.026791945  0.027354138            3 
  872000    1.0927588   -7.4695568    281.74944  0.026925596  0.027346882            3 
  873000    1.1294492   -7.4761944    281.20018  0.026842323   0.02733968            1 
  874000    1.0991699   -7.4756315    281.34124  0.026825061   0.02733235            1 
  875000    1.1080169   -7.4791363    281.97408  0.026854675  0.027324966            1 
  876000    1.1409448   -7.4683669    282.09677   0.02683569  0.027317639            2 
  877000    1.0872675   -7.4894696    282.01232  0.026797066  0.027310247            3 
  878000    1.1139059   -7.4785412    281.55272  0.026722923   0.02730261            2 
  879000    1.1050559   -7.5236938    281.60018  0.026697021  0.027294733            3 
  880000    1.0797672    -7.480395    282.12659  0.026716533  0.027286931            4 
  881000    1.1032247    -7.480097    282.35276  0.026707601  0.027279239            2 
  882000    1.1088566   -7.4854614    283.36253  0.026772726  0.027271373            2 
  883000    1.0966455      -7.4418    284.34496  0.026835123  0.027263746            5 
  884000    1.1298684   -7.4921822    283.52101  0.026727094  0.027256309            2 
  885000    1.1088086   -7.4996773    283.60622  0.026704917  0.027248526            3 
  886000     1.107803   -7.4736686    284.31419  0.026741365  0.027240983            2 
  887000    1.0969186   -7.4677503    284.60659  0.026738688  0.027233686            1 
  888000    1.1143236   -7.4752357    284.69356  0.026716738  0.027226088            2 
  889000    1.0643071   -7.4908864    284.41596  0.026660663  0.027218449            2 
  890000    1.0991578    -7.507744    285.37855  0.026720838   0.02721084            2 
  891000    1.1206785   -7.5602373    284.46089  0.026605022  0.027203192            2 
  892000    1.1267381   -7.4918235    284.67758  0.026595439  0.027195363            2 
  893000    1.0998454   -7.4892231    285.86687   0.02667664  0.027187858            2 
  894000    1.1247176   -7.4902261    286.04939  0.026663813  0.027180241            2 
  895000    1.0946008   -7.4830232    285.45921  0.026579069  0.027172415            1 
  896000    1.1434867   -7.4865491    286.99283  0.026692041  0.027164803            1 
  897000    1.0950054    -7.463146    287.08535   0.02667088  0.027157062            2 
  898000    1.1019703   -7.4511577    286.97548  0.026630983  0.027149161            2 
  899000    1.1308585    -7.484689    287.34668  0.026635769  0.027141231            5 
  900000    1.1070623   -7.4781919    287.70363  0.026639225   0.02713346            7 
  901000    1.0862627   -7.4456311    288.03317  0.026640138  0.027126037            3 
  902000    1.1272762   -7.4668387    288.69408  0.026671663   0.02711847            1 
  903000    1.0848304   -7.4996942    288.35441  0.026610779  0.027110717            2 
  904000    1.1090959   -7.5094415    287.85141  0.026534976  0.027102943            3 
  905000     1.104697   -7.4740269    289.01341  0.026612653  0.027095385            1 
  906000     1.122213   -7.4600555    290.01757  0.026675641   0.02708803            2 
  907000    1.0964792    -7.537501    288.70746   0.02652586  0.027080408            3 
  908000    1.1034463   -7.4999666    289.63773  0.026582024  0.027072768            1 
  909000    1.0861579   -7.4963219    289.31947  0.026523604  0.027065157            2 
  910000    1.0976033   -7.4968165    289.51795  0.026512633  0.027057691            1 
  911000    1.1092781    -7.503767    290.77367  0.026598397  0.027049942            2 
  912000    1.1073888   -7.4678882    290.54813  0.026548623  0.027042362            4 
  913000       1.1232   -7.4845484    291.65212   0.02662031  0.027035058            1 
  914000    1.1060843   -7.4924916    291.64722  0.026590738   0.02702768            2 
  915000    1.0905512   -7.4962164    290.75751  0.026480648  0.027020213            2 
  916000    1.1095003    -7.494523    291.91487   0.02655703  0.027012616            2 
  917000    1.0899279   -7.4706308    293.11659  0.026637277  0.027005245            1 
  918000     1.079524    -7.532674    291.59228  0.026469887  0.026997757            2 
  919000    1.0955844    -7.485364    292.35385  0.026510142  0.026990241            1 
  920000    1.1121617   -7.5025002    292.68326  0.026511165  0.026982918            3 
  921000    1.1135002   -7.4772178    292.25758  0.026443863  0.026975955            2 
  922000    1.1052516   -7.4662404    294.04788  0.026576996  0.026968549            2 
  923000    1.0777927   -7.5142688    292.91636  0.026446042  0.026961022            2 
  924000    1.0870219   -7.4877927    294.25004  0.026537702  0.026953753            2 
  925000    1.1190203   -7.4900851    294.54533  0.026535616  0.026946613            2 
  926000    1.0885617   -7.5113046    293.73487  0.026434024  0.026939282            3 
  927000    1.1241694   -7.5214211    294.15988  0.026443715  0.026931736            2 
  928000    1.1194268   -7.4951083    294.68503  0.026462377  0.026924317            2 
  929000    1.0826503   -7.5092008    295.60488  0.026516405  0.026916893            3 
  930000    1.0960585   -7.5346505    295.19011  0.026450726  0.026909348            4 
  931000    1.1154293   -7.5125502    293.98416  0.026314371  0.026901848            7 
  932000    1.1201113   -7.5178213    295.48524  0.026420354  0.026894256            3 
  933000    1.1091361   -7.5369407    295.09695  0.026357355  0.026886632            2 
  934000    1.1088821   -7.4860038    295.60983  0.026374895  0.026879061            1 
  935000    1.1086159   -7.4552796    296.58316  0.026433436  0.026871452            5 
  936000    1.0942773   -7.4600663    296.28404  0.026378565  0.026864011            1 
  937000    1.1113345   -7.5330504    296.13322  0.026336999  0.026856541            3 
  938000    1.0927931   -7.5291774     296.2707  0.026321135  0.026848825            2 
  939000     1.103373   -7.5129662    296.85666  0.026345107  0.026841226            1 
  940000    1.1096956   -7.4495633    297.21378  0.026348739  0.026833548            1 
  941000    1.1127097   -7.4962792    298.11769  0.026400788  0.026825985            2 
  942000    1.1203555   -7.5475296    298.57397  0.026413126  0.026818531            1 
  943000    1.0935906   -7.5406351    297.75754  0.026312968  0.026811155            2 
  944000     1.097012   -7.5133781    298.36121  0.026338383  0.026803692            2 
  945000    1.0848148   -7.4960353    298.81941  0.026350918  0.026796367            3 
  946000    1.0973758   -7.5412789    298.21401  0.026269733  0.026788746            4 
  947000    1.1131841   -7.5309642    298.64908  0.026280278  0.026781141            1 
  948000    1.0790777   -7.5232596    298.18709  0.026211946  0.026773689            2 
  949000    1.1126855   -7.5239882    298.63569  0.026223717  0.026765994            1 
  950000    1.1055562   -7.5225672    300.18746  0.026332233  0.026758529            1 
  951000    1.1073179   -7.4677802    300.32003  0.026316161  0.026751163            2 
  952000    1.0858993    -7.497649    300.33643  0.026289953  0.026743771            2 
  953000    1.0954482   -7.5056555    299.79881  0.026215356  0.026736172            3 
  954000    1.0928632    -7.531464    301.45062  0.026332164  0.026728705            2 
  955000    1.0871875   -7.4990516      302.165  0.026366929  0.026721324            3 
  956000     1.090756   -7.4838296    301.52775  0.026283799  0.026714108            2 
  957000     1.083932   -7.5235335    301.24577  0.026231781  0.026706702            1 
  958000    1.1137961   -7.5542548    301.14094   0.02619528  0.026699216            2 
  959000    1.1043084    -7.485599    302.99976  0.026329489  0.026692028            2 
  960000    1.1102398   -7.5413877    301.06801  0.026134376  0.026684846            2 
  961000     1.128126   -7.5456429    303.18136  0.026290441  0.026677487            4 
  962000    1.0775385   -7.5416698    302.56218  0.026209475  0.026669997            1 
  963000    1.0920887   -7.5771122    302.98659  0.026218985  0.026662727            3 
  964000    1.1100716   -7.5379561    303.52403  0.026238246  0.026655448            4 
  965000    1.1114177   -7.5863993    302.89187  0.026156466   0.02664816            2 
  966000    1.0985679    -7.521831      304.259  0.026247326  0.026641082            2 
  967000    1.0922858   -7.5222873    305.23956  0.026304684  0.026633997            2 
  968000    1.1284973    -7.548945    303.86456  0.026159139  0.026626708            3 
  969000    1.0773785   -7.5317333    304.67191  0.026201575  0.026619443            1 
  970000    1.1042926    -7.501897    304.91628  0.026195557  0.026612319            1 
  971000    1.0779712    -7.534169    304.60412  0.026141789  0.026604996            3 
  972000    1.0815942   -7.4957698    306.10124  0.026243247  0.026597693            2 
  973000    1.0776455   -7.5035188    306.19168  0.026224022  0.026590658            1 
  974000    1.1096667    -7.475464    305.60355  0.026146779  0.026583352            1 
  975000    1.1015044   -7.4793752    305.41482  0.026103831  0.026576122            5 
  976000     1.080201   -7.5342687    304.88635  0.026031963  0.026568707            2 
  977000    1.1244172   -7.5111667    307.23503  0.026205649  0.026561166            4 
  978000    1.0876268   -7.5943261    304.58485  0.025953038  0.026553657            1 
  979000    1.0948846   -7.5119242    306.31187  0.026073533  0.026546187            4 
  980000    1.0835164   -7.5599821    306.14383  0.026032639  0.026538796            2 
  981000     1.111681   -7.5543161     307.3459  0.026108214  0.026531397            3 
  982000    1.0890855    -7.558348    306.88145  0.026042214  0.026523985            4 
  983000     1.080225    -7.543867    308.56927  0.026158805  0.026516454            2 
  984000    1.0836745   -7.5006214    308.03996  0.026087395   0.02650896            2 
  985000    1.1247484   -7.5350292    308.01026  0.026058398   0.02650155            3 
  986000    1.0896422   -7.5119395    308.51671  0.026074773  0.026494094            2 
  987000    1.0769596   -7.5148595    308.21656  0.026023013  0.026486711            1 
  988000    1.1125344   -7.5205476    308.27176  0.026001329  0.026479243            2 
  989000    1.0944371   -7.5976722     308.1737  0.025966776  0.026471482            3 
  990000    1.0948362   -7.5464949    308.70063  0.025984902  0.026463769            2 
  991000    1.0869175   -7.5541053    308.39662  0.025933117  0.026456239            2 
  992000    1.1034103    -7.502391    310.41672  0.026076674  0.026448509            1 
  993000    1.0752833   -7.5429755    309.74471  0.025994018   0.02644097            2 
  994000    1.0822633   -7.5256816    309.67927   0.02596238  0.026433321            5 
  995000    1.0940813   -7.5022325    310.79175   0.02602946  0.026425554            3 
  996000    1.1098358    -7.545157    309.89036  0.025927908  0.026417872            2 
  997000    1.0784948   -7.5346764    310.69528   0.02596918  0.026410104            3 
  998000    1.0800481   -7.5525152    310.08473  0.025892178  0.026402199            2 
  999000     1.081569   -7.5353677    310.14529  0.025871312  0.026394302            5 
 1000000    1.0804117   -7.5325692    311.94747  0.025995623  0.026386655            6 
 1001000    1.0915562   -7.5588503    311.53687  0.025935471  0.026379104            2 
 1002000    1.0906789   -7.5380053     311.5402  0.025909864  0.026371756            2 
 1003000    1.0833686   -7.4801521    312.46927  0.025961222  0.026364464            2 
 1004000    1.0852405   -7.5146848     312.0063  0.025896937  0.026357103            4 
 1005000    1.0880525   -7.5246357    311.80358   0.02585436  0.026349667            1 
 1006000    1.0895517   -7.5532512     312.8325  0.025913892  0.026342238            2 
 1007000    1.0765887   -7.5165424    312.47511  0.025858583  0.026334808            2 
 1008000     1.087029   -7.5627568    313.61562  0.025927217  0.026327335            3 
 1009000    1.0996033   -7.5420826    313.69467   0.02590805  0.026319691            5 
 1010000    1.1052043   -7.5073521    314.49503  0.025948434  0.026312298            2 
 1011000    1.0765255    -7.557385    314.13211  0.025892854  0.026304894            2 
 1012000    1.1079995   -7.5277921     315.6424  0.025991634  0.026297643            2 
 1013000    1.1112857   -7.5426675     314.6239   0.02588219  0.026290423            3 
 1014000     1.074578   -7.5073514    315.04784  0.025891505   0.02628326            2 
 1015000    1.0880985   -7.5747592     314.6524   0.02583353  0.026276145            3 
 1016000    1.0908983   -7.5756669    315.27843  0.025859451   0.02626892            2 
 1017000    1.0837448   -7.5196847    316.68837  0.025949555  0.026261868            2 
 1018000    1.0988901   -7.5678278    315.87029  0.025857097  0.026254826            1 
 1019000    1.0921723   -7.5439578    316.30219  0.025867042  0.026247819            4 
 1020000    1.1046458   -7.5364031     315.5771  0.025782443  0.026240523            2 
 1021000    1.1022768   -7.5316437    316.44429   0.02582797  0.026233148            5 
 1022000    1.0799012   -7.5369447    315.96936  0.025763973  0.026225654            2 
 1023000    1.0983551   -7.5762736    316.98613  0.025821613  0.026218105            3 
 1024000    1.1028897   -7.5228994    317.52096  0.025839922  0.026210662            1 
 1025000    1.0707824   -7.5499604    317.20641  0.025789139  0.026203105            3 
 1026000     1.110887   -7.5237611    316.81345  0.025732087  0.026195516            5 
 1027000    1.0908282   -7.5790942    317.04687  0.025725971  0.026187848            2 
 1028000    1.1016006    -7.602348    317.20056  0.025713404      0.02618            3 
 1029000    1.0825338   -7.6191958     316.1727  0.025605175  0.026172114            2 
 1030000    1.1002282   -7.5205665    318.78144  0.025791379  0.026164658            3 
 1031000    1.0974541   -7.5841907    318.36094  0.025732375  0.026157201            2 
 1032000    1.1238088   -7.5651465    318.48704  0.025717623  0.026149765            2 
 1033000    1.0644282   -7.5385359    318.25812  0.025674259   0.02614252            2 
 1034000    1.0886497   -7.5265178    319.29438  0.025732945  0.026135232            4 
 1035000    1.1083258   -7.5560575    319.44341  0.025720081  0.026128021            1 
 1036000    1.0946256   -7.5818345    319.42461  0.025693743  0.026120606            2 
 1037000    1.0885213   -7.5511327    320.09035  0.025722465  0.026113303            3 
 1038000    1.0708646    -7.536458    321.29405   0.02579432  0.026106157            4 
 1039000    1.0767234   -7.5295516    321.08999  0.025753127  0.026099142            2 
 1040000    1.0921509   -7.5368972    321.31777  0.025746616  0.026092259            4 
 1041000    1.0999629   -7.5373506    320.74703  0.025676196  0.026085177            3 
 1042000    1.1068939    -7.585481    320.58578  0.025638658    0.0260779            5 
 1043000    1.0965932    -7.544988    321.60093  0.025695185  0.026070585            3 
 1044000    1.0575353   -7.5581494    321.29183    0.0256459  0.026063163            2 
 1045000    1.0679578   -7.5458588    323.12621   0.02576764  0.026055936            2 
 1046000    1.1097309   -7.5660514    322.36191  0.025682115  0.026048848            2 
 1047000    1.0922723   -7.6010745     322.2912  0.025651958  0.026041642            1 
 1048000     1.102343   -7.5641284    322.30031  0.025628206  0.026034355            2 
 1049000    1.0866591    -7.570995     322.6829  0.025634167  0.026027043            2 
 1050000    1.0937488   -7.5264892    323.77046  0.025696068  0.026020048            3 
 1051000    1.0850831   -7.5481498    324.53355  0.025732124  0.026013237            4 
 1052000    1.0873599   -7.5539856    323.54569  0.025629411   0.02600622            2 
 1053000    1.0728753   -7.5000299    324.73388  0.025699104  0.025999284            1 
 1054000    1.0713233   -7.5377985    324.72134   0.02567373  0.025992266            1 
 1055000    1.0694431   -7.5026072    325.62999  0.025721168  0.025985473            1 
 1056000    1.0675679   -7.5988341    324.29542  0.025591495  0.025978441            2 
 1057000    1.0796103   -7.5819569    325.87033  0.025691448  0.025971498            3 
 1058000    1.0819724   -7.5592091    325.71786  0.025655156  0.025964564            5 
 1059000    1.0685163    -7.577515    324.76763  0.025556156  0.025957528            2 
 1060000    1.1091802   -7.5475266    325.71738  0.025606712  0.025950361            1 
 1061000    1.0855766   -7.5782509    325.86814  0.025594419  0.025943179            1 
 1062000    1.0894252   -7.5335223    325.95744  0.025577326  0.025936024            2 
 1063000    1.0831165   -7.5629637    326.42529  0.025589941   0.02592886       -1e+20 
 1064000    1.0549591   -7.5894709    325.83771  0.025519871  0.025921592            4 
 1065000    1.0684051   -7.5808785    326.45734  0.025544393  0.025914557            3 
 1066000    1.0729031      -7.5601    327.25486  0.025582775  0.025907429            2 
 1067000    1.0852828   -7.5470585    326.92748   0.02553323  0.025900418            1 
 1068000    1.0944286   -7.5325161    328.72241  0.025649377  0.025893542            1 
 1069000    1.0747576   -7.5328829    327.96901  0.025566652  0.025886646            2 
 1070000    1.1004101   -7.5480695    329.11179  0.025631759      0.02588            3 
 1071000    1.0818242   -7.5773562    328.71706  0.025577113  0.025873162            1 
 1072000    1.0952282   -7.5864158    328.93623  0.025570291  0.025866393            4 
 1073000    1.0704506   -7.6092464    328.56218  0.025517411   0.02585953            2 
 1074000    1.0628922   -7.5459838    329.83798  0.025592643  0.025852698            2 
 1075000    1.0919991   -7.5736318    330.14544   0.02559267  0.025845983            3 
 1076000    1.0809105   -7.5336366    330.87678  0.025625525  0.025839211            4 
 1077000    1.1106211   -7.5347366    331.01663  0.025612552  0.025832572            2 
 1078000    1.0918442   -7.5898156    329.97226   0.02550806   0.02582589            1 
 1079000    1.0770429   -7.5466524     330.5922  0.025532299  0.025819117            2 
 1080000    1.0779041   -7.5581645    330.71254  0.025517943  0.025812326            2 
 1081000    1.0728357   -7.5636623    331.29898  0.025539545  0.025805394            1 
 1082000    1.0859541   -7.5865103    332.01765  0.025571292    0.0257986            3 
 1083000    1.0920841   -7.5497102    331.68801  0.025522315  0.025791536            3 
 1084000    1.0822863    -7.591345    330.04246  0.025372268  0.025784663            2 
 1085000    1.0601307   -7.6051733    331.30478  0.025445835  0.025777692            1 
 1086000    1.0542075   -7.6094121    330.61203  0.025369248  0.025770725            2 
 1087000    1.0870398   -7.5688085    332.54659  0.025494218   0.02576379            6 
 1088000    1.0480173   -7.5628248    331.63879  0.025401256  0.025756747            2 
 1089000     1.077766   -7.5921356    332.53466  0.025446485  0.025749714            4 
 1090000    1.0677707    -7.536646     333.5928  0.025504037  0.025742742            3 
 1091000    1.0775499   -7.5363463    334.16565  0.025524416   0.02573598            2 
 1092000    1.0944508   -7.5539496    333.97505  0.025486496  0.025729265            2 
 1093000    1.0986032   -7.5876779    334.04797  0.025468739  0.025722632            1 
 1094000    1.0949318   -7.5872747    334.06669  0.025446883  0.025716019            3 
 1095000    1.0837616   -7.5542515    334.64305  0.025467508  0.025709368            4 
 1096000    1.0871611   -7.5498758    334.01607  0.025396599  0.025702735            1 
 1097000    1.0481859   -7.5638563    335.24965  0.025467157   0.02569604            3 
 1098000    1.0850003   -7.5941988    336.15078  0.025512354   0.02568943            1 
 1099000    1.0638076    -7.586763    336.18567  0.025491786  0.025682815            3 
 1100000     1.073469   -7.5790111    336.53739  0.025495257  0.025676416            1 
 1101000     1.100004   -7.5533216    336.00661  0.025431927  0.025669817            1 
 1102000    1.0530479   -7.6076753    335.70598  0.025386115  0.025663277            3 
 1103000    1.0693719   -7.5432153    336.85401  0.025449835  0.025656763            2 
 1104000    1.0849115   -7.5835283    337.48013  0.025474044  0.025650375            1 
 1105000    1.0761203   -7.5842749    336.58379  0.025383393  0.025643877            2 
 1106000    1.0881191     -7.61091     337.1752  0.025405003   0.02563735            1 
 1107000    1.1022516   -7.5760317    337.56004  0.025411024  0.025630775            1 
 1108000     1.073848   -7.5382346    338.57552  0.025464464  0.025624341            3 
 1109000    1.0699179    -7.587715    338.43676  0.025431076  0.025617941            1 
 1110000    1.0821302   -7.5878975    337.98778  0.025374458  0.025611492            2 
 1111000    1.0824888   -7.5950823    339.33243  0.025452478  0.025605179            3 
 1112000    1.0750091   -7.5780435    339.14265  0.025415366  0.025598735            2 
 1113000    1.0985805   -7.6634201    337.46756  0.025267113  0.025592177            2 
 1114000    1.0524525   -7.5780586    339.06383  0.025363841  0.025585615            2 
 1115000    1.0689392   -7.5836878    339.52343  0.025375443  0.025579043            2 
 1116000    1.0702248   -7.5781093    340.23799  0.025406062  0.025572712            5 
 1117000    1.0787847   -7.5868862    339.98318  0.025364308  0.025566424            1 
 1118000    1.0648059    -7.590725    340.49223  0.025379564  0.025560063            2 
 1119000    1.0674476   -7.5482058    341.60862  0.025440023  0.025553695            3 
 1120000    1.0924302   -7.5722997    340.53451  0.025337389  0.025547142            5 
 1121000    1.0775801   -7.6030084    340.48679  0.025311239  0.025540677            1 
 1122000    1.0834178   -7.5770527    340.48789  0.025288762  0.025534133            2 
 1123000     1.048508   -7.5689195    340.88387  0.025295627  0.025527603            3 
 1124000    1.0884588   -7.6364191    340.03048  0.025209851  0.025520879            3 
 1125000    1.0868363   -7.6161764    340.93003  0.025254076  0.025514386            3 
 1126000     1.081989   -7.5944378     341.5982  0.025281098  0.025507828            3 
 1127000    1.0829617   -7.5800082    342.30196  0.025310704  0.025501235            2 
 1128000    1.0654487    -7.568797    342.10379  0.025273625   0.02549481            3 
 1129000    1.0552628   -7.6073286    341.95108  0.025239968  0.025488325            1 
 1130000    1.1087197   -7.6361845    341.23027  0.025164474  0.025481779            4 
 1131000    1.0908996   -7.5958858    342.01214  0.025199834  0.025475054            4 
 1132000    1.0779452   -7.5706691    343.01256  0.025251219  0.025468382            4 
 1133000    1.0765418   -7.5721664     343.0874  0.025234437   0.02546181            4 
 1134000    1.0847508   -7.5931578    342.46116  0.025166164   0.02545519            3 
 1135000    1.0695072   -7.5721443    343.14513   0.02519421  0.025448554            3 
 1136000    1.0630979   -7.5621617    343.43674  0.025193423  0.025441957            2 
 1137000     1.070415   -7.6240237    342.90584  0.025132354  0.025435123            3 
 1138000    1.0691287   -7.5999926    342.53064  0.025082794  0.025428216            3 
 1139000    1.0506553    -7.600255    343.69889  0.025146246  0.025421204            3 
 1140000    1.0745809   -7.5901148    343.00636  0.025073564  0.025414109            3 
 1141000     1.069403   -7.6026543    343.25256   0.02506957  0.025407066            4 
 1142000    1.0738582   -7.5903797    343.46267   0.02506295  0.025399917            1 
 1143000    1.0940747   -7.6190884    343.54789  0.025047236  0.025392731            5 
 1144000    1.0715665   -7.5630886    344.76848  0.025114254  0.025385667            2 
 1145000    1.0821191   -7.5796667    344.21694  0.025052179  0.025378748            3 
 1146000    1.0694756   -7.5597046     344.9636  0.025084613  0.025371509            5 
 1147000    1.0912381   -7.6278854    343.25497  0.024938605  0.025364373            6 
 1148000    1.0439923   -7.6478354    343.52739  0.024936657  0.025356959            1 
 1149000    1.0545213   -7.6030032    344.17573  0.024961977  0.025349658            2 
 1150000    1.0842715   -7.6158724    344.45174  0.024960271  0.025342243            3 
 1151000     1.089231   -7.5831353    345.26768   0.02499766    0.0253349            3 
 1152000    1.0665554   -7.5998783    345.57323  0.024998064   0.02532763            2 
 1153000    1.0762684   -7.5858045      346.168   0.02501937  0.025320514            1 
 1154000    1.0632076   -7.5827222    346.79803  0.025043185  0.025313334            2 
 1155000    1.0599134   -7.6155269    346.78411  0.025020499  0.025306126            3 
 1156000    1.0399535   -7.5817476    347.57574  0.025055921  0.025299007            2 
 1157000    1.0547432   -7.5801157    346.68006  0.024969753  0.025291957            2 
 1158000    1.0558116   -7.5773514    346.75678  0.024953712   0.02528478            1 
 1159000     1.045723   -7.5829611    347.94062  0.025017301   0.02527768            3 
 1160000    1.0550466   -7.5960733    347.97975  0.024998545  0.025270666            5 
 1161000    1.0672746   -7.5588036     348.0377  0.024981173  0.025263578            1 
 1162000    1.0512453   -7.6271184    347.83708  0.024945287  0.025256329            3 
 1163000    1.0651176   -7.6394775    345.99885  0.024792122  0.025248992            6 
 1164000    1.0609752   -7.6425841    346.99885  0.024842415  0.025241602            2 
 1165000    1.0507278   -7.6024035    347.39047  0.024849104  0.025234274            3 
 1166000     1.082618   -7.6331815    348.91303  0.024936609  0.025227002            2 
 1167000    1.0691058   -7.5888897    348.05115  0.024853696  0.025219704            3 
 1168000     1.087017   -7.5591102    349.98172  0.024970157  0.025212656            6 
 1169000    1.0476871   -7.6354063    349.22563  0.024894898  0.025205676            4 
 1170000     1.062499   -7.6048207    349.03746  0.024860218  0.025198545            1 
 1171000     1.089832   -7.6198431    349.95338  0.024904169  0.025191663            2 
 1172000    1.0638829   -7.6221782    349.83627  0.024874593  0.025184625            3 
 1173000    1.0617211   -7.6329788    349.46548  0.024827045  0.025177558            1 
 1174000    1.0588507   -7.5815005    350.69991   0.02489352  0.025170481            2 
 1175000    1.0741333   -7.6194906    351.05242  0.024897335  0.025163595            4 
 1176000    1.0562205   -7.6322577    350.72749  0.024853138  0.025156716            2 
 1177000    1.0709468   -7.6176663    351.79321  0.024907477   0.02514996            2 
 1178000    1.0849186   -7.6266415    351.89445  0.024893496  0.025143222            2 
 1179000    1.0954577   -7.6042523    353.40481  0.024979135  0.025136585            2 
 1180000    1.0706187   -7.6249854    352.16141  0.024870156  0.025129974            4 
 1181000    1.0496271   -7.6425633    352.76612  0.024891767  0.025123421            3 
 1182000    1.0620808   -7.6292134     353.0149  0.024888247  0.025116763            3 
 1183000    1.0317001   -7.6482949    353.70958  0.024916144  0.025110208            3 
 1184000    1.0658574    -7.604266    354.28307  0.024935464  0.025103667            5 
 1185000    1.0618441   -7.5627635    353.97182  0.024892533  0.025097163            1 
 1186000    1.0680472   -7.6663764    352.95242  0.024799917  0.025090547            2 
 1187000    1.0702103   -7.6295977    354.34613   0.02487687  0.025083815            4 
 1188000    1.0547677   -7.6133547    354.38229  0.024858466  0.025077174            3 
 1189000    1.0814771   -7.5892631    355.99955  0.024950907  0.025070544            2 
 1190000    1.0718313   -7.5777672    355.01781  0.024861191  0.025064064            2 
 1191000    1.0819669   -7.5817158    355.88224  0.024900801   0.02505765            2 
 1192000    1.0510812    -7.610306    355.26317  0.024836631  0.025051172            2 
 1193000    1.0624383   -7.5946239    356.13201  0.024876502  0.025044807            3 
 1194000    1.0565922   -7.5649175    355.84983  0.024835974   0.02503836            1 
 1195000    1.0708922   -7.6036969    355.97282  0.024823767  0.025031775            5 
 1196000    1.0647192   -7.6210918    356.00647  0.024805356  0.025025143            2 
 1197000    1.0421846    -7.626775    355.43375  0.024744761  0.025018414            2 
 1198000    1.0728266   -7.5909905    356.56554  0.024802834  0.025011651            2 
 1199000    1.0506463   -7.5873917     356.3719  0.024768689  0.025005013            4 
 1200000    1.0447413   -7.6287099    356.72201  0.024772362  0.024998295            4 
 1201000     1.073465   -7.6254788    356.77805  0.024755624  0.024991455            2 
 1202000    1.0438159   -7.6475027    356.49921  0.024715697  0.024984663            2 
 1203000    1.0350283    -7.614634    356.91959  0.024724272  0.024977788            3 
 1204000    1.0452284   -7.6183416    356.89488  0.024702026   0.02497073            2 
 1205000    1.0707708   -7.6224355    357.12379  0.024697358  0.024963778            2 
 1206000     1.061471    -7.647395    357.41245  0.024696825  0.024956671            2 
 1207000    1.0680904   -7.6066962    357.20375  0.024661954  0.024949787            1 
 1208000    1.0708172   -7.6300765    357.41299  0.024655974  0.024942832            1 
 1209000    1.0693878   -7.6682103    356.49269  0.024572146  0.024935775            5 
 1210000      1.05523   -7.5920758    358.16494  0.024667007  0.024928804            2 
 1211000    1.0402087    -7.639691    358.12584  0.024643947  0.024921843            3 
 1212000    1.0520355   -7.6356019    358.81865   0.02467125  0.024915079            2 
 1213000    1.0525331   -7.6277536     358.9327  0.024658745  0.024908304            2 
 1214000    1.0622887   -7.6677101    359.68608  0.024690149  0.024901687            4 
 1215000     1.063411   -7.6285026    360.54944  0.024729043  0.024895115            3 
 1216000    1.0682982   -7.6223388    360.94778  0.024736005  0.024888681            3 
 1217000    1.0511895   -7.6190688    360.99149  0.024718673  0.024882083            2 
 1218000    1.0422043   -7.6374259    359.58785  0.024602343   0.02487556            1 
 1219000     1.053254   -7.6625575    361.36203  0.024703448  0.024868925            2 
 1220000    1.0480594   -7.6324351    361.41041  0.024686503  0.024862422            1 
 1221000    1.0449535   -7.6283856     360.5359    0.0246066  0.024855961            7 
 1222000    1.0465382   -7.6250846    360.53107  0.024586134   0.02484929            3 
 1223000    1.0512629   -7.6313606    360.87233  0.024589284  0.024842284            2 
 1224000    1.0287397   -7.6375415    359.63089  0.024484674  0.024835516            3 
 1225000    1.0628154   -7.6373211     361.9391  0.024621708   0.02482872            1 
 1226000    1.0399566   -7.5914584    361.85144  0.024595666  0.024821959            2 
 1227000    1.0691194   -7.6440213    360.61003  0.024491309  0.024815245            2 
 1228000    1.0715756   -7.6469841    361.23527  0.024513794  0.024808406            3 
 1229000    1.0422604   -7.6628061    361.06887  0.024482565  0.024801571            2 
 1230000    1.0774753   -7.6707042    361.95578   0.02452275  0.024794611            5 
 1231000    1.0804455   -7.6229042    362.67904   0.02455179   0.02478783            7 
 1232000    1.0692798   -7.6012444    363.93964  0.024617129  0.024781156            3 
 1233000    1.0515608   -7.6526478    361.85554  0.024456308  0.024774322            2 
 1234000    1.0590546   -7.6457929    363.74516  0.024564098   0.02476751            3 
 1235000    1.0446707   -7.6197747    363.41281  0.024521782  0.024760672            2 
 1236000    1.0426321   -7.6336403    362.69056  0.024453247  0.024753759            2 
 1237000    1.0448524   -7.6127781    363.37199  0.024479385  0.024746929            2 
 1238000     1.048373   -7.6796545    363.66333  0.024479222  0.024739794            5 
 1239000    1.0702897   -7.6370485    362.87428  0.024406395  0.024732653            2 
 1240000    1.0558941   -7.6964078    363.48333  0.024427643  0.024725537            3 
 1241000    1.0353197   -7.6304178    364.64487  0.024485957  0.024718429            3 
 1242000    1.0498485   -7.6527061    363.78441  0.024408509  0.024711416            4 
 1243000    1.0354506   -7.6144616    364.86872  0.024461566  0.024704414            4 
 1244000    1.0580087   -7.5999713    364.65711  0.024427727  0.024697322            1 
 1245000     1.074553   -7.6613857    363.33968  0.024319925  0.024690228            5 
 1246000    1.0336906   -7.6160068    364.70951  0.024392022  0.024683065            2 
 1247000    1.0505719   -7.6052166    365.42563  0.024420317  0.024675966            2 
 1248000    1.0617976   -7.6453062    365.35369  0.024395946  0.024668908            2 
 1249000      1.03729   -7.6329293    366.23523   0.02443523  0.024661734            2 
 1250000    1.0297973   -7.6922971    364.03877  0.024269251  0.024654545            1 
 1251000    1.0544174    -7.630815    365.58916  0.024353128   0.02464733            3 
 1252000    1.0553539    -7.627556    365.76381  0.024345301  0.024640175            1 
 1253000    1.0358164   -7.6005956    366.59288  0.024381011  0.024632938            3 
 1254000    1.0559522   -7.6426985    366.13277  0.024330992   0.02462569            7 
 1255000    1.0426052   -7.6555298    366.04452  0.024305745  0.024618405            2 
 1256000      1.04793   -7.6950445    366.41129  0.024310728  0.024611053            3 
 1257000    1.0545711   -7.6195417    367.51679  0.024364677  0.024603761            1 
 1258000    1.0480831   -7.6361266    366.20276  0.024258265  0.024596474            3 
 1259000    1.0700634   -7.6867594    365.80558  0.024212707  0.024589116            2 
 1260000    1.0449882   -7.6283138    366.57296  0.024244243  0.024581871            3 
 1261000    1.0531132   -7.6299587    366.52599  0.024221913  0.024574554            4 
 1262000    1.0475412   -7.6345143    367.50723  0.024267514  0.024567359            2 
 1263000    1.0492036   -7.5921564    368.46116   0.02431124  0.024560158            6 
 1264000    1.0226925   -7.6277934    368.26456  0.024279045   0.02455296            2 
 1265000    1.0437294   -7.6296122    368.94081  0.024304401  0.024545759            2 
 1266000    1.0635728   -7.6616409    367.91683  0.024217801  0.024538602            1 
 1267000    1.0652946   -7.6668275    369.08353  0.024275423  0.024531397            1 
 1268000    1.0581615   -7.6481896     369.6362    0.0242926  0.024524243            2 
 1269000    1.0347906   -7.6229483    369.06015  0.024235629  0.024517196            3 
 1270000     1.050932   -7.6361871    369.26031  0.024229679   0.02451022            5 
 1271000    1.0408742   -7.6674111    367.82022  0.024116196  0.024503019            1 
 1272000    1.0426518   -7.6417465    369.09123  0.024180505  0.024495742            1 
 1273000    1.0561739   -7.5910552    371.37846  0.024311237  0.024488571            1 
 1274000    1.0436251   -7.6673636    369.48545  0.024168331   0.02448158            7 
 1275000    1.0592279   -7.6616342    369.64797  0.024159998  0.024474504            2 
 1276000    1.0418388   -7.6383228    370.36332  0.024187782  0.024467363            3 
 1277000    1.0581724   -7.6682397    370.05599  0.024148786  0.024460213            4 
 1278000    1.0277565   -7.6441833    371.08898  0.024197247  0.024453052            1 
 1279000    1.0600548   -7.5989306      371.086  0.024178134  0.024446018            3 
 1280000    1.0466642   -7.6392832    371.36224  0.024177229  0.024438942            1 
 1281000    1.0300583   -7.6609628    372.20273  0.024213032  0.024431824            5 
 1282000    1.0511839   -7.6398158     371.4053   0.02414231  0.024424753            1 
 1283000    1.0357769   -7.6269643    371.95764  0.024159369  0.024417688            1 
 1284000    1.0454999    -7.631409    371.42855  0.024106214   0.02441057            4 
 1285000    1.0572161   -7.6864733    371.92488  0.024119642  0.024403399            4 
 1286000    1.0359093   -7.6788675    371.58438  0.024078822  0.024396007            3 
 1287000    1.0399501   -7.6688329    371.96871  0.024084998  0.024388562            4 
 1288000    1.0508714   -7.6431514    372.04761  0.024071403  0.024381154            1 
 1289000    1.0348427   -7.6669626      371.648  0.024026894  0.024373988            1 
 1290000    1.0274609   -7.6750679    371.98309  0.024029916  0.024366811            9 
 1291000    1.0542684   -7.6447552    373.03049  0.024078911  0.024359732            2 
 1292000    1.0612124   -7.6040084    374.38247  0.024147476  0.024352668            2 
 1293000    1.0327109   -7.6409975    372.79727  0.024026635   0.02434552            2 
 1294000    1.0468115   -7.6880702    373.13932  0.024030095  0.024338266            2 
 1295000    1.0430654   -7.6706223      373.741  0.024050258  0.024330956            1 
 1296000    1.0399722   -7.6668343    374.31971  0.024068912  0.024323766            3 
 1297000    1.0444844   -7.6314505    373.07872  0.023970619  0.024316649            4 
 1298000    1.0300698   -7.6864024    373.75896  0.023995825  0.024309493            3 
 1299000    1.0471234   -7.6723373    372.87916  0.023920911  0.024302265            4 
 1300000    1.0244791   -7.6406135    375.43653  0.024066444  0.024295171            4 
 1301000     1.038699   -7.6430339    374.48662  0.023987101  0.024288117            5 
 1302000    1.0300917   -7.6592793    374.96065  0.023999018  0.024280999            4 
 1303000    1.0215049   -7.6776015    374.23211  0.023934005  0.024273873            3 
 1304000     1.037908   -7.6791384    375.51119  0.023997392   0.02426674            5 
 1305000    1.0481587   -7.6696669    374.72937  0.023929079  0.024259748            4 
 1306000     1.049698   -7.6753544    375.78491  0.023978108  0.024252596            3 
 1307000    1.0483653   -7.7547489    374.44859  0.023874559   0.02424529            4 
 1308000    1.0176746   -7.6503513    376.12465  0.023963089  0.024238068            2 
 1309000    1.0466538   -7.6441946    376.80575  0.023988143  0.024230938            3 
 1310000    1.0410339   -7.6561541    376.35775  0.023941333  0.024223789            3 
 1311000    1.0442713   -7.6616609    376.56255  0.023936089  0.024216734            3 
 1312000    1.0690252   -7.6019419    376.94545  0.023942165  0.024209735            2 
 1313000    1.0180345   -7.6343648    377.20105  0.023940153  0.024202702            2 
 1314000     1.041781    -7.633704    377.64906  0.023950346  0.024195647            2 
 1315000    1.0276239   -7.5943512    377.41263   0.02391715   0.02418857            5 
 1316000    1.0477113   -7.6753681    377.47402  0.023902864  0.024181416            4 
 1317000    1.0383313    -7.659326     377.6689  0.023897045  0.024174227            2 
 1318000    1.0475504   -7.6840712    377.79518  0.023886898  0.024167026            3 
 1319000    1.0609552   -7.6369724    378.64798  0.023922667  0.024159822            2 
 1320000    1.0467225   -7.6940221    376.83707  0.023790219  0.024152491            3 
 1321000    1.0400144   -7.6641621    377.91006  0.023839898  0.024145318            2 
 1322000    1.0289023   -7.6665234    379.11262  0.023897669   0.02413816            2 
 1323000     1.032955    -7.672791    378.07708  0.023814379  0.024130992            1 
 1324000    1.0466034   -7.7187875    377.68091  0.023771457   0.02412362            5 
 1325000    1.0407862    -7.706064    378.05111  0.023776799   0.02411619            3 
 1326000    1.0565633   -7.6936351    379.08893  0.023824091  0.024108827            4 
 1327000    1.0526726   -7.6822892    378.20941  0.023750905  0.024101558            2 
 1328000    1.0368784   -7.6578633    379.43768  0.023810096  0.024094262            3 
 1329000    1.0179077    -7.712352    378.19305  0.023714136  0.024086767            1 
 1330000    1.0405006     -7.68914     378.9954  0.023746579  0.024079283            2 
 1331000    1.0485732   -7.6530507    379.51595  0.023761329  0.024071911            3 
 1332000    1.0260942   -7.7001257     380.0007  0.023773817  0.024064612            2 
 1333000    1.0263122    -7.681223     379.8302  0.023745324  0.024057258            2 
 1334000    1.0433431   -7.6607677    381.18811  0.023812351  0.024049946            4 
 1335000    1.0536254   -7.6658501    380.50669  0.023751978  0.024042615            3 
 1336000    1.0096299   -7.6531863    379.65734  0.023681221  0.024035248            1 
 1337000    1.0157472   -7.6794103    380.44066  0.023712333  0.024027973            4 
 1338000    1.0137451   -7.6892985    380.03045  0.023669061  0.024020545            4 
 1339000    1.0547042   -7.6890417    380.01686  0.023650539   0.02401329            5 
 1340000    1.0452571   -7.6361991    381.60922  0.023731917  0.024006008            2 
 1341000    1.0306249   -7.6812454    381.76639  0.023723986  0.023998805            3 
 1342000    1.0461446   -7.6947591    381.83785  0.023710746  0.023991579            2 
 1343000    1.0432109   -7.7157422    380.68701  0.023621681  0.023984217            2 
 1344000     1.021216   -7.6668087    382.54677  0.023719418  0.023976853            4 
 1345000     1.058285   -7.6746858    382.11965  0.023675319  0.023969553            1 
 1346000    1.0295018   -7.6900464    381.80548  0.023638279  0.023962246            3 
 1347000    1.0748296   -7.6561973    382.41793  0.023658619  0.023955094            7 
 1348000    1.0260046   -7.6294222    382.97084   0.02367525  0.023947939            2 
 1349000    1.0325605   -7.6889943    381.97544   0.02359621  0.023940696            4 
 1350000    1.0308601   -7.6979895    382.50104  0.023611175  0.023933325            2 
 1351000     1.037703   -7.7100474    383.72672  0.023669302  0.023926022            2 
 1352000     1.030184   -7.6970131    382.77546  0.023593162  0.023918744            7 
 1353000    1.0204615    -7.708405    383.08649  0.023594881  0.023911397            4 
 1354000    1.0322089   -7.6842413    383.17241  0.023582743   0.02390412            2 
 1355000    1.0314679   -7.7101007    382.50495  0.023524289  0.023896843            2 
 1356000    1.0449998   -7.6995601    383.59318  0.023573819  0.023889452            2 
 1357000    1.0424615   -7.6793799    383.31226  0.023539195  0.023882192            3 
 1358000    1.0282358   -7.6939985    383.73631  0.023547883  0.023874777            2 
 1359000     1.025037    -7.670036    384.50934  0.023577958   0.02386745            4 
 1360000    1.0156502    -7.709703    382.88108   0.02346085  0.023860157            5 
 1361000    1.0344968   -7.6710378    384.14202  0.023520819  0.023852617            3 
 1362000    1.0318071    -7.678145    383.89759  0.023488595  0.023845181            3 
 1363000    1.0465747   -7.7142227    384.64649  0.023517149  0.023837594            7 
 1364000    1.0296721   -7.7133564    383.82183  0.023449525  0.023829995            2 
 1365000    1.0510367   -7.6837912    384.83051  0.023493926  0.023822583            5 
 1366000    1.0318457   -7.7172854    384.63381  0.023464728  0.023815119            2 
 1367000    1.0376778   -7.6545311    384.90715  0.023464225  0.023807706            1 
 1368000    1.0310738   -7.6851948    384.71488  0.023435361  0.023800134            3 
 1369000    1.0520598   -7.6860658    384.83233  0.023425392  0.023792629            2 
 1370000    1.0171918   -7.6885949    385.05167  0.023421635   0.02378511            3 
 1371000    1.0424398   -7.7512853    385.29134  0.023419119  0.023777555            1 
 1372000    1.0365466   -7.6827831    384.85222  0.023375378  0.023770032            2 
 1373000    1.0401522   -7.7151696    385.03222  0.023369278  0.023762476            3 
 1374000    1.0130716   -7.7351195     384.2506  0.023304864  0.023754855            2 
 1375000    1.0234454   -7.7238337     385.3116  0.023352218  0.023747287            2 
 1376000    1.0594455   -7.6745047    387.33766  0.023457949  0.023739707            3 
 1377000    1.0651019   -7.7071589    386.18399  0.023371096  0.023732201            2 
 1378000    1.0471821   -7.6986652    387.90333  0.023458111  0.023724799            1 
 1379000    1.0497524   -7.6829492     387.2074  0.023399045  0.023717267            6 
 1380000    1.0313275   -7.6785351    386.86907  0.023361659  0.023709829            4 
 1381000    1.0239768   -7.7163488    387.01695  0.023353666  0.023702322            3 
 1382000    1.0221811   -7.7358793    386.46533  0.023303505  0.023694823            2 
 1383000    1.0512693   -7.6832122       386.33  0.023278501  0.023687225            2 
 1384000    1.0245969   -7.7032895    388.43634  0.023388508  0.023679651            3 
 1385000    1.0065816   -7.7130132    387.67816  0.023326003  0.023672208            1 
 1386000    1.0663332   -7.6969603    388.56452  0.023362465   0.02366483            3 
 1387000    1.0554723   -7.6987963    389.05064  0.023374828  0.023657492            3 
 1388000    1.0298645    -7.622481    389.36066    0.0233766  0.023650086            3 
 1389000    1.0410157    -7.653661    390.12563  0.023405665  0.023642773            3 
 1390000    1.0423712   -7.7091221    388.87962  0.023314126  0.023635369            3 
 1391000   0.99393441   -7.7037108      388.933  0.023300563  0.023627848            2 
 1392000    1.0328966   -7.6997112    388.46205   0.02325563  0.023620263            5 
 1393000    1.0353017   -7.6601545    389.77053  0.023317213  0.023612772            7 
 1394000     1.026817   -7.7303207     389.3456  0.023275084   0.02360534            2 
 1395000    1.0549165   -7.7194139    388.73893  0.023222158  0.023597772            2 
 1396000    1.0492952   -7.6721543    390.65349  0.023319812   0.02359029            2 
 1397000    1.0065895   -7.6934788    389.93395  0.023260197  0.023582931            9 
 1398000    1.0250897   -7.7063292    388.99983  0.023187878  0.023575492            1 
 1399000    1.0150005   -7.7052626    389.51934  0.023202248  0.023567921            2 
 1400000     1.018476   -7.6614969    390.16282  0.023223978  0.023560355            2 
 1401000    1.0192596   -7.7376511    390.31885  0.023216681  0.023552767            3 
 1402000    1.0291161   -7.6846387    391.27157   0.02325675  0.023545234            2 
 1403000    1.0543266   -7.7163161    390.10239  0.023170729  0.023537664            4 
 1404000    1.0186765   -7.7108333    391.51926  0.023238323  0.023530238            2 
 1405000    1.0140911   -7.7330234    390.57157  0.023165573    0.0235228            4 
 1406000    1.0334292   -7.6792678    391.85272  0.023225031  0.023515449            1 
 1407000    1.0215896   -7.7079542    391.06137  0.023161654   0.02350807            1 
 1408000    1.0202743   -7.7243025    391.25627  0.023156739  0.023500693            1 
 1409000    1.0255306   -7.7492355    390.64084  0.023103906  0.023493143            3 
 1410000    1.0424363   -7.7416464    392.24702  0.023182448  0.023485649            1 
 1411000     1.014697   -7.7384966    392.24711  0.023166024    0.0234783            2 
 1412000    1.0388324    -7.680367    392.66382   0.02317421  0.023470808            6 
 1413000    1.0194025   -7.6740746    391.36216  0.023081043  0.023463412            3 
 1414000    1.0103724   -7.6957824     392.2165   0.02311507  0.023455931            2 
 1415000    1.0135451   -7.7156136    393.15926  0.023154255  0.023448327            1 
 1416000    1.0458586   -7.7300611    392.21909  0.023082574  0.023440712            2 
 1417000     1.008779   -7.7046828    393.10911  0.023118626  0.023433207            3 
 1418000    1.0402556   -7.7165893    393.65716   0.02313453  0.023425664            4 
 1419000    1.0089225   -7.7196057    393.62139  0.023116126  0.023418145            3 
 1420000    1.0384454   -7.7289332    393.00397  0.023063613  0.023410634            2 
 1421000    1.0354422   -7.7001894     394.1708   0.02311581  0.023403167            3 
 1422000    1.0255417   -7.7226687    393.31867  0.023049617  0.023395708            2 
 1423000    1.0096198   -7.6963872     394.2762  0.023089494  0.023388233            2 
 1424000     1.030799   -7.7351117    392.80208  0.022987013    0.0233808            3 
 1425000    1.0100545   -7.7347448    393.13122   0.02299013  0.023373166            3 
 1426000    1.0149321   -7.7447951    393.05579    0.0229696  0.023365552            2 
 1427000    1.0104171   -7.7048276    394.15012  0.023017409   0.02335798            3 
 1428000    1.0182767   -7.7079733    394.70027  0.023033396  0.023350531            2 
 1429000    1.0079984   -7.7442936    394.05379  0.022979577  0.023343046            2 
 1430000    1.0014051   -7.7194191    395.09796  0.023024357   0.02333565            5 
 1431000    1.0178021   -7.7165928    395.36547  0.023023845  0.023328229            3 
 1432000    1.0068412   -7.7582133    394.82081  0.022976071  0.023320748            2 
 1433000    1.0195651   -7.7163184    395.85246  0.023020031  0.023313416            1 
 1434000    1.0266415     -7.68264    396.18248  0.023023157  0.023306064            1 
 1435000    1.0296907   -7.6958714    396.40244  0.023019886  0.023298719            4 
 1436000    1.0111898   -7.7286051    394.99144  0.022921973    0.0232913            1 
 1437000    1.0168075    -7.705231    396.65169  0.023002302  0.023283883            1 
 1438000    1.0426251   -7.6921138    397.79267  0.023052426  0.023276569            3 
 1439000    1.0288426   -7.6851949    397.53386  0.023021419  0.023269439            3 
 1440000    1.0068171    -7.739162    397.89565  0.023026368  0.023262281            3 
 1441000   0.99873118    -7.664273    398.29259  0.023033344   0.02325512            5 
 1442000    1.0163527   -7.7532764    397.30862  0.022960508  0.023248004            2 
 1443000    1.0441476   -7.6847993    397.83733  0.022975129  0.023240783            1 
 1444000    1.0220459   -7.7170433    398.33522  0.022987951  0.023233567            2 
 1445000    1.0165041    -7.748032    398.59122  0.022986806   0.02322633            2 
 1446000     1.016745   -7.7135954    398.70775  0.022977625  0.023219031            2 
 1447000    1.0360371   -7.7216861    399.12842  0.022985972  0.023211745            3 
 1448000    1.0367834   -7.7205218    399.04696   0.02296541  0.023204499            3 
 1449000    1.0163513   -7.7261111    399.15584  0.022955822  0.023197208            1 
 1450000    1.0376738   -7.7204711    398.22562   0.02288653  0.023190038            3 
 1451000    1.0507312   -7.7276739    399.58871  0.022949041  0.023182858            2 
 1452000    1.0336911   -7.7540796     399.0239  0.022900821  0.023175599            3 
 1453000    1.0364209   -7.7092051    398.53876  0.022857236  0.023168316            2 
 1454000    1.0294065   -7.7369699    399.26174  0.022882952  0.023161024            1 
 1455000    1.0026355   -7.7058805     399.3093  0.022869949  0.023153741            3 
 1456000    1.0197306   -7.6773893     400.2064  0.022905586  0.023146408            2 
 1457000    1.0484583   -7.7753827    399.01626  0.022821795  0.023139207            2 
 1458000     1.034825   -7.7287178    399.75449  0.022848336  0.023131963            1 
 1459000    1.0004679   -7.7720676     399.0216  0.022790816  0.023124708            2 
 1460000   0.99490977   -7.7689983    400.43754  0.022856024  0.023117382            4 
 1461000    1.0313917   -7.7321762    401.69137  0.022911897  0.023110105            2 
 1462000    1.0339106   -7.7421764     400.3762  0.022821261  0.023102894            2 
 1463000    1.0260449   -7.7241522    401.95958  0.022895852   0.02309565            2 
 1464000    1.0115284   -7.7376593    400.68881  0.022807879  0.023088295           11 
 1465000    1.0064846   -7.7562458    400.50185  0.022781675  0.023081054            3 
 1466000    1.0037824   -7.7241911    400.65647  0.022774925  0.023073802            2 
 1467000    1.0226235   -7.7135901    401.74788  0.022821397  0.023066579            3 
 1468000    1.0329415   -7.7419556    401.77972  0.022807659  0.023059263            2 
 1469000    1.0082961    -7.727657     401.0881  0.022752899  0.023051915            7 
 1470000    1.0298659   -7.7721728    401.96793  0.022787298  0.023044662            6 
 1471000    1.0343514   -7.7294346    401.56083  0.022748744  0.023037344            3 
 1472000    1.0109973   -7.7298486    402.33152   0.02277692  0.023030019            4 
 1473000     1.032745   -7.7720135    400.90707  0.022680871  0.023022606            2 
 1474000    1.0231458   -7.7606904    402.83408  0.022774428  0.023015293            5 
 1475000    1.0218542   -7.7607125    401.92504  0.022707629  0.023008017            2 
 1476000    1.0122063   -7.7816101    402.53915  0.022726917  0.023000685            2 
 1477000    1.0265802   -7.7381371    401.73884  0.022666376  0.022993422            4 
 1478000    1.0094227   -7.7091989    402.90772  0.022716944  0.022986112            2 
 1479000   0.98646668   -7.7390931    403.45958  0.022732678  0.022978811            2 
 1480000    1.0063602   -7.7695596    402.85146  0.022683078  0.022971351            5 
 1481000    1.0293633   -7.7321962    404.59732  0.022765998  0.022964047            2 
 1482000    1.0025121     -7.76271    403.36466  0.022681324  0.022956879            6 
 1483000     1.021264   -7.7049315    405.09601  0.022763318  0.022949633            2 
 1484000    1.0349352   -7.7256553    404.28283  0.022702315   0.02294241            3 
 1485000     1.028194   -7.8029067    402.21213  0.022570827  0.022935062            2 
 1486000    1.0254805   -7.7516305    404.45244  0.022681272  0.022927715            3 
 1487000    1.0193213   -7.7179627    404.79996  0.022685494  0.022920394            2 
 1488000    1.0163456   -7.7428821    403.55697  0.022600636  0.022913097            2 
 1489000    1.0106298   -7.7483447    404.86044  0.022658408  0.022905767            1 
 1490000    1.0277383   -7.7475189    404.05957   0.02259841   0.02289835            2 
 1491000     1.002077   -7.7790188    404.63886  0.022615631  0.022890944            5 
 1492000    1.0064529   -7.7720258     403.0388  0.022511103  0.022883431            1 
 1493000   0.98394413    -7.751151    403.99843  0.022549589  0.022875865            1 
 1494000    1.0453066   -7.7437516    403.66827  0.022516079  0.022868361            1 
 1495000    1.0138184   -7.7321113    404.71894  0.022559584  0.022860883            4 
 1496000   0.99661612   -7.6954239    406.31968  0.022633672  0.022853517            3 
 1497000   0.98598002   -7.7453844    404.11325  0.022495728   0.02284608            2 
 1498000    1.0424458   -7.7412081    405.42098  0.022553459   0.02283851           10 
 1499000    1.0198374   -7.7725946    404.69795  0.022498218  0.022831039            2 
 1500000   0.99222668   -7.7707396    404.76427  0.022486904  0.022823566            2 
 1501000    1.0071104    -7.759084    405.62309  0.022519603  0.022816044            2 
 1502000    1.0183059   -7.7642966    406.38945  0.022547129  0.022808583            3 
 1503000    1.0125295   -7.7403071    406.23428  0.022523524  0.022801263            4 
 1504000     1.017271   -7.6953452    407.65773  0.022587418  0.022793892            1 
 1505000    1.0297352   -7.6945408    408.26263  0.022605904  0.022786575            1 
 1506000     1.018041   -7.7597094     405.5095  0.022438551  0.022779249            4 
 1507000   0.99911209   -7.7069409    407.09972  0.022511597  0.022771863            4 
 1508000   0.98850986   -7.7327655    406.24311  0.022449332  0.022764438            1 
 1509000    1.0092886   -7.7440992    405.53593  0.022395402  0.022757003            4 
 1510000    1.0154733   -7.7565468    406.31429  0.022423526  0.022749506            4 
 1511000    1.0155602   -7.7527916    406.11438   0.02239766  0.022741935            2 
 1512000    1.0189456   -7.7136959    406.44517  0.022401079   0.02273435            5 
 1513000    1.0160334   -7.7250509     407.6521  0.022452748  0.022726766            1 
 1514000    1.0101969   -7.7806211      406.041   0.02234924  0.022719208            2 
 1515000   0.99211362   -7.7414407    407.78435  0.022430382  0.022711691            3 
 1516000    1.0035551   -7.7648909    406.69649  0.022355788   0.02270418            2 
 1517000    0.9903629   -7.7668592    407.52443  0.022386532  0.022696561            5 
 1518000    1.0068462   -7.7598578     407.6158  0.022376801  0.022689005            2 
 1519000    1.0186357   -7.7860581    407.93406  0.022379529  0.022681516            2 
 1520000    1.0246794   -7.7613373    407.74441  0.022354408  0.022673945            2 
 1521000   0.98619866   -7.7295667    408.72129  0.022393233  0.022666555            4 
 1522000    1.0191652   -7.7701874    408.02884  0.022340607  0.022659052            2 
 1523000   0.99108527   -7.7874351    407.87886  0.022317731  0.022651523            2 
 1524000    1.0074698   -7.7845415    407.66941  0.022291635  0.022644057            2 
 1525000   0.98225366   -7.7229951    408.58234  0.022326904  0.022636598            4 
 1526000   0.98326298   -7.7239654     409.4449  0.022359376  0.022629226            1 
 1527000    1.0067325   -7.7265011    409.35191  0.022339659   0.02262183            3 
 1528000    1.0046109   -7.7051713     409.5201  0.022334211  0.022614373            2 
 1529000    1.0208841   -7.7486284    409.07478  0.022295334  0.022606901            8 
 1530000    1.0095806   -7.7855869     409.4681  0.022302184  0.022599413            4 
 1531000   0.99601328   -7.8037201    407.86667   0.02220045  0.022591858            4 
 1532000   0.99369644   -7.7580621    410.33684  0.022320324  0.022584314            2 
 1533000   0.99625797   -7.7176917    411.31078  0.022358707  0.022576932            2 
 1534000    1.0049103   -7.7549753    408.71374   0.02220305  0.022569469            2 
 1535000    1.0101904   -7.7847721    408.31816   0.02216711  0.022561858            2 
 1536000   0.99540683   -7.7786135    409.85337  0.022235968  0.022554368            3 
 1537000    1.0082554   -7.7740546    409.80158  0.022218693  0.022546721            2 
 1538000    1.0130223    -7.779705    409.95529  0.022212575  0.022539094            1 
 1539000   0.99849939   -7.7612344    409.13627  0.022153794  0.022531478            3 
 1540000   0.98894034   -7.7365869    411.04233   0.02224255  0.022523932            2 
 1541000    1.0274891   -7.7509207    411.23714  0.022238651  0.022516369            1 
 1542000    1.0102903   -7.7808746    409.58912  0.022135167  0.022508926            5 
 1543000    1.0119015   -7.7531896    410.70876   0.02218129  0.022501467            2 
 1544000   0.99475429   -7.7837098    410.23497  0.022141352  0.022493925            4 
 1545000    1.0139572   -7.7839291    410.64983  0.022149398  0.022486373            2 
 1546000    1.0195615   -7.7593716    411.53545  0.022182808  0.022478789            1 
 1547000    1.0007965   -7.7695234    411.16726  0.022148635  0.022471205            2 
 1548000    1.0163104   -7.7675074    411.65001  0.022160315    0.0224635            2 
 1549000    1.0256746   -7.7938752    410.33866  0.022075461   0.02245591            2 
 1550000    1.0226153   -7.7717011    411.62069  0.022130144  0.022448241            3 
 1551000   0.99468277   -7.7749443    411.53828  0.022111449  0.022440542            5 
 1552000    1.0145426   -7.7902182    410.94058  0.022065108  0.022432904            4 
 1553000    1.0213666   -7.7807477    411.91239  0.022103047   0.02242534            2 
 1554000   0.99314626   -7.7821533    411.71716  0.022078355  0.022417738            3 
 1555000    1.0158797   -7.8209767    411.57087  0.022056317  0.022410054            5 
 1556000   0.98113782   -7.8038952    412.43233  0.022088278  0.022402402            3 
 1557000    1.0032847   -7.7819262    413.88926  0.022152069  0.022394849            1 
 1558000   0.99869311   -7.7516948    413.83555  0.022134978  0.022387294            2 
 1559000    1.0105874   -7.8075302    413.17186  0.022085304  0.022379717            1 
 1560000    1.0284528   -7.7873403    413.27744  0.022076786  0.022372206            6 
 1561000   0.98274251   -7.7467888    413.80021  0.022090551  0.022364718            3 
 1562000    1.0225868   -7.7406619    415.06228  0.022143741  0.022357326            3 
 1563000    1.0065443   -7.7539808    414.58365  0.022104054  0.022349873            2 
 1564000   0.99706643   -7.7524247    413.72624  0.022044237  0.022342454            2 
 1565000   0.99021282   -7.7593534    414.17031  0.022053797   0.02233494            4 
 1566000    1.0087978   -7.7755113    412.56334  0.021954201   0.02232733            7 
 1567000   0.98748996   -7.7717822    414.92037  0.022065538  0.022319788            6 
 1568000   0.99922723   -7.8163753    414.44783  0.022026352  0.022312258            2 
 1569000    1.0047308   -7.7923314    414.42839  0.022011281  0.022304693            3 
 1570000    0.9774194   -7.7731298      413.457  0.021945701  0.022297155            7 
 1571000    1.0122216   -7.7906492    414.56167  0.021990328  0.022289592            4 
 1572000   0.99090745   -7.7795354    415.06357  0.022002946  0.022282156            2 
 1573000   0.99781423    -7.786321    415.83615  0.022029887  0.022274695            2 
 1574000   0.99030091   -7.8043018    414.39473  0.021939577   0.02226727            3 
 1575000   0.99654308   -7.7962671    415.56661  0.021987651  0.022259743            1 
 1576000    1.0037405   -7.8289828    414.97455  0.021942394   0.02225217            2 
 1577000    1.0022335   -7.8032434    414.32076  0.021893931    0.0222446            3 
 1578000   0.99345411   -7.7348521    416.28523    0.0219838  0.022237087            4 
 1579000    0.9904132   -7.7799596    415.50569  0.021928736  0.022229647            9 
 1580000    1.0211371   -7.8101922    414.89789    0.0218828  0.022222159            1 
 1581000    1.0025267   -7.7906348    416.21518  0.021938392  0.022214576            3 
 1582000    1.0068537   -7.7599721    416.55189  0.021942261  0.022207115            1 
 1583000   0.99101354   -7.7460529    416.28382  0.021914288  0.022199634            5 
 1584000   0.99715442   -7.7752003    415.58327  0.021863598  0.022192107            3 
 1585000    1.0233187   -7.7383437     418.2016  0.021987466  0.022184671            2 
 1586000    1.0150494   -7.7586574    417.31804  0.021927177  0.022177269            3 
 1587000   0.98759267    -7.802271    417.02438  0.021897941  0.022169784            4 
 1588000    1.0117495   -7.7684176    417.14376  0.021890416  0.022162344            2 
 1589000   0.99281647     -7.77813    418.20366  0.021932225  0.022154936            5 
 1590000     1.015045   -7.7782041    417.84649  0.021899711   0.02214749            4 
 1591000   0.99370849   -7.7778258    417.28743  0.021856664   0.02214014            3 
 1592000    1.0033523   -7.8056657    417.73775  0.021866507   0.02213274            4 
 1593000    1.0062877   -7.7620977    418.43177  0.021889086  0.022125246            2 
 1594000    1.0136798   -7.7923779    417.53066  0.021828245  0.022117847            3 
 1595000   0.99965621    -7.763257    418.84697  0.021883332  0.022110507            1 
 1596000    1.0073211   -7.7971193    417.53142  0.021800931  0.022103081            6 
 1597000   0.99095371   -7.7928607    418.44377  0.021834887  0.022095694            4 
 1598000   0.99226824   -7.8426366    417.38466  0.021765992   0.02208823            3 
 1599000   0.98722565   -7.8171458      417.839  0.021776058  0.022080627            2 
 1600000   0.98079878    -7.782166    417.82578   0.02176176  0.022072984            4 
 1601000   0.98089952   -7.8206414    417.83118  0.021748448  0.022065354            4 
 1602000   0.97930197    -7.819211    417.84841  0.021735769  0.022057716            3 
 1603000    1.0131639   -7.7775428    418.78856  0.021771083  0.022050251            4 
 1604000    1.0134497   -7.8187084    417.45309  0.021688128  0.022042736            4 
 1605000   0.97751576   -7.7875777    420.41211  0.021828251  0.022035263            1 
 1606000   0.98269982   -7.8198782    419.26591  0.021755184  0.022027816            2 
 1607000    1.0104302   -7.7775918    419.61956  0.021759985  0.022020422            4 
 1608000    1.0056684   -7.7607843    420.55994  0.021795187  0.022013062            2 
 1609000   0.99974147    -7.805253    419.99095  0.021752173  0.022005707            5 
 1610000   0.98342745   -7.8105397    419.87295  0.021732554  0.021998347            1 
 1611000   0.99726474   -7.8050024    420.21592  0.021736805  0.021990873            4 
 1612000   0.97891569   -7.8337604    419.32317   0.02167717  0.021983509            1 
 1613000    1.0016015   -7.8155853    420.15556  0.021706735  0.021976112            2 
 1614000   0.99683862   -7.8328164    420.92911  0.021733225  0.021968769            3 
 1615000    1.0151908   -7.8604535     419.9289  0.021668158  0.021961422            2 
 1616000   0.96797048   -7.7831279    421.00988  0.021710493  0.021954057            2 
 1617000   0.99319707   -7.8060662     422.0909  0.021752778   0.02194681            2 
 1618000   0.99961269   -7.7922456    422.24591  0.021747317  0.021939514            4 
 1619000   0.97704059   -7.8131848    421.43062   0.02169192  0.021932331            3 
 1620000   0.98672082   -7.8114085    421.58707  0.021686578  0.021925024            3 
 1621000    1.0092871   -7.7833085    423.20871  0.021756565  0.021917818            1 
 1622000   0.99493282   -7.7961247    422.52131  0.021707835  0.021910617            2 
 1623000   0.98676133   -7.7788711    422.39122  0.021687781  0.021903453            7 
 1624000    1.0168316   -7.8127641    422.41197  0.021675491  0.021896199            1 
 1625000   0.99213129   -7.7911381    421.96116  0.021639034  0.021888919            3 
 1626000   0.98374102   -7.7959482    422.87711  0.021672669  0.021881634            5 
 1627000   0.99260141    -7.787755     421.9151  0.021610075  0.021874442            2 
 1628000   0.99119628   -7.7850781    423.18383  0.021661744  0.021867133            2 
 1629000    1.0006991   -7.8262189    423.31279  0.021655043  0.021859764            2 
 1630000    1.0138736   -7.8226303    422.97364  0.021624419  0.021852439            4 
 1631000    1.0107057   -7.8339967    421.98128  0.021560458  0.021845068            3 
 1632000    0.9791937     -7.78489    424.03348  0.021652036  0.021837805            5 
 1633000   0.97813505   -7.8758691      423.097  0.021590988  0.021830545            4 
 1634000   0.97536499   -7.8147673    424.31371  0.021639826  0.021823287            3 
 1635000    1.0037674   -7.8219256    423.52393  0.021586337  0.021816043            3 
 1636000   0.97422768   -7.8020792    424.21414  0.021608299  0.021808773            3 
 1637000   0.98348619   -7.8212061    423.01266  0.021533937  0.021801443            6 
 1638000   0.96734104   -7.8285465    423.75319  0.021558465  0.021794057            1 
 1639000   0.99592019   -7.8103365    425.31902  0.021624925  0.021786777            3 
 1640000   0.99161199   -7.8263585    425.40128  0.021615918  0.021779544            4 
 1641000   0.97888599   -7.8374616    425.04718  0.021584765  0.021772361            1 
 1642000   0.97480779   -7.8685313    423.51328  0.021493772  0.021765154            2 
 1643000   0.99691593   -7.8030521    424.43673  0.021527527  0.021757985            4 
 1644000   0.98725875   -7.7525098    428.20467  0.021705427   0.02175094            2 
 1645000   0.97465401   -7.8224011    425.01606  0.021530702  0.021743821            3 
 1646000   0.97383158   -7.8511566    424.56956  0.021495016  0.021736593            4 
 1647000   0.97685577   -7.8380442    425.11026  0.021509323  0.021729251            6 
 1648000   0.98276752   -7.8155105    425.75408  0.021528827  0.021721961            3 
 1649000   0.99904585   -7.7887937    426.12843  0.021534689  0.021714835            3 
 1650000   0.99214771   -7.8527332    425.09047  0.021469216  0.021707636            4 
 1651000   0.98247419   -7.8154759    425.54349  0.021479078  0.021700431            5 
 1652000   0.98099162   -7.8046198      426.597  0.021519219  0.021693265            3 
 1653000   0.98054814   -7.8192664    425.96508  0.021474343  0.021686066            2 
 1654000   0.99162919   -7.8296003    426.06405  0.021466347  0.021678871            2 
 1655000   0.99513631   -7.7932309     426.7196  0.021486385  0.021671632            2 
 1656000   0.99473187   -7.8080227     427.0503  0.021490051   0.02166441            4 
 1657000    1.0047807   -7.8109691    428.06267  0.021527996  0.021657222            4 
 1658000   0.99026154   -7.8121065    426.46974  0.021434949  0.021650071            1 
 1659000   0.97933035   -7.8543796    426.62609  0.021429882  0.021642942            6 
 1660000   0.99460939   -7.8540524    426.16757  0.021393954  0.021635775            5 
 1661000   0.97744547   -7.8419576    427.00603   0.02142314   0.02162862            4 
 1662000   0.98731373   -7.8021105    426.48915  0.021384333  0.021621444            2 
 1663000    0.9661414   -7.7905992    428.40063  0.021467259  0.021614302            2 
 1664000   0.98301803   -7.8668129    427.03127  0.021385781  0.021607181            3 
 1665000   0.98503208   -7.8141915    428.63888  0.021453397  0.021600079            3 
 1666000    1.0040981   -7.8665133    427.84124  0.021400622  0.021592872            4 
 1667000   0.99063887   -7.8734314    426.82245  0.021336855  0.021585678            2 
 1668000   0.95286352   -7.8299873    428.11601   0.02138869  0.021578452            1 
 1669000    1.0009271   -7.8528944    428.47354  0.021393726  0.021571243            2 
 1670000   0.97161861   -7.8274227    427.48222  0.021331448   0.02156404            2 
 1671000   0.99706115   -7.8140724    428.46349  0.021367619   0.02155686            4 
 1672000   0.99106313    -7.816953    430.70791  0.021466702  0.021549775            3 
 1673000   0.98625952   -7.8241716    428.14496  0.021326208  0.021542705            2 
 1674000    1.0064176   -7.8446386    430.48724   0.02143007  0.021535576            4 
 1675000    0.9956839   -7.8186155     429.6377   0.02137501  0.021528461            3 
 1676000   0.98966724   -7.8588599    429.91637  0.021376112  0.021521341            5 
 1677000    1.0066797   -7.8177837    429.68058  0.021351649  0.021514273            5 
 1678000   0.96750538   -7.7558507    430.63521  0.021386333  0.021507288            3 
 1679000    0.9912672    -7.799954    430.91305  0.021387386  0.021500369            2 
 1680000   0.96700309   -7.7916476    430.53168  0.021355738  0.021493355            1 
 1681000   0.98188846   -7.8513634    429.17236  0.021275647  0.021486327            4 
 1682000    0.9817483   -7.8403985    430.93435  0.021350295   0.02147915            2 
 1683000   0.98609956   -7.8165825    430.38201   0.02131026  0.021472027            3 
 1684000   0.98355488   -7.8324121      430.686  0.021312649  0.021464988            2 
 1685000   0.98284596   -7.8477025    429.59121  0.021245856  0.021457857            2 
 1686000    0.9766069    -7.819585    430.24703   0.02126567   0.02145073            2 
 1687000   0.98051339   -7.8832454    429.03794  0.021193338  0.021443555            7 
 1688000   0.95769849    -7.829359    431.31854  0.021293372  0.021436457            3 
 1689000   0.98931217   -7.8158601    430.97201  0.021263667  0.021429383            3 
 1690000   0.99073397   -7.8425695    431.15002  0.021259863  0.021422303            4 
 1691000   0.99161041   -7.8367945    430.52258   0.02121637  0.021415132            3 
 1692000   0.98877818   -7.8011317    431.74481  0.021264027  0.021407994            3 
 1693000   0.98727104   -7.8843547    430.64324  0.021197245  0.021400889            3 
 1694000   0.97877285   -7.8262066     431.8752  0.021245337  0.021393787            4 
 1695000   0.97106074   -7.8783482    429.81276  0.021131404  0.021386634            1 
 1696000    0.9894525   -7.8242275    430.77272  0.021166112  0.021379368            2 
 1697000   0.95960425   -7.8484793    430.68834  0.021149496  0.021372084            4 
 1698000   0.96440712   -7.8425722    430.41823  0.021123784   0.02136477            4 
 1699000   0.98170224   -7.8450929    431.55502  0.021167109  0.021357479            8 
 1700000   0.99297743   -7.8571517    431.70893  0.021162202  0.021350336            3 
 1701000   0.98318526   -7.8406027    432.63992  0.021195372  0.021343184            3 
 1702000   0.99261913   -7.8331164    432.43896  0.021173079  0.021336033            7 
 1703000   0.96256735   -7.8195358    433.51261  0.021213183  0.021328948            3 
 1704000   0.94891438    -7.835827    432.11485  0.021132377  0.021321696            5 
 1705000   0.99023055   -7.8469837    432.00005  0.021114372  0.021314496            3 
 1706000   0.97604419   -7.8834748    431.45225  0.021075237  0.021307306            2 
 1707000   0.99526928   -7.8573863    432.47479  0.021112809  0.021300101            4 
 1708000   0.97514307   -7.8488069    432.47586    0.0211005  0.021292884            3 
 1709000   0.97125687   -7.8677488    432.24022  0.021076664  0.021285618            3 
 1710000   0.96310403   -7.8058224    432.91332   0.02109714  0.021278444            2 
 1711000   0.97813565   -7.8387854    433.34733  0.021105948  0.021271309            8 
 1712000    0.9758408   -7.8581278    433.68802  0.021110203  0.021264126            1 
 1713000   0.96880397   -7.8757053     432.8682  0.021057997  0.021256943            1 
 1714000   0.98906738   -7.8365354    433.15186  0.021059503  0.021249734            4 
 1715000   0.98030803   -7.8599447    432.90286  0.021035124  0.021242536            4 
 1716000   0.99878867   -7.8619354    432.03601   0.02098077   0.02123526            3 
 1717000   0.99322322   -7.8896738    433.12533   0.02102142  0.021227969            4 
 1718000   0.97202116   -7.8922314     432.9392  0.021000155  0.021220709            1 
 1719000   0.97308987   -7.8662853    433.28181  0.021004548  0.021213436            2 
 1720000    0.9959115    -7.891951    433.55611  0.021005625  0.021206208            5 
 1721000   0.98297623   -7.8518059    433.59288    0.0209952  0.021199029            2 
 1722000   0.96598284   -7.8612258    434.33605  0.021018973  0.021191862            3 
 1723000   0.96690131   -7.8501219    434.09956  0.020995336  0.021184692            6 
 1724000   0.96159962   -7.8620103    434.13842  0.020985036  0.021177454            2 
 1725000   0.98421513   -7.8561115    433.99598   0.02096599  0.021170224            6 
 1726000   0.97665321   -7.8331409    435.28804  0.021016224  0.021163115            6 
 1727000   0.98275644   -7.8538922    435.32028  0.021005611  0.021155999            3 
 1728000   0.97989194   -7.8395189    435.84001  0.021018519  0.021148889            4 
 1729000   0.96835027   -7.8568496    434.51809  0.020942649  0.021141824            3 
 1730000   0.98505617   -7.8211737    436.57167  0.021029464   0.02113474            4 
 1731000   0.97104696   -7.8608012    436.12182  0.020995659  0.021127746            2 
 1732000    0.9945888   -7.8226099     437.6645  0.021057761  0.021120654            3 
 1733000   0.97594865   -7.8581223    436.46554  0.020987956  0.021113532            2 
 1734000   0.95891124   -7.8720863    434.12705  0.020863468  0.021106437            2 
 1735000   0.97348169   -7.8579172    435.64907  0.020924547  0.021099244            4 
 1736000   0.97967255   -7.8379227    436.48127  0.020952442  0.021092158            3 
 1737000   0.98120556   -7.7977408    436.56826  0.020944553  0.021085041            2 
 1738000   0.98583996   -7.8648668    436.05805  0.020908038  0.021077989            2 
 1739000   0.97759417   -7.8464331    436.58022  0.020921038  0.021070928            8 
 1740000   0.96081781   -7.8692529    437.28993  0.020943004  0.021063833            1 
 1741000   0.97199343   -7.8324223    435.73352  0.020856477  0.021056762            5 
 1742000   0.97902301   -7.8757101    436.54288  0.020883222  0.021049565            5 
 1743000   0.95838338    -7.843077    438.47169  0.020963458  0.021042522            4 
 1744000   0.94772239   -7.8689119    436.96433  0.020879412  0.021035422            4 
 1745000   0.96982552   -7.8569437    437.17254   0.02087739   0.02102825            3 
 1746000   0.96665214   -7.9113403     436.6081  0.020838493  0.021021073            3 
 1747000   0.96466128   -7.8755712    435.52726  0.020775008  0.021013904            1 
 1748000   0.98131102   -7.8770142    437.89322  0.020875916   0.02100669            9 
 1749000   0.97634696   -7.8112693    438.19393  0.020878308  0.020999653            3 
 1750000   0.97851214   -7.8569936    436.94105  0.020806717  0.020992634            5 
 1751000   0.95388971   -7.8752974    437.28941  0.020811413   0.02098562            2 
 1752000   0.98394983    -7.839943    438.40091  0.020852402  0.020978535            2 
 1753000   0.97518853   -7.8740894    437.79202  0.020811562  0.020971508            2 
 1754000   0.98203239   -7.8727775    436.76616  0.020750958  0.020964389            2 
 1755000   0.97095401    -7.843267     437.4242   0.02077038  0.020957229            2 
 1756000   0.96628907   -7.8468489     437.8162  0.020777155  0.020950185            2 
 1757000   0.97905925   -7.8927196    437.98304  0.020773242  0.020943082            4 
 1758000   0.97535531   -7.8377592    439.11254  0.020814967  0.020936001            4 
 1759000   0.97572523   -7.9072822    438.18005  0.020758956  0.020928901            4 
 1760000   0.96830085   -7.8502358    440.55777  0.020859743  0.020921896            3 
 1761000   0.97204181    -7.839943     440.3974  0.020840309  0.020915009            3 
 1762000   0.97717116   -7.8484515     440.0292  0.020811067  0.020908062            3 
 1763000   0.98555611   -7.8254344    439.81542  0.020789158  0.020901113            4 
 1764000   0.96780349     -7.88105    440.30771  0.020800629  0.020894161            5 
 1765000   0.94489519   -7.8371257    440.28725  0.020787878  0.020887227            2 
 1766000   0.95318296    -7.856525    441.32603  0.020825124  0.020880298            2 
 1767000   0.96597326   -7.8884792    440.74379   0.02078588  0.020873323            3 
 1768000   0.95741859   -7.8479247    440.97153  0.020784857  0.020866365            4 
 1769000   0.96477312   -7.8426768    439.20443  0.020689864  0.020859331            5 
 1770000   0.97647353   -7.8702037    440.72474  0.020749752  0.020852328            6 
 1771000   0.98487562   -7.8972621     439.2986   0.02067093  0.020845285            2 
 1772000   0.99536544   -7.8855254    440.32531  0.020707548  0.020838289            2 
 1773000   0.96243794   -7.8492294    441.63582  0.020757465  0.020831338            3 
 1774000   0.98904735   -7.8629626    442.34346  0.020779005  0.020824401            4 
 1775000   0.97889134   -7.8583617    441.28204  0.020717467   0.02081746            6 
 1776000    0.9586811   -7.8966536     441.0104  0.020693056  0.020810565            4 
 1777000   0.96857212    -7.880095    441.26361  0.020693285   0.02080365            2 
 1778000   0.99954956   -7.8218499    442.42149  0.020735915  0.020796745            2 
 1779000   0.97993435   -7.8642278    441.97057  0.020703137  0.020789893            2 
 1780000    0.9548141   -7.8930613    442.25754  0.020704941  0.020782983            4 
 1781000   0.95216603   -7.8776405    441.02964  0.020635862  0.020776003            6 
 1782000   0.96893813     -7.82876    443.63795  0.020746257  0.020769135            2 
 1783000   0.96802826   -7.8727286    442.13297  0.020664282   0.02076234            3 
 1784000    0.9732803   -7.8913029    441.91061  0.020642312  0.020755547            2 
 1785000   0.95008286     -7.90285    442.11461  0.020640271  0.020748656            2 
 1786000   0.93964273   -7.9148456    442.60297  0.020651501  0.020741711            3 
 1787000   0.98378336   -7.8760871    442.25665  0.020623795  0.020734906            4 
 1788000   0.95279168    -7.876787    443.38265   0.02066474  0.020728082            4 
 1789000    0.9824017   -7.8966727    443.14562  0.020642147  0.020721258            2 
 1790000    0.9739522   -7.9095398    443.59984  0.020651761   0.02071439            3 
 1791000   0.95454524    -7.880107    443.28945  0.020625788   0.02070754            3 
 1792000   0.97457911    -7.929411    443.21071  0.020610617  0.020700646            5 
 1793000   0.95106415    -7.889406    444.10947  0.020640894  0.020693684            7 
 1794000   0.95927937   -7.8957326    444.06322   0.02062724  0.020686825            3 
 1795000   0.96300078   -7.8858158    444.24646  0.020624255  0.020679998            1 
 1796000   0.96816912     -7.92651    443.71006  0.020587883  0.020673195            2 
 1797000     0.943316   -7.8858165    443.58136  0.020570458  0.020666397            3 
 1798000   0.94697098   -7.8655781    447.02777  0.020718751  0.020659652            4 
 1799000   0.97454686    -7.875279    446.07984  0.020663324   0.02065296            3 
 1800000    0.9720208   -7.8495139    446.63868  0.020677717  0.020646318            1 
 1801000    0.9667926   -7.8164764    447.16241  0.020690469  0.020639721            3 
 1802000   0.95323946   -7.8515797    445.45112  0.020599848  0.020633035            4 
 1803000   0.96534136   -7.8972674    445.12154   0.02057319  0.020626302            3 
 1804000   0.94606922   -7.8961445    445.14503  0.020562871  0.020619489            2 
 1805000   0.95713046   -7.8647465    445.68387  0.020576356  0.020612601           11 
 1806000    0.9365882   -7.9051749    444.33713   0.02050282  0.020605699            3 
 1807000   0.96621747    -7.855766    445.18529  0.020530589  0.020598874            4 
 1808000   0.97128806   -7.9001808    445.46268  0.020532019  0.020592027            2 
 1809000   0.95473066   -7.8645316    445.70481  0.020531823  0.020585263            2 
 1810000   0.95119574   -7.8866564    444.97443  0.020486852  0.020578465            2 
 1811000   0.96884067    -7.869637      446.021  0.020523698  0.020571621            4 
 1812000   0.96216959   -7.8635747    444.89598  0.020460632  0.020564795            2 
 1813000   0.96920003   -7.8660099    445.12624   0.02045993   0.02055796            8 
 1814000   0.95190651   -7.8901432    445.33261  0.020458131  0.020551089            2 
 1815000    0.9795662   -7.9078461     444.4001  0.020404045  0.020544295            5 
 1816000    0.9415671   -7.8794351    445.66537   0.02045087  0.020537404            4 
 1817000   0.96658927   -7.8978968    446.47234  0.020476626  0.020530606            4 
 1818000   0.95520678   -7.8985735    446.40213  0.020462144  0.020523726            4 
 1819000   0.97107368   -7.9135087    446.18438  0.020440919  0.020516895            4 
 1820000   0.96146173   -7.8836796    447.98265  0.020512026  0.020510102            2 
 1821000   0.97526027   -7.8658983     446.1575  0.020417239  0.020503358            3 
 1822000   0.96179606   -7.8570877     448.1255  0.020496044  0.020496609            4 
 1823000   0.95900704   -7.8443864     448.5783  0.020505499  0.020489836            3 
 1824000   0.95679319   -7.8490229    447.40092  0.020440466   0.02048302            2 
 1825000   0.95491056   -7.8794925    446.39501  0.020383334  0.020476197            4 
 1826000   0.96791992   -7.8967718    446.40328  0.020372548  0.020469282            3 
 1827000   0.96138097    -7.887947    447.35486  0.020404801  0.020462424            5 
 1828000   0.97482951   -7.9415096    445.62701  0.020314871  0.020455539            3 
 1829000   0.95714836   -7.8978672    448.04867    0.0204141  0.020448637            3 
 1830000   0.94865137   -7.9082595    447.17788  0.020363292  0.020441767            3 
 1831000   0.97667321   -7.9153842    447.36454  0.020360665  0.020434946            8 
 1832000   0.96652401   -7.8720093    448.13945    0.0203848  0.020428126            2 
 1833000   0.95485982    -7.880086    448.44693  0.020387658  0.020421325           12 
 1834000   0.94578816   -7.9381782    447.54025  0.020335344   0.02041451            4 
 1835000   0.97973957   -7.8988934    447.74331  0.020333484  0.020407689            2 
 1836000    0.9480326   -7.8858349    447.26115  0.020300524   0.02040097            2 
 1837000   0.95789615   -7.9248171    448.00204  0.020323083  0.020394129            5 
 1838000   0.97498622   -7.8943161    447.53858  0.020291013  0.020387256            2 
 1839000    0.9776745   -7.8512314    448.75933  0.020335297  0.020380414            5 
 1840000   0.93910024   -7.9071129    447.77838  0.020279818  0.020373558            4 
 1841000   0.94969251   -7.8890022    447.69003  0.020264803  0.020366718            5 
 1842000   0.96093581    -7.889079    448.75466  0.020301966  0.020359852            2 
 1843000   0.99430455   -7.9209786     447.9022  0.020252405  0.020353039           10 
 1844000   0.94768383   -7.9096464    448.26976  0.020258033  0.020346288            2 
 1845000    0.9687949   -7.8815317    449.06696   0.02028306  0.020339489            3 
 1846000   0.95125164   -7.9232761    448.69505  0.020255284  0.020332655            6 
 1847000   0.95639085   -7.9446886    448.77031  0.020247713  0.020325783            5 
 1848000   0.95319651   -7.9113889    449.06442  0.020250019  0.020318955            4 
 1849000   0.95881176   -7.8858456    449.74231  0.020269619  0.020312224            5 
 1850000   0.96037675   -7.8911359    449.63007  0.020253607  0.020305463            5 
 1851000   0.94840606   -7.8965673     449.9491  0.020257028   0.02029871            2 
 1852000   0.96381426   -7.9303362    449.00899  0.020203788   0.02029195            3 
 1853000     0.948242   -7.9008246    450.48675  0.020259343  0.020285156            2 
 1854000   0.94803764   -7.9204966    450.01108  0.020227035  0.020278363            5 
 1855000    0.9534538   -7.8841284    451.18137  0.020268705  0.020271605            5 
 1856000   0.94294722   -7.8652349    451.04133  0.020251497  0.020264825            2 
 1857000   0.97273346   -7.8972423    450.84711  0.020231875  0.020258029            4 
 1858000    0.9568211   -7.8891987    451.35926  0.020243957  0.020251316            2 
 1859000   0.93396009   -7.9052838    450.63392  0.020200552  0.020244657            2 
 1860000   0.96250265   -7.8672429    452.29666  0.020264187  0.020237904            4 
 1861000   0.95534114   -7.9059333    450.08779  0.020154388  0.020231182            2 
 1862000   0.94001359   -7.8814186    450.41797  0.020158341  0.020224431            4 
 1863000   0.94247743   -7.9489763    451.57609  0.020199324  0.020217673            6 
 1864000   0.93627682   -7.9683978    451.07568  0.020166116  0.020210834            7 
 1865000   0.96296094   -7.9387554    451.19029  0.020160424  0.020204045            2 
 1866000   0.94888003    -7.886007    451.82123  0.020177797   0.02019733            1 
 1867000    0.9301335   -7.9020479    453.08353  0.020223332  0.020190612            5 
 1868000    0.9354257   -7.9104918    451.19421  0.020128222  0.020183899            3 
 1869000   0.94557125   -7.9220974    451.42444  0.020127717  0.020177234            2 
 1870000   0.94887829   -7.9374097    450.57019  0.020078885  0.020170456            7 
 1871000   0.94201444   -7.8961905    452.21317  0.020141331  0.020163738            2 
 1872000   0.97138791   -7.9046285    452.15802  0.020128117  0.020157032            3 
 1873000   0.96014059   -7.9099643    452.37863  0.020127186  0.020150359            4 
 1874000   0.92093879   -7.9213567    451.37412  0.020071777    0.0201436            2 
 1875000   0.96334639   -7.8997271    452.19652  0.020097623  0.020136853            9 
 1876000   0.92376506   -7.9134589    452.60921  0.020105242  0.020130109            4 
 1877000   0.95281076   -7.9290421    452.48683  0.020089097  0.020123377            4 
 1878000   0.92607723   -7.9522781    452.97166  0.020099914  0.020116623            3 
 1879000   0.94746876   -7.9105275     452.6477  0.020074849   0.02010989            1 
 1880000   0.96930584   -7.9518473    451.26177  0.020002738  0.020103175            2 
 1881000   0.93902553   -7.8821916    453.23965  0.020079729  0.020096493            4 
 1882000   0.94550072    -7.901951    453.89583  0.020098115  0.020089806            7 
 1883000   0.95396582   -7.8838079    454.00502  0.020092274  0.020083146            3 
 1884000   0.95646246   -7.9001152    455.58686  0.020151577  0.020076527            3 
 1885000   0.94229339   -7.8713291    455.22275   0.02012479  0.020069928            2 
 1886000   0.93970799   -7.9205782    453.80795  0.020051606  0.020063384            3 
 1887000   0.98415501   -7.9409878    454.72763  0.020081595  0.020056802            4 
 1888000   0.95416396   -7.9424988    454.39807  0.020056412  0.020050152            1 
 1889000   0.95853514   -7.9419464    455.26662  0.020084111  0.020043563            4 
 1890000   0.94220623   -7.8826098    455.82263     0.020098  0.020037027            5 
 1891000   0.95951551    -7.939099    454.08995  0.020011015  0.020030474            2 
 1892000    0.9524982   -7.9193992     454.5684  0.020021511  0.020023884            2 
 1893000   0.94023313   -7.9283793    453.83637   0.01997871  0.020017315            2 
 1894000   0.94448187   -7.9230789    454.40774  0.019993301  0.020010735            1 
 1895000   0.92894824   -7.8831595    456.89572   0.02009216  0.020004143            3 
 1896000   0.94972475   -7.9492583    454.74793  0.019987163  0.019997619            6 
 1897000   0.96134852   -7.9468846    455.05509   0.01999012  0.019991038            5 
 1898000   0.95545403   -7.9384103    454.87168  0.019971535  0.019984389            8 
 1899000   0.93250729   -7.8710144    456.93216  0.020051438  0.019977761            3 
 1900000   0.94385978   -7.9071955    455.09102  0.019960132  0.019971241            1 
 1901000   0.90492654   -7.9210891    455.12471  0.019951109  0.019964624            4 
 1902000   0.96577188   -7.9179725    455.30949  0.019948716   0.01995799            6 
 1903000   0.94815179   -7.9155974    455.42125  0.019943127  0.019951405            4 
 1904000   0.95457286   -7.9024751    456.06233  0.019960711  0.019944845            2 
 1905000   0.95637311   -7.9597596    455.21025  0.019912959  0.019938263            4 
 1906000   0.95052088   -7.9046951    457.07765  0.019984157  0.019931626            2 
 1907000   0.94138744   -7.9184489     457.2743  0.019982271   0.01992508            3 
 1908000   0.95026414   -7.8889217    457.16847  0.019967176  0.019918518            2 
 1909000   0.94600774   -7.9547544    456.56271  0.019930274  0.019911957            3 
 1910000   0.93421738   -7.9363223    456.32207   0.01990934  0.019905392            2 
 1911000   0.94953139   -7.8748122    456.94393  0.019926039  0.019898901            2 
 1912000   0.95007606   -7.9312006    456.75568  0.019907413  0.019892366            2 
 1913000   0.95136915   -7.9346532    456.69969  0.019894568  0.019885839            2 
 1914000   0.93854177   -7.9332214    457.31164  0.019910817  0.019879303            3 
 1915000   0.95569332   -7.9321806    457.86868   0.01992466   0.01987279            2 
 1916000   0.95765025   -7.9235007    458.38656  0.019936785  0.019866282            6 
 1917000   0.94702561   -7.9155546    456.62609  0.019849856  0.019859711            4 
 1918000   0.97118104      -7.9779    457.50565  0.019877722  0.019853225            4 
 1919000   0.94263811   -7.9288897    458.28565  0.019901235  0.019846798            9 
 1920000   0.94072893   -7.9170432    458.83789  0.019914839  0.019840385            1 
 1921000   0.95310338   -7.9135362    460.35138  0.019970128  0.019834021            1 
 1922000    0.9473055   -7.9474302    458.73737  0.019889758  0.019827599            6 
 1923000   0.95091903   -7.9102666    458.49925  0.019869096  0.019821186            4 
 1924000   0.91840751    -7.940251    457.70738  0.019824471  0.019814751            6 
 1925000   0.91902557   -7.9663981    458.76696  0.019860042  0.019808278            2 
 1926000   0.93677503   -7.9981348    458.25915  0.019827758  0.019801813            6 
 1927000   0.92373393   -7.9379578    458.83418  0.019842336  0.019795381            6 
 1928000   0.96543068   -7.9574055    459.39822  0.019856424  0.019788903            2 
 1929000   0.95467488   -7.9666544    458.60291  0.019811772   0.01978247            2 
 1930000   0.93858127    -7.945899    459.75784  0.019851375  0.019776056            5 
 1931000   0.94426218   -7.9370447    460.64913  0.019879559  0.019769691            4 
 1932000   0.94491556   -7.8977247    460.45834   0.01986104  0.019763434            2 
 1933000    0.9438623   -7.9340475    459.72036   0.01981895  0.019757095            6 
 1934000   0.94362294   -7.9304512    459.63856  0.019805178  0.019750724            2 
 1935000   0.94368646   -7.9011863    460.18458  0.019818457  0.019744361            3 
 1936000   0.93113161   -7.9265233     462.0443   0.01988827  0.019738078            2 
 1937000    0.9530533   -7.9078127    460.30802  0.019803305  0.019731774            3 
 1938000   0.94117213   -7.9465039    461.07182   0.01982593  0.019725455            1 
 1939000   0.93435054   -7.9276859    461.37597  0.019828776  0.019719183            3 
 1940000   0.92355336   -7.9139675    461.76413  0.019835229  0.019712871            9 
 1941000   0.94889498    -7.912835    460.90195  0.019787994  0.019706559            2 
 1942000   0.92406326   -7.9524173    460.87849  0.019776798  0.019700178            6 
 1943000   0.93386816   -7.9261151    461.24652  0.019782404  0.019693766            3 
 1944000   0.94704319    -7.980447    460.35998  0.019734224  0.019687343            2 
 1945000    0.9091556   -7.9634388    460.80545  0.019743164  0.019680896            1 
 1946000   0.94512376   -7.9216373    462.38026  0.019800456  0.019674504            3 
 1947000   0.95066964   -7.9500289    459.60247  0.019671395  0.019668081            3 
 1948000   0.96583527   -7.9421669    460.29509  0.019690926  0.019661623            8 
 1949000   0.92231686   -7.9662731    462.16685  0.019760854  0.019655204            2 
 1950000   0.91668095   -7.9225277    461.85681   0.01973747  0.019648872            2 
 1951000   0.92695449   -7.9564783    462.48334  0.019754115  0.019642548            2 
 1952000   0.92199834   -7.9342934     462.7667  0.019756092  0.019636225            3 
 1953000   0.94486877   -7.9538457     461.2988  0.019683342  0.019629883            5 
 1954000   0.92460865   -7.9608919    462.76706  0.019735886  0.019623531            2 
 1955000   0.95420297   -7.9257522     462.4192  0.019710963  0.019617136            3 
 1956000   0.93475556    -7.942835    463.34851  0.019740479  0.019610795            3 
 1957000   0.95483382   -7.9432719    461.26034  0.019641472  0.019604396            4 
 1958000   0.93741843   -7.9216365    463.80832  0.019739884  0.019598038            3 
 1959000    0.9462106   -7.9205727    463.36142  0.019710797  0.019591758            9 
 1960000   0.92854534   -7.9532409     462.4409  0.019661603  0.019585471            3 
 1961000   0.94194607   -7.9348637    463.10841  0.019679943  0.019579198            3 
 1962000   0.92211014   -7.9515937    463.18857  0.019673317  0.019572904            5 
 1963000   0.94154906   -7.9858323    463.39714  0.019672149   0.01956657            3 
 1964000   0.94021336   -7.9326169    463.17716  0.019652799   0.01956021            4 
 1965000   0.94506042   -7.9562455    464.11467  0.019682556   0.01955385            4 
 1966000   0.93221822   -7.9351299    465.56857  0.019734171  0.019547504            3 
 1967000   0.92759067   -7.9683517    462.11762  0.019577937  0.019541149            5 
 1968000   0.93547042   -7.9508953    463.42885  0.019623511  0.019534837            2 
 1969000   0.93646376   -7.9120216    463.75712  0.019627438  0.019528533            3 
 1970000   0.92895866   -7.9705018      462.908  0.019581557  0.019522164            2 
 1971000   0.94240851   -7.9429772    463.60337  0.019601022  0.019515801            7 
 1972000   0.93757389   -7.9289109    463.76565   0.01959794  0.019509543            3 
 1973000   0.93881723   -7.9567638     465.1398  0.019646047  0.019503299            3 
 1974000   0.94951004   -7.9242823    464.99203  0.019629856  0.019497073            2 
 1975000   0.92399661   -7.9446834     464.8946  0.019615806  0.019490818            2 
 1976000   0.94442471   -7.9343191    464.80856   0.01960225  0.019484594            2 
 1977000   0.94435755   -7.9681956    464.43084  0.019576414  0.019478363            3 
 1978000     0.919518   -7.9714359    465.31443  0.019603743  0.019472107            3 
 1979000   0.94505195   -7.9717855    463.56179  0.019520035  0.019465724            3 
 1980000   0.94651112    -7.973173    464.68889  0.019557613  0.019459363            5 
 1981000   0.91885518   -7.9495252    466.40245  0.019619824  0.019453029            3 
 1982000    0.9304918   -7.9608953    465.22147   0.01956027   0.01944679            1 
 1983000   0.94387254    -7.956814    466.86371   0.01961942  0.019440536            3 
 1984000   0.94030651    -7.977892    463.76207  0.019479254   0.01943426            5 
 1985000    0.9336985   -7.9893676    465.45706  0.019540599  0.019428014            4 
 1986000    0.9124786   -7.9606137    466.31381  0.019566709  0.019421775            4 
 1987000   0.94584668   -7.9559771    465.31499  0.019514972  0.019415618            5 
 1988000   0.93756263   -7.9931018    465.04296  0.019493752  0.019409373            7 
 1989000    0.9339073   -7.9731783    464.64093  0.019467108  0.019403044            3 
 1990000   0.94361115   -7.9307712    467.41884  0.019573653  0.019396765            4 
 1991000   0.91917272   -7.9517271    468.15438  0.019594608  0.019390582            2 
 1992000   0.94288243   -7.9654796    465.94647  0.019492406  0.019384322            2 
 1993000   0.94859943   -7.9933833    466.50242  0.019505871  0.019378037            4 
 1994000   0.93052099   -8.0048752    465.82329  0.019467707  0.019371717            2 
 1995000   0.92825649   -7.9751071    467.00748  0.019507414  0.019365491            2 
 1996000   0.94607259   -7.9711297    466.13862  0.019461365  0.019359194            6 
 1997000   0.95457198    -7.965842    466.81365  0.019479788  0.019352885            3 
 1998000   0.92946684   -7.9975135     465.9437  0.019433755  0.019346605            2 
 1999000   0.92463912   -7.9838236    467.09318  0.019471952  0.019340381            4 
 2000000   0.91872417   -7.9585754    465.76224   0.01940676  0.019334185            3 
 2001000   0.94504166   -7.9711482    467.47161  0.019468249  0.019327989            4 
 2002000   0.94511659   -7.9737451    466.75591  0.019428734  0.019321741            5 
 2003000   0.92477035   -7.9572876    467.48093  0.019449198  0.019315526            3 
 2004000   0.91884939   -7.9625863    468.39775  0.019477618  0.019309342            4 
 2005000   0.94972545   -7.9186098    468.26208  0.019462264  0.019303171            3 
 2006000   0.93016018   -7.9828766    468.93051   0.01948033  0.019296951            3 
 2007000   0.91604669   -7.9815159    466.85757  0.019384553  0.019290715            5 
 2008000   0.92799763   -7.9457082    467.18486  0.019388482  0.019284499            5 
 2009000   0.93052826   -7.9366024    468.80577  0.019446066  0.019278309            3 
 2010000   0.94912024   -7.9320642    468.79182  0.019435814  0.019272164            2 
 2011000   0.91255513   -7.9735742    468.70998  0.019422757  0.019265935            2 
 2012000   0.91996569   -7.9638142    468.71762   0.01941342  0.019259733            2 
 2013000   0.93727516   -7.9684064    468.21846  0.019383112  0.019253522            2 
 2014000   0.94174306    -7.935099      468.169  0.019371442  0.019247407            2 
 2015000   0.94141483   -7.9895809    467.97883  0.019353963  0.019241261           12 
 2016000   0.93543879   -7.9975076    468.90085  0.019382475  0.019235026            4 
 2017000   0.94193993   -7.9588575    467.72668  0.019324355  0.019228787            5 
 2018000   0.91027888      -7.9802    468.50078  0.019346745  0.019222565            3 
 2019000   0.93369256   -7.9791839    468.67855    0.0193445  0.019216348            6 
 2020000   0.94773512     -7.97657    469.02968  0.019349409  0.019210135            3 
 2021000   0.91136395   -8.0069149    468.59214  0.019321794  0.019203935            5 
 2022000   0.92810288   -7.9717037     468.1633  0.019294564  0.019197717            6 
 2023000   0.93345316   -8.0207157    467.45978  0.019256046  0.019191508            2 
 2024000   0.92174811   -7.9952605    468.94479  0.019307674  0.019185273            3 
 2025000   0.91749785   -7.9597824    469.12817  0.019305686  0.019179092            1 
 2026000   0.91367333    -7.979021    469.19148  0.019298761  0.019172956            2 
 2027000   0.91640705   -7.9835599    469.70394  0.019310308  0.019166758            4 
 2028000   0.92047142   -7.9777207    470.24911  0.019323188  0.019160544            3 
 2029000   0.90625067   -7.9783018    469.76748  0.019293884  0.019154387            2 
 2030000   0.94203091   -8.0098043    470.74713  0.019324595  0.019148212            3 
 2031000    0.9396932   -7.9628512    470.26329  0.019295228  0.019142079            2 
 2032000   0.91766017   -7.9863264    469.87533  0.019269822  0.019135969            7 
 2033000   0.92119301   -7.9577916    471.39765  0.019322743  0.019129807            2 
 2034000   0.92387426   -7.9599661    471.16706  0.019303796  0.019123716            4 
 2035000   0.93561594   -7.9650648    469.74822  0.019236209   0.01911763            4 
 2036000    0.9177087   -7.9832547      470.844  0.019271611   0.01911155            3 
 2037000   0.93244159   -7.9318771     470.9121  0.019264936  0.019105406            3 
 2038000   0.93454715    -7.978262    471.14508   0.01926501  0.019099297            3 
 2039000   0.92536231   -8.0095415    470.78057  0.019240664   0.01909312            5 
 2040000   0.93666357    -8.029905    469.53703  0.019180434  0.019086968            7 
 2041000   0.91969059   -8.0140926    471.23947  0.019240547  0.019080817            4 
 2042000    0.9195865   -8.0009303    470.26348  0.019191294  0.019074694            7 
 2043000   0.93061633   -8.0241584    470.60715  0.019195919  0.019068517            7 
 2044000   0.91470606   -8.0194716    469.73062  0.019150792  0.019062303            6 
 2045000   0.93289596   -7.9869974    471.80145  0.019225813  0.019056137           12 
 2046000   0.91878095   -8.0290825    469.57097  0.019125569  0.019049974            4 
 2047000    0.9291516    -8.017583    470.89262   0.01917003  0.019043775            6 
 2048000   0.90063834   -7.9944731     471.3392  0.019178841  0.019037575            2 
 2049000   0.91357293    -7.986876    471.81033  0.019188642  0.019031396            3 
 2050000   0.90056867   -7.9690513    472.52093  0.019208168   0.01902528            2 
 2051000   0.91229043    -7.997898    471.71858  0.019166203  0.019019126            4 
 2052000   0.92046126   -7.9664908    472.52937  0.019189789  0.019013014            4 
 2053000   0.93729543   -7.9824564     472.1887  0.019166614  0.019006955            2 
 2054000   0.89544316   -7.9898189    472.23786  0.019159277  0.019000784            3 
 2055000   0.92662295    -7.974787    473.03839  0.019182417  0.018994636            3 
 2056000    0.9425831   -8.0018986     472.3296  0.019144358  0.018988467            1 
 2057000   0.91986001   -7.9831797    472.59004  0.019145602  0.018982264            2 
 2058000   0.92453392   -8.0225606    472.00875  0.019112761  0.018976107            2 
 2059000   0.92128029   -7.9893367    471.53439   0.01908428  0.018969965            4 
 2060000   0.92654743   -8.0043909    472.31208  0.019106476  0.018963765           11 
 2061000   0.92865354     -8.01537    472.12557  0.019089664  0.018957558            8 
 2062000   0.91972831   -8.0342329    472.38208  0.019090773  0.018951324            9 
 2063000   0.91695828   -8.0137695    472.32003  0.019079012  0.018945084            2 
 2064000   0.93557926   -8.0015807    472.42132  0.019073858  0.018938912            3 
 2065000   0.91726975   -7.9942841    473.51153  0.019108617  0.018932763            4 
 2066000   0.90414192   -7.9828459    473.06373  0.019081306  0.018926599            2 
 2067000   0.90503839   -7.9923976    472.79882  0.019061394  0.018920466            5 
 2068000   0.91695723   -7.9951728    473.56638  0.019083107  0.018914308            3 
 2069000   0.90948984    -7.959029      473.426   0.01906823  0.018908186            2 
 2070000   0.91163486   -8.0179558    472.59042  0.019025379  0.018902072            3 
 2071000   0.93485194   -8.0274805    471.38108  0.018967531  0.018895903            4 
 2072000   0.91279633   -8.0103231    473.40016  0.019039582  0.018889718            4 
 2073000     0.926456   -8.0038826    473.46433  0.019032977  0.018883531            7 
 2074000   0.92808385   -7.9977083    473.85748  0.019039596  0.018877348            5 
 2075000   0.91596284   -8.0279851    471.88282  0.018951117   0.01887117            4 
 2076000   0.90607221   -8.0191346     473.8345  0.019020332  0.018865011            3 
 2077000   0.89552439    -7.997404    473.64243  0.019003468   0.01885885            2 
 2078000   0.93959611   -8.0020087    473.94025  0.019006266   0.01885272            3 
 2079000   0.91395684   -8.0055333    474.79945  0.019031564  0.018846653            3 
 2080000   0.91907425   -7.9548212     475.4388  0.019048029  0.018840566            1 
 2081000   0.90522506   -8.0049115      474.895  0.019017099  0.018834502            3 
 2082000   0.92592182   -7.9840343    473.61502  0.018956733  0.018828363            2 
 2083000   0.90799908   -7.9645411    475.05804  0.019005362  0.018822298            3 
 2084000    0.9056378   -7.9992086     475.2412  0.019003567  0.018816135            4 
 2085000   0.93177289   -8.0202741     474.1406  0.018950464  0.018809981            4 
 2086000   0.91244492   -8.0189927    473.23334  0.018905135  0.018803787            3 
 2087000   0.90975849   -8.0161853    474.80565  0.018958858  0.018797599            5 
 2088000    0.9059729   -8.0078645    475.20303  0.018965638  0.018791432            4 
 2089000   0.91345838   -7.9997292    475.48748  0.018967907  0.018785348            2 
 2090000   0.90501845   -7.9918352    474.77413  0.018930388  0.018779271            3 
 2091000   0.91390627   -8.0169416    475.91127  0.018966654  0.018773183            4 
 2092000   0.91463915   -7.9788292     475.7154  0.018949785  0.018767144            5 
 2093000    0.9147065   -8.0059315    476.28725    0.0189635  0.018761112            3 
 2094000   0.91619221   -8.0021053    476.15284  0.018949094  0.018755129            4 
 2095000   0.91141326   -8.0237714    475.95727   0.01893227  0.018749091            5 
 2096000   0.88614987   -8.0173732    476.66655  0.018951437  0.018743013            3 
 2097000    0.9001265   -8.0224716    476.03872   0.01891745  0.018736959            2 
 2098000   0.92252762   -8.0115347     475.5748  0.018890006   0.01873087            4 
 2099000   0.92297962   -7.9956307    476.35485  0.018911976  0.018724774            4 
 2100000    0.9280872   -7.9745595    477.04277  0.018930269  0.018718689            5 
 2101000   0.89859244   -7.9993326    475.80289   0.01887208  0.018712675            2 
 2102000   0.91677889   -8.0020119    476.69381  0.018898423  0.018706671            2 
 2103000   0.91778283   -8.0041966    477.31184  0.018913926  0.018700609            4 
 2104000   0.90070166   -8.0133982    476.52462  0.018873757  0.018694515            6 
 2105000   0.92727043   -8.0268437    476.48794  0.018863339  0.018688455            2 
 2106000   0.90731738   -7.9887235    476.24361  0.018844714  0.018682374            4 
 2107000   0.93841217   -7.9832205    477.94505  0.018903063  0.018676421            5 
 2108000   0.90441663   -8.0232923    476.79316   0.01884856  0.018670409            4 
 2109000     0.906017   -8.0197271    475.93512  0.018805718  0.018664306            4 
 2110000   0.88768784   -8.0209394     476.5976   0.01882297  0.018658225            3 
 2111000   0.92030235   -8.0214765    477.86503  0.018864086  0.018652144            6 
 2112000   0.91586662   -7.9766406    478.81993  0.018892832  0.018646134            2 
 2113000   0.91835244   -7.9884346    477.36525   0.01882652   0.01864016            1 
 2114000   0.91187791   -8.0139157    477.41701  0.018819655  0.018634149            2 
 2115000   0.92158357   -8.0073277    477.08581  0.018797707  0.018628109            2 
 2116000   0.90320027    -7.995145    477.96712  0.018823532  0.018622099            2 
 2117000   0.89704835   -8.0087439    476.03511  0.018738589  0.018616045            2 
 2118000   0.92254316    -8.037466    476.94678  0.018765612  0.018609971            4 
 2119000   0.90016916   -8.0120897    478.23463  0.018807402  0.018603935            2 
 2120000   0.90399291   -8.0150786    478.26491  0.018799721  0.018597897            2 
 2121000    0.9079808   -8.0171265    477.92031  0.018777319  0.018591878            5 
 2122000   0.90021699   -8.0182849    479.30182  0.018822723  0.018585891            2 
 2123000   0.91611382   -8.0224016    478.96201  0.018800519  0.018579934            5 
 2124000   0.91876776   -7.9867242    479.31608  0.018805559  0.018573973            5 
 2125000   0.91124481   -7.9953984    478.33449  0.018758215  0.018567996            3 
 2126000   0.90124497    -7.999288     478.2995  0.018748021  0.018561938            6 
 2127000   0.92144501   -8.0376601    477.94278   0.01872523  0.018555859            3 
 2128000   0.89461995   -8.0332771    477.18777  0.018686864  0.018549789            7 
 2129000   0.93005789   -8.0433078    478.66101  0.018735753   0.01854378            6 
 2130000   0.92959078   -8.0148041    478.48579  0.018720101  0.018537823            4 
 2131000   0.90695105   -8.0357279    478.94192  0.018729154  0.018531853            4 
 2132000   0.90997351   -8.0009513    479.76106  0.018752387  0.018525887            3 
 2133000   0.90675185   -8.0120647    479.41141  0.018729935  0.018519955            4 
 2134000   0.91974876   -8.0167646    479.68009   0.01873165  0.018514012            8 
 2135000   0.90742901   -8.0148236    481.31446  0.018786669   0.01850804            2 
 2136000   0.89008585   -7.9890093    480.25155  0.018736406  0.018502115            3 
 2137000   0.90607247   -8.0479778    480.69422    0.0187449  0.018496204            4 
 2138000   0.92995511   -8.0342508     480.8179  0.018740953  0.018490244            2 
 2139000   0.92936281   -8.0285001    480.21073  0.018708537  0.018484283            3 
 2140000   0.90358516   -8.0404302     480.2645  0.018701889  0.018478304            6 
 2141000   0.91923347   -8.0520785    480.31287  0.018695036  0.018472346            6 
 2142000   0.88555754   -8.0449698    480.17995  0.018681137  0.018466354            4 
 2143000   0.90613976   -8.0783969    479.16758  0.018633052  0.018460335            4 
 2144000   0.89144258   -8.0552193    480.05809  0.018658974   0.01845433            5 
 2145000   0.89049573   -8.0254757    481.34626  0.018700321  0.018448387            5 
 2146000   0.92443894   -8.0079886    481.41195  0.018694158   0.01844248            6 
 2147000   0.90397687   -8.0518278    480.76659  0.018660402  0.018436538            5 
 2148000   0.90310334   -8.0483299    479.81597  0.018614834  0.018430563            7 
 2149000   0.89595863   -8.0508944     480.9719  0.018650997  0.018424626            3 
 2150000   0.88583746   -8.0523469    480.97448  0.018642422  0.018418662            6 
 2151000    0.9202284    -8.041053    481.41204  0.018650707  0.018412728            3 
 2152000   0.89355351   -8.0331554    482.55922  0.018686463  0.018406813            8 
 2153000   0.90101644   -8.0294459    481.28601  0.018628503  0.018400915            5 
 2154000   0.89501637   -8.0346587    482.31624  0.018659712  0.018395042            2 
 2155000   0.91445892   -8.0495698    482.33155  0.018651645  0.018389174            4 
 2156000   0.90362142   -8.0367638    481.67656  0.018617678  0.018383267            4 
 2157000   0.89530421   -8.0419576    481.19745  0.018590537  0.018377361            7 
 2158000   0.91530009   -8.0218818    482.12211  0.018617629  0.018371479            6 
 2159000   0.91028352   -8.0570991    480.95817   0.01856408  0.018365584            3 
 2160000   0.88252611   -8.0222756    483.03704  0.018635688  0.018359657            5 
 2161000   0.91369052   -8.0458469    480.44157  0.018526977  0.018353768            3 
 2162000   0.91576303   -8.0243479    482.47726  0.018596873    0.0183479            1 
 2163000   0.89729574   -8.0160452     482.3934  0.018585044  0.018341986            3 
 2164000   0.90762267   -8.0245071    482.39988  0.018576705  0.018336087            3 
 2165000    0.8917445    -8.045997    481.38772  0.018529165   0.01833015            8 
 2166000   0.89683732   -8.0331962    482.80848  0.018575272  0.018324234            3 
 2167000   0.90532343   -8.0241288    482.23468  0.018544635  0.018318376            2 
 2168000   0.90141753   -8.0467061    483.30753  0.018577319  0.018312458            4 
 2169000   0.90946339   -8.0566062    481.88803  0.018514217  0.018306522            2 
 2170000   0.91067783   -8.0235606    482.10543  0.018514034   0.01830058            2 
 2171000   0.90522988   -8.0621602    481.79336  0.018493527  0.018294657            5 
 2172000   0.91429021   -8.0576631    482.20429  0.018500778  0.018288703            3 
 2173000    0.9111527   -8.0546575    482.56581  0.018506129   0.01828274            3 
 2174000   0.87759495   -8.0064648    483.29645  0.018525623  0.018276835            6 
 2175000   0.90155703   -8.0704459    482.70012  0.018494257  0.018270908            5 
 2176000   0.90466353   -8.0957003    481.74298  0.018449103  0.018264964            7 
 2177000   0.90203814   -8.0434035    482.96501  0.018487407   0.01825904            3 
 2178000   0.90487079   -8.0579354    483.15205  0.018486075   0.01825317            4 
 2179000   0.88976032    -8.050114     482.2513  0.018443143   0.01824729            4 
 2180000   0.89051078   -8.0865875    482.61753  0.018448682  0.018241345            3 
 2181000   0.90310414   -8.0699471    483.28035  0.018465549  0.018235426            4 
 2182000   0.89846478     -8.08553     482.4634  0.018425886   0.01822948            3 
 2183000   0.89740244   -8.0836457    482.79885  0.018430251  0.018223555           14 
 2184000   0.92849978   -8.0777216    482.58435  0.018413628  0.018217619            2 
 2185000   0.90004439   -8.0814885    482.79996  0.018413423  0.018211713            4 
 2186000    0.9326826   -8.0428933    483.76659  0.018441849  0.018205811            3 
 2187000   0.90631483   -8.0493504    484.25462  0.018452013  0.018199915            3 
 2188000   0.89011246   -8.0892749    483.28893    0.0184068  0.018193998            3 
 2189000   0.91264699   -8.0582562    483.95621  0.018423794  0.018188048            5 
 2190000   0.91878956   -8.0409911     484.7195  0.018444426   0.01818221            7 
 2191000   0.89703576   -8.0213315    484.64646  0.018433229  0.018176358           10 
 2192000   0.89025044   -8.0541402    484.14349  0.018405698  0.018170512            5 
 2193000   0.90304386   -8.0591771    483.77337  0.018383241  0.018164664            2 
 2194000   0.89246389   -8.0318316    484.82338  0.018414744  0.018158873            4 
 2195000   0.92364032   -8.0786159    484.67063  0.018400556  0.018153039            2 
 2196000   0.88393829   -8.0554497    484.22126  0.018375124  0.018147181            8 
 2197000     0.898894   -8.0821097     483.3781  0.018334779  0.018141279            5 
 2198000   0.88309747   -8.0397252    485.43724  0.018404505  0.018135395            6 
 2199000   0.87879455   -8.0619654    485.08752  0.018382883   0.01812955            2 
 2200000   0.91324996   -8.0652698    484.25543  0.018343009  0.018123694            5 
 2201000    0.8859364    -8.066912    484.93947  0.018360573  0.018117827            5 
 2202000   0.90941704   -8.0775567    486.44159  0.018409082  0.018111964            9 
 2203000   0.89963364   -8.0582734    485.59108  0.018368554  0.018106128            3 
 2204000   0.91295676   -8.0207429    486.07415  0.018378484  0.018100309            2 
 2205000   0.87826662   -8.0628231    485.14505  0.018335036   0.01809447            4 
 2206000   0.89575597   -8.0777293     485.6305  0.018345063  0.018088608            4 
 2207000   0.89496915   -8.0903722      486.725  0.018378077  0.018082783            3 
 2208000   0.90695331   -8.0565138    485.91014     0.018339  0.018077035            5 
 2209000   0.88987943   -8.0727421    486.02063  0.018334866  0.018071255            8 
 2210000   0.90945101   -8.0805532     485.7143  0.018315019  0.018065445            4 
 2211000    0.9237816   -8.0640791    486.07318  0.018320261  0.018059659            6 
 2212000   0.90426673    -8.039734    487.67654  0.018372383  0.018053881            6 
 2213000   0.91271043   -8.0477481    487.54532   0.01835914   0.01804814            3 
 2214000   0.88331856   -8.0321552    486.80896  0.018323132  0.018042386            4 
 2215000   0.91230115   -8.0696544    487.82903  0.018353237  0.018036601            4 
 2216000   0.90807787    -8.042075    486.76111  0.018304795  0.018030863            2 
 2217000   0.89423625   -8.0412487    486.94554  0.018303471  0.018025167            2 
 2218000   0.89635632   -8.0439624    487.63977  0.018321302  0.018019383            3 
 2219000     0.897006   -8.0569864    486.99436  0.018288807  0.018013601            6 
 2220000   0.89475214   -8.0571478    486.36135  0.018256807   0.01800781            4 
 2221000   0.89753932   -8.0591954    487.00849  0.018272869  0.018002005            8 
 2222000   0.89776286   -8.0632125    486.65314  0.018251318  0.017996212            7 
 2223000   0.88506216   -8.0707333     487.0617  0.018258423    0.0179904            3 
 2224000   0.88423381   -8.0619796    486.26995  0.018220547  0.017984614            3 
 2225000   0.91172335   -8.1189168    486.24712  0.018211503  0.017978794            3 
 2226000   0.88957237   -8.0873141    486.25662  0.018203677  0.017972935            3 
 2227000   0.89195619   -8.0804798    486.60191  0.018208423  0.017967058            3 
 2228000    0.8874646   -8.0647354    487.08185  0.018218202  0.017961255            5 
 2229000    0.8960808   -8.1008696    485.74019  0.018159869  0.017955377            8 
 2230000   0.88702097   -8.0770434     486.7114  0.018188019  0.017949535            6 
 2231000   0.89188641   -8.0549814     487.3806  0.018204863  0.017943733            6 
 2232000     0.889874    -8.076218    487.32547  0.018194649  0.017937935            8 
 2233000   0.89669531   -8.0436618    487.61301  0.018197231  0.017932093            2 
 2234000   0.90522128   -8.0738818    487.50507  0.018185059  0.017926251            3 
 2235000   0.89797806    -8.048404    487.64473   0.01818213   0.01792041            4 
 2236000   0.87851392   -8.0767487    487.46888  0.018167445  0.017914598            4 
 2237000   0.87413752   -8.0734794    488.23442  0.018187842  0.017908822            2 
 2238000   0.89638406    -8.071178    487.47624  0.018151483  0.017903062            4 
 2239000   0.87561812   -8.0992875    487.45361  0.018142534   0.01789721            4 
 2240000   0.89547241   -8.0991841    487.74429  0.018145249  0.017891359            5 
 2241000   0.88932525   -8.0468469    488.02277  0.018147507  0.017885551            3 
 2242000   0.90230835   -8.1396925    486.90546  0.018097884   0.01787976            3 
 2243000   0.89341482   -8.0786867    488.98348  0.018167019  0.017873957            2 
 2244000   0.90636158   -8.0948102     488.2225  0.018130663  0.017868148            6 
 2245000   0.88249236   -8.1046819    488.28279  0.018124825  0.017862342            3 
 2246000   0.90357323   -8.1080611    487.03458  0.018070443  0.017856527            5 
 2247000   0.89515102   -8.0844986    488.28299    0.0181087  0.017850729            3 
 2248000   0.88579999   -8.0599852    489.51738  0.018146404  0.017844906            3 
 2249000   0.90305083   -8.0593804    488.43781  0.018098333  0.017839124            3 
 2250000   0.89308365   -8.0765862    488.62901  0.018097371  0.017833347            3 
 2251000   0.88213138   -8.0986182    488.51939  0.018085273  0.017827597            4 
 2252000   0.89412578   -8.0905758    488.45196  0.018074747  0.017821776            3 
 2253000   0.89365537   -8.0802217    488.88962  0.018082912   0.01781598            2 
 2254000   0.88806378   -8.1074321      487.678  0.018030095  0.017810157            4 
 2255000   0.90208102   -8.0945853    488.73894  0.018061306  0.017804316            2 
 2256000   0.89381034   -8.0790469    488.68857  0.018051439  0.017798498            6 
 2257000   0.88363239   -8.0947601    488.38858  0.018032365  0.017792731            1 
 2258000   0.88564515   -8.0949478    488.72647  0.018036849  0.017786911           10 
 2259000   0.88669533   -8.1088336    489.97806  0.018075036  0.017781105            8 
 2260000   0.87988083   -8.1055573    487.87206  0.017989383  0.017775241            5 
 2261000    0.9116641   -8.1103179      488.759  0.018014116    0.0177694            5 
 2262000   0.89385934   -8.1089725     488.7552  0.018006012  0.017763578            4 
 2263000   0.90690548   -8.0870162    488.67502  0.017995103  0.017757697            3 
 2264000   0.89211749   -8.0965211    487.85059  0.017956809  0.017751827            3 
 2265000   0.88042104   -8.0953974    488.92149  0.017988282  0.017745965            7 
 2266000   0.89392086   -8.1079257    488.89627  0.017979416  0.017740122            1 
 2267000   0.87763524   -8.1036596      489.929  0.018009447  0.017734266            5 
 2268000   0.89985085   -8.0430126    490.57042  0.018025074  0.017728446            9 
 2269000   0.89152142   -8.1241366    489.68815  0.017984727  0.017722659            2 
 2270000   0.89820952   -8.1009614    490.14212   0.01799347  0.017716891            6 
 2271000   0.87544855   -8.1276259    489.56835  0.017964492  0.017711144            4 
 2272000   0.89359509   -8.1172755    489.48339   0.01795347  0.017705332            7 
 2273000   0.89193239   -8.1210335    490.26448  0.017974207  0.017699551            2 
 2274000   0.88996816   -8.0951649    489.79616  0.017949141  0.017693778            3 
 2275000   0.88949489   -8.0701297     490.4014  0.017963421  0.017688042            2 
 2276000   0.88359243   -8.0580643    491.12076  0.017981867  0.017682344            3 
 2277000   0.87910721   -8.1050579    490.10185   0.01793668  0.017676636            2 
 2278000   0.87186006   -8.1112308    491.38201  0.017975637  0.017670916            2 
 2279000   0.88195323   -8.0838084    490.33383  0.017929422  0.017665199            3 
 2280000   0.86545394   -8.0669449    491.65663  0.017969906  0.017659468            6 
 2281000   0.89327983   -8.0854019    490.61227  0.017923874  0.017653715            5 
 2282000   0.90015683   -8.0936803    488.53815  0.017840277  0.017647938            2 
 2283000   0.88398115    -8.092898    490.18653  0.017892631  0.017642133            6 
 2284000    0.8634675   -8.1182924    490.38673  0.017892102  0.017636334            3 
 2285000   0.88768708   -8.1284627    491.40911  0.017921558  0.017630536            2 
 2286000   0.88944838   -8.1119082    491.20494  0.017906275   0.01762469            2 
 2287000   0.89317889   -8.1392714    489.92877  0.017851945   0.01761888            4 
 2288000   0.91145799   -8.0912074    490.77823  0.017875081  0.017613069            7 
 2289000   0.87725833   -8.0994978    491.08796  0.017878548  0.017607329            7 
 2290000   0.88605822   -8.1022107    491.68038  0.017892299  0.017601606            3 
 2291000   0.86355475   -8.0985586    490.89374  0.017855876  0.017595843            5 
 2292000   0.88239791    -8.075343    491.12089  0.017856344  0.017590116            2 
 2293000   0.89340175   -8.1025959    491.38375   0.01785811  0.017584356            3 
 2294000   0.88453845   -8.1095475    490.26846   0.01780981  0.017578592            2 
 2295000   0.88302706   -8.0858869    490.79178  0.017821052  0.017572847            1 
 2296000   0.89808807   -8.1051059    491.25261  0.017830016  0.017567102            2 
 2297000   0.87741565   -8.0547326    492.38818  0.017863452  0.017561399            3 
 2298000   0.86925781   -8.1004795    492.30654  0.017852718  0.017555694            3 
 2299000   0.88113466    -8.084857     491.9493  0.017832003  0.017549944            1 
 2300000   0.88340481   -8.0835061    491.88271  0.017821837  0.017544228            2 
 2301000   0.89270946   -8.1078505    491.33731   0.01779434  0.017538494            4 
 2302000   0.85998595   -8.1120883     491.2076  0.017781914  0.017532724            7 
 2303000   0.88387277   -8.0899075    492.27231  0.017812719  0.017526987            4 
 2304000   0.89723845   -8.0953314    493.15212   0.01783681  0.017521235           11 
 2305000   0.88652846   -8.1232792    491.02332  0.017752109  0.017515493           14 
 2306000    0.8631979   -8.0836509    492.56842  0.017800246  0.017509776           14 
 2307000   0.89407756   -8.1284135    491.76331  0.017763448   0.01750405           14 
 2308000   0.88394043   -8.1063227    491.24848  0.017737164  0.017498304           13 
 2309000   0.88786071   -8.0833112    492.14589   0.01776187  0.017492579           20 
 2310000   0.88914036   -8.0910866    493.03096   0.01778611  0.017486845           19 
 2311000   0.86842529    -8.102379    491.67928  0.017729673  0.017481138            8 
 2312000   0.87062848   -8.1324095    492.19887  0.017740732  0.017475362            8 
 2313000   0.89834976   -8.1072424    491.06138   0.01769208  0.017469565            8 
 2314000   0.89211266   -8.1430339    491.20629  0.017689653  0.017463743            4 
 2315000   0.87809127   -8.1528189    491.75409  0.017701731  0.017457887            6 
 2316000   0.89673336   -8.1001524    491.75815  0.017694234  0.017452049           10 
 2317000   0.87479053   -8.0868904    492.45842  0.017711783  0.017446259            5 
 2318000   0.86818079   -8.1130669    492.81435  0.017716938  0.017440486            5 
 2319000   0.90838931   -8.1097797    492.80285  0.017708885  0.017434708            2 
 2320000   0.87296324   -8.1285867    492.63488  0.017695218  0.017428892            2 
 2321000   0.86807684   -8.1179522     493.3895  0.017714688  0.017423106            4 
 2322000   0.87235065   -8.1036497    492.67933  0.017681572  0.017417323            3 
 2323000    0.8943102   -8.1006866    492.37959  0.017663208  0.017411568            4 
 2324000   0.86270394   -8.0880865    492.98153  0.017677192  0.017405806            2 
 2325000   0.86166613   -8.1251786    493.77071  0.017697875   0.01739999            4 
 2326000   0.87360223   -8.1310359    492.09901  0.017630374  0.017394135            4 
 2327000   0.87307573   -8.0956273    492.00638  0.017619481  0.017388261            6 
 2328000   0.86099052   -8.1211363    493.03038  0.017648567  0.017382417            4 
 2329000   0.88107546   -8.1164198    492.23932  0.017612685  0.017376594            3 
 2330000   0.86293126   -8.1351333     492.3991   0.01761084  0.017370772            7 
 2331000   0.88544056   -8.1203139    492.14245   0.01759411  0.017364926            2 
 2332000   0.88372314   -8.1136457    492.72432  0.017607358  0.017359086            2 
 2333000   0.88116489   -8.0945062    492.81394  0.017603013  0.017353272            5 
 2334000   0.87415767   -8.1098803    492.62502  0.017588726  0.017347472            3 
 2335000   0.90153401     -8.10404     492.0702  0.017561392  0.017341677            9 
 2336000   0.90470911   -8.1050473    492.93095   0.01758458  0.017335897            3 
 2337000   0.87008537   -8.1335327    491.54608  0.017527674  0.017330106            3 
 2338000   0.88197369   -8.0971789    493.91181  0.017604499  0.017324307            2 
 2339000   0.87377102   -8.1705397      492.365  0.017541863  0.017318449            3 
 2340000   0.87692536   -8.1171978    492.21313  0.017528957  0.017312575            6 
 2341000   0.88364648   -8.1233563    492.25019  0.017522789  0.017306697            4 
 2342000   0.88590687   -8.1385466    492.21924  0.017514206  0.017300797            7 
 2343000   0.88870899   -8.1262279    493.03706  0.017535818  0.017294939            6 
 2344000   0.88087869   -8.1094978     492.1168   0.01749562  0.017289054           17 
 2345000   0.87305125   -8.1307273    492.42429  0.017499086  0.017283167           17 
 2346000   0.88621525    -8.141802    492.67621  0.017500576  0.017277278           10 
 2347000   0.87991296   -8.1336362    491.69303   0.01745821  0.017271384            3 
 2348000   0.87806237   -8.1315239    493.44228  0.017512858  0.017265487            5 
 2349000   0.87889655   -8.1207488    491.93924   0.01745208  0.017259597           11 
 2350000   0.87305428   -8.1637577    491.59103  0.017432306  0.017253744            4 
 2351000   0.87593228   -8.1403362     492.4652  0.017455877  0.017247849           11 
 2352000   0.87370817   -8.1334131    493.05017  0.017469181  0.017241989            4 
 2353000   0.88052797   -8.1349643    493.57504  0.017480346  0.017236139            6 
 2354000   0.87318811   -8.1626379    492.77578  0.017444625  0.017230244           23 
 2355000   0.86048082   -8.1594409    493.30007   0.01745577  0.017224372            3 
 2356000    0.8818004   -8.1586199    493.61671  0.017459561  0.017218536           23 
 2357000   0.85530775   -8.1350421    492.92607  0.017427736  0.017212706            9 
 2358000   0.88526683   -8.1106007    494.76767  0.017485428  0.017206886            9 
 2359000   0.88371105   -8.1397735        493.4  0.017429702   0.01720106            4 
 2360000    0.8828772   -8.1184105    493.51729  0.017426458  0.017195227            3 
 2361000   0.87791115    -8.123813    494.68504  0.017460294  0.017189438            5 
 2362000    0.8922282   -8.1002613    494.81813  0.017457597   0.01718363            5 
 2363000   0.86117041   -8.1067719    494.45915  0.017437549  0.017177846           10 
 2364000   0.88081441   -8.1381954    494.07685  0.017416697  0.017171998            8 
 2365000   0.86264873   -8.1369064    493.31953  0.017382647  0.017166153           15 
 2366000   0.86230254   -8.1415009    494.66146  0.017422565  0.017160329            6 
 2367000   0.87021148   -8.1434567    493.04937  0.017358448  0.017154507            3 
 2368000   0.88863721   -8.1195862    494.62131  0.017406437  0.017148646           11 
 2369000   0.85491529   -8.1118741    494.28965  0.017387423  0.017142833           12 
 2370000   0.86865091   -8.1394621    493.88565  0.017365881  0.017137023           11 
 2371000   0.86318304   -8.1353583    494.31167   0.01737353  0.017131188            8 
 2372000   0.85993986    -8.119227    493.17309  0.017326205  0.017125377            5 
 2373000   0.86254296   -8.1522336    494.47088  0.017364478  0.017119536            4 
 2374000   0.87236125   -8.1475837    493.57424  0.017325689  0.017113695           12 
 2375000   0.88883651   -8.1460386    495.10162  0.017371987  0.017107829            8 
 2376000   0.86205251   -8.1548736     493.3589  0.017303553  0.017101968            4 
 2377000   0.86339483   -8.1749545    493.40576  0.017297916  0.017096046           12 
 2378000   0.88068151    -8.123892    494.72313  0.017336807  0.017090174           17 
 2379000   0.86276418   -8.1333168    494.23009  0.017312249  0.017084342            5 
 2380000   0.87976867   -8.1837217    494.43151  0.017312028  0.017078499           14 
 2381000    0.8605351   -8.1315883    493.36342  0.017267374  0.017072625            8 
 2382000   0.87468168   -8.1263949    494.33414  0.017294086  0.017066772            4 
 2383000   0.84944018   -8.1215344    494.16201  0.017280809  0.017060896            3 
 2384000   0.87059804   -8.1259687    493.24199  0.017241401  0.017055024            4 
 2385000   0.88197343   -8.1423755    496.58074  0.017350829  0.017049206            2 
 2386000   0.86792671   -8.1397727    495.08369  0.017291272  0.017043362            3 
 2387000   0.88203616   -8.1125913     495.5117   0.01729897  0.017037521            7 
 2388000   0.85521524   -8.2188662    492.69199  0.017193328   0.01703162           11 
 2389000    0.8550434   -8.1616579    494.24607   0.01724034  0.017025737            4 
 2390000   0.87141022   -8.1502039    494.04077  0.017225968  0.017019844            3 
 2391000    0.8574409   -8.1551539    495.18492  0.017258641  0.017013954            3 
 2392000   0.87660609   -8.1477493    494.87727  0.017240707  0.017008119            7 
 2393000    0.8640869   -8.1385023    495.06131  0.017239912  0.017002273            8 
 2394000   0.86305519   -8.1322047    495.75651   0.01725691  0.016996453            3 
 2395000   0.89063662   -8.1381482    494.97473  0.017222503  0.016990634            4 
 2396000   0.86146561   -8.1343145    494.92387  0.017213546  0.016984823            3 
 2397000   0.85303886   -8.1138234    495.09621  0.017212356  0.016979006            7 
 2398000   0.88164345   -8.1452078    494.79723  0.017194788  0.016973169            3 
 2399000   0.85339566   -8.1318863    495.00026  0.017194674  0.016967329            3 
 2400000   0.86583183   -8.1461918    496.44693  0.017237741  0.016961483            7 
 2401000   0.85961659   -8.1312734    494.68999  0.017169582  0.016955675            2 
 2402000    0.8576502   -8.1579356    495.57942  0.017193291   0.01694986            3 
 2403000   0.86839878    -8.145556    494.98112  0.017165388  0.016944032            6 
 2404000    0.8793218   -8.1753127    495.27085  0.017168291   0.01693815            3 
 2405000   0.85864103   -8.1636328    495.59151  0.017172263  0.016932263            3 
 2406000    0.8715774   -8.1758437    494.94996  0.017142905   0.01692639            4 
 2407000   0.85211417   -8.1677734    495.43034  0.017152414   0.01692053            4 
 2408000   0.87992043    -8.177157    495.33639   0.01714204   0.01691468            3 
 2409000   0.85480759   -8.1786102    495.64775  0.017145695  0.016908816            3 
 2410000   0.88580467   -8.1843794    494.86703  0.017111585  0.016902951            7 
 2411000    0.8986026   -8.1523717    495.37696  0.017122113  0.016897132            4 
 2412000   0.88352258   -8.1722121    496.11853  0.017140635  0.016891279            7 
 2413000   0.85348799   -8.1857202    494.82352  0.017088808  0.016885396            7 
 2414000   0.86226237    -8.198366    494.88474  0.017083842   0.01687951            7 
 2415000   0.86373986    -8.191544    495.90513  0.017111978  0.016873623            6 
 2416000   0.86846838   -8.1803005    495.14138  0.017078552  0.016867767           27 
 2417000    0.8583787   -8.1551609    495.62806  0.017088266  0.016861933            6 
 2418000   0.87109054   -8.1507281    496.95892  0.017127065  0.016856101            9 
 2419000   0.87020377   -8.1822688    494.69731  0.017042074  0.016850251            3 
 2420000   0.86099634   -8.1655575    495.09173  0.017048613  0.016844374            8 
 2421000   0.86876616   -8.1443687     495.6035  0.017059187  0.016838495            3 
 2422000   0.84338788   -8.1384389    494.93757  0.017029231   0.01683262            5 
 2423000   0.86768668   -8.1873198    496.31852  0.017069697  0.016826778            5 
 2424000    0.8753057   -8.1835406    494.71152  0.017007409  0.016820926            6 
 2425000   0.85962955   -8.1679806    496.65741  0.017067265  0.016815077           10 
 2426000   0.88063088   -8.1680057    495.70366  0.017027469  0.016809251           12 
 2427000   0.84291218    -8.147912    496.08766  0.017033638  0.016803421            6 
 2428000   0.87388432   -8.1367399    496.27655  0.017033105   0.01679758            6 
 2429000   0.86231111   -8.1463118    496.96508  0.017049715  0.016791751            4 
 2430000   0.84872906   -8.1876602     496.4107  0.017023687  0.016785912            2 
 2431000   0.86847244   -8.1687195    497.31016  0.017047517  0.016780047            5 
 2432000   0.85016708    -8.172268    496.31959  0.017006565  0.016774227            7 
 2433000   0.87561609   -8.1644008    497.51664  0.017040575  0.016768412            5 
 2434000   0.86412832   -8.1487778    496.58614  0.017001717  0.016762649            4 
 2435000   0.86556905   -8.1646894    496.91345  0.017005936  0.016756834           10 
 2436000   0.87479287   -8.1837275    495.42106  0.016947902  0.016750982            6 
 2437000   0.85430646   -8.1400446    496.74912   0.01698636  0.016745163            7 
 2438000    0.8716993   -8.1720862    495.15811  0.016925011  0.016739346            6 
 2439000   0.84148183   -8.1455803    495.81431  0.016940492  0.016733541            4 
 2440000   0.88039516   -8.1582286    496.61475  0.016960886  0.016727722            3 
 2441000   0.87359892     -8.20635     496.6185  0.016954066  0.016721899            4 
 2442000   0.85401164   -8.1501041     496.8254  0.016954184   0.01671607            8 
 2443000   0.85653194   -8.1971711    497.40425  0.016966989  0.016710194            4 
 2444000   0.85075944   -8.2060532    496.78286  0.016938859  0.016704344            6 
 2445000   0.84812549   -8.1877183    497.17446  0.016945278  0.016698514            4 
 2446000   0.85485796   -8.1562085    497.05486  0.016934276  0.016692667            4 
 2447000   0.85510332   -8.1821723     496.1757  0.016897415  0.016686816            6 
 2448000   0.87206582   -8.2169669    497.81111  0.016946184  0.016680972            4 
 2449000   0.85082289   -8.1927206    498.21161  0.016952893  0.016675155            5 
 2450000   0.85658875   -8.1971437    497.13625  0.016909396  0.016669298            4 
 2451000   0.86941851   -8.1816851    496.21796  0.016871276  0.016663509            6 
 2452000   0.86175382   -8.1845464    498.01038  0.016925312  0.016657696            4 
 2453000   0.87092057    -8.200184    496.87518  0.016879847   0.01665186            4 
 2454000   0.85187072   -8.2116084    497.74532  0.016902517  0.016646022            5 
 2455000   0.86190165   -8.1717566    497.64116  0.016892096  0.016640193            8 
 2456000   0.85689932   -8.1933914    496.55748  0.016848449   0.01663436            3 
 2457000   0.87019543   -8.1619507    496.83114  0.016850873  0.016628513            4 
 2458000   0.85539828   -8.1876881    498.18001  0.016889748  0.016622673            5 
 2459000   0.85826379   -8.1664731    497.60497  0.016863392  0.016616872            6 
 2460000   0.84445743   -8.1916558    497.04866  0.016837692  0.016611083            2 
 2461000   0.86731941   -8.1691259    498.10159  0.016866504  0.016605305            4 
 2462000   0.85435844   -8.2216185    496.47173  0.016804486  0.016599533            3 
 2463000   0.85900449   -8.1821908    497.82566  0.016843472  0.016593768            4 
 2464000   0.85470801   -8.1828211    498.07271  0.016844992  0.016587988            3 
 2465000   0.85863984   -8.1856273    497.89372  0.016832107   0.01658218            6 
 2466000   0.86069021    -8.182716    498.24391  0.016837115  0.016576385            3 
 2467000   0.86876472   -8.1582747    498.57084  0.016841334  0.016570601            5 
 2468000   0.84562906   -8.2038185    497.92021  0.016812541  0.016564816           10 
 2469000     0.860389    -8.175025    499.76503  0.016867998  0.016559034            2 
 2470000   0.86264954    -8.193274    497.63551  0.016789322  0.016553236            8 
 2471000    0.8557783   -8.2120355    496.67103  0.016750001  0.016547388            6 
 2472000   0.85642676    -8.221117    497.64522  0.016776066  0.016541504           10 
 2473000   0.86927382   -8.2008927    497.02549  0.016748399  0.016535668            4 
 2474000   0.84095223   -8.2075987    496.87116  0.016736431  0.016529846           10 
 2475000    0.8664008   -8.1984013    497.89662  0.016764196  0.016524016           10 
 2476000   0.84541813   -8.2055512    497.69273  0.016750563  0.016518207            6 
 2477000   0.85202599   -8.1417495    500.43713   0.01683613  0.016512406            3 
 2478000   0.88421105   -8.2003245    498.35846  0.016759432  0.016506606           17 
 2479000   0.85447937    -8.190127    497.67328  0.016729638   0.01650081            4 
 2480000   0.86463464   -8.1996658    499.07773  0.016770085  0.016495034            4 
 2481000   0.85021128   -8.1838373    498.38006  0.016739892  0.016489259            5 
 2482000   0.83144371   -8.1737552    498.85353  0.016749044  0.016483466           14 
 2483000   0.85359067   -8.2014543    497.50538  0.016697053  0.016477688            3 
 2484000   0.84975569   -8.1789376      498.114  0.016710749  0.016471902            4 
 2485000   0.86452557    -8.222219    497.98371  0.016699655  0.016466093            5 
 2486000   0.86227962   -8.1968428    498.07531  0.016696008  0.016460297            5 
 2487000   0.83558521   -8.1890968    498.31713  0.016697397   0.01645451            4 
 2488000   0.84889682   -8.2247175     497.8253  0.016674213  0.016448739            2 
 2489000     0.855162   -8.1911378    499.56312  0.016725697  0.016442969            5 
 2490000   0.86168244   -8.1964559    499.52091  0.016717567   0.01643722            3 
 2491000   0.83802772   -8.1561513    500.12209  0.016730968  0.016431465            8 
 2492000   0.84430047   -8.1596563    499.98347  0.016719618  0.016425761            3 
 2493000   0.84532965   -8.1928833    500.05621  0.016715343  0.016420044            7 
 2494000   0.85865771   -8.1803137     498.6333  0.016661097  0.016414278            7 
 2495000   0.84872649   -8.1714728    498.81104  0.016660355  0.016408522            3 
 2496000    0.8480417   -8.2075594    498.32733  0.016637531  0.016402756            5 
 2497000   0.84046538   -8.2073547    499.21348  0.016660442  0.016396999           13 
 2498000   0.86878927   -8.1941488    499.65068  0.016668357  0.016391255            3 
 2499000   0.85535365   -8.2068993    499.12028     0.016644  0.016385507            8 
 2500000   0.85983987   -8.1987213    499.70678  0.016656893  0.016379773            9 
 2501000   0.86988308   -8.1845707    499.61174  0.016647066  0.016374059            6 
 2502000    0.8580284    -8.189108    500.21459  0.016660491  0.016368367            3 
 2503000    0.8548127   -8.2139372    498.46011  0.016595423  0.016362645            4 
 2504000   0.84037686   -8.1589008     500.4958  0.016656543  0.016356933            2 
 2505000   0.85707506   -8.2203782    500.27688  0.016642611   0.01635124           10 
 2506000   0.84945909   -8.1805388    499.77597  0.016619313  0.016345537            4 
 2507000    0.8488931   -8.2050873    500.49218  0.016636491   0.01633985            3 
 2508000   0.87528375   -8.1895724    500.10002  0.016616827  0.016334175            2 
 2509000   0.83746745    -8.184212    500.72677  0.016631021   0.01632847            6 
 2510000   0.86608573   -8.1956752    499.72304  0.016591071  0.016322753            4 
 2511000   0.84444979   -8.1955491    499.22617  0.016567973  0.016317013            4 
 2512000   0.85320418   -8.2197673    499.75076   0.01657878  0.016311324            7 
 2513000   0.84491355   -8.1927497    500.51452   0.01659751  0.016305616            6 
 2514000   0.83383117    -8.212369    501.04806  0.016608594  0.016299925            4 
 2515000   0.86424289   -8.1769881    501.02485  0.016601221  0.016294262            4 
 2516000   0.86243518   -8.2053326    500.91548     0.016591  0.016288574            4 
 2517000   0.87261052    -8.215662    501.12468  0.016591335  0.016282905            6 
 2518000   0.84919988   -8.1734747     500.8747  0.016576473  0.016277222            2 
 2519000   0.85742466   -8.1973155    501.53009  0.016591574  0.016271554            5 
 2520000   0.86772435   -8.2063044    500.75883  0.016559485  0.016265832            2 
 2521000   0.83509171    -8.182032    499.82462  0.016522036  0.016260122            6 
 2522000   0.84537543   -8.2209824    500.92272  0.016551768  0.016254378           10 
 2523000   0.85638797   -8.2241766    499.53674   0.01649943  0.016248597           13 
 2524000    0.8355384   -8.2354016    499.51227  0.016492085  0.016242843            4 
 2525000   0.85084395   -8.2276344    498.12814  0.016439873  0.016237079            1 
 2526000   0.83701825   -8.2407085    499.94018  0.016493144  0.016231321            6 
 2527000   0.84493129    -8.226573    499.42118  0.016469502  0.016225576            3 
 2528000   0.85813428   -8.2389558    500.96893  0.016514008  0.016219843            2 
 2529000   0.85259562   -8.2164586    499.08425  0.016445375  0.016214113            3 
 2530000   0.84983028   -8.2064971    500.93628  0.016499877  0.016208403            3 
 2531000   0.84591935   -8.2163396    501.24001  0.016503359  0.016202701            3 
 2532000   0.87058744   -8.2187601    501.51533  0.016505902  0.016197004            3 
 2533000   0.86491784   -8.2016993     499.8318  0.016443999  0.016191303            4 
 2534000   0.83158683   -8.1964432    501.20523  0.016482676  0.016185607            2 
 2535000   0.84925813   -8.2234049    500.84683  0.016464393  0.016179919            8 
 2536000   0.85094739   -8.1926911    500.90224  0.016459721  0.016174238            3 
 2537000   0.85524094    -8.226268    500.70187  0.016446652   0.01616856            9 
 2538000   0.84375511     -8.18559    502.91085  0.016512702  0.016162895            9 
 2539000   0.83191723   -8.1712243    502.00048  0.016476319  0.016157201            9 
 2540000   0.85385689   -8.2154799    501.73763  0.016461208  0.016151511            6 
 2541000   0.83560471   -8.2109325    501.64748  0.016451774  0.016145825            5 
 2542000   0.84566644   -8.1928235    501.06159  0.016426095  0.016140163           13 
 2543000   0.82662841   -8.2238877    501.25708  0.016426041  0.016134491           10 
 2544000   0.84111058   -8.2005748    501.29965  0.016420979    0.0161288            9 
 2545000   0.86399534   -8.2312385    501.65205  0.016426066  0.016123104            9 
 2546000   0.84093442   -8.2132792    502.19557  0.016437404  0.016117417            8 
 2547000   0.82981854   -8.2166521    501.13859  0.016396368  0.016111739            7 
 2548000   0.84581133   -8.2271542       501.45  0.016400118  0.016106082            3 
 2549000   0.85315183   -8.2220308    501.23342  0.016386603  0.016100427            4 
 2550000   0.84894633   -8.2114692    501.78558  0.016398222  0.016094787            4 
 2551000   0.83864242   -8.2344434    501.68603  0.016388541  0.016089078            6 
 2552000   0.81690411   -8.2034467    502.32887  0.016403111  0.016083414            4 
 2553000   0.85449008    -8.219625    501.06928  0.016355571  0.016077707            4 
 2554000   0.83463369   -8.2343912     501.8054  0.016373186  0.016072044           20 
 2555000   0.85121128   -8.1723351    502.64884  0.016394287  0.016066427            8 
 2556000   0.84730424   -8.2374778    500.92983  0.016331828  0.016060761            4 
 2557000   0.84620837   -8.2291245    501.56793  0.016346237  0.016055052            7 
 2558000   0.85331364   -8.2222935    502.30076   0.01636372   0.01604939            4 
 2559000   0.83001102   -8.2153645    503.89993  0.016409403  0.016043771            3 
 2560000   0.83874814   -8.2577227      502.518  0.016358008  0.016038133            7 
 2561000   0.83551209   -8.2127152    502.15685  0.016339869  0.016032515            8 
 2562000   0.83605681   -8.2300701    502.76141  0.016353155  0.016026886            5 
 2563000   0.84793223   -8.2378299    501.90271  0.016318855  0.016021294           11 
 2564000   0.84739405   -8.2269675    502.94257  0.016346287  0.016015696            5 
 2565000   0.83161935   -8.2441062    502.00227  0.016309365  0.016010072            3 
 2566000   0.83871287   -8.2184528    501.76303   0.01629524  0.016004456            3 
 2567000   0.86487922    -8.229324    501.52659  0.016281216  0.015998844            3 
 2568000   0.84392963   -8.2199446    501.82438   0.01628454  0.015993248            5 
 2569000   0.83902014    -8.214232    502.24318  0.016291786  0.015987644            3 
 2570000   0.84847041   -8.2410974    503.08223  0.016312653  0.015982021            8 
 2571000   0.84005942   -8.2348516    502.21556  0.016278217  0.015976399           10 
 2572000   0.83659708   -8.2276796    502.37542  0.016277068  0.015970777            6 
 2573000   0.81025659   -8.2506451    502.50908  0.016275071  0.015965131            6 
 2574000   0.83313316   -8.2508314    503.03113  0.016285649  0.015959499            4 
 2575000   0.83259317   -8.2365444    501.75794  0.016238121  0.015953851            4 
 2576000   0.84298738   -8.2361899     501.8909  0.016236119  0.015948213            6 
 2577000    0.8268762   -8.2554531    502.79047  0.016258908  0.015942562            2 
 2578000   0.82908588   -8.2435705     503.7023  0.016282076  0.015936907            4 
 2579000   0.83412443   -8.2591492    501.26312  0.016196947  0.015931248            3 
 2580000   0.84309033   -8.2539548    501.67967  0.016204124  0.015925593            9 
 2581000   0.83154501   -8.2518186     501.3904  0.016188506   0.01591996           13 
 2582000   0.83479377   -8.2487296      501.931  0.016199684  0.015914346            3 
 2583000   0.84061928   -8.2044267    503.50722  0.016244264   0.01590873            5 
 2584000   0.82871278   -8.2442002    501.26832  0.016165774  0.015903127            5 
 2585000   0.81849032   -8.2177449     504.0731  0.016249939  0.015897509            6 
 2586000   0.83127329    -8.240805    502.85489  0.016204398  0.015891874            5 
 2587000   0.82809677   -8.2759866    501.34366  0.016149454  0.015886244            5 
 2588000   0.85085988   -8.2623905    501.93149  0.016162142  0.015880631            3 
 2589000   0.81697326   -8.2509617     503.1801  0.016196089  0.015875017            8 
 2590000   0.84518737   -8.2552071    503.08368  0.016186734  0.015869408            3 
 2591000   0.84782829    -8.259911    503.36995  0.016189693  0.015863791            4 
 2592000   0.84149033   -8.2388067    502.42534  0.016153078  0.015858206            3 
 2593000   0.83959151    -8.242381    502.99679  0.016165214  0.015852637            5 
 2594000   0.83572365   -8.2510293    502.69719  0.016149357  0.015847034            3 
 2595000   0.85307977    -8.268916    502.52635  0.016137648  0.015841425            2 
 2596000   0.86312244   -8.2542616    502.43611  0.016128534  0.015835795            2 
 2597000   0.84186077   -8.2819396    502.07338  0.016110685   0.01583016            2 
 2598000   0.82354368   -8.2515583     504.2334  0.016173768  0.015824543            2 
 2599000   0.82633482   -8.2394469    502.76132  0.016120345  0.015818932            3 
 2600000   0.82917353   -8.2415424    503.97819  0.016153147  0.015813321            5 
 2601000   0.84441078   -8.2970005    502.33153  0.016094179   0.01580769            8 
 2602000   0.84013141   -8.2797516    502.37623  0.016089426  0.015802047            2 
 2603000   0.82356218   -8.2554032    502.48345  0.016086677  0.015796403            2 
 2604000   0.82861287   -8.3002794    502.18188  0.016070849  0.015790765            6 
 2605000   0.82984568   -8.2713234    504.13916  0.016127292  0.015785118            6 
 2606000    0.8371518   -8.2501363    502.99143  0.016084402  0.015779492            3 
 2607000   0.83468929   -8.2794406    503.22723   0.01608577   0.01577385           13 
 2608000    0.8394005   -8.2317403    503.27896  0.016081255  0.015768243            4 
 2609000   0.81206216   -8.2277403    503.89785  0.016094859  0.015762677            3 
 2610000   0.82845905   -8.2462791    503.95918  0.016090651  0.015757128            8 
 2611000   0.82954169   -8.2267091    505.16692  0.016123035  0.015751579            8 
 2612000   0.82815843   -8.2405314    504.63189  0.016099792   0.01574604           10 
 2613000   0.82516485   -8.2418051    503.43363  0.016055416  0.015740476            7 
 2614000   0.83703365   -8.2721957     504.5034  0.016083378  0.015734907            3 
 2615000    0.8290968   -8.2375963    504.47973  0.016076473  0.015729316            7 
 2616000   0.82660006   -8.2179488    504.21774  0.016061982  0.015723747            3 
 2617000   0.83054543   -8.2431429    504.41913  0.016062257  0.015718175            4 
 2618000   0.84196309   -8.2500754    503.38913  0.016023336  0.015712599            6 
 2619000   0.82290323   -8.2537174    504.46209  0.016051358   0.01570705            4 
 2620000   0.84449522    -8.225286    504.38445  0.016042762  0.015701519            5 
 2621000   0.84001543   -8.2404105    503.35502  0.016003911  0.015696001            2 
 2622000    0.8486492   -8.2198801    504.60739  0.016037611  0.015690448            3 
 2623000   0.81134021   -8.2481187    504.77744  0.016036899  0.015684907            5 
 2624000   0.82936766   -8.2507177    503.14219  0.015978855  0.015679322            8 
 2625000   0.82990337   -8.2679682    503.94932  0.015998391  0.015673737            5 
 2626000   0.81396145    -8.234952    505.41997  0.016038968  0.015668186            4 
 2627000   0.83631481   -8.2387664    504.60735  0.016007085  0.015662646            5 
 2628000   0.83731939    -8.236254    504.33304  0.015992296  0.015657105            3 
 2629000   0.83762879   -8.2595634    504.60424  0.015994809  0.015651558            4 
 2630000   0.83666915   -8.2272878     505.0038  0.016001388  0.015645991            2 
 2631000   0.83751545    -8.219259     505.0161  0.015995696  0.015640445            4 
 2632000   0.82652376   -8.1935539    505.19593  0.015995312   0.01563496            3 
 2633000   0.82275154   -8.2325756    505.48219  0.015998297  0.015629464            8 
 2634000   0.82118716   -8.2389144    505.23224  0.015984315  0.015623954            4 
 2635000   0.82142366    -8.241385    505.18561  0.015976774  0.015618454            2 
 2636000   0.81103706   -8.2653334    505.99957  0.015996446  0.015612925           12 
 2637000   0.82026768   -8.2343197    506.84065  0.016016959  0.015607429            5 
 2638000   0.82539718   -8.2391289    504.43699  0.015934957  0.015601907            4 
 2639000   0.82726945   -8.2696577    505.02173  0.015947383  0.015596365            9 
 2640000   0.86012998   -8.2680707    504.22743   0.01591627  0.015590845            3 
 2641000   0.81916777    -8.305427    504.52046  0.015919489   0.01558532            2 
 2642000   0.83424429   -8.3009713     504.2682  0.015905507  0.015579763            4 
 2643000   0.83493759   -8.3049548    504.16063  0.015896097  0.015574195            8 
 2644000   0.82193891   -8.2769866    504.84407  0.015911626  0.015568689            5 
 2645000   0.82672421   -8.2678164    505.04225  0.015911854   0.01556315            4 
 2646000   0.81778101   -8.2654279    506.62603   0.01595572  0.015557652           15 
 2647000   0.82497119   -8.2757858    505.27203  0.015907066  0.015552161           11 
 2648000   0.81466114   -8.2599875    505.72014   0.01591516  0.015546646           10 
 2649000   0.84609833   -8.2769027    505.83887  0.015912888  0.015541123            4 
 2650000   0.82192352   -8.2880677     504.7377  0.015872255  0.015535599            3 
 2651000   0.80378804   -8.2633499    505.97027  0.015905013  0.015530089           12 
 2652000   0.83453064   -8.2635548    505.43968  0.015882343  0.015524611            8 
 2653000   0.83030547   -8.2583873    505.12904  0.015866599  0.015519146            2 
 2654000    0.8254599   -8.2589573    506.76094  0.015911861  0.015513712            6 
 2655000   0.80653873    -8.264819    506.50308  0.015897774  0.015508259            3 
 2656000   0.82131385   -8.2819516    506.14299   0.01588049  0.015502817            4 
 2657000    0.8206104   -8.2302879    506.44927   0.01588412  0.015497373            8 
 2658000   0.82286406   -8.2680714    505.91664  0.015861445  0.015491922            4 
 2659000   0.83250848   -8.2706773    506.40076  0.015870652  0.015486468            4 
 2660000   0.82172329   -8.2439479    506.39219  0.015864417  0.015481021            2 
 2661000   0.81646662   -8.2917286    504.87832  0.015811046  0.015475562            6 
 2662000   0.83276367   -8.2768116    504.68756  0.015799135   0.01547009            3 
 2663000    0.8452501   -8.2612278    505.32258  0.015813074  0.015464603            3 
 2664000   0.82992105   -8.2557125     505.4338  0.015810617  0.015459144            5 
 2665000   0.82056639   -8.2599441    505.00211  0.015791185  0.015453668            5 
 2666000   0.82042569    -8.267815     506.5726  0.015834352  0.015448204            5 
 2667000   0.83654345   -8.2518766    505.52575  0.015795705  0.015442722            4 
 2668000   0.82586435   -8.2954708    505.00936  0.015773656  0.015437197            5 
 2669000   0.83614744   -8.2893698    505.42474  0.015780715  0.015431677            6 
 2670000   0.83875146   -8.2839875    506.52506  0.015809147  0.015426177            1 
 2671000   0.82670295   -8.2940871    505.98694  0.015786439  0.015420654            4 
 2672000   0.83065543    -8.267994    506.49747  0.015796453  0.015415164            3 
 2673000   0.81177578   -8.2907659    506.00993  0.015775344   0.01540968            6 
 2674000   0.82327272   -8.3059696     504.6682   0.01572763   0.01540418            5 
 2675000   0.84335574   -8.2743619    505.63673  0.015751923  0.015398686            3 
 2676000   0.82253224   -8.2796951    506.28555  0.015766242  0.015393195            2 
 2677000   0.80052706   -8.2389724    507.56445  0.015800163  0.015387711            3 
 2678000   0.83165874   -8.2875499    506.16193   0.01575062  0.015382223            9 
 2679000   0.83135399   -8.3084036    505.36116  0.015719832  0.015376713            3 
 2680000   0.81638086   -8.3037552    506.18752  0.015739662  0.015371229            5 
 2681000   0.82634924   -8.2901273     504.8978  0.015693703   0.01536575            5 
 2682000   0.81727981   -8.2847745    505.97237   0.01572124  0.015360245            4 
 2683000   0.81693625   -8.2907925    505.69167  0.015706661  0.015354761            4 
 2684000   0.82916715   -8.2915014    505.90636  0.015707475  0.015349281            2 
 2685000   0.80816176   -8.2724843    506.27737   0.01571314  0.015343821            6 
 2686000   0.82101432     -8.31095    505.46056  0.015681948  0.015338359            4 
 2687000   0.83286076   -8.2800448    505.11545  0.015665409  0.015332874            3 
 2688000   0.83497034   -8.2889869    505.39317  0.015668191   0.01532742            2 
 2689000   0.84935046   -8.2617021    506.39865  0.015693524   0.01532201            7 
 2690000   0.82754022   -8.2799697     506.5702  0.015693005   0.01531656            6 
 2691000   0.80310921   -8.2832878    506.64005  0.015689336  0.015311109            6 
 2692000   0.83381464   -8.2909288    506.36642  0.015675038  0.015305649            7 
 2693000   0.82025815   -8.2832896     505.9511  0.015656365  0.015300192            6 
 2694000   0.83180515   -8.2965936    505.34635  0.015631847  0.015294728            4 
 2695000   0.81871389   -8.2790392    507.06726   0.01567926  0.015289284            4 
 2696000   0.82847324   -8.2951141    506.82326  0.015665902  0.015283845            5 
 2697000   0.82263106   -8.3234317    506.53462  0.015651175  0.015278388            6 
 2698000   0.81214199    -8.297641    506.40395  0.015641338  0.015272938            4 
 2699000    0.8208654   -8.3032952    506.90029  0.015650867  0.015267525            5 
 2700000   0.81846877   -8.3227672    506.04693  0.015618732  0.015262095            7 
 2701000   0.83099652   -8.2713085    506.79133  0.015635917  0.015256654            5 
 2702000   0.80440707   -8.2978565    506.92689  0.015634311  0.015251218            4 
 2703000   0.82767439   -8.2856018    506.15684  0.015604786  0.015245806            6 
 2704000   0.80084463   -8.2936029      506.966  0.015623952  0.015240377            4 
 2705000   0.81849696   -8.3099076    506.68579  0.015609544  0.015234919            4 
 2706000   0.80843141   -8.2893698    508.25218  0.015652013  0.015229509            4 
 2707000   0.82542573   -8.2860932    508.07114  0.015640658  0.015224093            4 
 2708000   0.82000357   -8.2811536    507.52747  0.015618152  0.015218719            6 
 2709000   0.81208624   -8.3058161     507.8265  0.015621585  0.015213334            3 
 2710000   0.82385269   -8.2724996    507.94658  0.015619514  0.015207935           10 
 2711000    0.8086987   -8.3242944    506.20341  0.015560169  0.015202522            4 
 2712000   0.81129067   -8.2890642    506.05951  0.015550009    0.0151971            7 
 2713000   0.80482136   -8.2819754    506.97344  0.015572351  0.015191691            7 
 2714000   0.82119978   -8.2907085     508.1645  0.015603184  0.015186287            8 
 2715000   0.81341567    -8.276778    507.58853  0.015579758  0.015180896            4 
 2716000   0.80844709   -8.3134417    507.73484  0.015578511  0.015175485            6 
 2717000   0.82622791   -8.3202226    508.10036  0.015583988  0.015170066            2 
 2718000   0.83164984   -8.3181462    507.60249   0.01556299  0.015164685           17 
 2719000    0.8151815    -8.314674     507.2344  0.015545985  0.015159277            9 
 2720000      0.79656   -8.2951676    508.35125  0.015574487  0.015153904           17 
 2721000   0.83079234   -8.3011375    507.30011  0.015536571  0.015148533            3 
 2722000   0.82135379   -8.2665845    507.27871  0.015530208  0.015143145           16 
 2723000   0.81297237   -8.3039204    507.01305  0.015516374  0.015137762           12 
 2724000   0.80975689   -8.2985906    507.95227  0.015539411  0.015132385            5 
 2725000   0.79079686    -8.291557     509.0741  0.015568015  0.015127015           11 
 2726000   0.81186266   -8.2890965    508.01739  0.015530001   0.01512162            4 
 2727000   0.82692371   -8.3278334    507.57228  0.015510704  0.015116241            6 
 2728000   0.81079936   -8.3175769     508.2363  0.015525302  0.015110843           11 
 2729000   0.81870631   -8.3134674    508.24868  0.015519991  0.015105466            7 
 2730000   0.81580951    -8.321176    506.84668   0.01547151  0.015100079            5 
 2731000   0.84383759   -8.3239467    506.39372  0.015452024  0.015094698            6 
 2732000   0.82325324   -8.3007424     507.4783   0.01547945  0.015089321           10 
 2733000   0.81749445   -8.3252034    508.58581  0.015507556  0.015083932            4 
 2734000   0.80713634   -8.2680452    507.82782   0.01547878  0.015078551            4 
 2735000   0.82351714   -8.3091207    507.86625  0.015474292  0.015073181            8 
 2736000   0.81727614   -8.3248333     506.2516  0.015419457  0.015067791           11 
 2737000   0.81778955   -8.3119977     507.5463  0.015453242  0.015062377           12 
 2738000   0.81488656   -8.3063021    507.58276  0.015448708  0.015056992            6 
 2739000   0.80810126   -8.2950335    506.75322   0.01541783  0.015051619            6 
 2740000   0.80646974   -8.3629319    507.01595  0.015420193  0.015046224           17 
 2741000   0.80858907   -8.3469084    506.72038  0.015405581   0.01504081           11 
 2742000   0.82234476   -8.2944928    508.17072  0.015444041  0.015035419            5 
 2743000   0.81448587   -8.3223712    507.78522  0.015426699  0.015030035            9 
 2744000   0.79828374   -8.2753935    507.26309   0.01540522  0.015024674            3 
 2745000   0.81215119   -8.3169981    507.70504  0.015413025  0.015019279            3 
 2746000     0.812377   -8.3214988    506.49631  0.015370731  0.015013875            3 
 2747000   0.80827678   -8.3338144    507.54929  0.015397078  0.015008462            4 
 2748000   0.81812107    -8.303972    506.87506  0.015371029  0.015003068            3 
 2749000   0.80946904   -8.3782318    506.85802  0.015364921  0.014997651           12 
 2750000   0.81431677   -8.3688538    507.53885  0.015379965  0.014992228            5 
 2751000   0.80264001   -8.3389109    506.96659   0.01535704  0.014986803            7 
 2752000   0.82392019   -8.3442901    507.81698   0.01537721  0.014981415            9 
 2753000     0.815184   -8.3366262    508.52142  0.015392948  0.014976034            9 
 2754000   0.81678158   -8.3128564    508.96582  0.015400805  0.014970662           15 
 2755000   0.81176652   -8.3102172    508.74693  0.015388595  0.014965292            5 
 2756000   0.81269983    -8.335878    507.38392  0.015341797   0.01495994           10 
 2757000   0.81272857   -8.3161804     507.3482  0.015335153  0.014954571           13 
 2758000   0.81241449   -8.3423413    507.38939  0.015330837  0.014949164           17 
 2759000   0.81702297   -8.3269587    506.68791  0.015304093  0.014943772           19 
 2760000   0.80752747   -8.3048381    506.80766  0.015302164  0.014938383            6 
 2761000   0.81103678     -8.34041    507.98712   0.01533222  0.014932998            6 
 2762000   0.80432737   -8.3551417     507.1875  0.015302543  0.014927601           11 
 2763000   0.80011555   -8.3250492    507.59696  0.015309354  0.014922217            6 
 2764000   0.81888928   -8.3552878    506.96901  0.015284883  0.014916826            5 
 2765000   0.81356852   -8.3524157    507.30581  0.015289506  0.014911422            4 
 2766000   0.79411212   -8.3228277    508.62234  0.015323642  0.014906039            5 
 2767000    0.8180783    -8.344653    508.11762  0.015302904  0.014900667            4 
 2768000    0.8120044    -8.367947    507.28516  0.015272313  0.014895291           12 
 2769000   0.81789606   -8.2958134     508.9703  0.015317512  0.014889927            4 
 2770000   0.80228878   -8.3240887    508.70286  0.015303937  0.014884593            8 
 2771000   0.80460727   -8.3282484    508.45095  0.015290838  0.014879251            6 
 2772000   0.82194226   -8.3282433     507.7156  0.015263216  0.014873892            8 
 2773000   0.81731377   -8.3269122    509.44854  0.015309789  0.014868548           10 
 2774000   0.81128138   -8.3202426    508.43748  0.015273897  0.014863233            9 
 2775000   0.80815804   -8.3179298    510.72707  0.015337149  0.014857893            4 
 2776000   0.80935556   -8.3367991    509.15382  0.015284397  0.014852571            4 
 2777000   0.81699612   -8.3296271    510.41057  0.015316606  0.014847255            4 
 2778000   0.80324135   -8.2996132    509.20375  0.015274891   0.01484193            4 
 2779000   0.80681237   -8.3315279    508.48944  0.015247974  0.014836624           17 
 2780000   0.78689298   -8.3250788    508.46073  0.015241629  0.014831305            5 
 2781000   0.80252193   -8.3339125    510.55537  0.015298914  0.014825987            6 
 2782000   0.80572642   -8.3114102    509.18198  0.015252276  0.014820701            5 
 2783000   0.79703619   -8.3013694    509.12771   0.01524517  0.014815395            7 
 2784000   0.79666821   -8.3130143    508.71874  0.015227453  0.014810093            8 
 2785000   0.81218201   -8.3059128    509.38435  0.015241902  0.014804792            3 
 2786000   0.81440107   -8.3057228    509.17432  0.015230148  0.014799516            6 
 2787000    0.8202789    -8.354052    508.90711  0.015216694  0.014794227           10 
 2788000   0.81273428   -8.3255597    509.94884  0.015242373  0.014788944            5 
 2789000    0.8009573   -8.3014388    509.99046  0.015238152  0.014783686            5 
 2790000   0.80056261    -8.313916    510.15885  0.015237719  0.014778423            4 
 2791000   0.83245395    -8.358068    508.63892  0.015186878   0.01477315            8 
 2792000   0.82186265   -8.3294649    508.95061  0.015190742  0.014767875            7 
 2793000   0.80930281   -8.3247897    509.02958  0.015187659  0.014762597            4 
 2794000    0.8279482    -8.304095    508.90872  0.015178618   0.01475733            5 
 2795000   0.80016013   -8.3163328    510.24387  0.015212996   0.01475206           18 
 2796000   0.82055366   -8.3138868    509.66077  0.015190175  0.014746785            9 
 2797000   0.78715874   -8.3032411    508.92348  0.015162778  0.014741495            8 
 2798000   0.79829933   -8.3307524    509.33812  0.015169708   0.01473623            8 
 2799000   0.79971559   -8.3555617    509.81496  0.015178485   0.01473094           10 
 2800000   0.79768428   -8.3363034    508.94059  0.015147041  0.014725665            9 
 2801000   0.79996747   -8.3259727    508.47396  0.015127751  0.014720408            5 
 2802000    0.7971198   -8.2954532    508.97566  0.015137273  0.014715141            4 
 2803000    0.8056636   -8.3130774    509.80224  0.015156447  0.014709881            6 
 2804000    0.7887151    -8.334418    509.20875  0.015133403  0.014704622            8 
 2805000   0.81518656   -8.2930428    510.07302  0.015153685   0.01469934            7 
 2806000   0.79954976   -8.3032677    510.38323  0.015157497  0.014694071            8 
 2807000   0.79592155   -8.3344207     508.2321  0.015088235  0.014688798            7 
 2808000   0.79365161   -8.3300497    508.90507  0.015102833  0.014683504            9 
 2809000   0.79413585   -8.3150314     508.6425  0.015089667  0.014678228            6 
 2810000   0.80545167   -8.3513491    510.78874  0.015147946  0.014672957            9 
 2811000   0.79497238   -8.3243366    509.91916  0.015116778  0.014667688            3 
 2812000   0.79118411   -8.3335755    509.49673  0.015098884  0.014662425            2 
 2813000   0.78541529    -8.338687    509.93954  0.015106634  0.014657167            2 
 2814000   0.80194741   -8.3225217    509.93608  0.015101163  0.014651923            3 
 2815000   0.79536667   -8.3310753      509.639  0.015087004  0.014646689            6 
 2816000   0.79361195   -8.3314435    510.22905  0.015099108  0.014641456            5 
 2817000   0.79939104   -8.3313018    508.84191  0.015052713   0.01463621            4 
 2818000   0.82730005   -8.3852455    509.85183  0.015077236  0.014630951            7 
 2819000    0.8089315   -8.3566497    510.43757  0.015089203  0.014625678            3 
 2820000   0.79679576   -8.3560547    510.76089  0.015093407  0.014620403            8 
 2821000   0.81057829   -8.3665524    509.81689   0.01506017  0.014615146            6 
 2822000   0.79193644   -8.3514687    508.70486  0.015021996  0.014609898            6 
 2823000   0.79858216   -8.3612901    509.55373  0.015041733  0.014604626            7 
 2824000    0.7860333   -8.3421126    509.82847  0.015044513  0.014599382           13 
 2825000   0.81449589   -8.3229119    509.75781  0.015037104  0.014594137            7 
 2826000   0.79400615   -8.3847664    509.42042  0.015021834  0.014588901           11 
 2827000   0.78788432   -8.3619252    509.71247  0.015025129  0.014583654            5 
 2828000    0.8082215   -8.3271546    511.31316  0.015066984  0.014578448            6 
 2829000    0.7860954   -8.3216905     510.6761  0.015042892  0.014573228            4 
 2830000   0.80639625    -8.312157    511.12949  0.015050927  0.014568016            4 
 2831000   0.80154751   -8.3561943    510.84726  0.015037303  0.014562802            4 
 2832000   0.81409417   -8.3800724    509.18082  0.014982957  0.014557559            4 
 2833000    0.8078891   -8.3641692    509.25316  0.014979796  0.014552297            3 
 2834000   0.81206566   -8.3593475    509.74463  0.014988962  0.014547059           16 
 2835000   0.79043705   -8.3611027    510.01184   0.01499153  0.014541829           11 
 2836000   0.80545276   -8.3809774    509.77417   0.01497926  0.014536594            9 
 2837000   0.81102783   -8.3895774    509.79539  0.014974603  0.014531365           14 
 2838000   0.80640383   -8.3606854    511.99862  0.015034021  0.014526137            7 
 2839000   0.78291628   -8.3453265    510.03466  0.014971077  0.014520928            3 
 2840000   0.80027227   -8.3419425    510.50491  0.014979604  0.014515737            3 
 2841000   0.78259739   -8.3351293    509.56797  0.014946849  0.014510539            3 
 2842000   0.80277867   -8.3523107     511.1768  0.014988764   0.01450535           13 
 2843000   0.80201827   -8.3398499    510.74437  0.014970816  0.014500163           12 
 2844000   0.80016383   -8.3300047    511.87416  0.014998657  0.014494988            5 
 2845000   0.80289432   -8.3403034    511.99182  0.014996831  0.014489813           10 
 2846000   0.79843705   -8.3484734    511.43817  0.014975351  0.014484646            4 
 2847000   0.78493519    -8.369368    510.35839  0.014938485  0.014479475           23 
 2848000   0.80197008    -8.353097    510.40026  0.014934464   0.01447429            4 
 2849000   0.79714169   -8.3510413    511.90345  0.014973191  0.014469118            7 
 2850000   0.80176936   -8.3618962    511.24963  0.014948819   0.01446396            5 
 2851000   0.79711622   -8.3662612    510.86478  0.014932327  0.014458813            3 
 2852000    0.8079039    -8.369018    510.76622  0.014924212  0.014453645            5 
 2853000   0.78858434    -8.339061    511.39372  0.014937309  0.014448484           11 
 2854000   0.78615851   -8.3664369     511.7989  0.014943906  0.014443323            6 
 2855000   0.80350701   -8.3552495    511.28445  0.014923656  0.014438166            4 
 2856000   0.78914611   -8.3498922    511.57173  0.014926813  0.014433031           13 
 2857000   0.80612354   -8.3638998    511.84862  0.014929665   0.01442789            6 
 2858000   0.79051069   -8.3411807     511.0826  0.014902105  0.014422721            3 
 2859000   0.77942722   -8.3431753    510.73762  0.014886837  0.014417554            4 
 2860000   0.78578201   -8.3605199    511.65265  0.014908294  0.014412404            4 
 2861000   0.77711622    -8.339648    511.37197  0.014894908  0.014407257            8 
 2862000   0.77938789   -8.3226842    511.44303  0.014891772  0.014402133            4 
 2863000   0.79631852   -8.3158142    512.59686  0.014920155  0.014396984            5 
 2864000   0.79247624   -8.3322421     512.0095  0.014897856  0.014391852            6 
 2865000   0.79205885   -8.3243415    512.19556  0.014898068  0.014386744            2 
 2866000   0.80086425   -8.3279179    512.08014  0.014889513  0.014381658            3 
 2867000    0.7914378   -8.3370434     512.5867  0.014899044  0.014376547           13 
 2868000   0.78773369   -8.3076132    513.24915  0.014913097  0.014371441            2 
 2869000   0.79297984   -8.3473545     511.3865  0.014853796  0.014366326            9 
 2870000   0.82544569   -8.3553785    510.83721  0.014832672  0.014361213            7 
 2871000   0.79135892   -8.3343615    511.87872  0.014857736  0.014356095            7 
 2872000   0.79169499   -8.3379589    513.18246  0.014890392  0.014350977            3 
 2873000   0.79923913   -8.3279661    512.59174  0.014868075  0.014345862            7 
 2874000   0.78764594   -8.3735285    511.07018  0.014818783  0.014340728            4 
 2875000   0.79863042   -8.3406015    511.62928  0.014829834  0.014335598            5 
 2876000   0.78418531   -8.3559403     511.2046  0.014812373  0.014330449            7 
 2877000   0.77123542   -8.3725917    512.11013  0.014833453  0.014325302            8 
 2878000   0.79332883   -8.3587908    512.21297  0.014831277   0.01432016            4 
 2879000   0.78587512   -8.3705352     511.8033  0.014814267  0.014315023            5 
 2880000   0.79582232   -8.3860049    511.12093  0.014789379   0.01430985            4 
 2881000    0.8111989   -8.3709882    511.58202  0.014797583  0.014304698            6 
 2882000   0.78982869   -8.3616611    511.06256  0.014777428  0.014299545           13 
 2883000   0.79112548   -8.3495157    512.29303  0.014807869  0.014294398            7 
 2884000   0.79812617   -8.3873655    510.59992  0.014753812   0.01428926            4 
 2885000   0.78617171   -8.3545555    511.69431  0.014780309  0.014284119            3 
 2886000   0.79616878    -8.381777     512.3678  0.014794635  0.014278961            6 
 2887000   0.80356298   -8.4009816     511.0252  0.014750756  0.014273825            5 
 2888000   0.79208847   -8.3514891    510.93051  0.014742916   0.01426869            1 
 2889000   0.81160297   -8.3341679    512.61538  0.014786413  0.014263557            3 
 2890000   0.80055506   -8.3503119    512.21091  0.014769634  0.014258439            6 
 2891000   0.79718435   -8.3299868    511.87668  0.014754891   0.01425332            3 
 2892000     0.777653   -8.3809214    510.74649  0.014717223  0.014248198            4 
 2893000   0.78364914   -8.3549669    511.78663  0.014742097  0.014243088            3 
 2894000    0.7911969   -8.3325023    512.36696  0.014753713   0.01423798            6 
 2895000   0.78380798    -8.409493    510.20077  0.014686263  0.014232857            7 
 2896000   0.78774831   -8.3661253    511.76918  0.014726323   0.01422769            2 
 2897000   0.79290374   -8.3624924    512.42771  0.014740183   0.01422256            3 
 2898000   0.77817713   -8.4081869    510.10969   0.01466844  0.014217426            3 
 2899000   0.79089523   -8.3816398    512.09825  0.014720543  0.014212292            6 
 2900000   0.77103547   -8.3846131     510.9495  0.014682457  0.014207146           10 
 2901000   0.79471911   -8.3680718    512.28429  0.014715739  0.014202012           10 
 2902000    0.7835851   -8.3743309    511.91676  0.014700114  0.014196906           16 
 2903000   0.79611461   -8.3833974     512.5267  0.014712559  0.014191789            6 
 2904000   0.79184088    -8.407652    511.87497  0.014688791  0.014186681           10 
 2905000   0.80908023   -8.3817089    512.37114  0.014697967  0.014181575            4 
 2906000   0.78467441   -8.4138659    512.01468  0.014682688   0.01417646           12 
 2907000   0.79850903   -8.3904408    512.40559  0.014688843  0.014171331           13 
 2908000   0.79156064   -8.3971715    511.25271  0.014650754   0.01416622            3 
 2909000   0.78341596   -8.4144601    511.29865  0.014647033  0.014161109            3 
 2910000   0.77361121   -8.4024809     510.5559   0.01462073   0.01415597            7 
 2911000   0.78379082   -8.4039243    510.12236  0.014603297   0.01415083            6 
 2912000   0.79598026   -8.3894556    510.62427  0.014612645  0.014145688            3 
 2913000    0.8029727   -8.4019533    510.88345  0.014615043  0.014140561            4 
 2914000   0.76725337   -8.3809727    511.64711  0.014631867  0.014135437            5 
 2915000   0.78560134   -8.3986758    511.97346  0.014636177  0.014130308            6 
 2916000   0.78226882   -8.3834626    512.89746  0.014657564  0.014125211            6 
 2917000   0.77623657   -8.3646706    511.79972  0.014621178  0.014120103            6 
 2918000   0.80020969   -8.4040387    510.93455   0.01459146  0.014114985           13 
 2919000   0.76947519    -8.412427    510.66851  0.014578866  0.014109864            9 
 2920000   0.77437747   -8.4225961    510.67857   0.01457416  0.014104731           14 
 2921000   0.78876942    -8.379791    510.84798  0.014574004  0.014099609            7 
 2922000   0.81310338   -8.4107556    510.93693  0.014571553  0.014094501            4 
 2923000   0.78178699   -8.4204457     511.7001  0.014588325  0.014089398            8 
 2924000   0.76755759    -8.375555    512.49772  0.014606068  0.014084291            3 
 2925000   0.78502059   -8.3966871    510.61994  0.014547577  0.014079194            4 
 2926000   0.77220398   -8.3810496    511.82928  0.014577047  0.014074103            4 
 2927000   0.78560067    -8.382936    511.36642  0.014558889   0.01406903            7 
 2928000    0.7800004   -8.3832127    511.34283  0.014553245  0.014063957            6 
 2929000    0.7784106   -8.3780264    512.58807  0.014583705   0.01405887            5 
 2930000   0.77401884   -8.3798466    512.45501  0.014574943  0.014053796            9 
 2931000   0.79920904   -8.3961171    511.05057   0.01453004  0.014048709            8 
 2932000   0.75980427   -8.3829006    510.98206  0.014523137  0.014043622            8 
 2933000   0.78294625   -8.3634939    512.14528  0.014551235  0.014038532            6 
 2934000   0.77039994   -8.4097236    511.08559  0.014516178  0.014033465            5 
 2935000   0.77915609   -8.4048427    511.17898  0.014513883  0.014028358           17 
 2936000   0.77530887   -8.3975247    510.45673   0.01448844  0.014023249           10 
 2937000   0.78475968   -8.3846206    512.99023  0.014555392  0.014018136            8 
 2938000   0.77887641    -8.408449    511.57451  0.014510282  0.014013029            9 
 2939000   0.78387666   -8.4271016    512.01735  0.014517902  0.014007913            3 
 2940000   0.78694283    -8.422937     510.2451   0.01446273  0.014002794            5 
 2941000    0.7818335   -8.4202145    510.45568  0.014463779  0.013997683           13 
 2942000   0.78054565   -8.4381605    511.82084  0.014497531  0.013992573           15 
 2943000   0.77215814   -8.4238753     511.1465  0.014473511  0.013987451            5 
 2944000   0.77185909   -8.4269501    511.43882  0.014476869  0.013982336            5 
 2945000   0.78406439   -8.3953421    510.93786  0.014457778  0.013977222            9 
 2946000   0.79184854   -8.4239881    511.26019  0.014461988  0.013972109            4 
 2947000   0.78305157   -8.3663534    511.71755  0.014470013   0.01396701            4 
 2948000   0.78352525   -8.3965133    511.11398  0.014448043  0.013961912            3 
 2949000   0.77293542   -8.3799844    512.22908  0.014474655   0.01395683            9 
 2950000   0.77605734   -8.4204869    511.85144   0.01445908  0.013951756            6 
 2951000   0.76863685   -8.4049689    512.56862  0.014474433  0.013946675           15 
 2952000   0.78526556   -8.4431707    510.49259  0.014410925  0.013941574            6 
 2953000   0.77167899   -8.4291177    511.96295  0.014447538  0.013936482            6 
 2954000   0.76915199   -8.4153744    512.01988  0.014444253  0.013931415            6 
 2955000   0.76735783   -8.4081182    513.15502  0.014471377   0.01392635            3 
 2956000   0.77343551    -8.427358    511.79258  0.014428072  0.013921272            5 
 2957000   0.78068606   -8.4143573    511.05694  0.014402461    0.0139162           12 
 2958000   0.77367833   -8.3887123    511.55693  0.014411678  0.013911134            2 
 2959000   0.76753408   -8.4136663    514.00895  0.014475863  0.013906065            2 
 2960000   0.76547467   -8.4173976    511.67269    0.0144052  0.013900996            8 
 2961000   0.77919049   -8.4183559    512.58175  0.014425919  0.013895926            6 
 2962000   0.80140351   -8.4245011    511.54642   0.01439192  0.013890878            4 
 2963000   0.77343872   -8.4241772    511.79312  0.014394002  0.013885815            4 
 2964000   0.78303733   -8.4278473    511.84335  0.014390558  0.013880726            7 
 2965000   0.77781986   -8.4124896    512.21765  0.014396224   0.01387566            6 
 2966000   0.81763851   -8.4322138    511.47365  0.014370467  0.013870596            4 
 2967000   0.78564822   -8.4398172    511.72279  0.014372621  0.013865515            8 
 2968000   0.76864118   -8.4179812    511.76262  0.014368896  0.013860463            3 
 2969000   0.78721376   -8.3946326    512.18104  0.014375801   0.01385543            3 
 2970000    0.7809056   -8.4057344    512.82026  0.014388896  0.013850403            9 
 2971000   0.78681684   -8.4103946    512.44153   0.01437343  0.013845375            5 
 2972000    0.7836038   -8.4226308    511.59779  0.014344936  0.013840364            6 
 2973000   0.76943014   -8.4194974    512.59075  0.014367943  0.013835343            7 
 2974000   0.78380757   -8.4062855    513.13516  0.014378367  0.013830322            5 
 2975000   0.77241519   -8.4050596    513.71445   0.01438976  0.013825307           21 
 2976000    0.7741678   -8.4099955    512.60347  0.014353816    0.0138203           11 
 2977000   0.76694356   -8.4130765    511.38556  0.014314902  0.013815274           17 
 2978000   0.77522367   -8.4338751      512.599  0.014344051  0.013810234            9 
 2979000   0.77691609   -8.4268318    512.02721  0.014323241  0.013805208            5 
 2980000   0.78467915   -8.4223037     512.2171  0.014323745  0.013800173            7 
 2981000   0.77945156   -8.4475293    511.24958  0.014291892  0.013795118            9 
 2982000   0.76307649   -8.4387669    511.87784  0.014304657  0.013790058           18 
 2983000   0.78676085    -8.444034    511.66061  0.014293793  0.013785015           13 
 2984000   0.79399907   -8.4317357    512.20632  0.014304243  0.013779978            8 
 2985000   0.78204854   -8.4538765    512.39147   0.01430462  0.013774945           19 
 2986000   0.77513788   -8.4464484    511.85172  0.014284766   0.01376989            6 
 2987000   0.79981005   -8.4263998    511.77926  0.014277962  0.013764851           12 
 2988000   0.78699441   -8.3891883    513.16364  0.014311793  0.013759818            7 
 2989000   0.77843283   -8.4278323    512.78298  0.014296392  0.013754785            6 
 2990000   0.78597708   -8.4652369    511.08615  0.014244319  0.013749731           19 
 2991000   0.77548336    -8.415929    512.44441  0.014277399  0.013744692           20 
 2992000   0.77815472   -8.4172341    512.70825  0.014279976  0.013739662           15 
 2993000   0.78410676   -8.4321953    511.87001  0.014251866  0.013734643            9 
 2994000    0.7738878   -8.4431191    512.50265  0.014264714  0.013729622            8 
 2995000   0.76598406   -8.4126632    511.39833  0.014229224  0.013724608            7 
 2996000    0.7688754   -8.4523996    511.69404    0.0142327  0.013719603            7 
 2997000   0.78358871   -8.4311954     512.1351  0.014240215  0.013714564            5 
 2998000   0.77599463   -8.4379876    511.61447  0.014220994  0.013709529            9 
 2999000   0.78600137   -8.4188592    512.06141  0.014228671  0.013704503           13 
 3000000   0.77233569   -8.4058979    513.44839  0.014262455  0.013699485           16 
 3001000   0.77369161   -8.4100592    512.96977  0.014244412  0.013694487            7 
 3002000   0.77787068   -8.4359643    512.55982  0.014228287  0.013689478           17 
 3003000   0.75787624   -8.4515699    512.94078  0.014234121  0.013684452            7 
 3004000   0.77012743   -8.4258319     512.3905  0.014214117  0.013679429           11 
 3005000   0.77614727   -8.4375141    512.76782  0.014219851  0.013674415            8 
 3006000   0.80348935    -8.409111    512.22901  0.014200183  0.013669413            7 
 3007000   0.77099685   -8.4400213     512.4071  0.014200396  0.013664413            5 
 3008000   0.77666346   -8.4264321    512.04159  0.014185549   0.01365941            7 
 3009000   0.76436139   -8.4393555    511.93394  0.014177854  0.013654401            7 
 3010000   0.76137122   -8.4642296     511.8851  0.014171791  0.013649383            7 
 3011000   0.77110712   -8.4261507    512.06094  0.014171951  0.013644393            9 
 3012000    0.7442754   -8.4338282    512.37912  0.014176049  0.013639411            5 
 3013000   0.76306207   -8.4361258    512.78394  0.014182541  0.013634436            9 
 3014000   0.77392156   -8.4341314    512.84249  0.014179454  0.013629443            6 
 3015000   0.77107051   -8.4264743    513.78994  0.014200938  0.013624465            4 
 3016000   0.77365212   -8.4631188    511.53828  0.014134015  0.013619474            4 
 3017000   0.77201052   -8.4257298    512.08623  0.014144466  0.013614498            6 
 3018000   0.77645944   -8.4313697    512.56438  0.014152982   0.01360951           11 
 3019000   0.77529908   -8.4334949    512.59181  0.014149051  0.013604507            6 
 3020000   0.77428105   -8.4607253    511.93454  0.014126229  0.013599507           10 
 3021000   0.76672405   -8.4332048    512.92162  0.014148781  0.013594499            9 
 3022000   0.75502433   -8.4318631    514.00383  0.014173942  0.013589512           15 
 3023000   0.76528823   -8.4380463    511.84052  0.014109619  0.013584526           16 
 3024000   0.78046751   -8.4468031    513.11397  0.014140046  0.013579547           17 
 3025000   0.76595101   -8.4056484     512.4858  0.014118066  0.013574569           34 
 3026000    0.7737359   -8.4530457    513.17885  0.014132487  0.013569575           15 
 3027000    0.7664841   -8.4517108    512.65247  0.014113326  0.013564597           30 
 3028000   0.75780379   -8.4516139    513.28609  0.014126103  0.013559607           14 
 3029000   0.75948698   -8.4449342    512.94127  0.014111953  0.013554628           11 
 3030000   0.78059842   -8.4307939     513.1331  0.014112572   0.01354965           24 
 3031000   0.78302966   -8.4475784    512.49992  0.014090507  0.013544649           13 
 3032000   0.77108513   -8.4582419     511.4116  0.014055948   0.01353965           22 
 3033000   0.77231417   -8.4506514    511.90357   0.01406483  0.013534639           12 
 3034000   0.76756302    -8.458196    511.67386  0.014053885   0.01352964           13 
 3035000   0.75616822   -8.4559599    511.38422  0.014041302  0.013524648            4 
 3036000   0.76890463    -8.452497    512.06649  0.014055404  0.013519665            8 
 3037000   0.77548943   -8.4550096    512.60806  0.014065637  0.013514688            8 
 3038000   0.76726594   -8.4669833    513.12846  0.014075281  0.013509729            9 
 3039000   0.77472222   -8.4404996    512.80582  0.014061803  0.013504755            7 
 3040000   0.75754855   -8.4277264    512.63787  0.014052573  0.013499801            8 
 3041000   0.74973834   -8.4460408    512.31472  0.014039097  0.013494856           15 
 3042000   0.77659653    -8.453789    511.57767  0.014014291  0.013489923            5 
 3043000   0.78261399   -8.4469792    512.56365  0.014036687  0.013484986            6 
 3044000   0.77338033   -8.4404909    513.54693  0.014058994  0.013480025            5 
 3045000   0.77692763   -8.4415954    512.63374  0.014029385  0.013475083           14 
 3046000   0.76050942   -8.4451139    512.37522  0.014017707  0.013470134            6 
 3047000   0.76815243   -8.4513659    514.36271  0.014067463  0.013465203            7 
 3048000   0.76519739   -8.4478579    512.57943  0.014014092  0.013460262            4 
 3049000    0.7455387   -8.4795073    513.80177  0.014042904  0.013455318            6 
 3050000   0.76098775   -8.4684368    512.97368  0.014015674  0.013450362            8 
 3051000   0.76956436   -8.4621229    512.25844  0.013991545  0.013445405           12 
 3052000   0.76830508   -8.4807349    512.52275  0.013994177  0.013440469            5 
 3053000   0.74194182   -8.4689646     512.6888  0.013994126  0.013435528            5 
 3054000   0.75696416   -8.4863601    512.85345  0.013994037  0.013430566            4 
 3055000   0.76911946   -8.4433896    512.64617  0.013983802  0.013425614           11 
 3056000   0.75657599   -8.4741453    512.13493  0.013965285  0.013420673            6 
 3057000   0.74655276   -8.4715622    512.76831  0.013977983  0.013415735            4 
 3058000   0.77443303    -8.443695     513.9709  0.014006183  0.013410808            7 
 3059000   0.77203431   -8.5113117    512.16615   0.01395244  0.013405884           10 
 3060000   0.76504825   -8.4545513    512.79501  0.013965006  0.013400942            9 
 3061000   0.78222602   -8.4500694     513.3756   0.01397625  0.013396016            6 
 3062000   0.76972623   -8.4841165    512.13842  0.013938015  0.013391092           13 
 3063000   0.74956905   -8.4865832    512.86944  0.013953353  0.013386154            5 
 3064000   0.76835639   -8.4710941    512.48795  0.013938423  0.013381201           11 
 3065000   0.75109114   -8.4712784    513.14392  0.013951711  0.013376273           12 
 3066000   0.76321416   -8.4892414    512.24053  0.013922606  0.013371371           18 
 3067000   0.77447053   -8.4536143    512.49049  0.013924858  0.013366448            6 
 3068000   0.76428849   -8.4867338    513.19534  0.013939465   0.01336152           23 
 3069000   0.76246687   -8.4808709    512.51453  0.013916437  0.013356606           14 
 3070000   0.75183996   -8.4526669    514.57713  0.013967892  0.013351705           14 
 3071000   0.75277291   -8.4524686    514.17668  0.013952477  0.013346804            9 
 3072000   0.74909576   -8.4733554    512.59929  0.013905146  0.013341909           10 
 3073000   0.77312491   -8.4329369    513.60172  0.013927804  0.013337002           19 
 3074000   0.77350704   -8.4803625    512.94844  0.013905564  0.013332105           17 
 3075000    0.7417415   -8.4546021     513.5539   0.01391745  0.013327194           18 
 3076000    0.7667337   -8.4547444    513.82545  0.013920282  0.013322281           14 
 3077000   0.75006173   -8.4773109    512.83811  0.013889018  0.013317398           19 
 3078000   0.76858409   -8.4674185    513.25083   0.01389568  0.013312502           12 
 3079000   0.77146006   -8.4858215    512.53417   0.01387177  0.013307587           13 
 3080000   0.74547626   -8.4637889    512.63733  0.013870058   0.01330268           12 
 3081000   0.77681626   -8.4491435    512.62851  0.013865317  0.013297778            6 
 3082000   0.75231507   -8.4691736    512.81519  0.013865866  0.013292873           13 
 3083000   0.77171071   -8.4919268     514.1692  0.013897967  0.013287966            5 
 3084000   0.77669692   -8.4710211     512.7167  0.013854213  0.013283069            7 
 3085000   0.76579655   -8.4910598    512.25201  0.013837169  0.013278171            6 
 3086000   0.76418112   -8.4981927    512.75143  0.013846172  0.013273253            7 
 3087000   0.77188365   -8.5041652    512.67394  0.013839595  0.013268353            7 
 3088000   0.77009938   -8.5092884    513.10418  0.013846723  0.013263452            4 
 3089000   0.76894628   -8.4878133    512.39727   0.01382317  0.013258546            4 
 3090000   0.75464519   -8.4857605    514.82861  0.013884267   0.01325364            6 
 3091000   0.74607528   -8.4790863    512.93903  0.013828832  0.013248751            5 
 3092000   0.76474618   -8.4862126    512.58872  0.013814918  0.013243866            8 
 3093000   0.76308798   -8.4488806    513.00282  0.013821608  0.013238984            4 
 3094000   0.76013094   -8.4589368     512.9384  0.013815406  0.013234121            8 
 3095000    0.7574664   -8.4750053    513.18294  0.013817527  0.013229257            7 
 3096000   0.77073216   -8.4400896    513.55027  0.013822951  0.013224406            8 
 3097000   0.75902487   -8.4624886    512.72621  0.013796314   0.01321955            3 
 3098000   0.74769358   -8.4910241    511.89061  0.013769384  0.013214684            5 
 3099000   0.77542004    -8.462562    513.46642  0.013807315  0.013209819            4 
 3100000   0.77490156   -8.4852763    513.43507  0.013802018  0.013204943            4 
 3101000   0.75553413   -8.4612232    514.29133  0.013820578  0.013200087           13 
 3102000   0.75264126   -8.4569816    514.02291  0.013808911  0.013195239            8 
 3103000   0.76078474   -8.4871615    512.99583  0.013776878  0.013190372           12 
 3104000   0.74468481    -8.482079    513.43004  0.013784097  0.013185504           10 
 3105000   0.75923966   -8.4762503    513.94813  0.013793562  0.013180637           10 
 3106000   0.75961863   -8.4573729    513.77291   0.01378442  0.013175791            8 
 3107000    0.7601275   -8.4931616    513.96269  0.013785074  0.013170933            9 
 3108000   0.74153018   -8.4727898    513.46138  0.013767197  0.013166079            6 
 3109000   0.77237537   -8.4608086    513.32626  0.013759147  0.013161222           13 
 3110000   0.75666159   -8.4889274    513.85197  0.013768809  0.013156367           11 
 3111000   0.75576131   -8.4580307    513.48923  0.013754667  0.013151526            9 
 3112000   0.75367031   -8.4737756    512.47697  0.013723141   0.01314668            4 
 3113000   0.76023725   -8.4807567    513.51957  0.013746642  0.013141837            5 
 3114000   0.75964358   -8.4969856    513.12153  0.013731576  0.013136985            3 
 3115000   0.76182588   -8.4607864    514.48811  0.013763727  0.013132158            7 
 3116000   0.74697268   -8.4784122    513.28044  0.013727012   0.01312733            7 
 3117000   0.75299871    -8.470818    513.38987  0.013725534  0.013122511            3 
 3118000   0.75203009   -8.4364165    514.02639  0.013738144  0.013117693            5 
 3119000   0.74937646   -8.4769149    513.60914  0.013722591  0.013112873            6 
 3120000   0.75971138   -8.4679405    514.12722   0.01373203  0.013108061            4 
 3121000   0.75544551   -8.4717535    513.74972  0.013717551  0.013103238           10 
 3122000   0.74012971   -8.4731966    514.26535  0.013726921  0.013098437            6 
 3123000   0.74006416   -8.4871859     514.4358  0.013727073  0.013093615            5 
 3124000   0.74334998   -8.4822785     513.1892  0.013689426  0.013088801            5 
 3125000   0.76345132   -8.5040214     513.4185   0.01369116  0.013083978           11 
 3126000   0.76161981    -8.446176    513.64624  0.013692851   0.01307915            9 
 3127000   0.76993093   -8.4858104    513.27349  0.013678539  0.013074326            9 
 3128000   0.76157498   -8.4984339    513.95531   0.01369233  0.013069496           12 
 3129000   0.74530833   -8.4850346    513.10854  0.013665403  0.013064673            9 
 3130000   0.75824244   -8.4709994    513.16638  0.013662577  0.013059849            9 
 3131000   0.75795059   -8.4663991     513.5224  0.013667689  0.013055027            9 
 3132000   0.74968276   -8.5092561    513.00482  0.013649554  0.013050212            8 
 3133000   0.75914585   -8.4469879    514.33641  0.013680615  0.013045403            6 
 3134000   0.74199542   -8.4838534    513.77041    0.0136612  0.013040585            6 
 3135000   0.73270159   -8.4959713    513.21276  0.013642019  0.013035774           17 
 3136000   0.73677838   -8.5234092     513.3398  0.013641045  0.013030955           16 
 3137000   0.75213521   -8.5003675    513.51346   0.01364131  0.013026151           10 
 3138000   0.75066785   -8.5212726    513.67797  0.013641331   0.01302136           11 
 3139000   0.74394775   -8.4449018    513.89932  0.013642862  0.013016569           11 
 3140000   0.73450185   -8.4960798    512.74986  0.013608011  0.013011764           10 
 3141000    0.7487427   -8.4979174     514.9976  0.013663313  0.013006958           11 
 3142000   0.74923374   -8.4957857    514.34403   0.01364163  0.013002156           12 
 3143000   0.76769481   -8.5055204    513.76703  0.013621991   0.01299735            9 
 3144000   0.75698056   -8.5353363    513.07499  0.013599316  0.012992549            8 
 3145000   0.75288091   -8.5025303    514.27836  0.013626878  0.012987732           11 
 3146000   0.73888242   -8.5245419    512.40302  0.013572871  0.012982927            9 
 3147000   0.75653607     -8.48576    513.72344  0.013603523  0.012978123           16 
 3148000   0.74494726   -8.5081076    514.17226  0.013611083  0.012973318           15 
 3149000   0.74858612   -8.4940625    514.36768  0.013611932  0.012968519           23 
 3150000   0.75960216   -8.5170263    513.17595  0.013576083   0.01296372           15 
 3151000   0.74590169   -8.5046711    513.42447  0.013578347  0.012958918           13 
 3152000   0.75515612   -8.5151202    513.01428  0.013563195  0.012954139           22 
 3153000   0.74861656   -8.5159669    513.75122   0.01357837  0.012949351           17 
 3154000   0.75715548    -8.533992    512.76065  0.013547893  0.012944576           18 
 3155000   0.74232549   -8.5429985    511.70428  0.013515697   0.01293979           23 
 3156000   0.74973204   -8.5307541    512.87313  0.013542277  0.012934976           22 
 3157000   0.74030582   -8.5515145    513.87355  0.013564395  0.012930181           19 
 3158000    0.7379127   -8.5329182    512.58112  0.013525995  0.012925385           21 
 3159000   0.76119972   -8.5271567    512.61496  0.013522606  0.012920577           27 
 3160000   0.74521943    -8.527112    512.93866  0.013526863  0.012915777           30 
 3161000   0.76131534   -8.5173985    511.97283  0.013497122  0.012910981           13 
 3162000   0.74808568   -8.5333263    513.42096  0.013531018    0.0129062            8 
 3163000     0.738983   -8.5426087    511.87407  0.013485986  0.012901414           15 
 3164000   0.74462942   -8.5165546    512.94794  0.013510007  0.012896617           15 
 3165000   0.74256983    -8.508549    512.67821  0.013498636  0.012891833           16 
 3166000   0.75971489   -8.5370106    512.68289  0.013494496  0.012887039           19 
 3167000   0.74488234   -8.5210895    512.65922  0.013489612   0.01288225           28 
 3168000   0.76189409   -8.5239824      513.271  0.013501447   0.01287746           17 
 3169000   0.75499722   -8.5333322    512.80782  0.013485006  0.012872665           15 
 3170000   0.72843649    -8.510814    513.27575  0.013493053  0.012867866           21 
 3171000    0.7401784   -8.5389622    511.94431  0.013453808  0.012863071           14 
 3172000   0.75689845   -8.5333611    513.40651  0.013487981  0.012858271           15 
 3173000   0.74104321   -8.4941077    514.47155  0.013511702  0.012853493           26 
 3174000   0.73188582   -8.4981508    513.15593  0.013472903  0.012848726           11 
 3175000   0.74302178    -8.524238    512.78141   0.01345883  0.012843963           14 
 3176000   0.75154023   -8.5163407    512.78186  0.013454604  0.012839186           20 
 3177000   0.74669481   -8.5169316     513.5646    0.0134709  0.012834427           23 
 3178000   0.75002198   -8.4984448    513.36166   0.01346134  0.012829675           19 
 3179000   0.73228987   -8.5094231    513.43103  0.013458924  0.012824929           19 
 3180000   0.73754892   -8.5513408    512.99777  0.013443338  0.012820167           19 
 3181000   0.75081664    -8.509954    513.62983   0.01345567  0.012815399           19 
 3182000   0.74103142   -8.5195343     513.6142  0.013451032  0.012810652           10 
 3183000   0.74516172   -8.5010107    512.98291  0.013430278  0.012805893           10 
 3184000   0.73078406   -8.5256946    512.54454  0.013414587  0.012801128           23 
 3185000   0.73815976   -8.5437056    514.00987  0.013448715  0.012796353           17 
 3186000   0.73151716   -8.5281577    512.43747  0.013403365  0.012791572           12 
 3187000   0.74028784   -8.5357818    512.99754  0.013413805  0.012786793           24 
 3188000   0.73545028   -8.5219652    513.48285  0.013422283  0.012782011           34 
 3189000   0.74587983   -8.5149844    512.65027  0.013396317   0.01277724           31 
 3190000   0.73844041   -8.5242699    512.35155  0.013384314  0.012772465           15 
 3191000   0.73621953   -8.5542657    511.52796  0.013358612  0.012767682           28 
 3192000    0.7316725   -8.5458906    512.55959  0.013381359  0.012762917           33 
 3193000   0.75635055   -8.5464705    512.61048  0.013378497  0.012758145           36 
 3194000    0.7445943   -8.5263166    512.12866  0.013361737   0.01275336           42 
 3195000   0.74750756   -8.5538279    512.41945   0.01336514  0.012748585           48 
 3196000   0.74452196   -8.5158783    512.45781  0.013361958  0.012743809           32 
 3197000   0.74123229   -8.5466834    512.47329  0.013358182  0.012739062           29 
 3198000    0.7429497    -8.551748    511.39486  0.013325903    0.0127343           30 
 3199000     0.744224   -8.5458835    512.76643  0.013357467  0.012729536           38 
 3200000   0.72524394   -8.5341654    513.00753  0.013359571  0.012724778           45 
 3201000    0.7470008   -8.5644954    513.41639  0.013366042  0.012720029           33 
 3202000   0.73430728   -8.5115918     513.7281   0.01336998  0.012715264           23 
 3203000   0.73150556   -8.5388591    512.20162  0.013326091  0.012710507           33 
 3204000   0.73365705    -8.539891    512.52775  0.013330414  0.012705761           47 
 3205000   0.74354295    -8.532251    513.25408   0.01334514  0.012701017           45 
 3206000   0.73840049   -8.5402513    512.65376  0.013325373  0.012696279           50 
 3207000   0.73108083   -8.5522643    513.10291  0.013332889  0.012691522           37 
 3208000   0.74356858   -8.5770522    511.70902  0.013292524   0.01268675           41 
 3209000   0.72779273   -8.5489116    513.01334  0.013322253  0.012681979           39 
 3210000   0.72212996   -8.5495302    512.76119  0.013311557  0.012677194           41 
 3211000   0.74792904   -8.5296896    512.73417   0.01330671   0.01267242           47 
 3212000    0.7302513   -8.5594996    512.45925  0.013295435  0.012667651           39 
 3213000    0.7345236   -8.5463503    513.08082  0.013307418  0.012662892           44 
 3214000   0.74741789   -8.5936336    511.27613  0.013256485  0.012658131           27 
 3215000   0.73936401   -8.5700314    512.22754  0.013277023  0.012653356           37 
 3216000   0.73766164   -8.5782592    511.27508  0.013248214  0.012648596           31 
 3217000   0.73133157   -8.5615735    512.10822  0.013265678  0.012643822           49 
 3218000    0.7548157   -8.5643069    513.44041  0.013296054  0.012639065           57 
 3219000   0.73260225    -8.523139    512.84668  0.013276553  0.012634329           60 
 3220000   0.74943391   -8.5579305    513.42172  0.013287312  0.012629594           56 
 3221000   0.74327762   -8.5361757    513.55098  0.013286531  0.012624866           38 
 3222000   0.73554239   -8.5411278     512.9588  0.013267091   0.01262014           57 
 3223000   0.74406332   -8.5658862    512.07809  0.013240203  0.012615406           47 
 3224000   0.73218037   -8.5590929    511.38655  0.013218221  0.012610667           51 
 3225000   0.72827348   -8.5540453    513.23168    0.0132618  0.012605936           58 
 3226000   0.73570203   -8.5753613     512.4653  0.013237893  0.012601196           45 
 3227000   0.73302596   -8.5496417    513.25192  0.013254104   0.01259647           55 
 3228000   0.72431843   -8.5638086    512.39954  0.013227993  0.012591732           49 
 3229000   0.74759646   -8.5676116    513.19319  0.013244379  0.012587002           48 
 3230000    0.7500652   -8.5616769    513.41659  0.013246042  0.012582278           43 
 3231000   0.72516714   -8.5555803    512.99226  0.013230998  0.012577548           42 
 3232000   0.73113012   -8.5421109    512.78426  0.013221541  0.012572822           40 
 3233000   0.74205174   -8.5495982     512.8513   0.01321918    0.0125681           36 
 3234000   0.72689065   -8.5386874     513.7144  0.013237333  0.012563385           33 
 3235000   0.72970879   -8.5633271    512.34276  0.013197907  0.012558673           39 
 3236000   0.72112055   -8.5485229    512.36902  0.013194505  0.012553969           40 
 3237000   0.72570674   -8.5730452    512.45249  0.013192578  0.012549263           60 
 3238000   0.75199484   -8.5679021    512.27837  0.013184022  0.012544546           44 
 3239000   0.72253818   -8.5321278    512.07001  0.013174591  0.012539846           38 
 3240000   0.72592966   -8.5804835     512.9918  0.013194234   0.01253515           49 
 3241000    0.7276419   -8.5539755    513.61346  0.013206147  0.012530447           52 
 3242000   0.73759901   -8.5545029    513.06606  0.013188003   0.01252575           48 
 3243000   0.74883835   -8.5382604    513.80284  0.013202869  0.012521041           31 
 3244000   0.74175058    -8.560261    511.92556  0.013150574  0.012516345           48 
 3245000   0.73480543   -8.5748944    514.18616  0.013204575  0.012511653           46 
 3246000   0.71284719   -8.5548506    511.97421  0.013143721  0.012506961           55 
 3247000   0.74699329   -8.5432862     513.3399  0.013174723  0.012502267           48 
 3248000   0.74896789   -8.5736842    512.26073  0.013142979  0.012497573           26 
 3249000   0.73914595   -8.5632391    512.08639  0.013134462   0.01249287           30 
 3250000   0.72776436    -8.598854    511.31379   0.01311061  0.012488171           42 
 3251000   0.72567631   -8.5645479    512.46521  0.013136092   0.01248348           37 
 3252000   0.72432469    -8.550182    513.06052  0.013147307  0.012478796           35 
 3253000   0.72086096   -8.5598008    513.34969  0.013150673  0.012474122           35 
 3254000   0.72496028   -8.5691066    514.31367  0.013171319  0.012469452           37 
 3255000   0.74956878   -8.5679064    512.99297  0.013133461  0.012464777           42 
 3256000   0.74346674   -8.5767959    512.98159  0.013129136  0.012460109           33 
 3257000   0.74445132   -8.5649759    512.39226  0.013110026  0.012455427           44 
 3258000   0.73150348   -8.5546401    512.91935  0.013119484  0.012450747           52 
 3259000   0.73518767   -8.5819383    511.76667  0.013085984  0.012446075           60 
 3260000   0.72596045   -8.5770808      511.771  0.013082081  0.012441397           53 
 3261000   0.73115943   -8.5650567    512.42579  0.013094802  0.012436714           60 
 3262000   0.73385158   -8.5619435    512.49023  0.013092434  0.012432034           51 
 3263000   0.71901248   -8.5875493    512.43538  0.013087021  0.012427359           56 
 3264000   0.72482403   -8.5353666    512.34907  0.013080808  0.012422687           45 
 3265000   0.72759512   -8.5793351    512.81251   0.01308863  0.012418014           51 
 3266000   0.71725246   -8.5430148    511.96648  0.013063035   0.01241333           35 
 3267000   0.72401959    -8.570412    512.99134  0.013085179  0.012408673           48 
 3268000   0.74270487   -8.5828933    511.89266  0.013053158  0.012404013           65 
 3269000   0.72517031   -8.6002008    511.36212  0.013035641  0.012399346           71 
 3270000   0.71591821   -8.5704019    512.52695  0.013061339  0.012394676           65 
 3271000   0.73531798   -8.5910728    512.46377  0.013055737  0.012389999           61 
 3272000    0.7315051   -8.5914529    512.34137  0.013048629   0.01238533           65 
 3273000   0.71638913    -8.581202    512.58414  0.013050823  0.012380646           68 
 3274000    0.7220826   -8.6121176    511.58616  0.013021436  0.012375974           66 
 3275000   0.73497755   -8.5581223    513.45579  0.013065033  0.012371314           68 
 3276000   0.72729821   -8.5847649     512.1464  0.013027737  0.012366651           51 
 3277000   0.72821848   -8.6012251    511.76975  0.013014184  0.012361985           58 
 3278000   0.73076334   -8.5703606    511.79388  0.013010827  0.012357338           71 
 3279000   0.72963091   -8.5857398    513.00213  0.013037566  0.012352689           64 
 3280000    0.7121652   -8.6059256    512.81715  0.013028891  0.012348047           58 
 3281000   0.73223893   -8.5829902     513.0969  0.013032025  0.012343404           61 
 3282000   0.72740846   -8.5920947    512.51139  0.013013188  0.012338759           56 
 3283000   0.71738721   -8.5870888    513.57439  0.013036206  0.012334098           52 
 3284000   0.72539203   -8.5870466    511.85989   0.01298873  0.012329433           61 
 3285000   0.72076258   -8.6031155    512.29933  0.012995924  0.012324769           58 
 3286000   0.72733284   -8.5714026    512.57491  0.012998958  0.012320113           59 
 3287000   0.72079021   -8.6001281    512.75372  0.012999537  0.012315457           74 
 3288000   0.71827973   -8.5933476    511.69509  0.012968752  0.012310798           67 
 3289000   0.73350809   -8.5885786    512.12527  0.012975709  0.012306142           65 
 3290000   0.72733436   -8.5916755    511.11814  0.012946255  0.012301484           58 
 3291000   0.72731782   -8.5793505    511.57018  0.012953767  0.012296821           80 
 3292000   0.73021087   -8.5870991    512.37123   0.01297011  0.012292164           50 
 3293000    0.7141625   -8.6074469    512.90017  0.012979557  0.012287524           64 
 3294000   0.73242498   -8.5765558    512.62285  0.012968601  0.012282893           60 
 3295000   0.71481668   -8.5987131    511.58106  0.012938317  0.012278261           49 
 3296000   0.74172764   -8.5709008     512.1477  0.012948718  0.012273637           51 
 3297000   0.72279326   -8.6018429    512.61384  0.012956573  0.012269015           58 
 3298000   0.73219865   -8.5649701    512.02202   0.01293769  0.012264391           63 
 3299000   0.71296029   -8.5731324    511.92025  0.012931198  0.012259778           58 
 3300000   0.73537801   -8.5912498    512.85285   0.01295083  0.012255169           61 
 3301000   0.72919311   -8.5637763     513.0531  0.012951962  0.012250555           60 
 3302000   0.71307622   -8.6022295    513.14233  0.012950291  0.012245941           63 
 3303000   0.72427225   -8.6076768    511.40083  0.012902433  0.012241313           70 
 3304000   0.71165789   -8.5801428    512.48952  0.012925987  0.012236694           82 
 3305000   0.70184268   -8.5974002    512.53788  0.012923295  0.012232064           69 
 3306000    0.7379471    -8.617642    512.89965  0.012928505  0.012227451           94 
 3307000   0.71594299   -8.6102983    512.37643  0.012911411  0.012222823           77 
 3308000   0.72087855    -8.574881    512.72787  0.012916361  0.012218208          100 
 3309000   0.72935498   -8.5919423    512.33764   0.01290263  0.012213597           85 
 3310000   0.72120311    -8.587936    513.40643   0.01292564  0.012208977           88 
 3311000   0.71883544   -8.6082547    511.66744  0.012877968  0.012204379           88 
 3312000   0.71802866    -8.607787    512.79478  0.012902445  0.012199787           98 
 3313000   0.73370707   -8.5689209    512.44386  0.012889724  0.012195173          107 
 3314000   0.73648764    -8.576317    512.95209  0.012898614  0.012190571          111 
 3315000   0.72460439   -8.5896735    512.55177   0.01288466  0.012185963           77 
 3316000   0.71953642   -8.5637291    511.82793  0.012862584  0.012181369           95 
 3317000   0.72476138   -8.6052224    512.72442  0.012881229  0.012176757           97 
 3318000   0.72770309     -8.60195    511.47084  0.012845862  0.012172145           99 
 3319000    0.7199659   -8.6086865    511.77234  0.012849562  0.012167541          100 
 3320000   0.70535886   -8.6102168    512.60861  0.012866682  0.012162931          105 
 3321000    0.7150069   -8.5887465     512.3933  0.012857405  0.012158323          100 
 3322000   0.73317686   -8.6187895    511.40031  0.012828625  0.012153715          107 
 3323000   0.72279506   -8.6213589    512.23975  0.012845816    0.0121491           98 
 3324000   0.73042494   -8.6100442     511.9421  0.012834489  0.012144508          106 
 3325000   0.72244408   -8.6236389    511.78724  0.012826748  0.012139915          113 
 3326000   0.73855288   -8.6139899    512.07805  0.012830178  0.012135314          115 
 3327000   0.73203211   -8.6223092    512.93581  0.012847806  0.012130716          102 
 3328000   0.73405493   -8.6327342    511.71904  0.012813477  0.012126119           95 
 3329000   0.72851867   -8.6091231    510.86594  0.012788273  0.012121535          116 
 3330000   0.72098324   -8.5957848    513.60512  0.012852981  0.012116942          130 
 3331000   0.73949481   -8.6036962     511.5172  0.012796888  0.012112356          135 
 3332000   0.71796318   -8.5887656     510.3533  0.012763938  0.012107777          126 
 3333000   0.73095338   -8.6164926    511.47476  0.012788148  0.012103187          146 
 3334000   0.71382147   -8.5924917    512.66322  0.012814018  0.012098611          103 
 3335000   0.72626293   -8.5982376    512.90169  0.012816134   0.01209403          120 
 3336000   0.72015202   -8.6209287    510.81312   0.01276012   0.01208944          108 
 3337000   0.70839825   -8.6075678    513.47149  0.012822682  0.012084868          121 
 3338000   0.72390013    -8.636131    512.40768  0.012792283  0.012080294          113 
 3339000   0.71711755   -8.5958072    510.56806  0.012742539  0.012075719          110 
 3340000    0.7346126   -8.6307128    512.11388  0.012777292  0.012071153          115 
 3341000   0.71575028   -8.5801939    512.44269   0.01278167  0.012066588          127 
 3342000   0.70213154   -8.6180501    512.69446  0.012784123  0.012062029          115 
 3343000   0.70960294   -8.6094266    511.82373  0.012758593  0.012057456          108 
 3344000   0.71803708   -8.6031333    511.79685  0.012754108  0.012052891          103 
 3345000   0.72033593   -8.5864359    512.05369  0.012756694  0.012048328          120 
 3346000    0.7130745    -8.627087    512.78774  0.012771163  0.012043763          137 
 3347000   0.69988962    -8.644135    512.38033  0.012757204  0.012039202          171 
 3348000   0.72641549   -8.6398673    512.18889  0.012748628  0.012034628          150 
 3349000   0.69727605   -8.5924535    512.06683  0.012741784  0.012030065          129 
 3350000   0.71493607   -8.6347795    511.84043  0.012732349    0.0120255          127 
 3351000   0.71984974   -8.6292301    511.36259  0.012716666   0.01202093          125 
 3352000   0.71237766    -8.610563    512.01797  0.012729166  0.012016382          128 
 3353000   0.70283041   -8.6241028    512.80707  0.012744981   0.01201183          137 
 3354000   0.71800488   -8.6305051    511.78271   0.01271573  0.012007275          176 
 3355000   0.70377813   -8.6081455    511.85184  0.012713657  0.012002725          142 
 3356000   0.71397604   -8.6107325    511.68576  0.012705745  0.011998193          124 
 3357000   0.71517399    -8.625696    512.55385  0.012723509  0.011993646          141 
 3358000   0.71994697   -8.6247409    512.56032  0.012719881  0.011989103          145 
 3359000   0.71675542   -8.6423662    511.62358  0.012692855  0.011984567          153 
 3360000   0.71777227    -8.621496    512.21091  0.012703644  0.011980025          155 
 3361000   0.72887115   -8.6602261    511.73406  0.012688041  0.011975482          156 
 3362000   0.71528799   -8.6246636    513.70217   0.01273305  0.011970947          149 
 3363000   0.71402683   -8.6294711    512.14952   0.01269079   0.01196642          152 
 3364000   0.72003486   -8.6436087    512.95257  0.012706911  0.011961888          168 
 3365000   0.72077838   -8.6067743    512.49096  0.012691703   0.01195736          158 
 3366000   0.71572595   -8.6150915    511.39787   0.01266087   0.01195284          212 
 3367000   0.71425078   -8.6390108    513.30098  0.012704212   0.01194831          164 
 3368000   0.72195229   -8.6507709    512.23218  0.012673995  0.011943783          147 
 3369000   0.72948152   -8.6540295    512.07167  0.012666263  0.011939266          167 
 3370000   0.71202914   -8.6400237    512.56552  0.012674716  0.011934742          166 
 3371000   0.70261147   -8.6290555    512.69719  0.012674211  0.011930221          165 
 3372000   0.70176745   -8.6141991    512.86111  0.012674503  0.011925708          150 
 3373000   0.72054827   -8.6580343    512.02129  0.012649997  0.011921186          178 
 3374000   0.71743867   -8.6357304    511.86523  0.012642393  0.011916663          164 
 3375000   0.71049812   -8.6555201    511.51929  0.012630106  0.011912134          242 
 3376000   0.70982131   -8.6339181    512.44487  0.012649212  0.011907604          167 
 3377000   0.72253017   -8.6392548    511.59783  0.012624564  0.011903069          168 
 3378000     0.713002   -8.6808724    511.31198  0.012613775  0.011898544          183 
 3379000   0.69948882   -8.6311596    511.27727  0.012609186  0.011894015          165 
 3380000    0.7000651   -8.6751799    510.78532  0.012593326  0.011889492          168 
 3381000   0.71744303   -8.6633772    512.26198  0.012625998  0.011884964          179 
 3382000   0.72462583   -8.6732734    511.38125  0.012600563   0.01188044          184 
 3383000   0.71296257   -8.6495714    511.92795  0.012610305  0.011875923          219 
 3384000   0.70557377   -8.6350903    511.42998  0.012594316  0.011871405          174 
 3385000   0.72245144   -8.6372775    512.64721  0.012620562  0.011866888          164 
 3386000   0.72521828   -8.6367613    512.27827  0.012607754   0.01186237          173 
 3387000   0.70891865   -8.6691515    512.14179  0.012600674  0.011857853          222 
 3388000   0.70599642   -8.6500406    511.89322  0.012590841   0.01185334          212 
 3389000   0.70576843   -8.6715598    512.86187  0.012610944  0.011848835          159 
 3390000   0.69002686   -8.6625529    511.21165  0.012566658  0.011844321          220 
 3391000   0.70117335   -8.6188674    512.79389  0.012601836  0.011839805          194 
 3392000   0.71652097   -8.6583857    510.47752  0.012541213  0.011835299          174 
 3393000   0.70922381    -8.646907    511.69401  0.012567394  0.011830798          183 
 3394000   0.72653732   -8.6700391    511.16261  0.012550644  0.011826304          183 
 3395000    0.7017854   -8.6513443    510.97468  0.012542334  0.011821803          178 
 3396000   0.71850497   -8.6649898    511.62215  0.012554528  0.011817287          183 
 3397000   0.70717039   -8.6384121    511.40058  0.012545397  0.011812786          185 
 3398000   0.70796482   -8.6335756    512.06904  0.012558099  0.011808293          196 
 3399000   0.71828681   -8.6261052    511.31055  0.012535808  0.011803803          196 
 3400000   0.71577275   -8.6666275    512.42235  0.012559371    0.0117993          222 
 3401000   0.72087885   -8.6447623    511.90487  0.012542999  0.011794794          228 
 3402000   0.70471238   -8.6394073    511.69829  0.012534252  0.011790302          180 
 3403000   0.71071624   -8.6329482    511.90009   0.01253551   0.01178581          217 
 3404000   0.70878227   -8.6421697    511.17154  0.012513992  0.011781328          179 
 3405000    0.7013304   -8.6453466    511.73254  0.012524046   0.01177684          227 
 3406000   0.71851981   -8.6083897    512.35447  0.012535586  0.011772365          231 
 3407000   0.71320613   -8.6394475     511.1076  0.012501409  0.011767883          229 
 3408000   0.70622327   -8.6603565    511.17133  0.012499299  0.011763401          198 
 3409000   0.70849059   -8.6758921    510.85454  0.012487888  0.011758922          238 
 3410000   0.71967471   -8.6621342    511.50247   0.01250006  0.011754446          193 
 3411000   0.70132639   -8.6594611    511.65787  0.012500192  0.011749978          239 
 3412000   0.69629419   -8.6371526    511.92631  0.012503085  0.011745512          199 
 3413000   0.70129167   -8.6105932    511.39331  0.012486408  0.011741051          209 
 3414000   0.71454187   -8.6372175     510.8859  0.012470365  0.011736594          189 
 3415000   0.71229468   -8.6477003     511.3263   0.01247746  0.011732134          193 
 3416000   0.68856729   -8.6458922    511.80057  0.012485377  0.011727679          191 
 3417000   0.70391011   -8.6308137    512.19558  0.012491356  0.011723222          200 
 3418000   0.70578833   -8.6413079    513.32767  0.012515303   0.01171877          196 
 3419000   0.71726377   -8.6254243    512.97199  0.012502973  0.011714318          207 
 3420000   0.68983535   -8.6699098    512.58472  0.012489881  0.011709865          278 
 3421000    0.7100736   -8.6522586    511.93948  0.012470513  0.011705407          264 
 3422000   0.71204479   -8.6773067    512.19194  0.012473016  0.011700948          210 
 3423000   0.70579751   -8.6617107    511.16586  0.012444392  0.011696481          235 
 3424000   0.69627036   -8.6739406    510.70431  0.012429525  0.011692018          201 
 3425000   0.70058275   -8.6702102    510.40365   0.01241858  0.011687565          203 
 3426000   0.71202067   -8.6892259    511.44023  0.012440169  0.011683111          266 
 3427000   0.71685554   -8.6976559     511.3828  0.012435143  0.011678656          257 
 3428000   0.69474484   -8.6848434    510.77716  0.012416792   0.01167419          275 
 3429000   0.68971204   -8.6624095    512.61227  0.012457769  0.011669734          233 
 3430000   0.69566575   -8.6715997    511.02875  0.012415664  0.011665283          242 
 3431000   0.69894708    -8.706643    512.50774  0.012447968  0.011660829          261 
 3432000   0.71293361   -8.6595475    511.16712  0.012411789  0.011656371          277 
 3433000   0.71019166   -8.6496223    511.38495  0.012413461  0.011651919          223 
 3434000   0.70722708   -8.6751824    511.44612  0.012411331  0.011647481          226 
 3435000   0.69715169   -8.6694007    511.84282  0.012417342  0.011643039          241 
 3436000   0.70568622   -8.6795272     512.4072  0.012427416  0.011638604          235 
 3437000   0.67511765   -8.6637964    511.38746  0.012399075  0.011634172          278 
 3438000   0.69862666   -8.6728017      511.045  0.012387168   0.01162974          239 
 3439000   0.69980645   -8.6866874    510.37575  0.012367349  0.011625301          255 
 3440000   0.70872511   -8.6790252    511.35508  0.012387478  0.011620871          315 
 3441000   0.69291669   -8.6676463    511.96476  0.012398643  0.011616458          263 
 3442000   0.69537871   -8.6875413     510.7887  0.012366567  0.011612022          278 
 3443000   0.69485416   -8.6821619    510.52724  0.012356647  0.011607592          262 
 3444000   0.70892068   -8.6875331     510.2171  0.012345555  0.011603162          263 
 3445000   0.68932202   -8.6826777    510.84784  0.012357229   0.01159873          262 
 3446000   0.68638263   -8.6745315    511.38738   0.01236669  0.011594309          266 
 3447000   0.69761821   -8.6996154    510.19999  0.012334397  0.011589883          255 
 3448000   0.67680427   -8.6576936    511.74316  0.012368116  0.011585467          317 
 3449000   0.68993629   -8.6823343    511.50249  0.012358715  0.011581051          288 
 3450000   0.70359205   -8.6888607    511.54778  0.012356227  0.011576633          272 
 3451000    0.7011782   -8.6687044    511.66771  0.012355542  0.011572215          294 
 3452000   0.69598065   -8.7121163    510.52768  0.012324442  0.011567792          280 
 3453000   0.70881893   -8.6968433    510.35216  0.012316637  0.011563367          295 
 3454000   0.69248645   -8.6893717    510.36292   0.01231333  0.011558952          341 
 3455000   0.69656939    -8.675125    511.05339   0.01232642  0.011554536          302 
 3456000   0.69991659   -8.6934988    510.60785  0.012312111  0.011550121          316 
 3457000   0.70248447   -8.7114919    510.66281  0.012309874  0.011545709          350 
 3458000   0.69577645   -8.6760942    512.52711  0.012351241  0.011541306          316 
 3459000   0.71313405   -8.6957441     511.4969  0.012322851  0.011536904          314 
 3460000   0.69381972   -8.6931496    510.64168  0.012298692  0.011532505          339 
 3461000   0.69601429   -8.7151943    510.24781  0.012285655  0.011528105          321 
 3462000   0.70049195   -8.7026109    510.91354  0.012298131  0.011523707          347 
 3463000   0.69983909   -8.7054227    510.94163  0.012295255  0.011519301          374 
 3464000   0.69520174   -8.7007377     510.4354  0.012279528  0.011514896          355 
 3465000   0.69149538   -8.6921313    511.55951  0.012303018  0.011510499          325 
 3466000    0.7098833   -8.7117124    510.52514  0.012274599  0.011506104          337 
 3467000   0.68771203    -8.698714     510.7287  0.012275952  0.011501701          320 
 3468000    0.7013291   -8.6908168     511.5139   0.01229128  0.011497307          324 
 3469000   0.69323841   -8.7062698    510.76049  0.012269638  0.011492907          323 
 3470000   0.67419544   -8.6956131    510.57032  0.012261535  0.011488503          320 
 3471000   0.70448889   -8.6926821    510.64484  0.012259792  0.011484112          338 
 3472000   0.69960034   -8.6962716    511.03852  0.012265709  0.011479732          332 
 3473000   0.69198118   -8.6995619    511.04893  0.012262428  0.011475349          311 
 3474000   0.69680053   -8.7189847    510.22466  0.012239125  0.011470967          336 
 3475000   0.67949627   -8.7218988    510.25453   0.01223632  0.011466584          335 
 3476000   0.68807279   -8.6719676    511.47464   0.01226205  0.011462198          353 
 3477000   0.71216236   -8.6914184    510.95076  0.012245968  0.011457821          350 
 3478000   0.70065518   -8.6933071    511.25101  0.012249641  0.011453449          349 
 3479000   0.69762971   -8.7274343    511.38803  0.012249402  0.011449071          356 
 3480000   0.68509671   -8.6798092    511.54014  0.012249524  0.011444696          321 
 3481000   0.69480045    -8.682633    511.11297  0.012235779  0.011440321          350 
 3482000   0.70873077   -8.7026335     511.0984  0.012231917  0.011435944          308 
 3483000   0.70182867   -8.7251078    510.54301  0.012215117  0.011431567          359 
 3484000   0.69548263   -8.6949162     509.9175  0.012196649  0.011427186          356 
 3485000   0.67955082   -8.7102368    511.30908  0.012226425  0.011422817          344 
 3486000   0.67583099   -8.7298356    510.84236   0.01221176  0.011418451          374 
 3487000   0.68827924   -8.7149009    510.23289  0.012193693  0.011414086          327 
 3488000   0.68826137   -8.7084755    510.51494  0.012196936  0.011409716          378 
 3489000    0.7031303   -8.7018626    511.53101  0.012217708  0.011405352          356 
 3490000   0.70488705   -8.7179533    511.08317  0.012203514  0.011400988          385 
 3491000   0.69425851   -8.7057181    511.00355  0.012198118  0.011396639          360 
 3492000   0.68143969   -8.6979525    510.39562  0.012180117  0.011392278          356 
 3493000   0.68345864   -8.7047697    511.42581  0.012201207  0.011387926          388 
 3494000   0.68452192   -8.7010369    510.74061  0.012181373  0.011383578          337 
 3495000   0.70061669   -8.6930508    510.75689  0.012178276  0.011379236          335 
 3496000   0.68383116   -8.7034945     511.3775  0.012189586  0.011374889          342 
 3497000   0.69683676   -8.7096313    510.87379  0.012174097  0.011370542          316 
 3498000   0.69651585   -8.6977114    511.48524  0.012185183  0.011366199          332 
 3499000   0.69400032   -8.7359616    511.55509  0.012183364  0.011361851          343 
 3500000   0.67449351   -8.7531191    510.83514  0.012162741  0.011357506          336 
 3501000   0.68734084   -8.6995078    511.40867  0.012172919  0.011353169          360 
 3502000   0.68364202   -8.7253535    511.35876  0.012168255  0.011348835          402 
 3503000   0.68388599    -8.717282     510.7971   0.01215142  0.011344497          374 
 3504000   0.69185691   -8.7434856    511.16517  0.012156706  0.011340165          359 
 3505000   0.68571979   -8.7132729    510.96265  0.012148422  0.011335842          362 
 3506000   0.68098861     -8.70287    510.74958  0.012139893  0.011331517          356 
 3507000   0.68997983   -8.7061231    511.49102  0.012154049  0.011327198          384 
 3508000   0.68718819   -8.6905751    511.74595  0.012156641  0.011322883          340 
 3509000   0.68389768   -8.6938347    510.91507  0.012133444  0.011318565          390 
 3510000   0.69246503    -8.748927    509.99267  0.012108088  0.011314238          391 
 3511000   0.69311411   -8.7320758    510.25399  0.012110842  0.011309913          389 
 3512000   0.67943879   -8.7380451    511.26456  0.012131372   0.01130559          406 
 3513000   0.70675488   -8.6945555    511.09354  0.012123862  0.011301272          367 
 3514000   0.69179986   -8.7331848    510.74473   0.01211214  0.011296956          389 
 3515000   0.68656677   -8.7038752    509.21119  0.012072337  0.011292634          393 
 3516000   0.68143067   -8.7296127    509.63785  0.012079016  0.011288321          361 
 3517000    0.6995812   -8.7301682    510.90238  0.012105544  0.011284005          360 
 3518000   0.67667701   -8.7301794    509.24173  0.012062766  0.011279691          382 
 3519000   0.70094392   -8.7230963    510.77988  0.012095763  0.011275376          374 
 3520000   0.67717995   -8.7175044    510.93781  0.012096066   0.01127107          388 
 3521000   0.69019555   -8.7336839    510.84686  0.012090478  0.011266763          414 
 3522000   0.69983346   -8.7227533     510.7081  0.012083762  0.011262456          398 
 3523000   0.69313633   -8.7462306     510.4278  0.012073701   0.01125814          378 
 3524000   0.68767081   -8.7146859    510.55935  0.012073386  0.011253832          449 
 3525000   0.71215586    -8.736487    510.51963  0.012069022  0.011249531          398 
 3526000   0.68473643   -8.7108966     509.6429  0.012044879  0.011245229          405 
 3527000   0.68228015   -8.7179122    511.07071  0.012075199  0.011240929          429 
 3528000   0.68343988   -8.7406197    511.27589  0.012076622  0.011236627          409 
 3529000   0.69442322   -8.7448095    510.25183  0.012049018  0.011232326          392 
 3530000   0.68324066   -8.7481466    510.71192  0.012056467  0.011228026          423 
 3531000   0.68523932   -8.7477946    509.72768  0.012029823  0.011223728          426 
 3532000   0.67738083   -8.7093173    510.40049  0.012042292  0.011219429          421 
 3533000   0.68356916   -8.7401834    509.70178  0.012022403  0.011215135          396 
 3534000   0.68195965   -8.7798373    510.48139  0.012037384  0.011210846          400 
 3535000    0.6958898   -8.7351733    510.94349  0.012044872  0.011206557          413 
 3536000   0.69214082    -8.751829    510.51223  0.012031303  0.011202277          418 
 3537000   0.69969629   -8.7675411     510.6336   0.01203076  0.011198001          387 
 3538000   0.69223698   -8.7077425    510.76748  0.012030513  0.011193717          422 
 3539000   0.68051837   -8.7413153    510.04379  0.012010073  0.011189436          421 
 3540000   0.67258309   -8.7501868    509.97555  0.012005074  0.011185148          394 
 3541000    0.6769323   -8.7463504    510.56708  0.012015605  0.011180866          392 
 3542000   0.68189014    -8.714598    510.96634  0.012021606  0.011176588          410 
 3543000   0.68818272   -8.7283845    510.96179  0.012018106  0.011172308          389 
 3544000   0.67265292   -8.7476458    510.90042  0.012013272  0.011168033          418 
 3545000   0.68718202    -8.726693    510.96334  0.012011362  0.011163758          441 
 3546000   0.69157236   -8.7227057    510.43759  0.011995619  0.011159484          405 
 3547000   0.69826601   -8.7378398    509.72377  0.011975467  0.011155223          435 
 3548000   0.66904479   -8.7175685    510.66931    0.0119943  0.011150961          452 
 3549000   0.67191616   -8.7297038    510.18213  0.011979481  0.011146704          422 
 3550000   0.69253895   -8.7495936    510.36358  0.011980366  0.011142448          426 
 3551000   0.68223238   -8.7400099     510.6471  0.011983645  0.011138191          418 
 3552000   0.66890888   -8.7305533    509.80115  0.011960425   0.01113393          420 
 3553000   0.69681262   -8.7492381    510.09334  0.011963912  0.011129668          439 
 3554000     0.673603   -8.7380305     509.8645   0.01195518  0.011125426          431 
 3555000   0.68290915   -8.7323535    510.79294   0.01197358  0.011121172          426 
 3556000   0.67192772   -8.7282317    511.22806   0.01198041  0.011116918          432 
 3557000   0.67451856   -8.7477677    510.00393  0.011948363  0.011112666          446 
 3558000   0.68444898   -8.7815947    510.46892  0.011955896  0.011108408          443 
 3559000   0.70087536     -8.76226    510.24129  0.011947206   0.01110415          439 
 3560000   0.68706226   -8.7518835    510.06712  0.011939773  0.011099895          457 
 3561000   0.67744335   -8.7415935     510.0093  0.011935067  0.011095647          434 
 3562000   0.68417816   -8.7660926    510.45004  0.011942028  0.011091398          443 
 3563000   0.68050656   -8.7731999    510.08526  0.011930145   0.01108714          467 
 3564000   0.67696145   -8.7550984    509.92188  0.011922977  0.011082889          457 
 3565000    0.6776456    -8.752048    509.22185  0.011903269  0.011078641          474 
 3566000   0.68710002   -8.7926137    509.45751  0.011905438  0.011074399          471 
 3567000   0.68553012   -8.7704899    509.40385  0.011900847  0.011070152          473 
 3568000   0.67323267    -8.778417    510.29215  0.011918258  0.011065902          463 
 3569000   0.67622654   -8.7572112    509.91059   0.01190601  0.011061651          453 
 3570000   0.67893269   -8.7529065    510.31249  0.011912056  0.011057405          479 
 3571000   0.68163948   -8.7796981    509.76527   0.01189595  0.011053163          474 
 3572000   0.66531311   -8.7445197    510.16311  0.011901902  0.011048922          471 
 3573000   0.68331624   -8.7504208    509.88294  0.011892036   0.01104469          491 
 3574000   0.68687677   -8.7562626    509.47405  0.011879175  0.011040453          460 
 3575000   0.68030653   -8.7833471    509.90203  0.011885828  0.011036222          471 
 3576000   0.69752437   -8.7743708    509.25541  0.011867436   0.01103199          468 
 3577000   0.68658143    -8.778475    509.91303  0.011879439  0.011027757          510 
 3578000   0.68865387   -8.7668525    510.09484  0.011880353  0.011023526          478 
 3579000   0.67055985   -8.7876693    510.23481  0.011880293  0.011019297          485 
 3580000    0.6707847   -8.8079191    509.53703  0.011860732  0.011015067          515 
 3581000   0.66043171   -8.7783081    510.21049  0.011873092  0.011010839          510 
 3582000   0.67301184   -8.7730525    510.07231  0.011866562  0.011006617          476 
 3583000   0.67530348   -8.7802341    510.20015  0.011866224  0.011002401          496 
 3584000   0.68571832   -8.7683853    509.50329   0.01184671  0.010998184          491 
 3585000    0.6606121   -8.7501788    510.15691  0.011858599  0.010993968          497 
 3586000   0.69899528   -8.7600501    509.86112  0.011848418  0.010989753          530 
 3587000   0.69126851   -8.7531088    509.77296  0.011843067  0.010985544          549 
 3588000   0.66906327   -8.7699308    509.54839   0.01183455  0.010981326          513 
 3589000   0.67370905   -8.7647165    510.50629  0.011853494  0.010977104          606 
 3590000   0.67628069   -8.7447375    509.85707  0.011835122  0.010972891          550 
 3591000   0.67476622   -8.7663716    509.57427  0.011825264  0.010968684          544 
 3592000   0.67054306   -8.7821971    508.73558  0.011802514  0.010964483          534 
 3593000   0.68220829   -8.7735396    510.08775  0.011830591  0.010960281          546 
 3594000   0.66093005   -8.7734162     509.4918  0.011813481  0.010956086          669 
 3595000   0.68907137   -8.7413415     510.1768  0.011826073  0.010951886          540 
 3596000   0.66682584    -8.789078    509.93058  0.011817079  0.010947688          556 
 3597000   0.68604444   -8.7798856    509.33211  0.011799928  0.010943488          511 
 3598000   0.67975441   -8.7748686    508.95376  0.011787886  0.010939288          531 
 3599000   0.68324932   -8.7964815    509.29326  0.011792471  0.010935097          579 
 3600000   0.67704462   -8.7861714    509.92569  0.011803836  0.010930899          591 
 3601000    0.6703186   -8.8016992    510.01364  0.011802593  0.010926704          585 
 3602000    0.6742258   -8.8045629    509.35147  0.011783997  0.010922506          574 
 3603000   0.66504991   -8.8025658    509.70521  0.011788908  0.010918315          577 
 3604000   0.68700921    -8.786359    509.36709  0.011777818  0.010914123          579 
 3605000   0.66797101   -8.7570443    509.14777  0.011769482  0.010909935          601 
 3606000   0.67984437   -8.7781119    509.04296  0.011763796  0.010905748          617 
 3607000   0.67185457   -8.8077571    509.22636  0.011764771  0.010901559          605 
 3608000   0.68512982   -8.8012823    508.87933  0.011753495   0.01089737          626 
 3609000   0.67798941   -8.7905593    509.30803  0.011760137  0.010893186          630 
 3610000   0.66472327   -8.8141748    509.53755  0.011762178  0.010888999          609 
 3611000   0.65600958   -8.7880794    509.08381  0.011748449  0.010884811          602 
 3612000     0.672381     -8.78857    508.92918  0.011741629   0.01088062          622 
 3613000   0.67330711   -8.8028798    509.62699  0.011754474  0.010876433          651 
 3614000   0.66951084   -8.8071902    508.85152  0.011733341  0.010872245          630 
 3615000    0.6702222   -8.8184897    509.39386  0.011742597  0.010868054          638 
 3616000   0.66222935   -8.8035854    509.58263    0.0117437  0.010863871          618 
 3617000   0.65895488    -8.791396    508.41039  0.011713446  0.010859694          617 
 3618000   0.67893166   -8.7969513    509.32439   0.01173126  0.010855524          723 
 3619000    0.6651039   -8.8161429    509.76794  0.011738232  0.010851349          636 
 3620000   0.67183309   -8.8144502    510.11631  0.011743009  0.010847181          730 
 3621000   0.66799197   -8.8119629    509.08766  0.011716093  0.010843001          660 
 3622000   0.66076879   -8.8245133    509.77861  0.011728755  0.010838835          656 
 3623000   0.68546037   -8.8226928    510.11967  0.011733363  0.010834665          738 
 3624000   0.67486905   -8.7969734    508.79172  0.011699589  0.010830493          746 
 3625000   0.67693411   -8.8061462     509.3358  0.011708869  0.010826329          740 
 3626000   0.67952644   -8.7953758    509.48845  0.011709148  0.010822157          669 
 3627000   0.68207805   -8.8252851    509.07493  0.011696419  0.010817984          762 
 3628000   0.66486435   -8.8093727    508.94137  0.011690127  0.010813816          733 
 3629000   0.67891218   -8.8035769    508.88061   0.01168551   0.01080965          784 
 3630000   0.65846329   -8.8195932    509.60027  0.011698812   0.01080549          750 
 3631000   0.67705267   -8.8094181    509.08096  0.011683672  0.010801334          776 
 3632000   0.67249045    -8.809249    508.76028  0.011673098  0.010797173          804 
 3633000   0.67749521   -8.8106142    509.00998  0.011675612   0.01079302          768 
 3634000   0.66493284   -8.8166247     509.8829  0.011692417  0.010788861          775 
 3635000   0.68158928   -8.8078869     509.4976  0.011680367  0.010784705          786 
 3636000   0.66845394   -8.8135217    509.22216  0.011670841  0.010780552          745 
 3637000   0.65403534   -8.8388043    508.46593  0.011650305  0.010776385          799 
 3638000   0.66619272   -8.8174678    509.11107  0.011661881  0.010772225          808 
 3639000   0.66851725   -8.8328667    508.35494  0.011641361  0.010768061          733 
 3640000   0.67393676   -8.8436947    508.25025  0.011635766  0.010763899          807 
 3641000   0.67254227    -8.839679    507.62821  0.011618333  0.010759741          815 
 3642000   0.67314758   -8.8309575    509.25414  0.011652346  0.010755575          766 
 3643000   0.66317428   -8.8316505    509.11229  0.011645903  0.010751414          852 
 3644000   0.65971043   -8.8337001    508.42032  0.011626882  0.010747261          740 
 3645000   0.65937624   -8.8331102    507.78378   0.01160914  0.010743109          847 
 3646000   0.66703197   -8.8348522     508.3168  0.011618139   0.01073896          822 
 3647000    0.6896328    -8.828455    509.58989  0.011644043  0.010734811          852 
 3648000   0.67231665    -8.816053    508.38402  0.011613305  0.010730664          872 
 3649000   0.66021509    -8.842623    508.39675  0.011610413  0.010726514          841 
 3650000   0.66487518   -8.8272475    508.13659  0.011601292  0.010722362          807 
 3651000   0.66536517   -8.8456281    507.90241  0.011592769  0.010718213          845 
 3652000    0.6727864   -8.8484242     507.9602  0.011590914  0.010714068          885 
 3653000   0.68660688   -8.8591633    508.32946  0.011596164  0.010709919          880 
 3654000   0.66019799   -8.8313893    508.87087  0.011605338  0.010705782          848 
 3655000    0.6714856   -8.8118937    508.40701  0.011591587  0.010701644          877 
 3656000   0.65814972    -8.846526    508.53339  0.011591297  0.010697508          894 
 3657000   0.66599502   -8.8639864    508.32121  0.011583292  0.010693377          861 
 3658000   0.66509216   -8.8285792    509.22697   0.01160076  0.010689244          865 
 3659000   0.67772065    -8.848461    508.34144  0.011577422  0.010685107          849 
 3660000   0.65078213   -8.8606076    508.44338   0.01157658  0.010680978          847 
 3661000   0.66421942   -8.8390107    507.22632  0.011545714   0.01067685          842 
 3662000    0.6823813   -8.8389436    508.02913   0.01156083  0.010672721          887 
 3663000   0.67581345   -8.8460867    507.81981  0.011552912  0.010668589          890 
 3664000   0.67676585   -8.8254891    508.43313  0.011563708  0.010664468          906 
 3665000   0.66340623   -8.8392388    507.80566  0.011546286  0.010660338          847 
 3666000   0.65800612   -8.8459801    507.26931  0.011530944  0.010656217          934 
 3667000   0.66308903   -8.8323392    508.67148  0.011559665  0.010652094          891 
 3668000   0.66226452   -8.8385015     507.8725  0.011538361  0.010647982          910 
 3669000   0.66868011      -8.8447    508.74357  0.011555001  0.010643866          885 
 3670000   0.66402266   -8.8416777    508.32219  0.011542284  0.010639752          864 
 3671000   0.66839227   -8.8480955    509.72324  0.011570944  0.010635641          919 
 3672000    0.6533231   -8.8618964    508.23952  0.011534121   0.01063153          935 
 3673000   0.66263968   -8.8442285    508.81924  0.011544134   0.01062743          891 
 3674000   0.64959753   -8.8519691    507.22593  0.011504852  0.010623325          893 
 3675000    0.6610059   -8.8555435    508.12175  0.011522035  0.010619225          873 
 3676000   0.65269451   -8.8572642    508.84954    0.0115354  0.010615124          936 
 3677000   0.65986999   -8.8445349    508.32173    0.0115203  0.010611026          905 
 3678000   0.65897729   -8.8501765    508.39376    0.0115188  0.010606926          907 
 3679000   0.65725286   -8.8506528    507.73172  0.011500673  0.010602828          877 
 3680000   0.66401714   -8.8274277    508.79986  0.011521736  0.010598734          871 
 3681000   0.65783211   -8.8676192     507.1577  0.011481429  0.010594635          913 
 3682000   0.66094465   -8.8734447    507.46045  0.011485163   0.01059054          928 
 3683000   0.65876897   -8.8643826    508.27702  0.011500521  0.010586451          807 
 3684000   0.65660208   -8.8493545    508.30037  0.011497927  0.010582365          923 
 3685000    0.6542453   -8.8492615    508.05483  0.011489254  0.010578283          925 
 3686000   0.68495577   -8.8498527    507.20719  0.011466974  0.010574207          903 
 3687000   0.65828766   -8.8417906    507.52166  0.011470971  0.010570133          920 
 3688000   0.66408992   -8.8461406    508.16961  0.011482502  0.010566059          935 
 3689000   0.65741853   -8.8525452    507.42556  0.011462582  0.010561979          959 
 3690000   0.65849809   -8.8317062     508.7984  0.011490479  0.010557903          943 
 3691000   0.65110673   -8.8695857    507.53188  0.011458771  0.010553827          927 
 3692000   0.65756388   -8.8427019    508.02377   0.01146677  0.010549754          956 
 3693000   0.67015641    -8.876831    507.34296  0.011448302  0.010545683          987 
 3694000   0.66115089    -8.862392    508.36839  0.011468336  0.010541611          881 
 3695000    0.6498289   -8.8449225     507.9522  0.011455846  0.010537544          965 
 3696000   0.67294146   -8.8470382    508.02985  0.011454497  0.010533477          867 
 3697000   0.66177734   -8.8533144    508.26258  0.011456645  0.010529414          923 
 3698000   0.66632544   -8.8604199    508.90185  0.011467952  0.010525356          939 
 3699000   0.64092913   -8.8645875    507.44344  0.011431996  0.010521291          939 
 3700000   0.65998043   -8.8711379    508.00235  0.011441494  0.010517231          970 
 3701000   0.65661962    -8.867791    508.86917  0.011457921  0.010513171          953 
 3702000   0.64522422   -8.8611972     507.5371   0.01142484  0.010509114          998 
 3703000   0.66662027   -8.8469356    508.42389  0.011441711  0.010505062          952 
 3704000   0.64700319    -8.836724    508.04339  0.011430062  0.010501009          947 
 3705000   0.66865174   -8.8496192    507.35536  0.011411502  0.010496963         1013 
 3706000   0.66757942   -8.8675647    507.97557  0.011422368  0.010492911          985 
 3707000   0.67239194   -8.8602836     508.6195  0.011433763  0.010488862          998 
 3708000   0.64224068   -8.8545431    508.08935  0.011418765  0.010484822          966 
 3709000   0.66372779   -8.8550992    507.41885  0.011400621  0.010480782          974 
 3710000   0.65174166   -8.8655725    508.54094  0.011422753  0.010476744          895 
 3711000   0.65135864   -8.8424389    508.64741  0.011422065  0.010472702          954 
 3712000   0.67160742   -8.8853341      508.691  0.011419967  0.010468665          881 
 3713000   0.66392247    -8.860841    507.48611  0.011389849  0.010464639          992 
 3714000   0.66113881   -8.8469501    508.03737  0.011399151  0.010460606          981 
 3715000   0.66387198    -8.871358    507.78749  0.011390478  0.010456573         1017 
 3716000   0.65210409   -8.8376393    508.38657  0.011400847  0.010452541         1011 
 3717000   0.66583569   -8.9040526    507.43414  0.011376427  0.010448506         1019 
 3718000   0.65606596   -8.8854562    507.53366  0.011375598  0.010444464         1026 
 3719000    0.6457187   -8.8795652    506.62126  0.011352094  0.010440435         1013 
 3720000   0.65982519   -8.8821323    507.59531  0.011370863  0.010436405         1041 
 3721000   0.65950493   -8.8872928    507.25641  0.011360217   0.01043237         1059 
 3722000   0.67624656   -8.8876331    507.78731  0.011369051  0.010428344         1037 
 3723000   0.65872982   -8.8692245    507.77144  0.011365642  0.010424326         1037 
 3724000   0.64731477   -8.8800429     507.2095  0.011350016  0.010420297         1035 
 3725000   0.66157609   -8.8845073    507.53065  0.011354153  0.010416271         1048 
 3726000   0.66311773   -8.8885758    507.33307  0.011346687  0.010412245         1055 
 3727000   0.65936407   -8.8832228    506.90952  0.011334172  0.010408219         1079 
 3728000   0.66069222   -8.8646224    507.39632  0.011342013  0.010404187         1050 
 3729000   0.64998508   -8.8884452    507.34201  0.011337758  0.010400157         1070 
 3730000   0.65061424   -8.8987285    506.76899  0.011321917  0.010396122         1094 
 3731000   0.64394071   -8.9078405    507.30693  0.011330897  0.010392094         1091 
 3732000   0.66024797   -8.8747478    507.51056  0.011332408  0.010388063         1076 
 3733000   0.65450996   -8.9241688    506.58645  0.011308743  0.010384038         1042 
 3734000   0.65500554   -8.8822655    507.44635  0.011324905  0.010380011         1068 
 3735000   0.64418649    -8.882957    507.66815  0.011326822  0.010375987         1079 
 3736000   0.65407038   -8.8956205    506.98438  0.011308538  0.010371964         1096 
 3737000   0.66194406   -8.9028258    507.84119  0.011324618  0.010367943         1118 
 3738000   0.66388703   -8.9228384    506.87527  0.011300055  0.010363926         1117 
 3739000   0.66240534   -8.8984282    507.90533   0.01131999   0.01035991         1095 
 3740000   0.64718575   -8.8874084    507.05115  0.011297931  0.010355894         1125 
 3741000   0.65566598   -8.8926273    507.48857  0.011304655   0.01035187         1121 
 3742000    0.6468959   -8.8937914    506.24988  0.011274049  0.010347849         1134 
 3743000   0.64538573   -8.8928938    506.39934  0.011274364  0.010343838         1127 
 3744000    0.6560493   -8.9103586    506.63715  0.011276646  0.010339827         1142 
 3745000   0.65701102   -8.9001828    508.00621  0.011304099   0.01033582         1101 
 3746000   0.66912962   -8.9039633    507.58159  0.011291635  0.010331818         1134 
 3747000   0.66479236   -8.8975161    507.58668  0.011288735  0.010327813         1146 
 3748000    0.6501805   -8.9108978     508.1698  0.011298688  0.010323811         1134 
 3749000   0.65029001    -8.911532    507.20916  0.011274321  0.010319804         1158 
 3750000   0.64466714   -8.9161257    507.03959  0.011267546  0.010315798         1130 
 3751000    0.6458637   -8.9098322    506.13537  0.011244454  0.010311794         1125 
 3752000   0.66238354    -8.896696    506.88418  0.011258089  0.010307793         1107 
 3753000   0.65817357   -8.9006359    507.11373  0.011260186  0.010303798         1170 
 3754000    0.6483255   -8.9288239    507.30877  0.011261516  0.010299805         1122 
 3755000   0.64942967   -8.8924514    506.72358   0.01124553  0.010295812         1184 
 3756000   0.64129235   -8.9158146    506.79688  0.011244162  0.010291813         1179 
 3757000   0.64664104   -8.9002912    506.73413  0.011239778  0.010287817         1160 
 3758000   0.64535337   -8.9067317     506.3562  0.011228406  0.010283827         1190 
 3759000   0.65609273   -8.9078965    506.77327  0.011234665   0.01027983         1166 
 3760000   0.64362816       -8.928    506.22898  0.011219614  0.010275835         1229 
 3761000   0.65080192   -8.9269419    505.74796  0.011205973  0.010271839         1169 
 3762000   0.65402872   -8.9326347    506.12122  0.011211262  0.010267847         1170 
 3763000   0.64847696   -8.9052165    506.86397  0.011224731  0.010263855         1199 
 3764000   0.64247257   -8.9095113     507.1275  0.011227584  0.010259871         1215 
 3765000    0.6389717   -8.9121337    505.98728  0.011199364  0.010255886         1265 
 3766000    0.6446843   -8.9072725    506.77571  0.011213837  0.010251906         1244 
 3767000   0.64749902   -8.9181789     506.5486  0.011205836  0.010247927         1254 
 3768000   0.64082503   -8.9180959    507.05933  0.011214157  0.010243939         1278 
 3769000   0.63905434   -8.9379101    507.20476  0.011214397  0.010239953         1238 
 3770000   0.64387115   -8.9313792    506.40205  0.011193679  0.010235974         1226 
 3771000   0.64540402   -8.9252013    506.38456  0.011190324  0.010231997         1272 
 3772000   0.64729849   -8.9270301    506.56851  0.011191422  0.010228013         1275 
 3773000   0.64922305   -8.9117241    506.34187   0.01118345  0.010224036         1267 
 3774000   0.64094257   -8.9422797     506.2937  0.011179423  0.010220059         1275 
 3775000   0.64422003   -8.9301384    505.89426  0.011167644  0.010216088         1313 
 3776000    0.6590101   -8.9289202    506.85046  0.011185789  0.010212115         1330 
 3777000   0.63246462   -8.9331466    505.61235   0.01115551  0.010208141         1318 
 3778000   0.65505619   -8.9417306    506.50074  0.011172153  0.010204168         1279 
 3779000   0.65153019   -8.9373227    506.23123  0.011163254  0.010200193         1326 
 3780000   0.65162232   -8.9259308    506.12182  0.011157888   0.01019622         1363 
 3781000   0.65430405   -8.9321808    506.09817  0.011154416  0.010192245         1316 
 3782000   0.65172339   -8.9435862    506.09159  0.011151322   0.01018827         1354 
 3783000   0.63913847   -8.9423045    505.74136  0.011140659  0.010184294         1369 
 3784000   0.62849906   -8.9561862     504.8783  0.011118708  0.010180318         1377 
 3785000   0.66208694   -8.9589024    505.77851   0.01113559  0.010176348         1364 
 3786000   0.65014634   -8.9518319      505.683  0.011130547  0.010172378         1397 
 3787000   0.63463722   -8.9492199    505.32378  0.011119703  0.010168407         1485 
 3788000   0.65380232   -8.9357469    506.33356  0.011138982  0.010164432         1443 
 3789000   0.62530664   -8.9686437     506.0961  0.011130819  0.010160464         1501 
 3790000   0.64829581   -8.9596159    505.84872  0.011122443    0.0101565         1464 
 3791000   0.65322787   -8.9511599    506.38127  0.011131216  0.010152536         1447 
 3792000   0.64299996   -8.9521447    506.40991   0.01112891  0.010148578         1387 
 3793000   0.63222357   -8.9535001    506.00222  0.011117019  0.010144625         1446 
 3794000   0.64654999   -8.9514183    504.59094   0.01108309   0.01014067         1455 
 3795000   0.62974167   -8.9694271    506.01581  0.011111458  0.010136717         1489 
 3796000   0.64415035    -8.941108    505.04197  0.011087153  0.010132766         1477 
 3797000   0.64888879   -8.9660573    505.08434  0.011085162  0.010128807         1475 
 3798000   0.65354781   -8.9435341     505.8178  0.011098337  0.010124855         1423 
 3799000   0.64936498   -8.9572132    505.04689  0.011078505    0.0101209         1503 
 3800000   0.65770132   -8.9667374    505.37587  0.011082804  0.010116947         1490 
 3801000   0.64951579   -8.9429245    506.34051  0.011101037  0.010112997         1521 
 3802000    0.6462242   -8.9652995    505.20593  0.011073249  0.010109053         1526 
 3803000    0.6510786   -8.9613185     505.6792  0.011080708  0.010105108         1571 
 3804000   0.65403572   -8.9515754    505.41097  0.011071919  0.010101161         1517 
 3805000   0.64022819   -8.9550156    505.55216  0.011072102  0.010097225         1491 
 3806000   0.64234011   -8.9495653    506.37745  0.011087262  0.010093286         1522 
 3807000   0.65548898   -8.9611803    505.88519  0.011073575  0.010089348         1486 
 3808000   0.65686925   -8.9750783    505.54843  0.011063297  0.010085412         1540 
 3809000   0.62979259   -8.9600951    505.94124  0.011068987  0.010081475         1490 
 3810000   0.64362161   -8.9751315    504.87674  0.011042798  0.010077541         1528 
 3811000   0.64700973   -8.9504167    505.35543  0.011050368  0.010073612         1507 
 3812000   0.64017495   -8.9702498    505.93872   0.01106022  0.010069684         1520 
 3813000    0.6322622    -8.982329    505.94401  0.011057435  0.010065759         1525 
 3814000   0.64191994   -8.9583606    505.47034  0.011044187  0.010061835         1592 
 3815000   0.64151746   -8.9750503    505.87696  0.011050174  0.010057908         1529 
 3816000   0.64143671   -8.9761966    505.14171  0.011031222  0.010053979         1553 
 3817000   0.62398312   -8.9759313    505.49526  0.011036051  0.010050054         1559 
 3818000   0.64962524   -8.9799511    505.32622  0.011029471   0.01004613         1542 
 3819000   0.64820855   -8.9669157    505.40456  0.011028292  0.010042211         1544 
 3820000   0.64417389   -8.9555147    505.12523  0.011019311  0.010038297         1550 
 3821000   0.64192993   -8.9814002    505.26328  0.011019438  0.010034383         1560 
 3822000   0.64097382   -8.9796453    504.55877  0.011001194  0.010030471         1550 
 3823000   0.65305256   -8.9796377     505.3071  0.011014628  0.010026562         1581 
 3824000   0.65301142   -8.9832102    503.90014  0.010981087  0.010022652         1579 
 3825000    0.6348577   -8.9664138    505.53493  0.011013833  0.010018737         1561 
 3826000   0.63768252   -8.9778927    504.07667  0.010979192  0.010014832         1559 
 3827000   0.64765168    -8.975911    506.15626  0.011021606   0.01001093         1606 
 3828000   0.64084687   -8.9932967    504.12177  0.010974438  0.010007023         1612 
 3829000   0.64291083   -8.9804193     505.6924  0.011005754  0.010003118         1552 
 3830000   0.63745509   -8.9709502    506.25232  0.011015064 0.0099992123         1624 
 3831000   0.63894064   -8.9895144    504.90814  0.010982949 0.0099953109         1585 
 3832000   0.65597643   -8.9946658    505.60165  0.010995165 0.0099914048         1640 
 3833000   0.62829222   -8.9971297    505.48066  0.010989666 0.0099875022         1609 
 3834000   0.64564008   -9.0101773    504.01158  0.010954868 0.0099835986         1660 
 3835000   0.62704234   -9.0017213    505.19533  0.010977734  0.009979697         1656 
 3836000   0.65266298   -8.9771108    506.20732  0.010996857 0.0099758066         1655 
 3837000   0.64296588   -9.0003912     505.2355  0.010972885 0.0099719202         1673 
 3838000   0.63218803   -8.9750096    504.96634  0.010964181 0.0099680322         1694 
 3839000   0.63844728   -9.0061895    506.07597  0.010985412 0.0099641488         1695 
 3840000   0.64332548    -8.985461    505.11697   0.01096174 0.0099602659         1653 
 3841000   0.63467065   -8.9973384    504.31091  0.010941398 0.0099563862         1736 
 3842000   0.63960263   -9.0236329    504.78268  0.010948783 0.0099525085         1705 
 3843000   0.65149638   -8.9826698    505.08238  0.010952433 0.0099486339         1666 
 3844000   0.63383944   -9.0258554    505.12189   0.01095044 0.0099447545         1677 
 3845000   0.64490422   -9.0236411    503.97329  0.010922698  0.009940872         1682 
 3846000   0.64066753   -9.0268688     503.9086  0.010918456 0.0099369957         1711 
 3847000   0.62722087   -9.0083945    504.97438  0.010938705 0.0099331199         1712 
 3848000   0.64068199   -9.0222542     504.2995  0.010921247 0.0099292428         1741 
 3849000   0.64194719    -9.011825    504.82762  0.010929844 0.0099253716         1734 
 3850000   0.63581888   -9.0155393    504.08014  0.010910825 0.0099215023         1713 
 3851000   0.62762425    -9.027264    504.93986  0.010926596 0.0099176331         1726 
 3852000   0.63196788   -9.0344053    504.26062  0.010909065 0.0099137572         1723 
 3853000   0.63812052   -9.0452129    504.25895  0.010906198 0.0099098831         1752 
 3854000   0.64439828   -9.0376879     504.9924  0.010919227 0.0099060083         1776 
 3855000    0.6391084   -9.0125848    504.97182  0.010915949  0.009902144         1790 
 3856000   0.63372938   -9.0377093    503.66848  0.010884952 0.0098982773         1790 
 3857000   0.63234094   -9.0495948    504.14664  0.010892461 0.0098944067         1833 
 3858000   0.63793245   -9.0333754    504.03061  0.010887131 0.0098905419         1798 
 3859000   0.63981694   -9.0508635    504.10116  0.010885833  0.009886672         1822 
 3860000   0.63043137   -9.0568699     503.2284  0.010864171 0.0098828078         1802 
 3861000   0.63512009   -9.0255458    504.86183  0.010896612 0.0098789468         1827 
 3862000   0.63573134   -9.0415564    504.42206  0.010884301 0.0098750834         1809 
 3863000   0.63863701    -9.028539    503.88097  0.010869811 0.0098712257         1868 
 3864000   0.63864548    -9.034849    504.71526  0.010884991 0.0098673592         1898 
 3865000   0.64217184   -9.0747974    504.03657  0.010867541 0.0098634943         1886 
 3866000   0.63560818   -9.0262477    503.63973  0.010856176 0.0098596222         1863 
 3867000   0.61553649   -9.0567646    504.70212  0.010876263 0.0098557527         1824 
 3868000    0.6346724    -9.045855    503.90745  0.010856331 0.0098518785         1892 
 3869000   0.62832735   -9.0630643    503.04079  0.010834858 0.0098480039         1833 
 3870000   0.63823413   -9.0590524    504.03619  0.010853492 0.0098441339         1941 
 3871000   0.62780198   -9.0771827    503.93905  0.010848597 0.0098402635         1873 
 3872000   0.62918365    -9.058057    503.56911  0.010837834 0.0098363896         1924 
 3873000   0.62130777   -9.0616359    503.82343  0.010840508 0.0098325207         1928 
 3874000    0.6324222   -9.0800371    503.40094  0.010828621 0.0098286542         1916 
 3875000    0.6287235   -9.0744387    503.72649  0.010832828 0.0098247951         1932 
 3876000   0.63185664   -9.0725018    503.23474   0.01081946 0.0098209346         1917 
 3877000   0.62680868   -9.0736778    504.17354  0.010836849 0.0098170734         1945 
 3878000   0.62312073   -9.0703228    503.24693  0.010814142 0.0098132184         1921 
 3879000    0.6228464   -9.0834091    503.96512  0.010826783 0.0098093625         1965 
 3880000   0.63224538   -9.0701639     502.9373  0.010801918  0.009805509         1963 
 3881000   0.62700322   -9.0799802    502.18611  0.010783005 0.0098016526         1969 
 3882000   0.63138635   -9.0808722    503.23092  0.010802656 0.0097977982         1917 
 3883000    0.6217331   -9.0719141    504.03888  0.010817214 0.0097939448         1971 
 3884000   0.62087591   -9.0702833    503.74523  0.010808128 0.0097900922         1984 
 3885000   0.62535361   -9.0683133    503.26407  0.010795025 0.0097862436         1971 
 3886000   0.63697261   -9.0943835     502.8851   0.01078412 0.0097823947         1966 
 3887000   0.62143929   -9.0655707    502.93848   0.01078249  0.009778549         1953 
 3888000   0.63674953   -9.0779343    503.15305  0.010784316 0.0097747053         1995 
 3889000   0.62442021   -9.0752253    503.74217  0.010794167 0.0097708615         1962 
 3890000   0.62446854   -9.0708218    503.89321  0.010794627 0.0097670203         1946 
 3891000   0.62314038   -9.0799116    503.84435  0.010790807 0.0097631762         2002 
 3892000   0.64097889   -9.0723278    502.89999  0.010767814 0.0097593351         1991 
 3893000   0.62772374   -9.0748363     503.4315  0.010776426 0.0097554967         1959 
 3894000   0.64022209   -9.0713546     503.2407  0.010769575 0.0097516651         1989 
 3895000   0.63705106   -9.0906206    503.71969  0.010777058 0.0097478315         2038 
 3896000   0.61721607   -9.0868127    503.67873  0.010773416 0.0097439994         2012 
 3897000   0.62482427   -9.1096196    502.32186  0.010741636 0.0097401635         2054 
 3898000   0.63072847   -9.0912977     502.5115  0.010742934 0.0097363288         2081 
 3899000   0.63382909   -9.0936439    503.74039  0.010766444 0.0097324951         1979 
 3900000   0.61892333    -9.100172    503.21263  0.010752407 0.0097286661         2053 
 3901000   0.63563711   -9.1038371    502.79492  0.010740727 0.0097248352         2023 
 3902000   0.62241078   -9.0947534    503.06981  0.010743845 0.0097210052         2026 
 3903000   0.61894818   -9.1007658    503.32757  0.010746596  0.009717177         2012 
 3904000   0.63244874   -9.1060335    502.36331  0.010723261 0.0097133427         2042 
 3905000   0.63006807   -9.0995393    502.75313  0.010728833 0.0097095158         2056 
 3906000   0.61349934   -9.0845146    502.47443  0.010720141 0.0097056918         2057 
 3907000   0.63189163   -9.1140241    502.41788  0.010716191   0.00970187         2055 
 3908000   0.63384276   -9.1171494     501.9917  0.010704361 0.0096980473         2083 
 3909000   0.64012939    -9.094821    502.38451  0.010709996 0.0096942216         2054 
 3910000   0.62886037   -9.1117723    502.42302  0.010708078 0.0096903959         2032 
 3911000   0.63161395   -9.1104885    503.14653  0.010720756 0.0096865784         2058 
 3912000    0.6159593   -9.0926404    502.82732  0.010711216 0.0096827637         2045 
 3913000   0.63085454    -9.121509    503.13649  0.010715063   0.00967895         2101 
 3914000   0.62953197   -9.1171645     502.9415  0.010708174 0.0096751372         2052 
 3915000   0.63140096   -9.1016565    502.14637  0.010688514 0.0096713277         2064 
 3916000   0.63303122   -9.1051262    502.94844  0.010702852 0.0096675176         2076 
 3917000   0.62814278   -9.1034142    503.36958   0.01070908 0.0096637126         2031 
 3918000   0.62461272   -9.1156982     502.9162  0.010696703 0.0096599028         2074 
 3919000   0.61930595   -9.0912293    503.14332  0.010698803 0.0096560977         2075 
 3920000   0.62917761   -9.0836989    502.81723  0.010689142 0.0096522969         2069 
 3921000    0.6147113   -9.1088776    502.92231  0.010688649 0.0096485014         2119 
 3922000   0.62406751   -9.0975053    502.35393  0.010673847 0.0096447025         2117 
 3923000   0.61946798   -9.0991441    502.73928  0.010679312 0.0096409069         2114 
 3924000   0.61082436   -9.1008696    502.48571  0.010671205 0.0096371128         2146 
 3925000   0.60860406   -9.1207283    503.19917  0.010683634 0.0096333202         2147 
 3926000   0.61708547   -9.0990928    502.99978  0.010676681   0.00962953         2152 
 3927000    0.6272326   -9.1187197    502.00332  0.010652816 0.0096257343         2119 
 3928000   0.63121728   -9.1013234    502.60424  0.010662853 0.0096219413         2128 
 3929000   0.63518487   -9.1264756    502.55605  0.010659117 0.0096181509         2109 
 3930000   0.62820753   -9.1224809    502.47393  0.010654664 0.0096143598         2136 
 3931000   0.63546264   -9.1181844    501.64444  0.010634369 0.0096105669         2094 
 3932000   0.61032416   -9.1278726    502.19092  0.010643246 0.0096067754         2130 
 3933000   0.62225953   -9.1149927    501.55717  0.010627112  0.009602987         2166 
 3934000   0.62141302   -9.1118643    502.46853  0.010643716 0.0095992016         2126 
 3935000   0.62091686   -9.1268725    501.27421  0.010615718 0.0095954144         2165 
 3936000   0.62981674   -9.1297083    502.43899  0.010637682 0.0095916309         2153 
 3937000   0.62379895   -9.1107614    502.41168  0.010634402 0.0095878476         2190 
 3938000   0.62519476   -9.0898871    502.16703  0.010626524 0.0095840713         2163 
 3939000   0.63044798   -9.1140231    502.53475  0.010631606  0.009580294         2120 
 3940000   0.63766589   -9.1341951    502.29157  0.010623764 0.0095765148         2178 
 3941000   0.60010375   -9.1059701    502.18418  0.010618798 0.0095727346         2170 
 3942000   0.62849323   -9.1307699    502.21698  0.010616797 0.0095689601         2165 
 3943000   0.62604227   -9.1135132    503.22497  0.010635408 0.0095651844         2169 
 3944000    0.6177639   -9.1330766    501.63228  0.010599059 0.0095614109         2150 
 3945000   0.61067621   -9.1489334    502.28869  0.010610239 0.0095576379         2136 
 3946000   0.61856692   -9.1336056    501.78294  0.010596869 0.0095538686         2193 
 3947000   0.61542141   -9.1375417     501.9242  0.010597167 0.0095501009         2155 
 3948000   0.61234615   -9.1238507    502.51293  0.010606909 0.0095463333         2192 
 3949000   0.63032615   -9.1219001    501.98593  0.010593102 0.0095425688         2198 
 3950000   0.61238595   -9.1234469    502.34916  0.010598084 0.0095388106         2158 
 3951000   0.62325733   -9.1550256    501.33288  0.010573966 0.0095350473         2204 
 3952000   0.62700982   -9.1392326     502.2148  0.010589887 0.0095312866         2191 
 3953000   0.63593082   -9.1408058    501.90775  0.010580735 0.0095275293         2145 
 3954000   0.62381015   -9.1209286    501.89754  0.010577844 0.0095237746         2177 
 3955000   0.60654921   -9.1497593    502.61281   0.01059024 0.0095200165         2179 
 3956000   0.62240778   -9.1445082    501.51879  0.010564518 0.0095162631         2164 
 3957000   0.63328228   -9.1460507    502.24489   0.01057714 0.0095125128         2209 
 3958000   0.61298492   -9.1214737    502.02311  0.010569798 0.0095087624         2168 
 3959000   0.62458022   -9.1365195    501.75056  0.010561391 0.0095050111         2201 
 3960000   0.61595015   -9.1410183      502.249  0.010569213 0.0095012695         2214 
 3961000   0.61787704   -9.1293751    501.39898  0.010548661 0.0094975288         2173 
 3962000   0.62014131   -9.1329357    501.80449  0.010554528 0.0094937891         2178 
 3963000   0.61727759   -9.1383688    501.66423  0.010548916 0.0094900447         2162 
 3964000    0.6256861   -9.1470746     501.9152   0.01055153 0.0094863093         2195 
 3965000   0.60601983   -9.1487354    501.91415  0.010548847 0.0094825747         2174 
 3966000   0.62462898   -9.1402422    501.99898   0.01054797 0.0094788384         2195 
 3967000   0.61307198    -9.156071    502.12449  0.010547948 0.0094751012         2180 
 3968000   0.61605763   -9.1295903    500.81814  0.010517854  0.009471366         2175 
 3969000    0.6254195   -9.1447718    501.94034  0.010538766  0.009467635         2183 
 3970000   0.60752816   -9.1425204    501.95154  0.010536346 0.0094639059         2221 
 3971000    0.6150667   -9.1527048    502.09982  0.010536805 0.0094601737         2146 
 3972000   0.60818093    -9.151298    502.48955  0.010542328 0.0094564467         2203 
 3973000   0.61924521   -9.1175646    502.36614  0.010537087  0.009452724         2170 
 3974000   0.61405738   -9.1525887    502.30744  0.010533204 0.0094489999         2208 
 3975000   0.60685496   -9.1370733    502.20184   0.01052834  0.009445283         2237 
 3976000   0.62633193   -9.1553573    501.48144  0.010510594 0.0094415585         2250 
 3977000   0.61568331   -9.1499187     500.6001  0.010489483 0.0094378368         2258 
 3978000   0.61620482   -9.1628129     501.7045  0.010509982 0.0094341167         2239 
 3979000   0.62177886   -9.1697737    501.66748  0.010506565 0.0094303979         2236 
 3980000   0.60470513   -9.1555566    501.51344    0.0105007  0.009426684         2232 
 3981000   0.61514383    -9.141701    501.38748  0.010495426 0.0094229667         2225 
 3982000   0.62428827   -9.1317044    502.50098  0.010516093  0.009419255         2231 
 3983000   0.61558644   -9.1491758    500.90014  0.010479959 0.0094155412         2222 
 3984000   0.61750994   -9.1665713    502.27202  0.010506025 0.0094118258         2219 
 3985000   0.60406865   -9.1759528    500.17328    0.0104595 0.0094081101         2244 
 3986000   0.61833193   -9.1568492    501.40945   0.01048272 0.0094043999         2228 
 3987000   0.62821453   -9.1425717    501.71475  0.010486472 0.0094006928         2243 
 3988000   0.61883876   -9.1494348    500.67131  0.010462038 0.0093969843         2260 
 3989000    0.6186862   -9.1787868    501.42629  0.010475188 0.0093932806         2270 
 3990000   0.63649673    -9.143192    501.08113  0.010465354 0.0093895788         2254 
 3991000     0.632348   -9.1600302    501.70825  0.010475826 0.0093858799         2264 
 3992000   0.62692239   -9.1692251    501.37411  0.010466227 0.0093821782         2216 
 3993000   0.60452479    -9.165282    501.39067  0.010463951  0.009378477         2272 
 3994000   0.61020425   -9.1712259    501.44462  0.010462457 0.0093747793         2273 
 3995000    0.6145104   -9.1716501    500.94352  0.010449385 0.0093710842         2275 
 3996000   0.60482333   -9.1611407    500.79023  0.010443573 0.0093673894         2284 
 3997000   0.61840305   -9.1694552    501.24465  0.010450435  0.009363697         2265 
 3998000   0.61302949    -9.163406    501.99763  0.010463516 0.0093600103         2270 
 3999000   0.61541331   -9.1693521    501.21061  0.010444499 0.0093563217         2220 
 4000000   0.60718493   -9.1513119    501.35621  0.010444921 0.0093526366         2269 
 4001000   0.60202639     -9.16529    500.78999  0.010430517 0.0093489533         2260 
 4002000   0.61061914   -9.1700547    500.90746  0.010430357 0.0093452686         2276 
 4003000   0.59968706   -9.1651134    500.41186  0.010417434 0.0093415826         2239 
 4004000   0.61162777   -9.1687895    501.59232  0.010439401 0.0093379001         2231 
 4005000   0.60598196   -9.1566262    500.76791   0.01041964 0.0093342201         2255 
 4006000   0.60983676   -9.1765996     501.3504  0.010429156 0.0093305425         2285 
 4007000   0.60394263    -9.173955    501.82759  0.010436478   0.00932687         2263 
 4008000   0.61248064   -9.1831327    501.01094  0.010416894 0.0093231989         2260 
 4009000   0.58965732   -9.1728145    500.88511   0.01041168 0.0093195236         2273 
 4010000    0.6029461   -9.1620363    501.49295  0.010421716 0.0093158546         2289 
 4011000   0.61935035   -9.1723468    500.49436   0.01039837 0.0093121821         2285 
 4012000   0.60529502   -9.1740116    501.94607  0.010425932 0.0093085133         2258 
 4013000   0.61096942   -9.1838926    501.18121  0.010407451 0.0093048449         2323 
 4014000   0.60274023      -9.1852    501.56227  0.010412769  0.009301181         2273 
 4015000   0.61864458   -9.1508692    501.21011  0.010402866 0.0092975181         2270 
 4016000   0.60509209   -9.1961632    500.81986  0.010392178 0.0092938552         2284 
 4017000    0.6075907   -9.1670053    500.74876  0.010388116 0.0092901892         2328 
 4018000   0.60346849   -9.1888502    500.44635  0.010379259 0.0092865251         2278 
 4019000   0.61514887   -9.1940468    501.12161  0.010390678  0.009282865         2312 
 4020000   0.60763176   -9.1598389    500.96044  0.010384752 0.0092792088         2302 
 4021000   0.59906247   -9.1688298    501.87811  0.010401188 0.0092755523         2289 
 4022000   0.62059604   -9.1726476    501.07826  0.010382029 0.0092719009         2277 
 4023000   0.60083979   -9.1969344    500.82526  0.010374208 0.0092682502         2274 
 4024000   0.61301292   -9.1775488    500.56623  0.010366265 0.0092646018         2312 
 4025000   0.60872592   -9.1900871    501.50129   0.01038305 0.0092609599         2292 
 4026000   0.59450748   -9.2072953    500.35432   0.01035673 0.0092573125         2292 
 4027000   0.60312559   -9.2024312    499.78801  0.010342439 0.0092536662         2314 
 4028000   0.62000627   -9.1814451    501.35572  0.010372305 0.0092500233         2302 
 4029000    0.6132221   -9.1959674    501.26483   0.01036785 0.0092463811         2286 
 4030000   0.61375908   -9.1689725    500.49386  0.010349335 0.0092427474         2272 
 4031000   0.61364055   -9.1737846     501.6806  0.010371302 0.0092391122         2303 
 4032000    0.6074687   -9.1894205    500.66791  0.010347799 0.0092354762         2277 
 4033000   0.59247924   -9.1835105    500.98353  0.010351755 0.0092318407         2311 
 4034000   0.60325345   -9.1977954    500.51803  0.010339573 0.0092282096         2294 
 4035000   0.61115844   -9.1959937     500.1376  0.010329153 0.0092245767         2285 
 4036000   0.60487279   -9.1950499    501.37761  0.010352197  0.009220951         2341 
 4037000   0.58375844   -9.2090037    499.22805  0.010305261 0.0092173191         2308 
 4038000   0.60005557    -9.197686    500.63375  0.010331719 0.0092136919         2296 
 4039000   0.62348266   -9.1817407    501.04563  0.010337659 0.0092100678         2313 
 4040000   0.60066238   -9.1891407    501.12161  0.010336667 0.0092064444         2308 
 4041000   0.61243728   -9.1885092    501.52369  0.010342401 0.0092028268         2280 
 4042000   0.60949884   -9.1943575    501.00579  0.010329164  0.009199207         2290 
 4043000   0.59752201   -9.2130087    500.18828  0.010309759 0.0091955914         2313 
 4044000   0.59996758   -9.1895354    501.68317  0.010338015 0.0091919748         2322 
 4045000   0.59649476   -9.1968663    500.96516  0.010320667 0.0091883601         2273 
 4046000   0.60034309   -9.1862522    501.23991  0.010323775 0.0091847435         2311 
 4047000   0.60869874   -9.2154806    500.89664  0.010314155 0.0091811357         2279 
 4048000    0.6016915   -9.2020421    500.14044   0.01029604 0.0091775245         2265 
 4049000   0.60927006   -9.1852463    500.32998  0.010297398 0.0091739157         2290 
 4050000   0.59719928   -9.2011484    500.50372  0.010298431  0.009170312         2265 
 4051000   0.59723983   -9.1990583    501.52306  0.010316857 0.0091667116         2341 
 4052000   0.60832839   -9.1861071    500.25247   0.01028818 0.0091631062         2349 
 4053000   0.60634762   -9.1826433    500.54898  0.010291738  0.009159508         2317 
 4054000   0.61149226   -9.1966833    501.37122  0.010306101 0.0091559117         2265 
 4055000   0.58968696   -9.1748109    500.49542  0.010285561   0.00915232         2258 
 4056000   0.60498921   -9.2137315    500.01731  0.010273202 0.0091487219         2264 
 4057000   0.59207647   -9.2120082    499.46478  0.010259321 0.0091451279         2333 
 4058000   0.59301379   -9.1949767    500.50051  0.010278062 0.0091415373         2314 
 4059000   0.59649193   -9.2087312    500.58762  0.010277318 0.0091379479         2317 
 4060000   0.61478787   -9.1979156    500.45079  0.010271978 0.0091343634         2348 
 4061000   0.61211928   -9.2032089    500.44852  0.010269402 0.0091307792         2301 
 4062000   0.60171009   -9.2047221    501.38369   0.01028606 0.0091271954         2342 
 4063000   0.58726685   -9.1753673    501.76143  0.010291275  0.009123617         2300 
 4064000   0.61118643   -9.1880812     500.4643  0.010262145 0.0091200388         2365 
 4065000   0.59731029   -9.2148607    500.34892  0.010257255 0.0091164628         2304 
 4066000   0.59778823   -9.2009158    500.56427  0.010259146 0.0091128899         2271 
 4067000   0.59462232   -9.1782705    500.77843  0.010261012 0.0091093145         2318 
 4068000   0.59919248   -9.1930423    501.09294  0.010264932 0.0091057405         2329 
 4069000   0.59866715   -9.1986235    500.24307  0.010245004 0.0091021683         2325 
 4070000   0.59309673   -9.2049313    500.08512  0.010239253 0.0090985979         2287 
 4071000    0.6083006   -9.2011046    500.98606   0.01025518 0.0090950301         2343 
 4072000   0.59918639   -9.1979168    500.41597  0.010240995 0.0090914686         2311 
 4073000   0.60499326    -9.185742    500.91359  0.010248662 0.0090879113         2288 
 4074000   0.59081696   -9.2027745     500.3143  0.010233888 0.0090843508         2314 
 4075000   0.60123185   -9.1965376    501.45846  0.010254774 0.0090807942         2297 
 4076000   0.59149547    -9.211436    500.37036  0.010230012 0.0090772393         2310 
 4077000   0.60223131   -9.2152394    499.69639  0.010213727  0.009073685         2316 
 4078000   0.59536701   -9.2148772    500.36835  0.010224954 0.0090701311         2292 
 4079000   0.58738374   -9.2086083    500.85389  0.010232367 0.0090665811         2293 
 4080000    0.6062712   -9.2017075    500.35762  0.010219723 0.0090630317         2317 
 4081000   0.60049433   -9.2135763    500.28034   0.01021564 0.0090594861         2283 
 4082000   0.60624589   -9.2027875     500.0426  0.010208284 0.0090559442         2301 
 4083000   0.59725563   -9.1850231    500.71121   0.01021943 0.0090524021         2298 
 4084000   0.59545883   -9.2125118    499.34821  0.010189116 0.0090488631         2300 
 4085000   0.60370359   -9.1969811    500.27802   0.01020559 0.0090453287         2308 
 4086000   0.59167735   -9.1975578    499.64167  0.010190114 0.0090417916         2292 
 4087000   0.60149363   -9.2180829    499.62619  0.010187305 0.0090382583         2316 
 4088000   0.58044465   -9.2053846    500.63255  0.010205328 0.0090347238         2306 
 4089000   0.59649609   -9.1952926    500.74202  0.010205063 0.0090311927         2293 
 4090000   0.60779571   -9.2056499    500.21583  0.010191847 0.0090276657         2319 
 4091000   0.59556788   -9.2009363    500.28089  0.010190681  0.009024141         2294 
 4092000   0.61733013   -9.1952352    500.94661  0.010201747 0.0090206174         2285 
 4093000    0.6007695   -9.2103297     501.0434  0.010201226 0.0090171005         2262 
 4094000   0.59086231   -9.1933248    500.38286  0.010185289 0.0090135882         2321 
 4095000   0.58955715   -9.2146196    500.23779  0.010179849 0.0090100701         2322 
 4096000   0.60652912   -9.2060773     500.8117   0.01018904 0.0090065568         2314 
 4097000   0.61275512    -9.206379    499.95151  0.010169057 0.0090030429         2314 
 4098000   0.59006779   -9.2014434    501.56533  0.010199393 0.0089995297         2297 
 4099000   0.59357607   -9.1916459    500.93507  0.010184091 0.0089960158         2295 
 4100000   0.60055991   -9.2113503    500.36657  0.010170052 0.0089925015         2332 
 4101000   0.58789941   -9.2032301    502.33773  0.010207627 0.0089889938         2332 
 4102000   0.58162283   -9.1994475    499.80852  0.010153757 0.0089854881         2363 
 4103000   0.60387586   -9.2086684     500.6193  0.010167749 0.0089819831         2357 
 4104000   0.59221721   -9.2059777    500.43234  0.010161475 0.0089784762         2335 
 4105000    0.5878218   -9.1987399    500.35383  0.010157406 0.0089749708         2331 
 4106000     0.594891   -9.2162297    500.78177  0.010163618 0.0089714684         2331 
 4107000   0.58625783   -9.2212207     500.2502  0.010150357 0.0089679684         2348 
 4108000    0.5911041   -9.2104646    501.72319  0.010177767 0.0089644681         2417 
 4109000   0.59958473   -9.2126813    500.18424  0.010144079 0.0089609692         2402 
 4110000   0.59550047   -9.2156555    500.33712  0.010144711 0.0089574739         2320 
 4111000   0.58760901   -9.2239622    499.78668  0.010131085 0.0089539797         2366 
 4112000   0.59263565   -9.2258184    500.27941  0.010138607 0.0089504895         2367 
 4113000   0.58621053   -9.2071282    500.15516  0.010133624 0.0089469958         2347 
 4114000   0.58353796   -9.2171372    500.09987  0.010130041 0.0089435074         2325 
 4115000   0.58944372   -9.2309451    499.57281  0.010116906 0.0089400202         2392 
 4116000   0.59814624   -9.1998179    500.47565  0.010132727 0.0089365352         2365 
 4117000    0.5936678   -9.2142993    500.48856  0.010130527 0.0089330517         2408 
 4118000   0.59281378   -9.2438905    499.92301  0.010116622 0.0089295687         2392 
 4119000    0.5922773   -9.2223777    500.18406  0.010119448 0.0089260865         2422 
 4120000   0.58536259   -9.2224822    500.99287  0.010133351 0.0089226138         2427 
 4121000   0.58288242   -9.1976547    500.60038  0.010122955 0.0089191395         2398 
 4122000   0.58531411   -9.2226061    501.17613  0.010132139 0.0089156649         2411 
 4123000   0.59388006   -9.2308522    499.25751  0.010090903  0.008912189         2370 
 4124000   0.59254113   -9.2280327    500.89497  0.010121544 0.0089087196         2399 
 4125000   0.59484672   -9.2139934    500.42794  0.010109655 0.0089052508         2383 
 4126000   0.58532958   -9.2202702     500.4943  0.010108545 0.0089017805         2398 
 4127000   0.60749619   -9.1935825    500.96153   0.01011553 0.0088983168         2368 
 4128000   0.57258582   -9.2196075    499.85405  0.010090723 0.0088948503         2384 
 4129000   0.57434084   -9.2402664    499.82694  0.010087732 0.0088913858         2357 
 4130000   0.59806451   -9.2065533    500.65205  0.010101938 0.0088879187         2424 
 4131000   0.57632152   -9.2348014    500.50728  0.010096572 0.0088844549         2359 
 4132000   0.58701164   -9.2308462    499.95671  0.010083025 0.0088809935         2373 
 4133000   0.59521446    -9.232448    500.34728   0.01008846 0.0088775345         2401 
 4134000   0.59654375   -9.2228922    500.48245  0.010088745 0.0088740751         2394 
 4135000   0.59121911   -9.2311482    499.30797  0.010062635 0.0088706168         2397 
 4136000   0.58750134   -9.2269399    500.75816  0.010089421 0.0088671605         2364 
 4137000   0.58329736   -9.2184002    499.84402  0.010068569 0.0088637101         2395 
 4138000   0.57427114   -9.2300307    500.45484  0.010078437   0.00886026         2392 
 4139000   0.58655954   -9.2329847    499.51278  0.010057034 0.0088568075         2349 
 4140000   0.59158678   -9.2278501    500.04645  0.010065347 0.0088533572         2384 
 4141000   0.58779981   -9.2316428      500.132  0.010064638 0.0088499109         2376 
 4142000   0.58869807   -9.2324138    499.76018  0.010054728 0.0088464618         2400 
 4143000   0.58116293   -9.2361918    500.07877  0.010058709 0.0088430144         2383 
 4144000    0.5833089   -9.2388402    499.72883  0.010049245 0.0088395718         2369 
 4145000   0.58745063   -9.2278406    499.89758  0.010050213 0.0088361335         2407 
 4146000   0.58722247   -9.2250682    500.06715  0.010051197 0.0088326975         2353 
 4147000   0.58458539   -9.2329137    499.15078  0.010030359 0.0088292615         2382 
 4148000   0.60250699   -9.2317933    500.21866  0.010049394 0.0088258234         2437 
 4149000   0.57826977    -9.247288    500.60475  0.010054727 0.0088223889         2417 
 4150000   0.57959212   -9.2487155    499.85944  0.010037338 0.0088189525         2421 
 4151000   0.58384648   -9.2396806    499.63918  0.010030498 0.0088155181         2417 
 4152000   0.59538189   -9.2424462    500.17825  0.010038902 0.0088120848         2394 
 4153000   0.58010449   -9.2232531    499.73257  0.010027542 0.0088086546         2401 
 4154000   0.57684813   -9.2301674    500.52154  0.010040955 0.0088052264         2411 
 4155000   0.58687962   -9.2186935    499.62255  0.010020508 0.0088018035         2434 
 4156000   0.59506369   -9.2374394    499.91503  0.010023962 0.0087983776         2403 
 4157000   0.57940553   -9.2466974    499.27912  0.010008803 0.0087949534         2398 
 4158000   0.57652118   -9.2323761    501.01355  0.010041157 0.0087915356         2427 
 4159000   0.58893001   -9.2455155     500.3196  0.010024838 0.0087881176         2390 
 4160000   0.58290514   -9.2237826    499.81934  0.010012407 0.0087846995         2374 
 4161000   0.58945055   -9.2682284    499.79303  0.010009473 0.0087812885         2437 
 4162000   0.59366093   -9.2428891    499.56109  0.010002425 0.0087778752         2389 
 4163000   0.59542339   -9.2398108    499.98308  0.010008469 0.0087744664         2420 
 4164000   0.58940703   -9.2559726    499.66138 0.0099996274 0.0087710591         2419 
 4165000   0.59563262   -9.2593902     499.6421 0.0099968407 0.0087676518         2437 
 4166000   0.58714384   -9.2344657    499.70161 0.0099956315 0.0087642444         2401 
 4167000   0.57339241   -9.2461249    500.81317  0.010015462 0.0087608416         2475 
 4168000   0.58228665   -9.2349272    500.12609 0.0099993221 0.0087574425         2460 
 4169000   0.57776734   -9.2455597    499.78061 0.0099900178 0.0087540441         2413 
 4170000   0.58118193   -9.2433396    499.80588 0.0099881271  0.008750648         2443 
 4171000   0.59310301   -9.2558255    499.73605 0.0099843373 0.0087472518         2456 
 4172000     0.590014    -9.245344    499.58949 0.0099790167 0.0087438583         2415 
 4173000   0.59525271   -9.2539246    499.81208 0.0099810704 0.0087404683         2437 
 4174000   0.57473946   -9.2514222    498.52612 0.0099530052 0.0087370815         2430 
 4175000   0.59940625   -9.2504919    500.39269 0.0099878781 0.0087336959         2398 
 4176000   0.59090325   -9.2486186    499.69545 0.0099715726 0.0087303093         2473 
 4177000   0.57961578   -9.2553056    500.09211  0.009977099 0.0087269275         2452 
 4178000   0.59085895   -9.2623955    499.87715 0.0099704234 0.0087235483         2471 
 4179000    0.5811886   -9.2427594    500.26853  0.009975842 0.0087201655         2495 
 4180000   0.58461621   -9.2549523     500.1679 0.0099714494 0.0087167891         2489 
 4181000    0.5809891   -9.2423147    500.26026 0.0099709053  0.008713414         2416 
 4182000   0.58755195   -9.2476994    499.93704 0.0099620803 0.0087100427         2402 
 4183000   0.58917276   -9.2467957    499.03153 0.0099416592 0.0087066684         2505 
 4184000   0.59104034   -9.2390302    499.12389 0.0099411227 0.0087032983         2456 
 4185000   0.58157525     -9.24028    500.03171 0.0099568241 0.0086999259         2439 
 4186000   0.57858265   -9.2469456    500.00522 0.0099539182 0.0086965561         2457 
 4187000   0.58439856   -9.2643099    499.73833 0.0099462291 0.0086931882         2463 
 4188000   0.57863195   -9.2617703    499.93662 0.0099477997 0.0086898185         2422 
 4189000   0.58847587   -9.2472404    499.94163 0.0099455246 0.0086864525         2438 
 4190000   0.57909707   -9.2466601    499.62049 0.0099367639 0.0086830904         2457 
 4191000   0.56872625   -9.2580578    499.52693 0.0099325326 0.0086797274         2420 
 4192000   0.58064865   -9.2526274    499.09206 0.0099215183 0.0086763664         2393 
 4193000   0.58262339   -9.2352924     499.8473 0.0099341621 0.0086730074         2434 
 4194000    0.5752261   -9.2435892    500.62751 0.0099472958 0.0086696502         2441 
 4195000   0.57716102   -9.2813622    500.05856 0.0099336226 0.0086662964         2442 
 4196000   0.57889229    -9.251674    500.32567 0.0099365601 0.0086629417         2450 
 4197000   0.58030134   -9.2535066    499.52689 0.0099183324 0.0086595896         2437 
 4198000      0.57293   -9.2662411    500.18216 0.0099289773 0.0086562395         2441 
 4199000   0.56978431   -9.2705875    499.48917 0.0099128597 0.0086528958         2454 
 4200000   0.59262248   -9.2613075    499.27346 0.0099062194 0.0086495472         2453 
 4201000   0.56814947   -9.2334784    499.47929 0.0099079443 0.0086462019         2453 
 4202000   0.58485796   -9.2471446    499.49588 0.0099059155 0.0086428604         2395 
 4203000   0.58167312   -9.2448033    499.59277 0.0099054795 0.0086395163         2424 
 4204000   0.58388732   -9.2617281     499.3348 0.0098980099 0.0086361756         2461 
 4205000   0.58242849   -9.2402385    499.68241 0.0099025448 0.0086328384         2461 
 4206000   0.58426297    -9.267624    498.79738 0.0098826553 0.0086295027         2439 
 4207000   0.56404054   -9.2549333    499.46917 0.0098936133 0.0086261698         2462 
 4208000   0.58402999   -9.2434552    499.40395 0.0098899704 0.0086228347         2421 
 4209000   0.57207165   -9.2582971    499.32156 0.0098859895 0.0086195042         2458 
 4210000   0.57568742   -9.2567266    499.15305 0.0098803057 0.0086161725         2414 
 4211000   0.57153974    -9.251422    498.58709 0.0098667595 0.0086128428         2405 
 4212000   0.58258584   -9.2700513    499.35331 0.0098795765  0.008609515         2418 
 4213000   0.58060144   -9.2430278    499.29624 0.0098761026 0.0086061869         2448 
 4214000   0.56774465    -9.249186    499.88947 0.0098854902 0.0086028589         2424 
 4215000     0.569325   -9.2476725    500.09932 0.0098872939  0.008599536         2442 
 4216000   0.56926854    -9.250483    499.36616 0.0098704571 0.0085962133         2458 
 4217000   0.58025613   -9.2606818    499.59883 0.0098727142 0.0085928931         2419 
 4218000   0.57473959   -9.2628868     498.9329  0.009857217 0.0085895732         2431 
 4219000   0.58057358   -9.2671164    499.55421 0.0098671527 0.0085862617         2436 
 4220000   0.56894318   -9.2668988    499.48991 0.0098635448 0.0085829463         2453 
 4221000   0.58177013   -9.2689364    498.66384 0.0098448994 0.0085796329         2466 
 4222000   0.57146757   -9.2631647    500.09295 0.0098707752 0.0085763207         2462 
 4223000   0.57455816   -9.2628883    499.03106 0.0098474833 0.0085730082         2441 
 4224000   0.57586362   -9.2917987    499.81916 0.0098606999 0.0085696983         2427 
 4225000   0.57465594   -9.2778375    498.82165 0.0098386913 0.0085663894         2432 
 4226000   0.57249281   -9.2685454    499.68551 0.0098533979 0.0085630823         2443 
 4227000   0.57239821   -9.2712967    499.47961 0.0098470075 0.0085597771         2506 
 4228000    0.5778304   -9.2621387    500.48462 0.0098644871 0.0085564723         2451 
 4229000   0.58022109     -9.26797    499.73121 0.0098473084 0.0085531678         2490 
 4230000   0.57861897   -9.2664172    499.28096 0.0098361103 0.0085498708         2457 
 4231000    0.5725502   -9.2580514    499.61996 0.0098404625 0.0085465709         2502 
 4232000   0.56215137   -9.2559158    499.54426 0.0098366466 0.0085432745         2501 
 4233000   0.56793608   -9.2610209    499.36839 0.0098308604 0.0085399778         2503 
 4234000    0.5798175   -9.2651167    499.66222 0.0098343217 0.0085366807         2460 
 4235000   0.59211876   -9.2605074    499.19405 0.0098227873 0.0085333862         2452 
 4236000   0.58255513   -9.2742049    499.04355 0.0098175076 0.0085300904         2452 
 4237000   0.57044064   -9.2744462    499.65661 0.0098272482 0.0085267996         2487 
 4238000   0.57252429   -9.2511049    499.23681 0.0098166748 0.0085235118         2501 
 4239000   0.57382985   -9.2794665     499.1729 0.0098131026 0.0085202243         2461 
 4240000   0.57781103   -9.3000028    499.42269 0.0098156976 0.0085169386         2493 
 4241000   0.56883134   -9.2892023    499.30856 0.0098111406 0.0085136502         2529 
 4242000   0.57880628   -9.2810469    499.28062 0.0098082788  0.008510366         2527 
 4243000   0.57405583   -9.2727628    499.65106 0.0098132426 0.0085070799         2556 
 4244000   0.57608575   -9.2844503    497.91117 0.0097767667 0.0085037933         2553 
 4245000   0.58220783   -9.3076673    498.74867 0.0097909044 0.0085005133         2533 
 4246000   0.57856849   -9.2968235    499.33458 0.0098000977 0.0084972311         2568 
 4247000   0.57018676   -9.2687078    498.75243 0.0097863675 0.0084939486         2539 
 4248000   0.56610815    -9.280416     499.9365 0.0098072916 0.0084906715         2527 
 4249000   0.56403826   -9.2874777    499.09491 0.0097884778 0.0084873938         2512 
 4250000   0.57077086   -9.2844753    498.60991  0.009776665 0.0084841205         2553 
 4251000   0.57379155   -9.2994521    500.06889 0.0098029657 0.0084808467         2532 
 4252000   0.56556828   -9.2645539    499.38359 0.0097872293 0.0084775732         2562 
 4253000   0.55666464   -9.2930884    499.29399 0.0097831724 0.0084743018         2537 
 4254000   0.58543963   -9.2694974    498.13909  0.009758249 0.0084710339         2532 
 4255000   0.57272726   -9.2685761    499.63737 0.0097852991 0.0084677684         2537 
 4256000   0.55912228   -9.2873208    498.90661 0.0097686914 0.0084645065         2535 
 4257000   0.58615758   -9.2823732    499.44488 0.0097769337  0.008461245         2521 
 4258000   0.58469452   -9.2685004    499.35631 0.0097729041 0.0084579827         2524 
 4259000   0.57299919   -9.2871743    498.53643 0.0097545674 0.0084547242         2537 
 4260000   0.58165019   -9.2793862    499.27588 0.0097667426  0.008451467         2509 
 4261000   0.56732866   -9.2907889    498.98218 0.0097587065 0.0084482126         2530 
 4262000   0.58642036   -9.2855134    499.50682 0.0097666749 0.0084449576         2554 
 4263000   0.57745793    -9.276289    499.42917 0.0097628659 0.0084417075         2526 
 4264000   0.56837543    -9.281499     498.9436 0.0097510867 0.0084384584         2544 
 4265000   0.57347987   -9.2706427    498.59518 0.0097419926 0.0084352084         2578 
 4266000   0.55339658   -9.2814107    499.00914 0.0097477954 0.0084319602         2538 
 4267000   0.56726213   -9.2952243    498.97482 0.0097448407  0.008428716         2571 
 4268000   0.57602245   -9.2773081    498.73175 0.0097378115 0.0084254691         2595 
 4269000   0.57678235   -9.2891828    498.27849 0.0097266824 0.0084222251         2600 
 4270000   0.56423059   -9.2748344    499.19236 0.0097422397 0.0084189825         2618 
 4271000    0.5707628   -9.2902013    498.92947 0.0097348292 0.0084157405         2568 
 4272000   0.56599195   -9.2875924    498.82245  0.009730463 0.0084124983         2563 
 4273000   0.57831986   -9.2959593    498.87361 0.0097291834 0.0084092588         2623 
 4274000   0.56198526   -9.2778911      499.029 0.0097299367 0.0084060217         2552 
 4275000   0.56915417   -9.2717827    498.35223 0.0097144685 0.0084027855         2583 
 4276000    0.5788908   -9.2940258    498.44023 0.0097139116 0.0083995501         2621 
 4277000   0.57643938    -9.297372     498.4639 0.0097121015 0.0083963197         2615 
 4278000   0.56210748   -9.2958489    498.44816 0.0097095247 0.0083930902         2615 
 4279000   0.57666613   -9.2843298    500.05881 0.0097386229  0.008389861         2609 
 4280000   0.57572229   -9.3116811    499.13171 0.0097182966  0.008386635         2589 
 4281000   0.57986191   -9.2896672     499.7441 0.0097279472 0.0083834142         2595 
 4282000   0.57401273   -9.3157802    498.04918   0.00969269 0.0083801902         2614 
 4283000   0.56805172   -9.3014799    498.08756 0.0096911737 0.0083769667         2635 
 4284000   0.55717289   -9.3042981    498.53129  0.009697543 0.0083737441         2557 
 4285000   0.56702316   -9.2908538    498.37794 0.0096922976 0.0083705224         2601 
 4286000    0.5605854   -9.2871239    498.75821 0.0096974298  0.008367304         2562 
 4287000   0.57957004   -9.2857723     498.6981 0.0096939993 0.0083640872         2619 
 4288000   0.57558926   -9.3033399     499.7672 0.0097125155 0.0083608721         2613 
 4289000   0.57334916   -9.2938551    498.57682 0.0096871225 0.0083576557         2624 
 4290000   0.56758152   -9.2835855    498.75791  0.009688382 0.0083544379         2653 
 4291000    0.5641445   -9.3196517    498.05832 0.0096725378 0.0083512198         2666 
 4292000   0.57179979    -9.285576    498.36432 0.0096762255 0.0083480059         2620 
 4293000   0.56272752   -9.3071526     499.2504 0.0096911717 0.0083447931         2629 
 4294000   0.56856514   -9.3043426    498.38862 0.0096721903 0.0083415786         2607 
 4295000   0.56394779   -9.2898664     498.5694 0.0096734458 0.0083383675         2595 
 4296000   0.57154477   -9.2883193    498.69984 0.0096737244 0.0083351601         2678 
 4297000   0.57004025   -9.3137364    497.95136 0.0096569576 0.0083319498         2620 
 4298000   0.57594137   -9.3150224     498.0656 0.0096569257 0.0083287419         2601 
 4299000   0.55945764   -9.2884973    498.59333 0.0096649091 0.0083255334         2606 
 4300000   0.57285143   -9.3142366    498.28682 0.0096567213 0.0083223305         2609 
 4301000   0.56745892   -9.2966281    497.95531 0.0096480529 0.0083191267         2670 
 4302000   0.56445039   -9.3088639    498.10891 0.0096487856 0.0083159236         2616 
 4303000   0.56491703   -9.3105427    497.47529 0.0096342725 0.0083127265         2654 
 4304000   0.55316802   -9.3266862    497.19087 0.0096265271 0.0083095274         2613 
 4305000   0.56218377   -9.3077455    498.30062 0.0096457728 0.0083063335         2661 
 4306000   0.56768896   -9.3155142    497.94564 0.0096366628 0.0083031408         2678 
 4307000   0.54899523   -9.3195164    497.67639 0.0096292158 0.0082999467         2626 
 4308000   0.57663354   -9.3113879    497.75714 0.0096285426 0.0082967533         2606 
 4309000   0.56391987   -9.3215754    497.94364  0.009629915 0.0082935655         2627 
 4310000    0.5509023   -9.3154886    497.95874 0.0096279726 0.0082903793         2645 
 4311000   0.56486244    -9.330232    497.81157 0.0096228943 0.0082871941         2641 
 4312000   0.55971391   -9.2923803    498.75969  0.009638986 0.0082840078         2645 
 4313000   0.56370432   -9.3062842    498.52667 0.0096322487 0.0082808248         2680 
 4314000   0.56909914   -9.3106683    497.37028  0.009607678 0.0082776407         2685 
 4315000   0.55825244   -9.2926658    498.54333  0.009628106 0.0082744604         2653 
 4316000   0.56576075    -9.322388     497.8511 0.0096125096 0.0082712801         2645 
 4317000   0.55459399   -9.3122516     498.4547 0.0096219346 0.0082681001         2626 
 4318000   0.56637952   -9.3203009    498.51368 0.0096208445 0.0082649255         2638 
 4319000   0.57035242   -9.3145543     497.6917 0.0096027573 0.0082617492         2634 
 4320000   0.56821034   -9.3156601    498.77088 0.0096213519 0.0082585715         2620 
 4321000    0.5578652   -9.3011714    499.11984 0.0096258552  0.008255399         2621 
 4322000   0.57431198   -9.3064276    497.81998  0.009598565 0.0082522296         2670 
 4323000   0.56630474   -9.3165237    498.89403 0.0096170489 0.0082490625         2666 
 4324000   0.54737032   -9.3157936    497.54097 0.0095887483 0.0082458945         2641 
 4325000   0.55104302   -9.3054408    497.35218 0.0095828936 0.0082427294         2625 
 4326000    0.5529895   -9.3051476    498.27708 0.0095984951 0.0082395625         2657 
 4327000   0.55764134   -9.3022587    497.78445 0.0095867894 0.0082363995         2633 
 4328000   0.55141124   -9.3063049    498.07517  0.009590172 0.0082332379         2668 
 4329000   0.56424492   -9.3321361    498.04339 0.0095873448 0.0082300805         2645 
 4330000   0.55128756   -9.3089575    498.08708 0.0095859715  0.008226921         2661 
 4331000   0.55435586   -9.3217346    498.09915 0.0095839904 0.0082237652         2663 
 4332000   0.56196106   -9.3207229    497.18863 0.0095642627  0.008220607         2647 
 4333000   0.57013003   -9.3324995    498.01731 0.0095779928 0.0082174546         2635 
 4334000   0.55964167   -9.3260478    497.62806 0.0095682983  0.008214302         2669 
 4335000   0.56083844   -9.3300573     497.9407 0.0095721011 0.0082111522         2618 
 4336000   0.56787694   -9.3238807    498.78693 0.0095861571 0.0082080064         2647 
 4337000   0.55790774   -9.3387645    498.17387 0.0095721672 0.0082048576         2619 
 4338000   0.55909187   -9.3143365    498.20828 0.0095706217   0.00820171         2640 
 4339000   0.55556503   -9.3236766      498.305 0.0095702736 0.0081985621         2652 
 4340000   0.57018574   -9.3318025    497.93843 0.0095610298 0.0081954157         2613 
 4341000   0.55047878   -9.3415108    497.77816 0.0095557506 0.0081922727         2632 
 4342000     0.547677   -9.3253463    497.95306 0.0095569065 0.0081891299         2584 
 4343000   0.55180559    -9.324214    497.70141 0.0095498774 0.0081859878         2629 
 4344000   0.56148521   -9.3153133    498.34899 0.0095601019 0.0081828473         2616 
 4345000   0.55128128    -9.321731     497.7231 0.0095458976 0.0081797088         2600 
 4346000   0.54044201    -9.327477     497.5632  0.009540635 0.0081765733         2635 
 4347000   0.55506572   -9.3281833    498.39188 0.0095543263 0.0081734357         2629 
 4348000   0.55531875   -9.3369337    498.11713 0.0095468631 0.0081703014         2663 
 4349000   0.55265163   -9.3249394    497.52511 0.0095333239  0.008167171         2654 
 4350000   0.55269324   -9.3174021    497.80093 0.0095364163 0.0081640429         2677 
 4351000   0.55383327   -9.3261016    498.23287 0.0095424973 0.0081609133         2658 
 4352000   0.56274227   -9.3189681    497.78175 0.0095316665  0.008157786         2649 
 4353000   0.55263784   -9.3276915    498.25739 0.0095385825 0.0081546608         2624 
 4354000   0.54852047   -9.3323729    497.65895 0.0095249377 0.0081515356         2647 
 4355000   0.57015408   -9.3290783    497.30004 0.0095158829  0.008148417         2657 
 4356000   0.55574429   -9.3181851    497.92389  0.009525633 0.0081452956         2691 
 4357000   0.55455838   -9.3347687    497.40673 0.0095135554  0.008142176         2690 
 4358000   0.56402864   -9.3353935    497.97704 0.0095222777 0.0081390559         2651 
 4359000   0.54929583   -9.3368282    497.07036 0.0095027598 0.0081359408         2708 
 4360000   0.55921191   -9.3295448    497.69603 0.0095125387 0.0081328237         2685 
 4361000   0.56451925   -9.3275409    497.43741 0.0095054156 0.0081297072         2694 
 4362000   0.55841014    -9.335108    497.28776 0.0095003775 0.0081265963         2669 
 4363000   0.56030182   -9.3266013    498.90278 0.0095290469  0.008123488         2690 
 4364000    0.5579305   -9.3408865     498.1667 0.0095128075 0.0081203803         2684 
 4365000   0.54847392   -9.3160485    497.82315 0.0095040693 0.0081172738         2692 
 4366000   0.55681203   -9.3574899    497.27185 0.0094913699 0.0081141687         2691 
 4367000    0.5662656   -9.3380008    498.34159 0.0095096099 0.0081110666         2650 
 4368000   0.55001658   -9.3458334    496.88181 0.0094795827 0.0081079623         2687 
 4369000   0.55415577   -9.3556767    497.86717 0.0094962077   0.00810486         2736 
 4370000   0.54991075   -9.3429418    497.03419 0.0094781501 0.0081017601         2704 
 4371000   0.54349139   -9.3381117    497.77452 0.0094900961 0.0080986604         2662 
 4372000   0.55239834   -9.3505874    497.60799 0.0094847512 0.0080955645         2707 
 4373000   0.55349309   -9.3266862    497.89469 0.0094880458 0.0080924711         2735 
 4374000   0.54902414   -9.3494478    497.67858 0.0094817592 0.0080893756         2715 
 4375000   0.54092344   -9.3330099    497.80617 0.0094820223 0.0080862843         2675 
 4376000    0.5454457   -9.3528201    497.97333 0.0094830387 0.0080831921         2713 
 4377000   0.55051455   -9.3458747    497.64371 0.0094745966 0.0080801026         2724 
 4378000   0.54761254    -9.341908    496.90672 0.0094584042 0.0080770155         2725 
 4379000   0.54774755   -9.3350591    497.46071 0.0094667867 0.0080739282         2674 
 4380000   0.56270836   -9.3280766    497.37611 0.0094630158 0.0080708422         2683 
 4381000   0.55726012   -9.3236621    498.61199 0.0094843642 0.0080677613         2699 
 4382000   0.55616774   -9.3441642     497.1814  0.009454994 0.0080646817         2730 
 4383000   0.54963613   -9.3524903    497.81385 0.0094648614 0.0080616023         2673 
 4384000    0.5446685   -9.3371679    497.57263 0.0094581172 0.0080585238         2670 
 4385000   0.54074351   -9.3538786     498.1312 0.0094665755 0.0080554469         2715 
 4386000   0.55770498   -9.3570214    498.33171 0.0094682267 0.0080523742         2699 
 4387000   0.55376659   -9.3450748    497.61752  0.009452502 0.0080493026         2716 
 4388000   0.55284236   -9.3453327    498.41328 0.0094654603 0.0080462282         2721 
 4389000   0.54918655   -9.3653186    497.76348 0.0094509661 0.0080431546         2707 
 4390000   0.54994695    -9.343648    498.02837 0.0094538415 0.0080400834         2727 
 4391000   0.55192877   -9.3673319    497.40347 0.0094398291 0.0080370103         2702 
 4392000   0.54789074   -9.3472274    497.12862 0.0094324647 0.0080339415         2722 
 4393000   0.53101295   -9.3600959    497.58452 0.0094389658 0.0080308742         2725 
 4394000   0.54939065   -9.3458332    496.84941 0.0094228761 0.0080278088         2694 
 4395000    0.5475389   -9.3592461    497.60276 0.0094350163 0.0080247445         2714 
 4396000   0.55754019   -9.3348654    497.50052 0.0094309318 0.0080216839         2680 
 4397000   0.54758837   -9.3583947    496.16354 0.0094034482 0.0080186246         2696 
 4398000   0.55335642   -9.3444705    497.94298  0.009435027 0.0080155645         2719 
 4399000   0.55719583   -9.3345738    497.44162 0.0094233845 0.0080125075         2694 
 4400000   0.53610502   -9.3599732    497.32567 0.0094190469 0.0080094509         2712 
 4401000   0.54190411   -9.3643672    496.96858  0.009410145 0.0080063961         2696 
 4402000   0.54147883    -9.355676     497.6743 0.0094213673 0.0080033425         2711 
 4403000   0.54357924   -9.3449149    497.58907 0.0094176144 0.0080002936         2711 
 4404000   0.53917982   -9.3501486    497.73146 0.0094181701 0.0079972455         2719 
 4405000   0.55172118   -9.3524519    497.29369 0.0094077505 0.0079941972         2666 
 4406000   0.54238329   -9.3501407    497.49551 0.0094094325 0.0079911509         2690 
 4407000   0.55609942   -9.3618777    497.29397 0.0094034863 0.0079881067         2702 
 4408000   0.54932692   -9.3670455    497.08829 0.0093974647 0.0079850622         2710 
 4409000    0.5368998   -9.3559306     496.7962 0.0093898126 0.0079820191         2709 
 4410000   0.54568373   -9.3709303    496.97944 0.0093911458 0.0079789793         2702 
 4411000   0.56109607   -9.3375002    497.45754 0.0093980492  0.007975941         2684 
 4412000   0.56054691   -9.3502022    497.73279  0.009401118 0.0079729062         2684 
 4413000   0.55893401   -9.3549558    497.11486 0.0093873188 0.0079698716         2669 
 4414000   0.55136926   -9.3708784      497.189 0.0093865919 0.0079668371         2668 
 4415000   0.54828925   -9.3679651    496.73921 0.0093759761 0.0079638011         2710 
 4416000   0.55280905   -9.3526906    497.69253 0.0093918427 0.0079607702         2649 
 4417000   0.55372359   -9.3507703    497.01299 0.0093768959 0.0079577408         2673 
 4418000   0.54191441   -9.3487303    498.02039 0.0093937753 0.0079547117         2714 
 4419000   0.54544624   -9.3636485    497.37064 0.0093793966 0.0079516832         2676 
 4420000   0.54398487   -9.3389979    498.30501 0.0093948909   0.00794866         2705 
 4421000   0.54602929   -9.3535962     497.9956 0.0093869337 0.0079456344         2737 
 4422000   0.54634672   -9.3669505    497.70147 0.0093792678 0.0079426135         2747 
 4423000   0.53935825   -9.3407387    496.68839 0.0093580599 0.0079395932         2684 
 4424000   0.53669757   -9.3632863     496.9096 0.0093601116 0.0079365731         2695 
 4425000    0.5410475   -9.3517833    497.55204  0.009370095  0.007933555         2692 
 4426000    0.5402481   -9.3734248    497.14468  0.009360308 0.0079305391         2695 
 4427000    0.5361147   -9.3685328    496.53611  0.009346738 0.0079275256         2680 
 4428000   0.54526143   -9.3502897    497.66664 0.0093659033 0.0079245134         2654 
 4429000   0.52567439   -9.3559845    498.05645 0.0093711232 0.0079215021         2711 
 4430000    0.5459495   -9.3557917    497.71207 0.0093625295 0.0079184929         2683 
 4431000   0.54832487   -9.3639323     498.7196  0.009379365 0.0079154842         2690 
 4432000   0.53851369   -9.3516209     497.5205 0.0093547025 0.0079124771         2742 
 4433000    0.5400164    -9.356619    497.15294 0.0093456828  0.007909471         2689 
 4434000   0.55081129   -9.3327038    496.35377 0.0093285553 0.0079064654         2769 
 4435000   0.54722487   -9.3528367    496.87996 0.0093363389 0.0079034622         2689 
 4436000   0.52811107   -9.3681992    497.44745 0.0093448949 0.0079004594         2701 
 4437000   0.53578789    -9.364209     497.2465 0.0093390147 0.0078974568         2725 
 4438000   0.53112769   -9.3629893    496.82067 0.0093289145 0.0078944578         2724 
 4439000   0.53615482   -9.3550182    496.76931 0.0093258488 0.0078914608         2692 
 4440000    0.5366194   -9.3679426    496.97913 0.0093276864 0.0078884681         2747 
 4441000   0.52371377    -9.380653    497.79182 0.0093408357 0.0078854719         2710 
 4442000   0.54573191   -9.3627277     496.8944  0.009321897 0.0078824771         2757 
 4443000   0.54654706   -9.3747169    496.72857 0.0093166887  0.007879486         2698 
 4444000   0.55112546   -9.3683695    497.43839 0.0093279026 0.0078764957         2702 
 4445000   0.54313961   -9.3594348    496.98281 0.0093172631 0.0078735069         2718 
 4446000   0.53290554    -9.357841    497.23598 0.0093199126 0.0078705185         2719 
 4447000   0.52983138   -9.3627267    496.49947 0.0093040153 0.0078675284         2685 
 4448000   0.54125528   -9.3725153    496.36469 0.0092993985 0.0078645401         2651 
 4449000    0.5272173   -9.3863798    497.04931 0.0093101316 0.0078615563         2691 
 4450000   0.54499759   -9.3699486      496.723 0.0093019289 0.0078585757         2725 
 4451000   0.54836948   -9.3531643    497.38591 0.0093122502 0.0078555944         2743 
 4452000   0.54030734   -9.3794318    498.36814  0.009328544 0.0078526167         2715 
 4453000   0.55455765   -9.3827751    497.18478 0.0093043039 0.0078496394         2713 
 4454000    0.5335399    -9.379041    496.77102 0.0092944735 0.0078466614         2706 
 4455000   0.53728459   -9.3806976    497.09401 0.0092984289 0.0078436835         2746 
 4456000   0.53569478   -9.3665778    496.86602 0.0092920785 0.0078407091         2729 
 4457000   0.54330028     -9.38114    497.23739 0.0092969371 0.0078377346         2731 
 4458000   0.53752891   -9.3759244    497.12363 0.0092927252 0.0078347632         2706 
 4459000   0.54497776   -9.3744242    497.20639  0.009292188 0.0078317908         2704 
 4460000   0.54417274   -9.3712231    498.17488 0.0093082002 0.0078288225         2716 
 4461000   0.52957875   -9.3712128    496.87721 0.0092818726 0.0078258561         2704 
 4462000   0.53941979   -9.3815513    496.20423 0.0092672238 0.0078228895         2717 
 4463000   0.54609583   -9.3780985    497.31267 0.0092858441 0.0078199278         2769 
 4464000   0.54754246   -9.3703037    497.80168 0.0092928928 0.0078169641         2710 
 4465000   0.53515898    -9.362952    496.52364 0.0092669585 0.0078140007         2714 
 4466000    0.5341949   -9.4004112    496.43958  0.009263315 0.0078110407         2702 
 4467000   0.54709801   -9.3810187    496.50204 0.0092624066 0.0078080807         2738 
 4468000   0.53308842   -9.3861138    496.32513 0.0092570339 0.0078051236         2695 
 4469000   0.53004513   -9.3769435    497.14833 0.0092703127  0.007802166         2741 
 4470000   0.55258174   -9.3843879    496.80638 0.0092618639 0.0077992119         2690 
 4471000   0.55283569   -9.3650759    496.60388 0.0092560181 0.0077962608         2719 
 4472000   0.52947249   -9.3923867     496.2781 0.0092478775 0.0077933104         2718 
 4473000   0.54223053     -9.37202    497.49539 0.0092684885 0.0077903614         2717 
 4474000   0.53826618    -9.377533     497.2815  0.009262433 0.0077874141         2722 
 4475000   0.54015606   -9.3780012    497.75874 0.0092692503 0.0077844677         2728 
 4476000   0.54055108   -9.3884088    496.71063 0.0092476659 0.0077815213         2714 
 4477000   0.53153201   -9.3562787    495.93435 0.0092311508  0.007778577         2703 
 4478000   0.53558889   -9.3884182    496.71002 0.0092435243 0.0077756314         2710 
 4479000   0.52476617   -9.3916711    497.01014 0.0092470444 0.0077726857         2704 
 4480000   0.52826917   -9.3684248    496.31326 0.0092320175 0.0077697414         2673 
 4481000   0.53074627   -9.3744389    496.83491 0.0092396584 0.0077667981         2725 
 4482000    0.5268961   -9.3870508    496.29216 0.0092275057 0.0077638582         2763 
 4483000   0.53923648   -9.3735225    497.27015 0.0092436269 0.0077609217         2714 
 4484000   0.53917096   -9.3916124    496.91485 0.0092349622 0.0077579871         2751 
 4485000   0.53676367   -9.3880912    497.00851 0.0092346434 0.0077550518         2753 
 4486000   0.53743056   -9.3813796     495.8068 0.0092102616 0.0077521175         2722 
 4487000   0.53076489   -9.3804031    497.01668  0.009230679 0.0077491863         2715 
 4488000   0.52555801   -9.3895255    496.65659 0.0092219361 0.0077462539         2744 
 4489000   0.54031022   -9.3752769    496.58924 0.0092186314 0.0077433251         2693 
 4490000   0.53757852   -9.3664424     496.7535  0.009219627 0.0077403989         2687 
 4491000   0.53972686   -9.3801775    497.01943 0.0092225085 0.0077374716         2722 
 4492000    0.5325774    -9.384666    496.92619 0.0092187258 0.0077345452         2745 
 4493000   0.52943944   -9.3826898    496.99511 0.0092179522  0.007731621         2733 
 4494000   0.53074613   -9.4013096    496.49248 0.0092065807 0.0077286979         2734 
 4495000   0.53842554   -9.3904561    495.74765  0.009190724 0.0077257777         2694 
 4496000   0.52257808   -9.3764359    496.42265  0.009201191 0.0077228578         2735 
 4497000   0.52412623   -9.3772987    496.88652 0.0092077407 0.0077199403         2690 
 4498000    0.5280418   -9.3776833    496.18753 0.0091927437  0.007717024         2721 
 4499000   0.52751675   -9.3797515    496.90193 0.0092039329 0.0077141113         2710 
 4500000   0.53028856    -9.374422    496.65229 0.0091972647 0.0077111972         2727 
 4501000   0.53233128   -9.4083121    496.87888 0.0091994164 0.0077082864         2718 
 4502000    0.5289982   -9.3771902    496.89523 0.0091976756 0.0077053762         2751 
 4503000   0.53095054   -9.3761761     497.3679 0.0092043804 0.0077024684         2699 
 4504000    0.5356242   -9.4057105    496.81101 0.0091920333 0.0076995603         2731 
 4505000   0.53183777   -9.3963925    496.93187 0.0091922284 0.0076966565         2697 
 4506000   0.53488509   -9.3862897    496.54176 0.0091829738 0.0076937501         2709 
 4507000   0.53664594   -9.3874556    496.28088 0.0091761128 0.0076908469         2738 
 4508000    0.5256182   -9.3843397    497.13144 0.0091898003 0.0076879457         2761 
 4509000   0.53018125   -9.3745977    496.79905 0.0091816191 0.0076850469         2678 
 4510000   0.52369448   -9.3843747    496.35309 0.0091713432 0.0076821476         2729 
 4511000   0.52705982   -9.3813255    496.53253 0.0091726248 0.0076792515         2733 
 4512000   0.52793025   -9.3738144    497.23888 0.0091836377  0.007676359         2717 
 4513000   0.54183973    -9.391477     497.3485 0.0091836269 0.0076734666         2760 
 4514000   0.53040732   -9.3889105    496.02596  0.009157177 0.0076705751         2740 
 4515000    0.5338011   -9.3895338    496.04856 0.0091555658 0.0076676828         2762 
 4516000   0.54025617   -9.3913002    496.94056 0.0091699984  0.007664792         2698 
 4517000    0.5264721   -9.3992221    496.64969 0.0091626022 0.0076619062         2712 
 4518000    0.5240081   -9.3972723    495.92519  0.009147211 0.0076590212         2738 
 4519000   0.53068377   -9.3816875    496.37431 0.0091534689 0.0076561365         2737 
 4520000   0.52706319   -9.3986997    496.10926 0.0091465572 0.0076532492         2716 
 4521000   0.53020656   -9.4003759    495.91147 0.0091408882 0.0076503676         2766 
 4522000   0.52853462    -9.375579    496.92652 0.0091575726 0.0076474862         2781 
 4523000   0.52684188   -9.3906055    496.57005 0.0091489801 0.0076446061         2766 
 4524000   0.53590683    -9.395022    496.22201  0.009140547  0.007641728         2759 
 4525000   0.52310324   -9.4083307    496.94497 0.0091518411 0.0076388503         2773 
 4526000   0.52631208   -9.3976659    496.17865 0.0091357095  0.007635976         2741 
 4527000   0.52743711   -9.3795879    496.14359  0.009133046 0.0076331029         2774 
 4528000    0.5397438    -9.403049    496.39932 0.0091357354 0.0076302306         2727 
 4529000   0.53072459   -9.3876715    497.02437 0.0091452192 0.0076273606         2743 
 4530000   0.52600329   -9.4146084    497.07061 0.0091440509 0.0076244895         2713 
 4531000    0.5213382   -9.3976844    497.12924 0.0091431111  0.007621618         2778 
 4532000   0.52921864   -9.3902015    496.11137 0.0091223774   0.00761875         2745 
 4533000   0.52842807   -9.4106979    496.16573 0.0091213642 0.0076158832         2747 
 4534000   0.52814552    -9.409785    496.85432 0.0091320085 0.0076130184         2744 
 4535000   0.52607869   -9.3906235    495.56431 0.0091062901 0.0076101552         2744 
 4536000   0.51821723   -9.4065345     496.0835 0.0091138209 0.0076072914         2760 
 4537000   0.52345801    -9.393746    495.99863 0.0091102533 0.0076044311         2755 
 4538000   0.52029279   -9.4019152    496.52249 0.0091178657 0.0076015708         2740 
 4539000   0.53059374   -9.4086997    496.03634 0.0091069314  0.007598712         2745 
 4540000   0.53086501   -9.3973624    496.25406 0.0091089217 0.0075958528         2723 
 4541000   0.52676239    -9.399877     495.9036 0.0091004844 0.0075929995         2707 
 4542000    0.5253431   -9.3939221    496.04132 0.0091010076 0.0075901459         2754 
 4543000   0.52215976    -9.398577    496.45965 0.0091066779 0.0075872919         2709 
 4544000   0.53974468    -9.385506    495.85328 0.0090935535 0.0075844399         2733 
 4545000   0.52863063   -9.4143684    495.98051 0.0090938853 0.0075815896         2739 
 4546000    0.5182599   -9.4182556    496.64727 0.0091041075 0.0075787413         2739 
 4547000   0.52481475   -9.4208114    496.18614 0.0090936541  0.007575894         2706 
 4548000   0.51624793   -9.4074514     496.2835 0.0090934384 0.0075730469         2761 
 4549000   0.53550256   -9.3985582    495.84437 0.0090833951 0.0075702033         2770 
 4550000   0.52322396   -9.4007585    497.13878 0.0091051059   0.00756736         2743 
 4551000   0.52386422   -9.4027895    496.02199 0.0090826556 0.0075645162         2720 
 4552000   0.51725647   -9.3925859    496.23692 0.0090845951 0.0075616747         2726 
 4553000   0.51671405   -9.4180168    496.18299 0.0090816127 0.0075588361         2718 
 4554000   0.52062062   -9.4003703    496.56728 0.0090866505 0.0075559993         2777 
 4555000   0.50768003   -9.4055444    495.81587 0.0090709087 0.0075531631         2748 
 4556000    0.5240169   -9.4079146    495.94714 0.0090713188 0.0075503273         2741 
 4557000   0.51537547   -9.3985573    496.36334 0.0090769392 0.0075474936         2729 
 4558000   0.51454063   -9.4087008    496.07557 0.0090696865 0.0075446606         2700 
 4559000    0.5287261   -9.4110898     496.5295 0.0090759944 0.0075418291         2757 
 4560000   0.51216139    -9.410856    495.78199 0.0090603433 0.0075390005         2718 
 4561000   0.50251741   -9.3963455    495.61746 0.0090553508 0.0075361722         2783 
 4562000   0.53205456    -9.413013    496.09406 0.0090620718 0.0075333435         2753 
 4563000   0.51335527   -9.4016741    496.18516 0.0090617496 0.0075305177         2728 
 4564000   0.52171362   -9.4102731    495.84609  0.009053573 0.0075276956         2716 
 4565000   0.52778889   -9.4023625    496.04781 0.0090552722 0.0075248751         2721 
 4566000   0.53244467   -9.3997776    496.10731  0.009054375 0.0075220525         2775 
 4567000   0.51766261   -9.4046529    495.90188 0.0090486439 0.0075192348         2711 
 4568000   0.51244738   -9.3983391    496.24769 0.0090529716 0.0075164165         2739 
 4569000   0.52439175   -9.4059846    496.10707 0.0090484254 0.0075135978         2739 
 4570000   0.52390326   -9.4140973    495.80002 0.0090408465 0.0075107813         2735 
 4571000   0.51707836   -9.4100752    496.70389 0.0090553469 0.0075079703         2717 
 4572000   0.51169882    -9.423056    495.84334 0.0090376812 0.0075051589         2758 
 4573000   0.51974975   -9.4060638    495.87825  0.009036341 0.0075023461         2727 
 4574000   0.51181078   -9.4077184    497.08366 0.0090563266 0.0074995356         2754 
 4575000   0.50587757   -9.4016814     496.3697 0.0090413425 0.0074967253         2720 
 4576000   0.52282028   -9.4030988    496.68486 0.0090451059 0.0074939184         2750 
 4577000   0.51860059   -9.4072879    496.04603 0.0090314986 0.0074911139         2748 
 4578000   0.52028375   -9.4190939    496.29156 0.0090339952 0.0074883083         2728 
 4579000   0.51477734   -9.4045022    496.92652 0.0090435779  0.007485507         2744 
 4580000   0.51785771   -9.4159563    496.15925 0.0090276428  0.007482705         2753 
 4581000   0.52270026   -9.4169027     495.5744 0.0090150332 0.0074799049         2784 
 4582000    0.5151502   -9.3934542    496.50306 0.0090299552 0.0074771053         2724 
 4583000    0.5152489   -9.4026229    495.93546 0.0090176642 0.0074743075         2754 
 4584000   0.52133774   -9.4067989     495.8107  0.009013429 0.0074715099         2724 
 4585000   0.52162976   -9.4184626    495.98348 0.0090146033 0.0074687151         2733 
 4586000   0.51368013   -9.4007544        496.3 0.0090183892  0.007465925         2748 
 4587000   0.52460069   -9.4080849    495.94042 0.0090098906 0.0074631326         2720 
 4588000   0.51960286   -9.4009168    496.16632 0.0090120299  0.007460342         2752 
 4589000   0.52784315   -9.4264903    496.27556 0.0090120499 0.0074575555         2737 
 4590000   0.51958786   -9.4041263     497.1802 0.0090265106  0.007454768         2717 
 4591000   0.51418764   -9.4177593    496.01084 0.0090033187 0.0074519817         2730 
 4592000   0.52675297   -9.4369409    495.55886 0.0089931558 0.0074491965         2739 
 4593000   0.50410039     -9.41099    495.54465 0.0089909401 0.0074464141         2737 
 4594000   0.52631374   -9.4165448    496.32215 0.0090030864 0.0074436316         2751 
 4595000   0.51697593     -9.40784    496.05312 0.0089962481 0.0074408511         2742 
 4596000   0.51305943   -9.4167066    495.54617 0.0089850989 0.0074380739         2780 
 4597000   0.50476478   -9.4119484    495.84478 0.0089885575 0.0074352971         2784 
 4598000   0.51665272   -9.4179707    495.73424 0.0089845991 0.0074325195         2723 
 4599000    0.5065705   -9.4204907    496.29674  0.008992838 0.0074297466         2709 
 4600000   0.51303786   -9.4081372    496.55978 0.0089956483 0.0074269748         2767 
 4601000   0.51627101   -9.4160728    496.41338 0.0089910414 0.0074242034         2778 
 4602000   0.51195192   -9.4282433      496.426 0.0089893163 0.0074214328         2745 
 4603000   0.51707459   -9.4216256    495.82717  0.008976522 0.0074186636         2718 
 4604000   0.51705037   -9.3993904    496.27892  0.008982749 0.0074158968         2712 
 4605000   0.51962324   -9.4170505    496.49883  0.008984778 0.0074131312         2756 
 4606000   0.51106227   -9.4099381    495.51681 0.0089650602 0.0074103643         2762 
 4607000   0.50491032   -9.4149635     495.9395 0.0089707601  0.007407602         2728 
 4608000   0.51601143   -9.4310108    495.78573 0.0089660324 0.0074048399         2722 
 4609000   0.52833367   -9.4198615    495.90351 0.0089662166 0.0074020797         2727 
 4610000   0.50687456   -9.4109004    496.32907 0.0089719644 0.0073993211         2769 
 4611000   0.50401601   -9.4369915    495.44322 0.0089540088 0.0073965635         2803 
 4612000   0.51002598   -9.4285718    496.54331 0.0089719448 0.0073938054         2776 
 4613000   0.51274793   -9.4285079     495.6431 0.0089537376 0.0073910503         2794 
 4614000   0.50354458   -9.4109387    495.70975 0.0089530008 0.0073882976         2768 
 4615000   0.50958409   -9.4228021    495.01524 0.0089385201 0.0073855437         2798 
 4616000   0.51693157   -9.4308718    495.85345 0.0089517159 0.0073827931         2786 
 4617000   0.52074354   -9.4209735     495.1597 0.0089372555 0.0073800418         2797 
 4618000   0.51803579   -9.4433266    495.16404 0.0089353985 0.0073772899         2738 
 4619000   0.50512331   -9.4348778    495.72319 0.0089435517 0.0073745396         2796 
 4620000   0.51266518   -9.4161135    496.64686 0.0089582767 0.0073717919         2790 
 4621000   0.52385843    -9.409752    495.87485  0.008942416  0.007369046         2759 
 4622000   0.51313214   -9.4215061    496.04795 0.0089436021 0.0073662996         2743 
 4623000    0.5143152    -9.387551    495.60858 0.0089337476 0.0073635567         2741 
 4624000    0.5141587   -9.4081631    495.32425 0.0089266913 0.0073608165         2743 
 4625000   0.51151547    -9.421012    496.44224 0.0089449052 0.0073580729         2757 
 4626000   0.50690988   -9.4095154    495.08642 0.0089185477 0.0073553324         2718 
 4627000   0.50653159   -9.4200486    496.27885 0.0089380961 0.0073525958         2779 
 4628000   0.50687686   -9.4140141    495.78043   0.00892719 0.0073498575         2728 
 4629000   0.51659747   -9.4076767    496.53023 0.0089387599 0.0073471247         2745 
 4630000   0.50655741   -9.4314822    495.16835 0.0089123172 0.0073443907         2762 
 4631000   0.50580229    -9.417191    495.50817 0.0089165078 0.0073416571         2721 
 4632000   0.51356867   -9.4209268     496.2042  0.008927105 0.0073389263         2747 
 4633000   0.50355761   -9.4184162    496.75166 0.0089350252  0.007336196         2733 
 4634000   0.51105097   -9.4349211    495.91174 0.0089179928 0.0073334656         2763 
 4635000   0.50837521   -9.4298512    495.32478 0.0089055156 0.0073307386         2712 
 4636000   0.51213151    -9.431985    495.24434 0.0089021487 0.0073280139         2763 
 4637000   0.51808245   -9.4156481    495.04708 0.0088966839 0.0073252912         2754 
 4638000   0.51476167      -9.4182    496.35478 0.0089182619 0.0073225691         2771 
 4639000   0.51228851   -9.4255949    495.66581 0.0089039629 0.0073198476         2757 
 4640000   0.51065568   -9.4087734    495.74759 0.0089035128 0.0073171261         2747 
 4641000   0.51187555   -9.4314667    495.95952 0.0089053997 0.0073144076         2774 
 4642000   0.51364469    -9.431322    495.53216 0.0088958093 0.0073116918         2766 
 4643000   0.50859825   -9.4296562    495.46423 0.0088926742 0.0073089764         2765 
 4644000   0.50357819   -9.4318609    494.95551 0.0088816306 0.0073062609         2773 
 4645000   0.50000968   -9.4401886    496.08307 0.0088999475 0.0073035474         2763 
 4646000   0.51034074   -9.4306613    496.66906 0.0089085425 0.0073008339         2768 
 4647000   0.51383478   -9.4105275    495.90705 0.0088929605 0.0072981235         2753 
 4648000   0.51184564   -9.4179923    495.40279 0.0088820065 0.0072954147         2751 
 4649000   0.50209897   -9.4292483    495.54312 0.0088826113 0.0072927072         2769 
 4650000    0.5224157   -9.4151318    496.20854 0.0088926261 0.0072900017         2779 
 4651000   0.50634662   -9.4203075    496.03093  0.008887532 0.0072872971         2740 
 4652000   0.50253438   -9.4176258    496.59471 0.0088957206 0.0072845915         2757 
 4653000   0.50122871   -9.4267648    496.00021 0.0088831616 0.0072818887         2788 
 4654000   0.51370911   -9.4137933    496.59178 0.0088918453 0.0072791896         2755 
 4655000   0.52359065   -9.4230605    494.93234 0.0088602281 0.0072764893         2778 
 4656000   0.48660233   -9.4311543    495.45892 0.0088677499 0.0072737895         2748 
 4657000   0.50335409   -9.4220529    495.77698 0.0088715371 0.0072710914         2775 
 4658000   0.50495481   -9.4236583    495.72129 0.0088686362 0.0072683961         2796 
 4659000   0.49699537   -9.4253592    495.84013 0.0088688582  0.007265703         2805 
 4660000   0.51731328   -9.4358577    494.77076 0.0088478318 0.0072630088         2786 
 4661000   0.50777948   -9.4404341    495.64325 0.0088615328 0.0072603157         2810 
 4662000    0.5079533   -9.4328447    495.31905 0.0088538369 0.0072576243         2799 
 4663000   0.51035126     -9.42719    495.64471 0.0088577581 0.0072549356         2807 
 4664000   0.50871504   -9.4309791    495.40487 0.0088515736 0.0072522467         2805 
 4665000   0.49896478   -9.4436401    494.95123 0.0088415725  0.007249561         2792 
 4666000   0.50808706   -9.4113711    495.84574 0.0088556532 0.0072468762         2820 
 4667000   0.49894053   -9.4456339    495.40945 0.0088459655 0.0072441942         2808 
 4668000    0.5071653   -9.4281433    495.93109 0.0088533828 0.0072415119         2795 
 4669000   0.50082023   -9.4184448    495.39013 0.0088418314 0.0072388297         2772 
 4670000   0.50645698   -9.4514415    495.50471 0.0088419827  0.007236151         2820 
 4671000   0.50092944   -9.4295997    496.01833 0.0088492531 0.0072334719         2769 
 4672000   0.50157071   -9.4419264    495.69699 0.0088416273 0.0072307947         2811 
 4673000    0.5065688   -9.4426753    495.20973 0.0088310459 0.0072281198         2829 
 4674000   0.50609228   -9.4300212    494.37996 0.0088143624 0.0072254485         2789 
 4675000   0.49483691   -9.4639878    495.48356  0.008832149 0.0072227741         2799 
 4676000   0.50261015   -9.4482801    495.41898 0.0088291092  0.007220101         2789 
 4677000   0.50819119   -9.4290811    495.72531 0.0088326796 0.0072174312         2786 
 4678000   0.49591522   -9.4310447    496.24507 0.0088400504 0.0072147627         2843 
 4679000   0.49334175   -9.4509604    495.22091 0.0088199207  0.007212095         2798 
 4680000   0.49628662   -9.4457848    495.22392 0.0088180898 0.0072094275         2799 
 4681000   0.48691854   -9.4405201    495.42462 0.0088197789 0.0072067614         2809 
 4682000   0.50761943   -9.4323289    494.92562 0.0088090136 0.0072040995         2798 
 4683000   0.50427565   -9.4331855    495.53416 0.0088179614 0.0072014379         2790 
 4684000    0.4931872   -9.4296139    494.84761 0.0088038645 0.0071987765         2822 
 4685000   0.50681182    -9.439371    496.28211 0.0088275011 0.0071961186         2800 
 4686000   0.50917199    -9.427914    495.85992 0.0088181092 0.0071934634         2799 
 4687000   0.50193637   -9.4261717    495.70306 0.0088134389 0.0071908081         2775 
 4688000   0.50502601    -9.430671    495.70369 0.0088115702 0.0071881528         2806 
 4689000    0.5068201   -9.4252085    495.51637 0.0088063619 0.0071854987         2796 
 4690000   0.50447357   -9.4367558    495.70818 0.0088078922 0.0071828471         2815 
 4691000   0.50771498   -9.4392366    495.04631 0.0087942569 0.0071801967         2834 
 4692000   0.50589436   -9.4268444    495.81505 0.0088060359 0.0071775471         2777 
 4693000    0.5119731    -9.439798     495.4629 0.0087979064 0.0071749006         2818 
 4694000   0.49190394   -9.4443659    495.97702 0.0088051594 0.0071722534         2816 
 4695000   0.49939708   -9.4482089    494.97209 0.0087854472 0.0071696064         2842 
 4696000   0.50367012   -9.4428777    495.58197  0.008794399 0.0071669626         2812 
 4697000   0.49582238   -9.4320107    494.57459 0.0087746539 0.0071643198         2815 
 4698000   0.50464242    -9.433939     495.7703 0.0087939957 0.0071616775         2841 
 4699000   0.51154491   -9.4433577    495.55236 0.0087882593 0.0071590358         2835 
 4700000   0.49466535   -9.4512073    495.83774 0.0087914492 0.0071563964         2839 
 4701000   0.49616257   -9.4332785    494.94033  0.008773671 0.0071537559         2851 
 4702000    0.5078164   -9.4468073    495.62366 0.0087839156 0.0071511164         2808 
 4703000   0.51276898   -9.4542285    495.11916 0.0087731086 0.0071484801         2832 
 4704000   0.50070424   -9.4327619    495.52136 0.0087783687 0.0071458443         2844 
 4705000   0.50089005   -9.4524763    495.82791 0.0087819325 0.0071432088         2844 
 4706000   0.49721416   -9.4506178    494.88602 0.0087633876 0.0071405751         2843 
 4707000   0.50558914   -9.4619147    495.35711 0.0087698661  0.007137944         2818 
 4708000   0.50485914   -9.4367975    495.63854 0.0087729846 0.0071353137         2825 
 4709000   0.50543009   -9.4503829    495.25415 0.0087643192 0.0071326851         2862 
 4710000   0.49344326   -9.4495895      495.286 0.0087630219 0.0071300577         2836 
 4711000   0.49676747   -9.4349626    495.56482  0.008766094 0.0071274309         2793 
 4712000   0.49754984   -9.4479833    495.26088 0.0087588582 0.0071248063         2836 
 4713000   0.49888574   -9.4545808    495.89276 0.0087681724 0.0071221826         2812 
 4714000   0.49881865   -9.4478462    495.32453 0.0087562674 0.0071195597         2854 
 4715000   0.50585691   -9.4431325    495.58733  0.008759055 0.0071169373         2871 
 4716000   0.49207896   -9.4340679    495.49017 0.0087554807 0.0071143172         2822 
 4717000   0.50099881   -9.4487452    495.37706 0.0087516264 0.0071116989         2817 
 4718000   0.50831723   -9.4565595     495.2932 0.0087482903  0.007109084         2839 
 4719000   0.50412972   -9.4461059    495.52712 0.0087505672 0.0071064688         2823 
 4720000   0.49792044   -9.4392283    494.75579 0.0087350951 0.0071038536         2845 
 4721000   0.49402938   -9.4625449    494.65415 0.0087314507   0.00710124         2829 
 4722000   0.48878507   -9.4472149     496.0189 0.0087536867 0.0070986259         2831 
 4723000   0.49903752   -9.4570494    494.91931 0.0087324318 0.0070960149         2833 
 4724000   0.50693605   -9.4572332    496.10099 0.0087514288 0.0070934057         2818 
 4725000   0.50956459   -9.4285677    495.41598 0.0087374953 0.0070907963         2817 
 4726000   0.48738555    -9.447117    494.77169 0.0087242857 0.0070881906         2825 
 4727000    0.4920483   -9.4518052    495.32657 0.0087322222 0.0070855849         2842 
 4728000   0.49622538   -9.4450096    494.52646 0.0087162729 0.0070829815         2843 
 4729000   0.48513197   -9.4705337    495.32958 0.0087285822 0.0070803758         2844 
 4730000   0.49795137   -9.4491078    495.49198  0.008729598  0.007077772         2802 
 4731000   0.47936266   -9.4451674    494.51167 0.0087104853 0.0070751685         2829 
 4732000   0.48478583   -9.4485828    495.56405 0.0087271775 0.0070725673         2806 
 4733000   0.49376775   -9.4520758    495.33483 0.0087212978 0.0070699681         2832 
 4734000   0.49264673   -9.4502949    495.20557 0.0087171801 0.0070673699         2802 
 4735000   0.50220099   -9.4655083    495.32825 0.0087174982 0.0070647753         2854 
 4736000   0.49145734   -9.4456121    495.05025  0.008710766 0.0070621784         2834 
 4737000   0.49884469   -9.4519486    495.22969 0.0087120838 0.0070595858         2862 
 4738000   0.48744632   -9.4608469    494.59882 0.0086991491 0.0070569923         2828 
 4739000   0.48753306    -9.455364    495.53878 0.0087138422  0.007054399         2835 
 4740000   0.48005739   -9.4592542    494.85227 0.0086999344  0.007051809         2841 
 4741000   0.49120882   -9.4631168    494.97407 0.0087002404 0.0070492203         2849 
 4742000   0.49269925   -9.4476961    495.32923  0.008704647 0.0070466334         2824 
 4743000   0.49669364   -9.4443075    494.87376 0.0086948091 0.0070440473         2820 
 4744000   0.49675121   -9.4486945    494.77809 0.0086912959 0.0070414602         2829 
 4745000    0.4915305   -9.4560657    495.78488 0.0087071458 0.0070388753         2814 
 4746000   0.49879416   -9.4548755     495.2571  0.008696044 0.0070362936         2782 
 4747000   0.48988309   -9.4524074    495.32655 0.0086954313 0.0070337109         2793 
 4748000   0.48544759   -9.4502684    495.33722 0.0086937872 0.0070311279         2840 
 4749000   0.49189887   -9.4727366     494.9939  0.008685932 0.0070285473         2819 
 4750000   0.49064013   -9.4460991    495.20233 0.0086877603 0.0070259695         2859 
 4751000   0.49470423   -9.4575607    494.98397 0.0086821015 0.0070233933         2848 
 4752000   0.49599395   -9.4798881     494.5493 0.0086726519 0.0070208179         2835 
 4753000   0.49173126   -9.4476227    495.14199 0.0086812187 0.0070182404         2835 
 4754000   0.49615229   -9.4556505    495.66616 0.0086885808 0.0070156669         2818 
 4755000   0.49070958   -9.4706042    495.41356 0.0086823267 0.0070130941         2800 
 4756000   0.49098781   -9.4625019    494.56967 0.0086657147 0.0070105225         2843 
 4757000   0.48916685   -9.4678432    495.05979  0.008672479 0.0070079523         2826 
 4758000   0.49602357    -9.456053     494.7618 0.0086654372 0.0070053839         2865 
 4759000   0.48629633   -9.4597318    494.81419 0.0086645337 0.0070028155         2820 
 4760000   0.47632636   -9.4665634    494.17724 0.0086515623 0.0070002484         2849 
 4761000    0.4856872   -9.4652508    494.92462 0.0086628268  0.006997683         2833 
 4762000   0.50886107   -9.4365352    495.28676 0.0086673449 0.0069951232         2778 
 4763000   0.48328979   -9.4849033    495.23338 0.0086645913 0.0069925619         2847 
 4764000   0.50237204   -9.4554015    494.54212 0.0086506807 0.0069900006         2813 
 4765000   0.47834828   -9.4558965    494.41976 0.0086467255 0.0069874412         2818 
 4766000   0.49594413   -9.4694143    494.85137 0.0086524578 0.0069848856         2863 
 4767000   0.48906415   -9.4613691    495.30185 0.0086585178 0.0069823292         2831 
 4768000   0.49358678   -9.4512974    494.47888 0.0086423182 0.0069797735         2842 
 4769000   0.47549719   -9.4667476    494.44931 0.0086399893 0.0069772191         2847 
 4770000   0.48703195   -9.4608248    495.55987 0.0086575798 0.0069746651         2861 
 4771000   0.48966442   -9.4643979     495.3238 0.0086516419 0.0069721135         2856 
 4772000   0.48945433   -9.4591857    494.71444 0.0086391876 0.0069695625         2816 
 4773000   0.49935192   -9.4724678    495.04809 0.0086432029 0.0069670143         2814 
 4774000   0.48429533   -9.4607312    495.33468  0.008646395 0.0069644668         2829 
 4775000   0.48709483   -9.4473137    495.26092  0.008643297 0.0069619195         2812 
 4776000   0.48474848   -9.4678348    494.55208 0.0086291192 0.0069593748         2861 
 4777000   0.48016711   -9.4470324    494.58379 0.0086278659 0.0069568309         2821 
 4778000   0.48491506   -9.4782267    494.21239 0.0086195826 0.0069542861         2852 
 4779000   0.48920792   -9.4674512     494.7961 0.0086279574 0.0069517416         2797 
 4780000   0.47802484   -9.4553292    495.31668  0.008635228 0.0069492026         2822 
 4781000   0.48703333   -9.4618142    494.44611 0.0086182477 0.0069466626         2862 
 4782000   0.48281953   -9.4487496    494.76216 0.0086219531 0.0069441252         2837 
 4783000   0.49015049   -9.4565837    494.15639 0.0086095962 0.0069415877         2810 
 4784000   0.48020976   -9.4551134    494.68087 0.0086169326 0.0069390531         2811 
 4785000   0.47382446   -9.4748773    494.46026 0.0086112898 0.0069365177         2866 
 4786000   0.47974888   -9.4555401    495.13921 0.0086213123 0.0069339843         2820 
 4787000   0.47294421   -9.4465469     494.9337 0.0086159338  0.006931454         2804 
 4788000   0.48965949   -9.4608624    495.08575 0.0086167806 0.0069289252         2795 
 4789000   0.47556461   -9.4767346    494.79803 0.0086099748 0.0069263977         2825 
 4790000   0.48848176    -9.470181     494.5777  0.008604344   0.00692387         2823 
 4791000   0.47763532   -9.4623088    495.57859 0.0086199574 0.0069213456         2839 
 4792000   0.50059525   -9.4523878    495.41365 0.0086152902 0.0069188218         2802 
 4793000   0.48207928   -9.4599715    494.55397 0.0085985459 0.0069162996         2834 
 4794000   0.48265572   -9.4613988    494.83194 0.0086015843 0.0069137764         2820 
 4795000   0.48275102   -9.4524778    495.07928 0.0086040889 0.0069112547         2867 
 4796000   0.48894107   -9.4698767    495.24669 0.0086052038 0.0069087333         2865 
 4797000   0.47383926   -9.4773012    494.45754 0.0085897008 0.0069062145         2850 
 4798000     0.482852   -9.4543888    494.16973 0.0085829117 0.0069036971         2788 
 4799000   0.47870094   -9.4717159    494.76507 0.0085914612 0.0069011813         2834 
 4800000   0.49258116   -9.4713249    495.36317  0.008600055 0.0068986651         2841 
 4801000   0.48736621   -9.4692932    495.14513 0.0085944791 0.0068961496         2818 
 4802000    0.4868326   -9.4621512    494.32855 0.0085785185 0.0068936336         2847 
 4803000   0.49054389   -9.4728154    494.59931 0.0085814303 0.0068911222         2836 
 4804000   0.48962379   -9.4602148    495.26224 0.0085911436 0.0068886103         2828 
 4805000   0.49254125   -9.4519459    494.25385 0.0085718669 0.0068861009         2822 
 4806000   0.48946052   -9.4715335    495.52911 0.0085921956 0.0068835923         2840 
 4807000   0.47106117   -9.4798522    494.66808 0.0085754817 0.0068810854         2859 
 4808000   0.49022764   -9.4597516    495.33575 0.0085852703 0.0068785793         2866 
 4809000   0.47749671   -9.4644672    494.49422 0.0085689025 0.0068760741         2822 
 4810000   0.48204958   -9.4688379    494.65031 0.0085698252 0.0068735703         2812 
 4811000   0.48546146   -9.4705467    494.61806 0.0085674853 0.0068710657         2854 
 4812000   0.48689667   -9.4747294    494.68297  0.008566829 0.0068685659         2906 
 4813000   0.48363923   -9.4784632    494.40597 0.0085602529  0.006866065         2846 
 4814000   0.47008857   -9.4796593    494.21455 0.0085551611 0.0068635664         2845 
 4815000   0.47690536   -9.4600954    494.50079 0.0085583384 0.0068610691         2811 
 4816000   0.49057003   -9.4899397    494.45245 0.0085557248 0.0068585737         2847 
 4817000   0.48237285   -9.4674067    494.77397 0.0085595109 0.0068560778         2820 
 4818000   0.48692913   -9.4803572    494.88019 0.0085595716 0.0068535842         2836 
 4819000   0.47811697   -9.4803262    494.41866 0.0085498144 0.0068510896         2835 
 4820000   0.48022729   -9.4682954    494.97785 0.0085577083 0.0068485993         2836 
 4821000   0.48054379   -9.4623332    494.61698 0.0085496954 0.0068461079         2844 
 4822000   0.48445101   -9.4790542    494.58107 0.0085473019 0.0068436183         2865 
 4823000   0.47556876   -9.4810685    494.70257 0.0085476288 0.0068411301         2799 
 4824000   0.48200146   -9.4753348    494.24376 0.0085379311 0.0068386421         2856 
 4825000   0.48518778   -9.4859417    493.77867 0.0085281291 0.0068361551         2807 
 4826000   0.48201242   -9.4807368    495.08152  0.008548859 0.0068336684         2847 
 4827000   0.49167744   -9.4829131    494.19417 0.0085317688 0.0068311853         2875 
 4828000   0.48007504   -9.4813441    494.47017 0.0085347654 0.0068287026         2857 
 4829000   0.46946185    -9.478851    493.87062 0.0085226517 0.0068262207         2888 
 4830000   0.48476046   -9.4705134    495.10535 0.0085421903 0.0068237413         2858 
 4831000   0.49419362   -9.4872623    494.54148 0.0085306955 0.0068212637         2839 
 4832000   0.47780408   -9.4686186    494.34604 0.0085255594 0.0068187862         2828 
 4833000   0.48184309   -9.4710211    494.42417 0.0085251427 0.0068163102         2845 
 4834000   0.47462413   -9.4783269    494.11201 0.0085179977 0.0068138344         2852 
 4835000   0.47831378   -9.4693879    494.63747 0.0085252925 0.0068113608         2856 
 4836000   0.48080816   -9.4791775    494.41622 0.0085197171 0.0068088888         2827 
 4837000   0.47431609   -9.4888141    494.11791 0.0085128163 0.0068064145         2807 
 4838000   0.48058804   -9.4686546    494.89558 0.0085244519  0.006803942         2843 
 4839000    0.4797388   -9.4796234    494.32874 0.0085129287 0.0068014712         2861 
 4840000   0.48071023   -9.4562681     494.5839  0.008515563 0.0067990027         2844 
 4841000   0.47915201   -9.4821523    494.50506 0.0085124469  0.006796535         2859 
 4842000   0.47988499   -9.4904552    494.37859 0.0085085121 0.0067940694         2845 
 4843000   0.48398274   -9.4765115    494.62956 0.0085110737 0.0067916055         2877 
 4844000   0.47337917   -9.4929621    494.51039 0.0085072666 0.0067891413         2835 
 4845000   0.48032406   -9.4806818    494.62633 0.0085075048 0.0067866775         2849 
 4846000   0.48028195   -9.4759717     494.2796 0.0084997867 0.0067842142         2814 
 4847000   0.47362243   -9.4726723     494.1283 0.0084954318 0.0067817522         2830 
 4848000    0.4743364   -9.4772186     494.8174 0.0085055246 0.0067792915         2853 
 4849000   0.47555619   -9.4797139    494.01765 0.0084900263  0.006776833         2850 
 4850000   0.45936027   -9.4804468    494.56582 0.0084976944 0.0067743769         2811 
 4851000   0.47747387   -9.4862977     493.2972 0.0084741497 0.0067719204         2867 
 4852000   0.47814816   -9.4710156    494.83892 0.0084988823 0.0067694651         2825 
 4853000   0.47870894   -9.4601289    494.55848 0.0084923155 0.0067670118         2846 
 4854000   0.47748603   -9.4789613    494.82226 0.0084950944 0.0067645593         2818 
 4855000   0.47904139   -9.4889987    494.21541 0.0084829283 0.0067621093         2828 
 4856000   0.47551605    -9.475899    493.39062 0.0084670274 0.0067596584         2846 
 4857000   0.48512131   -9.4650494    494.32836 0.0084813733 0.0067572099         2815 
 4858000   0.46318418   -9.4928266    495.22538 0.0084950147 0.0067547617         2869 
 4859000   0.49090547   -9.4929925    494.55663 0.0084817973  0.006752317         2828 
 4860000   0.48448927   -9.4903809    494.66924 0.0084819828 0.0067498714         2820 
 4861000    0.4557411   -9.4822696    493.88911  0.008466864 0.0067474256         2829 
 4862000   0.48777526   -9.4657776     494.6661 0.0084784399  0.006744983         2845 
 4863000   0.46768043   -9.4886364    494.43474 0.0084727319 0.0067425411         2828 
 4864000   0.46884912   -9.4829327    494.07489 0.0084648247 0.0067401008         2838 
 4865000    0.4597388   -9.4947892    494.07297 0.0084630519 0.0067376609         2866 
 4866000   0.47432187   -9.4765701    494.62181  0.008470712 0.0067352211         2854 
 4867000   0.47942146   -9.4844677    494.88282 0.0084734404  0.006732784         2820 
 4868000   0.46705205   -9.4812487    494.74009 0.0084692566 0.0067303473         2869 
 4869000   0.47384491    -9.485139    494.76708 0.0084679791 0.0067279146         2818 
 4870000   0.47521466   -9.4751023    494.10662 0.0084549387 0.0067254803         2832 
 4871000   0.45774147      -9.4746    494.39273 0.0084580977 0.0067230485         2828 
 4872000   0.47163537    -9.479111    494.08943  0.008451174 0.0067206168         2823 
 4873000   0.46799585   -9.4867019    494.70649 0.0084599919 0.0067181854         2847 
 4874000   0.47347011   -9.4881393    494.02665 0.0084466327 0.0067157579         2861 
 4875000   0.46882604   -9.4837051    495.05899 0.0084625468 0.0067133311         2831 
 4876000   0.46520378    -9.487068    493.84076 0.0084399912 0.0067109047         2838 
 4877000   0.47539871   -9.4906137    493.62485 0.0084345713 0.0067084799         2857 
 4878000   0.45507258   -9.4913511    493.83454 0.0084364244 0.0067060551         2797 
 4879000   0.45754318   -9.4676888     494.7053 0.0084495679 0.0067036316         2878 
 4880000   0.48149766   -9.4731758    494.41905 0.0084429483 0.0067012109         2858 
 4881000   0.48133242   -9.4714906    494.57432 0.0084438694 0.0066987905         2884 
 4882000   0.46923331   -9.4656004    494.49729 0.0084408249 0.0066963721         2855 
 4883000   0.47661572   -9.4855777    494.18944 0.0084338426 0.0066939527         2873 
 4884000   0.47494209   -9.4813029    494.31113 0.0084341921 0.0066915381         2838 
 4885000   0.46805409   -9.4898716    494.51662  0.008435971  0.006689123         2815 
 4886000    0.4748931   -9.4968449    494.13475 0.0084277315 0.0066867082         2849 
 4887000   0.47736695   -9.4881051     493.7154 0.0084188562  0.006684294         2843 
 4888000   0.46809128   -9.4942614    494.70765 0.0084340502 0.0066818827         2817 
 4889000    0.4605426   -9.4786562    493.71865 0.0084154675   0.00667947         2832 
 4890000   0.46489119   -9.5010228     494.2521 0.0084228374 0.0066770598         2814 
 4891000   0.46192297   -9.4966184    494.44452 0.0084243938 0.0066746497         2835 
 4892000    0.4631599   -9.4988383    494.14614 0.0084175889 0.0066722419         2836 
 4893000   0.46266976    -9.495438    493.91171 0.0084118759 0.0066698353         2886 
 4894000   0.46041297    -9.496961    493.99799 0.0084116262 0.0066674289         2885 
 4895000   0.47355824   -9.4920038    494.11759  0.008411944 0.0066650251         2872 
 4896000   0.46774451    -9.496203    494.56914 0.0084179116 0.0066626243         2852 
 4897000   0.46349437   -9.4938393     494.5871 0.0084164982 0.0066602225         2869 
 4898000   0.46534298    -9.490093     494.0344 0.0084053763 0.0066578225         2874 
 4899000   0.46852905   -9.4843037    493.94933 0.0084022136 0.0066554249         2855 
 4900000   0.47014914   -9.4809165     495.4626 0.0084262347 0.0066530287         2833 
 4901000   0.47104276   -9.4913521    494.40899 0.0084066005 0.0066506314         2847 
 4902000   0.47014688   -9.4822719    494.13187 0.0084001746 0.0066482361         2862 
 4903000   0.47947381   -9.5096803    494.17551  0.008399203 0.0066458419         2856 
 4904000   0.46671034   -9.4750015    494.42365  0.008401707 0.0066434502         2878 
 4905000   0.46158692     -9.50001    494.24626 0.0083969803 0.0066410594         2862 
 4906000   0.47123653   -9.5032434    494.26153  0.008395528 0.0066386692         2886 
 4907000   0.47333325   -9.4971364    494.25497 0.0083937057 0.0066362805         2865 
 4908000   0.46285927   -9.5036048    494.08764 0.0083891544 0.0066338914         2889 
 4909000   0.47216643   -9.4891484    494.16883 0.0083888238 0.0066315047         2897 
 4910000   0.47027068   -9.5035548    494.37878 0.0083906786  0.006629119         2875 
 4911000   0.46518007   -9.4965088    493.99578  0.008382471 0.0066267325         2828 
 4912000   0.46979097   -9.4809033    493.87086 0.0083786451   0.00662435         2886 
 4913000   0.46558217   -9.4985656    494.55964 0.0083886227 0.0066219689         2882 
 4914000   0.47552722   -9.4807299    494.45756 0.0083851846 0.0066195893         2892 
 4915000   0.46553668   -9.4907537    493.49003 0.0083670741 0.0066172087         2844 
 4916000   0.46282447   -9.5039546    494.29942 0.0083790925 0.0066148289         2855 
 4917000   0.47517886   -9.4850159    494.27376 0.0083769535 0.0066124521         2868 
 4918000   0.47116067   -9.4872495    493.67404 0.0083650881 0.0066100766         2861 
 4919000   0.45993698   -9.5117035    493.10001 0.0083536629 0.0066076998         2866 
 4920000    0.4576843   -9.4962483    493.94037 0.0083661988 0.0066053249         2869 
 4921000   0.45993238   -9.5003595    494.91151 0.0083809441 0.0066029523         2870 
 4922000   0.46655598   -9.4948196    494.03565 0.0083644122 0.0066005793         2847 
 4923000   0.46934721   -9.4992721    493.85687 0.0083596869 0.0065982077         2846 
 4924000   0.46241763   -9.5011601    494.49225 0.0083687424 0.0065958394         2819 
 4925000    0.4665236    -9.498277    493.62895 0.0083524357 0.0065934693         2843 
 4926000   0.45267951   -9.5036824    493.37617 0.0083464638 0.0065911015         2879 
 4927000   0.47525084    -9.485328    493.31451 0.0083437269 0.0065887339         2856 
 4928000   0.46747072   -9.5041181    494.17514 0.0083565872 0.0065863688         2877 
 4929000   0.47039644   -9.5030219    493.73388 0.0083474316 0.0065840028         2873 
 4930000    0.4660125   -9.5123592    494.24685 0.0083544092   0.00658164         2860 
 4931000   0.45828991   -9.5048618    493.53935 0.0083407583 0.0065792787         2830 
 4932000   0.45709753   -9.5135384    493.94374    0.0083459 0.0065769164         2872 
 4933000   0.46759571   -9.4944266    492.97032  0.008327764 0.0065745565         2896 
 4934000   0.45999143   -9.5055316    493.87695 0.0083413888 0.0065721986         2871 
 4935000   0.45597498   -9.4975141    493.71889 0.0083370295 0.0065698418         2837 
 4936000   0.46132832   -9.5063227    494.01759 0.0083403834 0.0065674855         2861 
 4937000   0.46680579   -9.4836413    494.10669  0.008340198 0.0065651313         2856 
 4938000    0.4675134   -9.4982484    493.71482 0.0083318958 0.0065627777         2878 
 4939000   0.45519983   -9.5163189     494.0266 0.0083354694  0.006560425         2868 
 4940000   0.45223428   -9.5132572    493.97707 0.0083329465 0.0065580722         2895 
 4941000   0.46034828   -9.5039111    494.05443 0.0083325648  0.006555721         2821 
 4942000   0.45825727    -9.487131    494.57433 0.0083396454 0.0065533728         2843 
 4943000   0.46482954   -9.5049824    493.57333 0.0083210825 0.0065510248         2850 
 4944000    0.4706358   -9.4969841    494.08078 0.0083279527 0.0065486778         2860 
 4945000    0.4634683   -9.5099088    493.93716 0.0083238484  0.006546332         2866 
 4946000   0.44989431   -9.5123877    494.14773 0.0083257132 0.0065439871         2863 
 4947000   0.46314251   -9.5016868    493.41031 0.0083116082 0.0065416417         2899 
 4948000   0.46101915   -9.5047614     493.5303 0.0083119493 0.0065392998         2877 
 4949000   0.45168812   -9.5011012    494.17083 0.0083210553 0.0065369588         2852 
 4950000   0.47147817   -9.4995498    493.41879 0.0083067136 0.0065346184         2831 
 4951000   0.45838374   -9.5094972    493.98518 0.0083145692 0.0065322805         2848 
 4952000   0.46590332   -9.5039877     493.4316 0.0083035744 0.0065299427         2880 
 4953000   0.46415584   -9.5055955     493.6431 0.0083054562 0.0065276067         2881 
 4954000   0.47197966   -9.5111022    493.80439 0.0083064928 0.0065252699         2838 
 4955000   0.45001295   -9.4915471    494.04787 0.0083089114 0.0065229357         2871 
 4956000    0.4573609   -9.5054038    494.41852 0.0083134672 0.0065206018         2848 
 4957000   0.45668184   -9.5017554    493.91438 0.0083033148 0.0065182697         2882 
 4958000   0.46546161   -9.4996844     493.3505 0.0082921625 0.0065159396         2844 
 4959000    0.4516856   -9.4990837    493.78818 0.0082978454 0.0065136098         2842 
 4960000   0.46513142   -9.5030092    494.27521  0.008304355 0.0065112814         2888 
 4961000    0.4664892   -9.4986607    493.75157 0.0082938851 0.0065089538         2880 
 4962000   0.45801034   -9.5195076    493.70556 0.0082914409 0.0065066263         2875 
 4963000   0.45031737   -9.5274892    493.63292 0.0082885506 0.0065043001         2892 
 4964000   0.45499986   -9.5169824    494.35575 0.0082990154 0.0065019742         2856 
 4965000   0.46531726    -9.516723    493.99278 0.0082912518   0.00649965         2856 
 4966000    0.4593084   -9.5108855    494.26027 0.0082940708 0.0064973284         2836 
 4967000   0.45858579   -9.5156037    494.12219 0.0082900844 0.0064950077         2867 
 4968000   0.45913923   -9.5151546    493.90434 0.0082847614  0.006492687         2831 
 4969000   0.45789744   -9.5154564    494.04216 0.0082854055 0.0064903678         2838 
 4970000   0.45846836   -9.5038253    493.41158 0.0082731652 0.0064880514         2860 
 4971000   0.45944997   -9.5089302    493.41833 0.0082716142 0.0064857361         2835 
 4972000   0.44714462   -9.4986561    494.06983   0.00828087 0.0064834219         2807 
 4973000   0.45351374   -9.5127663    493.07412 0.0082625197 0.0064811075         2871 
 4974000   0.46199279   -9.5113418    493.81455 0.0082732635 0.0064787938         2877 
 4975000   0.46385935   -9.5105337    494.35087 0.0082805841 0.0064764804         2827 
 4976000   0.45419836   -9.4925813     493.6188   0.00826666 0.0064741689         2844 
 4977000   0.44788736   -9.5129784    493.96166 0.0082707397 0.0064718594         2844 
 4978000    0.4610956   -9.5199057    494.15205 0.0082722655 0.0064695509         2856 
 4979000   0.44852844   -9.5044485    493.05103 0.0082521763 0.0064672437         2891 
 4980000   0.45351618   -9.5027945     493.4956 0.0082579586 0.0064649373         2864 
 4981000   0.45224212    -9.509764    493.62448 0.0082584569 0.0064626328         2882 
 4982000   0.45425666   -9.4982249    493.68281 0.0082577748 0.0064603285         2889 
 4983000   0.45682666   -9.5019168    493.55642  0.008254004 0.0064580251         2883 
 4984000   0.45961038   -9.5052244    493.80048 0.0082564286 0.0064557231         2841 
 4985000   0.45586797   -9.5081944    493.44175 0.0082487755 0.0064534221         2847 
 4986000   0.45788423   -9.5128219    493.57271 0.0082493099 0.0064511223         2874 
 4987000   0.44980695   -9.5204083    493.91292 0.0082533407 0.0064488248         2838 
 4988000   0.45421531    -9.508939    493.90707 0.0082515883 0.0064465264         2856 
 4989000   0.45538608   -9.5115305    493.46168 0.0082424948 0.0064442313         2842 
 4990000   0.45847287   -9.4872154    493.85484 0.0082474088 0.0064419358         2846 
 4991000   0.45478758   -9.5241618    494.29179 0.0082530519 0.0064396419         2858 
 4992000   0.45428707   -9.5127872    493.35923 0.0082358312 0.0064373485         2854 
 4993000   0.45576413    -9.491494     494.1902 0.0082480506 0.0064350575         2879 
 4994000   0.44661544   -9.4991486    493.03886  0.008227187 0.0064327647         2829 
 4995000   0.45598426   -9.5213507    493.85628 0.0082391771 0.0064304755         2912 
 4996000   0.46909401   -9.5032393    494.23127 0.0082437828 0.0064281882         2876 
 4997000   0.44395935   -9.5084031     492.7584 0.0082175705 0.0064259004         2860 
 4998000   0.45684492   -9.5289162    493.39247 0.0082264984 0.0064236158         2871 
 4999000   0.46267245   -9.4992422    493.18554 0.0082214032 0.0064213308         2839 
 5000000   0.44949768   -9.5122267    493.86093 0.0082310155  0.006419047         2859 
 5001000   0.45263712   -9.5033285    492.97194 0.0082145562 0.0064167627         2840 
 5002000   0.45352905   -9.5182369    493.65254 0.0082242527 0.0064144809         2865 
 5003000   0.45484791   -9.5184329    493.86357 0.0082261238 0.0064121982         2817 
 5004000   0.45266472   -9.5160249    493.52464 0.0082188356 0.0064099175         2843 
 5005000   0.45071563   -9.5057867    494.38904 0.0082315858 0.0064076398         2838 
 5006000   0.45864524    -9.516688    493.66654 0.0082179142 0.0064053619         2831 
 5007000   0.45138987   -9.5258606    492.97594 0.0082047789 0.0064030856         2872 
 5008000   0.45608093   -9.5253717    493.05217  0.008204409 0.0064008085         2801 
 5009000   0.44755065   -9.5201901    494.08714 0.0082199897 0.0063985335         2899 
 5010000   0.45369429   -9.5235612    493.63668 0.0082108562 0.0063962589         2862 
 5011000    0.4569375   -9.5236232    493.68634 0.0082100435 0.0063939857         2849 
 5012000   0.44934582    -9.533089    493.65993 0.0082079665 0.0063917139         2870 
Loop time of 12809.2 on 48 procs for 5000000 steps with 4000 atoms

Performance: 67451.425 tau/day, 390.344 timesteps/s
99.4% CPU use with 48 MPI tasks x no OpenMP threads

MPI task timing breakdown:
Section |  min time  |  avg time  |  max time  |%varavg| %total
---------------------------------------------------------------
Pair    | 882.38     | 961.46     | 1021.3     | 116.6 |  7.51
Neigh   | 84.518     | 88.272     | 92.641     |  21.9 |  0.69
Comm    | 820.18     | 897.72     | 991.59     | 151.1 |  7.01
Output  | 16.55      | 16.555     | 16.665     |   0.4 |  0.13
Modify  | 10673      | 10720      | 10781      |  23.6 | 83.69
Other   |            | 125.5      |            |       |  0.98

Nlocal:        83.3333 ave          93 max          73 min
Histogram: 2 1 5 6 7 8 8 2 5 4
Nghost:        2317.33 ave        2376 max        2275 min
Histogram: 2 7 10 7 5 6 4 3 3 1
Neighs:        15757.2 ave       18859 max       12912 min
Histogram: 3 3 4 8 9 8 3 6 1 3
FullNghs:      31514.8 ave       36935 max       26776 min
Histogram: 2 4 6 10 8 4 5 4 2 3

Total # of neighbors = 1512708
Ave neighs/atom = 378.17700
Neighbor list builds = 266403
Dangerous builds = 0

#clear
#
#next RN
#
#jump SELF
Total wall time: 3:33:32
