
units lj                  # Use reduced LJ style units
atom_style atomic         # Uncharged point particles
atom_modify map hash      # Needed for indexing of clusters etc
                          # Used to be able to find where atoms are in relation to each other.

lattice fcc 1.0 spacing 1 1 1
Lattice spacing in x,y,z = 1.5874011 1.5874011 1.5874011
region box block 0 10 0 10 0 10 units lattice
create_box 2 box
Created orthogonal box = (0.0000000 0.0000000 0.0000000) to (15.874011 15.874011 15.874011)
  3 by 4 by 4 MPI processor grid
create_atoms 1 box
Created 4000 atoms
  using lattice units in orthogonal box = (0.0000000 0.0000000 0.0000000) to (15.874011 15.874011 15.874011)
  create_atoms CPU = 0.002 seconds
set type 1 type/fraction 2 0.32 78393
Setting atom values ...
  1310 settings made for type/fraction
mass 1 1.0
mass 2 1.0
pair_style lj/cut  3.5
pair_modify tail  yes
pair_coeff 1  1  1.0  1.0   # Intearaction between 1 and 1 set with epsilon = 1 and sigma = 1
pair_coeff 1  2  1.5  0.8
pair_coeff 2  2  0.5  0.88

write_data data.0
System init for write_data ...
Neighbor list info ...
  update every 1 steps, delay 10 steps, check yes
  max neighbors/atom: 2000, page size: 100000
  master list distance cutoff = 3.8
  ghost atom cutoff = 3.8
  binsize = 1.9, bins = 9 9 9
  1 neighbor lists, perpetual/occasional/extra = 1 0 0
  (1) pair lj/cut, perpetual
      attributes: half, newton on
      pair build: half/bin/atomonly/newton
      stencil: half/bin/3d
      bin: standard
WARNING: Not all mixed pair coeffs generated from mixing. Use write_data with 'pair ij' option to store all pair coeffs. (../write_data.cpp:312)


#############################
#   M E L T   S Y S T E M   #
#############################

velocity all create 2.4 1741580 mom yes dist gaussian # Assign velocities
                                                    # Temperature 2.4, random number seed, zero linear momentum
                                                                                # Gaussian distribution

timestep 0.002   # simulation timestep
thermo 1000       # output thermodynamic data every 1000 steps bf 100

# Define a fix  in this case with index 1 applied to all
# particles in the simulation. This fix is for simulations
# in the anisotropic NPT ensemble. Note that we use the MTK
# correction.
fix 1 all npt temp 2.4 2.4 0.1 iso 5.68 5.68 0.5 mtk yes tchain 5 pchain 5 # Use NPT ensemble
                                                                         # Set temperature and pressure and damping
                                                                         # Numbers of thermostats in chain and in barostat
run 10000          # run for 10000 steps
Per MPI rank memory allocation (min/avg/max) = 3.642 | 3.644 | 3.648 Mbytes
Step Temp E_pair E_mol TotEng Press Volume 
       0          2.4   -6.3097323            0   -2.7106323   -4.0355096         4000 
    1000    2.3840016   -4.9912317            0   -1.4161233    5.6668411    4098.7572 
    2000    2.3891963   -4.9648202            0   -1.3819217     5.320418    4145.6716 
    3000     2.369262   -5.0280203            0   -1.4750157    6.0882946    4040.9202 
    4000    2.3914541   -5.0554924            0    -1.469208    5.4372935    4089.3013 
    5000    2.3898289    -4.924134            0   -1.3402867    5.8458804    4122.6431 
    6000    2.3794218   -4.9651814            0   -1.3969411    5.2733088    4143.7578 
    7000    2.3720939   -5.0029204            0   -1.4456692    5.6295273    4092.4966 
    8000    2.4396612   -4.9906678            0    -1.332091    5.7888835    4097.9529 
    9000     2.382714   -5.0413779            0   -1.4682004    5.6881788    4076.4366 
   10000    2.3426107   -4.9569449            0   -1.4439073    5.4834751    4121.9346 
Loop time of 2.45514 on 48 procs for 10000 steps with 4000 atoms

Performance: 703830.869 tau/day, 4073.095 timesteps/s
99.6% CPU use with 48 MPI tasks x no OpenMP threads

MPI task timing breakdown:
Section |  min time  |  avg time  |  max time  |%varavg| %total
---------------------------------------------------------------
Pair    | 1.0454     | 1.1254     | 1.2599     |   3.9 | 45.84
Neigh   | 0.20657    | 0.21419    | 0.23182    |   1.2 |  8.72
Comm    | 0.72015    | 0.85309    | 0.95675    |   5.7 | 34.75
Output  | 0.0002411  | 0.00024718 | 0.00030548 |   0.0 |  0.01
Modify  | 0.20189    | 0.24743    | 0.32487    |   6.0 | 10.08
Other   |            | 0.01474    |            |       |  0.60

Nlocal:        83.3333 ave          95 max          75 min
Histogram: 4 5 2 7 9 13 3 3 1 1
Nghost:        1601.69 ave        1626 max        1577 min
Histogram: 2 3 1 10 7 8 8 6 1 2
Neighs:        9255.77 ave       10514 max        8210 min
Histogram: 4 4 5 7 4 13 4 2 3 2

Total # of neighbors = 444277
Ave neighs/atom = 111.06925
Neighbor list builds = 912
Dangerous builds = 239

# Equilibrate just above the melting temperature to avoid step fn in T

fix 1 all npt temp 1.25 1.25 0.1 iso 5.68 5.68 0.5 mtk yes tchain 5 pchain 5
run 2000
Per MPI rank memory allocation (min/avg/max) = 3.643 | 3.645 | 3.649 Mbytes
Step Temp E_pair E_mol TotEng Press Volume 
   10000    2.3426107   -4.9569449            0   -1.4439073    5.4834751    4121.9346 
   11000     1.232537   -6.8586902            0   -5.0103469     5.613334    3302.1562 
   12000    1.2478827   -6.9504475            0   -5.0790913    5.5470335    3276.0957 
Loop time of 0.588819 on 48 procs for 2000 steps with 4000 atoms

Performance: 586938.019 tau/day, 3396.632 timesteps/s
99.6% CPU use with 48 MPI tasks x no OpenMP threads

MPI task timing breakdown:
Section |  min time  |  avg time  |  max time  |%varavg| %total
---------------------------------------------------------------
Pair    | 0.24389    | 0.27512    | 0.3374     |   2.8 | 46.72
Neigh   | 0.037062   | 0.039754   | 0.046634   |   0.8 |  6.75
Comm    | 0.15845    | 0.22511    | 0.26182    |   3.5 | 38.23
Output  | 5.1637e-05 | 5.3452e-05 | 6.5462e-05 |   0.0 |  0.01
Modify  | 0.039102   | 0.044051   | 0.049398   |   1.5 |  7.48
Other   |            | 0.004731   |            |       |  0.80

Nlocal:        83.3333 ave          91 max          74 min
Histogram: 1 3 2 2 11 10 4 10 3 2
Nghost:        1885.23 ave        1908 max        1858 min
Histogram: 2 3 1 5 6 9 11 5 3 3
Neighs:        11662.5 ave       12704 max       10150 min
Histogram: 1 2 3 7 3 8 6 8 3 7

Total # of neighbors = 559801
Ave neighs/atom = 139.95025
Neighbor list builds = 142
Dangerous builds = 7

#############################
# L I N E A R  Q U E N C H  #
#############################

# Define solid atoms. This closely follows ten Wolde  Ruiz-Montero and Frenkel  Faraday Discuss  1996  104  93-110
# Compute components of the per-atom q6 vector
compute q6 all orientorder/atom degrees 1 6 components 6 nnn NULL cutoff 1.3 # compute the Q6 parameter.
                                                                             # Use all neighbours within 1.3 unit cell.

# get number of connections
compute coord_number all coord/atom orientorder q6 0.5

# An atom is solid if it has 8 or more connections (of a possible 14)
variable is_solid atom c_coord_number>=8
group solid dynamic all var is_solid    # Must be dynamic to update
dynamic group solid defined

# do clustering
compute cluster solid cluster/atom 1.3 # Create a cluster where all atoms within are solid and max 1.3 units from another member

# define chunks one chunk per cluster
compute clus_chunks solid chunk/atom c_cluster nchunk every compress yes  # Says which atoms are in which chunk

# count the size of each chunk
compute size_chunks solid property/chunk clus_chunks count


# Find the maximum entry in the vector of chunk sizes
variable max_n equal max(c_size_chunks)


# Thermo style which includes this variable
# thermo_style custom step temp pe vol v_max_n

thermo ${N}  # Print the thermo information every 100 steps
thermo 1000  

# Reset the npt fix at a lower temperature (below freezing)
fix 1  all npt temp  ${temp} ${temp}  0.1  iso  5.68  5.68  0.5  mtk yes tchain  5  pchain  5
fix 1  all npt temp  0.45 ${temp}  0.1  iso  5.68  5.68  0.5  mtk yes tchain  5  pchain  5
fix 1  all npt temp  0.45 0.45  0.1  iso  5.68  5.68  0.5  mtk yes tchain  5  pchain  5

dump dmp2 all dcd ${N} traj.dcd
dump dmp2 all dcd 1000 traj.dcd


compute msd all msd com yes
variable twopoint equal c_msd[4]/6/(step*dt+1.0e-6)
fix 9 all vector 10 c_msd[4]
variable fit equal slope(f_9)/6/(10*dt)
thermo_style custom step temp pe c_msd[4] v_twopoint v_fit v_max_n

fix 1 all npt temp 1.25 ${temp} 0.1 iso 5.68 5.68 0.5 mtk yes tchain 5 pchain 5
fix 1 all npt temp 1.25 0.45 0.1 iso 5.68 5.68 0.5 mtk yes tchain 5 pchain 5
run 500000 # 5000000  # Run for this many steps
Neighbor list info ...
  update every 1 steps, delay 10 steps, check yes
  max neighbors/atom: 2000, page size: 100000
  master list distance cutoff = 3.8
  ghost atom cutoff = 3.8
  binsize = 1.9, bins = 8 8 8
  4 neighbor lists, perpetual/occasional/extra = 1 3 0
  (1) pair lj/cut, perpetual
      attributes: half, newton on
      pair build: half/bin/atomonly/newton
      stencil: half/bin/3d
      bin: standard
  (2) compute orientorder/atom, occasional
      attributes: full, newton on
      pair build: full/bin/atomonly
      stencil: full/bin/3d
      bin: standard
  (3) compute coord/atom, occasional
      attributes: full, newton on
      pair build: full/bin/atomonly
      stencil: full/bin/3d
      bin: standard
  (4) compute cluster/atom, occasional
      attributes: full, newton on
      pair build: full/bin/atomonly
      stencil: full/bin/3d
      bin: standard
Per MPI rank memory allocation (min/avg/max) = 9.815 | 9.819 | 9.824 Mbytes
Step Temp PotEng c_msd[4] v_twopoint v_fit v_max_n 
   12000    1.2478827   -6.9504475 3.0095044e-30 2.0899335e-32 8.3333333e+20            1 
   13000    1.2582542   -6.9233817   0.48160177 0.0030871907  0.039512501            3 
   14000      1.23082   -6.9340883   0.91982088 0.0054751241    0.0376389            2 
   15000    1.2526272   -6.9885553    1.3816298 0.0076757207   0.03758927            2 
   16000    1.2649481   -7.0024175    1.8085118 0.0094193319  0.037225817            1 
   17000    1.2558602   -6.9520653     2.269927  0.011127093  0.037289224            1 
   18000    1.2462385   -6.9378089     2.736211  0.012667643  0.037610669            2 
   19000    1.2272832   -6.9054796    3.1204061  0.013685991  0.037231835            1 
   20000    1.2518749   -6.9948194    3.5588253  0.014828438  0.036922385            1 
   21000    1.2224941   -6.9820708    3.9736187  0.015768328  0.036831606            2 
   22000    1.2764537   -6.9448001    4.4137215  0.016718642  0.036600785            1 
   23000    1.2319353   -6.9507281    4.8324874  0.017509012   0.03644165            1 
   24000    1.2515043   -6.9664405    5.2252778  0.018143325  0.036253241            2 
   25000    1.2627541   -6.9874252    5.7032565  0.019010854  0.036178472            1 
   26000    1.2159085   -6.9758124    6.2184681  0.019930987  0.036224218            1 
   27000    1.2100066   -6.9710903    6.6229204  0.020441112  0.036350178            2 
   28000    1.2055921   -6.9829179    7.0063393    0.0208522   0.03639885            1 
   29000    1.2267233   -6.9878988    7.3755116  0.021193998  0.036290344            1 
   30000    1.2326594   -6.9990309    7.7896602  0.021637945  0.036103853            2 
   31000     1.185783    -7.023353    8.3277855   0.02238652  0.036098077            2 
   32000    1.1941288   -7.0187502    8.9057515  0.023192061  0.036212679            1 
   33000    1.1874515   -7.0058315    9.3656333  0.023650589  0.036390428            2 
   34000    1.2267052   -7.0181531    9.7561292  0.023912081  0.036537297            1 
   35000    1.1862053   -6.9847896    10.165838  0.024204377   0.03660579            1 
   36000    1.2232171   -7.0421551    10.526115  0.024366006  0.036597608            2 
   37000    1.2079573    -7.036022    10.914649  0.024582543  0.036545252            2 
   38000    1.2032773   -6.9980001    11.322647  0.024830365  0.036495515            2 
   39000     1.211381   -7.0343054    11.758935   0.02512593  0.036426403            1 
   40000    1.2085703   -7.0207903    12.167318  0.025348578    0.0363588            1 
   41000    1.2134739   -7.0403669    12.534894  0.025477426  0.036273353            2 
   42000    1.1835511   -7.0726152    12.902006  0.025599218   0.03617132            2 
   43000    1.2290844   -7.0404866    13.360098  0.025891663  0.036079917            1 
   44000    1.2181921    -7.052532     13.81269  0.026160398  0.036016618            1 
   45000    1.1845026   -7.0649716    14.164659  0.026230849  0.035961778            1 
   46000    1.1952714   -7.0258572    14.625411   0.02649531  0.035908774            1 
   47000     1.209137    -7.065268    15.103002  0.026778373  0.035860407            1 
   48000    1.1859901   -7.0512052    15.492496  0.026896694  0.035816334            1 
   49000    1.2030335   -7.0714434    15.861349  0.026975083  0.035764111            1 
   50000    1.1804743    -7.099004    16.243323  0.027072204  0.035706792            2 
   51000    1.1843927   -7.1274962     16.77041  0.027402631  0.035661045            2 
   52000     1.181784   -7.0908392    17.197155  0.027559543  0.035623851            2 
   53000    1.1784004   -7.0399194    17.645201  0.027744027  0.035603021            1 
   54000    1.1840839   -7.1375275    17.969851  0.027731251  0.035582295            2 
   55000    1.1540976   -7.0748903    18.497125  0.028025947   0.03555815            2 
   56000    1.2100549   -7.1264557    18.964054  0.028220318  0.035553115            3 
   57000    1.1826816   -7.1228331    19.351089  0.028291066   0.03555858            2 
   58000    1.1702218   -7.0870869    19.756004  0.028385062  0.035557093            1 
   59000    1.1736027   -7.0960704    20.004895  0.028255502  0.035516121            2 
   60000     1.164781   -7.0757116    20.441773  0.028391352   0.03545907            1 
   61000    1.1678186   -7.1216633    20.755956  0.028355131  0.035412834            1 
   62000    1.1744929   -7.1051191    21.234662  0.028541211  0.035376525            1 
   63000    1.1568944   -7.1078003      21.6805   0.02867791  0.035342953            1 
   64000     1.155533   -7.0646137    22.147209  0.028837512  0.035316774            1 
   65000    1.1696161   -7.1142716    22.476008  0.028815395  0.035284479            1 
   66000    1.1922009   -7.2120221    22.763928  0.028742334  0.035240562            1 
   67000    1.1770218   -7.1772351    23.204242  0.028860997  0.035194566            1 
   68000    1.1461688   -7.1400433     23.75729  0.029114326  0.035166312            2 
   69000    1.1522365   -7.1238074    24.180269  0.029203223  0.035148456            2 
   70000     1.154551    -7.145732    24.614047  0.029302437  0.035128774            1 
   71000    1.1988047   -7.1329488    25.072371  0.029427665  0.035120168            1 
   72000    1.1701747   -7.1236813    25.390505  0.029387159  0.035098898            1 
   73000    1.1654991   -7.1647499    25.490684  0.029098954  0.035060322            1 
   74000    1.1632642   -7.1888564    25.874581  0.029138042  0.035001568            3 
   75000    1.1456958   -7.1700106    26.225116  0.029139017  0.034947351            1 
   76000    1.1464331   -7.1683776    26.564889  0.029128168  0.034882367            2 
   77000    1.1194324   -7.1379652    26.858398   0.02906753  0.034800875            3 
   78000    1.1437821   -7.1837997     27.10584  0.028959231  0.034720888            1 
   79000    1.1523701   -7.1561693    27.634425  0.029150237  0.034641627            3 
   80000    1.1235398    -7.179962     27.83741  0.028997302  0.034559258            3 
   81000    1.1265914   -7.1448061    28.194698  0.029006891  0.034477452            2 
   82000    1.1538894   -7.1646708    28.555491  0.029019808  0.034396792            1 
   83000    1.1353434   -7.1849551    28.819737  0.028935479  0.034306685            1 
   84000    1.1408848   -7.1976608    29.075369  0.028844612  0.034212854            1 
   85000    1.1368968   -7.1594505    29.621826  0.029041005  0.034131421            2 
   86000    1.1050143   -7.1758254    29.919578  0.028991839  0.034057052            2 
   87000    1.1047123   -7.1972506    30.243928   0.02896928  0.033979284            1 
   88000    1.1414033   -7.2203457    30.569085  0.028947997  0.033897156            1 
   89000    1.1392548   -7.1912889    30.769622  0.028810507  0.033809558            1 
   90000     1.138744   -7.2217116    30.967255  0.028673384  0.033711335            1 
   91000     1.127277   -7.1970697    31.288798  0.028652745  0.033611583            1 
   92000    1.1117604   -7.2385282    31.712135   0.02872476  0.033521408            2 
   93000    1.0879193   -7.1794541    31.960357  0.028638312  0.033423964            1 
   94000    1.1417339   -7.1952489    32.195463  0.028542077  0.033323687            2 
   95000    1.1088036   -7.2374228    32.399076  0.028420242  0.033222193            2 
   96000    1.1358301   -7.2134374    32.849951  0.028515582  0.033118869            1 
   97000    1.0874551   -7.1997357    33.103513  0.028439444  0.033018626            1 
   98000    1.1335774   -7.2086867    33.348295  0.028357393  0.032916822            1 
   99000    1.1067871    -7.254913    33.672055  0.028343481  0.032812191            2 
  100000    1.1199063   -7.2395692    33.958853  0.028299044  0.032709448            2 
  101000    1.0887497   -7.2436585     34.27878  0.028282821  0.032608863            2 
  102000    1.0835322   -7.2547764    34.556512  0.028232444  0.032508233            3 
  103000    1.0853888   -7.2417564    34.978537  0.028299787   0.03240995            2 
  104000    1.0948095   -7.2495234    35.255234  0.028249386  0.032319388            2 
  105000    1.0879112   -7.2764121    35.402429  0.028097165  0.032222024            1 
  106000    1.0710296   -7.2447071    35.883296  0.028210138  0.032125843            2 
  107000    1.0948151   -7.2744933    36.009488  0.028044773  0.032030047            1 
  108000    1.0851544   -7.3129997     36.35761  0.028053711  0.031937876            2 
  109000    1.1070663   -7.2884112    36.610457  0.027989646   0.03184583            1 
  110000    1.0902897   -7.2748132    36.862495  0.027926132  0.031753737            2 
  111000    1.0676875   -7.2684831     37.13914  0.027882237  0.031659526            2 
  112000    1.1062212   -7.2858759     37.56061  0.027946882  0.031569587            2 
  113000    1.0824465   -7.2995113    37.899945  0.027949812    0.0314834            3 
  114000    1.1034624   -7.3157334    38.237966   0.02795173  0.031404694            2 
  115000    1.0943661   -7.3283018    38.496161  0.027895769  0.031326724            2 
  116000       1.1022   -7.3223744    38.746435  0.027835083  0.031245671            1 
  117000    1.0636693   -7.3081136    39.111171  0.027856959  0.031163791            1 
  118000    1.0842466   -7.2902536    39.357748   0.02779502  0.031082782            3 
  119000    1.0730192   -7.3397374    39.525121  0.027678656  0.031001591            3 
  120000    1.0825533   -7.3099102    39.958747   0.02774913  0.030923573            1 
  121000    1.0789461   -7.3292707    40.420862  0.027838059  0.030850092       -1e+20 
  122000    1.0547178   -7.3158245    40.807935  0.027874272  0.030779535            1 
  123000    1.0812596   -7.3464804    41.061121  0.027819188  0.030709316            1 
  124000    1.0461276    -7.358604     41.16791  0.027666606  0.030637039            1 
  125000    1.0588022   -7.3456899    41.432318  0.027621545  0.030564302            2 
  126000     1.046749   -7.3256009    41.606295  0.027517391  0.030488941            3 
  127000    1.0497894   -7.3111626    41.940053   0.02751972  0.030412608            1 
  128000    1.0682426    -7.305351    42.227422  0.027491811  0.030337709            3 
  129000    1.0692645   -7.3010969     42.48018  0.027441977  0.030262706            4 
  130000    1.0651304   -7.3372006     42.48079  0.027231275  0.030182518            2 
  131000    1.0566462   -7.3567354    42.688389  0.027155464   0.03009735            1 
  132000    1.0339881    -7.425658    42.842376  0.027046955   0.03001157            1 
  133000    1.0197738   -7.3395703    43.213274  0.027075986  0.029925592            2 
  134000     1.043118   -7.3999471    43.359646  0.026964954  0.029841733            1 
  135000    1.0527177   -7.3592879     43.67508  0.026959926  0.029758277            1 
  136000    1.0439407   -7.4305532    43.785494  0.026829347  0.029676711            1 
  137000    1.0553068   -7.3715094    44.205203  0.026888809  0.029595662            2 
  138000    1.0484714   -7.3896819    44.584134  0.026922786  0.029517553            2 
  139000    1.0645352   -7.3776175    44.584266  0.026729176  0.029438814            2 
  140000    1.0262959   -7.4012351    44.874099  0.026710773  0.029359077            1 
  141000    1.0412616   -7.4051546    45.264723    0.0267522  0.029279767            2 
  142000    1.0338158   -7.3632786    45.540572  0.026725688  0.029200462            1 
  143000    1.0554542   -7.3933578    45.615046  0.026582195  0.029122586            2 
  144000    1.0590939   -7.3808436    46.156751  0.026711082  0.029047285            2 
  145000    1.0316848    -7.399605    46.336082  0.026629932  0.028977722            2 
  146000    1.0364311   -7.3847614    46.724628  0.026669308  0.028908585            2 
  147000    1.0299755   -7.4069631     47.19201   0.02675284  0.028843539            1 
  148000    1.0405301   -7.4521444    47.508908  0.026750511  0.028783824            1 
  149000    1.0335815   -7.4184439    47.568155  0.026604114  0.028723867            2 
  150000    1.0010749   -7.4245656    47.741821  0.026523234  0.028662193            3 
  151000    1.0221591   -7.4201354    48.119786  0.026556173  0.028598876            2 
  152000    1.0275766   -7.4259823    48.131697  0.026387991  0.028534176            2 
  153000    1.0163675   -7.4226599    48.311175  0.026313276  0.028464413            2 
  154000    1.0258982   -7.4460627    48.471902  0.026229384  0.028393814            2 
  155000    1.0054303   -7.4342719    48.506529  0.026078779  0.028319338            2 
  156000     1.020165   -7.4722683    48.721199  0.026026281  0.028245277            2 
  157000    1.0113065    -7.419903    49.060034  0.026040358  0.028171621            3 
  158000   0.99131593   -7.4139905    49.367757  0.026037846   0.02809983            1 
  159000    1.0079462   -7.4329235    49.418339  0.025900597  0.028027889            2 
  160000    1.0153136   -7.4643353    49.690158   0.02588029  0.027956589            3 
  161000     1.008726   -7.4787152    50.128935  0.025946654  0.027884982            1 
  162000    1.0121082    -7.485021    50.199046  0.025822555  0.027814635            1 
  163000    1.0155556   -7.4668524    50.499918  0.025817954  0.027745082            4 
  164000    1.0105367    -7.457745    50.764002  0.025794716   0.02767739            3 
  165000   0.99691167   -7.4856422    51.027558  0.025771494  0.027611454            2 
  166000    1.0045537   -7.5273721    51.112204  0.025658737  0.027546454            2 
  167000   0.99550053   -7.4527035    51.554341  0.025725719  0.027482408            1 
  168000    1.0041417   -7.5327829    51.543617   0.02556727  0.027418934            2 
  169000   0.99560211   -7.5046366     51.89751  0.025590488  0.027352814            1 
  170000    0.9690011   -7.5207936    51.776516  0.025380645  0.027285065            2 
  171000   0.99872455    -7.520899    52.096705  0.025388258  0.027214695            1 
  172000    0.9884696   -7.4698089    52.331402  0.025354362  0.027145359            2 
  173000   0.98932966   -7.5078013     52.29911  0.025192249   0.02707548            3 
  174000   0.98383594   -7.5619999    52.184796  0.024992718  0.027001058            5 
  175000    0.9711638   -7.5001162    52.642774  0.025067987  0.026925648            1 
  176000    1.0099257    -7.540807    52.452374  0.024835404  0.026849405            8 
  177000   0.98474717   -7.5309185    52.691153  0.024807511  0.026771895            2 
  178000    1.0099187   -7.5502178    53.001198  0.024813295  0.026694751            2 
  179000   0.98989763   -7.5354866    53.168023  0.024752338   0.02661923            1 
  180000    1.0063938   -7.5155476    53.252551  0.024653959    0.0265424            1 
  181000   0.99288149   -7.5098944    53.618408  0.024686192  0.026465401            2 
  182000   0.96949892   -7.5570318    53.483174  0.024488633  0.026388678            2 
  183000   0.98016553   -7.5569764    53.519356  0.024371291  0.026308995            2 
  184000   0.96559831   -7.5723368    53.681318  0.024312191  0.026228703            1 
  185000   0.96540878   -7.5545706    53.749825  0.024211633  0.026148335            2 
  186000    0.9847248   -7.5482377    53.927222  0.024160942  0.026067676            2 
  187000   0.99447055   -7.5284151    54.245454  0.024173553  0.025986061            2 
  188000   0.95758252   -7.5432477    54.022465  0.023946128  0.025904457            1 
  189000   0.96687287   -7.5831824    54.283914  0.023934706  0.025822202            2 
  190000   0.98629141   -7.5636654    54.473236   0.02389177  0.025742347            2 
  191000   0.93681138   -7.5680895    54.838626  0.023926102  0.025662742            1 
  192000   0.96296721    -7.589062    54.724044  0.023751755  0.025583687            3 
  193000   0.94665006   -7.5638788     55.11054   0.02379557  0.025503664            1 
  194000   0.97625473   -7.6029319    55.145808  0.023688062  0.025425165            2 
  195000   0.95224369   -7.6172252    55.247945  0.023610233  0.025345887            6 
  196000    0.9634053   -7.5890081    55.417781  0.023561982  0.025266635            1 
  197000   0.94477499   -7.6130086    55.622634  0.023529033  0.025188747            2 
  198000   0.95105675   -7.5850576    55.911529  0.023531788   0.02511134            2 
  199000   0.95191047   -7.5516694    56.110085  0.023496685  0.025034801            1 
  200000   0.94117413   -7.5909581    56.394639  0.023497766  0.024959646            2 
  201000   0.97216083   -7.6262161    56.349435   0.02336212  0.024884923            1 
  202000   0.95138537   -7.6136951    56.537683  0.023324127  0.024810869            1 
  203000   0.95823756   -7.6169063    56.865888  0.023343961  0.024737239            2 
  204000   0.94555491   -7.6138623    56.808904  0.023206252  0.024663766            2 
  205000   0.93929506   -7.6093544    56.849282  0.023109464  0.024590273            1 
  206000   0.95351587   -7.6400701    57.162959  0.023124174  0.024515635            3 
  207000   0.94651184   -7.6189314    57.354157  0.023089435  0.024441426            1 
  208000   0.92596643   -7.6582614    57.294277  0.022954438  0.024368374            2 
  209000   0.92914473   -7.6587833    57.533953  0.022940173  0.024295187            2 
  210000   0.91741078    -7.629599    57.794724  0.022934414  0.024222362            3 
  211000   0.92898452   -7.6900968    57.678246  0.022779718   0.02414951            3 
  212000   0.91965474    -7.666254    57.838197   0.02273514  0.024076788            2 
  213000   0.91244753   -7.6423178    58.074268  0.022720762  0.024004309            1 
  214000   0.94456804   -7.6680801    58.051892  0.022605877  0.023931214            3 
  215000   0.93105776   -7.6871081      57.9632  0.022466357   0.02385763            2 
  216000   0.90738133    -7.684163    58.134933  0.022428601  0.023782783            3 
  217000   0.91990625    -7.686439    58.447829  0.022445403  0.023708673            2 
  218000    0.8970991   -7.6758462    58.328774  0.022296932  0.023634878            2 
  219000   0.93234137   -7.6644835    58.729673  0.022347668  0.023561302            4 
  220000   0.92741049   -7.6979932    58.638996  0.022211741  0.023488219            5 
  221000   0.92848684   -7.7028515    58.748181  0.022152406  0.023414711            1 
  222000   0.91579783   -7.7078189    58.734561  0.022047508  0.023341868            2 
  223000   0.91940588   -7.7071146    59.215021  0.022128184   0.02326911            2 
  224000     0.888368   -7.7358723    59.145794  0.022003644  0.023196727            2 
  225000   0.90943746   -7.6918194    59.394312  0.021997893  0.023125188            2 
  226000   0.89002106   -7.6683687    59.672053  0.022002969   0.02305618            2 
  227000   0.89300768   -7.6904184    59.762045  0.021939077  0.022987472            3 
  228000   0.89936214   -7.6734993    59.905368  0.021895237  0.022919523            2 
  229000   0.90220519   -7.7269362    59.953332  0.021817078  0.022850945            2 
  230000   0.89803311   -7.7450584    60.086556  0.021770491  0.022781652            1 
  231000   0.89568918   -7.7184813    60.186403  0.021712267  0.022713786            2 
  232000   0.91455512   -7.7800766    60.215745  0.021629219  0.022646397            1 
  233000   0.88536969   -7.7296972    60.527622  0.021647933  0.022579188            1 
  234000   0.89509232   -7.7431939    60.730056  0.021627513  0.022513041            3 
  235000   0.87647529   -7.7727346    60.939641  0.021609802  0.022448102            3 
  236000   0.88183362     -7.71804    61.039338  0.021553439  0.022383163            1 
  237000   0.88269521   -7.7221142    60.983513  0.021442867  0.022316583            2 
  238000   0.88369035   -7.7442843    61.071971  0.021383743  0.022250832            2 
  239000    0.8755633   -7.7722644    61.091217  0.021300982  0.022184742            3 
  240000    0.8994947   -7.7899687    61.304761  0.021286375  0.022119206            1 
  241000      0.87257   -7.7844292    61.408119  0.021233789  0.022054471            1 
  242000   0.87017189   -7.7703136    61.678562  0.021239174  0.021990283            4 
  243000   0.89253066   -7.7821507     61.87614  0.021219527  0.021927049            1 
  244000   0.88344283   -7.8038148    61.868896  0.021130088  0.021863507            1 
  245000   0.87726381   -7.8244963    61.759112  0.021006501  0.021799342            2 
  246000   0.87041247   -7.8279545    61.833897  0.020946442  0.021734063            2 
  247000   0.87427469   -7.7863325    61.863197  0.020871524  0.021668418            1 
  248000   0.84274494     -7.78481    62.191605  0.020897717  0.021603525            3 
  249000   0.88079609   -7.7953808    62.095321  0.020781567   0.02153864            2 
  250000   0.88141141    -7.818894    62.084196  0.020694732  0.021473542            2 
  251000   0.86716853   -7.8169954    62.230821  0.020660963  0.021408952            3 
  252000   0.86912589   -7.8543317    62.344638  0.020616613  0.021344221            3 
  253000    0.8570075   -7.8059081    62.362985  0.020541168   0.02127956            3 
  254000   0.88259605   -7.8254618    62.375663  0.020464456  0.021214296            3 
  255000   0.85645261    -7.839318    62.392577  0.020389731  0.021149098            2 
  256000   0.85961291   -7.8337004    62.586283  0.020373139  0.021083535            3 
  257000   0.84876486   -7.8139416    62.648264  0.020313964  0.021019454            3 
  258000   0.86009376   -7.8266541    62.709672  0.020255062  0.020955769            2 
  259000   0.86442826   -7.8445189    62.834998  0.020217181  0.020890742            3 
  260000   0.84772963   -7.8471315    62.905246  0.020161938  0.020826113            1 
  261000   0.86874405   -7.8573223      63.0781  0.020139879   0.02076237            2 
  262000   0.83407775   -7.8793267    63.136687  0.020081643  0.020699084            2 
  263000   0.85479669   -7.8574068     63.08409  0.019988622  0.020635522            3 
  264000   0.84937468   -7.8572058    63.238148  0.019961536   0.02057261            2 
  265000   0.84177223   -7.8750055    63.379496  0.019930659  0.020509681            3 
  266000   0.85036231   -7.8446577    63.447279  0.019876967  0.020446791            2 
  267000   0.84681553   -7.8941697    63.243439  0.019738901  0.020383575            1 
  268000    0.8419993   -7.9202306    63.273299  0.019674533  0.020319725            2 
  269000   0.82955107   -7.9154125    63.316463  0.019614766  0.020255559            4 
  270000   0.83006422   -7.9306646    63.675473  0.019652924  0.020192056            2 
  271000   0.82126278   -7.9208508    63.611486  0.019560727  0.020129173            2 
  272000   0.83003712   -7.8984882    63.670274  0.019506824  0.020066606            2 
  273000    0.8452202   -7.9375792    63.718613  0.019450126  0.020003818            1 
  274000   0.82689568   -7.9411685    63.829091   0.01941274  0.019940907            4 
  275000   0.82136164   -7.9345081    63.856261  0.019350382  0.019878503            1 
  276000   0.82801659   -7.9139389    63.935176  0.019304099   0.01981619            2 
  277000   0.81365515   -7.9162506    64.030859  0.019263195  0.019754162            2 
  278000   0.81724048   -7.9485018    63.874361  0.019146991  0.019691214            2 
  279000   0.81913801   -7.9402685    64.034939  0.019126326  0.019628507            1 
  280000   0.83434208    -7.948657    64.032707  0.019057353  0.019566343            2 
  281000   0.81620013   -7.9367614     64.07495  0.019002061  0.019503954            6 
  282000   0.80596243   -7.9294383    64.285205   0.01899681  0.019441454            1 
  283000   0.81693917    -7.984687    64.102027  0.018875744  0.019379537            3 
  284000   0.80877577   -7.9485726    64.335926  0.018877912  0.019317687            4 
  285000   0.81774948   -7.9540455    64.283439  0.018796327  0.019255368            1 
  286000   0.80446042   -7.9714631    64.244866  0.018719366  0.019193306            2 
  287000   0.81326978   -7.9279126    64.477693  0.018721746   0.01913123            1 
  288000   0.81657593   -7.9505156    64.373463  0.018626581  0.019069612            2 
  289000   0.80448658   -7.9516935    64.407354  0.018571901  0.019007823            3 
  290000   0.80509456   -7.9618366    64.553815  0.018549947  0.018946536            3 
  291000   0.80114457   -7.9553428    64.646485  0.018512739  0.018884997            1 
  292000   0.78422137   -7.9745403    64.597368  0.018435322  0.018823504            1 
  293000    0.8052611    -7.984026    64.473251  0.018337102  0.018761742            2 
  294000   0.78923166   -7.9661416    64.692974  0.018337011  0.018700059            4 
  295000     0.796094   -7.9806809    64.533532  0.018229811  0.018638356            2 
  296000   0.78510162   -8.0217667    64.559885  0.018175643   0.01857643            1 
  297000   0.81412032   -7.9878959    64.664264  0.018143733  0.018514817            4 
  298000   0.78819271   -8.0234996    64.689391  0.018089874  0.018453432            3 
  299000    0.7867404   -8.0119887    64.729888   0.01804066  0.018391768            5 
  300000   0.79104048   -8.0168437    64.516226  0.017921174  0.018330435            1 
  301000   0.77032514   -8.0166297      64.7679  0.017931312  0.018268723            2 
  302000   0.79094951    -8.034696    64.844264  0.017893009  0.018207465            2 
  303000   0.80966738   -8.0212284    64.962074  0.017866357  0.018146824            2 
  304000    0.7803573   -8.0495371    64.946325  0.017803269  0.018086409            3 
  305000   0.80153377   -8.0418643    64.976841  0.017753235  0.018026165            1 
  306000   0.79119927   -8.0301679    65.029597  0.017709585  0.017965891            2 
  307000   0.78858888   -8.0799553    65.197702   0.01769753  0.017906228            3 
  308000   0.75556433   -8.0619567    65.096521  0.017612695  0.017846711            2 
  309000   0.78904972   -8.0605867     65.14539  0.017568876  0.017787451            2 
  310000   0.77394749   -8.0485055     65.19053  0.017524336  0.017728601            1 
  311000   0.75195972   -8.0548967    65.034274  0.017426118  0.017669528            1 
  312000   0.77022872   -8.0915573    65.075216  0.017381201  0.017610461            2 
  313000   0.76371514   -8.0588674    65.114143  0.017336034  0.017551676            1 
  314000   0.76720286   -8.0821147    65.241153  0.017314531  0.017492991            2 
  315000   0.75386495   -8.0811736     65.29934  0.017274958  0.017434705            2 
  316000   0.77346508   -8.0562257    65.431545  0.017255154  0.017376873            2 
  317000   0.76963443   -8.0618504    65.329859   0.01717399   0.01731882            3 
  318000   0.75995319   -8.0638229    65.396151  0.017137356  0.017260971            4 
  319000   0.76636281   -8.0936538    65.145641  0.017018192  0.017203135            2 
  320000   0.77336987   -8.1129386    65.398059  0.017030744  0.017145568            4 
  321000   0.75607215    -8.130107      65.2292  0.016933852  0.017087881            4 
  322000   0.75472674   -8.1181726    65.389813  0.016922829  0.017030123            3 
  323000    0.7325077    -8.093026    65.462729  0.016889249  0.016972899            1 
  324000   0.75911977   -8.1252157    65.452351  0.016834452  0.016915794            3 
  325000   0.74466696   -8.1223566    65.477613  0.016789131  0.016858781            3 
  326000   0.75094208   -8.1400518    65.395153  0.016716552  0.016801936            2 
  327000   0.74499396   -8.1459729    65.364592  0.016657643  0.016744973            3 
  328000   0.73841257    -8.133022    65.409938  0.016618378  0.016688433            3 
  329000   0.75314583   -8.1240924    65.615956   0.01662005  0.016631854            1 
  330000   0.74215729   -8.1612551    65.498087  0.016539921  0.016575504            3 
  331000   0.75291189   -8.1190115    65.604363  0.016516708  0.016519747            5 
  332000   0.73315916   -8.1516588    65.598902  0.016465588  0.016464478            1 
  333000   0.72249664   -8.1587448    65.694312  0.016440018  0.016409289            1 
  334000   0.73665317   -8.1418383    65.680523  0.016387356  0.016354125            2 
  335000   0.72814311   -8.1659516    65.601151  0.016318694  0.016299002            2 
  336000   0.73008493   -8.1687635    65.487024  0.016241821  0.016243907            2 
  337000   0.73402648   -8.1777911    65.546394  0.016208307  0.016188869            2 
  338000   0.72395425   -8.1815924    65.648208  0.016185455  0.016134362            4 
  339000   0.73025837    -8.189214    65.700186  0.016150488  0.016079854            5 
  340000   0.72085566   -8.1529328    65.693704  0.016101398  0.016025386            1 
  341000   0.71640432   -8.1675359    65.593103  0.016029595  0.015971056            1 
  342000   0.71981673   -8.1557592    65.792869  0.016031401  0.015916832            2 
  343000   0.72551012   -8.2041445    65.848537  0.015998187  0.015862904            2 
  344000   0.72708943   -8.1761134    65.808958  0.015942093  0.015809319            2 
  345000   0.72222248    -8.198485    65.915991  0.015921737  0.015756099            6 
  346000   0.72275533   -8.1767209    65.759201  0.015837958  0.015703072            2 
  347000   0.70655258   -8.2093819    65.801999  0.015802593  0.015650128            4 
  348000   0.72373702   -8.1715389    65.791908  0.015754767  0.015597327            2 
  349000     0.696476   -8.2171491    65.802793  0.015712224  0.015544598            2 
  350000    0.7208427   -8.2055801    65.916222  0.015694339  0.015492037            2 
  351000   0.70736459   -8.2160441    65.722723  0.015603685  0.015439352            3 
  352000   0.71806078   -8.2032317    65.846781  0.015588727  0.015386871            1 
  353000   0.69416189   -8.2110853    65.947651  0.015568378  0.015334856            2 
  354000    0.6993896   -8.2393391    65.781043   0.01548518  0.015282991            2 
  355000   0.70187534   -8.2479566    65.774802  0.015440094  0.015231176            1 
  356000   0.69228297   -8.2421844    65.999825  0.015449397  0.015179713            1 
  357000    0.6970735   -8.2437216    65.954194   0.01539547  0.015128021            1 
  358000   0.70024965   -8.2407929    66.001428  0.015363461  0.015076454            3 
  359000   0.68710045   -8.2674681    65.993372  0.015318796  0.015025264            1 
  360000    0.6864394   -8.2705933    65.888107  0.015251877  0.014974241            1 
  361000   0.68964866   -8.2494347    65.860412  0.015203235   0.01492336            1 
  362000   0.68258433   -8.2535247    65.991347  0.015191378  0.014872712            1 
  363000    0.6875018   -8.2704634    65.930807  0.015135631  0.014822344            2 
  364000   0.68992205   -8.2934393    65.999598  0.015109798  0.014772039            4 
  365000   0.68588276   -8.2860189    65.975735  0.015062953  0.014721752            1 
  366000   0.68252464   -8.2786002    65.779218  0.014977053  0.014671711            1 
  367000    0.6850321   -8.3038908    65.964838  0.014978392   0.01462152            2 
  368000   0.67316657   -8.2997717    65.834426  0.014908158  0.014571537            2 
  369000   0.69434065   -8.3090723    65.981318   0.01490093  0.014521699            1 
  370000   0.68749481     -8.31717    65.994392  0.014863602   0.01447217            2 
  371000   0.67444485   -8.3320407    66.033092  0.014832231  0.014422821            3 
  372000   0.65254247   -8.3112602    65.915098  0.014765927    0.0143737            2 
  373000   0.66413119    -8.317158    66.082909  0.014763831  0.014324699            2 
  374000   0.66910402   -8.3153726     66.13092  0.014735053  0.014275871            4 
  375000   0.66873001   -8.3249806    65.872452  0.014638323  0.014227335            6 
  376000   0.66305625   -8.3196592    65.964357   0.01461976  0.014178894            4 
  377000   0.66323002   -8.3340375    66.022056  0.014593735  0.014130406            3 
  378000   0.65575976   -8.3191846    66.078987  0.014567678  0.014082159            1 
  379000    0.6641138   -8.3482888    65.933984  0.014497358  0.014033934            2 
  380000   0.67544577   -8.3559916     65.85465  0.014441809  0.013985927            3 
  381000   0.65840707   -8.3655287     65.86519   0.01440621  0.013938176            3 
  382000   0.67728714   -8.3385185    65.970737  0.014391522  0.013890519            2 
  383000   0.66002073   -8.3636691    66.047141   0.01437057  0.013843135            4 
  384000   0.64971476   -8.3785038    65.915778  0.014304639  0.013795953            2 
  385000   0.66487891   -8.3614438    66.041632  0.014294726   0.01374882            2 
  386000   0.66155319   -8.3671225    65.931844  0.014233991   0.01370166            2 
  387000   0.63199562   -8.3651312    65.903835  0.014191179  0.013654757            3 
  388000     0.661489    -8.372032     65.84569  0.014142115   0.01360806            2 
  389000   0.64610688   -8.3479643    66.046551   0.01414879  0.013561599            2 
  390000    0.6512234   -8.3784427     65.89511  0.014080152  0.013515227            5 
  391000   0.64582191   -8.3668851    66.117659  0.014091573  0.013468972            1 
  392000   0.64504572   -8.3693671    65.973213  0.014024918  0.013422919            3 
  393000   0.63562035   -8.3901578    65.793334  0.013951089  0.013376889            6 
  394000   0.63991612   -8.3764099    65.874173  0.013932778  0.013330756            1 
  395000   0.62792936   -8.4117703    65.839796  0.013890252  0.013284916            1 
  396000    0.6381123   -8.3913238    65.769763  0.013840438  0.013239174            1 
  397000   0.63586641   -8.4020428    65.828386  0.013817881  0.013193593            2 
  398000   0.63249843   -8.4265664    65.788593  0.013774831  0.013148211            1 
  399000   0.62772125   -8.4296731    65.813583  0.013745527  0.013103154            2 
  400000   0.63364705   -8.4022772    65.865716  0.013722024  0.013058059            3 
  401000   0.62096051   -8.3948734     65.83386  0.013681185  0.013013195            4 
  402000   0.62346925   -8.4271238    65.895402  0.013659909  0.012968629            1 
  403000   0.63571299   -8.4352073    65.790963  0.013604418  0.012924215            2 
  404000   0.63812601   -8.4209103    65.785796  0.013569677  0.012879805            2 
  405000   0.62449355    -8.433393    65.913073  0.013562361  0.012835525            3 
  406000    0.6285756   -8.4453161    65.769784  0.013499545   0.01279149            4 
  407000   0.61654863   -8.4343533    65.827426  0.013478179  0.012747609            5 
  408000   0.62386229   -8.4498915     65.73178  0.013425609  0.012703799            2 
  409000     0.612527   -8.4689972    65.743118  0.013395093  0.012660161            3 
  410000   0.61473738   -8.4579492    65.797202  0.013373415  0.012616731            1 
  411000   0.61246807   -8.4457333    65.831248  0.013347779  0.012573407            2 
  412000   0.61425269   -8.4548298     65.73452  0.013295817  0.012530251            2 
  413000   0.61362797   -8.4475009    65.732434  0.013263203  0.012487215            2 
  414000   0.62906852    -8.459896    65.718589  0.013228379  0.012444397            2 
  415000   0.59221227    -8.475238     65.83478  0.013219835  0.012401653            1 
  416000   0.60511243   -8.4535549    65.809272  0.013182947  0.012359211            3 
  417000   0.59419114   -8.4835997     65.66367  0.013122236  0.012316867            1 
  418000   0.59677231   -8.4613718    65.790175  0.013116064  0.012274667            2 
  419000   0.59844802    -8.484629    65.856986  0.013098048  0.012232615            2 
  420000   0.60595568   -8.4758035    65.726142  0.013040901  0.012190754            1 
  421000   0.59494195   -8.5148715    65.656676  0.012996175  0.012149053            3 
  422000   0.59481576   -8.4829586    65.797301  0.012993148  0.012107468            3 
  423000   0.59918195   -8.4978286    65.742744  0.012951683  0.012066041            1 
  424000   0.59515079   -8.5151594    65.605091  0.012894082  0.012024677            1 
  425000   0.59539197   -8.5290128    65.758003  0.012893726  0.011983505            1 
  426000   0.57302812   -8.4913856     65.79142  0.012869996  0.011942579            2 
  427000   0.58363729   -8.5077483    65.572506  0.012797132  0.011901769            1 
  428000   0.58638794   -8.5284872    65.674411  0.012787074  0.011860987            2 
  429000   0.57219042   -8.5206796    65.609422  0.012744643  0.011820384            1 
  430000   0.57137583    -8.524525    65.762509  0.012744672  0.011779911            2 
  431000   0.57760092   -8.5221941    65.574605  0.012678771  0.011739696            2 
  432000   0.57908978   -8.5219795    65.710031  0.012675546  0.011699752            2 
  433000   0.58632938   -8.5142284    65.523166  0.012610309  0.011659867            1 
  434000   0.57265858   -8.5329966    65.565443  0.012589371  0.011620125            1 
  435000    0.5766787   -8.5077554    65.495787  0.012547086  0.011580546            2 
  436000   0.58284377   -8.5157415    65.562771  0.012531111  0.011541074            2 
  437000    0.5785322   -8.5232475    65.538514   0.01249781  0.011501729            1 
  438000   0.56814292   -8.5581733    65.528458  0.012467363  0.011462643            2 
  439000   0.56411909   -8.5427142    65.698345  0.012471212  0.011423657            2 
  440000   0.56654344   -8.5540409    65.623824  0.012428754  0.011384822            2 
  441000   0.54543721   -8.5463533    65.562909  0.012389061  0.011346108            5 
  442000   0.55393788   -8.5659312     65.50949   0.01235096  0.011307534            1 
  443000   0.56016995   -8.5476734    65.594966  0.012339158  0.011269226            2 
  444000   0.54706184   -8.5625543    65.661848   0.01232392  0.011231062            1 
  445000   0.55547847   -8.5360245     65.56982  0.012278993  0.011192965            1 
  446000    0.5577572   -8.5579623    65.518797  0.012241928  0.011155031            1 
  447000   0.54206051   -8.5629034    65.589228  0.012227671  0.011117278            1 
  448000   0.56735318   -8.5742634    65.574183  0.012197579  0.011079698            3 
  449000   0.56263329   -8.5833337    65.434172  0.012144427    0.0110423            1 
  450000   0.55394298   -8.5700553    65.518183  0.012132997  0.011005009            3 
  451000   0.55858464   -8.5555901    65.373279   0.01207932  0.010967898            2 
  452000   0.54596155   -8.5828172    65.509883  0.012077781  0.010930936            1 
  453000   0.54424848   -8.5809916    65.501523  0.012049581  0.010894114            3 
  454000   0.53311083   -8.5923544    65.436706  0.012011143  0.010857366            2 
  455000   0.53118768   -8.5854912    65.425084  0.011982616  0.010820751            1 
  456000   0.54741331   -8.6016935    65.391627  0.011950224  0.010784319            1 
  457000    0.5406306   -8.6041837    65.460436  0.011936622  0.010747997            2 
  458000   0.53691183   -8.5965025    65.511503  0.011919851  0.010711831            3 
  459000   0.53949163   -8.5978044    65.426068  0.011878371  0.010675827            2 
  460000   0.52732578   -8.6050256    65.525676  0.011870594  0.010640012            2 
  461000   0.52923918   -8.5954722    65.339186  0.011811133  0.010604356            2 
  462000   0.53358083   -8.6107708     65.48185    0.0118113  0.010568801            2 
  463000   0.53838667   -8.6129131    65.415941  0.011773927  0.010533399            3 
  464000   0.52312669   -8.6034855    65.393931    0.0117446  0.010498141            2 
  465000   0.52960786   -8.6058251    65.372827   0.01171556  0.010462958            2 
  466000    0.5189783   -8.5928289    65.437282  0.011701946  0.010427987            2 
  467000   0.52893789   -8.6201125    65.336437  0.011658893  0.010393105            2 
  468000    0.5237632    -8.622222    65.380498  0.011641827  0.010358425            5 
  469000   0.52481503   -8.6281773    65.329673  0.011607973  0.010323894            2 
  470000    0.5212659   -8.6301324    65.264636  0.011571744  0.010289514            1 
  471000   0.51672226   -8.6318393    65.259376  0.011546245  0.010255213            2 
  472000   0.51240545   -8.6212312    65.380394  0.011543149  0.010221077            2 
  473000   0.51853596   -8.6339163    65.351255  0.011513611  0.010187093            2 
  474000   0.52171328    -8.639537    65.373167  0.011493173   0.01015316            3 
  475000   0.50506137   -8.6203039    65.219576  0.011442031  0.010119439            2 
  476000   0.51788779   -8.6407942     65.29614  0.011431397  0.010085784            1 
  477000    0.4955951   -8.6537805    65.318866  0.011411402  0.010052362            4 
  478000   0.50083886   -8.6471321    65.193003  0.011365586  0.010018942            3 
  479000   0.51249468   -8.6454141    65.265539  0.011354478 0.0099857347            3 
  480000   0.49753005   -8.6489956    65.395002  0.011353299 0.0099526825            3 
  481000   0.50682651     -8.65075    65.311767  0.011315275 0.0099197973            2 
  482000   0.49562581   -8.6632089    65.249164  0.011280976  0.009887024            3 
  483000   0.50176095   -8.6545482    65.397344  0.011283186 0.0098543319            3 
  484000   0.49325703   -8.6583339    65.273775  0.011238598 0.0098218089            4 
  485000   0.49649748   -8.6533975    65.225053  0.011207054 0.0097894009            3 
  486000   0.49878306   -8.6704552    65.230814  0.011184982 0.0097570705            3 
  487000   0.49716785   -8.6634636     65.23207   0.01116223  0.009724927            3 
  488000   0.48850549   -8.6780923     65.18705  0.011131668 0.0096929122            1 
  489000   0.49148787   -8.6792112     65.13585  0.011100179 0.0096609833            3 
  490000   0.47346148   -8.6763521    65.176104  0.011084371 0.0096292691            2 
  491000   0.48992238    -8.687463    65.194865   0.01106498 0.0095976034            1 
  492000   0.48036245   -8.6912531    65.181616  0.011040247 0.0095660962            4 
  493000   0.47689223   -8.6837414     65.16076  0.011014327 0.0095346824            2 
  494000   0.47519175    -8.682253    65.146946  0.010989701  0.009503398            3 
  495000   0.48840235   -8.6950807    65.098763  0.010959388 0.0094722758            2 
  496000   0.47779423   -8.6887902    65.190284  0.010952669 0.0094411763            5 
  497000   0.47766088   -8.6709784    65.163411  0.010926125 0.0094103126            2 
  498000   0.47488323   -8.6789933    65.225171   0.01091452 0.0093795416            3 
  499000   0.47323285   -8.6969928    65.090758    0.0108702 0.0093489186            2 
  500000   0.46043441   -8.7158328    65.163971  0.010860662  0.009318387            3 
  501000   0.46400024   -8.7025317    65.173722  0.010840606 0.0092879695            3 
  502000   0.46203214   -8.7043388    65.030482  0.010795233 0.0092577024            2 
  503000   0.47588886   -8.7075599    65.183741  0.010799162 0.0092275259            2 
  504000   0.46837525   -8.7108988    65.089031  0.010762075 0.0091974669            4 
  505000   0.46477885   -8.6972912    65.041691  0.010732952 0.0091675525            4 
  506000   0.46363342   -8.7077002    65.065302  0.010715629 0.0091377542            2 
  507000    0.4670953   -8.7201968    65.074773  0.010696051   0.00910812            2 
  508000   0.45756583   -8.7151703    65.106893  0.010680265 0.0090785657            2 
  509000   0.45318999   -8.7276687      64.9949  0.010640946 0.0090491483            5 
  510000     0.448892    -8.717486    65.024998     0.010625 0.0090198548            3 
  511000   0.44622608   -8.7250698    65.043633  0.010607246  0.008990636            3 
  512000   0.44956675   -8.7257607    65.053458  0.010588128 0.0089615843            5 
Loop time of 1200.59 on 48 procs for 500000 steps with 4000 atoms

Performance: 71964.603 tau/day, 416.462 timesteps/s
99.4% CPU use with 48 MPI tasks x no OpenMP threads

MPI task timing breakdown:
Section |  min time  |  avg time  |  max time  |%varavg| %total
---------------------------------------------------------------
Pair    | 73.888     | 80.607     | 84.495     |  30.0 |  6.71
Neigh   | 7.941      | 8.2317     | 8.6361     |   6.0 |  0.69
Comm    | 79.068     | 83.401     | 90.447     |  32.0 |  6.95
Output  | 0.89533    | 0.89588    | 0.90423    |   0.1 |  0.07
Modify  | 1013.8     | 1016.6     | 1018.6     |   3.0 | 84.68
Other   |            | 10.82      |            |       |  0.90

Nlocal:        83.3333 ave          93 max          75 min
Histogram: 1 3 8 8 3 12 7 2 3 1
Nghost:        2087.98 ave        2112 max        2065 min
Histogram: 2 6 5 4 6 7 8 7 2 1
Neighs:        13595.0 ave       15255 max       11939 min
Histogram: 3 0 6 10 8 7 4 4 3 3
FullNghs:      27190.0 ave       30372 max       24426 min
Histogram: 1 3 8 7 8 8 7 2 3 1

Total # of neighbors = 1305119
Ave neighs/atom = 326.27975
Neighbor list builds = 26743
Dangerous builds = 0

#clear
#
#next RN
#
#jump SELF
Total wall time: 0:20:04
