
units lj                  # Use reduced LJ style units
atom_style atomic         # Uncharged point particles
atom_modify map hash      # Needed for indexing of clusters etc
                          # Used to be able to find where atoms are in relation to each other.

lattice fcc 1.0 spacing 1 1 1
Lattice spacing in x,y,z = 1.5874011 1.5874011 1.5874011
region box block 0 10 0 10 0 10 units lattice
create_box 2 box
Created orthogonal box = (0.0000000 0.0000000 0.0000000) to (15.874011 15.874011 15.874011)
  3 by 4 by 4 MPI processor grid
create_atoms 1 box
Created 4000 atoms
  using lattice units in orthogonal box = (0.0000000 0.0000000 0.0000000) to (15.874011 15.874011 15.874011)
  create_atoms CPU = 0.003 seconds
set type 1 type/fraction 2 0.14 78393
Setting atom values ...
  590 settings made for type/fraction
mass 1 1.0
mass 2 1.0
pair_style lj/cut  3.5
pair_modify tail  yes
pair_coeff 1  1  1.0  1.0   # Intearaction between 1 and 1 set with epsilon = 1 and sigma = 1
pair_coeff 1  2  1.5  0.8
pair_coeff 2  2  0.5  0.88

write_data data.0
System init for write_data ...
Neighbor list info ...
  update every 1 steps, delay 10 steps, check yes
  max neighbors/atom: 2000, page size: 100000
  master list distance cutoff = 3.8
  ghost atom cutoff = 3.8
  binsize = 1.9, bins = 9 9 9
  1 neighbor lists, perpetual/occasional/extra = 1 0 0
  (1) pair lj/cut, perpetual
      attributes: half, newton on
      pair build: half/bin/atomonly/newton
      stencil: half/bin/3d
      bin: standard
WARNING: Not all mixed pair coeffs generated from mixing. Use write_data with 'pair ij' option to store all pair coeffs. (../write_data.cpp:312)


#############################
#   M E L T   S Y S T E M   #
#############################

velocity all create 2.4 5833274 mom yes dist gaussian # Assign velocities
                                                    # Temperature 2.4, random number seed, zero linear momentum
                                                                                # Gaussian distribution

timestep 0.002   # simulation timestep
thermo 1000       # output thermodynamic data every 1000 steps bf 100

# Define a fix  in this case with index 1 applied to all
# particles in the simulation. This fix is for simulations
# in the anisotropic NPT ensemble. Note that we use the MTK
# correction.
fix 1 all npt temp 2.4 2.4 0.1 iso 5.68 5.68 0.5 mtk yes tchain 5 pchain 5 # Use NPT ensemble
                                                                         # Set temperature and pressure and damping
                                                                         # Numbers of thermostats in chain and in barostat
run 10000          # run for 10000 steps
Per MPI rank memory allocation (min/avg/max) = 3.642 | 3.644 | 3.648 Mbytes
Step Temp E_pair E_mol TotEng Press Volume 
       0          2.4   -7.4253508            0   -3.8262508   -3.2887046         4000 
    1000    2.4335796   -4.7164542            0   -1.0669974    5.6193366    4691.0443 
    2000    2.4655546   -4.7107914            0   -1.0133841    5.8881668    4666.1872 
    3000    2.3783349    -4.708347            0   -1.1417365    5.6471137     4687.528 
    4000    2.3687387   -4.7266964            0   -1.1744766    5.8965378    4648.8817 
    5000     2.439081   -4.7260792            0   -1.0683724    5.5462791     4701.624 
    6000    2.3692598   -4.7394347            0   -1.1864334    5.7138668    4668.3247 
    7000    2.4099611   -4.7077431            0   -1.0937053    5.6065256    4700.7639 
    8000    2.3725362   -4.7593942            0   -1.2014797    5.5579237    4667.4541 
    9000    2.3916385   -4.7532737            0   -1.1667127    5.4885048    4673.9689 
   10000    2.3751934   -4.7358558            0   -1.1739564    5.2020644     4724.915 
Loop time of 2.33461 on 48 procs for 10000 steps with 4000 atoms

Performance: 740166.211 tau/day, 4283.369 timesteps/s
99.5% CPU use with 48 MPI tasks x no OpenMP threads

MPI task timing breakdown:
Section |  min time  |  avg time  |  max time  |%varavg| %total
---------------------------------------------------------------
Pair    | 0.93013    | 0.99163    | 1.0558     |   3.2 | 42.48
Neigh   | 0.19036    | 0.19882    | 0.20498    |   0.9 |  8.52
Comm    | 0.69223    | 0.79194    | 0.8671     |   4.7 | 33.92
Output  | 0.00024929 | 0.00029162 | 0.002135   |   0.0 |  0.01
Modify  | 0.28845    | 0.33731    | 0.37628    |   4.7 | 14.45
Other   |            | 0.01462    |            |       |  0.63

Nlocal:        83.3333 ave          90 max          75 min
Histogram: 5 2 2 2 8 6 6 4 9 4
Nghost:        1473.71 ave        1502 max        1445 min
Histogram: 1 4 3 7 7 10 5 8 2 1
Neighs:        8078.46 ave        9072 max        7018 min
Histogram: 4 2 3 6 7 7 7 6 3 3

Total # of neighbors = 387766
Ave neighs/atom = 96.941500
Neighbor list builds = 900
Dangerous builds = 181

# Equilibrate just above the melting temperature to avoid step fn in T

fix 1 all npt temp 1.25 1.25 0.1 iso 5.68 5.68 0.5 mtk yes tchain 5 pchain 5
run 2000
Per MPI rank memory allocation (min/avg/max) = 3.642 | 3.644 | 3.648 Mbytes
Step Temp E_pair E_mol TotEng Press Volume 
   10000    2.3751934   -4.7358558            0   -1.1739564    5.2020644     4724.915 
   11000    1.2558092   -6.2757713            0   -4.3925285    5.7414338    3864.6532 
   12000    1.2384677   -6.3530618            0   -4.4958248     5.810121    3834.4133 
Loop time of 0.489083 on 48 procs for 2000 steps with 4000 atoms

Performance: 706628.292 tau/day, 4089.284 timesteps/s
99.6% CPU use with 48 MPI tasks x no OpenMP threads

MPI task timing breakdown:
Section |  min time  |  avg time  |  max time  |%varavg| %total
---------------------------------------------------------------
Pair    | 0.20994    | 0.23329    | 0.2555     |   1.9 | 47.70
Neigh   | 0.031136   | 0.033501   | 0.036572   |   0.5 |  6.85
Comm    | 0.1398     | 0.16534    | 0.18447    |   2.5 | 33.81
Output  | 5.021e-05  | 5.1282e-05 | 6.4296e-05 |   0.0 |  0.01
Modify  | 0.039611   | 0.050539   | 0.059649   |   2.7 | 10.33
Other   |            | 0.006363   |            |       |  1.30

Nlocal:        83.3333 ave          90 max          75 min
Histogram: 3 1 3 5 9 1 9 7 7 3
Nghost:        1691.65 ave        1721 max        1669 min
Histogram: 3 6 2 7 12 9 4 3 1 1
Neighs:        9980.75 ave       10858 max        8552 min
Histogram: 1 2 2 4 6 7 4 8 11 3

Total # of neighbors = 479076
Ave neighs/atom = 119.76900
Neighbor list builds = 142
Dangerous builds = 12

#############################
# L I N E A R  Q U E N C H  #
#############################

# Define solid atoms. This closely follows ten Wolde  Ruiz-Montero and Frenkel  Faraday Discuss  1996  104  93-110
# Compute components of the per-atom q6 vector
compute q6 all orientorder/atom degrees 1 6 components 6 nnn NULL cutoff 1.3 # compute the Q6 parameter.
                                                                             # Use all neighbours within 1.3 unit cell.

# get number of connections
compute coord_number all coord/atom orientorder q6 0.5

# An atom is solid if it has 8 or more connections (of a possible 14)
variable is_solid atom c_coord_number>=8
group solid dynamic all var is_solid    # Must be dynamic to update
dynamic group solid defined

# do clustering
compute cluster solid cluster/atom 1.3 # Create a cluster where all atoms within are solid and max 1.3 units from another member

# define chunks one chunk per cluster
compute clus_chunks solid chunk/atom c_cluster nchunk every compress yes  # Says which atoms are in which chunk

# count the size of each chunk
compute size_chunks solid property/chunk clus_chunks count


# Find the maximum entry in the vector of chunk sizes
variable max_n equal max(c_size_chunks)


# Thermo style which includes this variable
# thermo_style custom step temp pe vol v_max_n

thermo ${N}  # Print the thermo information every 100 steps
thermo 1000  

# Reset the npt fix at a lower temperature (below freezing)
fix 1  all npt temp  ${temp} ${temp}  0.1  iso  5.68  5.68  0.5  mtk yes tchain  5  pchain  5
fix 1  all npt temp  0.45 ${temp}  0.1  iso  5.68  5.68  0.5  mtk yes tchain  5  pchain  5
fix 1  all npt temp  0.45 0.45  0.1  iso  5.68  5.68  0.5  mtk yes tchain  5  pchain  5

dump dmp2 all dcd ${N} traj.dcd
dump dmp2 all dcd 1000 traj.dcd


compute msd all msd com yes
variable twopoint equal c_msd[4]/6/(step*dt+1.0e-6)
fix 9 all vector 10 c_msd[4]
variable fit equal slope(f_9)/6/(10*dt)
thermo_style custom step temp pe c_msd[4] v_twopoint v_fit v_max_n

fix 1 all npt temp 1.25 ${temp} 0.1 iso 5.68 5.68 0.5 mtk yes tchain 5 pchain 5
fix 1 all npt temp 1.25 0.45 0.1 iso 5.68 5.68 0.5 mtk yes tchain 5 pchain 5
run 5000000 # 5000000  # Run for this many steps
Neighbor list info ...
  update every 1 steps, delay 10 steps, check yes
  max neighbors/atom: 2000, page size: 100000
  master list distance cutoff = 3.8
  ghost atom cutoff = 3.8
  binsize = 1.9, bins = 9 9 9
  4 neighbor lists, perpetual/occasional/extra = 1 3 0
  (1) pair lj/cut, perpetual
      attributes: half, newton on
      pair build: half/bin/atomonly/newton
      stencil: half/bin/3d
      bin: standard
  (2) compute orientorder/atom, occasional
      attributes: full, newton on
      pair build: full/bin/atomonly
      stencil: full/bin/3d
      bin: standard
  (3) compute coord/atom, occasional
      attributes: full, newton on
      pair build: full/bin/atomonly
      stencil: full/bin/3d
      bin: standard
  (4) compute cluster/atom, occasional
      attributes: full, newton on
      pair build: full/bin/atomonly
      stencil: full/bin/3d
      bin: standard
Per MPI rank memory allocation (min/avg/max) = 9.760 | 9.765 | 9.771 Mbytes
Step Temp PotEng c_msd[4] v_twopoint v_fit v_max_n 
   12000    1.2384677   -6.3530618 1.1146605e-30 7.7406973e-33 8.3333333e+20            1 
   13000    1.2383409   -6.3621021   0.56883304 0.0036463655  0.047039674            2 
   14000    1.2229608   -6.3605877    1.0834769 0.0064492667  0.045002683            1 
   15000    1.2530503   -6.3720404    1.5674359 0.0087079772  0.043103848            4 
   16000    1.2264641   -6.3800822    2.0293702  0.010569636  0.041782242            4 
   17000    1.2179376   -6.3538415    2.6265716  0.012875351  0.042036491            2 
   18000    1.2662788    -6.367786    3.1552747  0.014607753  0.042719399            2 
   19000    1.2759786   -6.3242536    3.7087104  0.016266273  0.043327316            1 
   20000    1.2527941   -6.3642273    4.2813919  0.017839132  0.043741295            2 
   21000    1.2457228   -6.3654045    4.9051185  0.019464755  0.044455903            1 
   22000    1.2868321   -6.3878782    5.4028478  0.020465332  0.044857843            1 
   23000    1.2524454   -6.3720868    5.8209322  0.021090334  0.044742613            2 
   24000    1.2324843   -6.3924537    6.2983702  0.021869341  0.044489813            2 
   25000    1.2461972   -6.3462605    6.8782506  0.022927501  0.044264308            1 
   26000    1.2500216   -6.3272763    7.4153844  0.023767257  0.044217706            3 
   27000    1.2625024   -6.3730665    7.9318927   0.02448115  0.044197193            4 
   28000    1.2422617   -6.3451996    8.5678328  0.025499502  0.044264693            2 
   29000    1.2154844   -6.3434323    9.1066453  0.026168521  0.044403043            1 
   30000    1.2505834   -6.3395517    9.6731075  0.026869743   0.04455433            2 
   31000    1.2601837   -6.3492503    10.224515  0.027485256   0.04470522            3 
   32000    1.2196381   -6.3258289    10.729141   0.02794047  0.044784342            2 
   33000    1.2483342     -6.33086    11.425399  0.028852017  0.044870031            2 
   34000    1.2626419   -6.3921149    11.916516  0.029207147  0.045017733            3 
   35000    1.2454774   -6.4091944    12.466377   0.02968185    0.0450637            1 
   36000    1.2468148   -6.3362277    12.910419  0.029885228  0.045105893            2 
   37000    1.2256389   -6.3520966    13.331645  0.030026227  0.045042533            1 
   38000    1.2434976   -6.3832961    13.880703  0.030440139  0.044938916            3 
   39000    1.2341744   -6.3754772    14.345588  0.030652966  0.044858185            3 
   40000    1.2553702   -6.3558219    14.858041  0.030954252      0.04475            3 
   41000     1.220406   -6.3955618    15.350986   0.03120119  0.044637561            3 
   42000    1.2218101   -6.3774756    15.928626  0.031604416  0.044574339            2 
   43000    1.2449041   -6.3688623    16.467572  0.031913899  0.044520534            4 
   44000    1.2433262   -6.3666799    16.979622  0.032158376  0.044466057            3 
   45000    1.2282401   -6.3541048    17.378312   0.03218206  0.044378657            4 
   46000    1.2601365   -6.3917925    17.909478  0.032444707  0.044292455            8 
   47000    1.2262933   -6.4022029    18.444857  0.032703647   0.04424948            6 
   48000     1.253652   -6.3877636    19.090604  0.033143409  0.044209352            1 
   49000    1.2612337   -6.3524066    19.649345  0.033417253  0.044181552            8 
   50000    1.2147635   -6.3674851     20.15054  0.033584232  0.044173165            4 
   51000    1.2515646   -6.3427022    20.745786  0.033898343   0.04416757            2 
   52000    1.2463292   -6.3597582    21.100733  0.033815276  0.044135416            3 
   53000    1.2487006   -6.3507559    21.550811  0.033884922  0.044086633            2 
   54000    1.2449719   -6.3829798    22.078001  0.034070988  0.044051805            1 
   55000    1.2334492   -6.3385134    22.531808  0.034139103  0.044016499            2 
   56000    1.2507397   -6.3544532    23.094034  0.034366122  0.043964462            2 
   57000    1.2274384   -6.3505089    23.478142  0.034324769  0.043900142            3 
   58000    1.2528073   -6.3829069    24.081128  0.034599322  0.043841537            2 
   59000    1.2402425   -6.3900231    24.597542  0.034742291  0.043798953            2 
   60000    1.2489206    -6.374061    25.012736   0.03473991  0.043740506            1 
   61000     1.259419   -6.3224686    25.806839  0.035255245  0.043705717            1 
   62000    1.2357023   -6.3687333    26.074662  0.035046589  0.043678183            1 
   63000    1.2339172   -6.3476232    26.745713  0.035377927  0.043636101            2 
   64000    1.2346393      -6.3916     27.31771  0.035569935  0.043626826            2 
   65000    1.2503225   -6.3824656     27.94098  0.035821769  0.043627577            1 
   66000    1.2403218   -6.3831596    28.437376  0.035905778  0.043634176            1 
   67000    1.2377707   -6.3925166    29.146315  0.036251635  0.043651044            1 
   68000    1.2413119   -6.3675544    29.415543  0.036048459  0.043651765            1 
   69000    1.2186388    -6.367422    30.091849  0.036342812  0.043667039            2 
   70000    1.2543151   -6.3906849    30.584102  0.036409645  0.043689133            2 
   71000    1.2370797   -6.3712791    31.453762  0.036917561  0.043721001            1 
   72000    1.2592415   -6.3645435    31.959687  0.036990378  0.043760511            3 
   73000     1.260908   -6.4049954    32.421953  0.037011361  0.043802175            1 
   74000    1.2274592   -6.3269958    33.096093  0.037270374  0.043837335            3 
   75000    1.2374733    -6.371583    33.453476  0.037170529  0.043875345            3 
   76000    1.2366479   -6.3880756    33.944792  0.037220166  0.043900987            2 
   77000    1.2314644   -6.3809928    34.494032  0.037331203  0.043928224            6 
   78000    1.2417035   -6.4116499    35.132032  0.037534222  0.043957288            2 
   79000    1.2404719   -6.3754792    35.565281  0.037516119  0.043978403            2 
   80000    1.2190136   -6.3487258    36.127653  0.037632972  0.043990842            3 
   81000    1.2176538   -6.3502581    36.568528  0.037621942  0.044007088            2 
   82000    1.2217846   -6.3788872    36.942463  0.037543154  0.044012871            3 
   83000    1.2570649   -6.3503187    37.499109  0.037649707  0.044007591            2 
   84000    1.2397399   -6.3626555    38.033913  0.037732056  0.044004895            2 
   85000    1.2510866   -6.3585007    38.483512  0.037728933  0.043994622            3 
   86000      1.24864    -6.371983    39.064229  0.037852934  0.043985115            5 
   87000    1.2212694   -6.3915961    39.627545  0.037957418  0.043988336            2 
   88000    1.2336261   -6.3300009    40.366943  0.038226272  0.043996562            2 
   89000     1.224856   -6.3723835    40.532467  0.037951748  0.043993251            2 
   90000    1.2236918   -6.3983047     41.16423  0.038115027  0.043987489            3 
   91000    1.2251462   -6.3843787    41.674755  0.038163695   0.04398819            1 
   92000    1.2569252    -6.359707    42.339292  0.038350808  0.043986885            4 
   93000    1.2135635   -6.4097526    42.578177  0.038152488  0.043974537            2 
   94000    1.2390335   -6.3238779    43.165229  0.038267047  0.043948301            2 
   95000    1.2291059    -6.390307    43.376334  0.038049416  0.043924326            2 
   96000     1.223025   -6.3737001     43.83964  0.038055243  0.043898203            3 
   97000    1.2392792    -6.352887    44.259802  0.038023885  0.043862749            4 
   98000    1.2255856   -6.3678756    44.592696  0.037918959  0.043820779            3 
   99000    1.2327218   -6.3757719    45.215122  0.038059867  0.043775441            3 
  100000    1.2596958   -6.3910827     45.90334  0.038252783  0.043738089            3 
  101000    1.2327731   -6.3752347    46.455831  0.038329893  0.043713858            2 
  102000    1.2494394   -6.3418934    46.904605  0.038320755  0.043687929            2 
  103000    1.2335417   -6.3788175    47.531014  0.038455513  0.043659117            1 
  104000    1.2028666   -6.3919587    47.999677  0.038461279  0.043638817            2 
  105000    1.2407301   -6.3694978    48.648307  0.038609767  0.043623352            1 
  106000     1.222911   -6.3969576    49.134136  0.038627466  0.043608533            2 
  107000    1.2123702    -6.364986    49.569636  0.038605635  0.043598041            2 
  108000    1.2440267   -6.3675345    50.460013  0.038935195   0.04359225            3 
  109000    1.2391558   -6.4087312     51.00848  0.038997309  0.043592223            3 
  110000    1.2258191   -6.3656084    51.270785  0.038841503  0.043586711            2 
  111000    1.2391554   -6.3728925    51.854431  0.038929753  0.043570108            1 
  112000    1.2119322   -6.4321172    52.001274  0.038691424  0.043555575            3 
  113000    1.2052591   -6.3749642    52.720595  0.038879494  0.043536449            4 
  114000    1.2421076   -6.4048756    53.055057  0.038782936  0.043512582            4 
  115000    1.2133026   -6.3790304    53.507208  0.038773339   0.04348742            2 
  116000    1.2358638   -6.3651061    54.018145  0.038806138  0.043467195            3 
  117000    1.1972552    -6.395813    54.433125  0.038770032  0.043440888            1 
  118000    1.2464614   -6.3910204    54.822235  0.038716267  0.043414789            1 
  119000     1.209824   -6.3353842    55.493106  0.038860719  0.043393306            2 
  120000    1.2390627   -6.3843836      55.8638  0.038794305  0.043372511            3 
  121000    1.2085787   -6.3786856     56.77946  0.039104311  0.043351584            4 
  122000    1.2429662   -6.4012625    57.191251  0.039065062  0.043334697            1 
  123000    1.2146837   -6.3903386    57.575936  0.039008086  0.043321774            1 
  124000    1.2454713   -6.3933442    58.428584  0.039266521   0.04331576            3 
  125000    1.2122866   -6.3659627    59.139099  0.039426066  0.043316089            1 
  126000    1.2532124   -6.3903032    59.590671  0.039411819  0.043318919            3 
  127000    1.2325405     -6.36792    60.438501  0.039657809  0.043330093            3 
  128000    1.2453559   -6.3698088    61.140629  0.039805097   0.04334573            1 
  129000    1.2479714   -6.4180183    61.577999  0.039779069  0.043360153            2 
  130000    1.2370605   -6.4120256    62.092248  0.039802723  0.043374706            1 
  131000    1.2371119   -6.4065048    62.654253  0.039856395  0.043388084            3 
  132000     1.211084   -6.3874214    63.044212  0.039800639  0.043399613            1 
  133000    1.2285196   -6.4103197    63.447657  0.039754171  0.043407979            2 
  134000    1.2401036   -6.4031514    63.759656  0.039651527  0.043415503            5 
  135000     1.249074   -6.3917342    64.392475  0.039748441  0.043417321            2 
  136000    1.2283489   -6.3946506    64.744998   0.03967218  0.043412386            1 
  137000    1.2342886   -6.3646114    65.561144  0.039879041  0.043414797            3 
  138000    1.2532416   -6.4322467    65.850569  0.039764836  0.043417146            2 
  139000    1.2187107   -6.4017931    66.563024   0.03990589  0.043417509            4 
  140000    1.2255446    -6.376639    67.058331  0.039915673   0.04341512            2 
  141000     1.222291   -6.3632016    67.420956  0.039846901  0.043416739            3 
  142000    1.2439911   -6.4160625    68.157218  0.039998367  0.043421018            3 
  143000    1.2422243   -6.3656072    68.511877  0.039925336  0.043426291            3 
  144000    1.2264904   -6.3614071    69.256392   0.04007893  0.043432345            2 
  145000    1.2110055   -6.3623954     69.42388  0.039898781  0.043434496            2 
  146000    1.2139821   -6.3926515    69.892702  0.039893095  0.043432556            5 
  147000    1.2149066   -6.4166296    70.270769  0.039836037  0.043425283            2 
  148000    1.2095623   -6.3959685    70.765841  0.039845631  0.043414187            2 
  149000    1.2153071    -6.420603    71.122261  0.039777551  0.043402871            3 
  150000    1.2124615   -6.3945515    71.470765   0.03970598  0.043388351            2 
  151000    1.2134157   -6.3983918    72.131185  0.039807497  0.043375834            2 
  152000    1.2337408   -6.3990042    72.463668  0.039727888  0.043362244            1 
  153000    1.2697714   -6.3898436    72.930378  0.039722428  0.043351008            2 
  154000    1.2311437    -6.378647    73.726239  0.039895151  0.043339426            4 
  155000    1.2209166   -6.3961084    74.240566  0.039914283  0.043324202            2 
  156000    1.2152164   -6.3569915    74.912901  0.040017575  0.043317054            4 
  157000    1.2195649   -6.3919728    75.412288  0.040027753   0.04331297            3 
  158000    1.2151133   -6.4146433    75.630076   0.03988928  0.043302943            2 
  159000     1.233163   -6.4136377    76.066331  0.039867049  0.043286234            2 
  160000    1.2250775   -6.3696022    76.475767  0.039831128  0.043268982            2 
  161000     1.208847   -6.4102437    76.937877  0.039822917  0.043253359            2 
  162000    1.2499461   -6.3837128    77.413646  0.039821834  0.043236051            2 
  163000    1.2042475   -6.4182711    77.946343  0.039849869  0.043221865            2 
  164000    1.2322158   -6.3999423     78.48777  0.039881997  0.043207904            3 
  165000    1.2275217     -6.39612    78.836858  0.039816595  0.043193311            2 
  166000    1.2073374   -6.3665773    79.848935  0.040084807  0.043181984            2 
  167000    1.2203391   -6.4109385    80.058288  0.039949245  0.043172359            2 
  168000     1.214919   -6.3939039    80.722639  0.040040992  0.043162433            4 
  169000    1.2057881   -6.3916374    81.094035  0.039987197   0.04315191            2 
  170000    1.2092385   -6.4081153    81.866918  0.040130842  0.043140873            1 
  171000    1.2384812   -6.4028338    82.217034  0.040066781  0.043132761            2 
  172000    1.2212465   -6.3835644    82.598673  0.040018737  0.043121336            4 
  173000    1.2184014   -6.3624985    83.153249  0.040054552  0.043108964            2 
  174000    1.2030477   -6.3808849    84.076993  0.040266759  0.043099092            5 
  175000    1.2143444   -6.3945654    83.984138  0.039992447  0.043089388            4 
  176000    1.2519874   -6.4316552    84.159714   0.03984835  0.043077588            1 
  177000    1.2380764    -6.412169    85.217536   0.04012125  0.043065657            2 
  178000    1.2097622   -6.3777634    85.361955  0.039963462  0.043052978            2 
  179000    1.2380072   -6.3891641    85.832164  0.039959108  0.043037694            2 
  180000     1.220703    -6.394409    86.225608  0.039919263  0.043023744            3 
  181000    1.2426437   -6.4225711    87.034515  0.040071139   0.04301252            2 
  182000    1.2160706   -6.3841578    87.930769  0.040261341   0.04300453            1 
  183000    1.2246381   -6.3763141    88.405058  0.040257312  0.042999486            2 
  184000    1.2137537   -6.4104628    88.836472  0.040233909  0.042989865            3 
  185000    1.2133231    -6.427679    89.210984  0.040185128  0.042981606            3 
  186000    1.2425962   -6.3882424    89.526555  0.040110464  0.042968734            3 
  187000    1.2207775   -6.3589358     89.94348  0.040081765  0.042956829            3 
  188000    1.2240638   -6.4057078    90.020155  0.039902551  0.042941362            4 
  189000    1.2293352   -6.3995088    90.879218  0.040070202  0.042924551            2 
  190000    1.2188813   -6.4041082    91.364095  0.040071971  0.042908537            2 
  191000    1.2197349   -6.4336863     91.61301  0.039970772  0.042892985            3 
  192000    1.2446217    -6.376519    92.165339  0.040002317  0.042876687            1 
  193000    1.2081036    -6.385126    92.602562  0.039983835  0.042858229            2 
  194000    1.2147869   -6.4305885    93.150769  0.040013217   0.04284004            4 
  195000    1.1883363   -6.4301667    93.343004  0.039890173  0.042823471            3 
  196000    1.2049706    -6.410734    94.270121  0.040080834  0.042806353            2 
  197000    1.2373328   -6.4160858     94.88486   0.04013742  0.042793255            3 
  198000    1.2317311   -6.3678424    95.173205  0.040056063  0.042779702            1 
  199000    1.1765559   -6.4122526    95.547062  0.040011332  0.042768261            3 
  200000    1.1746477   -6.4439489    96.259525  0.040108135  0.042757256            4 
  201000    1.2052846   -6.3839875    97.225883  0.040309238  0.042748159            3 
  202000    1.2495575   -6.3966621    97.530763  0.040235463  0.042740878            3 
  203000    1.2160404   -6.3770121    98.077525   0.04026171   0.04273293            2 
  204000    1.1932078   -6.4159337     98.54351  0.040254702  0.042723511            1 
  205000    1.2181582    -6.383892     99.01772  0.040251106  0.042714878            2 
  206000    1.2301375   -6.4668554    99.373233  0.040199528  0.042705964           11 
  207000    1.2261879   -6.4465058    99.819039  0.040184798  0.042697189            2 
  208000    1.2451477   -6.4264003    100.61234  0.040309431  0.042688773            4 
  209000    1.2071229   -6.3985702    101.13694  0.040325735  0.042676427            1 
  210000    1.2429232   -6.3730582    101.19124  0.040155255  0.042663807            1 
  211000    1.2248384   -6.4102117    101.92341  0.040254109  0.042652751            1 
  212000    1.2002904   -6.4185046    102.30718  0.040215087  0.042644365            2 
  213000    1.1973474   -6.4180362    102.78875  0.040214692   0.04263532            2 
  214000    1.2181673   -6.4083816    103.58121  0.040335363  0.042624949            2 
  215000    1.2085377    -6.436487    103.90599  0.040273641   0.04261554            3 
  216000    1.2221463   -6.3992675      104.053  0.040143905  0.042604556            1 
  217000    1.2243697   -6.3945809     104.8213  0.040253954  0.042593519            1 
  218000    1.2244168   -6.4109102    104.90815  0.040102503  0.042581628            3 
  219000    1.2023604   -6.4115605    106.06823  0.040360816  0.042570218            3 
  220000    1.2284014   -6.4094225    106.05802  0.040173492  0.042560713            2 
  221000    1.2049863   -6.3976939    106.86273  0.040295149   0.04255171            2 
  222000    1.2399974   -6.4094702    107.69896  0.040427537  0.042543616            2 
  223000    1.2117818   -6.4298918    107.66225  0.040232529  0.042534984            3 
  224000    1.2093996   -6.4079236    108.29044  0.040286622  0.042524348            2 
  225000    1.1945729    -6.384441    108.83001  0.040307412  0.042513995            1 
  226000    1.2170925   -6.3811429    108.96049  0.040177172  0.042502441            2 
  227000    1.2209589   -6.3725627    110.03202  0.040393547  0.042491719            1 
  228000    1.2129609   -6.3917079    110.03208  0.040216402  0.042482647            1 
  229000    1.1950236   -6.4322667    110.47455  0.040201803  0.042473213            2 
  230000    1.2147235   -6.4160501    111.35402  0.040345659  0.042464573            2 
  231000    1.2003768   -6.4589116    111.73131   0.04030711  0.042456495            3 
  232000    1.2236413     -6.39774    112.49064  0.040406119   0.04244991            2 
  233000    1.2079018   -6.3980362    112.74869  0.040324998  0.042443639            3 
  234000    1.2317262   -6.4003326    113.54646  0.040436772  0.042436902            2 
  235000    1.2134548   -6.3980306    114.31958  0.040538858  0.042433244            2 
  236000    1.2115164   -6.4068201    115.32253  0.040721232  0.042431821            2 
  237000     1.202912   -6.3902386    115.96385  0.040774912  0.042433389            2 
  238000    1.2023287   -6.4356199    116.05068  0.040633991   0.04243596            2 
  239000     1.212453   -6.3900318    117.25455  0.040883736  0.042439629            1 
  240000    1.2191562    -6.400902    117.30612  0.040731293  0.042442604            3 
  241000     1.201373   -6.3995186    117.57051  0.040653705  0.042444319            3 
  242000    1.2119828   -6.4583381      117.852  0.040582644  0.042446085            2 
  243000     1.185977   -6.4203341    119.55434   0.04099943  0.042450642            2 
  244000    1.1834254   -6.4405871    120.00135  0.040984066  0.042459796            3 
  245000      1.23688   -6.4642502    120.61678  0.041026116  0.042470409            2 
  246000    1.2059877   -6.3768503    121.74157  0.041240369  0.042480336            2 
  247000    1.2125559   -6.4368957    122.16459  0.041216124  0.042491364            3 
  248000    1.2126797   -6.4159153    123.02617  0.041339438  0.042503517            2 
  249000    1.2262208   -6.4290292    122.86414   0.04111919  0.042515826            2 
  250000      1.23206   -6.4236888    123.38942  0.041129805   0.04252522            2 
  251000    1.1857583   -6.4198316    123.83442  0.041113686  0.042534918            1 
  252000    1.2197624   -6.4662733    123.94652  0.040987604  0.042542159            1 
  253000    1.2256859   -6.4076645    124.92387  0.041147521  0.042549261            1 
  254000    1.2215916   -6.4026473    125.20738  0.041078537  0.042556527            3 
  255000    1.2276274    -6.429526    125.41861  0.040986473  0.042562061            2 
  256000    1.2221406   -6.4557168    126.12046  0.041054836  0.042566029            4 
  257000    1.1862635   -6.3782907    126.41403  0.040990282  0.042570117            2 
  258000    1.2130372   -6.4080639    127.10515  0.041054636  0.042573884            2 
  259000    1.2074682   -6.4253724    126.77665  0.040790428  0.042577991            3 
  260000    1.1925167   -6.4036925    127.92412  0.041001322  0.042581215            2 
  261000    1.1898448   -6.3708336    128.50278  0.041028985  0.042584445            3 
  262000    1.2182895   -6.4122922    128.07778  0.040737208  0.042584584            3 
  263000    1.2419802   -6.4374191    129.41318  0.041005443  0.042586417            4 
  264000    1.1721642   -6.4523739    130.02311  0.041042649  0.042588459            5 
  265000     1.197461   -6.4315313    129.88248  0.040843547  0.042590168            2 
  266000    1.2206891   -6.3817637    131.42518  0.041173303  0.042593677            2 
  267000    1.2010086   -6.4695122    131.52147  0.041049148  0.042597911            3 
  268000    1.2132351    -6.440274    131.88101  0.041007775  0.042600865            4 
  269000    1.1974322   -6.4141923    132.59068  0.041075181  0.042603806            3 
  270000    1.2035648   -6.4102314    132.47157  0.040886286  0.042603141            3 
  271000    1.2230802    -6.438842    132.86264   0.04085567  0.042602284            1 
  272000    1.1890889   -6.4516284    132.98032   0.04074152  0.042600368            1 
  273000    1.2262706    -6.450145     134.1597   0.04095229  0.042596733            3 
  274000    1.1888524   -6.4180818    133.93788  0.040735363  0.042591893            3 
  275000    1.2181149   -6.4182705    134.30276  0.040697807   0.04258515            6 
  276000    1.2168889   -6.4064066    134.46677  0.040599869  0.042576955            2 
  277000    1.1774597   -6.4170134    135.21088  0.040677159  0.042568912            3 
  278000    1.2030974   -6.4347636    135.81597   0.04071222  0.042559791            2 
  279000    1.1864872   -6.4533793     135.5391  0.040483603  0.042551287            2 
  280000    1.1831123    -6.425009    136.69838   0.04068404  0.042541539            2 
  281000    1.2097973     -6.39374    136.98627  0.040624634  0.042531797            2 
  282000    1.2146786   -6.4622597    137.45558  0.040619261  0.042523661            2 
  283000    1.2237261   -6.4248805     137.4534  0.040475088  0.042513643            1 
  284000    1.2230869   -6.4633959    137.93441  0.040473711  0.042503003            5 
  285000    1.2224658   -6.4119999    138.40376  0.040468935  0.042491985            2 
  286000    1.1992675   -6.4136577    138.93783   0.04048305  0.042481875            2 
  287000    1.1883446   -6.4264488     139.4774  0.040498665  0.042470938            2 
  288000    1.2004237   -6.4358943    139.65418  0.040409196  0.042459811            3 
  289000    1.2015548   -6.4322291    140.24113   0.04043862  0.042448946            2 
  290000    1.1834007   -6.4741029      141.028  0.040525287  0.042438373            3 
  291000    1.1873743   -6.4444991    141.82614  0.040614587   0.04242837            3 
  292000    1.1933601   -6.4474084     141.7775  0.040461615  0.042418013            2 
  293000    1.2218167    -6.419397    143.03716  0.040681786  0.042409228            3 
  294000    1.2077559   -6.4250143    143.27355  0.040610416  0.042400029            4 
  295000    1.2047012   -6.4400886    143.37706  0.040501994  0.042390283            2 
  296000    1.1994344   -6.4221586    143.49534  0.040398463   0.04237985            4 
  297000    1.2151729   -6.4321779    144.41171   0.04051956  0.042368097            2 
  298000    1.2121633   -6.4583439    144.19159  0.040322033  0.042356846            2 
  299000    1.2091239   -6.4552206    145.41893  0.040529244  0.042345996            1 
  300000    1.2088752   -6.4364467     145.4189  0.040394138  0.042336381            5 
  301000    1.2014079   -6.4519662    145.94497  0.040405585  0.042325855            3 
  302000    1.1840658   -6.4390916    146.60744  0.040454591  0.042314663            4 
  303000    1.2078966   -6.4343299    147.11212   0.04045988  0.042303445            3 
  304000    1.2016693   -6.4250858    147.39286  0.040403744  0.042292705            1 
  305000    1.2318143   -6.4431267    147.95294    0.0404243  0.042282208            2 
  306000    1.2132123   -6.4028624     148.5295  0.040449209  0.042271975            3 
  307000     1.170483   -6.4650981    148.80974  0.040393523  0.042259756            3 
  308000    1.2087315   -6.4156151    149.28001  0.040389614  0.042249541            2 
  309000    1.2018892   -6.4677725    149.61652  0.040349655  0.042239047            4 
  310000     1.200094   -6.4054292    150.72043  0.040516245  0.042228743            3 
  311000    1.2088954   -6.4129774    150.30708  0.040275208  0.042217985            3 
  312000    1.2097867   -6.4686487    150.78605  0.040274051  0.042205472            2 
  313000    1.1816908   -6.4526185     151.2372  0.040265495  0.042192018            2 
  314000    1.2265477   -6.4172924    151.80998  0.040289273  0.042179569            2 
  315000     1.209117   -6.4272714    152.88688  0.040446264  0.042166911            2 
  316000    1.2087872   -6.4237379    152.77175  0.040287908  0.042155022            4 
  317000    1.1950949   -6.4160462    153.45638  0.040340793  0.042142633            3 
  318000    1.2109232   -6.4365211    153.30771  0.040174975  0.042128983            2 
  319000    1.2188047   -6.4411667     154.2791  0.040302796   0.04211586            2 
  320000    1.1936507   -6.4523812    154.47009  0.040226586  0.042103357            4 
  321000    1.2154961   -6.4138585      155.164  0.040281413  0.042089662            2 
  322000    1.2050875   -6.4379013    155.33143  0.040199645   0.04207567            2 
  323000    1.2015874   -6.4133055    155.48024  0.040113582  0.042062434            2 
  324000    1.2043569   -6.4636415    156.14944  0.040161893  0.042048236            4 
  325000    1.1792088    -6.447291    156.67849  0.040173972   0.04203428            1 
  326000    1.1817824   -6.4248076    156.97889  0.040127529  0.042019544            1 
  327000    1.2125211   -6.3922357    156.78283  0.039954849  0.042003499            5 
  328000    1.1846361   -6.4429297    157.66686  0.040057638   0.04198722            2 
  329000    1.1860681   -6.4440112    156.92461  0.039747874  0.041970012            2 
  330000    1.1789863   -6.3851135    158.16565   0.03994082  0.041950924            2 
  331000     1.218803   -6.4631348    158.48927  0.039901629  0.041931812            1 
  332000    1.1935851   -6.4607512     158.5399  0.039794151  0.041913683            2 
  333000    1.1995986   -6.4863286    159.52347  0.039920788  0.041896586            3 
  334000    1.1948947   -6.4632454     160.1196      0.03995   0.04187992            3 
  335000    1.1933721   -6.4690319    161.21498  0.040103229  0.041865253            1 
  336000    1.2341992   -6.4216568    162.37504  0.040271587  0.041852761            3 
  337000    1.1827768   -6.4640439    161.97131  0.040052252  0.041839216            2 
  338000    1.1867937   -6.4112609    161.71996  0.039871784  0.041824418            5 
  339000    1.1931675   -6.4578355    162.54332  0.039956568  0.041809651            2 
  340000    1.2040041   -6.4118279     163.5497  0.040085712  0.041795684            3 
  341000    1.2046616   -6.4531189    163.34508  0.039918153  0.041780885            7 
  342000    1.1720035   -6.3922373     163.7295  0.039895101  0.041765822            2 
  343000    1.2014696   -6.4715612    164.14799  0.039880463  0.041751428            1 
  344000    1.2069058   -6.4461231    165.51745  0.040096281  0.041737091            3 
  345000    1.2011608   -6.4379856    165.81753  0.040052544  0.041723019            4 
  346000      1.18449   -6.4237779    165.88852  0.039953882  0.041709572            1 
  347000    1.2284669   -6.4464114    166.58007   0.04000482  0.041695012            2 
  348000    1.1934013   -6.4824045    166.42943   0.03985379  0.041680402            5 
  349000    1.2076213   -6.4420741    167.37381  0.039965092  0.041665797            5 
  350000    1.1805449   -6.4545581    167.79677  0.039951612  0.041651536            3 
  351000    1.2015697   -6.4536859    167.86089  0.039853014  0.041637793            5 
  352000    1.2009912   -6.4498195    168.60632   0.03991627  0.041623424            3 
  353000    1.1847441   -6.4515962    168.63438  0.039809815  0.041610174            3 
  354000    1.1976765   -6.4398812    169.58041  0.039920059  0.041596665            3 
  355000    1.1827936   -6.4530851    170.10042  0.039929677  0.041583447            2 
  356000    1.1866217   -6.4183787    171.11679  0.040055427   0.04157205            3 
  357000    1.2259956   -6.5093295    171.31583  0.039989689  0.041560047            4 
  358000    1.1766278   -6.4554979    171.79771  0.039990157  0.041548952            3 
  359000    1.1895427   -6.4694059    171.81891  0.039883684  0.041536652            2 
  360000    1.2193499   -6.4236136    172.62243  0.039958896  0.041523838            3 
  361000    1.1934837   -6.4207719     173.7972  0.040119389  0.041511479            1 
  362000    1.1912771   -6.4501143    173.68971   0.03998382  0.041500496            2 
  363000    1.1763592   -6.4185306    174.32975  0.040020604  0.041488316            1 
  364000     1.201094   -6.4637335    173.95925  0.039825836  0.041474789            2 
  365000    1.2009752   -6.4584737    175.04242  0.039964023  0.041462419            2 
  366000    1.1839657   -6.4078258    176.09215   0.04009384  0.041451094            2 
  367000    1.1923615   -6.4696405    175.58586  0.039869631  0.041439702            2 
  368000    1.1931571   -6.4532005    177.45774  0.040185176  0.041429154            3 
  369000    1.1801121   -6.4502678    176.87018  0.039943582  0.041418316            2 
  370000    1.2014117   -6.4610176    177.34626  0.039942851  0.041407149            2 
  371000    1.1594221   -6.4502176     178.0596  0.039995417  0.041397122            4 
  372000    1.2116862   -6.4744582    178.28645   0.03993872  0.041386304            4 
  373000    1.2066018   -6.4546783    178.53237  0.039886589     0.041375            2 
  374000    1.1754539   -6.4599508    178.58369  0.039791375   0.04136465            2 
  375000    1.1749035   -6.5099818    179.32206  0.039849347  0.041353058            1 
  376000    1.1743299   -6.4477672    180.19333  0.039936466  0.041342523            7 
  377000    1.1744893   -6.4789193    180.73757  0.039950832  0.041332165            2 
  378000     1.178938    -6.439375      181.304  0.039970018    0.0413222            3 
  379000    1.1818706   -6.5007517    180.97554  0.039792336  0.041311554            3 
  380000    1.1999605   -6.4792629    181.83964  0.039877114  0.041299824            3 
  381000    1.1867108   -6.4681063    181.89548  0.039784663   0.04128833            5 
  382000    1.1907402   -6.4878044    182.49128  0.039810489  0.041277297            3 
  383000    1.1957274   -6.4568686    183.16334  0.039852772  0.041265154            2 
  384000    1.1889394   -6.4707771    182.75099  0.039659504  0.041251745            4 
  385000    1.1792014   -6.4683687    182.74423  0.039555029  0.041238284            3 
  386000     1.192145   -6.4533411    183.87947   0.03969764  0.041224587            3 
  387000    1.1607336   -6.4752615    184.06058   0.03963406  0.041210671            1 
  388000    1.1945512   -6.4352811    184.49326  0.039624841  0.041197088            3 
  389000    1.1850017   -6.4604707    184.84825  0.039599024  0.041183922            3 
  390000    1.1982611   -6.4599773    186.01515  0.039746827  0.041171124            3 
  391000    1.2108982   -6.4472203     186.3619  0.039719075  0.041158929            4 
  392000    1.1986606   -6.4564498    186.57363  0.039662761  0.041147118            1 
  393000    1.2040648   -6.4429101    187.37972  0.039732765  0.041135309            1 
  394000    1.1947838   -6.4598672    187.61096   0.03968083  0.041122977            2 
  395000     1.190989   -6.4728273    187.53935  0.039565264  0.041110028            3 
  396000    1.1729659   -6.4721847    188.13855  0.039591445  0.041096909            3 
  397000    1.1976703   -6.5031053    188.98416   0.03966922  0.041083904            3 
  398000    1.1875338   -6.4931058    189.26589  0.039628537  0.041071352            3 
  399000    1.1705505   -6.4591333    189.90067  0.039661794  0.041059099            3 
  400000    1.1803037   -6.4921295    190.58079   0.03970433  0.041046517            2 
  401000    1.1799957   -6.4935183    190.66406  0.039622623  0.041033805            2 
  402000    1.1810485   -6.4901935     190.4297  0.039475476  0.041020179            1 
  403000    1.1894254   -6.4721671    191.50976   0.03960086  0.041006238            3 
  404000    1.1732804   -6.4622901    191.58163  0.039517663  0.040993473            2 
  405000    1.1977064   -6.4915325    192.87212  0.039685621  0.040980129            2 
  406000    1.1933834   -6.4288372    192.29365  0.039469141  0.040967329            3 
  407000    1.1550912   -6.4429421     193.3522  0.039588903  0.040953546            2 
  408000    1.1747454   -6.4428372    193.03698  0.039427487  0.040939768            2 
  409000    1.1861954   -6.5070278    193.08863  0.039341611   0.04092527            2 
  410000    1.1823255   -6.4402752    194.35977  0.039504018  0.040911465            1 
  411000    1.1688806   -6.4713688    194.69756  0.039476391  0.040897815            1 
  412000    1.1719607   -6.4859364    194.67957  0.039376935  0.040884202            3 
  413000    1.1943427    -6.422616    196.24711  0.039597883  0.040870156            2 
  414000     1.145774   -6.4612929    195.34627  0.039320908  0.040856369            2 
  415000    1.1718111   -6.4600173    196.70572   0.03949914  0.040842262            1 
  416000    1.1662739   -6.4683082    196.59089  0.039381189  0.040828343            2 
  417000     1.165426   -6.4697975    196.55195  0.039278967  0.040813781            2 
  418000    1.1786047   -6.4400382    198.02599  0.039478866  0.040800365            2 
  419000    1.1849138   -6.4585104    198.49249  0.039477425  0.040787178            2 
  420000    1.2001308   -6.4663079    198.89087  0.039462475  0.040773368            3 
  421000    1.2061126   -6.4611541    199.16358   0.03942272  0.040760373            2 
  422000    1.1733285   -6.4513656    199.27522  0.039351346  0.040748436            5 
  423000    1.1625248   -6.4662001    201.09389  0.039616605  0.040736503            2 
  424000    1.1547195   -6.4854979    200.90631  0.039486302  0.040724552            3 
  425000    1.1976157   -6.4934434    201.07053  0.039425595  0.040714231            4 
  426000     1.187532   -6.4592619     201.7363  0.039463282  0.040703975            2 
  427000    1.1763239   -6.4596575    201.94466  0.039411526  0.040693107            2 
  428000    1.1775431   -6.4682924    202.93399   0.03951207  0.040683242            2 
  429000    1.2179933   -6.4566188    204.21252  0.039668322  0.040673524            2 
  430000    1.1653226   -6.4643729    203.96704  0.039528495  0.040664633            3 
  431000    1.1825226   -6.5078252    204.81809  0.039601333  0.040654911            3 
  432000    1.2216375   -6.4915113    205.35892   0.03961399  0.040646268            4 
  433000    1.1425766    -6.454404    206.15679  0.039676057  0.040637304            1 
  434000    1.1818817   -6.4579998    205.72614  0.039501946  0.040627682            4 
  435000    1.1638065   -6.4834874    206.56884  0.039572574  0.040619212            3 
  436000    1.1887896   -6.4885304     207.2048  0.039603363   0.04061012            3 
  437000     1.157426   -6.4713199    207.35764  0.039541884  0.040600875            2 
  438000    1.1898698   -6.4692412    208.14359  0.039601141  0.040591938            5 
  439000    1.1649068   -6.4673364     207.3424  0.039358846   0.04058213            4 
  440000    1.1936522   -6.4765018    208.73378  0.039532912  0.040571609            3 
  441000    1.1700376   -6.4790924    208.75449  0.039447182  0.040562426            2 
  442000     1.153729   -6.4579818    209.65107  0.039526974  0.040552986            2 
  443000    1.1965566   -6.4712623     209.2272  0.039358013  0.040543156            2 
  444000    1.1750824   -6.4720128    210.14504  0.039441636  0.040533317            2 
  445000    1.1873224   -6.4342183     210.8374   0.03948266  0.040523894            3 
  446000    1.1731586   -6.4716478    211.03333  0.039430743  0.040514238            2 
  447000    1.1794619   -6.5067269    211.40544  0.039411902  0.040505324            1 
  448000    1.2091611   -6.4404206    212.02022  0.039438285  0.040495464            3 
  449000    1.1665106    -6.516042    212.30494  0.039403293  0.040486019            2 
  450000    1.1914786   -6.5561338    211.96438  0.039252663  0.040476467            6 
  451000     1.166909   -6.4532367    213.50752  0.039450761  0.040467206            2 
  452000    1.1800773   -6.5612759    213.44035  0.039351097  0.040458222            5 
  453000     1.177952   -6.4983453    214.59505  0.039476646  0.040448648            3 
  454000    1.1689424   -6.5068963    214.86525  0.039439289  0.040439907            4 
  455000    1.1732893    -6.497851    214.98359  0.039374284  0.040430611            1 
  456000    1.1847912   -6.4653668    216.51164  0.039567186  0.040421702            1 
  457000    1.1571708   -6.4722751    216.27039  0.039436614  0.040413446            2 
  458000    1.1722686   -6.4795318     216.0571    0.0393117  0.040404562            2 
  459000    1.1739508   -6.5042184    216.49377  0.039305333  0.040395254            1 
  460000    1.2025904   -6.4616808    217.32458  0.039370395  0.040385506            5 
  461000    1.1778151   -6.4927825    217.52978  0.039322086  0.040376677            4 
  462000    1.2013812   -6.5063791    218.14496  0.039347937  0.040367025            2 
  463000    1.1898536   -6.4966421    218.30033  0.039290916  0.040357438            2 
  464000    1.1775543   -6.5150485    218.82583  0.039300615  0.040347891            6 
  465000     1.148775   -6.4972249    219.15387  0.039274887  0.040338456            3 
  466000    1.1797256   -6.5015075    220.30669  0.039396761   0.04032939            5 
  467000    1.1991937   -6.5049586    220.12087  0.039279242  0.040320668            2 
  468000    1.1771051     -6.49466    221.56811  0.039453011   0.04031286            2 
  469000    1.1980809   -6.5278407    221.14952  0.039294513  0.040305345            2 
  470000    1.1753623   -6.4336023    222.79968  0.039503489  0.040298577            4 
  471000    1.1747415   -6.4628848    224.07684  0.039645584  0.040292567            2 
  472000    1.1699925   -6.4893693    223.70828  0.039496518  0.040285967            3 
  473000      1.19197       -6.488    223.39597  0.039357993  0.040278362            3 
  474000    1.1731269   -6.4730388     224.5886  0.039484633  0.040270888            3 
  475000    1.1765021   -6.4690566    224.55526   0.03939566    0.0402633            4 
  476000    1.1752255   -6.5138975      224.487  0.039300946  0.040255467            2 
  477000    1.1724696   -6.5271097    224.85961   0.03928365  0.040247868            4 
  478000    1.1442448   -6.5155724    224.90482  0.039209347  0.040239536            3 
  479000    1.1787761   -6.5266471    225.26494  0.039190142  0.040230598            3 
  480000    1.1730025   -6.5141538    225.83723  0.039207852  0.040221926            3 
  481000    1.1631843   -6.4433583    226.68104   0.03927253  0.040212896            2 
  482000    1.1552729    -6.495432    227.06702  0.039257784   0.04020326            2 
  483000    1.1723008   -6.5313593    226.90601  0.039148725  0.040194529            2 
  484000    1.1684337   -6.5243181    227.37148  0.039147983  0.040185213            4 
  485000     1.171845   -6.5094526    227.89069  0.039156476  0.040174957            5 
  486000    1.1806112    -6.493477    227.63504  0.039032071  0.040164342            1 
  487000    1.1762169   -6.4968505    228.23988  0.039055421  0.040153521            3 
  488000    1.1683439   -6.4843842    228.46374  0.039013616  0.040143234            5 
  489000    1.1911851   -6.4633122    229.73513    0.0391505  0.040133292            2 
  490000    1.1759469   -6.5403008     229.9474  0.039106701   0.04012371            3 
  491000    1.1863821   -6.5125923    230.34256   0.03909412  0.040113327            3 
  492000    1.1474876   -6.5180206    230.55366  0.039050416  0.040102959            4 
  493000    1.1618063   -6.5122657    231.26178  0.039090903  0.040093109            2 
  494000    1.2070275   -6.5328879    232.67923  0.039250882  0.040083614            2 
  495000    1.1842607   -6.5130931    232.18228  0.039087927  0.040074624            2 
  496000    1.1715389   -6.5305551     232.7955  0.039112148  0.040066392            3 
  497000    1.1685971   -6.4758205    234.19858  0.039268708  0.040057851            6 
  498000    1.1720531   -6.4908975    234.85454  0.039299621   0.04004995            3 
  499000    1.1879416   -6.5222664    234.74181   0.03920204  0.040042003            6 
  500000    1.1474489   -6.4725647    235.40193  0.039233655   0.04003453            2 
  501000    1.1770073   -6.4684086     235.7518   0.03921354  0.040027004            4 
  502000    1.1640182   -6.4456415    236.47758  0.039255906  0.040019305            3 
  503000    1.1694079   -6.5292349    236.77601  0.039227304  0.040011879            1 
  504000    1.1628775    -6.487046    237.86327  0.039329244    0.0400046            2 
  505000    1.1792067   -6.4700943    237.53404  0.039197037  0.039997851            3 
  506000    1.1950815   -6.5338708    237.58382   0.03912777  0.039990025            6 
  507000     1.182392   -6.5002132    238.79612  0.039249855  0.039983054            1 
  508000     1.170496   -6.4630017    239.55109  0.039296438  0.039976469            2 
  509000    1.1642853   -6.5343814    239.32838  0.039182774  0.039969606            3 
  510000    1.1504611   -6.4934878    239.93125  0.039204452  0.039961846            3 
  511000    1.1726449   -6.4768282     241.2853  0.039348549  0.039955006            3 
  512000    1.1629906   -6.4833222    241.04889  0.039233218    0.0399482            2 
  513000     1.167645   -6.5119623    240.68022  0.039096852  0.039940354            2 
  514000     1.172731   -6.5360072    241.14254  0.039095743  0.039932605            4 
  515000    1.1638953   -6.5066659    243.05318  0.039328993  0.039925641            2 
  516000    1.1651603   -6.4397332    243.80744  0.039374586  0.039918897            2 
  517000    1.1825185   -6.5168283    242.28461  0.039052967  0.039912318            3 
  518000    1.1522062   -6.5034708    243.60245  0.039189584  0.039904845            3 
  519000    1.1783265   -6.4996779    244.03834  0.039184062  0.039897502            3 
  520000    1.1828393   -6.5231628    244.74138  0.039221376  0.039890616            5 
  521000     1.147988   -6.5084764     244.4949   0.03910667  0.039883135            2 
  522000    1.1940971   -6.4903211    244.94083  0.039102942  0.039875557            3 
  523000     1.178547   -6.5041353    245.99458  0.039196077  0.039868231            4 
  524000    1.2052806   -6.5235882    245.44876  0.039034472  0.039860415            2 
  525000    1.1858261   -6.4936083    246.15196  0.039071739  0.039852688            2 
  526000    1.1181657   -6.4983066    246.86943  0.039111127  0.039844855            2 
  527000    1.1607058   -6.5057018    247.31296  0.039107046  0.039837107            1 
  528000    1.1526446   -6.4722853    247.13936   0.03900558  0.039830143            2 
  529000    1.1630145   -6.4915338    248.05364  0.039075873  0.039823047            3 
  530000    1.1812622   -6.4805413    248.01047  0.038995357  0.039815275            2 
  531000    1.1563397   -6.4777384     248.9927  0.039076067  0.039807434            1 
  532000    1.1758285   -6.4743507    249.43936  0.039072582  0.039800143            3 
  533000    1.1288859    -6.530688    249.60512  0.039025191  0.039792431            5 
  534000    1.1554304   -6.4840932    249.97607  0.039009999  0.039784078            2 
  535000    1.1923138   -6.5041945    249.43103  0.038852185  0.039775688            2 
  536000    1.1641256   -6.4947711    250.73917   0.03898308  0.039766913            1 
  537000    1.1752679   -6.4659421    251.42276  0.039016567  0.039758701            2 
  538000    1.1657062   -6.5398892    250.79301    0.0388465  0.039750638            3 
  539000    1.1476847   -6.5278023    251.74278  0.038921271   0.03974237            3 
  540000    1.1609859   -6.5356694    252.69794  0.038996596  0.039733987            8 
  541000    1.1569957   -6.5132285    253.00922  0.038972461  0.039725673            4 
  542000    1.1747059   -6.5127289    252.29895  0.038791351  0.039716715            2 
  543000    1.1704211   -6.5056028    253.03828  0.038833377  0.039707682            4 
  544000    1.1867422   -6.5129668    253.59384  0.038847095  0.039698345            4 
  545000    1.1680619   -6.4849234     254.7905  0.038958792  0.039689458            3 
  546000    1.1607093   -6.5131302     254.3606  0.038821826  0.039680679            3 
  547000    1.1630675   -6.5038868    255.14778  0.038870778  0.039671651            2 
  548000     1.161721   -6.4975763    255.45209   0.03884612  0.039662524            3 
  549000    1.1478586   -6.5108483     255.4216  0.038770735  0.039653114            2 
  550000    1.1733688   -6.5445591    255.37009  0.038692438  0.039643654            1 
  551000    1.1706638   -6.5488068    255.22732  0.038600623  0.039633885            2 
  552000    1.1822172   -6.5404506    256.05313  0.038655364  0.039623863            7 
  553000    1.1633348   -6.5370787    256.65929  0.038676807   0.03961422            4 
  554000    1.1611793    -6.502747    257.12626  0.038677236  0.039604546            2 
  555000    1.1573275   -6.5258859    258.06524  0.038748534  0.039594857            2 
  556000    1.1433916   -6.5175065    258.49041  0.038742568  0.039585573            3 
  557000    1.1843386   -6.4754338    259.39864  0.038808893  0.039576687            2 
  558000    1.1474932   -6.4994113    259.73064  0.038788925   0.03956779            3 
  559000    1.1596743   -6.5151055    260.34601  0.038811272  0.039558799            8 
  560000    1.1416947    -6.519941    261.60597  0.038929459  0.039550612            4 
  561000    1.1575775   -6.4950243    261.23147  0.038804437  0.039542787            4 
  562000    1.1617672   -6.5328664     261.7767  0.038816237  0.039535409            3 
  563000    1.1572406   -6.5149188    262.19901    0.0388098  0.039527567            2 
  564000    1.1412237   -6.5139583     263.7207  0.038965824  0.039520192            3 
  565000    1.1755802   -6.4978636    263.72697  0.038897783   0.03951289            2 
  566000    1.1554402   -6.5260256    263.35627   0.03877448  0.039506214            2 
  567000    1.1626106   -6.5074744    264.52111  0.038877295  0.039499388            2 
  568000    1.1499917   -6.5368716    265.36459  0.038932598  0.039492733            3 
  569000    1.1551584    -6.457249    265.43422  0.038874372  0.039486689            2 
  570000    1.1433198   -6.4764334    266.59426  0.038975768  0.039480745            3 
  571000    1.1578001   -6.5269312    266.72752  0.038926958  0.039474764            2 
  572000    1.1848654   -6.5642071    266.58582   0.03883826  0.039469221            3 
  573000    1.1607371   -6.4841581    268.55306  0.039056582  0.039463333            2 
  574000    1.1553024   -6.5159659    267.37435  0.038817414  0.039457484            2 
  575000    1.1668701   -6.5316588      268.031  0.038845072  0.039451772            6 
  576000    1.2044838   -6.4908555    269.65928  0.039013206  0.039445943            2 
  577000    1.1769553    -6.526911    268.57417  0.038788874  0.039440782            4 
  578000    1.1608518   -6.5083429    269.45567  0.038848857  0.039435277            2 
  579000    1.1737086   -6.5412956    269.94882  0.038852738  0.039429474            1 
  580000    1.1653585   -6.5090505    269.94457   0.03878514  0.039423594            2 
  581000    1.1851019   -6.5178903    272.23232  0.039046517  0.039417777            2 
  582000    1.1625598   -6.5072999    272.05394  0.038953886  0.039412467            1 
  583000    1.1481398   -6.4964535     272.1175  0.038896155  0.039407179            4 
  584000    1.1285509   -6.5224354    272.14152  0.038832979  0.039401493            3 
  585000     1.134402   -6.5041414    273.36041  0.038940229  0.039395438            1 
  586000    1.1476347   -6.5229176     273.1053  0.038837501  0.039389745            1 
  587000     1.160574   -6.5425757     273.6066  0.038842505  0.039384189            5 
  588000    1.1748195   -6.4981944    274.84219  0.038951557  0.039378718            2 
  589000     1.157014    -6.514644    275.15884  0.038930226  0.039373365            3 
  590000    1.1503782   -6.4971847    275.16946  0.038865743  0.039368092            3 
  591000    1.1589038    -6.547897    275.07063  0.038786044  0.039362615            2 
  592000    1.1786326   -6.5309328    276.75053     0.038957  0.039357497            4 
  593000    1.1834785   -6.5259952     275.3468  0.038694041  0.039352004            2 
  594000    1.1584037   -6.4649337    278.19442  0.039028398  0.039346678            2 
  595000     1.140713   -6.5229785    277.66928  0.038889255  0.039341626            5 
  596000    1.1824078   -6.5262079    278.36767  0.038921654  0.039336349            2 
  597000    1.1726707   -6.5364836     278.1023  0.038819416   0.03933046            3 
  598000    1.1513472   -6.5335327    278.58218  0.038821375  0.039324459            3 
  599000    1.1388684   -6.5179682    279.07868  0.038825637  0.039318024            2 
  600000     1.164767   -6.5480086     279.2076  0.038778833  0.039311683            2 
  601000    1.1477274   -6.5037481    279.82954  0.038800546  0.039305765            3 
  602000    1.1413821   -6.5254747    281.03601  0.038903102  0.039299715            1 
  603000    1.1784416   -6.5290965    280.50141  0.038764706  0.039294013            2 
  604000    1.1346652   -6.5428745    280.58197   0.03871164  0.039287814            2 
  605000    1.1610958   -6.4890587    281.20546  0.038733534  0.039281553            2 
  606000    1.2117801    -6.529054     282.1739  0.038802791  0.039275544            5 
  607000    1.1318355   -6.5559154    283.09449  0.038865252  0.039269072            3 
  608000    1.1409538   -6.5512957     282.2702   0.03868835  0.039262727            4 
  609000    1.1223198   -6.5273264    283.37924  0.038776579  0.039256412            1 
  610000      1.15376   -6.5569786    283.81603  0.038772682  0.039250103            2 
  611000    1.1592892   -6.5034969    283.45119  0.038659464  0.039243895            2 
  612000    1.1497529   -6.5350181    283.36203  0.038584154   0.03923758            1 
  613000    1.1375797   -6.5082325    284.76821  0.038712372   0.03923119            3 
  614000    1.1299004   -6.5285177    284.75176  0.038647091  0.039224615            1 
  615000    1.1414458   -6.5524028    283.95722  0.038476588   0.03921777            3 
  616000    1.1702212   -6.5215197    285.45905  0.038617296  0.039210813            3 
  617000    1.1236566   -6.5674166    286.44124  0.038687364  0.039203778            3 
  618000    1.1316359   -6.5357032    286.11606  0.038580914  0.039196774            1 
  619000    1.1558026   -6.5470519    286.46287  0.038565276   0.03918955            2 
  620000    1.1228774   -6.5180237    288.20321  0.038736991  0.039182411            1 
  621000    1.1445892   -6.5247657    287.58565   0.03859174  0.039175557            2 
  622000    1.1187447   -6.5352656    288.32194  0.038628341  0.039168259            3 
  623000    1.1748291   -6.5303029    288.17206  0.038546289  0.039161344            3 
  624000    1.1667522   -6.5168764    288.12665  0.038478452  0.039153993            2 
  625000    1.1401119   -6.5337772    288.80574  0.038507432  0.039146484            7 
  626000    1.1738681   -6.5378148     288.8833  0.038456244  0.039138301            1 
  627000    1.1676225   -6.5199499    288.47566  0.038340731  0.039129598            2 
  628000    1.1541146   -6.5607563     288.7804  0.038320117   0.03912075            2 
  629000    1.1452026   -6.5719864    289.03235  0.038292574  0.039111746            3 
  630000    1.1681327    -6.534046    289.55788  0.038301307  0.039103171            3 
  631000    1.1424477   -6.5278999    290.44515  0.038357785  0.039095187            5 
  632000    1.1439094   -6.5270025    290.40524   0.03829183  0.039086721            2 
  633000    1.1448712   -6.5395236    290.89526  0.038295847  0.039077884            3 
  634000    1.1200373   -6.5617846    291.93881  0.038372608  0.039068728            3 
  635000    1.1351038   -6.5472193    291.99039  0.038318949  0.039059864            1 
  636000    1.1318502   -6.5420462    291.29919  0.038168132  0.039050762            4 
  637000    1.1792365   -6.4867687    292.77168  0.038300848  0.039041368            2 
  638000    1.1135641   -6.5529772    292.39668  0.038191834  0.039032168            2 
  639000    1.1745248   -6.5511085     292.1165  0.038095527  0.039022334            1 
  640000    1.1508386   -6.5555578    292.85479  0.038132134  0.039012173            2 
  641000     1.153208   -6.5484695    293.94548  0.038214441  0.039002541            3 
  642000    1.1431191   -6.5223806    295.19353  0.038316917  0.038993395            4 
  643000    1.1510364   -6.5305041    295.66338  0.038318219  0.038984817            3 
  644000      1.15023   -6.5140714    295.53647  0.038242297  0.038976029            2 
  645000    1.1507775    -6.532293    295.52054  0.038180948  0.038966898            3 
  646000    1.1536668    -6.550996    296.19183  0.038208441  0.038958136            2 
  647000    1.1375826   -6.4991513    297.80987  0.038357789  0.038949881            4 
  648000    1.1746734   -6.5260423    298.08003  0.038333338  0.038941655            2 
  649000    1.1430372   -6.5720274    296.95484  0.038129795  0.038933624            2 
  650000    1.1092557   -6.5427669    299.21937  0.038361457  0.038926364            4 
  651000    1.1714794   -6.5330064    299.37328  0.038322233  0.038918846            7 
  652000    1.1501322   -6.5446358    299.70836  0.038306283  0.038911527            5 
  653000    1.1666188   -6.5497999    300.32708   0.03832658  0.038903453            5 
  654000    1.1359816   -6.5536653     299.5992   0.03817523   0.03889554            1 
  655000    1.1393458   -6.5561887    299.19206  0.038065148  0.038887365            2 
  656000    1.1479343    -6.574555      301.331  0.038278837  0.038878664            4 
  657000    1.1559067   -6.5528832    300.62432  0.038130938  0.038870219            2 
  658000    1.1494442    -6.541662      301.731  0.038213146  0.038861847            2 
  659000    1.1379619   -6.5284173    302.07295    0.0381984  0.038852892            3 
  660000    1.1580707   -6.5594001    302.19257  0.038155627  0.038844591            6 
  661000     1.154678   -6.4894762    303.02288  0.038202582  0.038836191            3 
  662000    1.1159668   -6.5694467    303.33928  0.038184703  0.038828314            2 
  663000    1.1372629    -6.529133     303.3575    0.0381294  0.038820232            2 
  664000    1.1367266   -6.5357249    304.53111  0.038219266  0.038812322            2 
  665000    1.1503749   -6.5955748    303.94629  0.038088507  0.038804422            2 
  666000    1.1460291   -6.5741186    303.83395  0.038017261  0.038795481            2 
  667000    1.1650123   -6.5590749    304.83601  0.038085458  0.038786384            2 
  668000    1.1291071   -6.5699681    304.28639  0.037959878   0.03877723            4 
  669000    1.1612765   -6.5491272    305.70187  0.038079455  0.038768225            3 
  670000    1.1262182   -6.5418148    306.10795  0.038073128   0.03875908            1 
  671000     1.150624   -6.5224997    306.05721  0.038010086  0.038750192            3 
  672000    1.1622278   -6.5662185     306.9161  0.038060032  0.038741387            3 
  673000    1.1238873   -6.5572857    307.85374  0.038119581  0.038732648            2 
  674000    1.1595987   -6.5853652    307.31759  0.037996735  0.038723529            4 
  675000    1.1335233    -6.576639     308.0495  0.038030803  0.038714405            2 
  676000    1.1364906   -6.5673087    308.06417  0.037976352  0.038705588            4 
  677000    1.1309784   -6.5322159    309.35999  0.038079762  0.038696461            4 
  678000    1.1329165   -6.5569597    309.11064   0.03799295  0.038687746            4 
  679000      1.15921   -6.5698149    309.30372  0.037960692  0.038678785            2 
  680000    1.1447332   -6.5428858    309.72745  0.037956796  0.038670028            2 
  681000    1.1251003    -6.563839    309.78272  0.037907821  0.038661464            7 
  682000    1.1641198   -6.5191781    310.52329  0.037942728  0.038652633            4 
  683000    1.1639123   -6.5425141    311.17261    0.0379664  0.038643564            3 
  684000    1.1492592   -6.5649673    311.11256  0.037903577  0.038634951            3 
  685000    1.1324403   -6.5616057    311.74376  0.037925032  0.038626547            3 
  686000    1.1328106   -6.5232337    313.65821  0.038102309  0.038618338            2 
  687000    1.1392921   -6.5274569    312.87475  0.037951814  0.038610012            3 
  688000    1.1407324    -6.566951    312.85722  0.037894528  0.038601584            5 
  689000    1.1253072   -6.5226639    314.30617  0.038014777  0.038593016            2 
  690000    1.1030805   -6.5497165    314.24398  0.037952172  0.038584257            2 
  691000    1.1373371    -6.526864    314.78291  0.037962241  0.038575873            4 
  692000    1.1296952   -6.5454318    313.99716   0.03781276  0.038567253            2 
  693000     1.125043   -6.5656194    314.78259  0.037852645  0.038558378            3 
  694000    1.1221539   -6.5477047    315.59919  0.037896156  0.038549772            2 
  695000    1.1473262   -6.5227084    315.60639  0.037842492   0.03854106            5 
  696000    1.1629654   -6.5366677    315.45458  0.037769945  0.038532728            4 
  697000    1.1501372   -6.5348582    316.69385  0.037863923  0.038524354            2 
  698000    1.1210686   -6.5570057    316.81636  0.037824303  0.038515726            3 
  699000    1.1240457    -6.594486    316.54735   0.03773812  0.038507084            6 
  700000    1.1388432   -6.5563104    318.28514  0.037891088  0.038498556            3 
  701000    1.1447699   -6.5563636    318.71436   0.03788806  0.038490192            2 
  702000    1.1497921   -6.5866629    318.87061  0.037852637  0.038482231            4 
  703000    1.1101515   -6.5472843    320.52183  0.037994527   0.03847467            2 
  704000    1.1208401   -6.5504903    320.30797  0.037915243  0.038467004            2 
  705000    1.1642207   -6.5980828    319.56262  0.037773359  0.038459148            2 
  706000    1.1285701   -6.5610637    320.69726  0.037853785  0.038451418            5 
  707000    1.1493651   -6.5642625    321.67292  0.037915243  0.038443886            1 
  708000    1.1273423    -6.519673    323.66482  0.038096142  0.038436709            1 
  709000    1.1175502   -6.5615506     322.8264  0.037943864  0.038429579            2 
  710000    1.1333429   -6.6199343    322.56842  0.037860143  0.038421875            5 
  711000    1.1190387   -6.5785502    323.17258  0.037877705   0.03841443            1 
  712000    1.1584265   -6.5621575    323.75659   0.03789286  0.038406615            1 
  713000    1.1340888   -6.5634548     323.5819  0.037819297  0.038398859            2 
  714000    1.1260781   -6.5668095    323.69223  0.037779205  0.038390921            3 
  715000     1.132479   -6.5615897    325.28956  0.037912536  0.038383158            2 
  716000    1.1400338   -6.5367787    325.60651  0.037896475  0.038375703            4 
  717000     1.136981   -6.5511975    325.27983  0.037805652  0.038368356            2 
  718000    1.1628271    -6.568652    326.04463  0.037841763  0.038360703            2 
  719000    1.1461481   -6.5829331     326.2183  0.037809261  0.038353638            3 
  720000    1.1204791   -6.5439014    327.48433  0.037903279  0.038346047            2 
  721000    1.1545411   -6.5901781    327.65631  0.037870586  0.038338204            2 
  722000    1.1259334   -6.5464974    328.15398  0.037875575  0.038330845            2 
  723000    1.1189825   -6.6183309    327.17247  0.037710058  0.038323311            3 
  724000    1.1289669   -6.5751978    327.27238  0.037669472  0.038315399            3 
  725000    1.1348182   -6.5739734      328.902  0.037804827  0.038307374            5 
  726000    1.1510949   -6.5649517    328.25021   0.03767794  0.038299476            3 
  727000    1.1318978   -6.5778488    329.50317  0.037769735  0.038291344            2 
  728000    1.1484091    -6.586796    328.23338  0.037572502  0.038282845            4 
  729000    1.1392829   -6.5776537     329.6048  0.037677732  0.038273882            1 
  730000    1.1500357   -6.5934506    328.31549  0.037478937  0.038265259            1 
  731000    1.1177096   -6.5420642    330.06362  0.037626952  0.038256692            3 
  732000    1.1330469   -6.5794829    330.29806  0.037602238  0.038248166            3 
  733000    1.1312043   -6.5697243    330.08461  0.037526673  0.038239547            1 
  734000    1.1251352    -6.562642    331.55836  0.037642865  0.038231359            2 
  735000    1.0988688   -6.5093186    331.67074  0.037604392    0.0382234            2 
  736000    1.1437316   -6.5759193    332.20444  0.037613728  0.038215354            5 
  737000    1.1270797   -6.5718688     332.7603  0.037625543  0.038207436            3 
  738000    1.1423395   -6.5328758    332.82246  0.037581579   0.03819932            3 
  739000    1.1259179   -6.5875515    335.66214  0.037850941  0.038191121            2 
  740000    1.1116833   -6.5499511    334.19284  0.037634328  0.038182886            4 
  741000    1.1356898    -6.580464    334.24364  0.037589253  0.038174658            5 
  742000    1.0945674   -6.5628552    334.90878  0.037613295  0.038166661            1 
  743000    1.1086235     -6.59757    334.92276  0.037564239  0.038158784            3 
  744000    1.1193096   -6.6030958    335.16485  0.037540866  0.038150477            2 
  745000    1.1300508   -6.6019648     335.6417  0.037543814  0.038142231            2 
  746000     1.129162   -6.5805807    336.74358  0.037616575  0.038133989            2 
  747000    1.1288135   -6.5768628    337.15714  0.037612354  0.038126353            3 
  748000    1.1359886   -6.5590755     337.6495  0.037616923  0.038118442            2 
  749000    1.1321653   -6.5770203    338.22113  0.037630299  0.038110878            4 
  750000    1.1269004   -6.5928238    338.68948  0.037632165   0.03810336            3 
  751000    1.1316281    -6.575075    338.52865  0.037564209  0.038095719            3 
  752000    1.1122591   -6.5471895    339.73185  0.037647589  0.038088085            2 
  753000    1.1461278   -6.5799313    339.79115  0.037604155  0.038080598            4 
  754000    1.1333406   -6.5471387    340.80871  0.037666745  0.038072752            3 
  755000    1.1232443   -6.5496647    340.70202   0.03760508  0.038065193            3 
  756000    1.1423001    -6.557358    340.81245   0.03756751  0.038057288            1 
  757000    1.1351819   -6.5739245    340.80412  0.037516966  0.038049558            2 
  758000    1.1032578    -6.571421    342.45491  0.037648957  0.038041873            2 
  759000    1.1199494   -6.5637066    341.77613  0.037524827  0.038034267            4 
  760000    1.1446873    -6.522274    343.21535  0.037633262  0.038026754            4 
  761000    1.1158685   -6.6099826     342.1659  0.037468889  0.038018966            5 
  762000    1.1290597   -6.5682758    342.67636  0.037475542  0.038011129            5 
  763000    1.1358979   -6.6099231    342.77696  0.037437414  0.038003261            2 
  764000    1.0968526   -6.5584004    342.72029   0.03738223  0.037994934            2 
  765000     1.148214   -6.5174257     345.2457  0.037608464  0.037986868            2 
  766000    1.1448973   -6.5641346    342.23407  0.037231731  0.037979185            6 
  767000    1.1241521   -6.6258985    343.49033  0.037319679  0.037970812            1 
  768000    1.1540415   -6.5759328    345.24745  0.037461745  0.037963142            3 
  769000    1.1212095   -6.6004451      345.906  0.037484395   0.03795504            3 
  770000    1.1282538   -6.5831932    346.03304  0.037449464  0.037947633            2 
  771000    1.1342533   -6.5694601    345.89285  0.037385738  0.037939774            5 
  772000    1.1441056   -6.5924466    345.94802  0.037343266  0.037931679            2 
  773000    1.1287791   -6.5730423    346.09502  0.037310804   0.03792334            2 
  774000     1.112463   -6.6086283    347.00581   0.03736066  0.037915087            4 
  775000    1.1300216   -6.5953906    346.89288  0.037300309  0.037906849            7 
  776000    1.1010176   -6.5521519    349.30598  0.037511381  0.037898487            4 
  777000    1.1485492   -6.5899887    347.88441   0.03731064  0.037890334            2 
  778000     1.127241   -6.5595644    348.05507  0.037280963  0.037882061            3 
  779000    1.1333788   -6.5846236    349.63857    0.0374025  0.037874041            3 
  780000    1.1246956   -6.5621357    350.03691  0.037397106  0.037866159            4 
  781000    1.1328883   -6.5966452    349.68918  0.037312119   0.03785805            3 
  782000    1.1071692   -6.5841912    351.56886  0.037464713   0.03784982            2 
  783000    1.1218398   -6.6065376    349.73948  0.037222167  0.037841245            3 
  784000    1.1382438   -6.5596211    350.74714  0.037281796  0.037832407            5 
  785000    1.1288868   -6.5905499    350.06076  0.037161439  0.037823523            2 
  786000    1.1130236   -6.5867152    350.00262  0.037107996  0.037814757            2 
  787000      1.13819    -6.561464    351.67684  0.037238123  0.037805947            3 
  788000    1.1038642   -6.5899292    351.66875  0.037190012  0.037797106            5 
  789000    1.1239949   -6.5765582     351.9765   0.03717538  0.037788354            2 
  790000    1.1254569   -6.5904304     352.8347  0.037218851  0.037779597            4 
  791000    1.1485317   -6.5872602    352.71156  0.037158824  0.037770826            3 
  792000     1.115577   -6.5747321    353.53999  0.037199073  0.037762025            4 
  793000    1.1192583   -6.5987707    352.91601  0.037086592  0.037753472            4 
  794000    1.1278243   -6.5473988    353.66425  0.037118415  0.037744802            2 
  795000    1.1221058    -6.609427    353.85911   0.03709215   0.03773587            1 
  796000    1.1136903   -6.5796437    353.96555  0.037056695  0.037726753            1 
  797000    1.1241637   -6.6035417    353.93532  0.037007039  0.037717911            3 
  798000    1.1084067   -6.5451884     356.0259  0.037178979  0.037709464            3 
  799000    1.1063802   -6.5959302    356.27842  0.037158784  0.037700946            3 
  800000    1.1321992   -6.5885682    356.16429  0.037100447  0.037692555            3 
  801000    1.1289439   -6.5565425    356.59735  0.037099183  0.037684046            3 
  802000    1.1241637   -6.5888589    356.92045  0.037086497  0.037675541            3 
  803000     1.138373   -6.6089991    356.96634  0.037045075  0.037666966            2 
  804000    1.1340678   -6.5801872    357.74514   0.03707972  0.037658719            2 
  805000    1.1210828   -6.5841118    358.40788  0.037102265  0.037650421            2 
  806000    1.1209368   -6.6111469    358.91449  0.037108611  0.037642526            2 
  807000    1.1267655   -6.5968161    360.01782  0.037176561   0.03763447            3 
  808000    1.1280489   -6.6142719    360.72806  0.037203802  0.037626897            2 
  809000    1.1075613   -6.5288467    361.29127   0.03721583  0.037619141            4 
  810000    1.1131841   -6.5958996    360.23765  0.037061486  0.037611199            3 
  811000    1.1273254   -6.5939732    360.69918  0.037063212  0.037603174            1 
  812000    1.1302104   -6.6012682    361.86777  0.037137497  0.037595221            3 
  813000    1.1121297   -6.5891135    362.86546  0.037194082  0.037587978            2 
  814000     1.137124   -6.6007144    362.03732  0.037063608  0.037580613            2 
  815000    1.0955046   -6.5522065    363.39239  0.037156686  0.037573229            2 
  816000    1.1309952   -6.5955534    364.09161  0.037182558  0.037565803            5 
  817000    1.1295949   -6.6007566    364.56891  0.037185731  0.037558653            3 
  818000    1.1184766   -6.5844989     364.9272  0.037176772  0.037551546            3 
  819000    1.1167839   -6.5970382    364.63871  0.037102026  0.037544165            2 
  820000    1.1159315   -6.5852973    366.34259  0.037229938  0.037537035            3 
  821000    1.1415386   -6.6417193     366.3775  0.037188134  0.037529866            3 
  822000    1.1217284   -6.5540127    365.77379  0.037081689  0.037522762            2 
  823000     1.108355   -6.6043622    367.21595   0.03718266  0.037515379            3 
  824000     1.128209   -6.5731557    366.71653  0.037087028  0.037508045            5 
  825000    1.1261675   -6.5973087    366.91226  0.037061845  0.037500521            1 
  826000    1.0953769   -6.5793856    367.09838  0.037035753  0.037493192            2 
  827000    1.1011479   -6.5986632     367.9823  0.037080038  0.037486071            3 
  828000    1.1393588   -6.6053942    368.29952  0.037067182  0.037478416            4 
  829000     1.129431   -6.5739775    367.73076  0.036965296   0.03747076            3 
  830000    1.1267004   -6.5808349    369.42117  0.037090479  0.037462693            3 
  831000     1.123144   -6.5669865    369.08747  0.037012382  0.037455208            3 
  832000    1.1202108   -6.5946483    369.89773  0.037049051  0.037447619            3 
  833000    1.1123559   -6.5784275    370.23401  0.037038216  0.037440245            4 
  834000    1.1171372   -6.5858761    370.65949   0.03703632  0.037432463            2 
  835000    1.1134341   -6.6053476    370.32326  0.036958409  0.037424485            3 
  836000    1.1244565   -6.6001755    369.54654  0.036836776  0.037416582            2 
  837000    1.1343823   -6.5758962    371.46323  0.036983595  0.037408573            2 
  838000     1.094914   -6.6048056     371.5422  0.036947315  0.037400703            3 
  839000    1.1246784   -6.5642655    371.86108  0.036934951  0.037392681            5 
  840000    1.1027987   -6.5992278    371.16777  0.036822199  0.037384421            4 
  841000    1.1037543   -6.5731011    372.07726  0.036868536  0.037375689            7 
  842000    1.1108083   -6.6016799    371.78466   0.03679579  0.037367079            2 
  843000    1.1100791   -6.5806022    371.70009  0.036743781  0.037358373            2 
  844000    1.1321264   -6.6083384    372.10815  0.036740536   0.03734944            2 
  845000    1.1434716   -6.5771063    373.27401  0.036812033  0.037340304            4 
  846000    1.1347159   -6.5990566    372.70397  0.036712369  0.037331475            2 
  847000    1.1221545   -6.6153896    373.49113  0.036746471  0.037322439            7 
  848000    1.1176427   -6.6021725     371.4565  0.036503194  0.037313186            2 
  849000    1.1340336    -6.603398    372.99902  0.036611604  0.037304007            3 
  850000    1.1071359   -6.5893902    374.72405  0.036737652  0.037294897            3 
  851000    1.1040577   -6.5896579    374.88989  0.036710722  0.037285851            1 
  852000    1.1217673   -6.6326955    374.78171  0.036657053  0.037276726            3 
  853000    1.1221914   -6.6234681    375.17288  0.036652294  0.037267792            3 
  854000     1.089994   -6.5706982    376.87901  0.036775859  0.037259029            2 
  855000    1.1073944   -6.6065512    376.84065  0.036729108  0.037250433            2 
  856000     1.113374   -6.6019248    375.42668  0.036548547  0.037241857            4 
  857000    1.1111371   -6.5770942    377.80108  0.036736783  0.037232969            1 
  858000    1.1426738   -6.5945435    377.63826  0.036678153  0.037223952            3 
  859000     1.133655   -6.6466518    377.34588  0.036607089  0.037214796            3 
  860000    1.1038695   -6.5903394    377.63524  0.036592562  0.037205535            1 
  861000    1.0893717   -6.5898069    377.32134  0.036519681  0.037196216            3 
  862000    1.1321448   -6.6158869    377.40231  0.036485142  0.037186636            6 
  863000    1.0973678    -6.645653    377.61602  0.036463501  0.037176892            3 
  864000    1.0951799   -6.5786548    378.71317  0.036527119  0.037167084            1 
  865000    1.1226703   -6.6256771     378.5171  0.036466002  0.037157524            3 
  866000    1.0857275   -6.6541216    378.94694  0.036465256  0.037148081            2 
  867000    1.1228551   -6.5897545     379.1929  0.036446838  0.037138259            2 
  868000    1.1584897   -6.6309794    379.32248  0.036417289  0.037128519            4 
  869000    1.0954344   -6.6078376    379.53706  0.036395959  0.037118397            3 
  870000    1.1257378    -6.570529    381.31412  0.036524341  0.037108512            6 
  871000    1.1293458   -6.6510509    379.75026  0.036332784  0.037098589            2 
  872000    1.0963294   -6.6119748    381.70721  0.036478135  0.037088441            3 
  873000    1.1043221   -6.6448241    381.67701  0.036433468  0.037078318            1 
  874000    1.1066383   -6.6197666    381.88432  0.036411548  0.037068304            2 
  875000    1.0954255   -6.6088364    381.78045  0.036360043  0.037058094            2 
  876000    1.1054456   -6.6456134    381.46633  0.036288654  0.037048065            4 
  877000    1.0941987   -6.6046405    383.16742  0.036408914  0.037038013            1 
  878000      1.12832   -6.6006706    382.24975  0.036280348  0.037028129            1 
  879000    1.1269138   -6.6168148    383.59072  0.036366204  0.037018269            4 
  880000    1.1234859   -6.5838154    383.11165  0.036279512  0.037008712            2 
  881000    1.1109993   -6.6241436     382.9172   0.03621994  0.036998775            1 
  882000    1.1116114   -6.6023446     383.8784   0.03626969  0.036988475            3 
  883000    1.1087184   -6.5877146    384.67966  0.036304233  0.036978369            4 
  884000    1.1047935   -6.6444689    382.90976   0.03609632  0.036968395            2 
  885000    1.1014305   -6.6163585    383.51934  0.036112932  0.036957934            4 
  886000     1.099839   -6.6045018    384.07268  0.036124218  0.036947867            2 
  887000    1.1075867   -6.6422618    385.84358  0.036249867  0.036937632            4 
  888000    1.0990098   -6.5495488     386.8242   0.03630107  0.036927528            4 
  889000    1.1234933   -6.6388449    386.02067  0.036184914  0.036917576            4 
  890000    1.1146498   -6.5962384    387.54097  0.036286608  0.036907538            1 
  891000    1.0957367   -6.6227067    386.18324  0.036118897  0.036897437            4 
  892000    1.1113122   -6.6140581    387.20944  0.036174275  0.036887501            3 
  893000    1.0962653    -6.627312    387.67503  0.036177214  0.036877456            3 
  894000    1.0819399   -6.6138946    386.97057  0.036071082  0.036867144            3 
  895000    1.1185602   -6.5952877    389.27323   0.03624518  0.036857287            1 
  896000    1.1175225   -6.5952971    388.15089  0.036100343  0.036847136            6 
  897000    1.1233123   -6.6310121     388.7167  0.036112662    0.0368374            4 
  898000    1.0785168   -6.6022866    389.86553  0.036179058  0.036827885            1 
  899000    1.0990846   -6.5990516    389.97451  0.036148917  0.036818188            6 
  900000    1.1050669   -6.6257399    390.41456  0.036149497  0.036808542            4 
  901000    1.1103746   -6.6193757    389.73297  0.036046335    0.0367988            2 
  902000    1.1245823    -6.642751    391.63092  0.036181718  0.036788835            3 
  903000    1.1162197    -6.602065    391.81911  0.036159017  0.036779189            2 
  904000    1.1174521   -6.6099343    391.73906  0.036111639  0.036769757            2 
  905000    1.1349492   -6.6103956     393.3579  0.036220801  0.036760543            3 
  906000    1.1074675   -6.6329213    392.66041  0.036116668  0.036751301            4 
  907000    1.1262948    -6.611713    393.87555  0.036188493  0.036741929            4 
  908000    1.0797185   -6.6405097    393.36445   0.03610173  0.036732621            4 
  909000    1.1055257   -6.6183849    394.23186  0.036141535   0.03672291            1 
  910000      1.11939   -6.5951994    394.47902  0.036124452  0.036713666            2 
  911000    1.1170275   -6.6341947    394.72547  0.036107343  0.036704698            3 
  912000    1.1070369   -6.6403529    394.75073   0.03607006  0.036695661            2 
  913000    1.0998236   -6.6642906    394.68102   0.03602419  0.036686511            5 
  914000    1.1007978   -6.5875686    397.23491  0.036217625  0.036677281            2 
  915000    1.0843348   -6.6325821    395.86921  0.036053662  0.036668154            3 
  916000    1.1106163   -6.6423494    397.44936  0.036158056  0.036659312            3 
  917000    1.1051168   -6.6254544    397.76949  0.036147718  0.036650678            2 
  918000     1.091734   -6.6490454    398.20755  0.036148107  0.036641962            3 
  919000    1.1199684   -6.6304178    399.34451  0.036211871  0.036633571            1 
  920000    1.1193364   -6.6380389    399.17616  0.036157261  0.036625227            4 
  921000    1.0965436   -6.6267809    398.85274  0.036088739  0.036616847            3 
  922000     1.112967    -6.631475    399.89889  0.036144151  0.036608405            2 
  923000    1.1101708   -6.6111433    400.93625  0.036198651   0.03659971            4 
  924000    1.0955431   -6.6358776    400.97853  0.036163287  0.036591153            1 
  925000    1.1041303   -6.6302319     402.2588  0.036239532  0.036582761            3 
  926000     1.113098   -6.6466504    401.29219  0.036113408  0.036574651            3 
  927000    1.0922099   -6.6454815    400.94257  0.036043021   0.03656618            5 
  928000    1.1349226   -6.6316214    402.73293  0.036164954  0.036557629            2 
  929000    1.1096157   -6.6317381    402.68449   0.03612168  0.036549451            3 
  930000    1.0885194   -6.6039817    402.70595  0.036084763  0.036541223            2 
  931000    1.1091374    -6.624115     403.4837   0.03611562  0.036533083            3 
  932000    1.1038291   -6.6167581    404.74844  0.036189954  0.036524788            2 
  933000    1.1081602   -6.5804378     405.9869  0.036261781  0.036517156            4 
  934000    1.0982788   -6.6792539     405.0393   0.03613841  0.036509433            2 
  935000    1.1076578   -6.6364122    405.57637  0.036147627  0.036501543            2 
  936000     1.099986   -6.6309612    406.22729  0.036166959  0.036493697            2 
  937000    1.1031836   -6.6394318    407.26622  0.036220759  0.036485958            5 
  938000    1.1246178   -6.6229572    407.41408  0.036195281  0.036477926            2 
  939000    1.1108656   -6.6460431    407.24055  0.036141334  0.036470223            4 
  940000    1.1035029   -6.6500514    407.28125  0.036106494  0.036462297            1 
  941000    1.0971659    -6.614906    407.06184  0.036048693  0.036454282            4 
  942000     1.094881   -6.5823799    408.49386  0.036137107  0.036446315            1 
  943000    1.1402207    -6.638982    407.28414  0.035991883  0.036438561            2 
  944000    1.0821455   -6.6095185    408.43618  0.036055454  0.036430562            2 
  945000     1.092877   -6.6361482    408.61741  0.036033282  0.036422824            5 
  946000    1.0947561   -6.6408023    407.96441  0.035937668  0.036414925            1 
  947000    1.1227023   -6.6295386     410.2545  0.036101241  0.036407085            3 
  948000    1.0829451   -6.6831441    408.87835   0.03594219  0.036398979            3 
  949000    1.1046763    -6.621977    411.23777  0.036111501  0.036390858            3 
  950000    1.0984916   -6.6328741    410.94802  0.036048072  0.036383059            3 
  951000    1.0949293   -6.6347971    410.71454  0.035989707   0.03637523            3 
  952000    1.0977577   -6.6642409    411.38044  0.036010193   0.03636745            4 
  953000    1.0863916   -6.6135881    412.65901  0.036084209  0.036359948            3 
  954000    1.1115695    -6.614359    413.50616  0.036120384   0.03635252            2 
  955000    1.0832457   -6.6627549    412.89568  0.036029292  0.036345083            3 
  956000    1.1094691   -6.6396196    413.99907  0.036087785  0.036337975            2 
  957000    1.1241527   -6.6422497    414.85917  0.036124971  0.036330998            3 
  958000    1.0874201    -6.630142    415.19026  0.036116063  0.036323918            3 
  959000    1.1002126   -6.6302123    416.34404  0.036178662  0.036316882            2 
  960000    1.1032377   -6.6308358     415.5321  0.036070495   0.03631011            6 
  961000    1.1164759   -6.6739552    415.45703  0.036026451  0.036303045            2 
  962000    1.1127846   -6.6372293    416.33102  0.036064711  0.036295902            3 
  963000    1.1316583   -6.6671599    415.15595  0.035925575  0.036288589            3 
  964000    1.0933715   -6.6347681    416.68841  0.036020782  0.036281424            2 
  965000    1.0989045   -6.6507352    417.02503  0.036012524  0.036274223            2 
  966000    1.1111498   -6.6318429    417.77655  0.036040075  0.036266921            4 
  967000    1.0999791   -6.6428935    417.30372  0.035962058  0.036259934            2 
  968000    1.0873469   -6.6701877    417.39709  0.035932945  0.036252396            3 
  969000    1.0936507    -6.627246    418.73663  0.036011062  0.036245045            5 
  970000    1.0882227   -6.6312516    419.15034   0.03600948  0.036238004            3 
  971000     1.109094   -6.6583604    418.95577  0.035955696   0.03623062            2 
  972000    1.0938025   -6.6154206    420.04382  0.036011987   0.03622344            2 
  973000    1.1143361   -6.6365444    419.32351  0.035913285  0.036216193            4 
  974000    1.1135895   -6.6411315    420.66561   0.03599124  0.036208744            2 
  975000    1.0698884   -6.6572481    420.04847  0.035901579   0.03620122            3 
  976000    1.1090917   -6.6678038    420.96407   0.03594297  0.036193714            4 
  977000     1.101118   -6.6007503    420.45427  0.035862698  0.036186207            4 
  978000    1.1289773   -6.6632054    421.00275  0.035872763  0.036178518            3 
  979000    1.0779264   -6.6360425    420.46624  0.035790453  0.036170954            2 
  980000    1.1019129   -6.6413834    422.06852   0.03589018  0.036163348            3 
  981000    1.0936853   -6.6906224     422.1081  0.035856957  0.036155756            3 
  982000     1.091828   -6.6468526     421.6262  0.035779549  0.036148215            6 
  983000    1.0942499   -6.6353182    423.56074   0.03590715   0.03614064            8 
  984000    1.1106373   -6.6426278       423.21  0.035840955  0.036133024            3 
  985000    1.0888288   -6.6797975    422.14801  0.035714722  0.036125469            2 
  986000    1.1181847    -6.668749     423.0121   0.03575153  0.036117705            6 
  987000    1.1001804   -6.6254319    424.05531  0.035803387   0.03610996            4 
  988000    1.1067576   -6.6582166    424.94387  0.035842095  0.036102154            2 
  989000    1.0986887   -6.6621075    424.99829  0.035810439  0.036094559            3 
  990000    1.0583663   -6.6002667    425.10408  0.035783172  0.036087024            2 
  991000    1.1221942   -6.6521156    425.42969  0.035774444  0.036079608            2 
  992000    1.0774831   -6.6352585    427.34304  0.035899112  0.036072371            3 
  993000    1.0898745   -6.6545062    428.16906  0.035932281  0.036065545            3 
  994000    1.0785219     -6.64791     428.2512  0.035903018  0.036058519            2 
  995000    1.0823414   -6.6205687    429.20495  0.035946814  0.036051928            6 
  996000    1.0911465   -6.6225985    429.22772  0.035912627  0.036045238            1 
  997000    1.0888806   -6.6429151    430.23172  0.035960525  0.036038698            2 
  998000    1.1011165   -6.6233211    429.82478  0.035890513  0.036032052            1 
  999000    1.0947336   -6.6447177    428.85283   0.03577351  0.036025506            3 
 1000000    1.0727081   -6.6422715    430.04729  0.035837274  0.036018849            2 
 1001000    1.1084078   -6.6364987    430.16304  0.035811109  0.036012006            2 
 1002000    1.0737921   -6.6629271    431.53522  0.035889489  0.036005442            3 
 1003000    1.0988441   -6.6347417     431.4966  0.035850498  0.035998919            3 
 1004000    1.0714974   -6.6531697    432.20741  0.035873789  0.035992286            3 
 1005000    1.0997548   -6.6558508    432.07015  0.035826712  0.035985623            2 
 1006000    1.0804635   -6.6457914    432.34013  0.035813464  0.035979041            5 
 1007000    1.1006644   -6.6496031    433.54248  0.035877398  0.035972403            5 
 1008000    1.0554958    -6.628468    433.09339  0.035804678   0.03596557            3 
 1009000     1.106204   -6.6611895    435.15214  0.035939225  0.035959009            2 
 1010000    1.1070133   -6.6573229    436.29094  0.035997602  0.035952389            2 
 1011000    1.0921256   -6.6564356    436.07683  0.035944348   0.03594602            2 
 1012000     1.090654    -6.638929    435.38147   0.03585157  0.035939695            2 
 1013000    1.0571075   -6.6443793    437.71263  0.036007949  0.035933617            2 
 1014000    1.1148289   -6.6635597    436.47133  0.035870425  0.035927627            3 
 1015000    1.1062311   -6.6203461    436.81337  0.035863167  0.035921498            3 
 1016000    1.0956914   -6.6500693    436.39964  0.035793934  0.035915317            2 
 1017000    1.0762511   -6.6395543    438.50784  0.035931485  0.035909078            4 
 1018000    1.0716998   -6.6330828    437.48328  0.035812318  0.035902904            3 
 1019000     1.084533    -6.674277    437.85777    0.0358078  0.035896789            4 
 1020000    1.1110648   -6.6768943    438.22289  0.035802523  0.035890678            2 
 1021000    1.0978237   -6.6612637    438.31901  0.035775303  0.035884756            1 
 1022000    1.0870605   -6.6699897    439.53166  0.035839176  0.035878545            2 
 1023000    1.0718666   -6.6629378    439.16388  0.035774183  0.035872479            3 
 1024000    1.1014758   -6.6596362    439.09548  0.035733682  0.035866257            7 
 1025000    1.0937937   -6.6340459    440.10411  0.035780822  0.035859766            3 
 1026000    1.0780639   -6.6338275    440.72675   0.03579652  0.035853561            1 
 1027000    1.0943588    -6.645836    441.17509  0.035798044  0.035847059            2 
 1028000    1.0961754   -6.6503092     440.8205  0.035734476  0.035840764            9 
 1029000    1.0968374   -6.6772966    441.16348  0.035727525  0.035834314            3 
 1030000    1.0785996   -6.6650008    441.53192  0.035722647    0.0358279            7 
 1031000     1.079142   -6.6704914    442.81115  0.035791396  0.035821736            3 
 1032000    1.0586562   -6.6894467    442.17198  0.035705102  0.035815437            5 
 1033000    1.0912715   -6.6198992    443.54656  0.035781426  0.035809335            4 
 1034000    1.0754325   -6.6750568    443.51757  0.035744485  0.035803217            4 
 1035000    1.0772457   -6.6304458    444.42728  0.035783195  0.035797274            2 
 1036000    1.0850007   -6.6607339    444.84744  0.035782452  0.035791341            2 
 1037000    1.0779195   -6.6436555    445.43978  0.035795546  0.035785298            2 
 1038000    1.0844211   -6.6319479    444.22387  0.035663445  0.035779251            2 
 1039000    1.0969269   -6.6872318    445.18298  0.035706046  0.035772862           11 
 1040000    1.1009004   -6.6566295     446.4512  0.035773333  0.035766683            4 
 1041000    1.1025647   -6.6633914    445.59903  0.035670752  0.035760646            2 
 1042000    1.0992528    -6.668596    447.06572  0.035753817  0.035754353            2 
 1043000    1.1170593   -6.6414037    446.73783  0.035693339  0.035748101            3 
 1044000    1.0856034   -6.6381592    446.73518  0.035658938  0.035741622            3 
 1045000    1.0742007   -6.6535736    447.49457  0.035685373  0.035735349            2 
 1046000    1.0820909   -6.6446573    447.76839  0.035673071  0.035729159            4 
 1047000    1.0771232   -6.6311082    447.05221  0.035581997  0.035722802            2 
 1048000    1.0852656   -6.6447611    449.49973  0.035742663   0.03571652            2 
 1049000    1.0713931   -6.6619257    449.69237  0.035723893  0.035710278            2 
 1050000    1.0911164   -6.6312807    449.90586  0.035706814  0.035704627            1 
 1051000    1.0765982   -6.6813646      450.741  0.035739058  0.035698997            3 
 1052000    1.0902491   -6.6551574    451.36901  0.035754833  0.035693341            3 
 1053000    1.0746002   -6.6635866    449.93692  0.035607543  0.035687435            2 
 1054000    1.1024582   -6.6804779     450.0089  0.035579451  0.035681276            5 
 1055000    1.0729053   -6.6502123    450.84688  0.035611918  0.035675187            4 
 1056000    1.0870584   -6.6570956    451.51834  0.035631182  0.035668978            4 
 1057000    1.0819213   -6.6845991    451.69455  0.035611365  0.035662743            3 
 1058000    1.0743103   -6.6425587    452.95977  0.035677361  0.035656424            2 
 1059000     1.079667   -6.6823433    452.54507  0.035611038  0.035650252            3 
 1060000    1.0841955   -6.6393328     453.0665  0.035618436  0.035644457            3 
 1061000    1.1006128   -6.6764657    453.14436   0.03559098  0.035638391            3 
 1062000    1.0894633   -6.6924944    452.10023  0.035475536  0.035632118            3 
 1063000    1.0822018   -6.6662629    451.84553  0.035422196  0.035625829            3 
 1064000      1.08256   -6.6183859    453.95287  0.035553953  0.035619611            5 
 1065000    1.0606783   -6.6445663    454.27991  0.035546159  0.035613378            4 
 1066000    1.0953454   -6.6447879    454.66334  0.035542787  0.035607403            1 
 1067000    1.0949041   -6.6762713    455.43984  0.035570122  0.035601289            3 
 1068000    1.1155741   -6.6621735    455.17722  0.035516325  0.035594796            3 
 1069000     1.082193   -6.6526499    456.17991  0.035561265  0.035588483            3 
 1070000    1.0748817   -6.6416277    457.13014  0.035602036  0.035582245            4 
 1071000    1.0883817   -6.6594901    454.87101  0.035393014  0.035575932            2 
 1072000    1.0739949   -6.6810706    456.62387  0.035496258  0.035569665            2 
 1073000    1.0867812   -6.6563437    458.05909  0.035574642  0.035563497            1 
 1074000    1.0835559   -6.6714574    456.88517  0.035450433  0.035557557            2 
 1075000    1.0691116    -6.682129    458.16866   0.03551695  0.035551438            3 
 1076000    1.0740373   -6.6608018    457.74281  0.035450961  0.035545441            3 
 1077000    1.0778284   -6.6683182    458.04763  0.035441631   0.03553944            3 
 1078000    1.0980097   -6.6815107    459.00479  0.035482745   0.03553315            2 
 1079000    1.0970558   -6.6473237    460.85767  0.035592962  0.035527093            9 
 1080000     1.087434   -6.6859136    459.54881  0.035459013  0.035520912            3 
 1081000    1.0963036   -6.6842734    459.83121  0.035447981  0.035514654            3 
 1082000    1.0752539   -6.6831669    459.32243  0.035376034  0.035508524            2 
 1083000    1.0843352   -6.6939286    459.65398  0.035368881  0.035502515            2 
 1084000    1.0892979   -6.6487031    463.77346  0.035652941  0.035496432            4 
 1085000    1.0861561   -6.6487955    461.09061  0.035414025  0.035490184            2 
 1086000    1.0682517   -6.6887411    460.88452  0.035365601  0.035483935            4 
 1087000    1.0691701   -6.6380663    462.19367  0.035433431  0.035477746            4 
 1088000    1.0757205   -6.6536844    462.61229  0.035432927  0.035471493            4 
 1089000    1.0726758   -6.6786425     461.4435  0.035310951  0.035465176            3 
 1090000    1.0821946   -6.6456406    462.32776  0.035346159  0.035458599            1 
 1091000    1.0851482   -6.7076456     463.3297  0.035390292  0.035452044            3 
 1092000    1.1051274   -6.6556083    462.12799  0.035266178  0.035445366            2 
 1093000    1.0748706   -6.6473861    461.93356  0.035219088  0.035438861            2 
 1094000    1.0581792   -6.6408574    464.24423  0.035362906  0.035432537            3 
 1095000    1.0819249   -6.6456239    464.19918  0.035327183  0.035426017            2 
 1096000     1.097209   -6.6500444    464.04328  0.035283096  0.035419415            3 
 1097000    1.0728495   -6.6903639     464.2412  0.035265968  0.035412691            3 
 1098000    1.0761371   -6.6664244     465.3458  0.035317684  0.035405888            4 
 1099000    1.0777652   -6.6548316    464.24359   0.03520197   0.03539933            2 
 1100000    1.0658131   -6.6649255    464.55701  0.035193713  0.035392665            4 
 1101000    1.0913289    -6.703324    465.87811   0.03526174  0.035386167            3 
 1102000    1.0617508   -6.6745666    466.64118  0.035287445  0.035379579            2 
 1103000    1.0596984   -6.6715637    466.53679  0.035247567  0.035372863            3 
 1104000    1.0907408   -6.6376644    467.01002   0.03525136  0.035366172            2 
 1105000    1.0886203   -6.6769441    465.91415  0.035136814  0.035359558            4 
 1106000    1.0729098   -6.7045569    466.94875  0.035182998  0.035352687            4 
 1107000    1.0673266   -6.6804221    469.13047  0.035315452  0.035346057            2 
 1108000     1.075261    -6.663751    467.95284  0.035195009   0.03533928            6 
 1109000    1.0677499   -6.6631799    469.46779  0.035277111  0.035332684            2 
 1110000    1.0721902   -6.6925075    467.22075  0.035076633  0.035325775            5 
 1111000    1.0842914   -6.7141619    467.98447  0.035102345  0.035318928            7 
 1112000    1.0874492   -6.6820793    468.82412  0.035133702  0.035312165            3 
 1113000    1.0689071   -6.6839407    469.84179  0.035178331  0.035305318            2 
 1114000    1.0792327    -6.671453    470.31865  0.035182424  0.035298418            4 
 1115000    1.0666084   -6.6900453    470.00966  0.035127777  0.035291394            4 
 1116000    1.0892423   -6.6316459     471.4813   0.03520619  0.035284619            2 
 1117000    1.0671247   -6.6777337    470.49502  0.035101091  0.035277574            2 
 1118000    1.0817338   -6.6467392    471.79793   0.03516681  0.035270506            3 
 1119000    1.0537572   -6.6532026    471.52828  0.035115302  0.035263689            7 
 1120000    1.0569264   -6.6759195    472.68155  0.035169758  0.035257035            1 
 1121000    1.0811065   -6.6678412    472.55706   0.03512913  0.035250462            3 
 1122000    1.0759846   -6.6689314    473.85298  0.035194071  0.035243928            2 
 1123000    1.0722441   -6.6561329     473.3631   0.03512638  0.035237593            1 
 1124000    1.0795573   -6.6952163    474.62325  0.035188557  0.035231196            2 
 1125000    1.0974383   -6.6914461    475.81256  0.035245374  0.035224838            2 
 1126000    1.0601872    -6.671695      474.171  0.035092584    0.0352185            2 
 1127000    1.0676608   -6.6840608    473.40706  0.035004959  0.035211717            4 
 1128000    1.0951313   -6.6621794    474.52176  0.035056277  0.035204997            3 
 1129000    1.0681303    -6.662675    473.95673   0.03498352  0.035198419            4 
 1130000    1.0690321   -6.6832352    477.02652  0.035178947  0.035191799            3 
 1131000    1.0569091    -6.681351    476.18579  0.035085897  0.035185175            4 
 1132000    1.0601491   -6.6557615    477.81294  0.035174686  0.035178721            4 
 1133000    1.0578637   -6.7306335    475.65657  0.034985037   0.03517215            2 
 1134000    1.0829238   -6.6627756    476.66005  0.035027928  0.035165601            3 
 1135000    1.0713115    -6.661244    476.84208  0.035010432  0.035158872            3 
 1136000    1.0735549    -6.715127    477.57666  0.035033499  0.035152458            3 
 1137000    1.0722535   -6.6667361    478.70723  0.035085549  0.035145936            3 
 1138000    1.0956867   -6.7013758     477.2831  0.034950432  0.035139172            3 
 1139000    1.0790259   -6.7005375    478.04118  0.034975211  0.035132459            2 
 1140000    1.0879444   -6.7007016    479.61099  0.035059283  0.035125676            3 
 1141000    1.0861811   -6.7181248      478.881  0.034975241  0.035119157            7 
 1142000    1.0271033   -6.7125428     479.8606  0.035016098  0.035112533            3 
 1143000    1.0698096   -6.6820274    480.22249  0.035011847  0.035105983            3 
 1144000    1.0764856   -6.6863002    480.21578  0.034980753   0.03509931            3 
 1145000    1.0638252   -6.6794214    479.41937  0.034892239  0.035092734            3 
 1146000    1.0716785   -6.6824395    481.58847  0.035019522  0.035086207            3 
 1147000    1.0563126   -6.7036508    481.05864  0.034950497  0.035079624            2 
 1148000    1.0769127   -6.6969903    481.89005  0.034980404  0.035073082            2 
 1149000    1.0686819   -6.6672099    481.32777   0.03490918  0.035066599            4 
 1150000     1.065135   -6.7092132    483.91439   0.03506626   0.03506003            5 
 1151000     1.061586   -6.6858394    483.67244  0.035018277  0.035053467            2 
 1152000    1.0456681   -6.6924616    483.45866  0.034972415   0.03504695            2 
 1153000    1.0589272   -6.6882841    483.47911  0.034943561   0.03504061            3 
 1154000    1.0950064   -6.7130642    484.36871  0.034977521   0.03503421            4 
 1155000     1.056809   -6.7186724    483.04633  0.034851828  0.035027593            3 
 1156000    1.0704171   -6.6866972    485.66878  0.035010725  0.035021116            2 
 1157000    1.0752345   -6.7051559    484.37066  0.034886967  0.035014736            4 
 1158000    1.0784177   -6.7143087    484.93267  0.034897284  0.035008048            3 
 1159000    1.0714256   -6.6854144    484.60237  0.034843426  0.035001366            2 
 1160000     1.068564   -6.6659819    487.40321  0.035014599  0.034994928            3 
 1161000    1.0859757   -6.6773358     486.1148  0.034891961  0.034988482            3 
 1162000    1.0772471    -6.715065    485.32265  0.034805124  0.034981906            2 
 1163000    1.0740806   -6.7026135    486.02435  0.034825476  0.034975277            4 
 1164000    1.0458032   -6.6886366    487.02836  0.034867437  0.034968699            2 
 1165000    1.0739565   -6.6832831    487.38555  0.034863058  0.034962094            4 
 1166000    1.0573693   -6.7460338    486.29603  0.034755291  0.034955742            2 
 1167000    1.0529127   -6.6747982    488.90013  0.034911463  0.034949311            2 
 1168000    1.0726202    -6.700993    490.14681   0.03497052  0.034943258            1 
 1169000    1.0652149   -6.7152695      489.815  0.034916951  0.034937084            3 
 1170000    1.0486749   -6.6904662    490.36326  0.034926158  0.034930826            2 
 1171000    1.0414748   -6.7057645    488.57837  0.034769312  0.034924372            2 
 1172000    1.0564104    -6.697485    490.36708  0.034866829  0.034917996            2 
 1173000    1.0531385   -6.6588046    491.56295  0.034922062  0.034911655            5 
 1174000    1.0685082   -6.6985331    491.66332   0.03489944  0.034905384            2 
 1175000    1.0401646    -6.698914    490.95539  0.034819531  0.034899126            3 
 1176000    1.0506289   -6.6922525    491.37686  0.034819789  0.034892859            3 
 1177000    1.0552008    -6.727762    492.18164  0.034847185  0.034886737            3 
 1178000    1.0723297   -6.7062602    493.36609  0.034901393  0.034880534            2 
 1179000    1.0608058   -6.7024221    492.56542  0.034815198  0.034874485            3 
 1180000    1.0882365   -6.6723467     493.1501  0.034826985  0.034868398            3 
 1181000    1.0735004   -6.6888396    493.86469  0.034847918  0.034862302            3 
 1182000     1.055336   -6.7420248    493.94931  0.034824401  0.034856098            2 
 1183000    1.0760125   -6.6889892    494.92402  0.034863625  0.034850083            3 
 1184000    1.0694324   -6.6955751    495.64882  0.034885193  0.034844163            2 
 1185000     1.053395   -6.7130428    496.58022  0.034921253  0.034838107            1 
 1186000    1.0685558   -6.7615803    494.42566   0.03474042  0.034832002            1 
 1187000    1.0618929    -6.719082      495.625  0.034795353  0.034825962            4 
 1188000    1.0618571   -6.6950299    495.64793  0.034767672  0.034819892            3 
 1189000    1.0617098   -6.6925268    496.53197   0.03480039  0.034813683            2 
 1190000    1.0623528   -6.7414043     495.6116  0.034706694  0.034807363            1 
 1191000    1.0494603   -6.7033406    496.20353  0.034718971  0.034800847            5 
 1192000    1.0647953   -6.6915459    496.78786  0.034730695  0.034794292            6 
 1193000    1.0670893   -6.6938218     495.6782  0.034624071  0.034787719            4 
 1194000    1.0713285   -6.6961718    498.02333  0.034758747  0.034781175            3 
 1195000    1.0525784   -6.7105759    499.18041  0.034810349  0.034774854            9 
 1196000    1.0672872   -6.7177798    497.52397  0.034665828  0.034768554            2 
 1197000    1.0576691    -6.719408    498.51152  0.034705619  0.034762188            2 
 1198000    1.0667689   -6.6945507    498.27856  0.034660445  0.034755834            2 
 1199000    1.0849827    -6.725942    498.28571  0.034632035  0.034749278            2 
 1200000    1.0663575   -6.7051157     497.7892  0.034568694  0.034742691            2 
 1201000     1.066702   -6.7254519    497.90284  0.034547796  0.034736095            2 
 1202000    1.0352943   -6.7146356    499.99719  0.034664254  0.034729369            2 
 1203000    1.0729881   -6.7012406    499.04646   0.03456958  0.034722693            3 
 1204000    1.0369663   -6.7367716    498.72308  0.034518485  0.034715872            4 
 1205000    1.0359755    -6.705325    499.43812  0.034539289  0.034708832            2 
 1206000    1.0412814   -6.7167052    499.00614    0.0344808  0.034701979            3 
 1207000    1.0523037   -6.6917116    500.39342  0.034548013  0.034695055            3 
 1208000     1.057369   -6.7165901    498.92609   0.03441819  0.034688118            7 
 1209000    1.0509514   -6.7051524    499.75028  0.034446532  0.034681211            3 
 1210000    1.0603105   -6.7294188    500.75095   0.03448698  0.034674169            3 
 1211000    1.0772887    -6.732796    499.40203  0.034365678  0.034666992            3 
 1212000    1.0562794   -6.7119032    500.38957  0.034405224  0.034659827            3 
 1213000    1.0605749   -6.7163908    499.13536  0.034290696  0.034652577            8 
 1214000    1.0478273   -6.6941171     501.6324  0.034433855  0.034645308            3 
 1215000    1.0701325   -6.7181134    501.64573  0.034406429  0.034638214            4 
 1216000    1.0562307   -6.7329938    501.74339  0.034384826  0.034631145            3 
 1217000    1.0753681   -6.7175957    501.46402  0.034337443   0.03462381            3 
 1218000    1.0922924   -6.7440226    502.27144  0.034364494  0.034616695            3 
 1219000    1.0582831   -6.7156291    502.54425  0.034354953  0.034609571            3 
 1220000    1.0401701   -6.7115734    504.06817  0.034430886  0.034602429            2 
 1221000    1.0305982   -6.7365796    502.98743  0.034328926  0.034595177            4 
 1222000    1.0494473    -6.703187    503.82711  0.034358095  0.034587869            2 
 1223000    1.0525671   -6.7016268    504.01099  0.034342531  0.034580665            3 
 1224000    1.0428939   -6.7058567     504.5237  0.034349381  0.034573482            2 
 1225000    1.0674797   -6.7476024    504.79249  0.034339625  0.034566301            2 
 1226000    1.0695413   -6.7286261    503.79821  0.034244033  0.034559031            2 
 1227000     1.058265   -6.7397411     506.0316  0.034367808   0.03455182            1 
 1228000    1.0572563   -6.6910878    505.76278  0.034321578  0.034544594            3 
 1229000    1.0679364   -6.7187036     506.7723  0.034362103  0.034537463            4 
 1230000    1.0587235   -6.6776994    507.81411   0.03440475  0.034530311            3 
 1231000    1.0679243   -6.7140881    507.47827  0.034354067  0.034523249            3 
 1232000    1.0561491   -6.7377468     506.5765  0.034265186  0.034516394            3 
 1233000    1.0448169   -6.7072449    507.86297  0.034324342   0.03450962            2 
 1234000    1.0408043   -6.6728835    508.88658  0.034365652  0.034502965            7 
 1235000    1.0617525   -6.7387454    507.92526   0.03427296  0.034496296            4 
 1236000    1.0666697   -6.7402636    509.76324   0.03436915  0.034489581            6 
 1237000    1.0591156   -6.7355425     509.8615  0.034347986  0.034482703            2 
 1238000    1.0610705   -6.7075241    509.05571  0.034266001  0.034476037            6 
 1239000    1.0496166   -6.7123794    511.15083   0.03437926   0.03446919            3 
 1240000    1.0583544   -6.7396642    509.63461  0.034249637  0.034462406            3 
 1241000    1.0362192   -6.7115665    510.51885  0.034281416  0.034455589            4 
 1242000    1.0642298   -6.7235691    510.89787  0.034279245  0.034448745            4 
 1243000    1.0570346   -6.7314413    512.49451  0.034358709  0.034441922            3 
 1244000    1.0285371   -6.6950353    513.41986  0.034393078  0.034435134            2 
 1245000    1.0611933   -6.6937987     512.6396  0.034313226  0.034428585            4 
 1246000    1.0588901    -6.715385    513.33735  0.034332353  0.034421976            4 
 1247000    1.0341616   -6.7523983    511.48337  0.034180925  0.034415204            3 
 1248000    1.0488624   -6.7045812    513.83346  0.034310461    0.0344087            1 
 1249000    1.0682102   -6.7659842    514.16464  0.034305087  0.034402096            2 
 1250000    1.0372428   -6.7045639    516.01449  0.034400966  0.034395549            4 
 1251000    1.0436937   -6.7399045    513.65769  0.034216473  0.034389059            7 
 1252000     1.046247   -6.7192424    514.01506   0.03421293  0.034382483            3 
 1253000     1.053962   -6.7148169    514.52239  0.034219366  0.034376068            2 
 1254000    1.0648053   -6.7217756    514.53267  0.034192761  0.034369423            9 
 1255000    1.0732894   -6.7043352    517.47352  0.034360792  0.034363003            2 
 1256000    1.0580686   -6.7341085      516.338  0.034258095  0.034356442            3 
 1257000     1.051356   -6.7461881    517.43075  0.034303285  0.034350051            4 
 1258000    1.0523939   -6.7206701    518.37349  0.034338467   0.03434379            2 
 1259000     1.047752   -6.6924267    520.71128  0.034465931  0.034337574            2 
 1260000    1.0267098   -6.7121184    518.75269  0.034309041  0.034331571            1 
 1261000    1.0357154   -6.7129056    519.81541  0.034352062  0.034325242            4 
 1262000    1.0446723   -6.7506173    520.01635  0.034338111  0.034318833            5 
 1263000    1.0693093   -6.7208817    519.49542  0.034276552  0.034312436            5 
 1264000    1.0466793   -6.7671082    518.25193  0.034167453   0.03430595            3 
 1265000    1.0421345   -6.7412027    520.42675  0.034283712  0.034299376            6 
 1266000    1.0406528   -6.7289697    521.05009  0.034297663  0.034292896            3 
 1267000    1.0638651   -6.7130119     520.9682  0.034265207  0.034286329            3 
 1268000    1.0310206   -6.7091641    521.34716  0.034263089  0.034279659            5 
 1269000    1.0468884    -6.728134     520.9467  0.034209791  0.034273127            6 
 1270000    1.0537934   -6.7689234    519.67888  0.034099664  0.034266426            4 
 1271000    1.0452705    -6.695952    520.67077  0.034137869  0.034259808            2 
 1272000    1.0703718   -6.7426742    520.75234  0.034116375  0.034253129            3 
 1273000     1.052674   -6.6848425    521.48133  0.034137296  0.034246491            2 
 1274000    1.0425831   -6.7256538    521.94674  0.034140943  0.034239937            2 
 1275000    1.0469736    -6.742171    521.53816  0.034087462  0.034233102            8 
 1276000    1.0681023   -6.7687191    520.73854  0.034008525  0.034226158            5 
 1277000    1.0585727   -6.7099324    522.25128  0.034080611  0.034219494            3 
 1278000    1.0451754   -6.7016115    523.62368  0.034143432  0.034212976            3 
 1279000    1.0525524   -6.7651175     523.9196  0.034136018  0.034206318            2 
 1280000    1.0418477   -6.7011244    524.99479  0.034179349  0.034199816            4 
 1281000    1.0699225   -6.7602139    523.45752  0.034052662  0.034193265            6 
 1282000    1.0378835    -6.736813    524.81621  0.034114418  0.034186763            5 
 1283000    1.0491423   -6.7229646    524.97159  0.034097921  0.034180043            2 
 1284000    1.0510953   -6.7496503    525.60022  0.034112164  0.034173582            6 
 1285000     1.047429   -6.7277265     526.4335  0.034139656  0.034167088            6 
 1286000     1.043904    -6.739008    527.13245  0.034158401   0.03416072            3 
 1287000    1.0586944   -6.7186603     526.9778  0.034121846  0.034154374            4 
 1288000    1.0477291   -6.7400449     525.9742  0.034030422  0.034147755            4 
 1289000    1.0234606   -6.7816654    526.12133  0.034013533  0.034141143            2 
 1290000    1.0405852   -6.7355319    528.65456  0.034150812  0.034134661            4 
 1291000    1.0559851   -6.7259029    528.98162   0.03414547  0.034128403            2 
 1292000    1.0427328   -6.7125965    530.10844  0.034191721  0.034122386            1 
 1293000    1.0569086   -6.7332469    529.07721  0.034098815  0.034116399            4 
 1294000    1.0504963   -6.7274486    531.55995  0.034232351  0.034110425            3 
 1295000    1.0534804   -6.7426062    530.22629  0.034120096  0.034104588           13 
 1296000    1.0645016   -6.7469504    530.81797  0.034131814  0.034098503            4 
 1297000    1.0384376   -6.7089526    530.28211  0.034071069  0.034092488            5 
 1298000    1.0225776   -6.7265175    532.10299  0.034161722  0.034086426            3 
 1299000    1.0328901   -6.7686736    530.91521  0.034059226  0.034080258            2 
 1300000    1.0531496   -6.7577008    532.29486  0.034121465   0.03407412            4 
 1301000    1.0379382   -6.7279969    532.83069   0.03412956  0.034068184            6 
 1302000    1.0317875   -6.7104681    532.26423  0.034067091   0.03406222            4 
 1303000    1.0494804   -6.7351832    531.79468  0.034010916  0.034056158            2 
 1304000    1.0638037   -6.7131369    532.19241  0.034010251  0.034049951            3 
 1305000      1.02551   -6.7612943    532.67562  0.034015046  0.034043685            3 
 1306000    1.0368292   -6.7441737    532.91561  0.034004314  0.034037472            3 
 1307000    1.0518424    -6.729701    533.42709  0.034010909  0.034031063            3 
 1308000    1.0448109   -6.7339312    535.01204  0.034085884  0.034024835            3 
 1309000    1.0473314   -6.7193184    533.95872  0.033992788   0.03401848            5 
 1310000    1.0310859   -6.7371389    534.64253  0.034010339  0.034012179            4 
 1311000     1.068117    -6.732575    535.17926  0.034018514  0.034005612            3 
 1312000    1.0451912   -6.7119358    534.26191  0.033934318  0.033999107            3 
 1313000    1.0568561    -6.737103    533.74908  0.033875925  0.033992645            2 
 1314000    1.0462008    -6.763793    534.45811  0.033895111  0.033986105            2 
 1315000    1.0421301   -6.7317235     535.8759  0.033959183  0.033979635            3 
 1316000    1.0537793   -6.7148507    535.80411  0.033928832   0.03397322            4 
 1317000    1.0436862    -6.744422    534.74636   0.03383614  0.033966827            3 
 1318000    1.0520835    -6.683747    537.19137  0.033965059  0.033960364            3 
 1319000    1.0226327   -6.7392846    535.74982  0.033848232  0.033953897            3 
 1320000    1.0576518    -6.753421    537.28866  0.033919739  0.033947399            2 
 1321000    1.0254028   -6.7312656    537.06672  0.033880061  0.033940748            5 
 1322000    1.0278824   -6.7775705    537.42449  0.033876985  0.033933978            3 
 1323000    1.0298319   -6.7310686     536.0477  0.033764657  0.033927361            4 
 1324000    1.0396369   -6.7451285     538.5735  0.033898131  0.033920755            2 
 1325000    1.0489966   -6.7548473    539.52283  0.033932253  0.033914069            5 
 1326000    1.0478199   -6.7541857    536.27617  0.033702625   0.03390727            3 
 1327000    1.0364489   -6.7766211    538.06009  0.033789255  0.033900438            2 
 1328000    1.0394991   -6.7631345    537.90528  0.033754096  0.033893598            2 
 1329000    1.0283119   -6.7545473    539.28312  0.033815094  0.033886727            4 
 1330000    1.0263181   -6.7330276    539.57358  0.033807868  0.033879953            4 
 1331000    1.0426474   -6.7059122    540.20158  0.033821787  0.033873171            4 
 1332000    1.0498758   -6.7542972    539.14244  0.033730132  0.033866479            3 
 1333000    1.0304342   -6.7724517    539.03125  0.033697878  0.033859827            3 
 1334000    1.0520278   -6.7714598    540.29373  0.033751482  0.033853127            5 
 1335000    1.0339746   -6.7306218    542.41483  0.033858604   0.03384634            3 
 1336000    1.0295073   -6.7633925    541.25765  0.033761081  0.033839848            2 
 1337000    1.0534842   -6.7354325    542.17989  0.033793311  0.033833387            7 
 1338000    1.0329095   -6.7647012    541.77449  0.033742806  0.033826908            3 
 1339000     1.038512   -6.7789704     540.6401  0.033647007  0.033820058            2 
 1340000    1.0581553   -6.7599761    541.19331    0.0336563  0.033813298            3 
 1341000    1.0316516   -6.7511285    542.53113  0.033714338  0.033806561            2 
 1342000     1.037882   -6.7459595    541.39622  0.033618742  0.033799827            3 
 1343000    1.0272057   -6.7613987    542.90205  0.033687147  0.033793132            3 
 1344000    1.0318644   -6.7615648    542.48184  0.033636027  0.033786321            2 
 1345000    1.0313747   -6.7837951    543.42852  0.033669673  0.033779512            3 
 1346000    1.0323847   -6.7775264    541.74903  0.033540678  0.033772632            3 
 1347000      1.03566   -6.6989744    544.12856  0.033662989   0.03376571            2 
 1348000    1.0184853   -6.7735028    543.88334  0.033622857  0.033758771            5 
 1349000    1.0511334   -6.7464822    544.13565  0.033613519  0.033751952            2 
 1350000    1.0326203    -6.779945    544.42487  0.033606473  0.033745034            3 
 1351000    1.0388947   -6.7881211    544.09919   0.03356151  0.033738194            4 
 1352000    1.0333818    -6.756818    544.91373  0.033586891  0.033731323            3 
 1353000     1.017569    -6.770878    544.82535  0.033556624  0.033724418            5 
 1354000    1.0326607   -6.7674543    543.44889  0.033447125  0.033717206            1 
 1355000    1.0343175   -6.7635185    546.16189  0.033589292  0.033710095            3 
 1356000    1.0467532   -6.7686583    545.78993  0.033541663  0.033703091            3 
 1357000     1.039896   -6.7947868    545.44969  0.033496051  0.033696048            3 
 1358000    1.0527573   -6.7420251    546.97955  0.033565265  0.033688985            2 
 1359000    1.0375439   -6.7674549     546.4068  0.033505445  0.033681872            3 
 1360000    1.0443286    -6.769502    545.03106  0.033396511  0.033674737            3 
 1361000    1.0446187   -6.7706654    548.19877   0.03356593  0.033667661            4 
 1362000    1.0606504   -6.7712239    545.54027  0.033378627  0.033660566            2 
 1363000    1.0338752   -6.7643483    547.87568  0.033496923  0.033653345            2 
 1364000    1.0607904   -6.7543483    545.51411  0.033328086  0.033646143            6 
 1365000     1.054419   -6.7494661    548.77259    0.0335026  0.033638985            2 
 1366000    1.0562296   -6.7792975    547.49705  0.033400259  0.033631931            2 
 1367000    1.0286629   -6.7345036    548.01524  0.033407415  0.033624912            2 
 1368000    1.0431426   -6.7392112    548.41917    0.0334076  0.033617792            2 
 1369000    1.0419768   -6.7394565    549.55397  0.033452275  0.033610743            3 
 1370000    1.0336307   -6.7637325    548.81584  0.033382959  0.033603722            5 
 1371000    1.0466282   -6.7597615    549.10074  0.033375926  0.033596425            3 
 1372000    1.0289461   -6.7547427    551.46519  0.033495213  0.033589344            2 
 1373000    1.0344537   -6.7524485    550.12746  0.033389625  0.033582453            3 
 1374000    1.0476089   -6.7798504    550.62686  0.033395612  0.033575416            1 
 1375000    1.0434218   -6.7668723    551.39163  0.033417675  0.033568275            2 
 1376000    1.0475617   -6.7412103    550.92621  0.033365201  0.033561175            2 
 1377000    1.0510384   -6.7676882    551.94949  0.033402898  0.033554098            4 
 1378000    1.0191266   -6.7900705    551.05994  0.033324863  0.033546905            8 
 1379000    1.0467463   -6.7694577    550.65557  0.033276261  0.033539735            5 
 1380000    1.0376386   -6.7347969     552.8463  0.033384439  0.033532519           14 
 1381000    1.0415009   -6.8049746    552.05851  0.033312727   0.03352522            5 
 1382000    1.0328137    -6.745099    551.73983  0.033269406   0.03351772            3 
 1383000    1.0313089   -6.7536528    552.98505  0.033320381  0.033510268            3 
 1384000    1.0146326    -6.775061    550.76401  0.033162573  0.033502793            3 
 1385000    1.0193282    -6.759941    552.11875  0.033220141  0.033495257            9 
 1386000    1.0335935   -6.7737388    550.45956  0.033096414  0.033487729            3 
 1387000    1.0404182   -6.7667259    552.07649    0.0331697  0.033480308            3 
 1388000    1.0308159   -6.7539612    553.18425  0.033212311  0.033472896            2 
 1389000    1.0185859   -6.7693603    553.58715  0.033212572  0.033465467            3 
 1390000    1.0521071    -6.757783    552.06961  0.033097698  0.033458052            3 
 1391000    1.0425866    -6.740179    554.76765  0.033235541  0.033450622            3 
 1392000    1.0410995   -6.7626982    554.21643  0.033178665  0.033443213            2 
 1393000    1.0042781   -6.7674631    554.50945  0.033172377  0.033435689            3 
 1394000    1.0300237   -6.7810659    555.40834  0.033202316   0.03342829            5 
 1395000    1.0368028   -6.7690141    553.73831  0.033078752  0.033420725            4 
 1396000    1.0297936   -6.7800123    554.50792  0.033100998  0.033413066            7 
 1397000    1.0326591   -6.7544839    556.76042  0.033211669  0.033405611            2 
 1398000    1.0418946    -6.751726    556.63961  0.033180711  0.033398127            5 
 1399000    1.0277381   -6.7576978    557.97866  0.033236756  0.033390782            3 
 1400000    1.0578972   -6.7551968    558.64499  0.033252678  0.033383672            3 
 1401000    1.0512212   -6.7796536    556.10473  0.033077845  0.033376399            4 
 1402000     1.019918   -6.8073885    557.56475  0.033141034     0.033369            4 
 1403000    1.0195712   -6.7569878    557.48055  0.033112411  0.033361659            8 
 1404000    1.0305382   -6.7838192    558.06148  0.033123307  0.033354286            6 
 1405000    1.0373523   -6.7558376    558.60834  0.033132167  0.033346882            1 
 1406000     1.035931   -6.7739827    559.44955  0.033158461  0.033339657            5 
 1407000    1.0116699   -6.7991754    557.97824  0.033047752  0.033332305            3 
 1408000    1.0385859    -6.750191     562.2072  0.033274574  0.033325292            3 
 1409000    1.0346977   -6.7841848     560.9866  0.033178768  0.033318155            3 
 1410000    1.0160577    -6.767454    559.45795  0.033064891  0.033311004            6 
 1411000    1.0489217   -6.7709236    560.04279  0.033075997   0.03330369            5 
 1412000    1.0378655   -6.7677591     561.3312  0.033128612  0.033296559            4 
 1413000    1.0136132   -6.8016331    560.15794  0.033035972  0.033289291            4 
 1414000   0.99544378   -6.8015926    560.42052  0.033028083  0.033282069            4 
 1415000    1.0217756   -6.7780586    560.04557   0.03298266  0.033274959            2 
 1416000    1.0275168   -6.7862999    561.67586  0.033055312  0.033267868            6 
 1417000    1.0147666    -6.785597    562.73701   0.03309439  0.033260815            6 
 1418000    1.0211144   -6.7842612    563.40718  0.033110436  0.033253783            4 
 1419000    1.0266517   -6.7426301    565.21856  0.033193479  0.033246587            2 
 1420000    0.9986055   -6.8129077    562.86508  0.033031988  0.033239524            3 
 1421000     1.015735   -6.7945404    561.76508  0.032944234   0.03323228            3 
 1422000     1.039899   -6.7750104    564.60968  0.033087769  0.033225157            3 
 1423000    1.0096668   -6.7645533    564.31322  0.033047155   0.03321806            7 
 1424000   0.99729306   -6.7912877    565.91153  0.033117482  0.033211058            4 
 1425000    1.0357343   -6.7647475    563.76795  0.032968886  0.033203954            3 
 1426000    1.0135069    -6.783981    565.12506  0.033025074  0.033196812            4 
 1427000    1.0231325   -6.8152811    565.18645  0.033005516  0.033189648            6 
 1428000    1.0063115   -6.7671628    566.75782  0.033074102  0.033182643            3 
 1429000    1.0494239   -6.7976078    565.05065  0.032951403  0.033175564            2 
 1430000    1.0145967   -6.8314338    564.61693  0.032903084  0.033168397            3 
 1431000    1.0211174   -6.7576582    566.20737   0.03297271  0.033161224            3 
 1432000     1.015124   -6.8012455    565.82829  0.032927624  0.033153919            4 
 1433000    1.0250637   -6.7983535    566.05637  0.032917909  0.033146665            3 
 1434000    1.0330608   -6.7882326    566.02371  0.032893056   0.03313939            4 
 1435000    1.0212893   -6.7683669    567.98008  0.032983744  0.033132185            6 
 1436000    1.0005182   -6.7795855     566.6464   0.03288338  0.033124906            2 
 1437000    1.0320827   -6.7642435    567.71127   0.03292225  0.033117654            3 
 1438000    1.0300776   -6.7935287    568.06565  0.032919891  0.033110374            2 
 1439000   0.99732092   -6.8057882    567.59538  0.032869781  0.033103001            2 
 1440000    1.0109138     -6.77739    568.53951  0.032901592  0.033095618            4 
 1441000    1.0141664   -6.7924266    567.65352  0.032827523  0.033088392            5 
 1442000    1.0108048   -6.7994194    568.64247  0.032861909  0.033081223            3 
 1443000    1.0181071   -6.7817678    570.94063  0.032971854  0.033074082            5 
 1444000     1.019677   -6.7988246    570.65679   0.03293264  0.033066904            2 
 1445000    1.0339328   -6.7652511    569.66724  0.032852782  0.033059613            6 
 1446000     1.013083   -6.8073442    568.87077  0.032784161  0.033052199            3 
 1447000    1.0323094   -6.7986291    570.76799  0.032870766  0.033044828            5 
 1448000    1.0495531   -6.7917727    570.76848  0.032848094  0.033037627            6 
 1449000    1.0154899   -6.8035273    570.57861  0.032814505  0.033030619            2 
 1450000    1.0253537   -6.7704369    572.00455  0.032873825  0.033023492            4 
 1451000    1.0193865   -6.7683247    572.88678  0.032901837  0.033016493            5 
 1452000    1.0376346   -6.7643624    573.03521  0.032887696   0.03300951            4 
 1453000    1.0359826   -6.7860987    572.96237  0.032860884  0.033002317            3 
 1454000    1.0158423   -6.7832064    571.41647  0.032749683  0.032995031            4 
 1455000    1.0114327   -6.7635028     571.4605  0.032729697  0.032987718            3 
 1456000    1.0457739   -6.7926163    572.81806  0.032784917  0.032980594            5 
 1457000    1.0230255   -6.7949165    572.46394  0.032742161   0.03297331            4 
 1458000   0.99758519   -6.7916928    572.98297  0.032749369  0.032966037            2 
 1459000    1.0463035   -6.7786697    573.92668  0.032780825   0.03295899            4 
 1460000    1.0272642    -6.794359    573.98972   0.03276197  0.032951885            4 
 1461000    1.0011066    -6.777004    574.23772  0.032753692  0.032944845            3 
 1462000    1.0235068   -6.8124433    574.80953  0.032763881  0.032937744            3 
 1463000    1.0325958   -6.7916276    575.63839  0.032788699  0.032930732            3 
 1464000    1.0359933   -6.8063098    575.87402  0.032779714  0.032923685            3 
 1465000    1.0218331   -6.7745538     573.7872  0.032638635  0.032916632            3 
 1466000    1.0370884   -6.8072457    577.12137  0.032805899   0.03290958            3 
 1467000    1.0289886   -6.8238576    574.94751  0.032660049  0.032902446            8 
 1468000    1.0177014   -6.7702128    577.72739  0.032795606  0.032895372            3 
 1469000    1.0212106    -6.780607     576.5928  0.032708918  0.032888408            3 
 1470000    1.0095735    -6.823604    575.69037  0.032635509  0.032881338            2 
 1471000    1.0178495   -6.8135237    576.75176  0.032673451  0.032874057            3 
 1472000   0.99821258   -6.8130319     576.5052  0.032637296  0.032866856            4 
 1473000    1.0190493   -6.7732339     578.7119  0.032739981  0.032859719            2 
 1474000    1.0229839   -6.8292317    576.94442  0.032617844  0.032852445            4 
 1475000    1.0323254   -6.7960347    577.46028  0.032624875  0.032845075            4 
 1476000     1.007255   -6.8418911    578.60253  0.032667261  0.032837758            3 
 1477000    1.0078531   -6.8171079    578.10224  0.032616917  0.032830447            3 
 1478000    1.0230829   -6.8187455    578.60838  0.032623386  0.032822996            5 
 1479000    1.0095154   -6.8027397    578.05909  0.032570379  0.032815613            5 
 1480000    1.0120921    -6.800906    577.55449   0.03251996  0.032808117            4 
 1481000    1.0245359    -6.841056    576.98475  0.032465944  0.032800478            8 
 1482000    1.0148684   -6.7996245    577.10188  0.032450623  0.032792959            2 
 1483000    1.0147972   -6.7631809    579.13562  0.032543022  0.032785338            3 
 1484000    1.0064175   -6.7896965    577.59857   0.03243478  0.032777788            3 
 1485000    1.0339891   -6.7821116    579.22797  0.032504376  0.032770146            6 
 1486000    1.0135791   -6.7904798    580.42848  0.032549825  0.032762619            6 
 1487000    1.0297099   -6.8146882    577.96751   0.03239002  0.032755037            3 
 1488000    1.0136119   -6.7950804     579.1639  0.032435254  0.032747451            3 
 1489000    1.0114814   -6.7876941    580.98138  0.032515188   0.03274007            4 
 1490000    1.0164202   -6.7780456    582.14468  0.032558427  0.032732736            3 
 1491000    1.0322595   -6.7928478    581.24447  0.032486277  0.032725336            1 
 1492000    1.0166264   -6.7759305    583.00043   0.03256258  0.032717942            2 
 1493000    1.0133199   -6.8261547    581.30152  0.032445943    0.0327107            2 
 1494000    1.0292103   -6.7959349    581.99101  0.032462685  0.032703463            3 
 1495000     1.013831   -6.8116339    582.81119  0.032486688  0.032696041            2 
 1496000    1.0041734   -6.7787572    584.30441  0.032548151  0.032688476            3 
 1497000    1.0317615   -6.8047338    585.05434  0.032568155  0.032681103            5 
 1498000    1.0183433   -6.8257709    582.31007  0.032393751  0.032673684            3 
 1499000    1.0346245   -6.8007355    585.07718  0.032525972  0.032666154            3 
 1500000    1.0156132   -6.7984175    584.23299  0.032457388  0.032658594            4 
 1501000    1.0070567   -6.8372316    581.25895   0.03227065  0.032650972            2 
 1502000    1.0204003    -6.781953    583.59213  0.032378613  0.032643458            4 
 1503000    1.0052116   -6.8000276    583.02614   0.03232569  0.032635857            6 
 1504000   0.99982127   -6.8064601    584.97118  0.032411967  0.032628284            2 
 1505000   0.99768136   -6.8459627    583.88388  0.032330226  0.032620725            2 
 1506000   0.99630554   -6.7971177    584.44002  0.032339532  0.032613164            3 
 1507000    1.0150435   -6.7933236    585.70968  0.032388281  0.032605757            4 
 1508000    1.0006338   -6.7935555    585.56927  0.032359045   0.03259834            2 
 1509000    1.0071227   -6.8091051    586.04626  0.032363942  0.032590904            3 
 1510000    1.0342235   -6.7683449     587.8367  0.032441319  0.032583495            3 
 1511000   0.99575776   -6.8107198    586.64379  0.032354058  0.032576189            2 
 1512000   0.99907413   -6.8015036    587.37495  0.032372958  0.032568865            6 
 1513000    1.0070034   -6.8004185     586.8125  0.032320583   0.03256163            5 
 1514000   0.99878559   -6.8120689    588.17411  0.032374181  0.032554385            6 
 1515000    1.0232582   -6.7963873    589.40272  0.032420392  0.032547097            4 
 1516000    1.0195207   -6.8084538    588.27781   0.03233717  0.032539714            2 
 1517000    1.0072099   -6.7992017     588.5428  0.032330411  0.032532402            3 
 1518000    1.0259565   -6.8271717    588.85925  0.032326485    0.0325251            3 
 1519000   0.99446592   -6.7882461    590.43818  0.032391824  0.032517785            2 
 1520000    1.0089232   -6.8031596    589.45838  0.032316797   0.03251042            4 
 1521000    1.0050993   -6.8047089    590.35398  0.032344618  0.032503001            2 
 1522000     1.008507   -6.8548734     590.9373  0.032355306  0.032495721            2 
 1523000    1.0000665   -6.7896637     590.6754  0.032319731  0.032488342            4 
 1524000   0.97966405   -6.7836338    591.39155  0.032337683  0.032481103            4 
 1525000    1.0230262    -6.815872    590.45881  0.032265509  0.032473937            4 
 1526000   0.98459978   -6.8206248     591.2505  0.032287598  0.032466712            7 
 1527000    1.0107773   -6.8136005    591.82725  0.032297929  0.032459525            6 
 1528000    1.0067571   -6.7923512      592.469  0.032311791  0.032452423            3 
 1529000    1.0219714   -6.8287884    591.44021  0.032234587  0.032445226            2 
 1530000   0.99610551    -6.854574     590.4517  0.032159679  0.032438109            3 
 1531000   0.99563484   -6.7881689    594.10204  0.032337363  0.032430765            6 
 1532000    1.0318406    -6.796252    591.86885  0.032194781  0.032423564            2 
 1533000    1.0095529    -6.813709    592.26847  0.032195503  0.032416433            4 
 1534000    1.0059822   -6.8316785    594.14485  0.032276448  0.032409251            3 
 1535000   0.99284202   -6.7957998     595.5229  0.032330233  0.032402225            5 
 1536000   0.98487214   -6.7897054    595.38185  0.032301533  0.032395149            8 
 1537000    1.0315245    -6.810975    594.82436  0.032250291  0.032388275            3 
 1538000   0.98263574   -6.8229895     594.5679  0.032215426  0.032381369            4 
 1539000    1.0225833   -6.8318131    597.38977  0.032347291  0.032374453            3 
 1540000    1.0001389   -6.8209961    595.35564  0.032216214  0.032367624            4 
 1541000   0.98717634   -6.8171418    597.28434  0.032299607  0.032360701            5 
 1542000   0.98308076   -6.7903556    597.59169  0.032295271  0.032353896            6 
 1543000    1.0151906   -6.8089959    598.64211  0.032331071  0.032346995            4 
 1544000   0.97087556   -6.8082278    595.95934  0.032165336  0.032340074            6 
 1545000    1.0272877   -6.8141031    597.02834  0.032202176  0.032333163            6 
 1546000   0.99813908    -6.776925    598.46449  0.032258759  0.032326373            4 
 1547000   0.97835006   -6.8452086    596.51652  0.032132974  0.032319461            3 
 1548000   0.99149975   -6.7938344    598.28561  0.032207451  0.032312534            8 
 1549000   0.99770648     -6.82746     599.0225  0.032226302  0.032305628            5 
 1550000    1.0027904   -6.8343683    598.88505  0.032198121  0.032298741            6 
 1551000    1.0052757   -6.8133245    599.88194  0.032230923  0.032291761            1 
 1552000   0.98958811   -6.7952871    600.11656  0.032222753  0.032285032            5 
 1553000    1.0000146   -6.8047141    599.67928  0.032178541  0.032278147            3 
 1554000    1.0061864   -6.7943025    600.36245  0.032194469  0.032271461            2 
 1555000   0.99954238   -6.8246809    600.62324  0.032187741  0.032264596            4 
 1556000    1.0037015   -6.8625325    599.99849  0.032133595  0.032257732            2 
 1557000    1.0090128   -6.8741959    600.09101  0.032117909   0.03225073            9 
 1558000   0.99795445   -6.8523112    600.20437  0.032103358  0.032243846            3 
 1559000    1.0073376   -6.8163812    601.54001  0.032154159  0.032237022            3 
 1560000    1.0056991   -6.8513366    601.57316  0.032135318  0.032230185            4 
 1561000    1.0191406   -6.8181213    601.97666  0.032136273  0.032223265            4 
 1562000   0.99856848   -6.8193121    601.47366  0.032088864  0.032216377            1 
 1563000    1.0062024   -6.8407285    600.31669  0.032006648  0.032209341            5 
 1564000   0.99804387   -6.8033534    602.29212  0.032091438  0.032202405            4 
 1565000   0.99989594    -6.832938    602.38792  0.032076034  0.032195482            4 
 1566000    1.0156005   -6.8261109    601.04746   0.03198422  0.032188383            3 
 1567000    1.0010352   -6.8185797     601.7388  0.032000574  0.032181283            2 
 1568000   0.99569245   -6.8395504    605.08911  0.032158222  0.032174244            1 
 1569000   0.98855616   -6.8335707    604.11146  0.032085801  0.032167253            4 
 1570000   0.99002314   -6.8298372    604.12251  0.032065951  0.032160174            2 
 1571000    0.9761913   -6.8056144    603.70683   0.03202349  0.032153261            4 
 1572000   0.98519445   -6.8098364    602.74848  0.031952315  0.032146386            2 
 1573000    0.9939075   -6.8269282    603.77207   0.03198623  0.032139403            3 
 1574000   0.99116199   -6.8253784    604.21495  0.031989356  0.032132336            2 
 1575000   0.98875931   -6.8218077    604.38662  0.031978128  0.032125329           10 
 1576000    1.0101108   -6.8063327    605.88544   0.03203709  0.032118306            5 
 1577000   0.99784948   -6.7961983    605.61118  0.032002282  0.032111182            3 
 1578000    1.0200313   -6.8104783    605.11692    0.0319559  0.032104103            2 
 1579000    1.0342401   -6.8567074    604.16072  0.031885197  0.032096964            4 
 1580000    1.0155744   -6.7836654    606.59301  0.031993302  0.032089908            2 
 1581000    1.0123022   -6.8484788    607.02621    0.0319959  0.032082948            3 
 1582000    1.0066126   -6.8092277    607.61057  0.032006457   0.03207591            3 
 1583000    1.0068113   -6.8097227    606.69594  0.031938089  0.032069126            6 
 1584000   0.98851202    -6.848943    607.71983  0.031971793  0.032062296            4 
 1585000     1.006514   -6.8319128    606.80832  0.031903697  0.032055294            4 
 1586000   0.99173616   -6.7995621    609.66425  0.032033641  0.032048404            3 
 1587000    1.0031896   -6.8428354    608.62301   0.03195878  0.032041481            2 
 1588000    1.0016616   -6.8240193    607.93996  0.031902811  0.032034519            2 
 1589000   0.97366378   -6.8568864     608.4544  0.031909713  0.032027452            3 
 1590000   0.97185389   -6.8252867    608.22285  0.031877508  0.032020537            2 
 1591000    1.0015653   -6.8253346    609.93462  0.031947131  0.032013597            2 
 1592000    1.0121319   -6.8053107    611.39703  0.032003614  0.032006722            2 
 1593000    1.0133366   -6.8436185    609.50094  0.031884334  0.031999845            3 
 1594000    1.0157879   -6.8381438    609.83617  0.031881857  0.031992849            4 
 1595000     1.006049   -6.8288972    609.33719  0.031835799  0.031985881            2 
 1596000    1.0019589    -6.855843    609.43935  0.031821186   0.03197901            9 
 1597000    1.0040306   -6.8467577    610.18665  0.031840255  0.031971922            7 
 1598000    1.0055537   -6.8216304    611.44433  0.031885916  0.031964821            3 
 1599000     0.986743   -6.8470806    611.61301  0.031874766  0.031957719            5 
 1600000    1.0142245   -6.8405238     609.6179  0.031750932   0.03195053            3 
 1601000    1.0088533   -6.8404294    609.65887  0.031733233  0.031943374            2 
 1602000   0.99287256   -6.8737723    610.22479  0.031742863  0.031936111            3 
 1603000    1.0031963    -6.814194    613.30998  0.031883447  0.031929129            4 
 1604000    0.9834564   -6.8350466     611.7994   0.03178509  0.031922108            4 
 1605000    1.0165265    -6.808328    612.87576  0.031821171  0.031915076            3 
 1606000   0.99290165   -6.8372866    612.22164  0.031767416  0.031908079            3 
 1607000    1.0001669    -6.855021    611.57025  0.031713869  0.031900985            3 
 1608000   0.98823934   -6.8324984    611.40245   0.03168545  0.031893778            5 
 1609000   0.99570287   -6.7901749    614.13298  0.031807177  0.031886562            3 
 1610000   0.98300916   -6.8325559    612.05224  0.031679722  0.031879544            5 
 1611000   0.99032034   -6.8358104    613.72939  0.031746813  0.031872376            5 
 1612000   0.99266216   -6.8287074    615.30358  0.031808498  0.031865307            3 
 1613000    1.0132301   -6.7992832    614.66687  0.031755883  0.031858255            3 
 1614000    1.0067424   -6.8446345    613.89753  0.031696486  0.031851229            2 
 1615000   0.97941508   -6.8873914    612.37545   0.03159832  0.031844003           10 
 1616000    1.0152353   -6.8417469    613.18598  0.031620564  0.031836789            2 
 1617000    1.0066534   -6.8452878    613.97483  0.031641663  0.031829581            3 
 1618000   0.98340317   -6.8421717    614.76283  0.031662692  0.031822343            2 
 1619000     1.004183   -6.8150045    615.92207  0.031702803  0.031815327            5 
 1620000   0.98627921   -6.8351746    617.93455  0.031786757   0.03180832            4 
 1621000   0.99434035   -6.8144758    615.95294  0.031665275  0.031801415            3 
 1622000   0.98065277    -6.860573    616.65266  0.031681702  0.031794325            5 
 1623000   0.98468176   -6.8342095    617.40149  0.031700631  0.031787232            4 
 1624000   0.98391272   -6.8455306    616.41737  0.031630612  0.031780156            4 
 1625000   0.97868877   -6.8185111     615.6021  0.031569338  0.031772877            4 
 1626000   0.99035181   -6.8259152     616.1473  0.031577865   0.03176554            2 
 1627000   0.98336601   -6.8563101    616.51137  0.031577103  0.031758335            4 
 1628000    0.9671433   -6.8382717     617.4828  0.031607433   0.03175113            2 
 1629000   0.99067161   -6.8670554    616.48555  0.031537014  0.031743803            4 
 1630000   0.98726008   -6.8505825    615.91816  0.031488658  0.031736458            3 
 1631000    1.0035976    -6.841039    617.71393  0.031561104  0.031729243            4 
 1632000   0.97177457   -6.8587965    616.99155  0.031504879  0.031721967            3 
 1633000   0.96998642   -6.8606036    617.24035  0.031498283  0.031714527            4 
 1634000    1.0017471   -6.8454106    616.72897  0.031452926  0.031707101            2 
 1635000    0.9551999    -6.857598    619.16888  0.031558047  0.031699747            5 
 1636000   0.98102813   -6.8356709    617.41978  0.031449663  0.031692307            5 
 1637000    1.0049465   -6.8520897    617.20104  0.031419316  0.031684884            3 
 1638000   0.99837884   -6.8357353    617.26215  0.031403243  0.031677481            4 
 1639000   0.96516022   -6.8498252      617.599   0.03140121  0.031670205            3 
 1640000   0.99186253   -6.8263127    619.39527  0.031473337  0.031662939            3 
 1641000   0.96821785   -6.8167662    619.66442  0.031467825  0.031655686            3 
 1642000   0.99442685   -6.8373617    620.37449  0.031484698  0.031648397            3 
 1643000   0.97903192   -6.8555958    619.84554  0.031438707  0.031641013            3 
 1644000    1.0078973   -6.8676891    621.30191  0.031493406  0.031633878            8 
 1645000   0.97150941   -6.8332106    618.43977  0.031329269  0.031626518            6 
 1646000   0.98641624   -6.8276939    621.56516  0.031468467  0.031619389            2 
 1647000   0.99686727   -6.8469866    621.83557  0.031463043  0.031612275            3 
 1648000    0.9797223   -6.8886485    621.94636  0.031449553  0.031605129            4 
 1649000   0.98526118   -6.8744005    622.23037  0.031444834  0.031597954            3 
 1650000   0.98076809   -6.8425814    621.93225   0.03141072  0.031590793            6 
 1651000   0.98572551   -6.8570428    623.54951  0.031473325  0.031583627            4 
 1652000   0.99554306   -6.8420999    622.23108  0.031387766  0.031576487            4 
 1653000   0.98084471   -6.8740251    623.42717  0.031429077  0.031569297            4 
 1654000   0.99175705   -6.8523023    624.70674  0.031474543  0.031562174            3 
 1655000    0.9757781   -6.8361089    625.99916  0.031520602  0.031555119            4 
 1656000   0.98783313   -6.8698423    625.44449  0.031473656  0.031548134            6 
 1657000    1.0159792   -6.8198002    627.59323  0.031562725  0.031541327            5 
 1658000   0.97641312   -6.9001453    625.04164  0.031415442  0.031534415            3 
 1659000    0.9848419   -6.8522256    625.82754  0.031435982  0.031527471            2 
 1660000   0.95824355    -6.864166    625.38291  0.031394724  0.031520596            3 
 1661000   0.97156519    -6.885285    625.06716  0.031359982   0.03151364            4 
 1662000   0.97035728    -6.844864     628.7642  0.031526484   0.03150665            4 
 1663000   0.97353836   -6.8792555    626.16239  0.031377149  0.031499826            2 
 1664000   0.98317035   -6.8779327    627.55744  0.031428157  0.031493059            5 
 1665000   0.99785678   -6.8691951    627.12377  0.031387576  0.031486253            4 
 1666000   0.97976626   -6.8957206     629.0697  0.031466072  0.031479368            4 
 1667000   0.97298321   -6.8947042     629.2412  0.031455769  0.031472488            4 
 1668000     0.989766   -6.8697535    626.74278  0.031312089  0.031465671            3 
 1669000    0.9938496    -6.859089    628.33144   0.03137265  0.031458797            2 
 1670000   0.97929349    -6.872988    626.49703  0.031262327  0.031451832            3 
 1671000   0.99568102   -6.8509254    629.20047  0.031378439  0.031444818            2 
 1672000   0.99341545   -6.8528386    628.65392  0.031332432  0.031437947            4 
 1673000    1.0024978   -6.9056016    627.89986  0.031276144  0.031430878            3 
 1674000   0.98700114   -6.8422378    629.79909  0.031352006  0.031423835            3 
 1675000   0.98648373   -6.8490162    630.05536  0.031346038  0.031416859            6 
 1676000   0.98841266   -6.8739532     629.4955  0.031299498  0.031409792            7 
 1677000   0.95726901   -6.8396688    631.11781  0.031361449  0.031402726            7 
 1678000    0.9988884   -6.8605588    630.34895  0.031304576  0.031395788            2 
 1679000    1.0041683   -6.8615837    630.36333  0.031286645  0.031388858            4 
 1680000   0.99642444   -6.8673532    628.78765  0.031189864  0.031381721            2 
 1681000   0.97344952   -6.8555346     630.7439  0.031268288   0.03137462            6 
 1682000   0.98763325   -6.8174559    631.16822   0.03127072  0.031367525            3 
 1683000   0.98763962   -6.8588985    630.71421   0.03122966  0.031360446            4 
 1684000   0.98724891   -6.8444402    631.05655  0.031228056  0.031353307            3 
 1685000   0.97972547   -6.8553886    629.79594  0.031147178  0.031346228            7 
 1686000   0.97368981   -6.8504566    631.58931  0.031217344  0.031339032            2 
 1687000   0.98261805   -6.8563904    629.71086  0.031106049   0.03133188            8 
 1688000   0.95941692   -6.8562139     632.3183  0.031216346  0.031324692            7 
 1689000    1.0009253   -6.9062482    630.63975  0.031115046  0.031317494            4 
 1690000   0.99177841   -6.8937222    631.87852  0.031157718  0.031310308            3 
 1691000   0.97099975   -6.8650309    633.48639  0.031218529   0.03130338            3 
 1692000   0.99256678   -6.8727526    632.20903  0.031137167  0.031296406            3 
 1693000   0.96726497   -6.8383858    634.20882  0.031217209  0.031289494            4 
 1694000   0.99373652   -6.8276308    634.95424  0.031235451  0.031282624            2 
 1695000   0.98968371   -6.8676752     634.7246  0.031205732  0.031275712            4 
 1696000    0.9932631   -6.8401291    634.65499  0.031183913  0.031268797            5 
 1697000   0.96564885   -6.8737732    633.80441  0.031123768  0.031261875            3 
 1698000   0.98469108   -6.8505016    634.64104  0.031146498  0.031254873            5 
 1699000    1.0000774   -6.8437385    635.29849  0.031160413  0.031247879            2 
 1700000   0.98003786   -6.8596277    635.51366   0.03115263  0.031240861            5 
 1701000    1.0040117     -6.88111    635.14133  0.031116075  0.031233843            2 
 1702000   0.96981221   -6.9036991    635.11263  0.031096388  0.031226884            3 
 1703000   0.98444316   -6.8277107    635.45771  0.031095014  0.031219774            5 
 1704000    1.0069293   -6.8804395    634.80078  0.031044639  0.031212695            3 
 1705000   0.97730617   -6.8690194    633.74461   0.03097481  0.031205572            3 
 1706000   0.97979222   -6.9043358    634.65607  0.031001176  0.031198406            5 
 1707000   0.97588101   -6.9110262    635.08303  0.031003858   0.03119123            3 
 1708000   0.97339104    -6.854947    636.55061  0.031057309     0.031184            7 
 1709000   0.98294511   -6.8507216    635.53613  0.030989669  0.031176716            5 
 1710000   0.98777481   -6.8483608    635.88851  0.030988719  0.031169456            6 
 1711000   0.97011679   -6.8848062    636.11232  0.030981508  0.031162255            3 
 1712000   0.96062255   -6.8942922    634.57268  0.030888468  0.031154936            3 
 1713000   0.98567133     -6.87357    635.91002  0.030935494  0.031147666            5 
 1714000     0.971531   -6.8691886    636.99368  0.030970132   0.03114037            7 
 1715000   0.97229958   -6.8707121    635.43418  0.030876296  0.031133015            5 
 1716000   0.95737516    -6.865147    636.79833   0.03092455  0.031125679            2 
 1717000   0.98206535   -6.8664882    636.16169   0.03087564  0.031118334            2 
 1718000   0.98455546   -6.9076311    638.39286  0.030965894  0.031110997            6 
 1719000     0.985181    -6.879084    635.71216  0.030817925  0.031103556            4 
 1720000   0.97220381   -6.9117098    636.44536  0.030835531  0.031096128            5 
 1721000   0.95548694   -6.8935557    637.12973  0.030850752  0.031088647            9 
 1722000   0.98102692   -6.8600804    637.45145  0.030848405  0.031081179            7 
 1723000   0.96042978   -6.8811511     639.8774  0.030947833  0.031073767            2 
 1724000   0.98267195   -6.8695193    637.15721  0.030798395  0.031066329            3 
 1725000    0.9743609   -6.8999469     638.9792   0.03086856  0.031058896            4 
 1726000   0.97008017   -6.8638709    639.44353  0.030873094  0.031051479            4 
 1727000   0.97179956   -6.8802508    639.15237  0.030841168  0.031044054            8 
 1728000   0.95612647   -6.8741457    637.98381  0.030766966  0.031036565            5 
 1729000   0.96719629   -6.8448888    640.74895  0.030882444  0.031029182            2 
 1730000   0.97859556   -6.8457093    639.27181   0.03079344  0.031021701            2 
 1731000   0.98550867   -6.8868971    638.95488  0.030760393  0.031014247            3 
 1732000   0.96455346    -6.883594    639.37934  0.030763055  0.031006819            3 
 1733000    0.9765571   -6.8562277    640.79009  0.030813141  0.030999511            2 
 1734000   0.97714859   -6.8758741    640.14871  0.030764548  0.030992146            7 
 1735000   0.97124125   -6.8778103    639.19747  0.030701127  0.030984659            3 
 1736000   0.96692128   -6.9070978    640.99466  0.030769713  0.030977163            4 
 1737000   0.95778463   -6.8751757    640.48346  0.030727474  0.030969622            4 
 1738000   0.95648226   -6.8713038    641.37079  0.030752339  0.030962119            5 
 1739000   0.96516189    -6.903468    639.71819  0.030655462  0.030954559            4 
 1740000   0.96047401   -6.8807884    640.51202  0.030675863   0.03094707            3 
 1741000   0.94011152   -6.8736511    642.19772   0.03073893  0.030939528            2 
 1742000   0.96009187   -6.8935448    641.38449  0.030682381  0.030931966            4 
 1743000   0.97379039   -6.8877845    640.48338  0.030621695  0.030924329            5 
 1744000    0.9833342   -6.8903111     641.7554  0.030664918  0.030916712            4 
 1745000   0.96706208   -6.8837289    642.14578  0.030665988  0.030909229            5 
 1746000   0.99090973   -6.8983812    641.57406  0.030621137  0.030901644            2 
 1747000   0.97848802    -6.906855    639.99868  0.030528462  0.030894114            3 
 1748000   0.97624323   -6.8721548    643.43611  0.030674872  0.030886462            3 
 1749000   0.97017906   -6.8742545     643.4718  0.030659034  0.030878873            4 
 1750000   0.97594478   -6.8413833    643.85664   0.03065984  0.030871342            6 
 1751000   0.97074788   -6.8807672    640.72926  0.030493492  0.030863738            6 
 1752000   0.96974356   -6.8849327    642.72614  0.030571068  0.030856246            4 
 1753000   0.97126479   -6.8828649    643.33822  0.030582726  0.030848672            6 
 1754000   0.97284536   -6.8925709     641.8574  0.030494936  0.030841016            5 
 1755000   0.94685784   -6.9170175    642.30566  0.030498844  0.030833319            4 
 1756000    0.9413237   -6.8842558    643.35737  0.030531386  0.030825676            2 
 1757000   0.97108062   -6.8940927    645.78311  0.030629061  0.030818057            4 
 1758000   0.98803832   -6.8474822    644.38002  0.030545128  0.030810479            3 
 1759000   0.98988756   -6.8608015    645.31682  0.030572144  0.030803013            1 
 1760000   0.95784222   -6.8665945    645.40471  0.030558935  0.030795461            4 
 1761000    0.9675014    -6.881779    644.22928  0.030485959  0.030787768            2 
 1762000    0.9645352   -6.8730258     644.0163  0.030458584  0.030780173            3 
 1763000   0.97675433   -6.8731484    643.52189  0.030417937  0.030772487            2 
 1764000   0.97176713   -6.8726717    644.93943   0.03046766  0.030764809            3 
 1765000   0.96744593   -6.8679121    645.06302  0.030456233  0.030757196            7 
 1766000   0.97399333   -6.8816363    646.23371  0.030494229  0.030749486            3 
 1767000   0.96446399   -6.9156787    644.92226  0.030415123  0.030741756            3 
 1768000   0.97939769   -6.8729549    644.78936  0.030391655  0.030734007            3 
 1769000   0.97354305   -6.9040161    644.57829  0.030364532  0.030726316            5 
 1770000   0.95910191   -6.9347058    643.88737  0.030314848  0.030718527            4 
 1771000   0.96647748   -6.9077004    645.52595  0.030374833  0.030710756            4 
 1772000   0.96225943   -6.9000712    646.38901  0.030398279  0.030703136            4 
 1773000   0.97413983   -6.8756944    646.98382  0.030409091  0.030695537            5 
 1774000   0.97297949    -6.864961    649.34892   0.03050305  0.030688067            3 
 1775000   0.95594246   -6.8897065      646.419   0.03034831   0.03068038            5 
 1776000   0.96623418   -6.8650673    648.14696  0.030412301  0.030672744            2 
 1777000    0.9522845   -6.8662987    648.82204  0.030426845   0.03066511            2 
 1778000   0.96385092   -6.9211281    646.13176  0.030283641  0.030657342            2 
 1779000    0.9627458   -6.8955194    648.43582  0.030374547  0.030649533            2 
 1780000   0.96149374   -6.9041142      647.628  0.030319663  0.030641757            2 
 1781000   0.96906278   -6.8965033    648.88725  0.030361559  0.030634006            2 
 1782000   0.98820253   -6.8873093     647.3686  0.030273504  0.030626218            2 
 1783000   0.95440365   -6.8660312     649.7965  0.030369999  0.030618516            2 
 1784000   0.97577399   -6.9144886    649.24931  0.030327416  0.030610853            3 
 1785000   0.95571915   -6.8974029     649.3099  0.030313254  0.030603215            2 
 1786000   0.95878548   -6.9059313    651.30905   0.03038956  0.030595594            4 
 1787000   0.96996127   -6.8924936    650.98153  0.030357281  0.030587988            2 
 1788000   0.95715805   -6.8995983    651.80914  0.030378875  0.030580436            3 
 1789000   0.97854277    -6.907423    650.99805  0.030324113  0.030572854            4 
 1790000   0.95516891    -6.885492    650.85137  0.030300343  0.030565287            6 
 1791000   0.96444001   -6.9019645    651.23208  0.030301139   0.03055771            7 
 1792000   0.95771073    -6.879187    652.18574  0.030328578  0.030550199           11 
 1793000   0.98284425   -6.9065595    651.70612  0.030289372  0.030542673            4 
 1794000   0.95613571    -6.919178    653.13372  0.030338802  0.030535068            3 
 1795000   0.95152243   -6.8930466    654.48558   0.03038466  0.030527601            2 
 1796000    0.9741701   -6.8807544     654.0824  0.030349035  0.030520069            2 
 1797000   0.94826979   -6.9075692    653.96499  0.030326701  0.030512637            5 
 1798000   0.97994412   -6.9066826    652.91937  0.030261372  0.030505059            3 
 1799000   0.97291531   -6.9185069    653.63278  0.030277598  0.030497591            2 
 1800000   0.97000753   -6.9147045    653.94949  0.030275439  0.030490082            3 
 1801000   0.99972407   -6.9293419     652.7728  0.030204183  0.030482554            2 
 1802000   0.98459299   -6.9278636    653.21676  0.030207952  0.030474982            2 
 1803000   0.94325484   -6.9015902    653.06852  0.030184346   0.03046748            8 
 1804000    0.9735496   -6.9119702    654.32207  0.030225521  0.030459931            4 
 1805000   0.95685664    -6.900589    655.04868  0.030242322  0.030452486           11 
 1806000   0.95738286   -6.8907389    654.43662  0.030197334  0.030445065            4 
 1807000   0.97054644   -6.8968108    655.50166  0.030229739  0.030437608            7 
 1808000   0.95577391   -6.8660733    655.67511  0.030221013  0.030430126            8 
 1809000   0.96488705   -6.8879665    656.83481   0.03025773  0.030422719            3 
 1810000   0.97551234   -6.9033205    655.82248  0.030194405  0.030415296            3 
 1811000   0.98119731   -6.8771525    655.92739   0.03018256  0.030407747            4 
 1812000   0.95915908   -6.9068369    655.66552  0.030153859  0.030400242            3 
 1813000    0.9752409   -6.8671029    658.65477  0.030274626  0.030392759            4 
 1814000   0.97182237   -6.8874677    656.76904  0.030171308  0.030385254            4 
 1815000   0.98095939   -6.8806582    658.04247  0.030213153  0.030377818            2 
 1816000   0.96459285   -6.8782512    657.57278  0.030174962  0.030370401            6 
 1817000   0.95254454   -6.9194001    656.39525   0.03010435  0.030362822            2 
 1818000   0.97153475   -6.8731492    657.47391  0.030137234   0.03035531            4 
 1819000   0.95499858   -6.8960162    657.15887  0.030106234  0.030347864            6 
 1820000   0.92909891   -6.8669751    657.56823  0.030108436   0.03034036            2 
 1821000   0.98409834   -6.8986042    661.72038  0.030281914   0.03033304            4 
 1822000   0.96158859   -6.9324084    656.91965  0.030045721  0.030325538            8 
 1823000   0.97373311   -6.9239491    658.55491  0.030103991  0.030318099            2 
 1824000   0.98042485   -6.9073489    659.16678  0.030115441  0.030310671            5 
 1825000   0.95783622   -6.9168956    658.75981  0.030080356  0.030303269            3 
 1826000   0.97166236   -6.9136842    658.33134  0.030044329  0.030295846            4 
 1827000   0.96909004    -6.904546    657.49943  0.029989939  0.030288358            3 
 1828000   0.95673582   -6.8775934    660.22526  0.030097796   0.03028096            6 
 1829000   0.95560932   -6.9055212    659.56383  0.030051204  0.030273497            5 
 1830000   0.96127986   -6.8879594    659.03884  0.030010876  0.030266077            4 
 1831000   0.97907185   -6.9003635    659.58859  0.030019506  0.030258666            2 
 1832000    0.9658777   -6.9339384    659.13844  0.029982644  0.030251194            5 
 1833000   0.96027954     -6.92352    659.91706  0.030001685   0.03024377            4 
 1834000   0.96211069   -6.9234448    662.32659   0.03009481  0.030236406            3 
 1835000     0.981336      -6.8754    662.08681  0.030067521  0.030228996            7 
 1836000   0.96907331   -6.8955751    663.18342  0.030100918  0.030221609            3 
 1837000   0.96269281   -6.9233555    662.31193  0.030044998  0.030214296            4 
 1838000   0.98285175   -6.9034791    660.93713  0.029966319  0.030206969            4 
 1839000   0.96311824   -6.9144767    662.96375  0.030041859  0.030199652            3 
 1840000    0.9555686    -6.902945    662.01802    0.0299827   0.03019226            6 
 1841000   0.95918687    -6.933465    660.82516  0.029912419  0.030184969            6 
 1842000   0.96290896   -6.9278917    663.28993  0.030007688  0.030177605            7 
 1843000   0.91865185   -6.9378219    663.22222  0.029988344  0.030170254            3 
 1844000   0.97215568   -6.9135218     663.2554  0.029973581  0.030162936            3 
 1845000   0.98400166   -6.9239775    662.87634  0.029940214  0.030155471            6 
 1846000   0.95650187   -6.8857924    665.52637  0.030043624  0.030148127            3 
 1847000   0.95398979   -6.8945121    663.81483  0.029950137   0.03014078            3 
 1848000   0.95489461   -6.9270274    664.93226  0.029984319  0.030133453            2 
 1849000   0.96058898   -6.9269306     663.2289  0.029891333  0.030126197            3 
 1850000   0.96000642   -6.9382838    664.72374  0.029942511  0.030118879            3 
 1851000   0.93382637   -6.9113592    664.84119  0.029931622  0.030111606            2 
 1852000    0.9669928   -6.9178263    665.12633  0.029928291  0.030104322            3 
 1853000   0.96354767   -6.8862575      665.959  0.029949586  0.030096963            8 
 1854000   0.95944752   -6.9276848    664.44955  0.029865586  0.030089643            3 
 1855000   0.97554064   -6.8946961    666.12516   0.02992476  0.030082322            4 
 1856000    0.9545696   -6.9106993     667.3529  0.029963762  0.030075083            3 
 1857000   0.95790757   -6.9006057     667.0179  0.029932593  0.030067801            3 
 1858000    0.9823036   -6.8906973    667.29646  0.029928977  0.030060557            4 
 1859000   0.97525737   -6.8777177      664.905  0.029805675  0.030053295            2 
 1860000   0.92843968   -6.9360446    666.29059  0.029851729  0.030045859            4 
 1861000   0.95136664    -6.945447    665.42874  0.029797096  0.030038399            6 
 1862000   0.95534694   -6.9118408    668.80006  0.029931975  0.030030947            3 
 1863000   0.95080265   -6.9388015    667.17518  0.029843227  0.030023632            3 
 1864000   0.96006088   -6.9291689    667.54464  0.029843734  0.030016286            9 
 1865000   0.95598366   -6.9326022    667.46178  0.029824029  0.030008952            4 
 1866000   0.96786218   -6.9630349    666.91948  0.029783828  0.030001608            3 
 1867000   0.95575233   -6.9430178    666.22458  0.029736859  0.029994269            3 
 1868000   0.94613492   -6.9370566    668.37001  0.029816649  0.029986909            4 
 1869000   0.97376139   -6.9488164    667.98635   0.02978359   0.02997954            3 
 1870000   0.93862581   -6.9454721    669.16533  0.029820202  0.029972177            3 
 1871000    0.9581184   -6.8841685    671.20598  0.029895153  0.029964876            7 
 1872000   0.97054864   -6.9300993    670.45439  0.029845726   0.02995756            8 
 1873000   0.94630961    -6.933958    669.28444  0.029777738  0.029950299           10 
 1874000   0.96422706   -6.8791899    673.12626  0.029932687  0.029943132            3 
 1875000   0.95767543   -6.9085305    668.76939  0.029723084  0.029935984            2 
 1876000    0.9483641   -6.9253315     671.6639  0.029835817   0.02992874            6 
 1877000   0.95253073   -6.9403639    670.17269  0.029753715  0.029921333            3 
 1878000   0.95559713   -6.9156965    669.90149  0.029725838  0.029913957            9 
 1879000   0.95162926   -6.9558671    670.33085   0.02972906  0.029906659            3 
 1880000   0.97335437   -6.9538336     670.6834  0.029728874   0.02989931            3 
 1881000   0.95822277   -6.9623325    671.06656  0.029730044   0.02989192            4 
 1882000   0.95430344    -6.935232    672.49568  0.029777527  0.029884601            7 
 1883000    0.9761923   -6.9325205    672.70132  0.029770814  0.029877412            4 
 1884000   0.96725795   -6.9033079    673.07291  0.029771448  0.029870229            5 
 1885000    0.9585387   -6.9447012    672.36961  0.029724563   0.02986302            6 
 1886000   0.95785781    -6.942864    673.11431  0.029741707  0.029855815           10 
 1887000   0.94918646   -6.8823173    674.28146  0.029777489  0.029848671            3 
 1888000   0.99096916    -6.894455    673.61729  0.029732402  0.029841466            4 
 1889000   0.93444031   -6.9383381    672.71638  0.029676918  0.029834281            2 
 1890000   0.95916783   -6.9280473    672.93679  0.029670934  0.029827058            4 
 1891000   0.95399997   -6.9312288    675.24156  0.029756811  0.029819808            4 
 1892000   0.95461136   -6.8959006    673.46985  0.029663048  0.029812634            5 
 1893000   0.93904141   -6.9512539    673.37797  0.029643334  0.029805443            3 
 1894000    0.9546196   -6.9392411    673.60319  0.029637592  0.029798284            4 
 1895000   0.96024104   -6.9326872     676.6741  0.029756997   0.02979119            2 
 1896000   0.95491333   -6.9290525    676.62744  0.029739251  0.029784151            4 
 1897000   0.94436701   -6.9223076     675.1864   0.02966027  0.029777155            4 
 1898000   0.96978061   -6.9394692     676.0763  0.029683715  0.029770094            3 
 1899000    0.9679103   -6.9617162    675.68577  0.029650947  0.029763023            3 
 1900000   0.92612808    -6.940349    675.99033  0.029648699   0.02975596            4 
 1901000   0.93993089   -6.9126322    676.62308   0.02966084  0.029748849            2 
 1902000   0.94519687   -6.9076891    675.58507  0.029599766  0.029741734           13 
 1903000   0.96206109   -6.9483006    676.14725   0.02960883  0.029734656            5 
 1904000   0.93690822   -6.9294891    676.98714  0.029630039  0.029727574            5 
 1905000   0.95750599   -6.9353122    677.87934  0.029653515  0.029720498            3 
 1906000   0.93725408   -6.9285616    675.77668  0.029546025  0.029713374            5 
 1907000   0.95335126   -6.9164441    679.35785  0.029687023  0.029706314            3 
 1908000   0.96582064   -6.9013734    679.82968  0.029692072  0.029699322            3 
 1909000   0.92788563    -6.947999     676.9501  0.029550816  0.029692252            4 
 1910000   0.96241944   -6.9172345    677.87639  0.029575759  0.029685174            3 
 1911000   0.93345471    -6.923825    680.45215  0.029672604  0.029678104            2 
 1912000   0.93088469   -6.9293419     679.6803  0.029623444  0.029671052            7 
 1913000   0.92496631   -6.9877922    678.92497  0.029575055  0.029663905            4 
 1914000   0.96148397   -6.9493861    677.53692  0.029499169  0.029656852            5 
 1915000   0.94974169   -6.9248517    678.80912  0.029539126  0.029649797            5 
 1916000   0.94930144   -6.9355207    680.64655  0.029603625  0.029642709            5 
 1917000   0.92906943   -6.9652235    678.17102  0.029480569  0.029635531            2 
 1918000   0.95057093    -6.952687     679.7234  0.029532647  0.029628467            4 
 1919000   0.94308977   -6.9103907    681.84742  0.029609494   0.02962141            2 
 1920000   0.95156333   -6.9131992     680.0681  0.029516845  0.029614361            3 
 1921000       0.9478   -6.9712401    679.64865  0.029483283  0.029607232            3 
 1922000   0.93237287   -6.9638059    681.00376  0.029526698  0.029600134            3 
 1923000   0.93976664   -6.9345996    679.69636  0.029454687  0.029593048            6 
 1924000   0.94326079   -6.9697172    680.81625  0.029487883  0.029586044            5 
 1925000   0.95720296   -6.9593205    682.44598  0.029543116  0.029579017            2 
 1926000   0.95500784   -6.9672823    681.38994  0.029482085  0.029571998            3 
 1927000   0.92546372    -6.956212    682.64293  0.029520971  0.029565039            4 
 1928000   0.92778498   -6.9316264    682.03219  0.029479261  0.029558025            2 
 1929000   0.97150913   -6.9439071     681.8398  0.029455668  0.029551075            7 
 1930000   0.93833842   -6.9175738    686.26539  0.029631494  0.029544135            5 
 1931000   0.93874924   -6.9655383    682.79004  0.029466168  0.029537287            4 
 1932000   0.91635825   -6.9172104    684.14406  0.029509319  0.029530423            3 
 1933000   0.95334884   -6.9744874    683.69509  0.029474698  0.029523592            3 
 1934000   0.93798262   -6.9367858    685.05241  0.029517943  0.029516734            2 
 1935000   0.94107429   -6.9606974    683.47299  0.029434668  0.029509906            3 
 1936000   0.93713475   -6.9546064    682.81173  0.029391001  0.029502949            3 
 1937000   0.95198502    -6.950928    683.71977  0.029414893  0.029495903            4 
 1938000   0.94119094   -6.9656834    684.02224  0.029412721  0.029488877            4 
 1939000   0.95236681   -6.9821666    683.83373   0.02938945  0.029481722            4 
 1940000   0.93742221   -6.9381038    684.84324  0.029417665  0.029474685            7 
 1941000   0.94697776   -6.9490492    685.86319  0.029446299  0.029467739            4 
 1942000   0.93961268   -6.9157897    686.75291  0.029469315  0.029460838            3 
 1943000   0.94337653    -6.961776    686.56839  0.029446234  0.029453896            5 
 1944000   0.93567859   -6.9198478    687.43523  0.029468245  0.029446945            5 
 1945000    0.9421981    -6.951507    687.91082  0.029473471  0.029440056            4 
 1946000   0.95905025   -6.9456038    687.82274  0.029454554   0.02943318            5 
 1947000   0.93988291   -6.9602216    685.82731  0.029354019  0.029426176            5 
 1948000   0.95504427   -6.9335748    686.74591  0.029378247  0.029419256            4 
 1949000   0.93473965   -6.9632325    687.26481   0.02938536  0.029412352            2 
 1950000   0.94170883   -6.9411431    687.42309  0.029377055  0.029405514            7 
 1951000   0.96193867   -6.9407291    687.14277  0.029350024  0.029398682            4 
 1952000   0.95488015   -6.9623022    688.65958  0.029399743  0.029391778            5 
 1953000   0.92719933   -6.9683222    688.59837  0.029382078  0.029384863            6 
 1954000   0.92381797   -6.9864848    687.28534  0.029311043  0.029377976            1 
 1955000   0.93418234   -6.9862879    688.62938  0.029353341  0.029371122            2 
 1956000    0.9378184   -6.9584668    689.50548  0.029375659  0.029364291           17 
 1957000   0.92972191   -6.9725651    686.29082  0.029223762  0.029357408            4 
 1958000     0.955451   -6.9809032    688.69586  0.029311196  0.029350425            4 
 1959000   0.93263901   -6.9495291    689.89595  0.029347284  0.029343593            5 
 1960000   0.93650464   -6.9627647    688.76719  0.029284319   0.02933678            5 
 1961000   0.92645133    -6.933512    691.14566   0.02937046  0.029329932            5 
 1962000   0.93042131   -6.9880121    687.70749  0.029209458  0.029323127            2 
 1963000   0.95770465   -6.9493848    692.85954  0.029413294  0.029316345            3 
 1964000   0.92079234   -6.9339982    692.83002  0.029397064  0.029309632            3 
 1965000   0.93044998   -6.9466838    691.91342  0.029343232  0.029302986            9 
 1966000    0.9193194   -6.9495514    692.37381  0.029347822  0.029296221            6 
 1967000    0.9270857   -6.9372546    692.02411  0.029318086  0.029289465            2 
 1968000   0.93994599   -6.9439158    691.86157  0.029296307  0.029282807            3 
 1969000   0.93017055   -6.9497979     693.3798  0.029345683  0.029276059            6 
 1970000    0.9612583   -6.9611178    693.41285  0.029332185   0.02926941            5 
 1971000    0.9395462   -6.9650109    693.46522  0.029319517  0.029262691            2 
 1972000   0.93238958   -6.9796402    692.57886  0.029267193  0.029255901            5 
 1973000   0.94514927   -6.9623603      694.829  0.029347398  0.029249108            3 
 1974000   0.94284147    -6.937516    693.16454  0.029262265   0.02924243            3 
 1975000   0.93150586   -6.9288787    695.72593  0.029355525  0.029235803            4 
 1976000   0.92104905   -6.9688325    695.09737   0.02931416  0.029229254            5 
 1977000   0.95183583   -6.9659412    694.38803  0.029269433  0.029222639            6 
 1978000   0.92356093   -6.9811853    695.44777  0.029299283  0.029216015            5 
 1979000   0.95195333   -6.9612522    695.41027  0.029282898  0.029209327            3 
 1980000   0.94036831   -7.0010641    695.17519  0.029258215  0.029202705            3 
 1981000   0.92047199   -6.9694266    695.37416  0.029251815  0.029196054            5 
 1982000   0.92826163   -6.9450307    695.83062  0.029256249  0.029189513            5 
 1983000   0.96237643   -6.9753027    695.04437  0.029208454  0.029182857            3 
 1984000   0.93975517   -6.9859682    695.65111  0.029219217  0.029176238            6 
 1985000   0.92285743   -6.9329317    696.99895  0.029261081  0.029169596            3 
 1986000   0.93619689    -6.940659    695.29317  0.029174772  0.029162947            4 
 1987000   0.92818864   -6.9538831    694.68561  0.029134609  0.029156281            3 
 1988000   0.92096844   -6.9832802    697.16098  0.029223716  0.029149571            2 
 1989000   0.94023576   -6.9551168    698.55699  0.029267513  0.029142851            7 
 1990000   0.92737789   -6.9372063     697.4416  0.029206097  0.029136148            2 
 1991000   0.93990709   -6.9810766    696.66741  0.029159024  0.029129353            2 
 1992000   0.91862338   -6.9525341    698.85067  0.029235721  0.029122584            4 
 1993000   0.93035265   -7.0019063    695.47888  0.029080067  0.029115754            3 
 1994000   0.94499912   -6.9846692    695.20097  0.029053869  0.029108811            4 
 1995000   0.93295611   -6.9571077    697.23234  0.029124158  0.029101962            2 
 1996000   0.91308995   -6.9392385     694.8795  0.029011335  0.029095138            2 
 1997000   0.95558416   -6.9918458    696.50515  0.029064645  0.029088214            6 
 1998000   0.93943632   -6.9522124    697.35649  0.029085606  0.029081318            3 
 1999000   0.93770143   -6.9473545    698.26553  0.029108951  0.029074491            6 
 2000000   0.94294891   -6.9697483    698.29607   0.02909567   0.02906773            4 
 2001000   0.94748618   -6.9693532    697.27964  0.029038799  0.029060962            2 
 2002000   0.92524342   -6.9822408    697.98793  0.029053777  0.029054116            5 
 2003000   0.95319715   -6.9872056    696.74545  0.028987579  0.029047248            7 
 2004000   0.93219524   -6.9808375    697.50746  0.029004801  0.029040403            7 
 2005000   0.92141574   -6.9525164    698.78143  0.029043285  0.029033598            3 
 2006000   0.90864913   -6.9220171    698.82004  0.029030411  0.029026763            2 
 2007000   0.93925368   -6.9746637    697.81514  0.028974221  0.029019966            3 
 2008000   0.92206755   -6.9462788    700.20548  0.029058992  0.029013111            2 
 2009000   0.91601576   -6.9781176    699.50888  0.029015633  0.029006233            2 
 2010000   0.93209973   -6.9614988     700.1465  0.029027633  0.028999454            6 
 2011000   0.92309101   -6.9519492    701.00023  0.029048576  0.028992689            6 
 2012000   0.94122627   -6.9455554    701.02369   0.02903511  0.028985971            4 
 2013000    0.9289366   -6.9528072     699.7626   0.02896848    0.0289792            6 
 2014000   0.91724234   -6.9929547    699.74222  0.028953253  0.028972392            6 
 2015000   0.92939477   -6.9717927    699.19004  0.028916048  0.028965461            3 
 2016000   0.92262059   -6.9568002    699.40508  0.028910593  0.028958565            8 
 2017000   0.93373491   -6.9802703    702.84421  0.029038349  0.028951677            6 
 2018000   0.91253558   -6.9613742    700.59209  0.028930958  0.028944828            2 
 2019000   0.93480275   -6.9863396    698.95043   0.02884887  0.028937801            4 
 2020000   0.92627757   -6.9916865    700.82461  0.028911906   0.02893079            3 
 2021000   0.91767314   -6.9895902    699.15638  0.028828813  0.028923923            3 
 2022000   0.93752919   -6.9527008    702.53163  0.028953661  0.028917005            3 
 2023000   0.92987961   -6.9752513    702.26845  0.028928508  0.028910119            4 
 2024000   0.91967589   -6.9622178    702.46482    0.0289223  0.028903263            3 
 2025000   0.94771068   -6.9449175    701.06177  0.028850279  0.028896396            3 
 2026000   0.94668379   -6.9992735    700.46966  0.028811684  0.028889439            4 
 2027000   0.92731455     -6.99004    701.27836  0.028830717  0.028882429            4 
 2028000   0.93077879   -6.9379624    702.04571  0.028848032  0.028875458            6 
 2029000   0.94778414   -6.9813264    701.24726  0.028801021  0.028868469            5 
 2030000   0.94382467   -6.9867217    701.96625  0.028816349  0.028861496            5 
 2031000   0.92004874   -6.9666364    701.54156  0.028784735  0.028854489            3 
 2032000    0.9460245   -7.0058414    702.37346  0.028804686  0.028847523            5 
 2033000   0.92085234   -6.9829106    704.75601  0.028888179  0.028840594           10 
 2034000    0.9201638   -6.9840549    703.04892  0.028804036  0.028833645            2 
 2035000   0.92025486   -6.9768882    703.98203  0.028828093  0.028826716            3 
 2036000   0.93032489   -6.9490957    704.26938  0.028825695  0.028819947            8 
 2037000    0.9146852   -6.9636845    704.57775  0.028824159  0.028813028            3 
 2038000    0.9343882   -7.0029257    705.91298  0.028864613  0.028806061            7 
 2039000   0.93359513   -6.9609497     705.0684  0.028815939  0.028799169            4 
 2040000   0.95328602   -6.9585548    704.63446  0.028784087  0.028792304            7 
 2041000   0.93800489   -6.9879758    703.74079  0.028733496  0.028785431            4 
 2042000   0.89774774   -6.9857182    705.20306    0.0287791  0.028778522            2 
 2043000   0.90582592   -6.9886675    705.09621  0.028760654  0.028771664            3 
 2044000     0.911988   -6.9649206    704.72994  0.028731651  0.028764822            3 
 2045000   0.91153488   -6.9379184    706.24114  0.028779183  0.028758042            4 
 2046000   0.93429339   -6.9954498    706.49063  0.028775278  0.028751263            5 
 2047000   0.93571536   -6.9783677     705.8245  0.028734103  0.028744489           10 
 2048000   0.90873627   -6.9895154    705.34778  0.028700675   0.02873769            4 
 2049000   0.93351999   -6.9733697    707.38277  0.028769431  0.028730895            3 
 2050000   0.93722307   -7.0021953    706.47882  0.028718651  0.028724068            5 
 2051000    0.9034503    -6.991438    708.90805   0.02880335  0.028717294            4 
 2052000   0.92132356   -6.9797626     706.3275  0.028684515   0.02871059            3 
 2053000   0.90956396   -6.9860224    706.26422  0.028667975  0.028703858            5 
 2054000   0.91591953   -6.9839842    707.27826  0.028695158  0.028697146            4 
 2055000    0.9302218   -6.9790316    709.75202  0.028781509  0.028690407            3 
 2056000   0.93164281   -7.0210551    707.24804   0.02866602  0.028683637            6 
 2057000   0.92065946   -7.0084315    706.35043   0.02861572  0.028676861            6 
 2058000   0.93621596   -6.9745429    709.39018  0.028724902  0.028670117            5 
 2059000    0.9203239   -6.9942727    709.36311  0.028709855  0.028663308            5 
 2060000    0.9129519   -6.9794525    707.52316  0.028621487  0.028656483            2 
 2061000   0.90610114   -6.9939383    708.83202  0.028660521  0.028649674            6 
 2062000   0.92848663   -6.9657704    710.63554  0.028719509  0.028642905            5 
 2063000   0.92962602   -6.9751747     709.4213   0.02865654  0.028636147            3 
 2064000   0.92608566   -6.9705917    711.08438  0.028709802  0.028629461            3 
 2065000   0.91374002   -6.9711707    711.29254    0.0287043  0.028622757            4 
 2066000   0.92191988   -6.9890142    711.77932   0.02871004  0.028615964            4 
 2067000   0.91157946   -7.0147329    709.16094  0.028590588  0.028609199            2 
 2068000   0.92615801   -6.9968477    710.93839  0.028648388  0.028602456            5 
 2069000   0.92545303   -6.9587109    711.38277   0.02865244  0.028595771            4 
 2070000   0.93769781   -6.9560917    712.95132  0.028701744  0.028589051            4 
 2071000    0.9140041   -6.9960335    710.14882  0.028575117  0.028582342            3 
 2072000   0.93183861   -7.0077661    711.10865   0.02859993  0.028575538            5 
 2073000   0.90993034   -6.9687929    711.95577  0.028620187  0.028568758            6 
 2074000   0.92033415    -7.000982    710.74756  0.028557841  0.028561953            9 
 2075000   0.91015258   -7.0103169    711.96886  0.028593127  0.028555254            6 
 2076000   0.92546027   -7.0127025    713.11571   0.02862539  0.028548434            4 
 2077000   0.91112118   -6.9795564    710.21239  0.028495121  0.028541569            4 
 2078000   0.95085922   -7.0114361    712.99308  0.028592921   0.02853478            7 
 2079000    0.9183383   -6.9801036    713.50453  0.028599669  0.028528059            6 
 2080000   0.91866191   -7.0020844     711.6716  0.028512484  0.028521321            4 
 2081000   0.92359179   -6.9831994    711.46922  0.028490678  0.028514653            3 
 2082000   0.92467033   -6.9931239    713.61386  0.028562835  0.028507939           12 
 2083000   0.91819446   -7.0067236     710.7711  0.028435394  0.028501173            4 
 2084000   0.91871396   -6.9802728    713.23691   0.02852035  0.028494502            4 
 2085000   0.90431188   -7.0011864    715.45903  0.028595485  0.028487833            7 
 2086000   0.90232532   -6.9625209    714.82463  0.028556433  0.028481131            5 
 2087000   0.90003817   -6.9922126    715.34418  0.028563495  0.028474449            3 
 2088000   0.92089728   -6.9703064    715.39578  0.028551875  0.028467688            3 
 2089000   0.90688004    -6.990165    715.42044  0.028539191  0.028460965            4 
 2090000   0.92274768   -6.9811052     716.4393   0.02856616  0.028454281            1 
 2091000   0.92198924   -7.0009098    714.42315  0.028472148    0.0284475            7 
 2092000   0.91383898    -6.979661    714.11607  0.028446306  0.028440833            2 
 2093000     0.911365   -7.0227264    714.07172  0.028430949  0.028434095            4 
 2094000   0.92027018    -6.976688    716.08378  0.028497444  0.028427383            4 
 2095000   0.89953869   -7.0157298    716.96384  0.028518848  0.028420586            3 
 2096000   0.89912782   -6.9819444    715.61003  0.028451417  0.028413833            4 
 2097000   0.91306829   -6.9883729    716.78912  0.028484705  0.028407061            4 
 2098000   0.90468835   -7.0031215    714.10115  0.028364361  0.028400319            7 
 2099000   0.92788144   -6.9932337    716.62541  0.028451064   0.02839359            3 
 2100000   0.92629509   -7.0116268    716.03467  0.028414074  0.028386828            4 
 2101000    0.9316167   -7.0012999    717.25593   0.02844899  0.028380095            2 
 2102000   0.92648765   -7.0164316    717.40289  0.028441282  0.028373324            2 
 2103000   0.93627309   -7.0027958     716.2694  0.028382842  0.028366541            4 
 2104000   0.93158036   -6.9406499    718.97211  0.028476398  0.028359841            3 
 2105000   0.90495417    -7.014815    716.42515  0.028362041  0.028353058            6 
 2106000   0.90966497   -7.0099851    716.93172  0.028368618  0.028346135            3 
 2107000   0.90770122   -7.0171961    714.83521  0.028272236  0.028339241            4 
 2108000   0.91735072   -7.0243718    715.14464  0.028271056  0.028332303            6 
 2109000   0.91528081   -6.9725106    714.94565  0.028249788  0.028325308            4 
 2110000   0.92363602   -6.9845009    717.82706    0.0283502  0.028318447            3 
 2111000   0.89420109   -6.9935098    716.01561  0.028265262   0.02831155            3 
 2112000   0.91717853   -6.9783682    717.70298  0.028318457  0.028304576            3 
 2113000   0.91317636   -6.9787932    717.37995  0.028292316  0.028297694            2 
 2114000   0.91803275   -7.0051884    719.05531  0.028344974  0.028290862            3 
 2115000   0.91301517   -6.9990651    717.98099  0.028289243  0.028284009            3 
 2116000    0.8892793   -6.9828242    720.55115  0.028377093   0.02827717            7 
 2117000   0.92860753   -7.0281545    719.03926  0.028304175  0.028270357            3 
 2118000   0.90348415   -7.0163933    720.09075  0.028332182  0.028263515            4 
 2119000    0.9088495   -6.9898027     717.7041  0.028224953  0.028256649            3 
 2120000   0.88993985   -7.0046512     716.9822  0.028183263    0.0282498            3 
 2121000   0.92977402    -7.010483    719.17248   0.02825603   0.02824293            4 
 2122000   0.91551071   -7.0024485     718.4682  0.028215056  0.028236075            5 
 2123000   0.92382109   -6.9910234    718.68752  0.028210375  0.028229169            3 
 2124000   0.91814813   -7.0044205    719.63704  0.028234347  0.028222286            4 
 2125000   0.92113059   -7.0111016    718.05826  0.028159148  0.028215331            4 
 2126000   0.91361691   -7.0004404    717.82681   0.02813683  0.028208326            5 
 2127000   0.91340421   -7.0053074     718.9771  0.028168669  0.028201452            5 
 2128000   0.91646348   -7.0014933     719.9387  0.028193088  0.028194534            5 
 2129000    0.9051916    -7.014807     719.6096  0.028166964  0.028187589            7 
 2130000   0.91534891   -7.0227522    720.61144  0.028192936  0.028180614            3 
 2131000   0.90917246   -7.0216287    718.04655  0.028079405  0.028173651            6 
 2132000     0.940887   -7.0033285    720.25966  0.028152738  0.028166655            2 
 2133000   0.90283986   -7.0096483    718.67162  0.028077497   0.02815973            3 
 2134000   0.91064407   -7.0177449    719.21413  0.028085525  0.028152788            5 
 2135000   0.92035628    -7.020136    721.28161  0.028153068  0.028145803            5 
 2136000    0.9029171   -6.9774115    721.42733  0.028145573    0.0281389            6 
 2137000   0.92846985   -7.0075957     720.4693  0.028095044  0.028131979            5 
 2138000   0.92897204   -7.0104861    721.31602  0.028114906  0.028125075            3 
 2139000   0.89757721   -6.9993404    722.48288  0.028147221  0.028118168            6 
 2140000   0.89363768   -6.9932625    721.48403  0.028095172  0.028111305            3 
 2141000    0.9109921   -7.0158997    722.22826  0.028111018  0.028104474            5 
 2142000   0.91802081   -7.0344231    720.94784   0.02804808  0.028097555            3 
 2143000   0.89838815   -7.0362845    721.93262  0.028073286  0.028090608            3 
 2144000   0.89940404   -7.0118101    720.28493  0.027996149  0.028083673            8 
 2145000   0.89815712   -6.9752395    724.45496  0.028145103  0.028076779            2 
 2146000   0.90047048   -7.0308694    722.61559  0.028060562  0.028069927            3 
 2147000   0.90148704   -6.9873347    720.14835  0.027951729  0.028062965            5 
 2148000    0.9385877   -7.0326034    722.55931  0.028032251  0.028056016            5 
 2149000   0.89558518   -7.0279636    722.03795   0.02799899  0.028049025            7 
 2150000   0.91382273   -7.0345474    721.95174  0.027982626  0.028042044            7 
 2151000   0.91042602   -7.0300259    721.94632  0.027969407  0.028035101            4 
 2152000   0.90710383   -6.9877159     723.2982  0.028008759  0.028028159           11 
 2153000   0.90810081   -7.0254425    723.09536  0.027987899  0.028021161            8 
 2154000   0.90468717   -7.0013478    723.42683  0.027987729   0.02801417            7 
 2155000   0.91200535   -7.0205426    722.16822  0.027926072  0.028007139            2 
 2156000   0.90640694   -7.0146045    723.17638  0.027952086  0.028000074            6 
 2157000   0.90285907   -7.0124979     724.3125   0.02798302  0.027993105            4 
 2158000   0.91835995   -7.0149493    721.19171  0.027849541  0.027986111            2 
 2159000   0.91931567   -7.0350754    723.58349   0.02792896  0.027979045            4 
 2160000   0.90348003   -7.0199989    724.34361  0.027945355   0.02797204           13 
 2161000   0.91302986   -7.0319542    722.48892  0.027860903  0.027965015            4 
 2162000    0.9282904   -7.0246353    724.20579  0.027914192  0.027958001            3 
 2163000   0.90941073   -7.0228961     723.9978  0.027893273  0.027950985            3 
 2164000   0.90440605   -7.0225112    724.12053   0.02788511  0.027943909            3 
 2165000    0.9077946    -7.012243    723.91784  0.027864428  0.027936902            4 
 2166000   0.90211748   -7.0613989    724.04066  0.027856289  0.027929859            3 
 2167000   0.91062469   -7.0284681    723.40658   0.02781905  0.027922909            3 
 2168000   0.91287436    -7.015444    723.32524  0.027803092  0.027915857            4 
 2169000   0.89697424   -7.0448222     725.4058  0.027870209   0.02790886            6 
 2170000   0.89528332   -7.0079188    726.62939  0.027904354  0.027901874            6 
 2171000   0.90690895   -7.0570717    723.03235   0.02775343  0.027894864            3 
 2172000   0.91414087   -7.0259085    724.68965  0.027804238  0.027887765            7 
 2173000   0.91032283   -7.0037667    724.69555  0.027791669  0.027880733            4 
 2174000   0.90573794   -7.0059991    726.12476  0.027833669  0.027873749            5 
 2175000    0.8860077   -7.0206628    726.09605  0.027819772  0.027866689            5 
 2176000   0.90323969   -7.0387789    727.10936  0.027845794  0.027859693            3 
 2177000   0.91516482    -7.036283    725.35972  0.027766028  0.027852668            6 
 2178000   0.90774696   -6.9877919    726.92277  0.027813084  0.027845746            6 
 2179000   0.91828646   -7.0537079    726.85697  0.027797804  0.027838875            8 
 2180000     0.895956   -7.0205824     728.6396  0.027853196  0.027831945            8 
 2181000   0.88899975   -7.0131591     729.0449  0.027855911  0.027825033            5 
 2182000   0.90131073   -7.0413631    726.73182  0.027754805  0.027818091            3 
 2183000   0.90344194   -7.0211445    728.01756  0.027791173  0.027811157            3 
 2184000   0.89863673   -7.0201235    728.23857  0.027786881  0.027804225            4 
 2185000    0.9091154   -7.0358482    728.05329  0.027767097   0.02779729            5 
 2186000   0.89529003   -7.0377214    729.81228   0.02782145  0.027790227            6 
 2187000   0.89988217   -7.0246196    727.61461  0.027724989  0.027783312           13 
 2188000   0.89978023   -7.0378597    729.24756  0.027774511  0.027776407            3 
 2189000    0.8996332   -7.0287361    728.25738  0.027724127  0.027769483            3 
 2190000   0.88430254   -7.0475326    726.60209  0.027648481  0.027762481            7 
 2191000   0.89642483    -7.029132     730.0765  0.027768009  0.027755489            4 
 2192000   0.91793905   -7.0225913    729.64474  0.027738927  0.027748543            4 
 2193000   0.88583579    -7.021197    729.87571  0.027735055  0.027741632            2 
 2194000   0.91154819   -7.0006518    728.98056  0.027688414  0.027734675            4 
 2195000    0.9108066    -7.052776    728.91444  0.027673289  0.027727709            3 
 2196000   0.90218286   -7.0468557    728.60231  0.027648843   0.02772078            6 
 2197000   0.89677572    -7.035994    729.95938  0.027687732  0.027713861            4 
 2198000   0.90240817    -7.049869    730.24073  0.027685803  0.027706929           10 
 2199000   0.89711071    -7.019784     731.0874  0.027705298  0.027699907           11 
 2200000   0.91433532   -7.0492867    729.90604  0.027647956  0.027692995            5 
 2201000   0.88514838   -7.0755688    730.84742  0.027671037  0.027686039            4 
 2202000   0.88839539   -7.0143276    731.17252  0.027670774  0.027679063            5 
 2203000    0.9114668   -7.0372213    730.81183  0.027644569  0.027672097            5 
 2204000   0.91048292   -7.0344148    730.31902  0.027613393  0.027665126            7 
 2205000   0.89605716   -7.0551088    730.34133  0.027601713  0.027658137            8 
 2206000   0.88640357    -7.034836    729.45698  0.027555794  0.027651167            6 
 2207000   0.90088429   -7.0284262    732.50787  0.027658506  0.027644238            3 
 2208000   0.91163989   -7.0089501    732.35472  0.027640199  0.027637279            3 
 2209000   0.90778818   -7.0488892    730.68014  0.027564514  0.027630243            7 
 2210000    0.8921128   -7.0382564    730.81329  0.027557062   0.02762323            6 
 2211000   0.90269099   -7.0106968    733.30908  0.027638666  0.027616282            8 
 2212000   0.88900221   -7.0082572    730.72656  0.027528879  0.027609314            5 
 2213000   0.88194702   -6.9994627     731.5989  0.027549288  0.027602317            6 
 2214000   0.90742914    -7.010352    731.30842  0.027525912  0.027595336            3 
 2215000   0.90467028   -7.0266396    731.45405  0.027518963   0.02758828            4 
 2216000    0.9158809   -7.0303875    731.66051  0.027514309  0.027581212            3 
 2217000    0.8956993   -7.0247815    732.43636  0.027531061  0.027574159            4 
 2218000   0.90836512   -7.0470957    732.71777  0.027529222  0.027567108            6 
 2219000   0.91501909   -6.9910998    732.93852  0.027525106   0.02756007            3 
 2220000   0.88747786   -7.0462656    731.66745  0.027464994  0.027553068            3 
 2221000   0.89884831    -7.011573    730.18631  0.027397055  0.027546016            6 
 2222000   0.89328108   -7.0414346    731.19554  0.027422575  0.027538969            4 
 2223000   0.88624575   -7.0327393    731.59998    0.0274254  0.027531929            3 
 2224000   0.90018167   -7.0585814    733.76096  0.027494041  0.027524907            7 
 2225000   0.89104831   -7.0507435     732.1412  0.027421019  0.027517918            5 
 2226000    0.8835444    -7.025045    732.24569  0.027412612  0.027510853            6 
 2227000   0.88217066   -6.9988825    733.45851  0.027445686  0.027503796            6 
 2228000    0.9036834    -7.031529    732.35062  0.027391929   0.02749672           13 
 2229000   0.92593698   -7.0585535    730.90025  0.027325417  0.027489537            8 
 2230000   0.88007255    -7.034992    731.67823  0.027342236  0.027482349            4 
 2231000   0.88456008   -7.0378283    731.49679  0.027323203    0.0274753            3 
 2232000   0.88379983   -7.0459267    733.42581  0.027382983  0.027468226            3 
 2233000   0.90951665   -7.0642823    734.05076  0.027394042  0.027461151            3 
 2234000   0.88858113   -7.0641093    734.11374  0.027384129  0.027454065            6 
 2235000   0.88457501   -7.0400175    735.64631   0.02742902  0.027447025            5 
 2236000   0.91127302   -7.0392742     738.5081  0.027523408  0.027440089            5 
 2237000   0.87901771   -7.0423312     736.8305  0.027448611  0.027433198            4 
 2238000   0.90489002   -7.0312904     738.1699  0.027486219  0.027426351            4 
 2239000   0.87397751   -7.0234936    735.68009  0.027381275  0.027419467            5 
 2240000   0.87347494    -7.086505      736.942  0.027415997  0.027412527            6 
 2241000   0.89704857   -7.0417444    736.38039  0.027382879   0.02740551            3 
 2242000   0.88397771   -7.0710501      736.369  0.027370242  0.027398532            4 
 2243000   0.91019047   -7.0421537    735.40082   0.02732207  0.027391538            3 
 2244000   0.90121769   -7.0629406     736.4485    0.0273488  0.027384557            3 
 2245000   0.89763855   -7.0532473    737.08834  0.027360369  0.027377548            4 
 2246000   0.88489727   -7.0683723    736.31366  0.027319444  0.027370504            7 
 2247000   0.89749562   -7.0286418     735.4467  0.027275134  0.027363483            3 
 2248000   0.88995623   -7.0409795    738.09716  0.027361253  0.027356483            5 
 2249000   0.88960991   -7.0560649    734.04841  0.027199066  0.027349432            6 
 2250000   0.89982773   -7.0269493    736.03736  0.027260643  0.027342334            6 
 2251000   0.89491113   -7.0357866    736.26055  0.027256795  0.027335205            4 
 2252000    0.8885204   -7.0776493     735.5665  0.027219009  0.027328069            8 
 2253000   0.89774025    -7.088385    735.35002  0.027198921  0.027320933           10 
 2254000    0.8951983   -7.0347249    736.50123  0.027229416  0.027313791            7 
 2255000   0.89052166   -7.0230707    738.00779  0.027273015  0.027306732            7 
 2256000   0.88566447   -7.0146587     737.1591  0.027229577  0.027299658            5 
 2257000   0.88320161   -7.0736239    735.92173  0.027171826  0.027292603            4 
 2258000    0.8925973   -7.0299805    738.03749  0.027237876  0.027285532            3 
 2259000   0.89787119   -7.0528469    738.62743  0.027247581  0.027278502            5 
 2260000   0.89204865   -7.0661311    737.26492  0.027185285  0.027271439            6 
 2261000   0.89528132   -7.0462406    739.63651   0.02726067  0.027264421            7 
 2262000   0.88972957   -7.0776292    737.54223  0.027171465  0.027257455            4 
 2263000   0.89091438   -7.0496194    738.87279  0.027208454  0.027250411            2 
 2264000   0.89868416   -7.0448095    738.32845  0.027176401  0.027243362            9 
 2265000   0.86773143   -7.0412847    736.65181  0.027102715  0.027236349            7 
 2266000   0.86308673   -7.0464847    739.25801  0.027186599  0.027229395            5 
 2267000   0.88704594   -7.0280899    738.16225  0.027134328  0.027222424            5 
 2268000   0.91808623   -7.0679737    738.09704  0.027119968  0.027215388            2 
 2269000   0.89295551   -7.0805693    738.33315  0.027116687  0.027208277            4 
 2270000   0.89102895   -7.0694221    739.52347  0.027148439  0.027201229            3 
 2271000   0.89086182   -7.0672221    740.65353  0.027177951  0.027194154            6 
 2272000   0.87851382   -7.0629507    740.15392  0.027147664  0.027187068            5 
 2273000   0.87087247    -7.058748    738.89149  0.027089437  0.027179987            4 
 2274000   0.88084494   -7.0545499    739.24374  0.027090433  0.027172973            5 
 2275000   0.87911482   -7.0402303    740.20784   0.02711384  0.027165917            2 
 2276000    0.9032685   -7.0416406    740.93973  0.027128725  0.027158864            5 
 2277000   0.87007483   -7.0569523    740.03604  0.027083738  0.027151798            4 
 2278000   0.88180629    -7.075506    739.11267   0.02703807  0.027144714            4 
 2279000   0.89665052   -7.0595599    740.67629   0.02708338  0.027137622            4 
 2280000   0.86752277   -7.0725223    739.26453  0.027019902  0.027130535            4 
 2281000   0.92057307   -7.0912515    740.19694  0.027042121  0.027123405            6 
 2282000    0.8737168   -7.0729122    741.46699   0.02707665  0.027116226            5 
 2283000    0.8681933   -7.0535879    739.49913   0.02699296  0.027109085            4 
 2284000    0.8929153    -7.050616     741.0533  0.027037847  0.027101994            5 
 2285000   0.89339819   -7.0675599    738.33807   0.02692699  0.027094939           10 
 2286000   0.87531662   -7.0588418     741.5375  0.027031842  0.027087828            3 
 2287000   0.89330809   -7.0500941    742.37485  0.027050534  0.027080719            7 
 2288000    0.8822389   -7.0733311    740.42863  0.026967826  0.027073679            5 
 2289000   0.90083824   -7.0852886    740.95986  0.026975384  0.027066648            4 
 2290000   0.87037797   -7.0047186    743.35962  0.027050932  0.027059598            5 
 2291000   0.87707986   -7.0751455    742.85579  0.027020798  0.027052578            5 
 2292000    0.8866707    -7.063699    741.43127  0.026957216  0.027045502            3 
 2293000   0.87938776   -7.0879905    741.86499  0.026961222  0.027038502            5 
 2294000   0.88304134   -7.0557261    743.50516  0.027009051   0.02703155            4 
 2295000   0.88299176   -7.0399952    742.62899  0.026965468  0.027024593            6 
 2296000   0.89179922   -7.0653501    744.80868  0.027032835   0.02701763            5 
 2297000   0.87865044   -7.0675438    744.13038  0.026996458  0.027010681            5 
 2298000   0.87186914   -7.0892617    743.44923   0.02696001  0.027003679            4 
 2299000   0.87449211   -7.0861097    741.49921  0.026877599  0.026996649            5 
 2300000   0.87038846   -7.0836776    745.72941  0.027019182  0.026989613            3 
 2301000   0.87661401   -7.0332612    744.42457  0.026960183  0.026982658            6 
 2302000   0.86192638   -7.0722496    744.57933  0.026954074  0.026975707            5 
 2303000   0.88110716   -7.0796839     745.1667  0.026963624  0.026968688            4 
 2304000   0.87817263   -7.0840916    744.93563  0.026943563  0.026961705            9 
 2305000   0.88986848   -7.1073347    743.38464    0.0268758  0.026954733            2 
 2306000   0.90317527   -7.0601058    747.42422  0.027010127  0.026947762            4 
 2307000    0.8688372    -7.054339    745.15445   0.02691643  0.026940786            4 
 2308000   0.88615834   -7.0769092    744.74076  0.026889831  0.026933777            3 
 2309000   0.87448194   -7.0807185     747.2602  0.026969114  0.026926787            6 
 2310000    0.8642297   -7.1083994    744.59805  0.026861401  0.026919768            5 
 2311000   0.87509664   -7.0864458    744.90617  0.026860889  0.026912768            1 
 2312000   0.90132311    -7.066546    746.83757  0.026918886  0.026905747            4 
 2313000   0.89324664   -7.0972488    745.70968  0.026866612  0.026898776            4 
 2314000    0.8791493   -7.0856364    747.61764  0.026923712  0.026891765            3 
 2315000   0.87260215    -7.078642    744.48587  0.026799347  0.026884799            4 
 2316000   0.87380419   -7.0513698    746.39299  0.026856397  0.026877925            4 
 2317000   0.88547966   -7.0590125    746.71456  0.026856372   0.02687098            8 
 2318000   0.89679512   -7.0269558    749.67298  0.026951143  0.026864088            6 
 2319000   0.90789949   -7.0760852    749.24745  0.026924229  0.026857227           15 
 2320000   0.89018786   -7.0712274    748.31903  0.026879276  0.026850356            4 
 2321000   0.87624505   -7.0619837    748.65131  0.026879625  0.026843451            3 
 2322000   0.86213803   -7.0817389    747.76262  0.026836155  0.026836533            3 
 2323000   0.88846749   -7.0563606    749.73579  0.026895386  0.026829619            6 
 2324000   0.88227589   -7.0628904     748.5916  0.026842785  0.026822706            4 
 2325000   0.87225312   -7.0787348    747.72389  0.026800139  0.026815758            4 
 2326000   0.88299983   -7.0762472     748.1575  0.026804152  0.026808751            6 
 2327000   0.87857436   -7.0834497    747.62599  0.026773599  0.026801791            7 
 2328000   0.87037558   -7.0600747     747.2246  0.026747731  0.026794805            5 
 2329000   0.89440171   -7.0962514    747.31407  0.026739447  0.026787865            7 
 2330000   0.88042068   -7.0577204    747.32588  0.026728393  0.026780883            5 
 2331000   0.86191054   -7.0538271      749.283  0.026786894  0.026773918            5 
 2332000   0.87806785   -7.0530127     749.8366   0.02679519  0.026766993            5 
 2333000   0.87890127   -7.0832068     747.5667  0.026702625  0.026760089            3 
 2334000   0.87530321   -7.0705808     747.4171  0.026685843  0.026753126            4 
 2335000    0.8754462   -7.0930876    749.65548    0.0267543  0.026746187            5 
 2336000   0.85935947   -7.0836879    749.37349  0.026732787  0.026739251           15 
 2337000   0.87294177   -7.0649256    749.67628  0.026732145  0.026732353            2 
 2338000   0.87920778   -7.1002336    749.09084  0.026699845  0.026725349            4 
 2339000   0.86321554   -7.0705459    751.01955  0.026757145  0.026718394            3 
 2340000   0.88497714   -7.0523625    748.30179  0.026648924   0.02671148            5 
 2341000   0.87282926   -7.1099456    749.50372  0.026680326  0.026704567           10 
 2342000   0.89125202    -7.071067     749.2496  0.026659892  0.026697639            5 
 2343000    0.8921238   -7.0927977    750.78223  0.026703024  0.026690699            4 
 2344000   0.86825169   -7.0528329    750.03692  0.026665135  0.026683765            5 
 2345000   0.87373592   -7.0681105    751.00186  0.026688055  0.026676867            6 
 2346000   0.87472441   -7.0641528    752.03695  0.026713447  0.026669943            4 
 2347000   0.87318255   -7.1060745    750.71586  0.026655157  0.026663039            6 
 2348000   0.87151436   -7.0791291    748.99783   0.02658283  0.026656115            8 
 2349000   0.85379551   -7.0774281    750.98945  0.026642169  0.026649162            8 
 2350000   0.90332601   -7.0778077    751.23205  0.026639434  0.026642237            5 
 2351000   0.88474163   -7.0796033      752.563   0.02667528  0.026635317            7 
 2352000   0.86828999   -7.0849881    752.54922   0.02666345  0.026628408            3 
 2353000   0.88324054   -7.0498148    753.22249  0.026675963  0.026621502            4 
 2354000    0.8815744   -7.0930115    750.14701  0.026555756  0.026614564            4 
 2355000   0.87067074   -7.0782389    752.14641   0.02661523   0.02660765            4 
 2356000   0.88302591   -7.0484114    751.77947  0.026590955  0.026600725            5 
 2357000   0.85624288   -7.0597735    753.78835  0.026650698  0.026593832            4 
 2358000   0.85756746   -7.0397555    753.42101  0.026626414  0.026586917            9 
 2359000   0.86925859   -7.0795646    750.66108   0.02651763  0.026580018            6 
 2360000   0.86323646   -7.0446286    754.14708  0.026629487  0.026573132            7 
 2361000   0.87400324   -7.1145021    753.38577  0.026591337  0.026566216            4 
 2362000    0.8885673   -7.0556949    753.44762  0.026582262  0.026559296            5 
 2363000    0.8766439   -7.0919671    752.89415  0.026551494   0.02655234            3 
 2364000   0.86009526   -7.0638131    753.45263  0.026559949  0.026545439            3 
 2365000   0.86815845   -7.0882602    753.42811  0.026547855  0.026538542            5 
 2366000   0.86173589   -7.1357426    750.17897  0.026422195  0.026531602            5 
 2367000   0.85812962   -7.0841361    754.97142  0.026579757   0.02652463            3 
 2368000   0.87395936   -7.1080678    753.79085  0.026526987  0.026517642            3 
 2369000   0.90079141   -7.0570869     753.2598  0.026497108  0.026510655            3 
 2370000   0.88258302   -7.0809068     752.1376   0.02644647  0.026503706            2 
 2371000   0.87706514   -7.1015941    754.33362  0.026512499  0.026496745           15 
 2372000   0.88528117   -7.0800781    752.67682  0.026443115  0.026489805            7 
 2373000   0.88419611    -7.065399    754.55593  0.026497961  0.026482929            4 
 2374000   0.85441944   -7.0515536    755.74902  0.026528679  0.026476075            4 
 2375000   0.85815121   -7.0627131    754.34041  0.026468085   0.02646926            7 
 2376000   0.87870652   -7.1031459    753.99764  0.026444923  0.026462388            5 
 2377000   0.87317504   -7.0733358    753.89552  0.026430217  0.026455455            5 
 2378000   0.87641669   -7.0979742    754.14847  0.026427967  0.026448578            4 
 2379000    0.8696942   -7.0817795    754.74766  0.026437847   0.02644172            5 
 2380000   0.85789013    -7.094728    754.96115  0.026434214  0.026434813            3 
 2381000   0.87150818   -7.0876857    755.75397   0.02645086  0.026427848            5 
 2382000   0.87068139   -7.1233766    754.86004  0.026408482  0.026420827            7 
 2383000   0.88014202   -7.0862723    754.30548  0.026378007   0.02641385            7 
 2384000   0.85128355    -7.098881    755.24927  0.026399933  0.026406889            5 
 2385000   0.88125721    -7.082658    755.22366  0.026387968  0.026399929           19 
 2386000   0.87164487    -7.067428    755.16379  0.026374818  0.026393023            6 
 2387000   0.87182205   -7.0761862    756.96714  0.026426726  0.026386109            2 
 2388000   0.86390716   -7.1151944    754.31838  0.026323227  0.026379129            7 
 2389000   0.86091275   -7.0816586    756.18011  0.026377149    0.0263722            6 
 2390000    0.8747122    -7.077408    756.85771  0.026389739   0.02636526            2 
 2391000   0.85649207   -7.1099651    754.14509  0.026284159  0.026358245            6 
 2392000    0.8734828   -7.0755292    754.75013  0.026294249  0.026351242            4 
 2393000   0.86198557   -7.0854987    755.39156  0.026305598  0.026344328            5 
 2394000   0.85720195   -7.1049419    753.54388  0.026230294  0.026337338            7 
 2395000   0.87060926   -7.1393958    754.43736   0.02625043  0.026330295            6 
 2396000   0.85720178   -7.0753554    756.38633   0.02630726  0.026323201            5 
 2397000   0.87503909   -7.1090645    756.77586  0.026309827  0.026316181            7 
 2398000   0.87747589   -7.1002142    755.66157  0.026260133  0.026309112            3 
 2399000   0.84378663   -7.1177211    756.58016  0.026281095  0.026302054            5 
 2400000    0.8605917   -7.1092943    755.61295  0.026236561  0.026295048            5 
 2401000   0.86846825   -7.1116714     756.4011  0.026252988  0.026288029            5 
 2402000   0.87431757   -7.0892109    754.33904  0.026170519  0.026280954            6 
 2403000   0.85492202   -7.1084116    755.57591  0.026202522  0.026273929            4 
 2404000   0.86875348   -7.0846686    756.98467  0.026240456  0.026266901            7 
 2405000   0.86420246   -7.0978353    756.05985    0.0261975  0.026259921            5 
 2406000   0.86869905   -7.0815926    757.72574  0.026244311  0.026252872            3 
 2407000   0.87220035   -7.0708512    759.63659  0.026299563  0.026245898            5 
 2408000   0.85233391    -7.098502    755.17814  0.026134349  0.026238877            3 
 2409000   0.85235224   -7.1016837    756.85247  0.026181419  0.026231811            6 
 2410000   0.87717024   -7.1301611    756.72204  0.026166046  0.026224744           10 
 2411000   0.85029626    -7.101655    756.57553  0.026150129   0.02621768            6 
 2412000    0.8718596   -7.1296949     755.3118  0.026095626   0.02621052            7 
 2413000   0.85538297   -7.1028191    757.33164  0.026154567  0.026203405            6 
 2414000   0.88077123   -7.1046394    758.75274   0.02619279  0.026196356            4 
 2415000   0.87868994   -7.1131474    757.36667  0.026134116   0.02618929            5 
 2416000   0.84357632   -7.1201502    755.79634  0.026069134  0.026182199            7 
 2417000   0.86688646   -7.0874947     757.7678  0.026126321  0.026175109            3 
 2418000   0.86422322   -7.0930261    757.76961  0.026115578   0.02616801            3 
 2419000   0.85272479   -7.1232016    754.81748  0.026003083  0.026160864            8 
 2420000   0.88190181   -7.0853326    758.69633  0.026125907  0.026153726            6 
 2421000   0.85996444   -7.1142946    757.92416  0.026088536  0.026146643            6 
 2422000   0.85774695   -7.0856364    756.88345  0.026041957  0.026139553            4 
 2423000   0.85824836   -7.1192215    756.93446  0.026032964  0.026132516            4 
 2424000   0.84995506   -7.0857419    759.61887   0.02611451  0.026125506            5 
 2425000   0.85716317   -7.0939616     759.4365  0.026097474  0.026118526            4 
 2426000   0.86643082   -7.0987443    757.07559  0.026005619  0.026111497            8 
 2427000   0.84457719   -7.1065888    757.55078   0.02601122  0.026104406            6 
 2428000   0.86960543     -7.09672    759.53043  0.026068452  0.026097322            7 
 2429000   0.86832748   -7.1536636    757.87654  0.026000979  0.026090157            7 
 2430000   0.85670239     -7.09239    758.09332  0.025997713  0.026082979            5 
 2431000   0.87384722   -7.1060986    760.92945   0.02608424  0.026075889            2 
 2432000   0.86158173   -7.1213868    758.70945  0.025997445  0.026068847            8 
 2433000   0.86232503   -7.1150873     757.9208  0.025959748  0.026061747            3 
 2434000   0.85757518   -7.1285276    757.86813  0.025947279  0.026054567            8 
 2435000   0.85921621   -7.1197267    758.24671  0.025949579  0.026047433            4 
 2436000   0.85819899   -7.0995727    759.26102  0.025973626    0.0260403            4 
 2437000   0.86727816   -7.1316875    758.55954   0.02593898  0.026033127            4 
 2438000   0.86527878   -7.1047326    759.54993  0.025962193  0.026025966            2 
 2439000   0.86212538   -7.1228391    757.59063  0.025884605  0.026018836            4 
 2440000   0.85226295   -7.1189735    759.09876  0.025925504  0.026011736            4 
 2441000   0.86137564   -7.1243068    759.24432  0.025919852  0.026004653            4 
 2442000   0.88058913    -7.123837    761.40743  0.025983054  0.025997575            5 
 2443000   0.86320253   -7.1203405    759.95095  0.025922737   0.02599058            4 
 2444000   0.85741034   -7.1225942    759.58044  0.025899497  0.025983496            4 
 2445000   0.85324396   -7.1097568     760.0431  0.025904673  0.025976455            9 
 2446000   0.86318536   -7.1384899    761.52435  0.025944547  0.025969408            4 
 2447000   0.86489271   -7.1005533    758.35173    0.0258259  0.025962351            5 
 2448000   0.84919634   -7.1213177    760.15697  0.025876803  0.025955339            2 
 2449000   0.84727745   -7.0809619    761.28752  0.025904707  0.025948241            5 
 2450000   0.86066638   -7.0957512     763.9141  0.025983473  0.025941289            8 
 2451000    0.8644635   -7.1116917    762.23933   0.02591593  0.025934326            5 
 2452000   0.84184644    -7.086024    760.71074   0.02585341  0.025927341            3 
 2453000   0.85766287   -7.1113729    761.69523  0.025876316   0.02592031            3 
 2454000   0.85975048   -7.1148497    760.19731  0.025814904  0.025913252            6 
 2455000   0.86570054   -7.1012328     761.9656  0.025864413  0.025906197            7 
 2456000   0.86110108   -7.1204585    761.30893  0.025831601  0.025899141            5 
 2457000   0.86824037    -7.140105    761.07739  0.025813234  0.025892096            5 
 2458000   0.85065698   -7.1248643    760.92067  0.025797419  0.025884997            5 
 2459000   0.86686549   -7.0653689    761.71082  0.025813705  0.025877948            3 
 2460000   0.85179296    -7.105246    762.97478  0.025846029   0.02587094            3 
 2461000   0.85378549   -7.1058081    762.87188  0.025832043  0.025863902            6 
 2462000   0.83016587   -7.1175728    762.25789  0.025800768  0.025856835            3 
 2463000   0.85184207   -7.1278321    760.32977  0.025725056  0.025849745            3 
 2464000   0.83510908   -7.1021526    763.19691  0.025811584  0.025842685            3 
 2465000   0.86219631   -7.1050761    762.25633  0.025769315   0.02583564            8 
 2466000   0.84987273   -7.1284844    761.08436  0.025719261  0.025828609            5 
 2467000   0.86888213   -7.0809861     761.7129  0.025730067  0.025821565            4 
 2468000   0.84078521   -7.1207815    763.02988   0.02576411  0.025814503            3 
 2469000   0.86111434   -7.0864226    764.38978  0.025799574  0.025807476            4 
 2470000   0.89301194   -7.1367898    760.80173  0.025668075  0.025800437            7 
 2471000    0.8602347   -7.1017492    761.87357  0.025693834   0.02579338            3 
 2472000   0.85607339   -7.1261914    762.43493  0.025702364  0.025786335            3 
 2473000   0.85621439    -7.140521      764.085  0.025747574  0.025779296            3 
 2474000   0.86219412   -7.1517718    763.62443  0.025721653  0.025772252            6 
 2475000   0.86476178   -7.1463791    764.11571  0.025727802  0.025765162            5 
 2476000   0.86138197   -7.1507962    764.21656  0.025720805  0.025758125            5 
 2477000   0.85630392   -7.1461453    762.02245  0.025636605  0.025750999            3 
 2478000   0.84969831   -7.1176834    763.54984  0.025677624  0.025743948            6 
 2479000   0.84355272     -7.13743    763.36641    0.0256611  0.025736896            5 
 2480000   0.85565941   -7.1018862    763.59874   0.02565856  0.025729876            6 
 2481000    0.8596656   -7.1051435    765.14913  0.025700293  0.025722894            6 
 2482000   0.84875512   -7.1252328    765.07525  0.025687458  0.025715907            5 
 2483000   0.83301941   -7.1341746    767.99073  0.025774961  0.025708956            3 
 2484000   0.85311228   -7.0908245    765.95805  0.025696392  0.025701964            5 
 2485000   0.86111291   -7.1390682    764.67911  0.025643163  0.025695033            4 
 2486000   0.84255403   -7.1256814    765.88414  0.025673241  0.025688111            3 
 2487000   0.85897701   -7.1107249    764.60539  0.025620071  0.025681186            3 
 2488000   0.85871149   -7.0999637    766.35439  0.025668355  0.025674175            6 
 2489000   0.83532585    -7.148415    765.94809  0.025644439  0.025667168            7 
 2490000   0.84924567   -7.1228374    766.55771  0.025654542  0.025660179            4 
 2491000   0.85715018   -7.1553368    765.06111  0.025594176  0.025653197            5 
 2492000   0.86093303   -7.1532736    764.81783   0.02557577    0.0256462            3 
 2493000   0.85494386   -7.1307123    767.64133  0.025659892   0.02563917           10 
 2494000   0.88234336   -7.1301769    766.13398  0.025599237  0.025632186            3 
 2495000   0.85276332   -7.1428732    765.87547  0.025580343  0.025625183            3 
 2496000   0.85251573   -7.1510799    765.73913  0.025565543   0.02561816           13 
 2497000   0.84014673   -7.1485837    768.47728  0.025646685  0.025611183            2 
 2498000   0.84193041   -7.1158412    766.47573  0.025569647  0.025604193            5 
 2499000   0.85748094   -7.1218466    766.02604  0.025544419  0.025597197            4 
 2500000   0.85762132    -7.110929    767.31251  0.025577084  0.025590257            4 
 2501000   0.84389796    -7.147887    767.35951  0.025568423  0.025583285            4 
 2502000   0.85369849   -7.1513711    767.60652  0.025566431  0.025576279            3 
 2503000   0.84662502   -7.1361828     766.1103  0.025506402  0.025569292            3 
 2504000   0.84345036    -7.108564    769.11709  0.025596282  0.025562327            4 
 2505000   0.84445571   -7.1271146    767.69672  0.025538813  0.025555356            4 
 2506000   0.85823962   -7.1317926     766.7168  0.025496036  0.025548377            3 
 2507000   0.85377854   -7.1536578    767.23356  0.025503043  0.025541357            5 
 2508000   0.83963845    -7.148431     766.6929   0.02547491  0.025534324           12 
 2509000   0.85190111    -7.156039    766.86139  0.025470353  0.025527272            9 
 2510000   0.84679879    -7.120667    769.87126  0.025560135  0.025520306            7 
 2511000   0.85375768   -7.1019832     767.5657   0.02547344  0.025513379           10 
 2512000     0.831898   -7.1251964     769.7551  0.025535931  0.025506484           10 
 2513000   0.83720911   -7.1317563    770.35016  0.025545502  0.025499545            4 
 2514000   0.82973923   -7.1285302    770.48789  0.025539906   0.02549264            6 
 2515000   0.84446296   -7.1708211    769.58586  0.025499863  0.025485705            7 
 2516000   0.85880552     -7.16324    769.07051  0.025472659  0.025478701            4 
 2517000   0.85137937   -7.1527174    767.89767  0.025423708  0.025471708            4 
 2518000   0.83835976   -7.1511033    769.32511  0.025460852  0.025464702            7 
 2519000    0.8511426    -7.150451    769.24293  0.025448026  0.025457706            4 
 2520000    0.8558462   -7.1363167    769.54639  0.025447963  0.025450764            3 
 2521000   0.83074297   -7.1119358    768.84606  0.025414718  0.025443857            5 
 2522000   0.84465344    -7.149119    767.67313  0.025365884  0.025436891           19 
 2523000   0.83619177   -7.1177447    769.36633  0.025411756  0.025429901            5 
 2524000   0.84464657   -7.1463331    769.02751  0.025390502  0.025422918            4 
 2525000   0.83582078    -7.147247    768.53449  0.025364175  0.025415968            2 
 2526000   0.85874641   -7.1249833    771.48095  0.025451338  0.025409026            4 
 2527000   0.82834463   -7.1439247    769.30061  0.025369364  0.025402099            8 
 2528000   0.83795444    -7.103392    771.20649  0.025422155  0.025395239            7 
 2529000   0.85030422   -7.1349751     770.1103  0.025375982  0.025388291            3 
 2530000    0.8683888   -7.1461135    769.38985  0.025342222  0.025381354            4 
 2531000   0.85529977   -7.1247228    769.71962  0.025343067  0.025374462            4 
 2532000    0.8316701   -7.1046054    772.16226   0.02541345  0.025367544           22 
 2533000   0.83434203   -7.1545417    770.79702  0.025358502  0.025360625            7 
 2534000   0.84433675   -7.1325927    773.03532  0.025422103   0.02535373            8 
 2535000   0.85702487   -7.1527173    771.60558  0.025365075  0.025346844            4 
 2536000    0.8739152   -7.1168651    771.90808  0.025365013  0.025339935            6 
 2537000   0.83938247   -7.1578751    771.36533  0.025337187  0.025333038            2 
 2538000   0.86142266   -7.1393086    770.98055   0.02531457  0.025326108            3 
 2539000   0.87510012   -7.1264038    769.93506  0.025270286  0.025319206            4 
 2540000   0.83240795    -7.153057    772.43682  0.025342415  0.025312294            6 
 2541000   0.82733177   -7.1623761    771.18233    0.0252913  0.025305346            7 
 2542000   0.85597555   -7.1463427    771.20924  0.025282233  0.025298426            5 
 2543000   0.85760192    -7.156959    770.33996  0.025243805  0.025291499            5 
 2544000   0.85660218   -7.1443061    772.97221  0.025320107   0.02528456            5 
 2545000   0.86484858   -7.1295239    772.07404  0.025280748  0.025277629            6 
 2546000   0.84798705   -7.1646218    771.32389  0.025246265  0.025270692            4 
 2547000   0.82450159   -7.1591169    773.89426  0.025320451  0.025263811            6 
 2548000     0.845736    -7.125156    774.69787  0.025336796  0.025256917            4 
 2549000   0.83923215   -7.1658821    771.96839  0.025237622  0.025250005            3 
 2550000   0.85022877   -7.1595698    772.50184  0.025245158  0.025243085           12 
 2551000   0.84094836    -7.163858    771.57633  0.025205029  0.025236157            4 
 2552000    0.8449335   -7.1160197    774.65563  0.025295704  0.025229205            6 
 2553000   0.83253495   -7.1539845    772.49565  0.025215291  0.025222278            2 
 2554000   0.84619688   -7.1551761    771.07932  0.025159205   0.02521528            4 
 2555000   0.85220471   -7.1628555    772.51887   0.02519631   0.02520834            4 
 2556000   0.84804053   -7.1562029    770.82392  0.025131192  0.025201318            4 
 2557000   0.82652651   -7.1260276    773.82473  0.025219161  0.025194303            9 
 2558000   0.84295382   -7.1364017    771.94071  0.025147925  0.025187357            6 
 2559000   0.84259671   -7.1461236    774.79862  0.025231165  0.025180351            8 
 2560000   0.84231221    -7.184883    772.72616  0.025153846  0.025173327           14 
 2561000   0.82003511   -7.1362814    772.89799  0.025149616  0.025166331            6 
 2562000   0.85114607   -7.1326741    775.71691  0.025231489   0.02515941            8 
 2563000   0.84213544   -7.1509317    771.91325  0.025097973  0.025152448            5 
 2564000   0.85138301   -7.1430538    773.67941  0.025145587  0.025145452            3 
 2565000    0.8378189   -7.1500906    772.71156  0.025104339  0.025138393            3 
 2566000   0.85177552   -7.1381813    773.77186   0.02512899  0.025131402            5 
 2567000   0.85446073    -7.145054    772.83691  0.025088849  0.025124394            3 
 2568000   0.83299082    -7.135949    773.60947  0.025104149  0.025117379            4 
 2569000   0.83633541   -7.1425371     773.2474  0.025082633  0.025110388            4 
 2570000    0.8340656   -7.1622383    773.21751  0.025071904  0.025103443            6 
 2571000   0.81580342   -7.1734082    770.40201  0.024970893  0.025096455            4 
 2572000   0.84117712   -7.1398197     772.5876  0.025031998  0.025089459            5 
 2573000   0.82646442   -7.1394593    774.25578  0.025076298  0.025082481            4 
 2574000   0.85580175   -7.1019379    774.26709  0.025066922  0.025075515            7 
 2575000   0.83864951   -7.1305049    774.42549  0.025062313  0.025068546            4 
 2576000   0.83202115   -7.1396295    775.95274  0.025101991  0.025061556            5 
 2577000   0.84858342   -7.1470074    776.91498  0.025123366   0.02505464            3 
 2578000   0.86309911   -7.1415871    774.96682  0.025050647  0.025047756            4 
 2579000    0.8283274   -7.1517848    775.09135  0.025044958  0.025040854            2 
 2580000   0.86984421    -7.165441    776.91221  0.025094064  0.025033985            6 
 2581000    0.8410035   -7.1523626    775.89627  0.025051539  0.025027047            7 
 2582000   0.84748218   -7.1452132    775.14192   0.02501749  0.025020055            4 
 2583000   0.84928301   -7.1790766    774.41321  0.024984295  0.025013105            4 
 2584000   0.84216236   -7.1332128    776.42048   0.02503936  0.025006167            5 
 2585000   0.82742847   -7.1600677    773.94564  0.024949892  0.024999186            4 
 2586000   0.82940737   -7.1184356    777.10144  0.025041939  0.024992211            4 
 2587000   0.83184807   -7.1297547    775.45949  0.024979368  0.024985246            4 
 2588000   0.85054794   -7.1769656    774.29063  0.024932079  0.024978271            7 
 2589000   0.84586167   -7.1607743    777.04812  0.025011205  0.024971255            6 
 2590000   0.82412518   -7.1508943    775.61295  0.024955372  0.024964262            9 
 2591000   0.83491287   -7.1796758    773.04816   0.02486325  0.024957248            2 
 2592000   0.84835595   -7.1813161    773.96854  0.024883248  0.024950254            8 
 2593000   0.82957594   -7.1385818    775.36039  0.024918383   0.02494328           10 
 2594000   0.83705782   -7.1560279     775.5236  0.024914019  0.024936288            3 
 2595000   0.84692669   -7.1619283    776.04912  0.024921295  0.024929278            8 
 2596000   0.85382406   -7.1587431    775.57151  0.024896363  0.024922356            4 
 2597000    0.8414297   -7.1782623    775.46974  0.024883511  0.024915395            4 
 2598000   0.82616219   -7.1811904    774.56278  0.024844842  0.024908369            7 
 2599000   0.83803552   -7.1432459    776.37461  0.024893376  0.024901337            6 
 2600000   0.84400873   -7.1786519    775.05965  0.024841656  0.024894294            3 
 2601000   0.83361099   -7.1887315    776.18319  0.024868102  0.024887277            4 
 2602000   0.85033593   -7.1480429    775.69586  0.024842937  0.024880295           11 
 2603000   0.85621728   -7.1885335    774.31229  0.024789099  0.024873331            5 
 2604000   0.85518985   -7.1623042    777.64095  0.024886103  0.024866352            5 
 2605000   0.82979023   -7.1438768    778.32685  0.024898492  0.024859403            7 
 2606000   0.84106424   -7.1623875    776.80319  0.024840214  0.024852464            4 
 2607000   0.82787088   -7.1778088    776.43296  0.024818852  0.024845505            5 
 2608000   0.83744533   -7.2001039    776.61834  0.024815259  0.024838581            5 
 2609000    0.8312961   -7.1892488    777.28872   0.02482716  0.024831656            6 
 2610000   0.84155459   -7.1469931    780.04063  0.024905512  0.024824774            7 
 2611000   0.83713257    -7.150947    777.63804  0.024819291  0.024817908            4 
 2612000   0.82769596   -7.1739147    777.99264  0.024821103  0.024811054            5 
 2613000   0.84048906   -7.1768275     779.1276  0.024847799  0.024804198           11 
 2614000   0.81928986   -7.1675421    779.68784  0.024856154  0.024797334            5 
 2615000   0.82855553   -7.1909293    779.44607  0.024838944  0.024790494            4 
 2616000   0.84343017   -7.1746531    779.17164  0.024820707  0.024783577            5 
 2617000   0.84448484   -7.1804566    778.69113  0.024795922   0.02477664            5 
 2618000   0.84532309    -7.181048    778.29937  0.024773981  0.024769707            7 
 2619000   0.83310431   -7.1758902    777.75202  0.024747105  0.024762807            8 
 2620000   0.83221937   -7.1669137    777.72105  0.024736675   0.02475592            8 
 2621000   0.84239578   -7.1800049    777.96906  0.024735122  0.024749056            9 
 2622000   0.82055601   -7.1831806    777.74081  0.024718434  0.024742167            7 
 2623000   0.84652495   -7.1916426    779.31337  0.024758971  0.024735247            7 
 2624000   0.80597126   -7.1474694    779.66249  0.024760623  0.024728332            7 
 2625000   0.81757494   -7.1752673    779.63365  0.024750275  0.024721429            5 
 2626000   0.84764778   -7.1634425    780.13498  0.024756759   0.02471449            2 
 2627000    0.8291206   -7.1701511    778.39556  0.024692157  0.024707547            5 
 2628000   0.83735316   -7.1702539    778.64398  0.024690639  0.024700595            7 
 2629000   0.82290312   -7.1965598    778.85881  0.024688057  0.024693692           10 
 2630000   0.83487268   -7.2004389    780.49156  0.024730404  0.024686797            4 
 2631000   0.83983509   -7.1435683    781.33927  0.024747855  0.024679971            5 
 2632000    0.8179241   -7.1892542    781.16373  0.024732894   0.02467315           11 
 2633000   0.81772261   -7.1793998    779.44118  0.024668983  0.024666301            4 
 2634000   0.83352619   -7.1825184    779.46538  0.024660383  0.024659444            6 
 2635000   0.84612001   -7.1860976    780.76861  0.024692239  0.024652577            4 
 2636000   0.82757325   -7.1593657    781.97712  0.024721077  0.024645756            5 
 2637000   0.85426116   -7.1688314    782.45133  0.024726689    0.0246389            5 
 2638000   0.82947614   -7.1704446    780.31186   0.02464973  0.024632051            6 
 2639000   0.83041542   -7.1638893    781.81147  0.024687744  0.024625226            5 
 2640000   0.81446207   -7.1612741    782.14216  0.024688831   0.02461838            4 
 2641000   0.82334522   -7.1588745    781.26274  0.024651734  0.024611551            4 
 2642000   0.83227838   -7.1676331     782.9884  0.024696833   0.02460473            4 
 2643000   0.82316317   -7.1922161    781.41811  0.024637978   0.02459787           10 
 2644000   0.83209848   -7.1552144    781.49007  0.024630928  0.024591053           16 
 2645000   0.85239199   -7.2032211     779.9706  0.024573743   0.02458425            4 
 2646000   0.82983151    -7.156521    781.39271  0.024609244  0.024577411            4 
 2647000   0.84683242   -7.1688746    783.55441  0.024668002  0.024570589            5 
 2648000   0.82130922   -7.1839959    782.97398   0.02464042  0.024563817            4 
 2649000    0.8475352   -7.1820614     782.0284  0.024601371  0.024557032            2 
 2650000   0.81793868   -7.1823777    782.49172  0.024606658  0.024550243            6 
 2651000   0.83789732   -7.1708627    779.88845  0.024515543  0.024543431            5 
 2652000   0.82447428   -7.1702233    784.08359  0.024638122  0.024536598            2 
 2653000   0.82534615   -7.1939106     782.3625  0.024574774  0.024529771           11 
 2654000   0.83515331   -7.1888723    782.98225  0.024584974   0.02452296            3 
 2655000   0.82313156   -7.1699743    783.90047  0.024604535   0.02451619            5 
 2656000   0.80665766   -7.1876227     782.9441  0.024565264  0.024509386            4 
 2657000   0.82404967   -7.1855245     781.6815  0.024516419  0.024502568           18 
 2658000   0.82671193   -7.1599555    783.05511   0.02455026  0.024495748            6 
 2659000   0.83211424   -7.1959967    782.04843  0.024509478   0.02448891            5 
 2660000   0.84633318   -7.1978323    781.39682   0.02447985  0.024482049            2 
 2661000   0.81842741   -7.1833295    782.32369  0.024499677  0.024475216            5 
 2662000   0.83440781   -7.1991523    783.61136  0.024530784  0.024468339            5 
 2663000   0.82049763   -7.2087324    780.97142  0.024438961  0.024461437            5 
 2664000   0.83147444   -7.2159793    781.70018  0.024452583  0.024454511           10 
 2665000   0.84130616   -7.1799147    780.82427  0.024416018  0.024447616            9 
 2666000   0.83672727    -7.221898    780.95876  0.024411064  0.024440713            7 
 2667000   0.83329402   -7.1902694    780.36448  0.024383342  0.024433764            4 
 2668000   0.83670404   -7.1878189    781.04904  0.024395585  0.024426843            7 
 2669000   0.82657777   -7.2030429    783.68721  0.024468815  0.024419953            6 
 2670000   0.83212773   -7.1623774    783.09498  0.024441167  0.024413053            3 
 2671000   0.82478863   -7.1621881    782.79351  0.024422611  0.024406209            2 
 2672000   0.83320204   -7.1824129    785.49876  0.024497841  0.024399365            5 
 2673000   0.81059567   -7.2071197     781.8039  0.024373485  0.024392514            6 
 2674000   0.82384914   -7.1964526    782.29939  0.024379811  0.024385609           13 
 2675000   0.82418283   -7.2144344    780.62899   0.02431866  0.024378675           20 
 2676000   0.82231241   -7.2039348    782.70813  0.024374319  0.024371779           13 
 2677000   0.82411148   -7.1959096    782.06709  0.024345259  0.024364855            5 
 2678000   0.82957166   -7.1893611    783.50747  0.024380989  0.024357972            4 
 2679000   0.83406122    -7.220319    784.77768    0.0244114  0.024351101            9 
 2680000   0.82899038   -7.1793467     783.2181  0.024353797  0.024344224            3 
 2681000   0.83044483   -7.1955458    783.53962  0.024354707  0.024337344            6 
 2682000   0.81379338   -7.1690911    783.38376  0.024340783   0.02433049            6 
 2683000   0.81334085   -7.2145583    784.27084  0.024359263  0.024323582            5 
 2684000   0.81175942     -7.21398    782.67256  0.024300564  0.024316713            4 
 2685000   0.82131691   -7.1775188    782.90131  0.024298613  0.024309802            4 
 2686000   0.81940377   -7.1892461    782.63677  0.024281359  0.024302891           12 
 2687000   0.83813762   -7.1642534    783.55552  0.024300816  0.024295985           11 
 2688000      0.83045   -7.1794079    783.70837  0.024296514   0.02428909            5 
 2689000   0.82249775   -7.2096158    782.37691  0.024246216  0.024282233            3 
 2690000   0.82050845   -7.1973098     784.4771  0.024302264  0.024275356            3 
 2691000   0.81795683    -7.192188     785.5292  0.024325815  0.024268458           16 
 2692000   0.80988302   -7.2166133     784.1656  0.024274567  0.024261548            5 
 2693000   0.80029805   -7.1876854    785.22354   0.02429829  0.024254666            4 
 2694000   0.80657221   -7.2188599    783.78657  0.024244821  0.024247752            5 
 2695000   0.81024456   -7.2170798    783.92099  0.024239981  0.024240866            5 
 2696000   0.82652133   -7.1978051    785.00906  0.024264622  0.024234005            7 
 2697000   0.82536718   -7.2014168    786.96934  0.024316195  0.024227157            3 
 2698000   0.83209137   -7.2253529    784.74683  0.024238536   0.02422032            4 
 2699000   0.83911485   -7.1782039    786.22832  0.024275297  0.024213479            8 
 2700000   0.80582315   -7.1949512    785.71692  0.024250522   0.02420664            3 
 2701000   0.81472635   -7.2136795    785.48724  0.024234458  0.024199746            4 
 2702000   0.81282641   -7.2342417    783.64723   0.02416874  0.024192865            9 
 2703000   0.82150715   -7.2070383    784.98051  0.024200904  0.024185982            4 
 2704000   0.82156976   -7.1772682     786.4527  0.024237324  0.024179164            6 
 2705000   0.81726862   -7.2154774    784.85666  0.024179195  0.024172351            8 
 2706000   0.83002376   -7.2011253    786.73274  0.024228035  0.024165551            4 
 2707000   0.82116247   -7.2076846    785.87931  0.024192812  0.024158733            5 
 2708000   0.83128279   -7.1833849    785.81126  0.024181784  0.024151918            5 
 2709000   0.83867076   -7.2033432    786.85911  0.024205091  0.024145099            3 
 2710000   0.80613734   -7.2087779    785.44623  0.024152713  0.024138262            2 
 2711000   0.81669131   -7.2231815    785.43526  0.024143467  0.024131428            5 
 2712000   0.82247417   -7.1694408    787.23615  0.024189901  0.024124589           10 
 2713000   0.81532947   -7.2193376    786.22783  0.024150013  0.024117768            6 
 2714000   0.83464607   -7.1918358    786.46619  0.024148434   0.02411091            4 
 2715000   0.84099434   -7.2018314     786.8465  0.024151212  0.024104094            4 
 2716000   0.81907989   -7.1864221    788.31459  0.024187365   0.02409726            3 
 2717000   0.81818443   -7.2165064    786.50355  0.024122916   0.02409044            3 
 2718000   0.83477075   -7.2038729    787.84715  0.024155235  0.024083573            3 
 2719000   0.81589363    -7.228964    787.11388  0.024123878  0.024076729            6 
 2720000   0.83403485   -7.2065699    786.90865  0.024108721  0.024069897           10 
 2721000   0.81941706   -7.2196057     787.5747  0.024120259  0.024063028           10 
 2722000    0.8084065   -7.1988497    787.51499   0.02410957  0.024056175            5 
 2723000   0.79426844   -7.2156387    786.95468  0.024083568  0.024049343            9 
 2724000   0.80686593   -7.1940532    788.16858  0.024111863  0.024042528            5 
 2725000   0.82895944   -7.1946431    785.80975  0.024030879  0.024035722            3 
 2726000   0.82527614   -7.2055203      786.669  0.024048331  0.024028971            4 
 2727000   0.81998191   -7.2140493     787.7741  0.024073282  0.024022162            7 
 2728000   0.83667293   -7.2133087    786.59466  0.024028429  0.024015362            4 
 2729000   0.82235118   -7.1786293    789.76624  0.024116473   0.02400856            6 
 2730000   0.81380018   -7.1853887    786.99329  0.024022994  0.024001789            4 
 2731000   0.81580652   -7.2154092    785.89425  0.023980662  0.023994995            4 
 2732000   0.80193282     -7.21874    787.28461  0.024014294  0.023988181            9 
 2733000   0.81024734    -7.225237    792.24558  0.024156775  0.023981355            2 
 2734000   0.79945345   -7.2110844    787.85002  0.024013961  0.023974576            7 
 2735000    0.8170981   -7.2028929    789.94341  0.024068964  0.023967814            9 
 2736000   0.81776718   -7.1780389    791.29134  0.024101223  0.023961086            3 
 2737000   0.81597616   -7.1900048    789.65799  0.024042686  0.023954343            6 
 2738000   0.80001816   -7.2089707    789.09741  0.024016844   0.02394759            8 
 2739000   0.81386458    -7.247723    789.29256  0.024014012  0.023940756            4 
 2740000   0.80723277   -7.2200563    788.31667  0.023975568  0.023933897            5 
 2741000   0.81326944   -7.2069141     790.6405  0.024037471  0.023927108            6 
 2742000   0.81491622   -7.2135826    787.37984  0.023929609  0.023920309            4 
 2743000   0.82020274   -7.1926186    790.51661  0.024016181  0.023913519            3 
 2744000   0.82328947   -7.2275118    787.61162  0.023919206  0.023906745            3 
 2745000   0.80931597   -7.2052878    788.49802  0.023937402  0.023899898            5 
 2746000   0.81382005   -7.2461826    786.45986  0.023866832  0.023893063           10 
 2747000   0.79912951   -7.2434778    788.76643  0.023928116  0.023886205            3 
 2748000   0.79881292   -7.2162146    788.46035  0.023910127  0.023879346            5 
 2749000   0.82114158   -7.2102043    787.49355  0.023872122  0.023872491            6 
 2750000   0.82759124   -7.2096178    788.98058  0.023908502  0.023865666            9 
 2751000   0.81265877   -7.2397881    787.87983  0.023866467  0.023858829            4 
 2752000   0.81586576   -7.2375855    789.45209  0.023905405  0.023851971            4 
 2753000   0.81452102     -7.20313    788.06193  0.023854641  0.023845128            4 
 2754000   0.80518905   -7.2137004    789.22425   0.02388115  0.023838291            5 
 2755000   0.78584468   -7.2106715    789.19736  0.023871668  0.023831435            8 
 2756000   0.81843551   -7.2177734    788.43261  0.023839883  0.023824635            6 
 2757000   0.81906976   -7.2227169    789.68954  0.023869228  0.023817821            4 
 2758000   0.79803559   -7.2271168    789.10184  0.023842816  0.023810958            8 
 2759000    0.8118864   -7.2453499    787.79727  0.023794771  0.023804055           11 
 2760000   0.81524432   -7.2395698     790.2784  0.023861063  0.023797194            5 
 2761000   0.81489404   -7.2143032     791.5453  0.023890659  0.023790412            5 
 2762000   0.82087537   -7.1999186    790.30606  0.023844619  0.023783624            6 
 2763000   0.82106081   -7.2058725    790.73795  0.023849015  0.023776861            4 
 2764000   0.80802422   -7.1963713    790.18666  0.023823766  0.023770071           14 
 2765000   0.81208856   -7.2216136    791.31334  0.023849106  0.023763292            3 
 2766000    0.8230623   -7.2402737    790.07812   0.02380327  0.023756503            6 
 2767000   0.79233296   -7.2317932    790.17717   0.02379765  0.023749702            7 
 2768000   0.79862934    -7.243016    787.47833  0.023707801  0.023742836            5 
 2769000   0.80971129    -7.227481    790.20353  0.023781255  0.023736021            6 
 2770000   0.79061426   -7.2275484    791.32173  0.023806309  0.023729195            5 
 2771000   0.81316567    -7.220589    791.64414  0.023807414  0.023722376            4 
 2772000   0.80755826   -7.2098691    790.49578  0.023764303  0.023715524            5 
 2773000   0.81195777   -7.2190309    790.19289  0.023746631  0.023708666            5 
 2774000   0.80294123   -7.2455751    789.78409   0.02372579  0.023701834            3 
 2775000   0.82699321    -7.241802    792.05312  0.023785379  0.023694983            5 
 2776000   0.79826453   -7.2409012    791.23971  0.023752393  0.023688164            8 
 2777000   0.80600248   -7.2055821    790.30809  0.023715883  0.023681296           10 
 2778000   0.79942105    -7.215328    791.50998    0.0237434  0.023674458            4 
 2779000   0.79065404   -7.2185702    790.16537  0.023694536  0.023667647           13 
 2780000   0.79763605   -7.2411603     790.1635  0.023685956  0.023660786            7 
 2781000   0.81382225   -7.2430431    791.25375  0.023710109  0.023653963            5 
 2782000   0.79741543   -7.2350669    790.49776  0.023678941  0.023647156            6 
 2783000   0.80132492   -7.2298462    789.30298  0.023634656  0.023640318           11 
 2784000   0.81712623   -7.2414658     789.0722  0.023619259  0.023633451            7 
 2785000   0.79494967   -7.2402605    790.59694  0.023656402  0.023626574            4 
 2786000    0.7997841   -7.2272115    790.93622  0.023658059  0.023619751            8 
 2787000     0.819995   -7.2140462    793.63926  0.023730393  0.023612931            6 
 2788000   0.80019904   -7.2122871    791.50277  0.023658022  0.023606137            5 
 2789000   0.82419753    -7.207349    793.94548  0.023722525  0.023599358            4 
 2790000   0.80258015   -7.2194069    793.14513  0.023690117  0.023592583            3 
 2791000   0.78852387   -7.2140966    793.61605   0.02369569  0.023585765            3 
 2792000   0.81104737   -7.2623048    790.52721   0.02359501  0.023578914            2 
 2793000   0.78707373   -7.2173634    791.09335  0.023603453  0.023572068            5 
 2794000   0.80132471   -7.2180307    791.68258   0.02361258  0.023565265           11 
 2795000   0.79983827   -7.2384303    791.50477   0.02359883   0.02355846            7 
 2796000   0.82848844   -7.2057133      793.066  0.023636922  0.023551658            4 
 2797000   0.79054924   -7.2201139    792.17945  0.023602057  0.023544808            5 
 2798000   0.79748333   -7.2213367    792.15078  0.023592768   0.02353799            6 
 2799000   0.80008734   -7.2217685    791.76037  0.023572716  0.023531138            6 
 2800000   0.80595015   -7.2287045    791.04814  0.023543099   0.02352426           15 
 2801000   0.80839618   -7.2505372    792.43858  0.023576061  0.023517445            3 
 2802000   0.80488117   -7.2336192    793.73257  0.023606131  0.023510627           15 
 2803000   0.79695151   -7.2410158    792.60008  0.023564041  0.023503817            3 
 2804000   0.82181477   -7.2368274    792.23534  0.023544797   0.02349702           12 
 2805000   0.80923724   -7.2406557    791.95077  0.023527949  0.023490203            6 
 2806000   0.81702878   -7.2205381    791.29243  0.023500013  0.023483403            4 
 2807000   0.80502602   -7.2295664    792.70049  0.023533443  0.023476614            5 
 2808000   0.79794094   -7.2364262    791.99119  0.023504012    0.0234698            3 
 2809000    0.7961667   -7.2317533    793.09268  0.023528322  0.023463007            3 
 2810000   0.79151309   -7.2648454    791.61425  0.023476105   0.02345619            5 
 2811000   0.81743643   -7.2619366    793.31613  0.023518206   0.02344939            4 
 2812000   0.79822635   -7.2361291    793.26561  0.023508345   0.02344258            7 
 2813000   0.79162139   -7.2447969    793.33623  0.023502081  0.023435735            5 
 2814000    0.7911922   -7.2625818    794.95383  0.023541632  0.023428947            5 
 2815000   0.79931533    -7.212609     794.5019  0.023519891  0.023422161            4 
 2816000   0.81017196   -7.2332792    794.84043  0.023521556  0.023415445            5 
 2817000   0.80887185   -7.2274304    795.15345  0.023522466  0.023408688            5 
 2818000   0.81437525   -7.2335671    794.00061  0.023480027  0.023401915            6 
 2819000   0.79452816    -7.223095    794.19441  0.023477427  0.023395138            6 
 2820000   0.79407953   -7.2512505    794.18048   0.02346869  0.023388363            9 
 2821000   0.80699347   -7.2476619     795.0795  0.023486928  0.023381598           11 
 2822000   0.79737037   -7.2326435    796.57147  0.023522663  0.023374857           12 
 2823000   0.79817635   -7.2419504    794.78333  0.023461546  0.023368124            3 
 2824000    0.7905753   -7.2472321     794.5147  0.023445311   0.02336137            3 
 2825000   0.79261112   -7.2387294    795.42318  0.023463811   0.02335466            7 
 2826000    0.7882879   -7.2426664    794.29072  0.023422114  0.023347936            3 
 2827000   0.78979824     -7.25901    794.88972  0.023431486  0.023341237            8 
 2828000   0.79960138   -7.2602232    796.20427  0.023461936  0.023334545           10 
 2829000   0.80302987   -7.2430337    794.58374  0.023405907  0.023327814            8 
 2830000   0.80128455   -7.2511957    795.19135  0.023415529  0.023321113            6 
 2831000   0.81475292    -7.241238     794.9064   0.02339887  0.023314405            5 
 2832000   0.81098372   -7.2547841    795.27592  0.023401481  0.023307688            4 
 2833000   0.81077572   -7.2476871    796.11016   0.02341776  0.023300965           10 
 2834000   0.80229304   -7.2343988    793.51385  0.023333153  0.023294275            5 
 2835000   0.79177399   -7.2567262    794.87153   0.02336483  0.023287578            4 
 2836000   0.81294913    -7.253493    796.10401  0.023392807  0.023280877            4 
 2837000   0.79147104   -7.2479593    797.14326  0.023415088    0.0232742            6 
 2838000    0.7968397   -7.2813843    795.26274  0.023351619  0.023267519           10 
 2839000   0.79071012   -7.2450788    797.95371  0.023422382  0.023260824            8 
 2840000   0.80637845   -7.2696576    797.53447  0.023401833  0.023254163            7 
 2841000   0.81247208   -7.2191531    797.18105  0.023383229  0.023247518            5 
 2842000   0.78614612   -7.2280103    798.18042  0.023404305  0.023240909            3 
 2843000   0.78761007   -7.2578972    797.73962  0.023383152  0.023234295            2 
 2844000   0.77994569   -7.2490515    796.23637  0.023330883  0.023227687            4 
 2845000   0.79711397   -7.2420995    796.23816  0.023322735  0.023221037            5 
 2846000   0.80150077   -7.2795048    796.04525  0.023308891  0.023214357            4 
 2847000   0.79997564   -7.2756038    797.61454  0.023346638    0.0232077            8 
 2848000   0.80662651   -7.2687207    799.10001  0.023381906  0.023201089            6 
 2849000   0.78430658   -7.2520788     798.3682  0.023352293  0.023194453            4 
 2850000   0.79170529   -7.2528879    798.80824  0.023356966    0.0231878            4 
 2851000   0.79274058   -7.2507949    798.24969  0.023332447  0.023181201            5 
 2852000    0.7840398   -7.2582752    798.23205  0.023323751  0.023174563           11 
 2853000   0.80656131   -7.2474943    797.75881  0.023301753  0.023167939            8 
 2854000   0.79746512   -7.2644261    798.06324  0.023302477  0.023161323            6 
 2855000   0.78204043   -7.2469757    798.39694  0.023304055  0.023154692            9 
 2856000   0.79403306   -7.2589116    796.81462  0.023249726  0.023148052            4 
 2857000   0.79934317   -7.2495251    798.05278  0.023277703  0.023141451            4 
 2858000   0.80120473   -7.2668237    800.04115  0.023327535  0.023134848            6 
 2859000   0.78469552   -7.2574207    800.42587   0.02333059   0.02312827            4 
 2860000   0.80281218   -7.2476061    797.86959  0.023247948  0.023121728            7 
 2861000   0.79885282   -7.2246681    799.29587  0.023281366  0.023115181            4 
 2862000   0.79677029    -7.246325    799.31952   0.02327392  0.023108637            3 
 2863000   0.77500464   -7.2541806    799.98255   0.02328509  0.023102065            3 
 2864000   0.76823691   -7.2523934    800.09706  0.023280291  0.023095496            9 
 2865000   0.80540325   -7.2689915    800.88321  0.023295032  0.023088967            3 
 2866000   0.80075752   -7.2500412    801.14415  0.023294492  0.023082434            6 
 2867000    0.8032428   -7.2286954    801.40789  0.023294032  0.023075931            8 
 2868000   0.80983237   -7.2546336     803.8592  0.023357136  0.023069453            5 
 2869000   0.80421968   -7.2293555    801.32003  0.023275242  0.023062955            4 
 2870000   0.79338664    -7.254786    800.43503  0.023241435  0.023056472            5 
 2871000    0.7795839   -7.2345929    800.96017  0.023248583  0.023049994            6 
 2872000   0.78697874    -7.251885    801.17311  0.023246666  0.023043483           18 
 2873000   0.79470094   -7.2533216    801.16853  0.023238442  0.023036987            4 
 2874000   0.80604062   -7.2931718    800.04172  0.023197684  0.023030477           14 
 2875000   0.76519634    -7.270406    801.40073  0.023229007  0.023023985            6 
 2876000   0.78907371   -7.2770989    800.74385  0.023201896  0.023017486            5 
 2877000   0.80445511   -7.2656819    801.71408  0.023221935   0.02301099            5 
 2878000   0.78789875   -7.2704594     800.9742  0.023192443  0.023004472            2 
 2879000   0.80086771     -7.26601    801.24296  0.023192166  0.022997975            4 
 2880000   0.80615712    -7.252106    800.94888  0.023175604  0.022991491            7 
 2881000   0.78338185   -7.2806627      803.098  0.023229724  0.022985006            3 
 2882000   0.80082713   -7.2653399    802.54825  0.023205767  0.022978504            6 
 2883000   0.79781421    -7.261716     802.6839  0.023201639  0.022972037           12 
 2884000   0.78805145   -7.2429089    801.80643  0.023168239  0.022965538            5 
 2885000    0.7991117   -7.2754862    801.91763  0.023163421  0.022959065            4 
 2886000   0.78332025   -7.2755749    800.86682  0.023125053  0.022952546            5 
 2887000   0.81114138   -7.2584265    800.84162  0.023116315  0.022946039            7 
 2888000    0.7786034   -7.2941056    800.27515  0.023091965  0.022939502            6 
 2889000   0.78596873    -7.259744    801.75129  0.023126552     0.022933            9 
 2890000   0.79867839   -7.2683572    802.41485  0.023137683  0.022926508            2 
 2891000   0.78200624   -7.2616284    803.63252  0.023164779  0.022920016           13 
 2892000   0.79475223   -7.2604938    801.48308  0.023094833  0.022913515            5 
 2893000   0.79418013   -7.2674646      801.948  0.023100242  0.022906986           10 
 2894000   0.78355909   -7.2737999    802.83642  0.023117842  0.022900511           10 
 2895000   0.79973023   -7.2652175    803.30077  0.023123223  0.022894049            8 
 2896000   0.77377857   -7.2667703    801.75957   0.02307089  0.022887585            5 
 2897000    0.7741614   -7.2558595    802.01144  0.023070171   0.02288114            8 
 2898000   0.79310382   -7.2782943    805.36928  0.023158767  0.022874657            5 
 2899000   0.78101405   -7.2407786    802.72536  0.023074778  0.022868186           10 
 2900000   0.78411182   -7.2465923    803.45752   0.02308786  0.022861728            6 
 2901000   0.78471894   -7.2314856    802.77966  0.023060429   0.02285527            8 
 2902000   0.77817634    -7.267083    803.65127  0.023077512  0.022848801            8 
 2903000   0.80931353    -7.309649    803.44049  0.023063512  0.022842317            4 
 2904000   0.79960223   -7.2639304    803.07029  0.023044946  0.022835815            5 
 2905000   0.78363778   -7.2689543    802.71946  0.023026949  0.022829328           12 
 2906000   0.78262551   -7.2617923    803.16247   0.02303173  0.022822877           11 
 2907000   0.78027741   -7.2452882    803.35787  0.023029408  0.022816433            4 
 2908000   0.78788969   -7.2730718    804.07466  0.023042029  0.022809982            4 
 2909000   0.78431216   -7.2631894    805.54919  0.023076349  0.022803538            4 
 2910000    0.7770697   -7.2663747    803.46686  0.023008788  0.022797091            6 
 2911000   0.77132164   -7.2761036    802.62119  0.022976674  0.022790627            6 
 2912000   0.78189994   -7.2807119    804.39596  0.023019573  0.022784147            5 
 2913000   0.79401966   -7.3043708    803.93638  0.022998523  0.022777635           12 
 2914000   0.76422752   -7.2917809    804.43042  0.023004759  0.022771144           13 
 2915000   0.78678619   -7.2590561    805.27913   0.02302113  0.022764679            9 
 2916000   0.78279516    -7.286757    804.51364  0.022991359  0.022758247            8 
 2917000   0.78726343   -7.2312039    804.80258  0.022991732  0.022751819            3 
 2918000   0.79340402   -7.2951229    804.78293  0.022983291   0.02274538            4 
 2919000   0.79475619   -7.2644616    803.73895  0.022945614   0.02273892            9 
 2920000   0.78155958   -7.2858304    804.06456  0.022947048  0.022732427            7 
 2921000   0.77665992   -7.2514842    804.53394  0.022952583  0.022725977            7 
 2922000   0.79184006    -7.275293    804.89247  0.022954953    0.0227195            4 
 2923000   0.77125025   -7.2507649    805.15896  0.022954697  0.022713043            4 
 2924000   0.76997702   -7.2555842    805.15475  0.022946727  0.022706571            5 
 2925000   0.79399747   -7.2438144    804.14866  0.022910218  0.022700153            6 
 2926000   0.78577534   -7.2743949    803.99049  0.022897884  0.022693711            7 
 2927000   0.79376889   -7.2924691    804.02168  0.022890949  0.022687218           15 
 2928000     0.754646   -7.2613657    804.45864  0.022895567  0.022680722            5 
 2929000   0.77147158   -7.2743486    805.08943  0.022905697  0.022674242            6 
 2930000   0.77764835   -7.2480448    805.88367  0.022920468  0.022667799            9 
 2931000   0.78343194   -7.2943278    804.28348  0.022867152  0.022661385            8 
 2932000   0.77444678    -7.253623    806.02456  0.022908838  0.022654935            5 
 2933000   0.77874417    -7.276772    806.09305  0.022902973  0.022648498            4 
 2934000   0.80029502   -7.2772595     805.3197  0.022873202  0.022642048            9 
 2935000   0.76346893   -7.2975698    805.48216  0.022870022  0.022635603           11 
 2936000   0.79623592   -7.2995127    804.65453  0.022838741  0.022629129            8 
 2937000   0.78105183   -7.2938788    802.75158  0.022776971  0.022622669            7 
 2938000   0.76921556   -7.3053515    805.44988  0.022845753  0.022616208            8 
 2939000   0.77222587   -7.2872913    805.15596  0.022829646   0.02260974            8 
 2940000   0.78000902   -7.2919729    806.16107  0.022850371  0.022603288            4 
 2941000   0.77166255    -7.275893    807.59132  0.022883127  0.022596868            4 
 2942000   0.78763198   -7.2998404    806.09956  0.022833094  0.022590454            7 
 2943000   0.77086633   -7.2981283    806.07299  0.022824584  0.022584014           15 
 2944000   0.78772321   -7.2828533    804.54512  0.022773582  0.022577603           10 
 2945000   0.77687846   -7.2597143    805.78763  0.022801008  0.022571189            4 
 2946000   0.79028534   -7.2496738    805.79724   0.02279354  0.022564802            4 
 2947000   0.77096084   -7.2676787     804.7236  0.022755446  0.022558371            4 
 2948000   0.77306215   -7.2815002     805.8983  0.022780933  0.022551931            5 
 2949000   0.78866198   -7.2777377    806.40259  0.022787459  0.022545473            9 
 2950000   0.79220296   -7.2784744    805.27461   0.02274787  0.022539033            4 
 2951000   0.78754243   -7.2980732    804.75076  0.022725369  0.022532562            8 
 2952000   0.77979092   -7.2943241    806.71983  0.022773256  0.022526108            4 
 2953000   0.77429611   -7.2726694    805.67899  0.022736172   0.02251966            5 
 2954000   0.78151217    -7.264099    806.32296  0.022746642  0.022513209            7 
 2955000   0.77927993   -7.3062805    807.59326  0.022774768  0.022506784            4 
 2956000   0.77031927   -7.2936985    806.48861  0.022735921   0.02250038            6 
 2957000   0.76078972   -7.2847203    807.73878  0.022763465  0.022493967            4 
 2958000   0.78278126   -7.2887995    807.62904  0.022752678   0.02248758            4 
 2959000   0.77803975   -7.2754191    807.89738  0.022752545  0.022481196            3 
 2960000   0.78174066   -7.2829979    806.71081  0.022711453  0.022474815            9 
 2961000    0.7706007   -7.2654664    806.93694  0.022710147  0.022468424            9 
 2962000   0.76360599   -7.2894453    809.38336  0.022771308  0.022462079            4 
 2963000    0.7676865   -7.2976133     808.1447  0.022728786   0.02245571            5 
 2964000   0.77312924   -7.2796653    808.97813  0.022744549  0.022449312            3 
 2965000   0.77530581   -7.2862819    807.13198  0.022684991   0.02244298            4 
 2966000   0.78055495   -7.2867274    808.83698  0.022725247  0.022436655           13 
 2967000   0.77349596   -7.2723838     809.6285  0.022739819  0.022430318            5 
 2968000   0.77884538   -7.2806286    808.00591  0.022686599     0.022424            8 
 2969000   0.78775975   -7.2963092    810.36347  0.022745129  0.022417642           16 
 2970000   0.76494399   -7.3122961    809.05671  0.022700806  0.022411282            5 
 2971000   0.76602446   -7.3014275    807.76407  0.022656908  0.022404953           11 
 2972000   0.76721658   -7.2976607    808.34585  0.022665597  0.022398601            6 
 2973000   0.77726293   -7.3103612    807.35971  0.022630331  0.022392275            4 
 2974000   0.77420968   -7.3184573    808.32707  0.022649828  0.022385952            3 
 2975000    0.7872183   -7.2647192    809.81415   0.02268387  0.022379643            7 
 2976000   0.79791027   -7.3188997    808.70689  0.022645242  0.022373339            7 
 2977000   0.77526244   -7.2699047    810.55331  0.022689321  0.022367016            7 
 2978000   0.76312562   -7.2637057    808.72889  0.022630649  0.022360734            5 
 2979000   0.76739438   -7.2911313    811.00911  0.022686839  0.022354403            6 
 2980000   0.76520574   -7.3051429    810.44176   0.02266336  0.022348127            5 
 2981000   0.78508154   -7.3117361    810.89114   0.02266832  0.022341826           11 
 2982000   0.76794027    -7.290978    808.92241  0.022605701  0.022335532           11 
 2983000   0.77146347   -7.3079518    808.65513  0.022590656  0.022329209            7 
 2984000   0.77358534   -7.2617115    811.19144  0.022653916    0.0223229            7 
 2985000   0.77825435   -7.3098034    809.84671  0.022608786  0.022316615           11 
 2986000   0.78777744    -7.300734    809.56782  0.022593431  0.022310345           15 
 2987000   0.76731666   -7.2714806    810.09158  0.022600479  0.022304063            7 
 2988000   0.76640099    -7.306884    810.20535  0.022596088  0.022297743           12 
 2989000   0.77807753   -7.3220911    809.17541  0.022559814  0.022291411            4 
 2990000   0.77093451   -7.2778617    810.63271  0.022592885  0.022285095            9 
 2991000   0.77746827   -7.3023117    810.44028   0.02257997  0.022278819            4 
 2992000   0.76438341     -7.29903    810.12289  0.022563583  0.022272523            5 
 2993000   0.77925186   -7.2901971     810.4236  0.022564417  0.022266227            8 
 2994000   0.77366086   -7.3099328    810.02456  0.022545774  0.022259958            6 
 2995000   0.76803407    -7.326948    808.68328  0.022500926  0.022253671           10 
 2996000   0.76877931   -7.3447871    809.00826  0.022502455  0.022247386            3 
 2997000   0.78939596   -7.2971798    810.25233  0.022529539   0.02224111           11 
 2998000   0.77640431   -7.3147709    811.34776  0.022552473  0.022234812            4 
 2999000   0.78333904   -7.3293112    810.04093   0.02250864  0.022228506            9 
 3000000   0.79347559   -7.3090682     811.2838  0.022535661  0.022222221           21 
 3001000   0.78278737   -7.3081731    813.03485  0.022576776   0.02221597           13 
 3002000   0.76484213   -7.3014453    811.60192  0.022529478   0.02220974           12 
 3003000   0.76565978   -7.2653629    811.53187  0.022520032  0.022203509           11 
 3004000   0.76308382    -7.309011    811.49672   0.02251156  0.022197294            4 
 3005000   0.76328542   -7.2974821    810.87406  0.022486802  0.022191068            9 
 3006000   0.74837493   -7.3361614    810.03232  0.022455986  0.022184853           10 
 3007000   0.78376403   -7.3211088    811.71335  0.022495104  0.022178596            5 
 3008000   0.77221456   -7.3161795    814.11102  0.022554051  0.022172382            6 
 3009000   0.76799851   -7.3313741    811.21524  0.022466358  0.022166155            8 
 3010000   0.76821094   -7.3168064    811.51101  0.022467082  0.022159895            8 
 3011000   0.76799947   -7.3155173    812.32044  0.022482023  0.022153662            6 
 3012000   0.76024092   -7.3218682    811.24889  0.022444912   0.02214743            4 
 3013000   0.78469104   -7.3176172    813.15133   0.02249008  0.022141217            5 
 3014000   0.77061837   -7.3007853    813.00949  0.022478696  0.022135002           14 
 3015000   0.76716574   -7.3077237    811.44453  0.022427986  0.022128795            4 
 3016000   0.78257138   -7.2919148     811.9975  0.022435828  0.022122601            5 
 3017000   0.75937282    -7.313169    813.13975  0.022459942  0.022116409            8 
 3018000   0.76831407   -7.3284732    812.50855  0.022435072  0.022110195            7 
 3019000   0.77740015   -7.3121292    813.56723  0.022456863   0.02210398           15 
 3020000    0.7741108   -7.3410677     812.7209  0.022426073  0.022097757            6 
 3021000   0.74832417   -7.3207531    813.69918  0.022445635   0.02209153            3 
 3022000   0.76978573   -7.3131898    813.79766  0.022440924  0.022085334            7 
 3023000   0.77320674   -7.3334149    814.76163  0.022460074  0.022079154            5 
 3024000   0.75639017   -7.3097678    814.90497  0.022456596     0.022073           10 
 3025000   0.77547783   -7.2741026     813.3887  0.022407402  0.022066883            8 
 3026000   0.76958496   -7.3035349    814.70198  0.022436164  0.022060751            7 
 3027000   0.77836942   -7.3276355    812.94833  0.022380474  0.022054623            5 
 3028000   0.76534925   -7.3065256    814.55998  0.022417437  0.022048516            6 
 3029000   0.76259107   -7.3314889    813.45917  0.022379751  0.022042366            8 
 3030000   0.76003604   -7.3243966    814.15171  0.022391411  0.022036223            7 
 3031000   0.77291015   -7.3069676    814.09776   0.02238254  0.022030063            9 
 3032000   0.76961038   -7.3089493    816.04011  0.022428543  0.022023948           10 
 3033000   0.76544218   -7.3379079    814.05274  0.022366544  0.022017821            5 
 3034000   0.76221857   -7.3313849    813.42317   0.02234188  0.022011661           16 
 3035000    0.7803265    -7.315857    814.66373  0.022368581  0.022005517            6 
 3036000   0.75205359   -7.3201113    816.37255  0.022408118  0.021999373            7 
 3037000   0.75924409   -7.3170294    814.91924  0.022360862  0.021993251            6 
 3038000   0.75006787   -7.3231294    815.46484  0.022368467  0.021987158            7 
 3039000   0.76016034   -7.3110452    815.65088  0.022366208  0.021981068            6 
 3040000   0.75908071   -7.2975022    814.78268  0.022335051  0.021974972           17 
 3041000   0.76510876   -7.3340431    814.20752  0.022311946  0.021968845           11 
 3042000   0.76324594     -7.30352    814.73418  0.022319038  0.021962717           11 
 3043000   0.77554435   -7.3241713    814.79948  0.022313492  0.021956557            7 
 3044000    0.7601289   -7.3254936    815.76427  0.022332574  0.021950401            4 
 3045000   0.74454842    -7.298243    817.34862  0.022368599  0.021944278            5 
 3046000   0.76057844   -7.3162207    814.48835  0.022283004  0.021938158            3 
 3047000   0.75092156   -7.3183471    815.46558  0.022302417  0.021932034            6 
 3048000   0.77232214   -7.3250763    814.19608  0.022260392  0.021925912            3 
 3049000   0.76599503   -7.3075179    815.12283   0.02227842  0.021919799           18 
 3050000   0.76494444   -7.3183915     815.8617  0.022291303  0.021913693           10 
 3051000   0.76631009   -7.3193239    815.34677  0.022269932  0.021907587            6 
 3052000   0.77985916   -7.3242098    817.20107  0.022313266  0.021901511            5 
 3053000   0.76892831   -7.3222757    816.11077  0.022276197   0.02189543            4 
 3054000   0.75730679   -7.3045035    816.58795  0.022281924  0.021889347            6 
 3055000   0.75289681    -7.300028    816.85069  0.022281797  0.021883268            6 
 3056000   0.76345138   -7.3237311    815.43604   0.02223593  0.021877207            9 
 3057000   0.76759676   -7.2915356    817.32406  0.022280124  0.021871158            6 
 3058000   0.76781768   -7.3252654    817.29456  0.022272034  0.021865085            7 
 3059000   0.78520503   -7.3306984    817.58918  0.022272779  0.021859022            4 
 3060000   0.76576031   -7.3401993    816.70238   0.02224135  0.021852961            6 
 3061000   0.77011727   -7.3387139    817.60089  0.022258545  0.021846899            6 
 3062000   0.75826443   -7.3317494    817.64831  0.022252567  0.021840824            8 
 3063000   0.77143815   -7.3094466     816.9026  0.022225014  0.021834741           13 
 3064000   0.76061818   -7.3268583    815.29293  0.022173981  0.021828661            5 
 3065000   0.75046518   -7.3377979    814.53609  0.022146169  0.021822552            4 
 3066000   0.76500301   -7.3275438    817.03797  0.022206946  0.021816423            5 
 3067000   0.75890209   -7.3443292    816.44347  0.022183553  0.021810297            4 
 3068000   0.75313216   -7.3266227    818.84399  0.022241525  0.021804189           14 
 3069000   0.76467212   -7.3433185    815.90051  0.022154353  0.021798069            4 
 3070000   0.77208396   -7.3231838    816.32183  0.022158573  0.021791948            5 
 3071000   0.75873415   -7.3386187    816.85314  0.022165775  0.021785829            6 
 3072000   0.76467941   -7.3295888    816.90383  0.022159935  0.021779726           11 
 3073000    0.7671125   -7.3332075     818.0782   0.02218457  0.021773665            6 
 3074000    0.7637228   -7.3078102    817.21615  0.022153984  0.021767561            5 
 3075000   0.76857001   -7.2988856    818.62085  0.022184847  0.021761473            4 
 3076000   0.75283198   -7.3110627    817.57358  0.022149263  0.021755382           11 
 3077000   0.75551679   -7.3487204    819.35338  0.022190266   0.02174926            4 
 3078000    0.7581827   -7.3403305    816.96192  0.022118311  0.021743125           11 
 3079000   0.76350277    -7.364532    814.27743  0.022038471  0.021736999           11 
 3080000   0.75836554   -7.3661684     815.2613  0.022057936  0.021730856            7 
 3081000   0.77978676   -7.3669783    814.52094  0.022030751  0.021724729            5 
 3082000   0.76300193   -7.3480812    816.11956  0.022066828  0.021718599            7 
 3083000   0.77133733    -7.340445     815.9431  0.022054901  0.021712452            5 
 3084000   0.76518734   -7.3331893    817.36776  0.022086245  0.021706331            5 
 3085000   0.74760621    -7.345238    816.18331  0.022047091  0.021700207            5 
 3086000   0.74656824   -7.3457412    817.97622  0.022088362  0.021694125            8 
 3087000   0.75318696   -7.3394277    818.32925  0.022090737  0.021688055           11 
 3088000   0.75138525   -7.3440289    818.16236  0.022079079  0.021681991           10 
 3089000   0.76727894    -7.347091    817.55519  0.022055552  0.021675943            6 
 3090000   0.74877077   -7.3728892    816.81522  0.022028458  0.021669873           13 
 3091000   0.75212323    -7.316104    820.54158  0.022121794  0.021663818           16 
 3092000   0.75137762   -7.3248174    819.49485  0.022086429  0.021657782            5 
 3093000   0.74563364   -7.3306363    817.92261  0.022036928  0.021651729            7 
 3094000   0.74092051   -7.3277506    818.92787  0.022056881  0.021645675            4 
 3095000   0.76550725   -7.3315925    817.48307  0.022010853  0.021639595            7 
 3096000   0.76841879    -7.320099    817.72553  0.022010269  0.021633512            6 
 3097000    0.7655351   -7.3248221    817.57644  0.021999151  0.021627431           10 
 3098000    0.7725979   -7.3477464    819.63605  0.022047451  0.021621348            9 
 3099000    0.7542917   -7.3358747    818.96583  0.022022314  0.021615254            7 
 3100000   0.74861108     -7.34229    817.30595   0.02197059  0.021609156            6 
 3101000   0.74953369   -7.3240901    817.78421  0.021976357  0.021603081            7 
 3102000    0.7491804    -7.325134    818.28702  0.021982781  0.021597034           15 
 3103000   0.75987326   -7.3432199    819.40074  0.022005606  0.021590952            5 
 3104000   0.75596914   -7.3304452    820.65498  0.022032189  0.021584866           12 
 3105000   0.74992879   -7.3354713    820.07136   0.02200943   0.02157879            4 
 3106000   0.76701832   -7.3415496    816.71101  0.021912186  0.021572722            5 
 3107000   0.75862029   -7.3273923    818.54268  0.021954261  0.021566673            6 
 3108000   0.75570448   -7.3158285    818.84185  0.021955219  0.021560627            4 
 3109000    0.7431583   -7.3461017    818.23087   0.02193178  0.021554533            8 
 3110000   0.75722267   -7.3583245    818.15836  0.021922786  0.021548447            9 
 3111000   0.73628936   -7.3372886    820.50945  0.021978717  0.021542355            4 
 3112000   0.74667664   -7.3501379    820.13102   0.02196152   0.02153624           12 
 3113000    0.7598946   -7.3445464    819.21723  0.021930004  0.021530137            7 
 3114000   0.75321189   -7.3259625     820.7293  0.021963426  0.021524071            5 
 3115000   0.77458001   -7.3582489    817.22273  0.021862566  0.021517996            9 
 3116000   0.74943257    -7.311107    819.28274  0.021910642  0.021511916           11 
 3117000   0.76063574   -7.3551731    818.84359  0.021891872  0.021505812            5 
 3118000    0.7682028   -7.3492414    818.49811  0.021875618   0.02149973            5 
 3119000   0.75939057   -7.3758592    820.58329  0.021924316  0.021493643            5 
 3120000   0.75418712   -7.3369992    817.27597  0.021828952  0.021487564            5 
 3121000   0.75990195   -7.3316234    818.71225  0.021860308  0.021481471            5 
 3122000   0.74956478   -7.3362589    818.06376  0.021835996  0.021475372            9 
 3123000   0.75575186   -7.3623509    819.39253  0.021864461  0.021469297            9 
 3124000    0.7458419   -7.3471822    819.13193   0.02185051  0.021463246            4 
 3125000   0.74637153   -7.3418369    818.32245  0.021821932  0.021457165           11 
 3126000   0.74669991   -7.3605743    818.04354  0.021807516  0.021451059            4 
 3127000    0.7641142   -7.3410616    817.04327  0.021773885  0.021444974            5 
 3128000   0.74693949   -7.3490065    819.53265  0.021833244  0.021438867            6 
 3129000   0.74684214   -7.3136104    819.99366  0.021838544  0.021432743            6 
 3130000   0.74127406    -7.369397    818.48742  0.021791465  0.021426668            8 
 3131000   0.75465537   -7.3601188    819.11052  0.021801089  0.021420559            9 
 3132000   0.73694062   -7.3328089    821.25792  0.021851264  0.021414482           18 
 3133000    0.7485905   -7.3550342    819.05488  0.021785692  0.021408418            9 
 3134000   0.75337178   -7.3771901    820.56613  0.021818925  0.021402312            5 
 3135000   0.74560212   -7.3619186    819.63924  0.021787327   0.02139619            4 
 3136000   0.73986847   -7.3907377      818.798  0.021758025  0.021390077            7 
 3137000   0.73039609   -7.3714012     819.3918  0.021766863  0.021383967           10 
 3138000   0.74983143   -7.3381275    819.06115  0.021751146   0.02137786            6 
 3139000   0.74556141   -7.3556101    819.10114  0.021745278  0.021371749           10 
 3140000   0.75735888   -7.3411331    821.52935  0.021802796  0.021365634            7 
 3141000   0.75494877   -7.3664864    819.06218  0.021730398  0.021359533            7 
 3142000   0.75393404   -7.3644253    817.17082  0.021673319  0.021353434            8 
 3143000   0.74683166    -7.356958    819.67183  0.021732735  0.021347338           12 
 3144000   0.74044721   -7.3811025    817.74807  0.021674832   0.02134121           10 
 3145000    0.7424311   -7.3734779    818.89851  0.021698424  0.021335119           19 
 3146000   0.73579096    -7.378806    817.39724   0.02165176  0.021328999            5 
 3147000   0.75243059   -7.3576611    819.45671  0.021699415  0.021322908            6 
 3148000   0.75180889   -7.3346123    821.02408  0.021734013  0.021316844           10 
 3149000   0.74569335   -7.3550999    821.88194  0.021749813  0.021310828           13 
 3150000   0.74416921   -7.3452041    821.62542  0.021736122  0.021304804            2 
 3151000   0.74405055   -7.3234369    820.25903  0.021693088  0.021298749            3 
 3152000   0.76478157   -7.3531319    821.37764  0.021715779  0.021292702            6 
 3153000   0.75019695    -7.346094    820.57146  0.021687585  0.021286616            5 
 3154000   0.75975664   -7.3796069    820.52063  0.021679366  0.021280543            7 
 3155000   0.75555543   -7.3780694     818.3217  0.021614414  0.021274486            8 
 3156000   0.74719054   -7.3583638     821.2207  0.021684112  0.021268434            9 
 3157000    0.7732154   -7.3569589    822.30282  0.021705808  0.021262376            2 
 3158000    0.7412152   -7.3688889    819.44914  0.021623632  0.021256324            8 
 3159000   0.73676587   -7.3883219     819.6962  0.021623304  0.021250248            6 
 3160000   0.75536641    -7.370816    818.31102  0.021579932  0.021244156            4 
 3161000    0.7628802   -7.3603958    818.65024  0.021582048  0.021238055            6 
 3162000   0.75185329   -7.3676949    820.86117  0.021633491  0.021231952            5 
 3163000   0.74778634   -7.3771983    819.61595  0.021593844  0.021225862            9 
 3164000   0.73661815   -7.3987855    821.02434  0.021624113  0.021219773            6 
 3165000   0.75124313   -7.3780833    817.24448  0.021517759  0.021213648            6 
 3166000   0.75033535   -7.3822053    818.46781  0.021543162  0.021207509            8 
 3167000   0.76408824   -7.3540856    822.67163  0.021646975  0.021201391            7 
 3168000   0.74063112   -7.3798968    820.07252  0.021571773  0.021195265           17 
 3169000   0.76810975   -7.3793337    819.55279  0.021551299  0.021189137           21 
 3170000   0.74801059   -7.3820798    818.43748  0.021515181  0.021183011            8 
 3171000   0.75311771   -7.3699058    821.23305  0.021581863  0.021176903            5 
 3172000   0.74657349   -7.3525183    820.81623  0.021564108  0.021170803            6 
 3173000   0.75248093   -7.3613657    819.61463  0.021525754  0.021164737           10 
 3174000   0.75467222   -7.3332831    820.53995  0.021543267  0.021158669            7 
 3175000   0.76475772   -7.3510404     820.0221   0.02152289  0.021152607            5 
 3176000   0.73248582   -7.3644841    819.98682  0.021515187  0.021146552           19 
 3177000   0.73334917   -7.3673768    821.53899  0.021549129  0.021140502           10 
 3178000   0.75012998   -7.3515832    819.10273  0.021478465  0.021134445            4 
 3179000   0.75465675   -7.3545692    821.46341   0.02153359  0.021128391            5 
 3180000   0.72449289   -7.3633633    821.27081  0.021521772   0.02112233           13 
 3181000   0.74767092   -7.3796313    820.21955  0.021487466  0.021116249            9 
 3182000   0.75142778   -7.4045258    821.19941  0.021506375  0.021110149           11 
 3183000   0.73676044   -7.3753995    821.19352  0.021499464  0.021104054            7 
 3184000   0.73157393   -7.3743834    819.48471  0.021447987  0.021097959            4 
 3185000   0.72757423    -7.395075    819.43993  0.021440082   0.02109186            6 
 3186000   0.74859488   -7.3621124    821.19191  0.021479177  0.021085769            7 
 3187000   0.74316464   -7.3434123    822.47166  0.021505901  0.021079693            4 
 3188000   0.71891934   -7.3864217    821.18027  0.021465398  0.021073581            5 
 3189000    0.7499231   -7.3650201    820.05665  0.021429305  0.021067486            8 
 3190000   0.75376033   -7.3454457    821.96415  0.021472418  0.021061416            5 
 3191000   0.73397633   -7.4022379    821.08344  0.021442689  0.021055366            9 
 3192000   0.73655483   -7.3858205     819.9097  0.021405329  0.021049285            9 
 3193000   0.74060345   -7.3720355    820.22796  0.021406931  0.021043218            9 
 3194000   0.74478463   -7.3793694    822.48671  0.021459161  0.021037141            8 
 3195000   0.75013739   -7.3647107    820.35998  0.021396974  0.021031071            8 
 3196000   0.73768241   -7.3606095    818.74584  0.021348191  0.021024983            7 
 3197000   0.76110022   -7.3701556    823.08163  0.021454531  0.021018916           13 
 3198000   0.73446262   -7.3851496    820.86337  0.021390019  0.021012867            4 
 3199000   0.72865396   -7.3593339    822.08058  0.021415041  0.021006794            9 
 3200000   0.74260195   -7.3723783    823.25969  0.021439054  0.021000754           19 
 3201000    0.7277133   -7.3448738    821.68947  0.021391479  0.020994721            5 
 3202000   0.74099437   -7.3570017    822.15651  0.021396953  0.020988679            3 
 3203000   0.73667301   -7.3810012     822.2439  0.021392546  0.020982647            5 
 3204000   0.72501652   -7.3934401    822.33209  0.021388163  0.020976589           12 
 3205000   0.75956729   -7.3796184    821.99262  0.021372663  0.020970546            6 
 3206000   0.73900594    -7.395116    822.90704  0.021389765  0.020964524            8 
 3207000   0.72906906    -7.380737    821.98917  0.021359245  0.020958502            5 
 3208000   0.74899518   -7.3793996    822.73309  0.021371911  0.020952515           11 
 3209000   0.75131414   -7.3552812     822.8489  0.021368259  0.020946547            5 
 3210000   0.73633931   -7.3585256    821.69028  0.021331523  0.020940539            4 
 3211000   0.74635809   -7.3609743    822.58344   0.02134806  0.020934536            7 
 3212000   0.72777667   -7.3257805    823.64518   0.02136896  0.020928545            8 
 3213000    0.7425868   -7.3711815    823.68794  0.021363418  0.020922557            7 
 3214000    0.7349729   -7.3597548    821.86148  0.021309414  0.020916574           10 
 3215000   0.74032822   -7.3668701    822.43902  0.021317756  0.020910592            6 
 3216000   0.72139191   -7.3667795    821.91272   0.02129749  0.020904604            4 
 3217000   0.72811172   -7.3561285    823.00732  0.021319224  0.020898626            4 
 3218000   0.72674042   -7.3665913    823.16941  0.021316796  0.020892639            6 
 3219000   0.73719338   -7.3684182    822.78507  0.021300224  0.020886639            9 
 3220000    0.7341582   -7.3827163    823.59637  0.021314606  0.020880646            9 
 3221000   0.73518347   -7.3553679    823.35608  0.021301772  0.020874615            7 
 3222000   0.74903871   -7.3745682    822.32889  0.021268593  0.020868602            4 
 3223000   0.73600179   -7.3894551    822.66264  0.021270624  0.020862571            4 
 3224000   0.72681582   -7.3610518    823.31987  0.021281014  0.020856557            8 
 3225000   0.71926625   -7.3874293    823.29232  0.021273703   0.02085053            5 
 3226000   0.73182307   -7.3741168    822.30874  0.021241701   0.02084448           15 
 3227000   0.74175393   -7.3634274    822.32972  0.021235661  0.020838448            7 
 3228000   0.74438353    -7.376458    822.79658  0.021241134   0.02083242            5 
 3229000   0.73645366   -7.3942153    822.53344  0.021227765  0.020826402            7 
 3230000   0.72984852   -7.4117711     823.3843  0.021243145  0.020820409           11 
 3231000   0.73409769   -7.3740979    825.02888  0.021278987  0.020814418           11 
 3232000   0.72029125   -7.3892971    822.74824  0.021213599  0.020808414           12 
 3233000    0.7572229   -7.3773094    824.46089  0.021251183  0.020802417            7 
 3234000   0.73577464   -7.4100625    823.43196  0.021218098   0.02079642            6 
 3235000   0.72666333    -7.390434    822.33166  0.021183196  0.020790412            9 
 3236000   0.72852853   -7.3723011    822.69146  0.021185915  0.020784399            6 
 3237000   0.74431008   -7.3717959    823.67942  0.021204804  0.020778397            3 
 3238000   0.74349998   -7.3827888    822.50656  0.021168071  0.020772397           11 
 3239000   0.74316185    -7.379074    823.30835  0.021182164  0.020766387           14 
 3240000   0.74815031   -7.4134879    822.37754  0.021151686  0.020760374           14 
 3241000   0.72844044   -7.3825648    822.03035  0.021136232   0.02075435           11 
 3242000   0.74460891   -7.3908965    822.87142  0.021151332  0.020748338            8 
 3243000   0.73271659   -7.3912287    823.80072   0.02116869   0.02074233            7 
 3244000   0.72853938   -7.3856116    822.39894  0.021126154  0.020736326            7 
 3245000   0.71716756   -7.3834232    823.59936  0.021150471   0.02073032            8 
 3246000   0.72706529   -7.4105604    824.65724  0.021171114  0.020724311           11 
 3247000   0.72369171   -7.4136394    821.96678  0.021095544  0.020718297           10 
 3248000   0.73282864   -7.4067435    823.40166  0.021125864  0.020712278            5 
 3249000   0.71907842   -7.4089303    822.35249  0.021092451  0.020706249            4 
 3250000   0.72710222   -7.3980924    823.39759  0.021112759  0.020700217            5 
 3251000   0.73516995   -7.4272364     821.9025  0.021067941  0.020694189           12 
 3252000   0.72897017   -7.4096172     823.5453  0.021103559  0.020688147           13 
 3253000   0.73578013   -7.4064274    824.51266  0.021121853  0.020682122           10 
 3254000   0.72167432   -7.3877114      822.316  0.021059107   0.02067612           12 
 3255000   0.74263332   -7.4216191     822.3027  0.021052297  0.020670111            5 
 3256000   0.73763124   -7.3935987    822.67587  0.021055382  0.020664108            8 
 3257000   0.73825705   -7.3828274    824.17656  0.021087313  0.020658097            6 
 3258000    0.7380595   -7.3765096    823.78784  0.021070898  0.020652084            4 
 3259000   0.73008287   -7.3908073    823.23306  0.021050247  0.020646088            4 
 3260000   0.72795535   -7.4210572    823.48524  0.021050236  0.020640088            5 
 3261000   0.72739525   -7.3997066    821.94173  0.021004337  0.020634088            9 
 3262000   0.72132402   -7.4024809    823.60726  0.021040447  0.020628068           15 
 3263000   0.74585465   -7.3921501    823.77192  0.021038204  0.020622069            4 
 3264000   0.71995631   -7.3940104    822.53359  0.021000143  0.020616052            8 
 3265000   0.73164772   -7.4054023    822.28959  0.020987483  0.020610024            9 
 3266000   0.73201213   -7.4121119    823.50643  0.021012105  0.020603988            9 
 3267000   0.71343612   -7.4076226    824.41049  0.021028734  0.020597965            7 
 3268000   0.74550237   -7.4090478    823.86813  0.021008469  0.020591944            5 
 3269000   0.73053508   -7.4131471    823.09423  0.020982314  0.020585925            5 
 3270000   0.72356071   -7.3975285     823.6692   0.02099055  0.020579931            4 
 3271000   0.72575343   -7.3857586    823.74558  0.020986079  0.020573926           12 
 3272000   0.73963854   -7.4183339    823.09404  0.020963071  0.020567909           10 
 3273000    0.7141952   -7.4126511    823.27066  0.020961163  0.020561907            8 
 3274000   0.73689166   -7.3813143    824.83153   0.02099449  0.020555921           10 
 3275000   0.73479613   -7.4037097    824.32855  0.020975281   0.02054993            8 
 3276000   0.73961826   -7.3927586    823.88183  0.020957515  0.020543934           10 
 3277000    0.7253215   -7.3837547    823.25739   0.02093524  0.020537924           24 
 3278000   0.71387598    -7.394452    824.40069  0.020957919  0.020531918            5 
 3279000   0.73210584   -7.4052445    825.55157  0.020980776  0.020525929            7 
 3280000    0.7204098   -7.4041108    824.11869  0.020937975  0.020519931            7 
 3281000    0.7287022   -7.4025085     823.5587   0.02091737  0.020513942            6 
 3282000   0.73830846   -7.3906806    824.22782  0.020927987  0.020507964            7 
 3283000   0.73346735    -7.406403    824.57519  0.020930429  0.020501959            6 
 3284000   0.72867711   -7.3961976    821.67156  0.020850374  0.020495966            8 
 3285000   0.71450411    -7.386548     825.3364  0.020936996  0.020489957            5 
 3286000   0.73560312   -7.4063803    825.34955  0.020930958  0.020483965            6 
 3287000   0.70329116   -7.4184448     825.1211  0.020918799  0.020477976            6 
 3288000   0.71987897   -7.4003912    825.26319  0.020916038  0.020471992            5 
 3289000   0.72243796   -7.3984278    824.91473  0.020900849  0.020466029            8 
 3290000   0.72034111   -7.4069576    825.16121   0.02090074  0.020460025            9 
 3291000   0.70425772   -7.4250458    823.75982  0.020858904  0.020454032            4 
 3292000   0.72630137   -7.4128659    825.17263  0.020888331  0.020448048            6 
 3293000    0.7460025   -7.4145934    824.53512  0.020865855  0.020442058            9 
 3294000   0.73327736   -7.4205514    824.36285  0.020855162  0.020436067           19 
 3295000   0.72175123   -7.4270741    824.11867  0.020842657  0.020430071            8 
 3296000    0.7260076   -7.4147186    825.86899  0.020880587  0.020424079            4 
 3297000   0.72294326   -7.4167776    825.88722  0.020874715    0.0204181           11 
 3298000    0.7382632   -7.4233366    825.30002  0.020853548  0.020412134            4 
 3299000    0.7238454   -7.4046986    825.39006  0.020849501  0.020406168            4 
 3300000   0.72413298   -7.3854697    825.49337  0.020845792  0.020400211           10 
 3301000   0.71204123   -7.4042236    826.06153   0.02085382  0.020394256            6 
 3302000   0.73514158   -7.4474528    825.03121  0.020821502  0.020388289           14 
 3303000   0.71240792   -7.4251882    823.96165  0.020788214  0.020382318            9 
 3304000   0.73125696   -7.3875102    824.16118  0.020786955  0.020376371            6 
 3305000   0.71335875   -7.4242966    824.75511  0.020795641   0.02037045            8 
 3306000   0.72006586    -7.397704    824.90807  0.020793206  0.020364523            6 
 3307000   0.73351186   -7.4029546    826.86989  0.020836354  0.020358593            4 
 3308000   0.73208553   -7.3930239    826.32999  0.020816455  0.020352665           12 
 3309000   0.70470492   -7.4103549    825.22988  0.020782459  0.020346732           12 
 3310000   0.69896619   -7.4352889    826.40577  0.020805785  0.020340799            8 
 3311000   0.72516658    -7.422557    823.14805  0.020717509  0.020334868            9 
 3312000   0.71138345   -7.4391386    823.23301  0.020713391  0.020328934            7 
 3313000   0.72005359    -7.408088     827.2377  0.020807871  0.020323006            9 
 3314000   0.71745536   -7.4138145     826.6007  0.020785574  0.020317073           23 
 3315000   0.71920988   -7.4265299    824.48763  0.020726185  0.020311154           13 
 3316000   0.72417388   -7.4119492    826.31109  0.020765759  0.020305219            6 
 3317000   0.72652816   -7.4296289    825.38179  0.020736152  0.020299283           12 
 3318000   0.73138439   -7.4494025    825.34483  0.020728974  0.020293354            8 
 3319000   0.72750204    -7.414501    825.98998  0.020738927  0.020287444           14 
 3320000    0.7139172    -7.434644    826.85877  0.020754487  0.020281534            9 
 3321000   0.71830201   -7.4198828    825.75011  0.020720418  0.020275647           16 
 3322000   0.72839263   -7.4237429    827.64252  0.020761653  0.020269751           14 
 3323000   0.72194957   -7.3999313    828.00353  0.020764458  0.020263877            9 
 3324000    0.7172063   -7.3982075    827.68656  0.020750265  0.020257987           10 
 3325000     0.731934    -7.429538    825.96118  0.020700781  0.020252091           12 
 3326000   0.74446724   -7.4318619     825.6912  0.020687793  0.020246186            8 
 3327000   0.72576127   -7.4037483    826.70203  0.020706894  0.020240292           20 
 3328000   0.72706165   -7.4203806    826.63724  0.020699049    0.0202344           18 
 3329000   0.71257272   -7.4447617    825.73485  0.020670242  0.020228488           14 
 3330000   0.71865934   -7.4056897    827.65566  0.020712104  0.020222598           14 
 3331000   0.72307628   -7.4245011    826.92587  0.020687628  0.020216697           15 
 3332000   0.71538342    -7.411249    827.07992  0.020685272  0.020210802            5 
 3333000   0.72840157   -7.4006629    825.72225  0.020645121  0.020204916            8 
 3334000   0.73023603   -7.4143119    827.54025  0.020684369   0.02019904            6 
 3335000   0.73458229   -7.3892219    826.87662  0.020661585  0.020193155            9 
 3336000   0.71383136   -7.4115853    824.56703  0.020597698   0.02018726            6 
 3337000   0.71756222   -7.4233944    827.41681  0.020662691  0.020181362            5 
 3338000   0.71893346   -7.4156698     826.5887  0.020635827   0.02017545            6 
 3339000   0.73004426   -7.4241026    825.43371  0.020600821  0.020169535            7 
 3340000    0.7142625   -7.3996666    827.30514  0.020641346  0.020163622           13 
 3341000   0.70547526   -7.4180218    826.15047  0.020606367  0.020157707           11 
 3342000   0.71982542   -7.3947225    826.03946  0.020597433  0.020151817           14 
 3343000   0.72062045   -7.3863316    825.72109  0.020583335  0.020145921            4 
 3344000   0.70638924   -7.4144635    826.54252   0.02059765  0.020140048           13 
 3345000   0.70686806   -7.4317822    826.27514  0.020584832  0.020134154           13 
 3346000   0.69788845   -7.4417325    825.08295  0.020548988  0.020128258            6 
 3347000   0.71436824   -7.4158214    826.97445  0.020589943  0.020122347            9 
 3348000   0.72423871   -7.4030277    826.52173  0.020572524   0.02011646            7 
 3349000   0.72005848   -7.3823079     827.1297  0.020581509  0.020110568            9 
 3350000   0.71101011   -7.4061804    826.02182  0.020547807  0.020104675           15 
 3351000   0.71705714   -7.4050342    825.88163  0.020538188  0.020098792            7 
 3352000   0.72649364   -7.4181908    826.88599   0.02055703  0.020092889           13 
 3353000   0.72887653   -7.4156223     827.1068  0.020556387  0.020086989            6 
 3354000   0.70691698   -7.4248287    826.97065  0.020546876  0.020081085            9 
 3355000   0.71459376   -7.4232008    826.83081  0.020537278  0.020075174            6 
 3356000   0.72737327   -7.4039938     828.1364  0.020563578  0.020069273            8 
 3357000   0.72879023   -7.4203842    825.76201  0.020498511  0.020063369            6 
 3358000   0.72040364   -7.4280038    826.89138  0.020520433  0.020057448           12 
 3359000   0.70928191   -7.4190061    826.87367  0.020513885   0.02005154            5 
 3360000   0.71459061   -7.4107341     824.9046  0.020458943  0.020045638           16 
 3361000   0.72547559   -7.4181575    825.86906  0.020476769  0.020039738            8 
 3362000   0.71703316    -7.402714    827.08075  0.020500713   0.02003385            8 
 3363000   0.70827217   -7.4417117    827.00416  0.020492719  0.020027952            3 
 3364000    0.7055141   -7.4222866    825.98062  0.020461272  0.020022069            9 
 3365000   0.71969133   -7.4258854    826.30103  0.020463126  0.020016165            7 
 3366000   0.71796318   -7.4332429    824.94848  0.020423561   0.02001025            8 
 3367000   0.71841501    -7.449471    826.20782  0.020448664  0.020004328           13 
 3368000   0.70283491   -7.4330321    826.99063  0.020461961  0.019998425           10 
 3369000   0.72903106   -7.4255564    828.74255  0.020499222  0.019992536            6 
 3370000   0.72121498   -7.4265784    829.04895  0.020500716  0.019986647            7 
 3371000   0.71971292   -7.4155375    826.56558  0.020433244  0.019980751            6 
 3372000   0.71663925   -7.4420349     825.9451   0.02041185  0.019974833            4 
 3373000   0.69561444   -7.4384543    827.05452  0.020433208  0.019968922            6 
 3374000   0.71262444   -7.4298858    826.22576  0.020406683  0.019963006            6 
 3375000   0.70635319   -7.4348826    825.62649  0.020385839  0.019957107            9 
 3376000   0.71870584   -7.4371918    827.00923  0.020413932  0.019951201            8 
 3377000   0.72065919   -7.4409255    827.16477  0.020411726  0.019945313           10 
 3378000   0.69709707   -7.4571273    828.17446  0.020430591  0.019939408            6 
 3379000   0.71019141   -7.4328974     826.5159  0.020383642  0.019933487            7 
 3380000   0.71619561   -7.4379754    826.94495  0.020388189  0.019927563            5 
 3381000   0.69358582   -7.4587181    827.28953  0.020390652  0.019921647            7 
 3382000   0.69945286   -7.4395277    827.30863  0.020385093  0.019915745            7 
 3383000   0.70667655   -7.4539781    826.46984  0.020358406  0.019909849            6 
 3384000   0.72776433   -7.4386459     827.6862  0.020382343  0.019903945            9 
 3385000   0.72417942    -7.426497    828.16651  0.020388147  0.019898035            4 
 3386000   0.71588139   -7.4652651    825.78883  0.020323608  0.019892128            4 
 3387000   0.70823466   -7.4339883    826.28601   0.02032984  0.019886236            6 
 3388000   0.70922349   -7.4479551    827.53219  0.020354491  0.019880364            9 
 3389000   0.69961479   -7.4563154    826.28464  0.020317808  0.019874478           17 
 3390000    0.7256937   -7.4240131    828.18078  0.020358426  0.019868608            6 
 3391000   0.69662775   -7.4491461    826.60656  0.020313736  0.019862714           10 
 3392000   0.70915152   -7.4391969    829.12223  0.020369552  0.019856835            7 
 3393000   0.71599364   -7.4353706    827.30071  0.020318811  0.019850973            4 
 3394000   0.72196512   -7.4475826    827.45296  0.020316562  0.019845108            4 
 3395000   0.72301154   -7.4285737     826.6333  0.020290459  0.019839231            4 
 3396000   0.71108678   -7.4541521    827.06155  0.020294993  0.019833369            9 
 3397000   0.70730071   -7.4231622    826.95141  0.020286317  0.019827501            7 
 3398000   0.70547923   -7.4616391    826.36233    0.0202659   0.01982163           13 
 3399000   0.70695671   -7.4239092    829.20714  0.020329684  0.019815751           20 
 3400000   0.68738362    -7.433916    827.52556  0.020282489  0.019809897           23 
 3401000   0.71778949   -7.3965578    826.02873  0.020239849  0.019804023           28 
 3402000   0.71277476   -7.4401802    827.74676  0.020275984  0.019798141           11 
 3403000   0.72054085    -7.444277    828.06806  0.020277893  0.019792244           15 
 3404000   0.71808992   -7.4399814    826.53283  0.020234352  0.019786335           20 
 3405000   0.69363673   -7.4516135    824.61837  0.020181556  0.019780424           13 
 3406000   0.70763954   -7.4640815    825.46811  0.020196421  0.019774514           15 
 3407000   0.70254327   -7.4369246    826.82227  0.020223615  0.019768605           21 
 3408000   0.70181164   -7.4255545    827.98093  0.020246012  0.019762694           12 
 3409000   0.71779316   -7.4491377    827.56345  0.020229868  0.019756792           10 
 3410000   0.70866191   -7.4510436    826.71191  0.020203126   0.01975088            9 
 3411000   0.71977054   -7.4436459    827.17706  0.020208567  0.019744969           12 
 3412000   0.71995913   -7.4409404    826.54829  0.020187287  0.019739075            8 
 3413000   0.68903916   -7.4326363    828.03284   0.02021762  0.019733186           19 
 3414000   0.71118031   -7.4825962    825.05065  0.020138905  0.019727277           10 
 3415000   0.69501308   -7.4569521    826.69556  0.020173147   0.01972137           13 
 3416000   0.70535472    -7.436103    827.24465  0.020180637  0.019715461           10 
 3417000   0.70883779    -7.439883    826.43388  0.020154958  0.019709573            5 
 3418000   0.70146002    -7.429565    826.96924  0.020162113  0.019703677            8 
 3419000   0.69690578   -7.4433037    827.05406  0.020158284  0.019697751           14 
 3420000   0.70312996   -7.4522656    826.52009  0.020139378  0.019691822            7 
 3421000   0.71377965   -7.4417464    826.58159   0.02013499  0.019685914            7 
 3422000   0.69447605   -7.4331864    827.48778  0.020151173  0.019680029            8 
 3423000   0.69612517   -7.4418179    828.25871  0.020164055  0.019674157           10 
 3424000   0.72180388   -7.4484868    827.02528  0.020128146  0.019668299            9 
 3425000   0.70060067   -7.4159117    828.93874  0.020168826  0.019662443            3 
 3426000   0.70952661   -7.4562035    826.76282  0.020110012   0.01965659            9 
 3427000   0.68153567   -7.4524836     827.9434  0.020132852  0.019650729           14 
 3428000   0.70735662   -7.4539622    827.69052  0.020120831  0.019644867            6 
 3429000   0.70625656   -7.4569753    828.34622  0.020130899  0.019639002            6 
 3430000   0.72270851   -7.4520713    828.43462  0.020127177  0.019633138           12 
 3431000   0.69845143   -7.4633951    826.90101  0.020084062  0.019627277            7 
 3432000   0.68087104   -7.4830583    828.38994  0.020114363   0.01962142           10 
 3433000   0.69724848   -7.4454074    826.52078  0.020063132  0.019615554            4 
 3434000   0.71760199   -7.4504229    828.39092  0.020102672  0.019609681           11 
 3435000   0.68544836   -7.4700657    828.16019  0.020091222  0.019603813            5 
 3436000   0.70705502    -7.484139    828.60484  0.020096159  0.019597936           18 
 3437000   0.69566554   -7.4401896    827.89591  0.020073124  0.019592057           10 
 3438000   0.69644312   -7.4610159    826.31453  0.020028954  0.019586166           12 
 3439000    0.7052395    -7.473449      826.855  0.020036227  0.019580258            7 
 3440000   0.69847209   -7.4568152      826.998  0.020033866  0.019574366            9 
 3441000   0.69809455   -7.4941536    826.64895  0.020019591  0.019568467           10 
 3442000   0.68125754    -7.457341    827.38275  0.020031541  0.019562576            9 
 3443000   0.68798998   -7.4580124    827.10656  0.020019038  0.019556681            7 
 3444000   0.70315611    -7.457108    826.64847  0.020002141  0.019550775           11 
 3445000    0.6793965   -7.4764064    827.35523  0.020013431  0.019544901            8 
 3446000   0.70286431   -7.4700847    827.29164  0.020006085   0.01953901            6 
 3447000   0.69263338   -7.4542555    827.82478   0.02001317  0.019533133           11 
 3448000    0.6922796   -7.4923314    825.79249  0.019958248  0.019527245           17 
 3449000   0.70724177   -7.4731278    825.84956  0.019953841  0.019521355           11 
 3450000   0.70318697   -7.4777472    826.70451  0.019968708  0.019515477            8 
 3451000   0.68963326   -7.4837234    827.65581  0.019985893  0.019509586           10 
 3452000   0.69566496   -7.4716025    826.54502  0.019953288  0.019503697            6 
 3453000   0.69564242   -7.4575828    824.91785  0.019908241  0.019497808           10 
 3454000   0.70669784   -7.4514622     826.1741  0.019932786  0.019491912           11 
 3455000    0.6946028   -7.4454509    827.60582  0.019961549  0.019486037           11 
 3456000     0.720145   -7.4779949    828.60136  0.019979778  0.019480171            5 
 3457000   0.71010755   -7.4583673    826.10508  0.019913824    0.0194743           16 
 3458000   0.69818848   -7.4831399     828.0366  0.019954612   0.01946843           20 
 3459000   0.69134376   -7.4685273     828.2114  0.019953055  0.019462554            5 
 3460000   0.70750788    -7.475763    826.32059  0.019901748  0.019456693            5 
 3461000   0.70112462   -7.4612388    827.86257  0.019933125  0.019450827            9 
 3462000   0.69924142     -7.46386    827.70884  0.019923667  0.019444979           12 
 3463000   0.69011008   -7.4710265    826.86521  0.019897613  0.019439119           13 
 3464000   0.68397714    -7.452019    826.72456  0.019888485   0.01943326            5 
 3465000   0.70793866   -7.4760889     828.0111  0.019913687  0.019427383           16 
 3466000   0.70291766   -7.4758724    825.55113  0.019848796  0.019421499           19 
 3467000   0.69032157   -7.4746656     825.5311   0.01984259  0.019415627           15 
 3468000   0.70901367   -7.4832546    827.83378    0.0198922  0.019409735            8 
 3469000   0.69464461   -7.4639016    826.00746  0.019842593  0.019403844            7 
 3470000   0.70078844   -7.4563841    828.04592  0.019885829  0.019397966           10 
 3471000   0.69464496   -7.4642428    828.33696  0.019887087  0.019392091           15 
 3472000   0.70001971    -7.458657    827.02326  0.019849829  0.019386208           19 
 3473000   0.68957222   -7.4740702    827.59493   0.01985783  0.019380343           13 
 3474000   0.70913215    -7.466835    827.46011   0.01984888    0.0193745           25 
 3475000    0.6835674    -7.480716    829.34251   0.01988831  0.019368652            9 
 3476000   0.69154932   -7.4797645    827.65655  0.019842169  0.019362786            9 
 3477000   0.69482085   -7.4703992    826.22793  0.019802222  0.019356915            6 
 3478000   0.70827456   -7.4622171    827.41392  0.019824945  0.019351056           12 
 3479000   0.69577914   -7.4712387    828.29586  0.019840372  0.019345196           28 
 3480000   0.69684904   -7.4767919    826.85139  0.019800081  0.019339345           36 
 3481000   0.69564845   -7.4790981    826.03433  0.019774833  0.019333482            7 
 3482000   0.68576772   -7.4983298    826.10208  0.019770775  0.019327592           20 
 3483000   0.70373583   -7.4773663    827.13774  0.019789878  0.019321712            5 
 3484000   0.69545886   -7.4941531    825.35277  0.019741503  0.019315831            9 
 3485000   0.68220261   -7.4611725     827.8916  0.019796547  0.019309953            7 
 3486000   0.70403947   -7.4844921    826.41972  0.019755683  0.019304067           10 
 3487000   0.69187524   -7.4622203    827.14616  0.019767378   0.01929819            6 
 3488000   0.69956094   -7.4896714    825.86717  0.019731154  0.019292314            9 
 3489000    0.7084142    -7.462324    827.06341   0.01975407  0.019286456            7 
 3490000   0.69774052   -7.4683743    827.22222  0.019752202  0.019280605            8 
 3491000   0.69841952   -7.4605391    828.18478  0.019769521  0.019274767           14 
 3492000   0.70051831    -7.445305    829.38023  0.019792388  0.019268961            6 
 3493000   0.68990516   -7.4577649    827.73418  0.019747452  0.019263116           32 
 3494000    0.6905254   -7.4726589    828.05011  0.019749335  0.019257257            5 
 3495000   0.68261673   -7.4861543    826.60699  0.019709275  0.019251412            8 
 3496000   0.68035616   -7.4751355    826.89369  0.019710471  0.019245576           27 
 3497000   0.68319401   -7.4853894     827.4394  0.019717839  0.019239725           10 
 3498000   0.68417351   -7.4892627    826.53176  0.019690579   0.01923385            9 
 3499000   0.69132626   -7.5259915    826.73042  0.019689683  0.019227984           11 
 3500000   0.68759245   -7.4575395    827.34586  0.019698711  0.019222118           14 
 3501000   0.68608591   -7.4548866    827.87926  0.019705781  0.019216267           11 
 3502000   0.68327824   -7.4851827    825.00937  0.019631862  0.019210409           15 
 3503000    0.6801817   -7.4751057    826.15222  0.019653445  0.019204549           12 
 3504000   0.68400762   -7.4581498    830.22628  0.019744727  0.019198711           16 
 3505000   0.69793354   -7.4730136    828.20573  0.019691054    0.0191929           10 
 3506000   0.70383932   -7.4797019    828.61376  0.019695136  0.019187076           11 
 3507000   0.69128802   -7.4705948    827.85748  0.019671549  0.019181235            6 
 3508000   0.70634337   -7.4653489    825.69244  0.019614511  0.019175392           10 
 3509000   0.67977195   -7.4693965    826.57754  0.019629941  0.019169551            5 
 3510000   0.68790998   -7.4820642    826.97753  0.019633845  0.019163713            9 
 3511000   0.67899044   -7.5034344     826.2414   0.01961078   0.01915787            6 
 3512000   0.68700279    -7.497298     828.2466  0.019652776  0.019152037           10 
 3513000   0.70203865   -7.4607927    827.85335  0.019637853   0.01914622            5 
 3514000   0.69583301    -7.465021    827.96944  0.019635018   0.01914041            8 
 3515000   0.69211602   -7.4765746    828.32753  0.019637922  0.019134605            6 
 3516000   0.68911961   -7.4787311    828.48948  0.019636175  0.019128803            5 
 3517000   0.70090177   -7.4719909     827.3723   0.01960412  0.019123024            6 
 3518000   0.69105993   -7.5019365    828.65606  0.019628957  0.019117217            6 
 3519000   0.68599846   -7.4861675     829.2276  0.019636914  0.019111397           17 
 3520000   0.69115203   -7.4468338    829.17295  0.019630041  0.019105604            7 
 3521000   0.68596385     -7.47237    826.38092  0.019558386  0.019099796           16 
 3522000   0.68919331   -7.4771686    827.08426  0.019569474  0.019093989            6 
 3523000   0.68117211   -7.4805729     828.1913  0.019590105   0.01908819            9 
 3524000   0.68469013   -7.5109934    826.98843  0.019556102  0.019082377           15 
 3525000   0.69550762   -7.4917112    827.64627  0.019566106  0.019076563            8 
 3526000    0.6769768   -7.4959823    828.10912  0.019571496  0.019070741           13 
 3527000    0.6901886     -7.48233    827.46155  0.019550646  0.019064919            6 
 3528000   0.68356503   -7.4943934    827.05954  0.019535609   0.01905909           11 
 3529000   0.69303378   -7.4880288    828.12592  0.019555255  0.019053262           12 
 3530000   0.69264111   -7.5077585    827.98878  0.019546477  0.019047448           15 
 3531000   0.68677453   -7.5151746    827.47842  0.019528897  0.019041625           15 
 3532000   0.68457786   -7.4853606    826.79826   0.01950732  0.019035802           21 
 3533000   0.67844954   -7.4879814     827.5898  0.019520469  0.019029999           13 
 3534000   0.67858114   -7.5047553      828.127  0.019527613  0.019024213            9 
 3535000   0.68287988   -7.4777125    828.74685  0.019536701  0.019018442           14 
 3536000   0.70316558   -7.4889751    829.24777  0.019542981  0.019012672           31 
 3537000   0.69268224   -7.4791278    827.67041  0.019500292  0.019006904            9 
 3538000   0.68946386   -7.5090267    829.93346  0.019548084  0.019001127            5 
 3539000    0.6812779   -7.5032081    829.77695  0.019538875  0.018995326            6 
 3540000   0.68856791   -7.4821743    828.21932  0.019496688  0.018989542            7 
 3541000   0.68639537   -7.5067958    826.96072  0.019461563  0.018983744           10 
 3542000   0.69293328   -7.4769566    828.00819  0.019480712  0.018977942           14 
 3543000   0.70948634   -7.5027096    827.76766  0.019469556  0.018972156            7 
 3544000   0.70511172   -7.4752581    828.26422  0.019475739  0.018966391           11 
 3545000   0.67985392   -7.4939548    826.89543  0.019438068   0.01896061            5 
 3546000   0.68217845   -7.4916263    827.53937   0.01944772  0.018954829            8 
 3547000   0.68324175   -7.5159714    830.82214  0.019519362  0.018949071            9 
 3548000    0.6958562   -7.5070608    828.49203  0.019459133  0.018943297            8 
 3549000    0.6936465   -7.5135847    828.43975  0.019452422  0.018937527           13 
 3550000   0.67372838   -7.4986897     826.7461  0.019407185  0.018931754            7 
 3551000   0.67646328   -7.5135275    829.63704  0.019469563  0.018925986            6 
 3552000   0.68132427   -7.5061291    827.13418  0.019405363  0.018920207           27 
 3553000   0.68239982   -7.4972686    829.27127  0.019450025  0.018914442           12 
 3554000   0.68195046   -7.5320373    829.17108  0.019442203  0.018908691            7 
 3555000   0.67211486   -7.4974441    829.11139  0.019435335  0.018902924            7 
 3556000    0.6871596    -7.508727    829.00541  0.019427386  0.018897155            9 
 3557000   0.68588438   -7.5039961    827.96204   0.01939748   0.01889139           13 
 3558000   0.68477036   -7.4850851    828.49392  0.019404486  0.018885622            8 
 3559000   0.68374298   -7.5126675    829.12478  0.019413805  0.018879879            9 
 3560000   0.67697799   -7.4936049    827.20188   0.01936334  0.018874148           22 
 3561000   0.68469702    -7.477949     828.7712  0.019394627    0.0188684            5 
 3562000   0.69408123   -7.4845234    828.26105  0.019377247  0.018862671           16 
 3563000    0.6915496   -7.5075993    826.77115  0.019336962  0.018856935            9 
 3564000   0.69377947   -7.5054659    828.20542  0.019365073  0.018851186           12 
 3565000   0.70109397    -7.503596    828.00668  0.019354995  0.018845444           10 
 3566000   0.70226084   -7.4956467    827.97403  0.019348804  0.018839684           13 
 3567000   0.69284326   -7.5153156    828.43227  0.019354085  0.018833927            9 
 3568000   0.68457152   -7.5019482    829.88821  0.019382666  0.018828196           21 
 3569000   0.70093461   -7.5013041    829.33377  0.019364289   0.01882245           11 
 3570000   0.67915091    -7.500143    827.69208  0.019320543  0.018816711            8 
 3571000   0.67984097   -7.5108031    829.04593  0.019346727  0.018810978            5 
 3572000   0.67108259   -7.5017564    830.19269  0.019368064  0.018805247            6 
 3573000   0.68166065   -7.4852587     829.2165  0.019339876  0.018799517            5 
 3574000   0.69652537   -7.4981696    831.30592  0.019383182  0.018793794            7 
 3575000   0.68188653   -7.5257129     828.4794  0.019311874  0.018788084            7 
 3576000    0.6880199   -7.4979402    828.95971  0.019317667  0.018782359           16 
 3577000   0.68137881   -7.4994927    828.44972  0.019300385  0.018776655            8 
 3578000   0.66810343    -7.494038    829.71504  0.019324461  0.018770933            9 
 3579000   0.66849639   -7.5115867    829.34977  0.019310556  0.018765212           22 
 3580000   0.68585298   -7.5095677    828.91599  0.019295065  0.018759482           20 
 3581000    0.6705212    -7.531226    828.99823  0.019291591  0.018753755            8 
 3582000   0.66417588   -7.5099332    826.98178  0.019239293  0.018748023           12 
 3583000   0.67432153   -7.5262527    828.71172  0.019274158  0.018742285            9 
 3584000   0.67292684   -7.5241485    828.92414   0.01927372  0.018736554           18 
 3585000   0.67932714   -7.4990952    828.99552  0.019270003  0.018730821           13 
 3586000    0.6645703   -7.5099859    828.04828  0.019242617  0.018725074           22 
 3587000   0.67203258   -7.5210238    828.96952  0.019258654  0.018719318           25 
 3588000   0.65888164    -7.501793    827.61097  0.019221734  0.018713553           11 
 3589000   0.68348698   -7.5381505    826.88838    0.0191996  0.018707795           13 
 3590000   0.67683155   -7.5066549    828.46557  0.019230863  0.018702048           18 
 3591000   0.67132753   -7.5166666    826.58993  0.019181981  0.018696311            7 
 3592000   0.68267512   -7.4995267    828.21897  0.019214434  0.018690589           15 
 3593000   0.67278691   -7.5102545    828.25292  0.019209874  0.018684862            5 
 3594000   0.68090644    -7.495938    829.32768  0.019229449  0.018679148            5 
 3595000   0.68673551   -7.5005657    829.25824   0.01922249  0.018673433           11 
 3596000   0.67004896    -7.498212    829.11295  0.019213778  0.018667716            9 
 3597000   0.66940748   -7.5073761    829.54888  0.019218536  0.018661996            9 
 3598000    0.6555904   -7.5092107     828.9552  0.019199444  0.018656281            5 
 3599000   0.67550584   -7.5254356    828.23973  0.019177543  0.018650569            7 
 3600000    0.6771916   -7.5087054    828.01332  0.019166975  0.018644856           12 
 3601000   0.68411175   -7.5139678    830.02374  0.019208177  0.018639143           14 
 3602000   0.67908082   -7.5289917    829.46744  0.019189974  0.018633433            8 
 3603000   0.67304849   -7.5221706    827.84101  0.019147031  0.018627728            4 
 3604000   0.67318248   -7.5023375    830.04739  0.019192735  0.018622007            6 
 3605000   0.67235516   -7.5126468    829.92294  0.019184534  0.018616306           10 
 3606000   0.67534695   -7.5343296    828.46129  0.019145436  0.018610604           10 
 3607000   0.68393069   -7.5293026    829.46079  0.019163219  0.018604914            7 
 3608000    0.6724272   -7.5192709       829.34  0.019155118  0.018599234           14 
 3609000   0.67510888   -7.5132724    830.30666  0.019172131  0.018593564            8 
 3610000   0.66862687    -7.524713    829.47468  0.019147615  0.018587889            5 
 3611000   0.67631629   -7.5286593    829.03117  0.019132077  0.018582201            7 
 3612000   0.67298576   -7.5032823    829.30437  0.019133083   0.01857652           12 
 3613000   0.67276589   -7.5193637    830.98676  0.019166592  0.018570856            8 
 3614000   0.66692671   -7.4967754    830.28652  0.019145142  0.018565188            7 
 3615000   0.65561077   -7.5076761    830.14106  0.019136493  0.018559528            8 
 3616000   0.66472445   -7.4815539    829.52261  0.019116948  0.018553879            6 
 3617000   0.66474495   -7.4937169    830.43733  0.019132737  0.018548232            9 
 3618000   0.66966175   -7.5163243    831.19815  0.019144973  0.018542594            5 
 3619000    0.6771118   -7.5185715    828.28818  0.019072676  0.018536954           13 
 3620000    0.6793024   -7.4707276    829.36838  0.019092274  0.018531314            5 
 3621000   0.66204053   -7.5053631    831.04724  0.019125638  0.018525673            5 
 3622000   0.67183646   -7.5082817    829.04415  0.019074272  0.018520021            7 
 3623000   0.67011974   -7.5054228    830.57016  0.019104107  0.018514386            6 
 3624000    0.6828286   -7.5360311    831.35771  0.019116945  0.018508753            6 
 3625000   0.67559615   -7.5230045    830.25089  0.019086227  0.018503115            5 
 3626000   0.69590262     -7.50932     830.3156  0.019082451  0.018497494           12 
 3627000   0.67641954   -7.5153589    830.12625  0.019072839  0.018491856            9 
 3628000   0.68397399   -7.5132956    831.42595  0.019097435  0.018486224            7 
 3629000   0.66226729   -7.5326352    830.39437  0.019068485  0.018480573           22 
 3630000   0.67875806   -7.5063625    829.99812  0.019054135  0.018474927           13 
 3631000    0.6742654   -7.5379885    830.18557  0.019053189  0.018469289            9 
 3632000   0.67314023   -7.5188076    831.57189  0.019079751  0.018463647            9 
 3633000   0.67762164   -7.5278652    829.97043  0.019037766  0.018458005           26 
 3634000   0.67967673    -7.528619    828.92502  0.019008554  0.018452368           26 
 3635000   0.67967231   -7.5185093    832.47571  0.019084725  0.018446734           29 
 3636000   0.67956247   -7.5097342    830.39435  0.019031774  0.018441106           30 
 3637000   0.66672214   -7.5355224    829.57916  0.019007863  0.018435466           23 
 3638000   0.66237125   -7.5219997    828.07982  0.018968294  0.018429813           31 
 3639000    0.6766696   -7.5433969    827.93071  0.018959666  0.018424142           37 
 3640000   0.68371848   -7.5260682    829.04311  0.018979925  0.018418485           40 
 3641000   0.66643177   -7.5287931    829.67218   0.01898911  0.018412829           42 
 3642000   0.67822847   -7.5276434    831.09765  0.019016512  0.018407185           10 
 3643000   0.66457347   -7.5293896    830.70664  0.019002348  0.018401552           11 
 3644000   0.67984364    -7.531527     831.2972  0.019010638  0.018395924           12 
 3645000    0.6771506   -7.5176445     831.5944  0.019012218   0.01839031           13 
 3646000   0.65636011   -7.5403085    829.51022  0.018959367  0.018384671           14 
 3647000   0.65484934   -7.5218286     828.8477   0.01893903  0.018379026           10 
 3648000   0.65439162   -7.5269319    829.80276  0.018955655  0.018373378           11 
 3649000   0.67314313   -7.5264828    830.52859  0.018967036  0.018367743            6 
 3650000   0.65912172   -7.5496878    828.48552  0.018915194  0.018362103            8 
 3651000   0.67021579   -7.5517512    828.81539  0.018917543   0.01835646           11 
 3652000   0.66244488   -7.5395669    830.10356  0.018941757   0.01835084           10 
 3653000   0.66281227   -7.5381296    831.76059  0.018974372  0.018345232           10 
 3654000   0.66754783   -7.5424595    829.22865  0.018911436  0.018339615            7 
 3655000   0.66575356   -7.5328486    829.27189  0.018907248  0.018333995           10 
 3656000   0.66956924   -7.5207207    830.60316  0.018932421  0.018328379           10 
 3657000    0.6637606    -7.533416    830.85556  0.018932995  0.018322757           12 
 3658000   0.65849934   -7.5467765    831.55513  0.018943756   0.01831714            7 
 3659000   0.66384822   -7.5374708    829.13468  0.018883454  0.018311519           33 
 3660000   0.66757401   -7.5527704    830.15618  0.018901552  0.018305899           15 
 3661000   0.66636169    -7.544903    828.91549  0.018868148  0.018300278           18 
 3662000   0.67291323   -7.5669448    829.33226   0.01887248  0.018294652           16 
 3663000   0.67310867   -7.5444327    830.12551  0.018885374  0.018289024           18 
 3664000   0.67640174   -7.5325329    829.27771  0.018860938  0.018283409           12 
 3665000   0.64427679   -7.5264839    828.68898  0.018842405   0.01827779           20 
 3666000    0.6601897   -7.5439176    828.81177  0.018840057  0.018272175           16 
 3667000   0.64709356   -7.5588597    828.97319  0.018838587  0.018266541           17 
 3668000   0.66309641   -7.5540076    829.68244  0.018849565  0.018260925           10 
 3669000   0.66491424   -7.5236641    830.63312   0.01886602  0.018255323            9 
 3670000   0.66034978   -7.5280315      830.515  0.018858197  0.018249727           14 
 3671000   0.67645911   -7.5316942    830.47459  0.018852143  0.018244149            7 
 3672000   0.67067472   -7.5122226    831.46044  0.018869382  0.018238566           16 
 3673000   0.65742859   -7.5608158    830.32523  0.018838489  0.018232971            9 
 3674000   0.67557596   -7.5539503    829.40571  0.018812505   0.01822736            7 
 3675000   0.66951761   -7.5419707    829.05226  0.018799371  0.018221754           24 
 3676000   0.66212769    -7.526592    830.40125  0.018824838  0.018216157           16 
 3677000   0.66367259    -7.552983     831.0426  0.018834253  0.018210559           12 
 3678000   0.66171614   -7.5479139    830.76703  0.018822889  0.018204975            9 
 3679000   0.66297396   -7.5317777    831.11249  0.018825598  0.018199393            4 
 3680000   0.65914725    -7.543009    832.29044  0.018847157   0.01819383            8 
 3681000   0.66044249   -7.5302671    831.00528  0.018812942  0.018188254            3 
 3682000   0.67417749   -7.5556248    830.54737  0.018797469  0.018182681            5 
 3683000   0.67683467   -7.5503719    829.61001  0.018771156   0.01817709           17 
 3684000   0.66794041   -7.5413562    830.97209  0.018796871  0.018171499           16 
 3685000   0.65955341   -7.5509752     832.1574  0.018818575   0.01816593           21 
 3686000   0.65835043   -7.5372933    830.59148  0.018778067  0.018160377            8 
 3687000   0.66552906   -7.5316267     829.5651  0.018749776  0.018154819           15 
 3688000   0.66128209   -7.5456958    831.09745  0.018779317  0.018149269           11 
 3689000   0.68003229   -7.5536448    829.67075  0.018741998  0.018143722           19 
 3690000   0.66301524   -7.5465385    830.95569  0.018765937  0.018138166           23 
 3691000   0.65438839   -7.5537402    831.00158  0.018761889  0.018132609           24 
 3692000   0.66469491   -7.5593912    831.09137  0.018758834  0.018127057           19 
 3693000   0.66117854   -7.5720193    831.85638  0.018771017  0.018121494           11 
 3694000   0.63626549   -7.5231423    831.43925  0.018756525  0.018115938           11 
 3695000   0.65873895   -7.5319473    829.00844  0.018696627  0.018110378           13 
 3696000   0.66949605   -7.5347178    828.98972  0.018691146  0.018104838           12 
 3697000   0.65082825   -7.5501119     830.8969   0.01872908  0.018099294           15 
 3698000   0.66922294   -7.5374577    830.72739  0.018720195  0.018093736            7 
 3699000   0.66406736   -7.5610235     828.8549   0.01867295  0.018088174           16 
 3700000   0.66246614   -7.5591284    830.33594   0.01870126  0.018082599           13 
 3701000   0.65435067   -7.5591016    831.15162  0.018714573  0.018077043           11 
 3702000   0.66672408   -7.5441334    830.11806  0.018686252  0.018071491            9 
 3703000   0.66123044   -7.5610211    829.71692  0.018672178  0.018065941           11 
 3704000   0.66029894   -7.5453592    831.87624  0.018715718  0.018060385           18 
 3705000   0.63999217   -7.5580286    829.45707  0.018656254  0.018054824           12 
 3706000   0.64824357   -7.5477367    829.20888   0.01864564  0.018049273           20 
 3707000   0.66474621   -7.5557234    829.82773  0.018654521   0.01804373           18 
 3708000   0.65061932   -7.5553896    829.25064  0.018636521  0.018038199            7 
 3709000   0.65913206   -7.5723738    830.54232  0.018660518   0.01803266           14 
 3710000   0.65343095   -7.5619187    829.71725  0.018636955  0.018027111           11 
 3711000   0.66174983   -7.5684347    831.58116  0.018673789   0.01802157           24 
 3712000   0.65742733   -7.5459682    830.50108  0.018644511  0.018016024           13 
 3713000    0.6519677   -7.5487927    830.81435   0.01864652  0.018010477           18 
 3714000   0.64688453    -7.553362    831.40564  0.018654767  0.018004936           10 
 3715000   0.66108812   -7.5676541    830.36155  0.018626325   0.01799939           16 
 3716000   0.65879071   -7.5547183    830.36101    0.0186213  0.017993827           11 
 3717000   0.66804665   -7.5747963    831.57736   0.01864356  0.017988273           16 
 3718000   0.65956893   -7.5561682    831.29037  0.018632113  0.017982723           18 
 3719000   0.65277508   -7.5522213    830.56754  0.018610907  0.017977185            9 
 3720000   0.65434526   -7.5689434    828.05482  0.018549615  0.017971626           10 
 3721000   0.66440825   -7.5671571    829.68715  0.018581187  0.017966064           11 
 3722000   0.66868972   -7.5780648     828.6085  0.018552044  0.017960516           13 
 3723000     0.646175   -7.5516556    830.99144  0.018600399  0.017954972           18 
 3724000   0.65764306   -7.5535823    829.46542  0.018561256  0.017949432           12 
 3725000   0.66160733   -7.5526824    828.73227  0.018539872  0.017943891           23 
 3726000   0.64255053   -7.5523248    829.49365  0.018551924   0.01793836           16 
 3727000    0.6655896   -7.5590277    829.87137  0.018555392  0.017932831            7 
 3728000   0.65804581   -7.5637515    830.90802  0.018573588  0.017927313           20 
 3729000   0.64430727    -7.540142    829.23799  0.018531286  0.017921784           14 
 3730000   0.65522048   -7.5587341    830.76187  0.018560363  0.017916285           18 
 3731000   0.65208152    -7.552206    830.13099  0.018541298  0.017910778           12 
 3732000   0.65703549   -7.5665653    833.14507  0.018603632  0.017905267           37 
 3733000   0.65151788   -7.5774998    831.05766  0.018552051  0.017899755            8 
 3734000    0.6647296   -7.5822243    831.56297  0.018558359  0.017894245           32 
 3735000   0.64998236   -7.5536385     831.6199  0.018554661  0.017888739           10 
 3736000   0.65686147   -7.5766369    831.27071  0.018541906  0.017883222           10 
 3737000   0.66587438   -7.5616017    830.51315  0.018520051   0.01787771           13 
 3738000   0.65095729   -7.5512641    830.78699  0.018521201  0.017872209           13 
 3739000   0.64580722   -7.5376437    831.09162  0.018523037  0.017866711           12 
 3740000   0.65818842   -7.5486129    830.96078  0.018515169  0.017861228            7 
 3741000    0.6582055   -7.5669756    830.49633  0.018499874  0.017855745           17 
 3742000   0.65893891   -7.5732749    830.18206  0.018487931  0.017850252            4 
 3743000    0.6617654   -7.5759654    831.15642  0.018504685  0.017844765           10 
 3744000   0.65133556   -7.5809945    831.74489   0.01851284   0.01783928           10 
 3745000   0.66510293   -7.5771119    832.75424  0.018530357  0.017833798            6 
 3746000   0.64730189   -7.5559938    831.26181   0.01849221   0.01782831           10 
 3747000   0.64462237   -7.5654268    831.03638  0.018482261  0.017822811            8 
 3748000   0.65882924   -7.5794503    830.11509  0.018456846  0.017817312            5 
 3749000   0.64503661   -7.5628621    832.30164  0.018500526  0.017811818            3 
 3750000   0.66292544   -7.5921018    832.25765  0.018494614  0.017806326           10 
 3751000   0.64934598   -7.5566313     830.6712  0.018454439  0.017800831            9 
 3752000   0.66060434   -7.5963829    832.24178  0.018484404  0.017795334           12 
 3753000   0.64902744   -7.5587431    831.10861  0.018454317  0.017789849           10 
 3754000   0.64749306   -7.5943297    829.47726  0.018413187  0.017784347            7 
 3755000   0.66759594   -7.5870421    830.04773  0.018420944  0.017778846           10 
 3756000   0.66414983   -7.5862863     829.6362  0.018406909  0.017773344            9 
 3757000   0.65920034   -7.5666622    831.07641  0.018433955  0.017767856           11 
 3758000     0.630566   -7.5835393    830.54594  0.018417286  0.017762362            9 
 3759000   0.63386989   -7.5984031    829.14876  0.018381413   0.01775686           11 
 3760000   0.64325678   -7.6126192     829.4534  0.018383276  0.017751354           15 
 3761000   0.64799505   -7.5809878    829.76473  0.018385286   0.01774586           14 
 3762000   0.64090561   -7.5662424    830.97343  0.018407173  0.017740381           12 
 3763000   0.65175675   -7.5743324    830.58359  0.018393649  0.017734896            6 
 3764000   0.66083198   -7.6011015    831.73474  0.018414248  0.017729423           10 
 3765000   0.65208056   -7.6045631    830.27819  0.018377118  0.017723943           16 
 3766000   0.64483437   -7.5739387    831.91245  0.018408401  0.017718469           18 
 3767000   0.63729981   -7.5842611    830.73587  0.018377486  0.017712983            7 
 3768000   0.65733256   -7.5992816    831.11401  0.018380972  0.017707491           13 
 3769000   0.65087311   -7.5983428    830.11589  0.018354026  0.017702001           11 
 3770000   0.65345932   -7.5942863    830.18913  0.018350777  0.017696528           13 
 3771000   0.65089168   -7.5730878    830.34276  0.018349305  0.017691059            5 
 3772000   0.65919151   -7.5894605    830.91202  0.018357017   0.01768558            8 
 3773000   0.66120957   -7.5836513    831.48342  0.018364772   0.01768009            7 
 3774000   0.64375406   -7.5951879    829.57401  0.018317744  0.017674606            6 
 3775000   0.65297073   -7.5930616    831.17597  0.018348256   0.01766913            5 
 3776000   0.65198514   -7.5956882    829.58532  0.018308292  0.017663668           10 
 3777000   0.64993259   -7.5907886    828.50398  0.018279587  0.017658186           12 
 3778000   0.66275981   -7.5797369    829.93585  0.018306332  0.017652709            8 
 3779000   0.65868212   -7.6047292    831.14094  0.018328062  0.017647234           11 
 3780000   0.63840507    -7.611556    828.48262  0.018264608  0.017641754           25 
 3781000   0.65014978   -7.5902029    831.47059  0.018325632  0.017636278           24 
 3782000   0.64275965   -7.5591554    828.94618  0.018265164  0.017630817           19 
 3783000   0.66297573    -7.574983     830.9468  0.018304406   0.01762537           16 
 3784000    0.6508813    -7.571507    830.17899  0.018282659  0.017619907           19 
 3785000   0.64361847   -7.5810574    829.28139  0.018258067  0.017614446           20 
 3786000   0.63729443    -7.594354    829.56773  0.018259547     0.017609           23 
 3787000   0.65419215   -7.5561472     831.9716  0.018307623  0.017603559           10 
 3788000   0.65414312   -7.5469211    831.23985  0.018286691  0.017598129           24 
 3789000   0.65158975   -7.5704655    830.73543  0.018270771  0.017592695           28 
 3790000   0.64801894   -7.5827436    830.63339  0.018263707  0.017587263           29 
 3791000   0.63504394   -7.5918272    830.51852  0.018256364  0.017581832           29 
 3792000   0.63832547   -7.5942618    832.46702   0.01829437  0.017576403           12 
 3793000   0.64327074   -7.5897842    831.21812  0.018262108  0.017570971           45 
 3794000   0.63921368   -7.5581252    829.68452   0.01822361  0.017565554           14 
 3795000   0.64531973    -7.579761    830.19498  0.018230017  0.017560139           18 
 3796000   0.65807327   -7.5700901    832.07842  0.018266562  0.017554733           10 
 3797000   0.65603374   -7.6029513    830.63434  0.018230058  0.017549322           15 
 3798000   0.64452583   -7.5730162    830.87219  0.018230476  0.017543905           13 
 3799000   0.62929742   -7.5928479    830.65794  0.018220978  0.017538488           18 
 3800000   0.64470978   -7.6163349    830.44998  0.018211622  0.017533065           25 
 3801000   0.63612952    -7.602654    832.22187  0.018245678  0.017527625           34 
 3802000   0.64781956   -7.6050076    830.31571  0.018199099    0.0175222           29 
 3803000   0.64625294   -7.5686358    828.63199  0.018157419  0.017516784           25 
 3804000   0.65134377   -7.5664566    831.25191   0.01821004  0.017511372           13 
 3805000   0.63723151   -7.5949944     830.6904  0.018192957   0.01750596           25 
 3806000   0.64505166     -7.58547     831.2482   0.01820039   0.01750055           18 
 3807000   0.64997979    -7.582575    830.30033  0.018174861  0.017495153           19 
 3808000   0.63784857   -7.5660728    830.91329  0.018183502  0.017489748           13 
 3809000   0.63297078   -7.5913967    830.67013  0.018173408  0.017484346           18 
 3810000   0.63851822   -7.5814253    832.23967  0.018202967  0.017478952           11 
 3811000   0.63942219   -7.5907889    831.81967  0.018189007  0.017473563           18 
 3812000   0.62882525   -7.6004724    831.72736  0.018182218  0.017468183           29 
 3813000    0.6333493   -7.5784602    831.18569  0.018165611  0.017462809           14 
 3814000   0.63583532   -7.5866422    830.28201  0.018141103  0.017457424           10 
 3815000   0.63470159   -7.6198366     831.4511  0.018161885  0.017452033            9 
 3816000   0.63531607   -7.6212693      831.835  0.018165509   0.01744664           20 
 3817000   0.63250327    -7.599938     832.2643  0.018170123  0.017441252            9 
 3818000   0.63897453   -7.5787169     831.8559   0.01815645  0.017435877           12 
 3819000   0.64166257   -7.5961762    832.58264  0.018167553  0.017430496           12 
 3820000   0.65393783   -7.5986131    832.48026  0.018160564  0.017425108            7 
 3821000    0.6260591   -7.6111078    831.12287  0.018126208  0.017419719           11 
 3822000    0.6443337   -7.6233162    830.80953  0.018114633  0.017414325            9 
 3823000    0.6445431     -7.58986    831.57732  0.018126631   0.01740895           14 
 3824000    0.6234375   -7.5945787    832.86588  0.018149971  0.017403578           18 
 3825000   0.64515438   -7.6047387     831.8226  0.018122497   0.01739821           11 
 3826000   0.64455822   -7.5918149     832.0362  0.018122412   0.01739283           15 
 3827000   0.62079232   -7.5933642    830.70662  0.018088725  0.017387458           18 
 3828000   0.65401996    -7.587865     832.0624  0.018113514  0.017382087           22 
 3829000   0.64585924   -7.5934942    832.46229  0.018117487  0.017376735           19 
 3830000   0.63190988    -7.578097    831.88957  0.018100295  0.017371384           11 
 3831000   0.63751397   -7.6035548    832.25188  0.018103452   0.01736603            6 
 3832000   0.64265429   -7.5785103    830.97284  0.018070912  0.017360682            9 
 3833000   0.63529001   -7.5941372    832.20604  0.018093009  0.017355334            7 
 3834000   0.63926335   -7.5889516    831.75525  0.018078492  0.017349976           11 
 3835000   0.64203204   -7.6046623     832.0143  0.018079407  0.017344626           11 
 3836000   0.63112401   -7.5805762    833.59386  0.018109008  0.017339283           23 
 3837000   0.63957551   -7.5846115    833.53357  0.018102979  0.017333963           14 
 3838000   0.64362531   -7.5894073    831.84759  0.018061655  0.017328636           14 
 3839000    0.6457359    -7.575563    830.95766  0.018037633  0.017323296           11 
 3840000      0.64634   -7.5877004    832.23889   0.01806074  0.017317958           13 
 3841000   0.64254815   -7.6080338    831.00171  0.018029196   0.01731262            9 
 3842000   0.62867432   -7.5738781    831.09027  0.018026424   0.01730728           11 
 3843000   0.63347635     -7.57394    834.37549  0.018092972   0.01730193           19 
 3844000   0.63338184   -7.5969047    832.34937  0.018044341  0.017296571           13 
 3845000   0.63526116   -7.5951051      832.058  0.018033333  0.017291216           16 
 3846000   0.64031955   -7.5863885    829.70661  0.017977696  0.017285856           17 
 3847000   0.64606602   -7.6042358    829.92425  0.017977737   0.01728049           27 
 3848000   0.64222927   -7.6327177    830.04035  0.017975579  0.017275118           28 
 3849000   0.63471862   -7.6076168    831.65311  0.018005826  0.017269754           19 
 3850000   0.64570319   -7.5930059    830.17138  0.017969077  0.017264389           51 
 3851000   0.63003164   -7.6248959    830.32268  0.017967685  0.017259014           23 
 3852000   0.62132563   -7.5839609    831.09549   0.01797974  0.017253649           10 
 3853000   0.65876518   -7.5966923     829.1329  0.017932626  0.017248283           12 
 3854000   0.63375552   -7.6099171    831.29015  0.017974618  0.017242923           18 
 3855000   0.63038373   -7.5932015    829.21503  0.017925098   0.01723756           27 
 3856000   0.63688397   -7.6090953     830.0348  0.017938166  0.017232184           32 
 3857000   0.64491943   -7.5928662    830.20126  0.017937111  0.017226824           32 
 3858000   0.63104303   -7.6194449    829.70083  0.017921653  0.017221463           10 
 3859000   0.64841546   -7.6128819    829.75303  0.017918136  0.017216098            8 
 3860000   0.64361781   -7.6154758    831.54563  0.017952194  0.017210756           12 
 3861000   0.63863888   -7.6103031    829.38854  0.017900987  0.017205392           13 
 3862000   0.63512091    -7.613376    829.19895  0.017892261  0.017200024           22 
 3863000   0.63712595   -7.6503572    829.24797  0.017888687  0.017194658           20 
 3864000   0.62443996   -7.6188491    830.46926  0.017910396  0.017189296           28 
 3865000   0.62189204   -7.6161875     830.2037  0.017900037   0.01718395           21 
 3866000   0.63705695    -7.650001    831.53885  0.017924186  0.017178591           16 
 3867000   0.64794195   -7.6064046    831.18026  0.017911824  0.017173244           24 
 3868000   0.63598044   -7.6032986    830.74628  0.017897843   0.01716791            9 
 3869000   0.63593147   -7.6301337    828.77526  0.017850764  0.017162569           16 
 3870000   0.63965514   -7.6243422    830.89759  0.017891852  0.017157222           19 
 3871000   0.64389364   -7.6168164    830.74542  0.017883954  0.017151883           17 
 3872000   0.63675586     -7.62135     829.6849   0.01785651  0.017146543           18 
 3873000   0.63012601   -7.6110247    830.61484  0.017871909  0.017141206           14 
 3874000   0.62932299   -7.6159014    830.83285  0.017871985  0.017135869           20 
 3875000   0.62861511   -7.6081103    830.32113  0.017856368  0.017130517           14 
 3876000   0.63612602   -7.6655058    830.33352  0.017852028  0.017125171           17 
 3877000   0.61500533   -7.6244775    831.94397  0.017882039  0.017119821           15 
 3878000   0.63536353   -7.6308793    828.49925  0.017803405  0.017114471            7 
 3879000   0.63023701   -7.6366003    829.76163  0.017825935  0.017109129            9 
 3880000   0.62425449   -7.6291817    830.59079  0.017839149  0.017103771           13 
 3881000   0.62696974   -7.6191164    829.53947  0.017811979   0.01709844           13 
 3882000   0.62242473   -7.6225503    829.14484  0.017798919  0.017093097           16 
 3883000   0.62656823   -7.6604751      829.209  0.017795712  0.017087755           19 
 3884000   0.64670162   -7.6392885    830.15133  0.017811349  0.017082412           15 
 3885000   0.62939862   -7.6232161    831.12621  0.017827675  0.017077074           13 
 3886000   0.62399951   -7.6644493    829.60949  0.017790562   0.01707174           14 
 3887000   0.63516307   -7.6323521    829.05817  0.017774165  0.017066398           24 
 3888000   0.63334038   -7.6396671    830.54974  0.017801563  0.017061066           15 
 3889000   0.62893077     -7.62551    830.71169  0.017800456  0.017055727           14 
 3890000   0.61864673   -7.6306182    829.22991  0.017764137  0.017050391           14 
 3891000   0.62901291   -7.6484294    828.41742   0.01774217  0.017045055           15 
 3892000   0.61967285   -7.6248495    829.39128  0.017758464  0.017039723           17 
 3893000   0.63152257   -7.6163722    830.16112  0.017770381  0.017034389           14 
 3894000    0.6263598   -7.6378378    830.09474  0.017764397  0.017029067           15 
 3895000   0.63410013   -7.6290783     829.3977  0.017744923  0.017023743           12 
 3896000   0.63282245   -7.6476074    829.45088  0.017741506  0.017018409           11 
 3897000   0.62486541   -7.6652403      830.789  0.017765568  0.017013087           20 
 3898000   0.62641205   -7.6580877    830.06093  0.017745445  0.017007761           18 
 3899000   0.63071713   -7.6343743    831.31214  0.017767636  0.017002445           13 
 3900000   0.61379287   -7.6238057    830.40021  0.017743594  0.016997132           15 
 3901000   0.61286774   -7.6326923    830.32002  0.017737333  0.016991807           25 
 3902000   0.61961757   -7.6334121    831.53141  0.017758658  0.016986487           18 
 3903000   0.63577654   -7.6274394     829.6014    0.0177129  0.016981164           17 
 3904000   0.63866837   -7.6291325    828.96213  0.017694718  0.016975855            8 
 3905000   0.62826573     -7.62767    828.28982  0.017675839  0.016970544           12 
 3906000   0.65173757   -7.6450382    829.27676   0.01769237  0.016965228            8 
 3907000   0.63662961   -7.6593479    829.18989  0.017685989   0.01695991           25 
 3908000   0.64581482   -7.6256498    830.60492  0.017711637  0.016954594           11 
 3909000   0.60957479   -7.6225562    829.80444  0.017690041  0.016949294           17 
 3910000   0.62055159   -7.6223383    830.39404  0.017698083  0.016943997           17 
 3911000   0.62873904   -7.6354359    829.05382  0.017665001  0.016938695            6 
 3912000   0.61399965   -7.6360512    830.01944  0.017681055  0.016933395           28 
 3913000   0.62850112    -7.636252    831.71061  0.017712552    0.0169281            7 
 3914000   0.63318024   -7.6424838    830.72653  0.017687075  0.016922812           10 
 3915000   0.62187338   -7.6402584    828.29492  0.017630799  0.016917526           12 
 3916000   0.61285812   -7.6194866    831.30456  0.017690342  0.016912242           15 
 3917000   0.62269173   -7.6532561    831.48133  0.017689587   0.01690695           19 
 3918000   0.62848239   -7.6298198     830.4884  0.017663953  0.016901664           18 
 3919000   0.61336162   -7.6398307    830.15636  0.017652385  0.016896371           19 
 3920000   0.63255709   -7.6238395    831.93505  0.017685694  0.016891087            9 
 3921000   0.62138094   -7.6443995    829.46127  0.017628608  0.016885799           18 
 3922000   0.62675024   -7.6307586    829.76203  0.017630504  0.016880516           18 
 3923000   0.62773163   -7.6517591    829.96655  0.017630354  0.016875225           17 
 3924000   0.61434207   -7.6437395    830.00101  0.017626593  0.016869939           14 
 3925000   0.62287728   -7.6081185    829.46153  0.017610648  0.016864656           22 
 3926000   0.61336255   -7.6495722    829.64823  0.017610125  0.016859371           19 
 3927000    0.6354982    -7.656337    830.56189   0.01762503  0.016854089           11 
 3928000   0.63769039   -7.6421861    828.26921  0.017571903  0.016848815           35 
 3929000   0.62568742   -7.6623363    830.65602  0.017618054  0.016843539           12 
 3930000   0.62835821   -7.6303882     828.9214   0.01757679  0.016838267           15 
 3931000   0.62702297   -7.6316084    829.76795  0.017590264     0.016833           10 
 3932000   0.62146627   -7.6581798    829.68164  0.017583962  0.016827735           13 
 3933000   0.62935366   -7.6375292    830.71053  0.017601291   0.01682247           10 
 3934000   0.62081096   -7.6423777    830.92526  0.017601366  0.016817228           20 
 3935000   0.62527253   -7.6373111    829.52607  0.017567261  0.016811975           11 
 3936000   0.62005542   -7.6531703    829.31804  0.017558394  0.016806722           13 
 3937000    0.6289473   -7.6405427    830.50951  0.017579153  0.016801469            8 
 3938000   0.61937615   -7.6214653    829.97774  0.017563436  0.016796213           17 
 3939000   0.62253618   -7.6198255    830.47659  0.017569531  0.016790964           17 
 3940000   0.62047835   -7.6467803    830.42978  0.017564082  0.016785718           14 
 3941000    0.6320309   -7.6520249    831.27649  0.017577529  0.016780478           14 
 3942000   0.61138174   -7.6304971    828.83406  0.017521437  0.016775228           12 
 3943000   0.62049477   -7.6453991    829.80854  0.017537588  0.016769981           10 
 3944000   0.61494887    -7.636398    830.41538  0.017545964  0.016764752           16 
 3945000   0.60799502   -7.6499181    831.66225  0.017567855  0.016759528           15 
 3946000   0.63460143   -7.6293944    830.27355  0.017534076  0.016754296           10 
 3947000    0.6402367   -7.6381887    830.33959  0.017531028  0.016749067           15 
 3948000   0.61741369   -7.6208264    831.48408  0.017550745  0.016743835           17 
 3949000   0.62759761   -7.6364447    832.35492  0.017564677  0.016738611           20 
 3950000   0.60608846     -7.65067    829.38534  0.017497581  0.016733381           25 
 3951000   0.62315586   -7.6464558    830.37274  0.017513978  0.016728154           21 
 3952000   0.63156252   -7.6512948    832.22942  0.017548697  0.016722937           10 
 3953000   0.61190274   -7.6567898    830.09178  0.017499194   0.01671771           11 
 3954000   0.62286174   -7.6625922    830.23273  0.017497739  0.016712475           20 
 3955000   0.61936607   -7.6319074     828.6695  0.017460377  0.016707241           18 
 3956000    0.6266447   -7.6490836    828.51931    0.0174528  0.016702025           14 
 3957000   0.60984222   -7.6426248    830.24138  0.017484656  0.016696808            6 
 3958000    0.6091411   -7.6560735    828.02704  0.017433616  0.016691588           13 
 3959000   0.62740385    -7.643129    831.16216  0.017495204  0.016686367           10 
 3960000   0.61521626   -7.6722833    832.67627  0.017522649  0.016681154           12 
 3961000   0.61982781   -7.6617063    829.50972  0.017451606  0.016675923            8 
 3962000     0.615963   -7.6405848       829.74  0.017452045  0.016670697            7 
 3963000   0.61108502   -7.6554487     829.6328  0.017445387  0.016665478           10 
 3964000   0.62331096   -7.6595121     830.4464  0.017458089  0.016660258            7 
 3965000   0.61985198   -7.6470885    829.17247  0.017426912  0.016655048            7 
 3966000    0.6262532   -7.6358522    830.65866  0.017453746  0.016649846           23 
 3967000   0.61961799   -7.6343513    830.31231   0.01744207  0.016644655            6 
 3968000   0.62064662   -7.6401905    832.18903  0.017477088  0.016639466           33 
 3969000   0.62327426    -7.642619     830.0115  0.017426965  0.016634281           10 
 3970000   0.60188046   -7.6635898    829.32615  0.017408189  0.016629069            9 
 3971000   0.61359648   -7.6649941     830.2773  0.017423766  0.016623866            8 
 3972000   0.62987695   -7.6615884    829.22861  0.017397378  0.016618662           22 
 3973000   0.61290733   -7.6400544    831.71706  0.017445194  0.016613461           15 
 3974000   0.63382554   -7.6584207    830.64037  0.017418226  0.016608253           11 
 3975000   0.61788929   -7.6776506    831.20608  0.017425704   0.01660305           38 
 3976000   0.61969826   -7.6554114    829.24737  0.017380268  0.016597847           24 
 3977000   0.61417629   -7.6553622    830.49903  0.017402125  0.016592642           15 
 3978000   0.62073705   -7.6696516    831.34816  0.017415539  0.016587438           39 
 3979000   0.60563632   -7.6780134    829.24107  0.017367033   0.01658223           30 
 3980000   0.60880892   -7.6769009     830.6988  0.017393191  0.016577029           25 
 3981000   0.61465251   -7.6692164    829.15965  0.017356603  0.016571823           51 
 3982000   0.62340978   -7.6756998    830.02872  0.017370432  0.016566617           42 
 3983000    0.6072262   -7.6709804    828.78734  0.017340098  0.016561413           27 
 3984000   0.60920504     -7.65321    829.56447  0.017352001  0.016556206           22 
 3985000    0.6300025   -7.6666188    829.43174  0.017344871  0.016551002           39 
 3986000    0.6035101   -7.6734383    829.78034  0.017347808   0.01654581           20 
 3987000   0.62890938   -7.6832203    828.44607  0.017315569  0.016540609           13 
 3988000   0.61820983   -7.6793913    829.23397  0.017327691  0.016535408           17 
 3989000   0.61772192   -7.6504913     829.3671  0.017326128  0.016530214            9 
 3990000   0.61235121   -7.6679137     829.6655  0.017328018   0.01652503           21 
 3991000   0.62202727   -7.6652884    831.17008  0.017355092   0.01651985           19 
 3992000   0.61317503   -7.6672368    829.94419  0.017325154  0.016514674           24 
 3993000   0.62224343   -7.6659625    830.26454  0.017327501   0.01650949           19 
 3994000   0.61012552   -7.6631485    828.44227  0.017285142  0.016504307           25 
 3995000   0.59991016   -7.6727289    829.44218  0.017301673   0.01649912           22 
 3996000   0.62187558   -7.6709909    829.66894  0.017302072   0.01649394           26 
 3997000   0.60762902   -7.6386988    829.10353  0.017285955  0.016488757           13 
 3998000   0.60734756   -7.6621327    831.12863  0.017323842  0.016483577           10 
 3999000   0.61476341   -7.6705964    829.10756  0.017277393  0.016478411           15 
 4000000   0.60520796   -7.6665256    830.09214  0.017293586  0.016473242           28 
 4001000   0.59696273   -7.6621126    830.47706  0.017297281  0.016468075           15 
 4002000   0.61131566   -7.6579741    830.13209  0.017285776  0.016462911            9 
 4003000   0.61237152   -7.6699337    828.92848  0.017256401  0.016457751           18 
 4004000   0.60228623   -7.6752592    829.95025  0.017273357  0.016452582            9 
 4005000   0.61539621   -7.6657711    827.95946  0.017227621   0.01644741           17 
 4006000   0.62648512   -7.6642816    830.30235  0.017272058  0.016442241           18 
 4007000   0.59864426   -7.6676601    830.62043  0.017274362  0.016437075           22 
 4008000    0.6105306   -7.6579113    830.38222  0.017265099  0.016431909           18 
 4009000   0.61509184   -7.6459129    828.87875  0.017229541  0.016426753           19 
 4010000   0.61823072   -7.6668116    828.93523  0.017226418  0.016421591           20 
 4011000    0.6166991   -7.6739321    830.33395  0.017251183  0.016416437           30 
 4012000   0.59103093   -7.6672868    829.95042  0.017238917  0.016411281           21 
 4013000   0.61193219   -7.6768562    829.54605  0.017226224  0.016406129           18 
 4014000   0.60480184   -7.6644472    829.28129  0.017216436  0.016400977           19 
 4015000    0.6107799   -7.6765086    831.38794  0.017255872  0.016395831           24 
 4016000   0.61079989   -7.6872196    828.91891  0.017200343  0.016390685           13 
 4017000   0.60246424   -7.6751368    829.97581  0.017217986   0.01638554           28 
 4018000   0.60348852   -7.6645734     829.5944  0.017205791  0.016380399           16 
 4019000   0.60809422   -7.6501543    830.77337  0.017225955  0.016375255            6 
 4020000   0.61386317   -7.6712542    830.82852  0.017222813  0.016370123            6 
 4021000   0.60678036   -7.6616571    831.31003  0.017228509  0.016364985            7 
 4022000   0.60532786   -7.6553157    829.71253  0.017191127  0.016359838           10 
 4023000   0.61608097   -7.6891837    829.10712  0.017174313  0.016354693           14 
 4024000   0.60873377   -7.6856047    829.19417  0.017171847   0.01634955           13 
 4025000   0.60135741   -7.6680096    829.67414  0.017177519  0.016344413           11 
 4026000   0.60221166   -7.6712648    829.35633  0.017166674  0.016339277           14 
 4027000   0.59553788   -7.6658564    828.45561  0.017143771  0.016334141           17 
 4028000   0.60850879   -7.6804548    829.33917  0.017157795  0.016329005           23 
 4029000   0.60985789   -7.6868204    830.09105  0.017169088  0.016323879           12 
 4030000   0.60198385   -7.6781236    828.52659  0.017132477  0.016318743           16 
 4031000   0.59724135   -7.6698284    828.78782  0.017133627  0.016313608           15 
 4032000   0.60535537    -7.660249    830.00098  0.017154451  0.016308486           22 
 4033000   0.59273072   -7.6730572    828.37633  0.017116628  0.016303361           22 
 4034000    0.6063332   -7.6887998    829.06944  0.017126703  0.016298225           14 
 4035000     0.600735   -7.6680838    828.04396   0.01710128  0.016293087           24 
 4036000   0.61299094   -7.6716379    828.99085  0.017116593   0.01628796           18 
 4037000   0.59083008   -7.6779326    828.54632  0.017103177  0.016282831           16 
 4038000   0.61959716   -7.6767265    828.72467  0.017102622  0.016277696           14 
 4039000    0.5966756   -7.6709667    829.24669  0.017109159  0.016272577           14 
 4040000   0.60041885   -7.6878857    829.87056  0.017117792  0.016267458           24 
 4041000   0.60805255   -7.6747136     828.8238   0.01709197  0.016262337           17 
 4042000   0.61737103   -7.6715745    829.45182  0.017100689  0.016257221           31 
 4043000   0.61105828   -7.6608118    829.91565   0.01710602  0.016252099            8 
 4044000   0.61094365   -7.6722216     829.0296  0.017083531  0.016246991           13 
 4045000    0.5993877   -7.6759971    829.25498  0.017083951  0.016241881           20 
 4046000   0.62048408   -7.6696635     830.7285  0.017110078  0.016236769           22 
 4047000   0.60848761    -7.677891    829.82801  0.017087308  0.016231655           16 
 4048000   0.60839531   -7.6767616    830.32649  0.017093348   0.01622655           11 
 4049000    0.6092332   -7.6928563    829.54181  0.017072977  0.016221435           18 
 4050000   0.59555095   -7.7146435     828.9645  0.017056883  0.016216321           21 
 4051000   0.60426296   -7.6792527    829.26489  0.017058851  0.016211197           18 
 4052000   0.61643527   -7.6829195    827.90736  0.017026723  0.016206074           20 
 4053000    0.6014047   -7.6955512    828.41043  0.017032865  0.016200958           15 
 4054000   0.60827783   -7.6871135     828.8145   0.01703697  0.016195839           12 
 4055000   0.61520456   -7.6784995    829.05211  0.017037651  0.016190728           14 
 4056000   0.61316953   -7.6694757    827.89975  0.017009775  0.016185619           27 
 4057000   0.60109009   -7.6891645    830.41378  0.017057222  0.016180525           25 
 4058000   0.60806793   -7.7075922     829.1007  0.017026053  0.016175425           17 
 4059000   0.60912433   -7.7274429    829.41465  0.017028304  0.016170306           20 
 4060000   0.59806803   -7.6966964    828.00614    0.0169952  0.016165194           24 
 4061000   0.60026722   -7.6986886    829.31458  0.017017865  0.016160086           29 
 4062000   0.61099769   -7.6797238    828.93205  0.017005827  0.016154987           10 
 4063000   0.61017232   -7.6794223     828.9501  0.017002012  0.016149885           17 
 4064000   0.61183899   -7.6996256     829.0854  0.017000603  0.016144786           27 
 4065000   0.59649436   -7.6804835    828.49822  0.016984383  0.016139687           20 
 4066000   0.59234708   -7.6888001     829.4765  0.017000256  0.016134588           21 
 4067000   0.58201213   -7.6923773    828.96763  0.016985649  0.016129481           33 
 4068000   0.59945087   -7.6929138    829.00042  0.016982146  0.016124384           28 
 4069000   0.59359704   -7.7169732    828.90474  0.016976012  0.016119286           22 
 4070000   0.59286894    -7.694911     828.3817  0.016961132  0.016114187           47 
 4071000   0.60189065   -7.7042715    828.39421  0.016957222   0.01610909           31 
 4072000   0.59747428    -7.701927    827.92542  0.016943464  0.016103996           39 
 4073000   0.61560314   -7.7125738     828.0463  0.016941777  0.016098907           19 
 4074000   0.60808799   -7.7201621    827.98577   0.01693638  0.016093818           15 
 4075000    0.6024102    -7.669564    828.19971  0.016936599   0.01608873           14 
 4076000    0.5992686   -7.6991593    828.42567  0.016937064  0.016083648           26 
 4077000   0.59543271   -7.7154404    828.52884  0.016935018  0.016078566           16 
 4078000   0.60849323   -7.7069821    829.84192  0.016957698  0.016073485           17 
 4079000   0.59387932    -7.696047    828.63837  0.016928953  0.016068412           32 
 4080000   0.59464701   -7.6942815    827.70101  0.016905658  0.016063343           20 
 4081000   0.60669526    -7.706183    829.43231  0.016936868  0.016058271           19 
 4082000   0.60384246   -7.6983921    827.52131  0.016893706  0.016053205           13 
 4083000   0.59701581   -7.6872978    827.68706  0.016892952  0.016048125           13 
 4084000   0.59885022   -7.7091592    829.07033  0.016917041  0.016043046           13 
 4085000   0.59798824   -7.6988158    828.97593  0.016910974  0.016037975           15 
 4086000   0.58660024   -7.6918512    828.45957  0.016896304  0.016032898           40 
 4087000   0.61133865   -7.7106962    828.16045  0.016886071  0.016027827           26 
 4088000   0.60087445   -7.7121866    828.02687  0.016879217  0.016022747           15 
 4089000   0.60235581   -7.7328185     829.0419  0.016895775  0.016017674           25 
 4090000   0.60819214   -7.7007274    828.33923  0.016877328  0.016012613           24 
 4091000   0.60341697   -7.7119662    828.76884  0.016881953  0.016007554           21 
 4092000   0.59765807   -7.7044012    829.73581   0.01689752  0.016002495           22 
 4093000   0.60381626   -7.7153288    828.43278  0.016866862  0.015997435           16 
 4094000   0.59879386   -7.7021216    829.12949  0.016876923  0.015992383           18 
 4095000   0.58660636   -7.6960328    828.34023   0.01685674  0.015987329           32 
 4096000   0.59806573   -7.7052538    827.56637  0.016836881  0.015982281           23 
 4097000   0.60433015   -7.7000365    828.68193  0.016855462  0.015977225           11 
 4098000   0.60231769   -7.7059098    828.85161  0.016854799  0.015972172           12 
 4099000    0.5835068   -7.7211969    829.11068  0.016855954   0.01596712           30 
 4100000    0.5959409   -7.7063111    827.09905  0.016810956  0.015962066           38 
 4101000   0.58941983   -7.6919452    827.98565  0.016824873  0.015957019           45 
 4102000   0.60413271   -7.7085383      829.287  0.016847209  0.015951974           32 
 4103000   0.59925034   -7.6848594    827.73302  0.016811541  0.015946935           24 
 4104000   0.59648274   -7.6846268    829.52058  0.016843741  0.015941891           35 
 4105000    0.5955499   -7.7030988    829.73544     0.016844  0.015936851           25 
 4106000   0.59536233   -7.7249471    828.46198  0.016814052  0.015931812           43 
 4107000   0.61150268   -7.7191775    829.40087  0.016829009  0.015926782           15 
 4108000   0.58805439   -7.7082807    829.56553  0.016828252  0.015921761           15 
 4109000   0.59709148   -7.6941758    829.65255  0.016825922  0.015916739           24 
 4110000   0.59391857    -7.702129    828.79373  0.016804415   0.01591172           57 
 4111000   0.60070066   -7.7158334    829.00961  0.016804703  0.015906704           42 
 4112000   0.59970082   -7.7049039     827.7524  0.016775138   0.01590168           60 
 4113000   0.60294191   -7.7091994    829.42809   0.01680501  0.015896656           49 
 4114000   0.59322386   -7.6981146    828.85294  0.016789275  0.015891626            9 
 4115000   0.59771663    -7.704916    827.17623   0.01675124    0.0158866           41 
 4116000   0.58724435    -7.739543    827.45728   0.01675286  0.015881578           39 
 4117000   0.58592644   -7.7073893    828.64106  0.016772752  0.015876553           46 
 4118000   0.59424148   -7.7285022    829.09455  0.016777856  0.015871532           49 
 4119000   0.57713647   -7.7136137    828.57114  0.016763194  0.015866514           46 
 4120000   0.59603695   -7.7071695    827.58074  0.016739093  0.015861489           37 
 4121000   0.60270626   -7.7133572     825.8241  0.016699509  0.015856467           38 
 4122000   0.58766207   -7.6874912    827.91734  0.016737776  0.015851452           19 
 4123000   0.58238307   -7.6903838    829.48993  0.016765501  0.015846447           48 
 4124000   0.59138359   -7.7097749    827.21063  0.016715378  0.015841432           34 
 4125000   0.58805908   -7.7179166     828.1666  0.016730638  0.015836419           19 
 4126000   0.58418433   -7.7119233    827.96068  0.016722424  0.015831408           31 
 4127000   0.58961897   -7.7063479     827.3095  0.016705224  0.015826401           27 
 4128000   0.59624196   -7.7087838    827.68763   0.01670881  0.015821388           14 
 4129000   0.58907399    -7.694766    827.05924  0.016692081  0.015816385           17 
 4130000   0.59380739   -7.7231145    827.88439  0.016704689  0.015811372           20 
 4131000   0.57614083   -7.7128019      829.242  0.016728032  0.015806376            9 
 4132000   0.58567393   -7.7159718    828.03893   0.01669972  0.015801379           45 
 4133000    0.5869111   -7.7180672     827.8139  0.016691142  0.015796382           16 
 4134000   0.57940282   -7.6907764    828.12638  0.016693404   0.01579138           12 
 4135000   0.59492438   -7.7099769     827.0362  0.016667396  0.015786382           39 
 4136000   0.59104078   -7.7094968    827.12685  0.016665193  0.015781381           20 
 4137000   0.58443189   -7.6977113    827.86275  0.016675988  0.015776379           14 
 4138000   0.59487328   -7.6985399    828.16474   0.01667804   0.01577138           16 
 4139000   0.60682596   -7.6964932    828.84789  0.016687765  0.015766392           11 
 4140000   0.58897225   -7.7017964    827.53659  0.016657339  0.015761397           27 
 4141000   0.59219687   -7.7167226    828.80944  0.016678931  0.015756399           33 
 4142000   0.58800126   -7.7090598    828.54911  0.016669667  0.015751408           13 
 4143000   0.59639459   -7.7280402    828.74531  0.016669589  0.015746425           24 
 4144000   0.58746437   -7.6920163    827.94683   0.01664951  0.015741439            9 
 4145000     0.594953   -7.7147255    827.14355  0.016629344  0.015736465           13 
 4146000   0.59086919    -7.706482    829.03404  0.016663331  0.015731486           15 
 4147000   0.57693545   -7.7114314    826.39179  0.016606217  0.015726503           12 
 4148000   0.59415073   -7.7098511    828.26171   0.01663978  0.015721522           16 
 4149000   0.58684386   -7.6944496    827.72859  0.016625062  0.015716552           12 
 4150000   0.58572852   -7.7287694    827.90223  0.016624543  0.015711571           12 
 4151000   0.58783583   -7.7183588    828.13993   0.01662531  0.015706595           12 
 4152000   0.57541998   -7.7208918    829.85494  0.016655727  0.015701621           23 
 4153000   0.59057304    -7.723961    828.90446  0.016632644  0.015696648           10 
 4154000   0.58452158   -7.6970977     827.8691   0.01660787  0.015691681           15 
 4155000   0.59379341   -7.6976503     828.9611  0.016625774  0.015686715           10 
 4156000   0.58631089   -7.7108805    829.56168  0.016633816  0.015681748           21 
 4157000   0.58344285   -7.7180784    828.24225  0.016603365  0.015676779           13 
 4158000   0.58453538   -7.7076392    829.40849  0.016622745  0.015671813           11 
 4159000   0.57631442   -7.6943013    826.36031  0.016557672  0.015666846           11 
 4160000    0.5764845   -7.7170661    827.50718  0.016576666  0.015661883            9 
 4161000   0.57895453   -7.7114921    828.99106    0.0166024  0.015656924            9 
 4162000   0.59031182   -7.7486331    827.89523   0.01657647  0.015651953           23 
 4163000   0.59327045   -7.7165975    827.77198  0.016570021  0.015646994           17 
 4164000   0.59891196   -7.7334655    827.30061  0.016556608  0.015642025           10 
 4165000   0.59390976   -7.7200065    827.94532  0.016565533  0.015637057           17 
 4166000   0.56858552   -7.7285429    827.02634  0.016543174  0.015632095           25 
 4167000   0.58047963   -7.7402859    828.63683  0.016571411  0.015627138           18 
 4168000   0.59000618   -7.7397065    827.66564  0.016548017  0.015622174           34 
 4169000   0.57305112   -7.7466531    828.58252  0.016562375  0.015617212           12 
 4170000   0.58463976   -7.7191102    828.15232  0.016549807  0.015612247           33 
 4171000   0.58394926   -7.7220057    826.46723  0.016512172  0.015607288           27 
 4172000   0.59131302   -7.7175345    828.54383  0.016549693  0.015602339           34 
 4173000   0.58708394   -7.7230207    825.49048  0.016484753  0.015597376           15 
 4174000   0.57973436   -7.7277246    828.05041  0.016531912  0.015592413           20 
 4175000   0.58074729    -7.741796    827.05237  0.016508031   0.01558746           29 
 4176000   0.57465285   -7.7458173    826.62907  0.016495631  0.015582503           20 
 4177000   0.57793493   -7.7249913    826.76558  0.016494405  0.015577545           12 
 4178000   0.58147293     -7.73643    826.13907  0.016477961  0.015572595           22 
 4179000   0.58174174   -7.7317712    827.27525  0.016496675  0.015567645           35 
 4180000    0.5830127   -7.7393294    826.98773  0.016486996  0.015562693           35 
 4181000   0.57389984   -7.7507155    828.35235  0.016510252  0.015557749           20 
 4182000   0.57897646   -7.7407889    828.44102  0.016508071  0.015552793           19 
 4183000   0.58228804   -7.7257634    827.15864  0.016478577  0.015547845           34 
 4184000   0.57971566   -7.7335993    828.73762  0.016506087  0.015542902           21 
 4185000    0.5937005   -7.7486758    827.60916  0.016479673  0.015537951           11 
 4186000   0.58356224   -7.7237258    828.20866   0.01648767  0.015533001           21 
 4187000   0.58143771   -7.7558782    828.25419  0.016484639  0.015528054           16 
 4188000   0.58289203    -7.726002    827.06926  0.016457125  0.015523105           14 
 4189000   0.57908222   -7.7341813    826.24304   0.01643676  0.015518158           14 
 4190000   0.59006527   -7.7375547    827.30106  0.016453879  0.015513214           21 
 4191000   0.56680562   -7.7184249    826.53742  0.016434769   0.01550827           17 
 4192000   0.58322468   -7.7474013    828.40772  0.016468029  0.015503329           18 
 4193000   0.56607983   -7.7398513    825.66555  0.016409602  0.015498382           28 
 4194000   0.57674395     -7.73684    826.32226  0.016418738   0.01549344           23 
 4195000   0.58184725   -7.7426554    828.35441  0.016455193  0.015488503           10 
 4196000   0.57739318   -7.7417955    827.06336  0.016425631  0.015483558           37 
 4197000   0.58130298   -7.7468301    827.08332  0.016422113  0.015478626           10 
 4198000   0.58236548   -7.7579683    826.39745  0.016404586  0.015473689           25 
 4199000   0.57184784   -7.7419305    826.51537   0.01640302  0.015468759           14 
 4200000   0.59417428   -7.7384417    827.85417  0.016425678  0.015463833           12 
 4201000   0.57604335   -7.7296564    827.83488  0.016421385  0.015458912           20 
 4202000   0.58435004   -7.7489453      826.202  0.016385094   0.01545399           10 
 4203000   0.58061733   -7.7364493    826.64377  0.016389955  0.015449068           11 
 4204000   0.57838846   -7.7372909    828.79455   0.01642869  0.015444148           14 
 4205000   0.58634973   -7.7340421    827.34632  0.016396082   0.01543923           12 
 4206000   0.57289995   -7.7298551    826.94954  0.016384323  0.015434317           15 
 4207000   0.57682446   -7.7469648    825.44453  0.016350617  0.015429412            8 
 4208000   0.57346869   -7.7515298    827.74208  0.016392231  0.015424496           21 
 4209000   0.56731115   -7.7256928    827.10867  0.016375795  0.015419587           15 
 4210000   0.59089628   -7.7319969    826.07758  0.016351496  0.015414679           11 
 4211000   0.57759159   -7.7318464    826.59504  0.016357853  0.015409776           11 
 4212000   0.58316592   -7.7250282    826.41211   0.01635035  0.015404868           20 
 4213000   0.57972919   -7.7527487     826.7967  0.016354077  0.015399963            9 
 4214000   0.58463835   -7.7187705    827.97927  0.016373581  0.015395061            8 
 4215000    0.5861893   -7.7307988    827.23774  0.016355036  0.015390169            9 
 4216000   0.57590214   -7.7532874    826.57516  0.016338061  0.015385276           19 
 4217000   0.57267213   -7.7280877    827.88203  0.016360012  0.015380378           15 
 4218000   0.58179761   -7.7443942    826.09401  0.016320808   0.01537549           14 
 4219000   0.57451139   -7.7224719    826.60769  0.016327086  0.015370593           13 
 4220000   0.55958006   -7.7468163    826.12651  0.016313715  0.015365704           24 
 4221000   0.57784467   -7.7243654    827.60228  0.016338985  0.015360817           15 
 4222000    0.5908172    -7.735681    829.00204  0.016362744  0.015355937           13 
 4223000   0.58476437   -7.7383677    827.28295  0.016324946  0.015351064           28 
 4224000   0.58289074   -7.7524003    827.53287  0.016326012  0.015346189            7 
 4225000   0.57206687   -7.7328097    828.34337  0.016338134  0.015341314            5 
 4226000   0.58087035    -7.738213    827.56932  0.016319004  0.015336437           15 
 4227000   0.59838366   -7.7446361    827.15047  0.016306886  0.015331569           11 
 4228000    0.5786359   -7.7689325    826.33224  0.016286902   0.01532669           17 
 4229000   0.55968418    -7.757317    827.89692  0.016313883   0.01532182            6 
 4230000    0.5857311   -7.7385922    827.47592  0.016301732  0.015316953           24 
 4231000   0.57269753   -7.7475786    825.67889  0.016262485  0.015312084           13 
 4232000   0.57894303   -7.7404237    828.55624  0.016315301  0.015307221           16 
 4233000   0.58396713    -7.755485    827.47181  0.016290098  0.015302361           13 
 4234000   0.57293918   -7.7387032    827.46571   0.01628613  0.015297499           15 
 4235000   0.58033367   -7.7460149    827.16435  0.016276355  0.015292637           11 
 4236000   0.57815417    -7.743513    826.87687  0.016266857  0.015287779           16 
 4237000   0.58787722   -7.7487859    827.34533  0.016272231  0.015282924           24 
 4238000   0.56918737   -7.7410151    826.80631  0.016257793  0.015278065            9 
 4239000   0.56865967   -7.7597263    824.73698  0.016213277  0.015273204           13 
 4240000   0.57677157    -7.746909    827.89243  0.016271471  0.015268346            9 
 4241000   0.55928495   -7.7416048    826.21967  0.016234765   0.01526349            7 
 4242000    0.5820568   -7.7693663    827.38995  0.016253928  0.015258636           15 
 4243000   0.58455121    -7.759367    826.81315  0.016238769  0.015253779           11 
 4244000   0.57344273   -7.7394335    827.01897  0.016238984  0.015248939           18 
 4245000   0.57525643   -7.7525647     826.2808  0.016220667  0.015244091           20 
 4246000   0.56925095   -7.7318681    826.99819  0.016230927  0.015239245           19 
 4247000   0.58812685   -7.7541653    827.42729  0.016235525  0.015234399           12 
 4248000   0.58207172   -7.7465847    826.75039  0.016218424  0.015229561           10 
 4249000   0.57603278   -7.7548969    826.80723  0.016215722  0.015224718           10 
 4250000   0.57778664   -7.7468406    826.26272   0.01620123  0.015219875           16 
 4251000   0.56796693   -7.7525401    826.24959  0.016197161  0.015215037           12 
 4252000   0.56807768   -7.7694147    826.29613  0.016194264  0.015210199           15 
 4253000   0.56567445   -7.7628379    827.66145  0.016217208   0.01520536           15 
 4254000   0.56133827   -7.7389686    826.11127  0.016183029  0.015200532           11 
 4255000   0.56335247   -7.7567514    825.49178  0.016167093  0.015195701           12 
 4256000    0.5820557   -7.7469819    827.28969  0.016198498  0.015190872            8 
 4257000   0.57115322   -7.7579668    826.17902  0.016172951  0.015186046           34 
 4258000   0.57290303   -7.7415332    826.43702  0.016174202  0.015181217           10 
 4259000   0.57615699   -7.7493441    827.57181  0.016192608  0.015176392           18 
 4260000   0.56955622   -7.7629187    827.98942  0.016196976  0.015171573           17 
 4261000   0.57215699    -7.757809     825.9616  0.016153516  0.015166758           14 
 4262000   0.58125594     -7.73182     826.6608  0.016163398  0.015161941           10 
 4263000   0.57820332     -7.76693     827.2703  0.016171521  0.015157126            8 
 4264000   0.56811552   -7.7725193    826.62298  0.016155077  0.015152321           13 
 4265000   0.56643438   -7.7484884    826.10832  0.016141233   0.01514751           16 
 4266000    0.5751008   -7.7360106    827.12488  0.016157307  0.015142695           11 
 4267000    0.5678075   -7.7571309    826.67449  0.016144725  0.015137883           18 
 4268000   0.56518403   -7.7584317    826.88459  0.016145044   0.01513307           21 
 4269000   0.56612801    -7.763691    827.20117  0.016147442  0.015128252           19 
 4270000    0.5735557   -7.7667316     826.9334  0.016138435  0.015123433            6 
 4271000   0.56292615   -7.7773319    826.46736  0.016125563  0.015118626           12 
 4272000   0.56712224   -7.7724049    826.33276  0.016119163   0.01511382           13 
 4273000   0.58193399   -7.7720727    827.00378  0.016128477  0.015109014           19 
 4274000   0.56330076   -7.7700814    827.83449    0.0161409  0.015104202           14 
 4275000   0.57061914   -7.7697873    824.57358  0.016073559  0.015099392           22 
 4276000   0.56155052   -7.7697152    826.11617  0.016099863  0.015094582           13 
 4277000   0.56424889   -7.7578368    827.36947  0.016120518  0.015089778           18 
 4278000   0.56484913   -7.7654377     827.1031  0.016111561  0.015084976           10 
 4279000   0.56483161   -7.7543445    826.93205  0.016104465  0.015080186           10 
 4280000   0.57659398   -7.7564966    827.97675  0.016121043  0.015075392           24 
 4281000   0.56898111   -7.7687354    826.83845  0.016095119  0.015070602           10 
 4282000   0.57808647   -7.7677813     825.9838  0.016074728  0.015065813           20 
 4283000   0.56834424    -7.782234    826.62393  0.016083429  0.015061028           12 
 4284000   0.56793891   -7.7746169    825.85111  0.016064642  0.015056243           13 
 4285000    0.5732589   -7.7736671    828.39751  0.016110414  0.015051459           12 
 4286000   0.56113978   -7.7868439    827.09092  0.016081251   0.01504667           16 
 4287000   0.56822246   -7.7498695    826.57413  0.016067454  0.015041886           15 
 4288000   0.57486572   -7.7542798    825.16274  0.016036278  0.015037099            5 
 4289000   0.56129456   -7.7536191    826.97337  0.016067719  0.015032318           16 
 4290000   0.54935939   -7.7607384    826.86925  0.016061951  0.015027539           14 
 4291000   0.56947608   -7.7614383    826.54322  0.016051876  0.015022762           17 
 4292000   0.55914179   -7.7719167     826.4672  0.016046661  0.015017988           21 
 4293000   0.56011745   -7.7778511    826.88089  0.016050953   0.01501321           62 
 4294000   0.57427075   -7.7455217    825.91488  0.016028468  0.015008429           18 
 4295000   0.57085301    -7.775393    827.27348  0.016051096  0.015003657           21 
 4296000   0.55877749   -7.7783917    826.38776  0.016030179  0.014998887           21 
 4297000   0.57447908    -7.764902    827.31199  0.016044372  0.014994128           26 
 4298000   0.56937598   -7.7713496    825.57255  0.016006913  0.014989362           17 
 4299000   0.55062588   -7.7707965    826.28507  0.016017001  0.014984598           33 
 4300000   0.56806673   -7.7947865    826.83875  0.016024007  0.014979833           31 
 4301000   0.57463187   -7.7483156    826.65524  0.016016726  0.014975069           22 
 4302000   0.57583049   -7.7710327    827.64604  0.016032195  0.014970312           21 
 4303000   0.57382424   -7.7736461    826.82582  0.016012585  0.014965553           20 
 4304000    0.5550804   -7.7712459    826.51797  0.016002904  0.014960801           23 
 4305000   0.54878343   -7.8002347    827.76953  0.016023413  0.014956051           16 
 4306000   0.56744125   -7.7723707    826.59712  0.015997003  0.014951297           26 
 4307000     0.554437   -7.7721111    826.94786  0.016000075  0.014946539           16 
 4308000    0.5568635   -7.7785437    825.14684  0.015961522  0.014941788           22 
 4309000   0.56861647   -7.7630458    826.59458  0.015985816  0.014937038           30 
 4310000   0.55616106   -7.7824459    825.92346  0.015969131  0.014932293            8 
 4311000   0.55653564   -7.7811623    827.21102  0.015990316  0.014927549           28 
 4312000   0.56182003   -7.7902226    826.76342  0.015977957  0.014922803           28 
 4313000   0.56737866   -7.7965207    825.65871  0.015952908  0.014918049           16 
 4314000   0.56707848   -7.7936293     825.8695  0.015953282    0.0149133           37 
 4315000   0.55565788   -7.7963447    826.15601  0.015955118  0.014908549           22 
 4316000   0.56608448   -7.7506694    826.56707  0.015959358  0.014903802           28 
 4317000   0.56265878   -7.7666539    826.14242  0.015947464  0.014899058           20 
 4318000   0.55607765    -7.788037    825.86045  0.015938329  0.014894314           17 
 4319000   0.56173699   -7.7842769    826.48864  0.015946759  0.014889572           13 
 4320000    0.5644565   -7.7738162    826.78249  0.015948736  0.014884832           29 
 4321000   0.56297757   -7.7735431    825.43872   0.01591913  0.014880092           29 
 4322000   0.56730701   -7.7696186    826.35283  0.015933072  0.014875357           16 
 4323000   0.56397368   -7.7716768    825.79187  0.015918573   0.01487062           28 
 4324000    0.5627365   -7.8027808    825.62467  0.015911669  0.014865884           25 
 4325000    0.5711832   -7.7721843    825.57689  0.015907069  0.014861159           22 
 4326000   0.56714948   -7.7727959    825.51298  0.015902161  0.014856435           16 
 4327000   0.56873648   -7.7752661    823.74108  0.015864361  0.014851712           25 
 4328000   0.56303304   -7.7760746    825.44539  0.015893511   0.01484699           14 
 4329000    0.5569285   -7.7730455    825.66054  0.015893981  0.014842264           22 
 4330000   0.55406528   -7.7748041    826.24427  0.015901545  0.014837539           24 
 4331000   0.56092089   -7.7776364    824.72217  0.015868586  0.014832821           14 
 4332000    0.5725222   -7.7877178    826.71414  0.015903242  0.014828109           23 
 4333000   0.55911641   -7.7465152    826.58281  0.015897046  0.014823398           26 
 4334000   0.56446394   -7.7679653    826.38707  0.015889615  0.014818692           17 
 4335000   0.54723213   -7.7727519     826.4131  0.015886449  0.014813985           15 
 4336000   0.54983485   -7.7776653    823.69792  0.015830603  0.014809272           17 
 4337000   0.55427102   -7.7958693    826.65238  0.015883721   0.01480456           24 
 4338000   0.56863166   -7.7878333    825.87239  0.015865076  0.014799855           24 
 4339000   0.54688604   -7.7876534    826.22853  0.015868259  0.014795148            9 
 4340000   0.55628209   -7.7734156     825.9129  0.015858543  0.014790445           18 
 4341000   0.56832646   -7.7889558    825.96813   0.01585595  0.014785739           21 
 4342000   0.56353447   -7.7708852     824.6825  0.015827624  0.014781036           15 
 4343000    0.5614198   -7.7959243    825.54313  0.015840493  0.014776328           14 
 4344000   0.55361141   -7.7962757    827.09381  0.015866594  0.014771626           25 
 4345000   0.55892417   -7.7664402    826.26154   0.01584698  0.014766931           15 
 4346000   0.55729571    -7.784078    825.51987  0.015829112  0.014762239           18 
 4347000   0.55707823   -7.7856386    826.07038  0.015836025  0.014757544           13 
 4348000   0.56294002   -7.7956418    826.04639  0.015831923  0.014752848           26 
 4349000   0.55313718   -7.7900694    825.49627  0.015817741  0.014748155           35 
 4350000   0.55542414   -7.8059416    825.16196    0.0158077  0.014743459           32 
 4351000      0.55519   -7.7911785    826.24515  0.015824813  0.014738763           46 
 4352000    0.5624565   -7.7813785    825.97081  0.015815924  0.014734068           31 
 4353000   0.54613521   -7.7750856    826.05565  0.015813915  0.014729377           21 
 4354000   0.54847547   -7.7955963    826.03377  0.015809864  0.014724686           65 
 4355000   0.55454657   -7.7973752     825.3988  0.015794083  0.014719996           35 
 4356000   0.55431558    -7.794235    825.63689  0.015795012   0.01471531           59 
 4357000   0.54857794    -7.791956    826.66036  0.015810963  0.014710624           66 
 4358000   0.55082979   -7.7927082    825.95242  0.015793797  0.014705936           67 
 4359000   0.54818307   -7.7944957    825.31947  0.015778073  0.014701247           33 
 4360000   0.55979392   -7.7803814    824.21114  0.015753271  0.014696566           22 
 4361000   0.56608814   -7.7923468    826.37195  0.015790949  0.014691886           39 
 4362000   0.56633266   -7.7872756     826.1729  0.015783526  0.014687213           62 
 4363000   0.55739421   -7.7728183    824.13558  0.015740996  0.014682536           18 
 4364000   0.56378893    -7.794836    825.66694  0.015766631   0.01467786           29 
 4365000   0.54968346   -7.7923168    826.31567  0.015775404  0.014673189           55 
 4366000   0.54871429   -7.7826141    825.82642  0.015762453  0.014668521           38 
 4367000    0.5519304   -7.7959653    826.01407  0.015762424  0.014663861           41 
 4368000    0.5591934   -7.7784875    826.26486    0.0157636  0.014659202           22 
 4369000   0.55186149   -7.7866247    825.94395  0.015753871   0.01465454           50 
 4370000   0.55781023    -7.772007    824.50009  0.015722732  0.014649878           36 
 4371000   0.56503658   -7.7731872    825.44244  0.015737101  0.014645222           13 
 4372000   0.54393078   -7.7822066     826.6306  0.015756149  0.014640565           16 
 4373000   0.54410289   -7.7825882    825.71831  0.015735161  0.014635906           52 
 4374000    0.5450464    -7.809476    825.31036  0.015723791  0.014631248           23 
 4375000   0.54360639   -7.7903913    824.31443  0.015701227  0.014626584           13 
 4376000    0.5613415    -7.805207    824.47174  0.015700635  0.014621928           25 
 4377000   0.55204278   -7.7963463    825.50538  0.015716727  0.014617271           30 
 4378000   0.55348324   -7.7963071     824.9554  0.015702669  0.014612612           26 
 4379000    0.5370654   -7.7972368    826.71695  0.015732605  0.014607956           31 
 4380000   0.55496308   -7.7921165    824.60873  0.015688903  0.014603302           33 
 4381000   0.54491739   -7.8032296    826.21909  0.015715953  0.014598646           32 
 4382000   0.54252127   -7.7856808    825.12953  0.015691646  0.014593997           38 
 4383000   0.54407339   -7.8065609    825.17018  0.015688839  0.014589352           41 
 4384000   0.54327823   -7.8003507    825.28707  0.015687482  0.014584704           23 
 4385000   0.54813719   -7.7968737    826.05834  0.015698562  0.014580054           15 
 4386000   0.54597731   -7.7917244    824.97286  0.015674359  0.014575412           51 
 4387000   0.55144258   -7.7881263    825.77559  0.015686034  0.014570767           21 
 4388000   0.55454306   -7.8184774    826.09424  0.015688511  0.014566127           34 
 4389000   0.54797823   -7.7980138    824.59534  0.015656477   0.01456149           23 
 4390000   0.57225671   -7.7977747     825.7546  0.015674917  0.014556854           28 
 4391000   0.53842148   -7.8162939    825.49387  0.015666399  0.014552217           29 
 4392000   0.54739586   -7.7888383      825.328  0.015659684   0.01454758           31 
 4393000   0.55943404    -7.797277    823.21409   0.01561602  0.014542947           25 
 4394000   0.53959955   -7.7915631    824.61417  0.015639019  0.014538316           20 
 4395000   0.55202727   -7.8129124    826.02217  0.015662157  0.014533685           20 
 4396000   0.54326933   -7.7921691    824.93121  0.015637913  0.014529054           12 
 4397000   0.54990403   -7.7983382     825.3368  0.015642044  0.014524422           14 
 4398000   0.54568441   -7.7864342    824.92407  0.015630667  0.014519802           24 
 4399000   0.53503029   -7.7836203    825.79537  0.015643619  0.014515181           21 
 4400000   0.55619406   -7.8056122    824.90094  0.015623124  0.014510555           23 
 4401000   0.55761907   -7.7942435    825.41162  0.015629244  0.014505933           25 
 4402000   0.54596921   -7.8001328     825.8601  0.015634183  0.014501312           61 
 4403000   0.55497191   -7.8124746     823.5638  0.015587172  0.014496704           22 
 4404000   0.55060478    -7.799641    826.74768  0.015643878  0.014492086           31 
 4405000   0.56057314     -7.80423    825.80843  0.015622558  0.014487467           14 
 4406000   0.54869922   -7.8221797    825.37938  0.015610898  0.014482854           33 
 4407000   0.55486998   -7.8204602    825.38861   0.01560753  0.014478244           21 
 4408000   0.55407143   -7.8061288    824.55048  0.015588144  0.014473632           24 
 4409000   0.54258435   -7.7950735    826.44125  0.015620346  0.014469024           21 
 4410000   0.54185437   -7.8080904    825.64138  0.015601689  0.014464421           27 
 4411000    0.5563246   -7.8030696     826.4391  0.015613223  0.014459817           13 
 4412000   0.54982109   -7.8020476    824.91949  0.015580982  0.014455211           19 
 4413000   0.54323282   -7.7946261    825.48912  0.015588208  0.014450613           23 
 4414000   0.53479078   -7.8046213    825.09333  0.015577204  0.014446015           35 
 4415000   0.54270527   -7.8091206    824.81117   0.01556835  0.014441419           14 
 4416000   0.56809706   -7.8131213    825.17352  0.015571662  0.014436824           23 
 4417000   0.54283851   -7.8015875    825.59694  0.015576125  0.014432234           16 
 4418000   0.53638738   -7.7959133    824.95187  0.015560432  0.014427641           27 
 4419000   0.54281175   -7.7922307     824.9432  0.015556747  0.014423048           26 
 4420000   0.54172763   -7.8080269    824.70233  0.015548686  0.014418458           15 
 4421000   0.54860512   -7.7976435    825.59322  0.015561962  0.014413872           13 
 4422000   0.54851149    -7.793018    825.55326   0.01555769  0.014409286           15 
 4423000   0.54479316   -7.7967382    825.03783  0.015544461    0.0144047           20 
 4424000    0.5384909   -7.8055237     825.0273  0.015540749  0.014400115           31 
 4425000   0.54977458   -7.8030131    823.91508  0.015516292   0.01439553           18 
 4426000   0.53662711   -7.8177859    824.99913  0.015533197  0.014390952           28 
 4427000    0.5547143   -7.8223683    823.79675  0.015507054  0.014386371           21 
 4428000   0.53955651   -7.8093709    823.92278  0.015505924  0.014381797           21 
 4429000   0.54925662   -7.8108006    824.24781  0.015508539   0.01437722           24 
 4430000    0.5463242    -7.816875     824.5952  0.015511573   0.01437265           14 
 4431000   0.53904903    -7.809892     827.5041  0.015562779  0.014368076           26 
 4432000   0.54764312   -7.8162132    824.65376  0.015505674  0.014363505           17 
 4433000   0.54715034   -7.8209873    825.17583   0.01551199  0.014358933           16 
 4434000   0.54581173   -7.8264378    824.50141  0.015495817  0.014354361           24 
 4435000   0.55069455   -7.8069274    825.00845   0.01550185  0.014349794           20 
 4436000   0.53760256    -7.801124     824.2269  0.015483673   0.01434523           15 
 4437000   0.54124688   -7.8167932    823.17695  0.015460464  0.014340663           23 
 4438000   0.54586415   -7.8087229    824.64968  0.015484634  0.014336105           18 
 4439000   0.54662031   -7.8188921    824.03514  0.015469609  0.014331545           21 
 4440000   0.53926939   -7.8193708    825.85195  0.015500224  0.014326989           31 
 4441000   0.53244661    -7.822024    823.20468  0.015447059  0.014322428           14 
 4442000   0.53771944   -7.8269208    824.20729  0.015462391  0.014317867           14 
 4443000   0.54140498   -7.8182336    827.00968  0.015511473   0.01431331           20 
 4444000   0.53551052    -7.815149    825.71438  0.015483693  0.014308753           15 
 4445000   0.53804456    -7.821636    824.76611  0.015462432    0.0143042           18 
 4446000   0.53463379   -7.8174206    825.82577  0.015478816  0.014299646           29 
 4447000   0.54560719   -7.8154328    824.17455  0.015444392  0.014295092           26 
 4448000   0.53003124   -7.8171679    824.22313   0.01544183  0.014290541           20 
 4449000   0.54567788   -7.8007653     824.1301  0.015436617   0.01428599           22 
 4450000   0.54634948   -7.7979379    822.42195   0.01540116  0.014281443           16 
 4451000    0.5446886    -7.822314     824.7791  0.015441831  0.014276906           18 
 4452000   0.54611211   -7.8076062    823.89648  0.015421842   0.01427236           23 
 4453000   0.53136187   -7.8306756    823.31978  0.015407586  0.014267819           22 
 4454000   0.53378252   -7.8228533    824.19214  0.015420449  0.014263278           23 
 4455000   0.54437944   -7.7986342    824.62949  0.015425168  0.014258742           11 
 4456000   0.53642818   -7.8070374    823.10326  0.015393164  0.014254205           21 
 4457000   0.54045523   -7.8164046    824.45142  0.015414917  0.014249669           18 
 4458000   0.53377969   -7.8117618    825.25256  0.015426435  0.014245139           23 
 4459000   0.53862151    -7.807447    824.27237  0.015404657  0.014240619           16 
 4460000   0.54038206   -7.8163826    825.09249  0.015416526  0.014236089           24 
 4461000   0.53116528   -7.8019788    824.75709  0.015406805  0.014231563           16 
 4462000   0.53961194   -7.8157909    824.78855   0.01540394  0.014227041           18 
 4463000   0.53665495   -7.8118762    824.85787  0.015401783  0.014222521           34 
 4464000   0.52293718    -7.820112    823.34286   0.01537005  0.014217997           12 
 4465000   0.53937103   -7.8115676    823.43777  0.015368379  0.014213472           29 
 4466000   0.54070385   -7.8213529    824.63668  0.015387309  0.014208954           21 
 4467000   0.54211587   -7.8274863    824.82527  0.015387383  0.014204439           21 
 4468000   0.54507122    -7.823495     824.9942   0.01538709  0.014199923           16 
 4469000   0.54118967    -7.831826    823.90644  0.015363363  0.014195412           33 
 4470000   0.52637798   -7.8015192     824.8768  0.015378016  0.014190896           22 
 4471000   0.52003754   -7.8103687    825.28364   0.01538216  0.014186386           20 
 4472000   0.52213093   -7.8032786    823.91984  0.015353306  0.014181875           29 
 4473000   0.52564488   -7.8108791    823.25651  0.015337516  0.014177367           21 
 4474000   0.53286203   -7.8057439    824.16052  0.015350926  0.014172867           16 
 4475000   0.52944938   -7.8195888    824.13088  0.015346944  0.014168369           16 
 4476000    0.5219872   -7.8271338    824.35497  0.015347687  0.014163869           24 
 4477000   0.54152341   -7.8211391    824.54513  0.015347799  0.014159367           19 
 4478000   0.54388999   -7.8268938    823.62049  0.015327164  0.014154871           19 
 4479000   0.53367011   -7.8144724    823.56668  0.015322741  0.014150379           24 
 4480000   0.52775819   -7.8163311    823.80247  0.015323707  0.014145878           20 
 4481000   0.53296007    -7.817223      824.877   0.01534027  0.014141384           13 
 4482000   0.53181368   -7.8292509    824.50177  0.015329871  0.014136897           23 
 4483000   0.53008957   -7.8246678    823.87662  0.015314831  0.014132404           32 
 4484000   0.53905751   -7.8074426    824.77192  0.015328054  0.014127917           41 
 4485000   0.53079401   -7.8342868    825.78819  0.015343519  0.014123426           28 
 4486000   0.54993164   -7.8196154    824.20002  0.015310596  0.014118942           16 
 4487000   0.53828856   -7.8161557    823.34359  0.015291278  0.014114455           13 
 4488000   0.52803602   -7.8068746    824.85592  0.015315952  0.014109972           11 
 4489000   0.53842516   -7.8141086    824.62525  0.015308258  0.014105491           40 
 4490000   0.53082217   -7.8300524    824.37367   0.01530018  0.014101011           11 
 4491000   0.53454695   -7.8200046    824.53121  0.015299696  0.014096538           10 
 4492000   0.54599283   -7.8142788    823.19075  0.015271422  0.014092061           32 
 4493000   0.52856637    -7.823826    824.34192  0.015289375  0.014087585           16 
 4494000    0.5366563   -7.8246878    823.87324  0.015277282  0.014083108           16 
 4495000     0.535233    -7.826684    822.86848  0.015255256  0.014078632           21 
 4496000   0.53155281   -7.8180834    825.56946  0.015301925  0.014074154           21 
 4497000   0.52882584   -7.8326408    824.62215  0.015280968  0.014069683           25 
 4498000   0.52404606   -7.8179097    821.57623   0.01522114  0.014065212           15 
 4499000   0.53394027   -7.8175844    824.01858  0.015262995  0.014060742           15 
 4500000    0.5403589   -7.8316284    824.96563  0.015277141  0.014056271           19 
 4501000   0.54155283   -7.8221063    823.88888  0.015253812  0.014051807           12 
 4502000   0.53438217   -7.8432769    822.30773  0.015221156  0.014047333           22 
 4503000   0.53459239   -7.8133156     823.7346  0.015244182  0.014042871           18 
 4504000   0.53982656   -7.8220063    824.45127  0.015254057  0.014038407           19 
 4505000   0.52136949   -7.8489691    825.15747  0.015263734  0.014033945           23 
 4506000   0.53471733   -7.8349347    824.20741  0.015242777  0.014029487           25 
 4507000   0.53379686   -7.8168599    825.82988  0.015269393  0.014025036           23 
 4508000    0.5255807   -7.8162849    823.53963   0.01522367  0.014020587           26 
 4509000   0.54543123    -7.818397    823.27642  0.015215429  0.014016137           18 
 4510000   0.53288655   -7.8334795      823.611  0.015218237  0.014011691           26 
 4511000   0.52062614   -7.8140905    822.93232  0.015202326  0.014007245           21 
 4512000   0.52669221   -7.8419266    825.29634  0.015242619  0.014002802           12 
 4513000   0.53622305   -7.8285558    823.47222  0.015205558  0.013998357           21 
 4514000   0.52621305   -7.8352793    824.47904  0.015220777  0.013993911           18 
 4515000   0.52807839   -7.8237708    825.39205  0.015234257  0.013989466           19 
 4516000   0.53408501   -7.8242861     823.8934  0.015203229  0.013985022           29 
 4517000   0.52646531   -7.8290376    823.39475  0.015190664  0.013980577           18 
 4518000   0.51358927   -7.8187501    824.07831   0.01519991  0.013976135           34 
 4519000   0.52689065   -7.8539905    823.14805  0.015179392  0.013971697           29 
 4520000   0.53378366   -7.8315679    824.24786   0.01519631  0.013967257           17 
 4521000   0.51929031   -7.8343312    823.60428  0.015181086   0.01396282           25 
 4522000   0.53385848   -7.8370954    823.70659  0.015179614  0.013958388           18 
 4523000   0.52851881   -7.8257829     825.3213  0.015206008  0.013953957           12 
 4524000    0.5217712    -7.830143    825.06017  0.015197837  0.013949523           21 
 4525000   0.53270574   -7.8101864    823.55349  0.015166731  0.013945096           15 
 4526000   0.52946101   -7.8516988    824.35116  0.015178067  0.013940667           17 
 4527000   0.52305202   -7.8237299    823.37824  0.015156804  0.013936241           30 
 4528000   0.51476426   -7.8483959    823.24372  0.015150981  0.013931812           21 
 4529000   0.52077601   -7.8533279    824.68496  0.015174155  0.013927385           35 
 4530000   0.53375885   -7.8251158    823.46003  0.015148271  0.013922958           12 
 4531000   0.51966738   -7.8272131    823.79904  0.015151163  0.013918534           12 
 4532000   0.53390711   -7.8359819    823.80343  0.015147901  0.013914114           18 
 4533000    0.5268327   -7.8257567    822.85144  0.015127058  0.013909691           15 
 4534000   0.53050332   -7.8341132    822.81652   0.01512308  0.013905271           31 
 4535000    0.5196087   -7.8275729    823.42164  0.015130864  0.013900857           16 
 4536000   0.51897088   -7.8457788    823.47903  0.015128583   0.01389644           29 
 4537000   0.51512073   -7.8504413    825.32026  0.015159067  0.013892026           19 
 4538000   0.52737236   -7.8384117    824.03821  0.015132184   0.01388761           16 
 4539000   0.53884258   -7.8461158    823.11638  0.015111926  0.013883199           30 
 4540000   0.53214083   -7.8426404    823.87591  0.015122539   0.01387879           51 
 4541000   0.51792121   -7.8333304    823.90485   0.01511974  0.013874383            9 
 4542000   0.52329239   -7.8481723    823.73081  0.015113218  0.013869978           17 
 4543000   0.52450844   -7.8447835    824.51507  0.015124277  0.013865578           36 
 4544000   0.52707126   -7.8272529    823.88803  0.015109449  0.013861176           14 
 4545000   0.52175631   -7.8317799    823.74852  0.015103566  0.013856774           24 
 4546000   0.52593913   -7.8351149    823.76851  0.015100611  0.013852373           18 
 4547000   0.52743796   -7.8322325     823.6629  0.015095354   0.01384797           22 
 4548000   0.54077349   -7.8441324    824.18079  0.015101524  0.013843573           17 
 4549000   0.51800346   -7.8425051    824.10004  0.015096725   0.01383918           25 
 4550000    0.5125068   -7.8575558    823.34461  0.015079572  0.013834783           21 
 4551000   0.53743716   -7.8334115    822.06283  0.015052788  0.013830384            8 
 4552000   0.50874628   -7.8437635    823.59816  0.015077588  0.013825992           31 
 4553000   0.51652413   -7.8425316    823.30099  0.015068837  0.013821605            7 
 4554000   0.52493222   -7.8295311    822.23291  0.015045984  0.013817217           20 
 4555000   0.52078255   -7.8481826    823.20443  0.015060454   0.01381283           41 
 4556000   0.51837155   -7.8492414    822.87288  0.015051084   0.01380844           24 
 4557000     0.511492   -7.8532153    823.25488  0.015054767  0.013804056           29 
 4558000   0.52156888   -7.8284469    824.34498  0.015071394  0.013799675           20 
 4559000   0.52655187   -7.8436493    824.94006  0.015078966  0.013795296           24 
 4560000    0.5237936   -7.8455126    823.62863  0.015051693  0.013790916           17 
 4561000   0.51487922   -7.8594188     822.7142  0.015031685  0.013786539           14 
 4562000   0.51673627   -7.8585901    824.14998  0.015054617   0.01378216            7 
 4563000   0.51870762   -7.8471891     823.8435  0.015045721  0.013777789           18 
 4564000   0.51324146   -7.8439522    823.59092  0.015037813  0.013773418           20 
 4565000   0.52378794   -7.8409512    823.13526  0.015026201  0.013769041           29 
 4566000   0.51682973   -7.8337653     823.4286  0.015028263   0.01376467           18 
 4567000   0.52454514   -7.8520804    823.11653  0.015019278  0.013760299           22 
 4568000    0.5076319   -7.8656834    823.12982  0.015016233  0.013755923           10 
 4569000    0.5172328   -7.8485979    823.27373  0.015015571  0.013751555           11 
 4570000   0.52342853   -7.8568319    823.47138  0.015015889   0.01374719           16 
 4571000   0.51442733   -7.8396753    823.00562  0.015004113  0.013742823           23 
 4572000   0.51945353   -7.8448169    823.76159   0.01501461  0.013738466           17 
 4573000   0.51557898   -7.8607884    822.47962  0.014987966  0.013734103           12 
 4574000   0.52636219   -7.8465724     823.8124  0.015008971  0.013729742           17 
 4575000   0.51927875   -7.8687958    824.12545  0.015011392  0.013725384           20 
 4576000    0.5262065   -7.8493228    822.50426  0.014978589   0.01372103           32 
 4577000   0.53683296   -7.8414291    822.60491  0.014977149  0.013716676           19 
 4578000   0.52932011   -7.8332892    823.14932  0.014983787  0.013712328           15 
 4579000   0.52798877   -7.8683452    822.20952  0.014963411  0.013707977           21 
 4580000   0.52078759   -7.8387247    822.99654  0.014974464  0.013703625           10 
 4581000   0.51847264   -7.8451743    824.07825  0.014990873  0.013699276           29 
 4582000   0.52509605   -7.8387666     823.4859  0.014976828  0.013694931           24 
 4583000   0.51830096   -7.8480158    823.59338  0.014975514  0.013690583           27 
 4584000   0.51879863   -7.8473281    821.79427  0.014939541   0.01368624           33 
 4585000   0.51990015   -7.8559668    822.99397  0.014958087  0.013681901           13 
 4586000   0.52163808   -7.8499787    823.53593  0.014964674  0.013677556           31 
 4587000   0.52520968   -7.8385505    822.63086  0.014944969  0.013673221           10 
 4588000    0.5188642   -7.8522785    821.56276  0.014922311  0.013668887           21 
 4589000   0.49610096   -7.8636876     825.0812  0.014982952  0.013664551           27 
 4590000   0.51242921   -7.8511729    822.61669  0.014934943  0.013660214           22 
 4591000   0.51709343   -7.8432888    823.00668  0.014938769  0.013655878           21 
 4592000   0.52258104    -7.848334    822.11901  0.014919407  0.013651542           10 
 4593000   0.51978433   -7.8649729    824.31953  0.014956084  0.013647205           27 
 4594000   0.50762996   -7.8596777    822.12317  0.014912987  0.013642873           24 
 4595000   0.51484734   -7.8565819    823.24379  0.014930065  0.013638538           17 
 4596000    0.5096049   -7.8591908    822.59292  0.014915015  0.013634212           13 
 4597000   0.52705834    -7.842364    823.04282  0.014919926  0.013629885           13 
 4598000   0.52433954     -7.84647     821.7318  0.014892921  0.013625562           17 
 4599000   0.52430889   -7.8414638    822.56176  0.014904721  0.013621234           19 
 4600000    0.5314731   -7.8461365    821.94872  0.014890375  0.013616912           13 
 4601000   0.49628153   -7.8536493    821.96908  0.014887508  0.013612587           12 
 4602000   0.52806957   -7.8569941    823.22896  0.014907087  0.013608263           23 
 4603000   0.52092523   -7.8557572    822.38932  0.014888647  0.013603941           19 
 4604000   0.51984403   -7.8663922     822.3097  0.014883972  0.013599622           18 
 4605000   0.52005309   -7.8396843    822.75501  0.014888799  0.013595304           14 
 4606000   0.52325188   -7.8656524    821.32464  0.014859687  0.013590984           23 
 4607000   0.51090247   -7.8502032    823.14021  0.014889303  0.013586672           15 
 4608000   0.52451119   -7.8398518    823.17976  0.014886787  0.013582362           23 
 4609000   0.51347271   -7.8685278     822.7301  0.014875427  0.013578054           16 
 4610000   0.51989565   -7.8547235    823.87571  0.014892909  0.013573746           14 
 4611000   0.51629813   -7.8611004    821.74117  0.014851102  0.013569438           27 
 4612000   0.52111174    -7.874407    823.40415   0.01487793  0.013565132           25 
 4613000   0.51558676   -7.8559323    822.86602  0.014864983  0.013560829           18 
 4614000   0.51354785   -7.8677741    822.21688  0.014850038   0.01355653           18 
 4615000   0.51176517   -7.8553313    822.78527  0.014857083   0.01355223           16 
 4616000   0.50164948   -7.8582822    822.68819  0.014852112  0.013547928           14 
 4617000     0.515724   -7.8833833    823.91193  0.014870983  0.013543627           12 
 4618000   0.52489708   -7.8524443    821.74106  0.014828589   0.01353933           17 
 4619000   0.52335049    -7.863979    822.82127  0.014844867  0.013535034           13 
 4620000   0.50317901   -7.8483851    821.51777  0.014818142  0.013530738           17 
 4621000   0.50909407   -7.8621535      823.155   0.01484446  0.013526448           12 
 4622000   0.51201643   -7.8662151    822.19668   0.01482397  0.013522158            9 
 4623000   0.51472792   -7.8522417    822.89705  0.014833388  0.013517868           18 
 4624000   0.50792187   -7.8534064    821.41419  0.014803456  0.013513585           11 
 4625000   0.51935389   -7.8723617    821.93379  0.014809618  0.013509304           15 
 4626000   0.50847938   -7.8676204    822.52206  0.014817014   0.01350502           23 
 4627000   0.50633085   -7.8659495    823.25925  0.014827088   0.01350074           17 
 4628000   0.50735754   -7.8705942    821.54331  0.014792987  0.013496461           18 
 4629000   0.51021556   -7.8669912    822.53161  0.014807583  0.013492182           18 
 4630000   0.50913341   -7.8853383    821.98033  0.014794462  0.013487903           17 
 4631000   0.51571056   -7.8640248    821.05642  0.014774642  0.013483626           16 
 4632000   0.50522142   -7.8800799    823.48881  0.014815213  0.013479355           27 
 4633000   0.50517813   -7.8695969    822.55093  0.014795146  0.013475087           16 
 4634000   0.51036667   -7.8730832    822.87363  0.014797756  0.013470816           11 
 4635000   0.48960179   -7.8595704    821.60498  0.014771754  0.013466547           15 
 4636000   0.50625373   -7.8686543     821.9172   0.01477418   0.01346228           11 
 4637000   0.50656571   -7.8714672    821.18388  0.014757815  0.013458016           21 
 4638000   0.50668521   -7.8542163    822.51413  0.014778535  0.013453754           36 
 4639000   0.51591141   -7.8665475    822.05548   0.01476711  0.013449491           21 
 4640000   0.50591024   -7.8694125    822.26191  0.014767635  0.013445232           11 
 4641000   0.50408353   -7.8558813       823.07  0.014778963  0.013440975           22 
 4642000    0.5129597   -7.8648226    822.56109  0.014766643  0.013436719           16 
 4643000   0.51835959   -7.8555934    822.44268  0.014761338  0.013432463           10 
 4644000    0.4967434   -7.8741153    821.94444  0.014749218  0.013428211           20 
 4645000   0.50142938   -7.8569771    821.78195  0.014743128   0.01342396           11 
 4646000   0.51469466   -7.8659678     823.3541  0.014768154  0.013419713           19 
 4647000   0.51113659   -7.8928331    821.14261  0.014725318  0.013415461           26 
 4648000   0.49844995   -7.8571544    822.96513  0.014754825  0.013411214           16 
 4649000   0.51181207   -7.8702592    821.33106  0.014722361  0.013406964           12 
 4650000   0.50518739   -7.8645166    823.09744   0.01475085  0.013402721           17 
 4651000    0.5080042   -7.8769072    821.21627  0.014713973  0.013398471           13 
 4652000   0.50947012   -7.8788088    821.34795  0.014713169   0.01339423           15 
 4653000   0.50434705   -7.8609477    821.97657  0.014721265  0.013389989           19 
 4654000   0.50456267   -7.8705961    822.87036  0.014734106  0.013385752           13 
 4655000   0.51755913   -7.8546752    823.16258  0.014736172   0.01338152           13 
 4656000   0.50887566   -7.8694415    822.01621  0.014712489  0.013377288           17 
 4657000   0.50607626   -7.8663775    823.23716  0.014731178  0.013373058           14 
 4658000   0.51111594   -7.8615135    822.57177  0.014716112  0.013368828           14 
 4659000   0.51355739   -7.8691187    822.27275  0.014707604  0.013364598           28 
 4660000   0.50448307   -7.8708692    822.91823  0.014715991  0.013360372           16 
 4661000    0.5029343   -7.8679233    821.79995   0.01469284  0.013356147           13 
 4662000   0.50384016   -7.8777938     821.8997  0.014691472  0.013351921           21 
 4663000   0.52033909   -7.8695236    822.04484  0.014690915  0.013347695           20 
 4664000   0.50955152   -7.8623811    823.72418  0.014717771  0.013343473           18 
 4665000   0.50915925   -7.8661672    822.04258  0.014684576  0.013339258           15 
 4666000   0.50853965   -7.8884227     823.2295  0.014702627  0.013335036           11 
 4667000   0.50778715   -7.8690045    822.65864  0.014689284  0.013330821           15 
 4668000   0.49810709   -7.8705473    822.26311  0.014679076  0.013326606           15 
 4669000   0.51098575   -7.8794065    821.37356  0.014660055  0.013322395           11 
 4670000   0.50189154    -7.867341    822.52799  0.014677516  0.013318185           18 
 4671000   0.49943304   -7.8730375    821.37907  0.014653876  0.013313974           18 
 4672000   0.50283073   -7.8711213    822.66997  0.014673765  0.013309766           14 
 4673000   0.50067976   -7.8602594    820.32216  0.014628757  0.013305558            9 
 4674000    0.5036631   -7.8728001    822.89921  0.014671573  0.013301356           18 
 4675000    0.4967634   -7.8707177     821.6215   0.01464566  0.013297152           16 
 4676000    0.5071009   -7.8722739    823.28294  0.014672137  0.013292946           16 
 4677000   0.50543908   -7.8894606    821.86261  0.014643693  0.013288746           13 
 4678000   0.50658393   -7.8717218     821.6889  0.014637468  0.013284547           17 
 4679000   0.49767307   -7.8877888    821.85328  0.014637267  0.013280348           19 
 4680000   0.50344446   -7.9048895    821.28934  0.014624098  0.013276148           18 
 4681000   0.49956802   -7.8771579    821.96102  0.014632931  0.013271946           17 
 4682000   0.51302438    -7.883086    821.90219  0.014628759  0.013267753           20 
 4683000   0.50096326   -7.8883691    821.89511  0.014625509  0.013263563           16 
 4684000   0.50595028   -7.8598366    821.27968  0.014611437  0.013259372           21 
 4685000   0.49701901   -7.8831591    823.18997  0.014642298  0.013255177           15 
 4686000   0.50695506   -7.8788088    821.54224  0.014609871  0.013250986           16 
 4687000   0.49119641   -7.8765247    821.23951  0.014601371  0.013246791           19 
 4688000   0.50448123   -7.8894815     821.8381  0.014608897  0.013242603           22 
 4689000   0.49684407    -7.865592    821.85836  0.014606141  0.013238419           20 
 4690000   0.49437696   -7.8929739    820.88336  0.014585703  0.013234237           16 
 4691000   0.49483813   -7.8709837    822.77466  0.014616192  0.013230051           21 
 4692000   0.51396707   -7.8764526    823.31914  0.014622747   0.01322587           24 
 4693000   0.50201418   -7.8748897    821.62406  0.014589532  0.013221691           15 
 4694000   0.49948301    -7.879843    821.22338   0.01457931  0.013217515           12 
 4695000   0.51197448    -7.861184    821.74971  0.014585547   0.01321334           20 
 4696000   0.49963015   -7.8797199    823.04659  0.014605455  0.013209165           11 
 4697000   0.49478037   -7.8890853     823.1018  0.014603325  0.013204991           12 
 4698000   0.49552261   -7.8890599     822.1355  0.014583076   0.01320082           11 
 4699000   0.50007033    -7.874014    821.16808  0.014562816  0.013196647           21 
 4700000   0.50648761   -7.8816137    821.84263  0.014571678   0.01319248           44 
 4701000   0.50598177   -7.8859504     822.6422  0.014582752   0.01318831           16 
 4702000   0.50842179   -7.8763905     821.9978   0.01456823  0.013184146           22 
 4703000   0.49975676   -7.8780934    822.93416  0.014581724  0.013179979           21 
 4704000   0.49817631   -7.8920769    821.36872  0.014550891  0.013175814           13 
 4705000   0.51233779   -7.8710152    821.83976  0.014556142  0.013171652           15 
 4706000   0.50174174   -7.8772004    820.73751   0.01453353  0.013167492           17 
 4707000   0.50885777   -7.8880698    821.52654  0.014544412  0.013163334           18 
 4708000   0.48949963   -7.9053113    822.37677  0.014556372  0.013159173           20 
 4709000   0.50380126   -7.8787246     822.2547   0.01455112  0.013155017            9 
 4710000   0.49461721   -7.8982526    820.62546  0.014519205   0.01315086           23 
 4711000   0.49775483   -7.8821197    822.70487  0.014552906  0.013146705           16 
 4712000    0.4983757   -7.8845182      821.319  0.014525308  0.013142553           28 
 4713000   0.50122614   -7.8718035     820.7611  0.014512361    0.0131384           28 
 4714000   0.49258303   -7.8737903    822.01652  0.014531476  0.013134253           11 
 4715000   0.51157354   -7.8829261    821.72352  0.014523215  0.013130107           19 
 4716000   0.49622642    -7.893802    822.05451  0.014525984  0.013125961           39 
 4717000   0.48754347   -7.8942208    821.75677  0.014517645  0.013121814           21 
 4718000   0.51043734   -7.8834354    820.86946  0.014498895   0.01311767           17 
 4719000   0.49699645   -7.8896198    820.35323  0.014486707  0.013113527           18 
 4720000   0.49213574   -7.8802433    820.73496  0.014490377  0.013109391           23 
 4721000   0.49731898   -7.8936084    821.87486  0.014507429  0.013105248           15 
 4722000   0.50029104   -7.8701671    820.81525  0.014485657  0.013101115           21 
 4723000   0.49654033   -7.8772953    822.20664   0.01450714  0.013096985           10 
 4724000   0.50332551   -7.8690255    821.77816   0.01449651  0.013092857           19 
 4725000   0.50725753   -7.8927914    821.36517  0.014486158  0.013088731           19 
 4726000   0.50019941   -7.8849832    822.02006  0.014494641  0.013084597           17 
 4727000   0.49076467   -7.8799188    820.81531  0.014470335  0.013080465           11 
 4728000   0.49200522   -7.8966309    821.87897  0.014486022  0.013076336           22 
 4729000   0.49640696   -7.8922181    822.24743  0.014489452  0.013072211           14 
 4730000   0.49265824   -7.8850966    822.37105  0.014488567  0.013068086           14 
 4731000   0.50486538   -7.8914698    821.37446   0.01446795  0.013063964           15 
 4732000   0.48912443    -7.894939    820.95479  0.014457502  0.013059839           22 
 4733000    0.4900294   -7.8775753    820.72061  0.014450324  0.013055718           15 
 4734000   0.49025046   -7.8910199    820.83474  0.014449281  0.013051596           17 
 4735000   0.48804449   -7.8835844    822.71439   0.01447931  0.013047477           14 
 4736000   0.49854002    -7.900431    822.11131  0.014465641  0.013043364           15 
 4737000    0.4927947   -7.9071863    821.56009   0.01445289  0.013039251           10 
 4738000   0.49607614   -7.8988569     820.8673  0.014437655  0.013035137           15 
 4739000   0.49152148   -7.8772378    821.07038  0.014438179  0.013031027           11 
 4740000   0.49946486   -7.9067971    821.29508  0.014439084  0.013026915           15 
 4741000   0.49332031   -7.8931206    820.54519  0.014422857  0.013022805           15 
 4742000   0.49605316   -7.8993776    820.78923  0.014424104  0.013018699           11 
 4743000   0.48902938   -7.8859006    821.40557  0.014431892  0.013014592           19 
 4744000   0.48877679   -7.8885819     822.7099  0.014451762  0.013010489           11 
 4745000   0.48900349   -7.8844189    821.38383  0.014425427  0.013006383           16 
 4746000   0.49146013   -7.8928113    822.11965  0.014435308  0.013002281           15 
 4747000   0.49591377   -7.8767292    821.00447   0.01441269  0.012998183           12 
 4748000   0.50258919   -7.9049761    821.64591  0.014420912  0.012994084           15 
 4749000   0.49287822   -7.8909864     820.3317  0.014394815  0.012989984           21 
 4750000   0.48704335   -7.8703393    820.12985  0.014388243  0.012985889           13 
 4751000   0.49259303   -7.8825514    820.74118  0.014395937  0.012981794           22 
 4752000   0.48997334   -7.8836842    821.52003  0.014406566    0.0129777           19 
 4753000   0.49806915   -7.8842618    821.76878  0.014407896  0.012973609           14 
 4754000   0.49268248   -7.8977429    821.45403  0.014399349  0.012969516           15 
 4755000   0.50001603   -7.9169295    821.00426  0.014388438  0.012965424           20 
 4756000   0.49227389   -7.8848541    821.30635  0.014390706  0.012961337           18 
 4757000   0.48488841   -7.8892069    819.90767  0.014363178  0.012957248           19 
 4758000    0.4854074   -7.8931665    820.69386  0.014373929  0.012953158           14 
 4759000    0.4850362   -7.8885698    820.04465  0.014359541  0.012949071           17 
 4760000   0.48704282   -7.8831611    822.05171  0.014391662  0.012944989            8 
 4761000   0.48471682   -7.8801923    821.59486  0.014380642  0.012940907           16 
 4762000   0.48248655   -7.9066813      820.877   0.01436506  0.012936827           18 
 4763000   0.49425495   -7.9190255    821.60502  0.014374782  0.012932747           16 
 4764000   0.48878153   -7.8874642    820.98254  0.014360876   0.01292867           14 
 4765000   0.49423706   -7.8857473    820.03614  0.014341311  0.012924597           18 
 4766000    0.4819236   -7.8946782    820.39898  0.014344646  0.012920524           24 
 4767000    0.4891669   -7.8900458    819.31862  0.014322751  0.012916454           21 
 4768000   0.49225118   -7.8833013     820.4727  0.014339917  0.012912385           19 
 4769000   0.49694479   -7.9071387    822.10393  0.014365414  0.012908315           16 
 4770000    0.4903014   -7.9078372    819.92186  0.014324281  0.012904244           16 
 4771000    0.4850398   -7.9043815    818.98785  0.014304965  0.012900171           18 
 4772000   0.49110667   -7.8944133    820.84597  0.014334415  0.012896102           17 
 4773000   0.49344508   -7.9063279    819.90584  0.014314998  0.012892032           18 
 4774000    0.4926734   -7.8989002    820.13329   0.01431597  0.012887967            9 
 4775000   0.47783177   -7.9096697    821.34062  0.014334042  0.012883904           13 
 4776000   0.49033919   -7.8896805    820.45121  0.014315522  0.012879841           12 
 4777000   0.48117601   -7.8975436    820.27441  0.014309441  0.012875781           15 
 4778000    0.4920322    -7.920089    819.57001  0.014294161  0.012871721           13 
 4779000   0.47826261   -7.9051543    822.02571  0.014333991  0.012867659           17 
 4780000   0.49063244   -7.9029817    821.60514   0.01432366  0.012863603           21 
 4781000   0.49251644   -7.8808751    820.11642  0.014294715  0.012859547           14 
 4782000   0.48763893   -7.9059774    820.33854  0.014295597  0.012855493           13 
 4783000   0.49110285   -7.9015021    820.16693  0.014289618  0.012851441           11 
 4784000   0.48434457   -7.8955614    820.62496   0.01429461  0.012847389           16 
 4785000    0.4802097   -7.9095414    821.19322  0.014301519  0.012843342           13 
 4786000   0.47685875   -7.9017204    820.94189  0.014294155  0.012839295           11 
 4787000    0.4833997   -7.9331834    819.97379  0.014274316  0.012835246           19 
 4788000   0.48861292   -7.9185687    819.69881  0.014266548    0.0128312           20 
 4789000   0.47714919   -7.9087461    820.25168   0.01427319  0.012827159           12 
 4790000   0.49330041    -7.905246    820.48659  0.014274297   0.01282312           32 
 4791000   0.49060035   -7.9012988    821.83817  0.014294827  0.012819081           13 
 4792000   0.47932769   -7.9259654    820.04984  0.014260744  0.012815043           11 
 4793000    0.4874834   -7.9083398     820.2082  0.014260522  0.012811005           15 
 4794000   0.47799946   -7.8919292    819.77292  0.014249981  0.012806969           16 
 4795000   0.47570848   -7.8975253    819.64843  0.014244846  0.012802935           21 
 4796000   0.47749282   -7.8940001     820.1187  0.014250047  0.012798905           16 
 4797000   0.47937118   -7.8906161    819.78885  0.014241346  0.012794875           15 
 4798000   0.49730724   -7.8995539    820.89161  0.014257531  0.012790847           16 
 4799000   0.48464455   -7.9093687     820.0099   0.01423925  0.012786821           15 
 4800000    0.4950955   -7.9181074    820.90189  0.014251769  0.012782796           16 
 4801000   0.49154972   -7.9142308    821.11201  0.014252448  0.012778774           25 
 4802000   0.48938865   -7.9140062    819.63149  0.014223787   0.01277475           24 
 4803000   0.47838468   -7.9028506    820.63259  0.014238195  0.012770729            9 
 4804000   0.47801726   -7.9185656    821.94916  0.014258069  0.012766709           18 
 4805000     0.478155   -7.9025144    821.13287  0.014240945  0.012762689           16 
 4806000    0.4817534   -7.9002421    819.78126  0.014214545  0.012758669           20 
 4807000   0.48313197   -7.9139022    818.73788    0.0141935  0.012754644           11 
 4808000   0.48360731   -7.9166492    821.58745  0.014239938  0.012750625           18 
 4809000   0.48629071   -7.9029033    820.99962   0.01422679  0.012746608           15 
 4810000   0.47412145   -7.8888141    819.73005  0.014201837  0.012742597           18 
 4811000   0.47664534   -7.9058431    819.69678  0.014198309  0.012738584           19 
 4812000   0.48630884   -7.9018488    820.57875  0.014210632   0.01273457           16 
 4813000    0.4804568   -7.9248852    821.54731   0.01422445  0.012730561           44 
 4814000   0.49358657   -7.9262852    820.35638  0.014200879  0.012726551           20 
 4815000   0.48261219   -7.9051151    819.92194  0.014190411  0.012722542           24 
 4816000   0.48975676   -7.9019365    821.72914  0.014218735  0.012718535           25 
 4817000   0.46905777   -7.9104128     820.3468  0.014191869  0.012714531           19 
 4818000   0.47757937   -7.9089304    819.95404   0.01418213   0.01271053           17 
 4819000   0.47816104   -7.9028989    819.57257  0.014172591  0.012706525           21 
 4820000   0.48185874   -7.8940643    821.38334  0.014200957  0.012702523           15 
 4821000   0.47822202   -7.9244199    819.46787  0.014164901  0.012698524           18 
 4822000   0.47828439   -7.9228519    821.44839  0.014196191  0.012694524           15 
 4823000   0.47772167   -7.9156096    819.06525  0.014152071  0.012690528           25 
 4824000   0.48901331   -7.9210257     819.7603  0.014161144  0.012686532           18 
 4825000   0.48464304     -7.93773    818.99873  0.014145056  0.012682537           28 
 4826000   0.48539887   -7.9169799    818.46819  0.014132964  0.012678543           14 
 4827000   0.47137521   -7.9098589    820.10733  0.014158334  0.012674549           20 
 4828000   0.48666063   -7.9161409    819.78413  0.014149823  0.012670561           31 
 4829000   0.48142046   -7.9129087     818.9762   0.01413295  0.012666571           28 
 4830000   0.47729398   -7.9259706    820.25894  0.014152156  0.012662585           16 
 4831000   0.47474271   -7.9215746    819.77958  0.014140957  0.012658598           12 
 4832000   0.49712924   -7.9246341    820.30121  0.014147027  0.012654616           26 
 4833000   0.47913098   -7.9183873    820.53313  0.014148099  0.012650635           18 
 4834000   0.47990334   -7.9227176    819.01587  0.014119016  0.012646655           23 
 4835000    0.4785026    -7.923712    819.70326  0.014127943  0.012642676           17 
 4836000   0.47674557   -7.9252763    820.73958   0.01414288  0.012638699           24 
 4837000   0.47311644    -7.921961    818.54451  0.014102138  0.012634724           17 
 4838000   0.46841224   -7.9155026    819.52252  0.014116069  0.012630749           17 
 4839000   0.47913894   -7.9189806    820.19893  0.014124801  0.012626774           18 
 4840000   0.47920199   -7.9073834     819.0228  0.014101632  0.012622804           16 
 4841000   0.47168415   -7.9003488     820.5039  0.014124215  0.012618833           10 
 4842000   0.48719893    -7.925327    820.26258  0.014117145  0.012614869           14 
 4843000   0.47623897   -7.9020723    819.74737  0.014105365    0.0126109           13 
 4844000   0.47987204   -7.9219088    819.00321  0.014089651  0.012606937           16 
 4845000    0.4721956   -7.9162905    821.10025  0.014122811  0.012602973           16 
 4846000   0.47628566   -7.9110799    819.06875  0.014084963  0.012599011            9 
 4847000   0.47063363   -7.9228021    819.27182  0.014085548  0.012595052           19 
 4848000   0.48426088   -7.9245563    818.88934  0.014076068  0.012591093           21 
 4849000    0.4686275   -7.9186239     819.1806  0.014078171  0.012587133           15 
 4850000   0.48179223   -7.9243891    819.57429  0.014082033  0.012583174           10 
 4851000   0.48193591   -7.9212013    819.67587  0.014080875   0.01257922           26 
 4852000   0.47297615   -7.9182708    820.35087  0.014089566  0.012575264           31 
 4853000   0.47196459   -7.9147664    820.15282  0.014083262  0.012571314           18 
 4854000   0.48520228   -7.9095316    819.63272  0.014071431  0.012567363           28 
 4855000   0.47463402   -7.9129995     819.1746  0.014060669  0.012563414           25 
 4856000   0.48453525   -7.9140078    819.64829  0.014065903  0.012559467           24 
 4857000   0.47444788   -7.9234582    820.81931  0.014083098  0.012555522           18 
 4858000   0.47907328   -7.9231664    819.94721   0.01406524  0.012551576           10 
 4859000     0.472674    -7.921871    820.08877  0.014064773  0.012547635           19 
 4860000   0.46387884   -7.9043562    819.09843  0.014044898  0.012543694           18 
 4861000   0.46937154   -7.9187241    819.95733  0.014056733   0.01253976           23 
 4862000   0.47633544   -7.9165553    818.94846   0.01403655   0.01253582           26 
 4863000   0.47382621   -7.9139065    819.77074  0.014047754  0.012531883           31 
 4864000   0.46715259    -7.910808    820.51369  0.014057595  0.012527946           13 
 4865000   0.47790401   -7.9237293    820.20935  0.014049492  0.012524007           29 
 4866000   0.47195102   -7.9189675    819.87955  0.014040957  0.012520076           17 
 4867000    0.4705527   -7.9237941     819.2047  0.014026517  0.012516142           19 
 4868000   0.47424698   -7.9095201    818.90938   0.01401858  0.012512214           21 
 4869000   0.47164514   -7.9229157    820.49345  0.014042812  0.012508289           23 
 4870000   0.47509352   -7.9284363    820.80058  0.014045184  0.012504363           15 
 4871000   0.47189168   -7.9172536    820.12298  0.014030709  0.012500437           20 
 4872000   0.46889103   -7.9259074    819.43095  0.014015992  0.012496515           37 
 4873000    0.4764969   -7.9120327    820.58506  0.014032852  0.012492597           30 
 4874000    0.4823591   -7.9033532    819.53693  0.014012053  0.012488684           17 
 4875000   0.47665873   -7.9238773    819.46458  0.014007942  0.012484772           16 
 4876000    0.4663751   -7.9224157    818.19863  0.013983433  0.012480857           24 
 4877000   0.47799079   -7.9212304    819.65741  0.014005492  0.012476944           31 
 4878000   0.47503835   -7.9122936    818.60867  0.013984705  0.012473032           39 
 4879000   0.47106719   -7.9154354    819.57163  0.013998286  0.012469124           14 
 4880000   0.48024924   -7.9266734     820.6046  0.014013057  0.012465218           28 
 4881000   0.46967646   -7.9268075    820.08223  0.014001267  0.012461307           20 
 4882000   0.47467523   -7.9126368    818.98671  0.013979699    0.0124574           17 
 4883000   0.47317423   -7.9206021    818.94644  0.013976149  0.012453493           25 
 4884000   0.47213004   -7.9352305    819.70054  0.013986154  0.012449589           22 
 4885000    0.4692568   -7.9343577    819.75305  0.013984187  0.012445688           22 
 4886000   0.46633241   -7.9371285    819.73326  0.013980988  0.012441785           21 
 4887000   0.46948503    -7.920095     819.5944  0.013975759  0.012437885           32 
 4888000   0.47193013   -7.9293991    819.60428  0.013973068  0.012433984           30 
 4889000   0.47334873   -7.9521708    820.80386  0.013990657  0.012430085           27 
 4890000   0.46636113   -7.9453267    819.04065  0.013957748  0.012426187           27 
 4891000   0.46864127   -7.9281367    819.64521  0.013965195  0.012422296           12 
 4892000   0.47672494   -7.9247504    819.36697    0.0139576  0.012418406           14 
 4893000   0.47152379   -7.9087998    819.38015  0.013954972  0.012414518           19 
 4894000   0.47682469   -7.9252444    820.20859  0.013966227  0.012410629           24 
 4895000   0.46563851   -7.9243015    820.06419  0.013960916  0.012406738           16 
 4896000   0.46463214     -7.93367    820.00015  0.013956974  0.012402851           23 
 4897000   0.46439764   -7.9460389     819.0861   0.01393857  0.012398966           16 
 4898000   0.46358973   -7.9308525    819.40572  0.013941162  0.012395082           21 
 4899000     0.475621   -7.9215853    820.29416  0.013953429  0.012391197           26 
 4900000    0.4744995    -7.926964    819.38351  0.013935094  0.012387316           20 
 4901000   0.46794327   -7.9214289    818.65184   0.01391981  0.012383438           17 
 4902000   0.47331558   -7.9096265    819.02554  0.013923323  0.012379561           23 
 4903000   0.46821693   -7.9226721    817.94713  0.013902154  0.012375684           48 
 4904000   0.46494222   -7.9297054    818.72514   0.01391254  0.012371808           12 
 4905000   0.46805528   -7.9222992    821.29457  0.013953357  0.012367935           21 
 4906000   0.46817322   -7.9415222    818.78256  0.013907843  0.012364063           15 
 4907000   0.47326446   -7.9286099    817.87784  0.013889645  0.012360192           18 
 4908000   0.46290583   -7.9246764    819.29394  0.013910859  0.012356323           23 
 4909000   0.46345032   -7.9417908    818.34139  0.013891855   0.01235245           23 
 4910000   0.46713591   -7.9465507    819.66166  0.013911434  0.012348582           17 
 4911000   0.47456111    -7.937899    819.28594  0.013902225  0.012344715           18 
 4912000   0.47083828   -7.9363929    819.15111  0.013897108  0.012340851           20 
 4913000   0.47104435    -7.916261    818.36491  0.013880944  0.012336991           20 
 4914000    0.4595352   -7.9305497    819.15449  0.013891509  0.012333132           38 
 4915000   0.46976656   -7.9405953    818.85003   0.01388352  0.012329273           22 
 4916000   0.46140899   -7.9311158    817.60588  0.013859606  0.012325419           17 
 4917000   0.46468187   -7.9415761    819.57602  0.013890177  0.012321562           19 
 4918000   0.46485329   -7.9299658    819.36991  0.013883861  0.012317703           20 
 4919000   0.46280771   -7.9471819    819.40665   0.01388166   0.01231385           16 
 4920000   0.46181905   -7.9271386    818.58318  0.013864891  0.012309996           34 
 4921000   0.45934604   -7.9324807    818.66014  0.013863377  0.012306143           29 
 4922000   0.46458095   -7.9353027    820.10499  0.013885023  0.012302296           15 
 4923000   0.46639689   -7.9143136    819.78597  0.013876802  0.012298448           30 
 4924000   0.47161649   -7.9543733    819.00445  0.013860758  0.012294603           29 
 4925000   0.45990602   -7.9278288    819.62119  0.013868379  0.012290758           17 
 4926000    0.4645096   -7.9152624     819.1094  0.013856905  0.012286916           24 
 4927000   0.46948172   -7.9360177    819.87581  0.013867056  0.012283074           20 
 4928000   0.47416359   -7.9350796    819.43601  0.013856805  0.012279235           27 
 4929000   0.46365289   -7.9292567    817.90989  0.013828192  0.012275394           17 
 4930000   0.45578977   -7.9229906    819.61788  0.013854258  0.012271553           17 
 4931000   0.47027121   -7.9369628    819.31217  0.013846281  0.012267718           37 
 4932000   0.46132353   -7.9277899     819.4407  0.013845646  0.012263885           20 
 4933000   0.47180967   -7.9404685    818.89234  0.013833576  0.012260051           33 
 4934000   0.45387814   -7.9389673    820.03087  0.013850001  0.012256219           42 
 4935000   0.45765178   -7.9333631    819.89015  0.013844819   0.01225239           12 
 4936000   0.45365054   -7.9508418    818.02486  0.013810522  0.012248562           19 
 4937000   0.45972432   -7.9275518    819.47924  0.013832274  0.012244735           18 
 4938000   0.45494565   -7.9432359    818.90101  0.013819715  0.012240911           24 
 4939000   0.45644431   -7.9236049    819.57966  0.013828367  0.012237088           22 
 4940000   0.47045866   -7.9527207    818.87374   0.01381366  0.012233261           24 
 4941000   0.45954449   -7.9385179    820.87379  0.013844596  0.012229443           18 
 4942000   0.44964143   -7.9356437    818.56198  0.013802812  0.012225624           21 
 4943000   0.47171427   -7.9468872    820.11095  0.013826134  0.012221805           24 
 4944000   0.46984053   -7.9308553    818.06412  0.013788837  0.012217989           27 
 4945000   0.47534951   -7.9394182    819.66784  0.013813075  0.012214176           16 
 4946000    0.4632357    -7.939672    818.51764  0.013790902  0.012210363           20 
 4947000   0.45751889   -7.9346525    819.29108  0.013801143  0.012206552           26 
 4948000   0.45764363     -7.94375    820.39557  0.013816956  0.012202743           22 
 4949000   0.46136486   -7.9340354    819.06199  0.013791709  0.012198936           19 
 4950000   0.46142803   -7.9343088    819.45328   0.01379551  0.012195129           16 
 4951000   0.45848389   -7.9447663    818.34365  0.013774047  0.012191322           19 
 4952000   0.45126079   -7.9344981    818.79934  0.013778933  0.012187517           17 
 4953000   0.45452788   -7.9267053    819.33576  0.013785177  0.012183716           21 
 4954000   0.45481162   -7.9383391    819.07599  0.013778024  0.012179916           26 
 4955000   0.46817385   -7.9496992    817.85984   0.01375479  0.012176114           18 
 4956000   0.44648927   -7.9405103     818.2539  0.013758641  0.012172316           19 
 4957000   0.46383296   -7.9462251    818.29196  0.013756505  0.012168519           28 
 4958000   0.46322389   -7.9450034    818.48488  0.013756973  0.012164721           17 
 4959000   0.44948048   -7.9473518    819.01498  0.013763107  0.012160928           17 
 4960000   0.46061852   -7.9295588    818.91802  0.013758703  0.012157135           49 
 4961000   0.46929963   -7.9370789    817.79042  0.013736989  0.012153344           21 
 4962000   0.45109077   -7.9496925    818.39912  0.013744443  0.012149557           29 
 4963000   0.46294342   -7.9397412    818.25403  0.013739238  0.012145767           23 
 4964000   0.45246497    -7.935017    819.13615  0.013751278  0.012141976           18 
 4965000   0.45418771   -7.9334148    819.07077  0.013747411  0.012138191           33 
 4966000   0.45969648   -7.9366121    818.69775  0.013738384  0.012134405           31 
 4967000   0.45814764   -7.9407021    818.58883   0.01373379  0.012130621           21 
 4968000   0.44839454   -7.9520589    818.93154  0.013736774  0.012126841           22 
 4969000   0.46310371   -7.9434593    818.44006  0.013725767  0.012123063           32 
 4970000   0.45341749   -7.9521465    818.83115  0.013729563  0.012119282           38 
 4971000    0.4417303   -7.9603993    819.69874  0.013741345  0.012115503           26 
 4972000   0.44046756   -7.9521361    818.24497  0.013714216  0.012111723           41 
 4973000   0.44700695   -7.9446947    819.07765  0.013725411  0.012107944           27 
 4974000   0.45703007   -7.9533173    818.50472  0.013713053  0.012104166           29 
 4975000   0.45305491   -7.9376514    818.02389  0.013702243  0.012100393           22 
 4976000   0.45419276   -7.9500631    818.60236  0.013709177  0.012096621           19 
 4977000   0.46204629   -7.9559284     817.1328  0.013681816  0.012092847           13 
 4978000   0.45373465   -7.9579844    818.56465  0.013703037  0.012089077           21 
 4979000    0.4652767   -7.9401566    818.29664    0.0136958   0.01208531           19 
 4980000   0.45039767   -7.9571987    817.26003  0.013675703  0.012081545           16 
 4981000   0.45590113   -7.9415525    817.51471  0.013677219  0.012077778           22 
 4982000   0.44778467   -7.9394179    818.90672  0.013697757  0.012074017           27 
 4983000   0.45971142   -7.9520162    817.95967   0.01367917  0.012070255           21 
 4984000   0.43990304   -7.9366043    817.74497  0.013672836  0.012066492           16 
 4985000   0.44692682   -7.9512034    818.56595  0.013683817  0.012062737           25 
 4986000   0.45682898   -7.9419771    818.91029  0.013686828  0.012058977           26 
 4987000   0.45789574   -7.9459656    818.48839  0.013677033  0.012055221           21 
 4988000   0.45106919   -7.9448597    819.73361  0.013695095  0.012051469           21 
 4989000    0.4634766   -7.9523598     818.5746  0.013672991  0.012047717           20 
 4990000   0.44850945   -7.9476353    817.82235  0.013657688  0.012043966           25 
 4991000    0.4438453   -7.9421054    818.21191  0.013661456  0.012040218           20 
 4992000   0.45360919   -7.9485348    818.29088  0.013660037  0.012036471           42 
 4993000   0.43721698   -7.9408775    819.05152  0.013669997  0.012032726           23 
 4994000   0.45229652   -7.9532808    817.69203  0.013644574  0.012028981           44 
 4995000   0.45419419   -7.9488699    818.21006  0.013650485  0.012025239           25 
 4996000   0.43977813     -7.95572    818.66447  0.013655332  0.012021499           23 
 4997000   0.44286945   -7.9668685    818.64938  0.013652348   0.01201776           29 
 4998000   0.44956837   -7.9582685    819.32382  0.013660861  0.012014019           48 
 4999000   0.44830132   -7.9571697    818.53351  0.013644954  0.012010279           15 
 5000000   0.45237688   -7.9538665    818.25263  0.013637544   0.01200654           24 
 5001000   0.44871773   -7.9300719    818.80145  0.013643962  0.012002803           16 
 5002000    0.4486641   -7.9543294    817.52768  0.013620013   0.01199907           17 
 5003000   0.44432732   -7.9470255    818.04435  0.013625897  0.011995338           25 
 5004000   0.45016294   -7.9545868    817.54373  0.013614837  0.011991611           24 
 5005000   0.45077174   -7.9570649    819.96719  0.013652467  0.011987883           31 
 5006000   0.45135287   -7.9552332    817.50231  0.013608708  0.011984153           18 
 5007000   0.44536051   -7.9699356    818.27705  0.013618884  0.011980428           25 
 5008000   0.45265456    -7.953532    819.06343   0.01362925  0.011976705           22 
 5009000    0.4542087   -7.9577406    818.82473  0.013622558  0.011972979           20 
 5010000   0.45454692   -7.9584784    818.53881  0.013615083  0.011969257           20 
 5011000   0.44534795   -7.9503028     818.9602  0.013619374  0.011965534           16 
 5012000   0.44507656   -7.9633456    818.64444  0.013611407  0.011961812           15 
Loop time of 11088.3 on 48 procs for 5000000 steps with 4000 atoms

Performance: 77919.734 tau/day, 450.924 timesteps/s
99.4% CPU use with 48 MPI tasks x no OpenMP threads

MPI task timing breakdown:
Section |  min time  |  avg time  |  max time  |%varavg| %total
---------------------------------------------------------------
Pair    | 746.23     | 768.62     | 795.24     |  43.5 |  6.93
Neigh   | 70.58      | 72.161     | 73.848     |   8.5 |  0.65
Comm    | 646.95     | 681.46     | 715.82     |  55.8 |  6.15
Output  | 13.976     | 13.98      | 14.059     |   0.3 |  0.13
Modify  | 9410.4     | 9438.1     | 9468.4     |  14.4 | 85.12
Other   |            | 114        |            |       |  1.03

Nlocal:        83.3333 ave          91 max          76 min
Histogram: 3 2 6 3 12 4 8 6 1 3
Nghost:        1858.69 ave        1880 max        1839 min
Histogram: 2 2 6 10 8 2 7 8 2 1
Neighs:        11568.4 ave       13035 max       10239 min
Histogram: 4 2 4 7 9 9 5 3 4 1
FullNghs:      23137.2 ave       25554 max       20661 min
Histogram: 1 4 4 7 10 6 5 7 2 2

Total # of neighbors = 1110585
Ave neighs/atom = 277.64625
Neighbor list builds = 269135
Dangerous builds = 1

#clear
#
#next RN
#
#jump SELF
Total wall time: 3:04:51
