
units lj                  # Use reduced LJ style units
atom_style atomic         # Uncharged point particles
atom_modify map hash      # Needed for indexing of clusters etc
                          # Used to be able to find where atoms are in relation to each other.

lattice fcc 1.0 spacing 1 1 1
Lattice spacing in x,y,z = 1.5874011 1.5874011 1.5874011
region box block 0 10 0 10 0 10 units lattice
create_box 2 box
Created orthogonal box = (0.0000000 0.0000000 0.0000000) to (15.874011 15.874011 15.874011)
  3 by 4 by 4 MPI processor grid
create_atoms 1 box
Created 4000 atoms
  using lattice units in orthogonal box = (0.0000000 0.0000000 0.0000000) to (15.874011 15.874011 15.874011)
  create_atoms CPU = 0.002 seconds
set type 1 type/fraction 2 0.42 78393
Setting atom values ...
  1685 settings made for type/fraction
mass 1 1.0
mass 2 1.0
pair_style lj/cut  3.5
pair_modify tail  yes
pair_coeff 1  1  1.0  1.0   # Intearaction between 1 and 1 set with epsilon = 1 and sigma = 1
pair_coeff 1  2  1.5  0.8
pair_coeff 2  2  0.5  0.88

write_data data.0
System init for write_data ...
Neighbor list info ...
  update every 1 steps, delay 10 steps, check yes
  max neighbors/atom: 2000, page size: 100000
  master list distance cutoff = 3.8
  ghost atom cutoff = 3.8
  binsize = 1.9, bins = 9 9 9
  1 neighbor lists, perpetual/occasional/extra = 1 0 0
  (1) pair lj/cut, perpetual
      attributes: half, newton on
      pair build: half/bin/atomonly/newton
      stencil: half/bin/3d
      bin: standard
WARNING: Not all mixed pair coeffs generated from mixing. Use write_data with 'pair ij' option to store all pair coeffs. (../write_data.cpp:312)


#############################
#   M E L T   S Y S T E M   #
#############################

velocity all create 2.4 6583654 mom yes dist gaussian # Assign velocities
                                                    # Temperature 2.4, random number seed, zero linear momentum
                                                                                # Gaussian distribution

timestep 0.002   # simulation timestep
thermo 1000       # output thermodynamic data every 1000 steps bf 100

# Define a fix  in this case with index 1 applied to all
# particles in the simulation. This fix is for simulations
# in the anisotropic NPT ensemble. Note that we use the MTK
# correction.
fix 1 all npt temp 2.4 2.4 0.1 iso 5.68 5.68 0.5 mtk yes tchain 5 pchain 5 # Use NPT ensemble
                                                                         # Set temperature and pressure and damping
                                                                         # Numbers of thermostats in chain and in barostat
run 10000          # run for 10000 steps
Per MPI rank memory allocation (min/avg/max) = 3.642 | 3.644 | 3.648 Mbytes
Step Temp E_pair E_mol TotEng Press Volume 
       0          2.4   -5.7538232            0   -2.1547232    -4.186528         4000 
    1000    2.3746336   -4.9575544            0   -1.3964945    5.6723064    3877.6089 
    2000    2.3692667   -5.0118686            0    -1.458857     5.709281    3847.3055 
    3000    2.4402392   -4.9996575            0   -1.3402139    5.3697886    3890.5578 
    4000    2.4154332   -5.0554648            0   -1.4332207    5.5679134    3842.2329 
    5000    2.4428033   -4.9735652            0   -1.3102763    5.3364035    3897.8387 
    6000    2.4133493   -5.0563704            0   -1.4372515    5.4941354    3852.2416 
    7000    2.3832123    -5.077334            0   -1.5034092    5.4933147    3837.4628 
    8000    2.4284241   -4.9901803            0   -1.3484548    5.7245181    3848.4892 
    9000     2.366924   -4.9975539            0   -1.4480556    5.3892814    3875.9195 
   10000     2.393596   -5.0132815            0   -1.4237851    5.6094997    3861.7895 
Loop time of 2.55591 on 48 procs for 10000 steps with 4000 atoms

Performance: 676080.983 tau/day, 3912.506 timesteps/s
99.6% CPU use with 48 MPI tasks x no OpenMP threads

MPI task timing breakdown:
Section |  min time  |  avg time  |  max time  |%varavg| %total
---------------------------------------------------------------
Pair    | 1.1172     | 1.1916     | 1.3735     |   3.8 | 46.62
Neigh   | 0.20591    | 0.21724    | 0.24669    |   1.3 |  8.50
Comm    | 0.73003    | 0.87969    | 0.99579    |   5.9 | 34.42
Output  | 0.00023722 | 0.0002463  | 0.00038311 |   0.0 |  0.01
Modify  | 0.18994    | 0.25191    | 0.31525    |   7.4 |  9.86
Other   |            | 0.01518    |            |       |  0.59

Nlocal:        83.3333 ave          91 max          70 min
Histogram: 1 0 2 3 7 3 9 13 8 2
Nghost:        1680.27 ave        1700 max        1658 min
Histogram: 2 3 4 5 5 11 8 3 3 4
Neighs:        9895.98 ave       10893 max        8134 min
Histogram: 1 1 1 3 7 5 10 9 7 4

Total # of neighbors = 475007
Ave neighs/atom = 118.75175
Neighbor list builds = 903
Dangerous builds = 187

# Equilibrate just above the melting temperature to avoid step fn in T

fix 1 all npt temp 1.25 1.25 0.1 iso 5.68 5.68 0.5 mtk yes tchain 5 pchain 5
run 2000
Per MPI rank memory allocation (min/avg/max) = 3.643 | 3.645 | 3.649 Mbytes
Step Temp E_pair E_mol TotEng Press Volume 
   10000     2.393596   -5.0132815            0   -1.4237851    5.6094997    3861.7895 
   11000    1.2448645   -7.0439956            0   -5.1771657    5.8186616    3038.1772 
   12000      1.25407   -7.1294112            0   -5.2487764    5.3258768    3034.5133 
Loop time of 0.604462 on 48 procs for 2000 steps with 4000 atoms

Performance: 571747.955 tau/day, 3308.727 timesteps/s
99.7% CPU use with 48 MPI tasks x no OpenMP threads

MPI task timing breakdown:
Section |  min time  |  avg time  |  max time  |%varavg| %total
---------------------------------------------------------------
Pair    | 0.26533    | 0.29434    | 0.32945    |   2.6 | 48.69
Neigh   | 0.038483   | 0.041688   | 0.047348   |   0.9 |  6.90
Comm    | 0.18122    | 0.22185    | 0.25499    |   3.4 | 36.70
Output  | 4.9034e-05 | 5.0085e-05 | 6.4859e-05 |   0.0 |  0.01
Modify  | 0.038002   | 0.041918   | 0.046118   |   1.1 |  6.93
Other   |            | 0.004612   |            |       |  0.76

Nlocal:        83.3333 ave          89 max          77 min
Histogram: 3 1 6 4 6 8 6 8 3 3
Nghost:        1974.52 ave        1995 max        1954 min
Histogram: 3 3 5 6 7 8 3 7 4 2
Neighs:        12601.2 ave       14006 max       11379 min
Histogram: 5 5 4 5 9 5 4 4 2 5

Total # of neighbors = 604857
Ave neighs/atom = 151.21425
Neighbor list builds = 143
Dangerous builds = 14

#############################
# L I N E A R  Q U E N C H  #
#############################

# Define solid atoms. This closely follows ten Wolde  Ruiz-Montero and Frenkel  Faraday Discuss  1996  104  93-110
# Compute components of the per-atom q6 vector
compute q6 all orientorder/atom degrees 1 6 components 6 nnn NULL cutoff 1.3 # compute the Q6 parameter.
                                                                             # Use all neighbours within 1.3 unit cell.

# get number of connections
compute coord_number all coord/atom orientorder q6 0.5

# An atom is solid if it has 8 or more connections (of a possible 14)
variable is_solid atom c_coord_number>=8
group solid dynamic all var is_solid    # Must be dynamic to update
dynamic group solid defined

# do clustering
compute cluster solid cluster/atom 1.3 # Create a cluster where all atoms within are solid and max 1.3 units from another member

# define chunks one chunk per cluster
compute clus_chunks solid chunk/atom c_cluster nchunk every compress yes  # Says which atoms are in which chunk

# count the size of each chunk
compute size_chunks solid property/chunk clus_chunks count


# Find the maximum entry in the vector of chunk sizes
variable max_n equal max(c_size_chunks)


# Thermo style which includes this variable
# thermo_style custom step temp pe vol v_max_n

thermo ${N}  # Print the thermo information every 100 steps
thermo 1000  

# Reset the npt fix at a lower temperature (below freezing)
fix 1  all npt temp  ${temp} ${temp}  0.1  iso  5.68  5.68  0.5  mtk yes tchain  5  pchain  5
fix 1  all npt temp  0.45 ${temp}  0.1  iso  5.68  5.68  0.5  mtk yes tchain  5  pchain  5
fix 1  all npt temp  0.45 0.45  0.1  iso  5.68  5.68  0.5  mtk yes tchain  5  pchain  5

dump dmp2 all dcd ${N} traj.dcd
dump dmp2 all dcd 1000 traj.dcd


compute msd all msd com yes
variable twopoint equal c_msd[4]/6/(step*dt+1.0e-6)
fix 9 all vector 10 c_msd[4]
variable fit equal slope(f_9)/6/(10*dt)
thermo_style custom step temp pe c_msd[4] v_twopoint v_fit v_max_n

fix 1 all npt temp 1.25 ${temp} 0.1 iso 5.68 5.68 0.5 mtk yes tchain 5 pchain 5
fix 1 all npt temp 1.25 0.45 0.1 iso 5.68 5.68 0.5 mtk yes tchain 5 pchain 5
run 500000 # 5000000  # Run for this many steps
Neighbor list info ...
  update every 1 steps, delay 10 steps, check yes
  max neighbors/atom: 2000, page size: 100000
  master list distance cutoff = 3.8
  ghost atom cutoff = 3.8
  binsize = 1.9, bins = 8 8 8
  4 neighbor lists, perpetual/occasional/extra = 1 3 0
  (1) pair lj/cut, perpetual
      attributes: half, newton on
      pair build: half/bin/atomonly/newton
      stencil: half/bin/3d
      bin: standard
  (2) compute orientorder/atom, occasional
      attributes: full, newton on
      pair build: full/bin/atomonly
      stencil: full/bin/3d
      bin: standard
  (3) compute coord/atom, occasional
      attributes: full, newton on
      pair build: full/bin/atomonly
      stencil: full/bin/3d
      bin: standard
  (4) compute cluster/atom, occasional
      attributes: full, newton on
      pair build: full/bin/atomonly
      stencil: full/bin/3d
      bin: standard
Per MPI rank memory allocation (min/avg/max) = 9.827 | 9.833 | 9.838 Mbytes
Step Temp PotEng c_msd[4] v_twopoint v_fit v_max_n 
   12000      1.25407   -7.1294112 3.9547569e-30 2.7463589e-32 8.3333333e+20            4 
   13000    1.2584836    -7.111866   0.47868358 0.0030684844  0.038984171            3 
   14000    1.2533186   -7.1538004   0.94519577 0.0056261651  0.038442523            2 
   15000    1.2425249   -7.1747985    1.4086645 0.0078259138  0.038726381            2 
   16000    1.2244783   -7.1703387    1.8224512 0.0094919333  0.038067385            3 
   17000    1.2308042   -7.1546319    2.2474773  0.011017045  0.037229003            2 
   18000    1.2755554   -7.1786057    2.6563587  0.012297956  0.036807066            1 
   19000    1.2433118   -7.1191289    3.0711057  0.013469762  0.036404916            2 
   20000    1.2361616   -7.1470889    3.4891158  0.014537982  0.035992437            1 
   21000      1.23151   -7.1581719    3.9018431  0.015483504  0.035661027            1 
   22000    1.2208218   -7.1211785    4.2699982  0.016174235  0.035406648            1 
   23000    1.2243768   -7.1038059    4.6946466  0.017009589  0.035119975            1 
   24000    1.2233976   -7.1820028    5.0826587   0.01764812   0.03493749            2 
   25000    1.2422402   -7.1769279    5.4601357  0.018200452  0.034675609            1 
   26000    1.2273718   -7.1615351    5.8042724  0.018603437  0.034411737            2 
   27000    1.2177691      -7.1644    6.2124939  0.019174364  0.034138793            2 
   28000    1.2073305   -7.1348935    6.6383754  0.019757069  0.033974326            1 
   29000    1.2358598   -7.1852069    7.0777065  0.020338237  0.033938217            2 
   30000    1.2384761   -7.1394499     7.540599  0.020946108  0.033984629            1 
   31000    1.2141391   -7.2120302    7.9503194  0.021371826    0.0340154            2 
   32000    1.2130743   -7.2294557    8.1977487  0.021348304  0.033923885            3 
   33000    1.2095053   -7.1897995    8.5620527  0.021621345  0.033767768            3 
   34000    1.2124811   -7.2141791     9.018981  0.022105345  0.033657385            2 
   35000    1.2052755   -7.1817381     9.333187  0.022221873  0.033545938            1 
   36000    1.2127285   -7.1899798    9.7304621  0.022524218  0.033430742            3 
   37000    1.2195508    -7.225081    10.081814  0.022706787  0.033315402            1 
   38000    1.2014289   -7.2143698    10.618395  0.023285954    0.0332628            1 
   39000    1.1952896   -7.2297669     10.98958  0.023482008  0.033242059            1 
   40000    1.1816121   -7.1974291    11.557362  0.024077836  0.033262929            3 
   41000    1.2084844   -7.2026757    12.021716  0.024434382  0.033358694            1 
   42000    1.2006189   -7.2321092    12.377296  0.024558127  0.033433353            1 
   43000    1.2150236   -7.2918266    12.604286  0.024426911  0.033459801            1 
   44000    1.2037604    -7.255152     12.84346  0.024324734  0.033406875            3 
   45000    1.1749511   -7.2370681     13.12714  0.024309518  0.033281457            2 
   46000    1.2070424   -7.2200256    13.506294  0.024467924  0.033137017            1 
   47000    1.1902968   -7.2613405    13.895176  0.024636837  0.033011498            2 
   48000    1.2159574   -7.2550476    14.219363  0.024686394  0.032893713            1 
   49000    1.1824933    -7.236821    14.608312  0.024844068  0.032774139            1 
   50000    1.2088095   -7.2812938    14.837555  0.024729258  0.032662694            2 
   51000    1.1571604   -7.2648909    15.267711   0.02494724  0.032541737            1 
   52000    1.1720141   -7.2772893     15.65764  0.025092372  0.032446745            1 
   53000    1.1966791   -7.2372673    15.979478  0.025124965  0.032342767            2 
   54000    1.2002049   -7.2627248    16.140202  0.024907719  0.032222192            1 
   55000    1.1735588   -7.3025159    16.510133  0.025015353  0.032089408            2 
   56000    1.1692848   -7.2510424    16.810081  0.025015001  0.031946069            2 
   57000    1.1949613   -7.2530775    17.061451  0.024943641  0.031802869            3 
   58000    1.1676808   -7.2488556    17.406876  0.025009879  0.031662101            2 
   59000    1.2001405   -7.3021574    17.733099   0.02504675  0.031533194            1 
   60000    1.1472204   -7.3555885    17.931864  0.024905367  0.031396282            1 
   61000    1.1479593   -7.3117451    18.117631  0.024750862  0.031243484            2 
   62000    1.1510654   -7.3512285    18.611102  0.025014922  0.031097743            1 
   63000    1.2026819   -7.2962436    18.992253  0.025122027  0.030969734            1 
   64000    1.1722037   -7.3340834    19.303427   0.02513467  0.030857663            2 
   65000    1.1394294   -7.3061008    19.635513  0.025173734  0.030746258            2 
   66000    1.1411411    -7.302112    19.843033  0.025054334  0.030631119            1 
   67000    1.1436835   -7.2772717    20.278488  0.025221999   0.03052626            1 
   68000     1.139219   -7.3337041    20.564371  0.025201435  0.030431441            3 
   69000     1.153654   -7.3817419    20.916458  0.025261422  0.030344159            1 
   70000    1.1483969   -7.3632427    21.212121  0.025252525  0.030260586            2 
   71000    1.1577443   -7.3348656    21.610813  0.025364804  0.030187851            1 
   72000    1.1439317   -7.3358248     21.99167  0.025453321  0.030112166            2 
   73000    1.1453569   -7.3371472      22.2298  0.025376484  0.030033813            6 
   74000    1.1503999   -7.3421784    22.444626   0.02527548  0.029948473            2 
   75000    1.1573687   -7.3369673    22.802103   0.02533567  0.029864196            1 
   76000    1.1621294   -7.3898224    23.071925  0.025298164  0.029785933            2 
   77000    1.1540032   -7.3490749     23.46162  0.025391364  0.029707205            2 
   78000    1.1266647   -7.3814924    23.796314  0.025423413  0.029636276            1 
   79000    1.1459532   -7.3377401    24.092118  0.025413626  0.029568329            1 
   80000    1.1390011   -7.3891889    24.518019  0.025539603  0.029504774            1 
   81000    1.1453531   -7.3761072    24.735495   0.02544804  0.029438224            1 
   82000    1.1304417   -7.3724408    25.017457  0.025424245  0.029368722            4 
   83000    1.1271235   -7.4107317     25.18666  0.025287811   0.02929569            2 
   84000    1.1376268   -7.3580958    25.542253  0.025339537  0.029221595            2 
   85000    1.1534895    -7.361816    25.847451  0.025340638  0.029147615            2 
   86000    1.1172279   -7.4466176    26.044878  0.025237285  0.029079132            4 
   87000    1.0984105    -7.432291    26.370563  0.025259159  0.029006778            1 
   88000    1.1226733   -7.4600636    26.546865  0.025139077   0.02893507            1 
   89000    1.1308571   -7.4558816    26.880083  0.025168617   0.02885917            2 
   90000    1.1412266   -7.4393096    27.015647  0.025014488  0.028778035            2 
   91000     1.102956   -7.4113552    27.460927  0.025147368   0.02869659            4 
   92000    1.1395342   -7.4501055    27.634366  0.025031128  0.028617575            1 
   93000    1.1263445   -7.4253082    27.886756  0.024988133   0.02853481            2 
   94000    1.1237758   -7.4317202    28.177184  0.024979773  0.028450696            2 
   95000    1.1225949    -7.422921    28.352539  0.024870649  0.028364286            5 
   96000    1.1226414    -7.466772     28.66967  0.024886866  0.028279806            2 
   97000    1.0980604   -7.4402499    28.921852  0.024846952  0.028198641            2 
   98000    1.1100676   -7.4260739    29.230426  0.024855804  0.028117235            4 
   99000    1.1122851     -7.47787    29.405406  0.024752025  0.028032381            2 
  100000    1.0804785   -7.4847039    29.737052  0.024780877  0.027948578            1 
  101000    1.1248778   -7.4845504    30.029781  0.024777047  0.027865915            2 
  102000    1.0980581   -7.4599013    30.395859  0.024833218  0.027793409            1 
  103000     1.074486   -7.5252303    30.531348  0.024701738  0.027725228            2 
  104000    1.1076974   -7.4429511    30.883479  0.024746378   0.02765304            1 
  105000    1.0905163   -7.4531409     31.28766  0.024831476  0.027587757            1 
  106000    1.0989128   -7.4350284    31.483112  0.024750874  0.027523649            2 
  107000    1.1229257   -7.5220669    31.722997  0.024706384  0.027453385            1 
  108000    1.0810969     -7.45806    32.104256  0.024771802  0.027387578            2 
  109000    1.1104585   -7.5202001     32.27288  0.024673456  0.027321383            2 
  110000    1.1080536   -7.5103439    32.571085  0.024675064  0.027259706            1 
  111000    1.0930099   -7.4592942    32.922447  0.024716552  0.027199943            1 
  112000    1.1198604   -7.5159778    33.194706  0.024698442  0.027141945            7 
  113000    1.0903703   -7.4866477    33.564716   0.02475274  0.027087769            1 
  114000    1.0723617   -7.4732637    33.954193  0.024820317  0.027037224            2 
  115000    1.0743914   -7.4642848    34.269297  0.024832824   0.02699089            3 
  116000    1.1090919   -7.5207373    34.567317  0.024832843  0.026947338            1 
  117000    1.0787254   -7.5116253    34.747535  0.024748956  0.026900487            1 
  118000    1.1050395   -7.5306504    34.962421  0.024690975  0.026851645            1 
  119000    1.0875155   -7.5217548    35.139629  0.024607583   0.02680245            2 
  120000      1.07748   -7.5651537     35.25777  0.024484562  0.026749651            3 
  121000     1.068068   -7.5569348    35.604212  0.024520807  0.026693574            5 
  122000    1.0821798   -7.5461504    35.818902  0.024466463   0.02664086            2 
  123000    1.0687193   -7.5441925    35.997812  0.024388762  0.026586944            1 
  124000    1.0746295    -7.573714    36.368756  0.024441368  0.026529696            2 
  125000    1.0373059    -7.533669    36.380389  0.024253592  0.026476836            1 
  126000    1.0639954   -7.5869405    36.790613  0.024332416  0.026422397            4 
  127000    1.0668743   -7.5823759    37.035249  0.024301344  0.026366448            2 
  128000    1.0392651   -7.5426627    37.195749  0.024215982  0.026309006            3 
  129000    1.0667173    -7.530945      37.3502  0.024128036  0.026250561            2 
  130000    1.0793563   -7.6039613    37.460902  0.024013398  0.026187656            2 
  131000    1.0342765   -7.5727276    37.715564  0.023992089  0.026123149            1 
  132000    1.0470629   -7.5631366    37.819536   0.02387597   0.02605619            1 
  133000    1.0452648   -7.5418655    38.099905  0.023872121  0.025988142            3 
  134000    1.0590246   -7.6288164    38.262919  0.023795347  0.025923002            2 
  135000    1.0340782   -7.5871634     38.47999   0.02375308  0.025857656            2 
  136000    1.0493073   -7.5926419    38.549549  0.023621047   0.02578855            5 
  137000    1.0492027   -7.6046677    38.795995  0.023598537   0.02571632            2 
  138000    1.0651583   -7.5660937    38.993987  0.023547093   0.02564634            2 
  139000    1.0525645   -7.6164616    39.039979  0.023405263  0.025574373            2 
  140000    1.0527031   -7.6258397    39.309227  0.023398349  0.025501168            2 
  141000    1.0514535   -7.6696588    39.424466  0.023300512  0.025428007            3 
  142000    1.0496245   -7.6449215    39.575001  0.023224766  0.025351668            2 
  143000    1.0216113    -7.614826    39.864148  0.023230856  0.025275666            7 
  144000    1.0648958   -7.6333907    40.051442  0.023177918  0.025202131            2 
  145000    1.0508977   -7.6278298    40.276777  0.023147573  0.025128158            1 
  146000    1.0160937   -7.6773269    40.498615  0.023115648  0.025057782            1 
  147000    1.0596874   -7.6445502    40.588738  0.023009488    0.0249852            1 
  148000    1.0237509   -7.6258806    40.803368  0.022974869  0.024913784            3 
  149000    1.0336083   -7.6833353    41.075756  0.022973018  0.024843379            3 
  150000    1.0384713   -7.7306344    41.075518  0.022819732  0.024772219            3 
  151000    1.0198491   -7.6986046    41.338157  0.022813553  0.024701404            3 
  152000     1.043644   -7.6742281    41.549659  0.022779418  0.024629782            6 
  153000    1.0176581   -7.7387492     41.52865   0.02261909   0.02455623            3 
  154000    1.0130918   -7.7055712    41.815131  0.022627236  0.024482592            2 
  155000    1.0310613    -7.677665    42.063971  0.022615038  0.024408994            1 
  156000    1.0158866   -7.6663368    42.248647  0.022568722  0.024336505            1 
  157000    1.0460976    -7.697789     42.42261  0.022517309  0.024264702            1 
  158000    1.0091719   -7.7131691    42.665727   0.02250302  0.024193408            1 
  159000    1.0180603    -7.703905    42.735231   0.02239792  0.024122392            1 
  160000    1.0099731   -7.6559282    43.080076   0.02243754  0.024053897            3 
  161000   0.99433304   -7.7164715    43.107799  0.022312525  0.023985503            5 
  162000    1.0115016   -7.7183414    43.276824  0.022261741  0.023914461            2 
  163000    1.0005605    -7.725856    43.422983  0.022199889  0.023843184            2 
  164000    1.0057977   -7.7493647    43.644144  0.022176902  0.023774032            3 
  165000    1.0024101    -7.743096    43.792941  0.022117647  0.023704358            2 
  166000    1.0021792    -7.719891    43.979626  0.022078125  0.023635994            1 
  167000    1.0142844   -7.7078089    44.255731  0.022083698  0.023569103            1 
  168000    1.0029857    -7.748472    44.380073  0.022013925  0.023501358            3 
  169000   0.99771921   -7.7226644    44.444861  0.021915612  0.023431815            3 
  170000   0.99556661   -7.6984983    44.605835  0.021865605   0.02336257            2 
  171000   0.98826181   -7.7669565    44.700119  0.021783684  0.023293452            1 
  172000   0.97920444   -7.7683268    44.759234  0.021685675   0.02322198            2 
  173000   0.99282899   -7.7751386    44.976252  0.021664861  0.023148262            3 
  174000   0.97417452   -7.7439155    45.099103  0.021599187   0.02307814            6 
  175000   0.99471799   -7.7047152    45.361203  0.021600573  0.023009141            4 
  176000   0.99102147   -7.7341573    45.401978  0.021497148  0.022938413            3 
  177000   0.97380412   -7.7812931    45.447114  0.021396946  0.022867638            1 
  178000    0.9798748   -7.7746985    45.585715  0.021341627  0.022797949            2 
  179000     0.991614   -7.7984258    45.793248  0.021319017  0.022728333            4 
  180000   0.99194501   -7.8332627    45.958975  0.021277303  0.022659885            1 
  181000   0.97594009    -7.742043    46.343685  0.021336871   0.02259173            1 
  182000   0.96237615   -7.7835355    46.498086  0.021290332  0.022525033            3 
  183000   0.99776549    -7.803711    46.397322  0.021128106  0.022458809            2 
  184000   0.98733984   -7.8004078    46.640064  0.021123217   0.02239225            2 
  185000   0.97893048    -7.811548     46.81971  0.021089959  0.022326434            2 
  186000   0.97636965   -7.7945864    46.991333  0.021053465  0.022261108            2 
  187000   0.95810524   -7.8043665    47.103687  0.020990948  0.022195394            1 
  188000   0.98475457    -7.796022     47.15104  0.020900284  0.022129138            1 
  189000   0.97305336   -7.8179726    47.527122  0.020955521  0.022062334            3 
  190000   0.95391452   -7.7952757    47.704477  0.020923016  0.021997883            3 
  191000   0.96589044    -7.782234    47.754453  0.020835276  0.021933277            3 
  192000   0.98245196   -7.8286406    47.795474  0.020744563  0.021867208            4 
  193000   0.94754614    -7.866184    47.719984  0.020604484  0.021801251            4 
  194000   0.95497481   -7.8341309    48.092505  0.020658292  0.021736389            2 
  195000   0.94800318   -7.8391438     48.20408  0.020600034  0.021672436            1 
  196000   0.94653864   -7.8569221     48.24894  0.020514005  0.021607927            3 
  197000    0.9443302   -7.8655477    48.290055  0.020427265  0.021543076            1 
  198000   0.95078953   -7.8183833    48.451328  0.020391973  0.021478689            2 
  199000   0.95306294   -7.8266098    48.746331  0.020413036  0.021414381            4 
  200000   0.94529843   -7.8307827    48.894862  0.020372859  0.021351275            2 
  201000   0.95486588   -7.8288172    48.967985  0.020301818  0.021288488            1 
  202000   0.93064273   -7.8753531    48.941399  0.020190346  0.021224509            3 
  203000   0.94072269   -7.8514515    49.028245  0.020126537  0.021159615            1 
  204000   0.95016218    -7.856965    49.315278   0.02014513  0.021095175            4 
  205000   0.89693644   -7.9289796    49.156928  0.019982491   0.02103104            2 
  206000   0.93537206   -7.8954596    49.313028  0.019948636   0.02096621            4 
  207000   0.92870316   -7.9389672    49.367533  0.019874208  0.020900865            3 
  208000   0.94715579   -7.9281126    49.594722   0.01986968  0.020835806            3 
  209000   0.95026504   -7.9237063    49.608784  0.019780217  0.020771005            1 
  210000   0.93621741   -7.9039758    49.721358  0.019730698  0.020705941            2 
  211000   0.93385036    -7.933553    49.934015  0.019721175  0.020641737            2 
  212000   0.93183056   -7.9626877    50.121397  0.019701807  0.020578533            3 
  213000   0.90908202   -7.9237463    50.116426  0.019607365  0.020515037            2 
  214000   0.94250654   -7.9309158    49.983279  0.019463894  0.020450669            2 
  215000   0.93828182    -7.971641    50.094326  0.019416405  0.020386146            2 
  216000   0.91048313   -7.9335473    50.296455  0.019404496  0.020321506            3 
  217000   0.92120353   -7.9338618    50.512615  0.019398086   0.02025708            4 
  218000   0.92528346   -7.9649951    50.497677  0.019303393  0.020192923            5 
  219000    0.9417354   -7.9686548    50.612277  0.019258857   0.02012884            1 
  220000   0.93860224   -7.9289163    50.750085  0.019223517  0.020064997            1 
  221000   0.92569126   -7.9547463    50.805502  0.019157429  0.020001581            2 
  222000   0.90604659    -7.953499    50.831903  0.019081045  0.019938944            2 
  223000   0.92056155   -8.0010783    50.874537  0.019011412   0.01987495            1 
  224000   0.91608407    -7.991949    51.142403  0.019026192  0.019811244            3 
  225000   0.88553169   -7.9800739    51.065425   0.01891312  0.019747572            1 
  226000   0.91282595    -7.993395    51.363014  0.018939164  0.019684925            4 
  227000   0.91066135   -7.9782265    51.265653   0.01881999   0.01962228            6 
  228000   0.90114097   -7.9903028    51.384294  0.018780809  0.019559546            3 
  229000   0.89487981   -7.9570796    51.586096  0.018772233   0.01949722            2 
  230000   0.90332551    -7.976522    51.725256  0.018741035  0.019436458            2 
  231000   0.90984018   -8.0234803    51.668463  0.018639417  0.019374591            3 
  232000   0.89077933   -7.9736199    51.864694  0.018629559  0.019313104            3 
  233000   0.89367173   -8.0349809    51.801029  0.018526834  0.019251609            2 
  234000   0.88787532   -8.0333143    51.816164   0.01845305  0.019189688            2 
  235000    0.8986381   -8.0331784    52.039007  0.018453549  0.019127799            3 
  236000    0.8817055   -8.0455416      52.0073  0.018364159  0.019066327            1 
  237000   0.89541079   -8.0446321    52.200889  0.018354743  0.019004691            3 
  238000   0.90597187   -8.0069227    52.243823  0.018292655  0.018943831            2 
  239000    0.8759168   -8.0408162     52.48102  0.018298822  0.018883105            1 
  240000   0.87990799   -8.0648422    52.445652  0.018210296  0.018822516            4 
  241000   0.88052094   -8.0553856    52.521832  0.018161076  0.018762251            2 
  242000   0.88156685   -8.0405238    52.656304  0.018132336  0.018701978            2 
  243000   0.87518509   -8.0616076    52.502066  0.018004824  0.018641938            4 
  244000   0.87858407   -8.0419558    52.819812  0.018039553  0.018582228            2 
  245000   0.88141286   -8.0629915    52.894526  0.017991335  0.018523203            2 
  246000    0.8548901   -8.0535324    52.720304  0.017859181  0.018463266            4 
  247000   0.87434628   -8.0626157     52.98933  0.017877642  0.018403451            5 
  248000   0.86337817   -8.0741924    53.042814  0.017823526  0.018344207            2 
  249000   0.87452929   -8.0682447    53.150743  0.017788067  0.018285143            1 
  250000   0.88023486   -8.0948953      53.1492    0.0177164  0.018226029            2 
  251000   0.87740987   -8.1259988    53.142375  0.017643551  0.018167504            2 
  252000   0.87129856   -8.0847192    53.410337  0.017662149   0.01810918            2 
  253000   0.84635219   -8.1042743    53.486863  0.017617544  0.018051433            4 
  254000   0.87023141   -8.0912893    53.691017  0.017615163  0.017994599            5 
  255000   0.85980421    -8.087815     53.64052  0.017529582  0.017938002            9 
  256000   0.85181568   -8.1004811    53.714586  0.017485217  0.017881195            2 
  257000   0.85750913   -8.0874395    53.767373  0.017434297  0.017824474            4 
  258000   0.87549828   -8.1112907    53.730965  0.017354963  0.017767632            4 
  259000   0.85132049   -8.1391735    53.600097  0.017245848  0.017710125            4 
  260000   0.85227862   -8.0865627    53.869836  0.017265973  0.017652447            3 
  261000   0.85583694   -8.1127124    53.866188  0.017198655  0.017594928            4 
  262000   0.84605738   -8.1657586    53.778237  0.017105037  0.017537382            2 
  263000   0.84935687   -8.1601009    53.851371  0.017063172   0.01747969            4 
  264000   0.86083339   -8.1513284    53.983985  0.017040399  0.017421977            2 
  265000   0.83934062     -8.12963    54.144337  0.017026521   0.01736498            3 
  266000   0.85068128   -8.1387339    54.044208  0.016931143  0.017308177            5 
  267000   0.83260051   -8.1691216    53.997448  0.016853136  0.017250707            5 
  268000   0.84509402   -8.1441631    54.077695  0.016815204  0.017193268            3 
  269000   0.85076403   -8.1543738    54.116367  0.016764674  0.017135859            3 
  270000   0.81102863   -8.1656284    54.165167  0.016717644  0.017078474            5 
  271000   0.82469416    -8.179745    54.242601  0.016679767  0.017021005            2 
  272000   0.83913726   -8.2224413    54.173205  0.016597183  0.016963824            2 
  273000   0.84398824   -8.2228817    54.314003  0.016579366  0.016906802            4 
  274000   0.82448566   -8.2215301    54.450332   0.01656032  0.016849779            3 
  275000   0.82780276   -8.2425452    54.281064  0.016448807  0.016792874            1 
  276000   0.83225616   -8.2218684    54.377933  0.016418458  0.016736154            2 
  277000   0.84145911   -8.2092253    54.461781  0.016384411  0.016679459            7 
  278000   0.83701551   -8.2119159    54.507593  0.016339207  0.016622978            2 
  279000   0.82878574   -8.2301304     54.59941  0.016308067  0.016566862            5 
  280000   0.80675641   -8.2427221    54.510957  0.016223499     0.016511            1 
  281000   0.80556445   -8.2589181      54.5735  0.016184312  0.016455115            2 
  282000   0.81892903   -8.2705454    54.547043  0.016119103  0.016398961            5 
  283000   0.82484812   -8.2510944    54.667095  0.016097495  0.016343184            3 
  284000   0.79996434   -8.2431233    54.764118  0.016069284  0.016288153            2 
  285000   0.82074688   -8.2224137    54.833834  0.016033285  0.016233302            3 
  286000   0.80578687    -8.244795    54.942521  0.016008893  0.016178565            3 
  287000   0.80451137   -8.2663836    54.897973  0.015940178  0.016124448           11 
  288000   0.81127884   -8.2757564    55.071768  0.015935118  0.016070641            2 
  289000   0.80803265   -8.2618736    55.184108  0.015912372  0.016016745            2 
  290000   0.82536624   -8.2540277    54.990409  0.015801842  0.015963167            1 
  291000   0.79524186   -8.2600166     55.12038   0.01578476  0.015909654            2 
  292000   0.80907836   -8.2799052    55.076915  0.015718298  0.015855984            4 
  293000   0.80372711   -8.2696435    55.093499  0.015669368  0.015802516            5 
  294000   0.79690162   -8.2807657    55.199088     0.015646  0.015748839            2 
  295000   0.77855121   -8.2680697    55.210759   0.01559626  0.015695324            1 
  296000   0.82056905   -8.2925882    55.291163  0.015566206  0.015642006            5 
  297000   0.78621788   -8.2720625     55.15827  0.015476507  0.015588806            5 
  298000   0.79107167   -8.2658648    55.377483  0.015485873  0.015535498            5 
  299000    0.7917465   -8.3080116    55.463004  0.015457916  0.015482621            2 
  300000   0.77252212   -8.3026686    55.294087  0.015359468  0.015429968            4 
  301000   0.80189951    -8.297321    55.441586  0.015349276  0.015377565            2 
  302000   0.79653153   -8.3207743    55.504631  0.015315847  0.015325338            1 
  303000   0.77551824   -8.3155988    55.349767  0.015222708  0.015273466            2 
  304000   0.79592605   -8.3176231    55.544021  0.015225883  0.015221505            4 
  305000   0.79116656   -8.3288721    55.421896  0.015142595   0.01516971            4 
  306000   0.78662556   -8.3244558    55.556363  0.015129728  0.015117645            8 
  307000   0.76974951   -8.3126083    55.454244  0.015052726  0.015065643            4 
  308000   0.78707153   -8.3328017    55.559129  0.015032232  0.015014019            1 
  309000   0.78154125   -8.3227098    55.730913  0.015029912  0.014962632            5 
  310000   0.77371987   -8.3581685    55.387619  0.014889145  0.014911334            5 
  311000   0.76801365   -8.3568465    55.588267  0.014895034  0.014860078            2 
  312000   0.76587631   -8.3813425    55.626883  0.014857608  0.014808973            2 
  313000   0.74615342   -8.3774872    55.375312  0.014743161   0.01475778            6 
  314000   0.77840396   -8.3496668    55.502359  0.014729925  0.014706709            3 
  315000   0.77633608   -8.3888791    55.453702  0.014670291  0.014655722            3 
  316000    0.7418729   -8.3808451    55.609175  0.014664867  0.014604731            5 
  317000   0.76880243   -8.3610913    55.554312  0.014604183  0.014554135            3 
  318000   0.76327358   -8.3896907    55.549944  0.014557113  0.014503855            1 
  319000    0.7410523   -8.3709184    55.665798  0.014541744  0.014453545            2 
  320000   0.76042927   -8.4232191    55.673069  0.014498195  0.014403879            2 
  321000   0.75753591   -8.3901718    55.725716  0.014466697  0.014354218            3 
  322000   0.73746119   -8.4195732    55.785701  0.014437293  0.014304535            4 
  323000   0.74681184   -8.4026269    55.791678  0.014394138  0.014254844            1 
  324000   0.72970796   -8.4246572    55.724546  0.014332445  0.014205105            2 
  325000   0.74197541   -8.4292408    55.729778  0.014289687  0.014155734            2 
  326000    0.7376646   -8.4053005    55.801168  0.014264102  0.014106462            3 
  327000   0.73822134   -8.4177014    55.869875   0.01423799  0.014057293            3 
  328000     0.742971   -8.4259167    55.759057  0.014166427  0.014008097            3 
  329000   0.74932151   -8.4189262    55.613638  0.014086534  0.013959145            3 
  330000   0.75583939   -8.4362642    55.694038  0.014064151  0.013910056            7 
  331000   0.73659016   -8.3956168    55.902141  0.014074054  0.013861323            2 
  332000   0.74996255   -8.4501162    55.795476  0.014004888  0.013812686            4 
  333000   0.73484297   -8.4299838    55.917852  0.013993457  0.013764311            3 
  334000   0.74100579   -8.4601224    55.789243  0.013919472  0.013716167            6 
  335000   0.74214906   -8.4534463    55.828221  0.013887617  0.013667904            7 
  336000   0.73981114    -8.469229    55.666376  0.013806145  0.013619679            2 
  337000   0.75141224   -8.4524429    55.890092  0.013820498  0.013571694            2 
  338000   0.73609967   -8.4983646    55.651771  0.013720851  0.013523558            4 
  339000   0.74397921    -8.500741    55.822905  0.013722445   0.01347562            3 
  340000    0.7227165    -8.481933    55.785999  0.013673039  0.013427932           14 
  341000   0.73562362    -8.485086    56.001917  0.013685708  0.013380686            4 
  342000   0.71151666   -8.5052489    55.740131  0.013581903  0.013333454            2 
  343000   0.71335871   -8.5141631    55.866968  0.013573121  0.013286488            3 
  344000   0.72472599   -8.5195058      55.7786  0.013512258  0.013239426            3 
  345000   0.72064906   -8.4944231     55.67857   0.01344893  0.013192546            6 
  346000   0.70060443   -8.5161823    55.631253  0.013398664  0.013145504            4 
  347000   0.70729548   -8.5096227    55.815845  0.013404382  0.013098588            2 
  348000   0.71294074   -8.5313829    55.662087  0.013329044  0.013052269            5 
  349000   0.70385315   -8.5272811    55.830073  0.013330963  0.013005861           11 
  350000   0.71959014   -8.5229528    55.839496  0.013295118  0.012959628            4 
  351000   0.70639944   -8.5246128    55.900482  0.013271719  0.012913408            3 
  352000   0.68662918   -8.5428349    55.759983  0.013200753  0.012867475            4 
  353000   0.69468411   -8.5466234     55.78876  0.013170151  0.012821608            5 
  354000   0.70272186   -8.5721638     55.79703  0.013134894  0.012775875            3 
  355000   0.70540014   -8.5293919    55.884621  0.013118456  0.012730276            2 
  356000   0.70242463   -8.5515503    55.904932  0.013086361  0.012684941            3 
  357000   0.68019549   -8.5627679    55.813943  0.013028465  0.012639523            6 
  358000    0.7031925   -8.5621995    55.824167  0.012994452  0.012594369            9 
  359000   0.69299864   -8.5491009    55.734173  0.012937366   0.01254911            6 
  360000   0.70312915   -8.5591258    55.809167  0.012918789  0.012504084            3 
  361000   0.68825626   -8.6016497     55.76044  0.012871754  0.012459188            4 
  362000   0.70657303   -8.5699515     55.85265  0.012857424  0.012414403           12 
  363000   0.69533157   -8.6172469    55.667929  0.012779598  0.012369846            8 
  364000   0.69744252   -8.5974515    55.656997  0.012741987  0.012325419            4 
  365000   0.68042442   -8.6042338    55.778058  0.012734716  0.012281135            4 
  366000   0.68687627   -8.6122298    55.780701  0.012700524  0.012237226            3 
  367000   0.68614561   -8.6229979    55.849069  0.012681442  0.012193656            4 
  368000   0.68774231   -8.6180774     55.89297  0.012656923  0.012150285            4 
  369000    0.6770553   -8.6354934    55.733831  0.012586683  0.012106789            4 
  370000   0.66967618   -8.6254716     55.76887  0.012560556   0.01206355            5 
  371000    0.6772275   -8.6211695    55.758526  0.012524377  0.012020378            2 
  372000   0.66231088    -8.658601    55.808675  0.012501943  0.011977253            3 
  373000   0.67002113   -8.6333369    55.651888  0.012433398  0.011934306            5 
  374000   0.65700803   -8.6130166    55.887233  0.012452592  0.011891472            5 
  375000   0.67414065   -8.6371852    55.756483  0.012390329  0.011849023           14 
  376000   0.67481598   -8.6218475     55.81652  0.012370683  0.011806735            6 
  377000   0.65964433   -8.6421011    55.737934  0.012320498  0.011764531            4 
  378000   0.68030542   -8.6188156     55.89428  0.012322372  0.011722514            5 
  379000   0.66944815   -8.6395886    55.853282  0.012280845  0.011680643            3 
  380000   0.66503943   -8.6823807    55.696093  0.012214055  0.011638981            2 
  381000   0.66580982   -8.6573423     55.76081  0.012196153  0.011597503            8 
  382000   0.65785533   -8.6428682     55.78723  0.012169989   0.01155611            3 
  383000     0.641399    -8.645251     55.80049  0.012141099  0.011515053            5 
  384000   0.63993677   -8.6532592    55.889639  0.012128828   0.01147401            2 
  385000   0.63914939   -8.6604475    55.733758  0.012063584  0.011433154            2 
  386000   0.65691306   -8.6418102     55.81461  0.012049786  0.011392441            2 
  387000   0.64329274   -8.6866504    55.844797   0.01202515  0.011351999            2 
  388000    0.6611313   -8.6592404    55.894329  0.012004796  0.011311738            5 
  389000   0.65577293   -8.6500461    55.962621  0.011988565  0.011271637            4 
  390000   0.64576595   -8.6943231     55.86441   0.01193684  0.011231778            5 
  391000   0.64069938   -8.6671467    55.897383  0.011913338  0.011191984            4 
  392000   0.62819159   -8.6791648    55.823113  0.011867158  0.011152428            4 
  393000   0.64311132   -8.6919119    55.778732  0.011827551  0.011112856            2 
  394000   0.64044836   -8.6900127    55.716734  0.011784419    0.0110734            5 
  395000   0.63531731   -8.6886687    55.798073  0.011771745  0.011034107            3 
  396000   0.63311652   -8.6770814    55.854218  0.011753834  0.010994973            2 
  397000    0.6506706   -8.6857889    55.855269  0.011724448  0.010956136            4 
  398000   0.61010437   -8.7053598    55.891509  0.011702577  0.010917345            3 
  399000   0.63621827   -8.7044795    55.738649  0.011641322   0.01087867            3 
  400000   0.64385991   -8.6952919    55.853528  0.011636152  0.010840209            3 
  401000   0.63263666   -8.7087458    55.774834   0.01159078  0.010801862            3 
  402000   0.63706222   -8.7081383    55.721987  0.011550992  0.010763612            3 
  403000   0.62354087   -8.7120834    55.754967   0.01152915  0.010725453            4 
  404000   0.61056798   -8.7107421    55.782819  0.011506357  0.010687558            4 
  405000   0.62202107    -8.727089    55.756804  0.011472593  0.010649808            2 
  406000   0.62496296   -8.7222173    55.710889  0.011434911  0.010612173            2 
  407000   0.62458092   -8.7187001    55.722625  0.011409219  0.010574647            2 
  408000   0.62201554   -8.7275821    55.672525  0.011371022  0.010537167            2 
  409000   0.62494537   -8.7362063    55.697359   0.01134828  0.010499939            7 
  410000    0.6159789   -8.7450817    55.735801  0.011328415  0.010462868            9 
  411000   0.61488061   -8.7498902    55.699367  0.011293465  0.010425913            3 
  412000   0.61734551   -8.7619856    55.688944  0.011263945  0.010388956            3 
  413000   0.61213986   -8.7606126    55.636529  0.011226095  0.010352206            3 
  414000   0.59512564   -8.7837504    55.619919  0.011195636  0.010315546            1 
  415000   0.60088956   -8.7650585    55.616577  0.011167987   0.01027895            2 
  416000   0.60136609    -8.758365    55.636584  0.011145149   0.01024253            4 
  417000   0.60361651   -8.7935251    55.576571  0.011106429  0.010206293            4 
  418000   0.59505363   -8.7760842    55.611244  0.011086771  0.010170298            5 
  419000   0.59553996   -8.7788094    55.599218  0.011057919  0.010134381            1 
  420000   0.60352272   -8.7891575    55.598186  0.011031386  0.010098516            3 
  421000   0.59290328   -8.7685179    55.702386  0.011025809  0.010062793            2 
  422000   0.58889238   -8.7782065    55.562878  0.010972132  0.010027245            3 
  423000   0.59372855   -8.7636429     55.60318  0.010954133 0.0099917424            1 
  424000   0.58803986   -8.7882349    55.639175  0.010935372 0.0099565173            4 
  425000   0.58951535   -8.7913055    55.574266  0.010896915  0.009921443            8 
  426000   0.58144998   -8.7781563    55.616836  0.010879663 0.0098865444            4 
  427000   0.58131792   -8.7855064     55.47039  0.010825603 0.0098516491            5 
  428000   0.58655992   -8.7926273    55.540234  0.010813909 0.0098169234            2 
  429000   0.57410443   -8.8053686    55.519498  0.010784673 0.0097822999            2 
  430000   0.58927304   -8.8037234    55.492587  0.010754377 0.0097478479            4 
  431000   0.57686795   -8.7874466    55.467723  0.010724618  0.009713574            3 
  432000   0.58101348   -8.8029136    55.541676  0.010714058 0.0096795296            3 
  433000   0.56378808   -8.8323275    55.619459  0.010704284 0.0096456264            4 
  434000   0.58512153    -8.824595     55.52797  0.010662053 0.0096118847            3 
  435000   0.57637995   -8.8445065    55.518114  0.010635654 0.0095782634            3 
  436000   0.56598679   -8.8223267    55.518617  0.010611357 0.0095448229            8 
  437000   0.56304754   -8.8203847    55.538111  0.010590792 0.0095114918            7 
  438000    0.5714755   -8.8318358    55.466736  0.010553032 0.0094782509            6 
  439000   0.57290493   -8.8276295    55.567566  0.010548133 0.0094451904            3 
  440000   0.56628102   -8.8430128    55.565011  0.010523676 0.0094122404            4 
  441000   0.54520787   -8.8142878    55.542929   0.01049564 0.0093794454            3 
  442000   0.57789951   -8.8155464    55.487954   0.01046153 0.0093468142            4 
  443000    0.5624837   -8.8445373    55.473536  0.010435202 0.0093142716            2 
  444000    0.5601607   -8.8489686    55.429301  0.010403397 0.0092819145            4 
  445000   0.55422285   -8.8534585    55.406461  0.010375742 0.0092496249            3 
  446000   0.54899739   -8.8596729    55.427706  0.010356447 0.0092174596            5 
  447000   0.55370941   -8.8664298    55.419637  0.010331774 0.0091854902            4 
  448000   0.54850054    -8.845043     55.41281  0.010307442  0.009153617            7 
  449000    0.5626814   -8.8441968    55.430523  0.010287773 0.0091218689            3 
  450000   0.55589921   -8.8688749    55.468666  0.010271975 0.0090902097            5 
  451000   0.54095662   -8.8647676    55.454785  0.010246634 0.0090587522            4 
  452000   0.54457684   -8.8617492    55.408057   0.01021535 0.0090274367            3 
  453000   0.55913629   -8.8680204    55.479089  0.010205866 0.0089962892            3 
  454000   0.54505367   -8.8603357    55.418227  0.010172215 0.0089652083            5 
  455000   0.52797298   -8.8663076    55.472337  0.010159769 0.0089342411            2 
  456000   0.54200922   -8.8761264    55.421913  0.010128274 0.0089034256            2 
  457000   0.54339916   -8.8548106     55.38228  0.010098884 0.0088727936            3 
  458000   0.53768283   -8.8781676    55.418653  0.010083452 0.0088423446            2 
  459000   0.53919771   -8.8693462    55.446823  0.010066598 0.0088119635            5 
  460000   0.53649457   -8.8859643    55.338311  0.010025056 0.0087817119            6 
  461000   0.53930365   -8.8769434    55.411132  0.010016474  0.008751617            3 
  462000   0.52218534    -8.888236    55.399276 0.0099926545 0.0087216392            3 
  463000   0.52639512   -8.8737927    55.413512 0.0099736343 0.0086917432            3 
  464000   0.53489293   -8.8912694    55.370178 0.0099443566 0.0086619701            2 
  465000   0.51574262   -8.9052958    55.259574 0.0099031494 0.0086323282            3 
  466000   0.51406081   -8.9090483     55.32812 0.0098941559 0.0086027627            4 
  467000   0.51702387   -8.8927374    55.289585  0.009866093 0.0085732812            3 
  468000   0.51191149   -8.9046037    55.228196 0.0098340805 0.0085439319            3 
  469000    0.5167722    -8.895924    55.381881 0.0098404195 0.0085146931            4 
  470000   0.50912185    -8.900722     55.44108 0.0098299787 0.0084855895            2 
  471000    0.5164951   -8.9031066    55.305806 0.0097851745 0.0084566095            3 
  472000   0.51577824   -8.9065349     55.35165  0.009772537  0.008427738            1 
  473000   0.50958147   -8.9295873    55.272287 0.0097378941 0.0083990029            4 
  474000   0.52380549   -8.9121071    55.394585  0.009738851 0.0083703785            3 
  475000   0.51943766   -8.9197404    55.285431 0.0096991984 0.0083418852            7 
  476000   0.50808996   -8.9175355    55.272608 0.0096765771 0.0083134861            5 
  477000   0.50082715   -8.9226075    55.268686 0.0096556055  0.008285271            7 
  478000    0.5024898   -8.9386723    55.185539 0.0096209098 0.0082571134            4 
  479000   0.50993252   -8.9365102    55.328742  0.009625738 0.0082290993            2 
  480000   0.50330883   -8.9339787    55.295486 0.0095999108 0.0082012269            3 
  481000   0.49818398   -8.9216094    55.180423 0.0095600178   0.00817347            7 
  482000   0.49658015   -8.9305531    55.259099 0.0095537862 0.0081458018            4 
  483000    0.5057706   -8.9409863     55.20938 0.0095254278 0.0081183161            3 
  484000    0.4947319   -8.9424132    55.146777 0.0094949684 0.0080908965            3 
  485000   0.48089459    -8.965368    55.179194 0.0094809611 0.0080635357            2 
  486000   0.49539703   -8.9658204    55.244607 0.0094726693 0.0080363897            3 
  487000   0.50262201   -8.9475417    55.194958 0.0094447224 0.0080093032            6 
  488000   0.50121862   -8.9520024    55.137439 0.0094155462 0.0079823987            6 
  489000   0.48817016   -8.9697332    55.155198  0.009399318 0.0079555789            5 
  490000   0.48785803   -8.9700868    55.147131 0.0093787638 0.0079288666           10 
  491000   0.47690161   -8.9572614    55.114471 0.0093541193 0.0079022279           18 
  492000    0.4856327   -8.9599205    55.272858 0.0093619339 0.0078757506            5 
  493000   0.48327332   -8.9766199    55.183375 0.0093278187 0.0078493651            3 
  494000   0.48280925   -8.9793347    55.102167 0.0092952373 0.0078230298            4 
  495000   0.46936552   -8.9713894     55.16158 0.0092864613  0.007796857            5 
  496000   0.48387062   -8.9760975    55.157324 0.0092670236 0.0077707594            5 
  497000    0.4790947   -8.9901627    55.077085 0.0092349237 0.0077447571            3 
  498000   0.47020664   -8.9967372    55.101597 0.0092204814 0.0077189039            2 
  499000   0.47118016   -8.9991584    55.020802 0.0091885107 0.0076931036            5 
  500000    0.4701026   -9.0063087    55.190603 0.0091984339 0.0076674697            6 
  501000   0.47516924   -8.9911766      55.0761 0.0091610279 0.0076419395            4 
  502000   0.45929422   -9.0007892    55.046937 0.0091379377 0.0076164726            3 
  503000   0.46016101    -8.997141    55.084347 0.0091259687 0.0075911043            4 
  504000   0.46186553   -8.9904593    55.048705 0.0091019684 0.0075658319            4 
  505000   0.45925399   -8.9939516    55.116392 0.0090951141 0.0075406435            3 
  506000   0.45670512   -8.9937861     55.09111  0.009072976  0.007515594            3 
  507000   0.46496325   -9.0140906    55.066101   0.00905097 0.0074906702            2 
  508000   0.45909691   -9.0081809    55.051761 0.0090308007 0.0074658381            3 
  509000    0.4549575    -8.999817    55.053202 0.0090132943 0.0074411111            4 
  510000   0.45302842   -8.9982521    55.089411 0.0090015377 0.0074165629            6 
  511000   0.44699405   -9.0220093    55.033949 0.0089748775 0.0073920972            5 
  512000   0.45359464   -9.0085672     54.99277 0.0089506462 0.0073677058            1 
Loop time of 1240.68 on 48 procs for 500000 steps with 4000 atoms

Performance: 69639.146 tau/day, 403.004 timesteps/s
99.4% CPU use with 48 MPI tasks x no OpenMP threads

MPI task timing breakdown:
Section |  min time  |  avg time  |  max time  |%varavg| %total
---------------------------------------------------------------
Pair    | 83.27      | 88.108     | 92.143     |  26.0 |  7.10
Neigh   | 8.2258     | 8.6037     | 8.9158     |   5.5 |  0.69
Comm    | 76.269     | 84.153     | 90.194     |  34.1 |  6.78
Output  | 0.86673    | 0.86757    | 0.89334    |   0.4 |  0.07
Modify  | 1043.4     | 1047.3     | 1053       |   6.8 | 84.42
Other   |            | 11.61      |            |       |  0.94

Nlocal:        83.3333 ave          92 max          77 min
Histogram: 2 1 8 9 15 2 5 3 2 1
Nghost:        2218.62 ave        2238 max        2203 min
Histogram: 4 7 4 4 12 3 6 2 4 2
Neighs:        14797.6 ave       16681 max       12706 min
Histogram: 1 1 5 7 9 11 4 6 3 1
FullNghs:      29595.4 ave       32953 max       27101 min
Histogram: 2 2 8 14 8 6 2 5 0 1

Total # of neighbors = 1420580
Ave neighs/atom = 355.14500
Neighbor list builds = 26661
Dangerous builds = 0

#clear
#
#next RN
#
#jump SELF
Total wall time: 0:20:44
