
units lj                  # Use reduced LJ style units
atom_style atomic         # Uncharged point particles
atom_modify map hash      # Needed for indexing of clusters etc
                          # Used to be able to find where atoms are in relation to each other.

lattice fcc 1.0 spacing 1 1 1
Lattice spacing in x,y,z = 1.5874011 1.5874011 1.5874011
region box block 0 10 0 10 0 10 units lattice
create_box 2 box
Created orthogonal box = (0.0000000 0.0000000 0.0000000) to (15.874011 15.874011 15.874011)
  3 by 4 by 4 MPI processor grid
create_atoms 1 box
Created 4000 atoms
  using lattice units in orthogonal box = (0.0000000 0.0000000 0.0000000) to (15.874011 15.874011 15.874011)
  create_atoms CPU = 0.003 seconds
set type 1 type/fraction 2 0.36 78393
Setting atom values ...
  1453 settings made for type/fraction
mass 1 1.0
mass 2 1.0
pair_style lj/cut  3.5
pair_modify tail  yes
pair_coeff 1  1  1.0  1.0   # Intearaction between 1 and 1 set with epsilon = 1 and sigma = 1
pair_coeff 1  2  1.5  0.8
pair_coeff 2  2  0.5  0.88

write_data data.0
System init for write_data ...
Neighbor list info ...
  update every 1 steps, delay 10 steps, check yes
  max neighbors/atom: 2000, page size: 100000
  master list distance cutoff = 3.8
  ghost atom cutoff = 3.8
  binsize = 1.9, bins = 9 9 9
  1 neighbor lists, perpetual/occasional/extra = 1 0 0
  (1) pair lj/cut, perpetual
      attributes: half, newton on
      pair build: half/bin/atomonly/newton
      stencil: half/bin/3d
      bin: standard
WARNING: Not all mixed pair coeffs generated from mixing. Use write_data with 'pair ij' option to store all pair coeffs. (../write_data.cpp:312)


#############################
#   M E L T   S Y S T E M   #
#############################

velocity all create 2.4 3143649 mom yes dist gaussian # Assign velocities
                                                    # Temperature 2.4, random number seed, zero linear momentum
                                                                                # Gaussian distribution

timestep 0.002   # simulation timestep
thermo 1000       # output thermodynamic data every 1000 steps bf 100

# Define a fix  in this case with index 1 applied to all
# particles in the simulation. This fix is for simulations
# in the anisotropic NPT ensemble. Note that we use the MTK
# correction.
fix 1 all npt temp 2.4 2.4 0.1 iso 5.68 5.68 0.5 mtk yes tchain 5 pchain 5 # Use NPT ensemble
                                                                         # Set temperature and pressure and damping
                                                                         # Numbers of thermostats in chain and in barostat
run 10000          # run for 10000 steps
Per MPI rank memory allocation (min/avg/max) = 3.642 | 3.644 | 3.648 Mbytes
Step Temp E_pair E_mol TotEng Press Volume 
       0          2.4   -6.0964775            0   -2.4973775   -4.1129651         4000 
    1000    2.3796788    -5.084154            0   -1.5155281    5.9274002    3940.7994 
    2000    2.3522312   -5.0181994            0   -1.4907347    5.9579399    3971.2492 
    3000    2.4750263   -4.9807744            0   -1.2691632     5.853753    4011.1217 
    4000    2.3817252   -5.0644862            0   -1.4927917     5.703368    3971.9789 
    5000    2.4144469    -5.015676            0   -1.3949111    5.5074087    4018.7228 
    6000     2.411485   -5.0032132            0     -1.38689    5.8787659    3985.0651 
    7000    2.3852889   -5.0725776            0   -1.4955387    5.4207503    3999.6587 
    8000    2.3389218    -5.044628            0   -1.5371223    5.7246978    3976.4385 
    9000    2.4003412   -5.0396117            0        -1.44    5.9162485    3976.5663 
   10000    2.4049865   -5.0266303            0   -1.4200523    5.8281591    3986.6353 
Loop time of 2.49142 on 48 procs for 10000 steps with 4000 atoms

Performance: 693580.422 tau/day, 4013.776 timesteps/s
99.6% CPU use with 48 MPI tasks x no OpenMP threads

MPI task timing breakdown:
Section |  min time  |  avg time  |  max time  |%varavg| %total
---------------------------------------------------------------
Pair    | 1.0967     | 1.1626     | 1.2335     |   2.4 | 46.66
Neigh   | 0.20641    | 0.21618    | 0.22867    |   0.9 |  8.68
Comm    | 0.78017    | 0.84714    | 0.89847    |   3.0 | 34.00
Output  | 0.00024894 | 0.00025357 | 0.00034291 |   0.0 |  0.01
Modify  | 0.2105     | 0.24945    | 0.28633    |   3.9 | 10.01
Other   |            | 0.01578    |            |       |  0.63

Nlocal:        83.3333 ave          93 max          75 min
Histogram: 1 3 5 10 7 11 6 2 2 1
Nghost:        1644.62 ave        1678 max        1616 min
Histogram: 3 3 5 5 6 16 6 3 0 1
Neighs:        9580.81 ave       10789 max        8245 min
Histogram: 1 1 3 9 8 7 11 3 3 2

Total # of neighbors = 459879
Ave neighs/atom = 114.96975
Neighbor list builds = 904
Dangerous builds = 198

# Equilibrate just above the melting temperature to avoid step fn in T

fix 1 all npt temp 1.25 1.25 0.1 iso 5.68 5.68 0.5 mtk yes tchain 5 pchain 5
run 2000
Per MPI rank memory allocation (min/avg/max) = 3.643 | 3.645 | 3.649 Mbytes
Step Temp E_pair E_mol TotEng Press Volume 
   10000    2.4049865   -5.0266303            0   -1.4200523    5.8281591    3986.6353 
   11000    1.2362274   -6.9369976            0   -5.0831201    5.8279849    3194.2772 
   12000    1.2462911   -7.0696674            0   -5.2006981    5.7410426    3159.3303 
Loop time of 0.597789 on 48 procs for 2000 steps with 4000 atoms

Performance: 578130.668 tau/day, 3345.664 timesteps/s
99.6% CPU use with 48 MPI tasks x no OpenMP threads

MPI task timing breakdown:
Section |  min time  |  avg time  |  max time  |%varavg| %total
---------------------------------------------------------------
Pair    | 0.25693    | 0.28895    | 0.31732    |   2.6 | 48.34
Neigh   | 0.038107   | 0.041601   | 0.046931   |   0.8 |  6.96
Comm    | 0.18695    | 0.21781    | 0.2547     |   3.4 | 36.44
Output  | 5.6195e-05 | 5.7702e-05 | 7.5002e-05 |   0.0 |  0.01
Modify  | 0.041125   | 0.044486   | 0.048576   |   0.9 |  7.44
Other   |            | 0.004883   |            |       |  0.82

Nlocal:        83.3333 ave          89 max          73 min
Histogram: 1 0 1 3 4 13 6 5 9 6
Nghost:        1921.33 ave        1959 max        1900 min
Histogram: 8 6 8 8 5 2 7 2 1 1
Neighs:        12097.6 ave       13480 max        9864 min
Histogram: 1 0 3 5 5 8 6 8 7 5

Total # of neighbors = 580685
Ave neighs/atom = 145.17125
Neighbor list builds = 143
Dangerous builds = 6

#############################
# L I N E A R  Q U E N C H  #
#############################

# Define solid atoms. This closely follows ten Wolde  Ruiz-Montero and Frenkel  Faraday Discuss  1996  104  93-110
# Compute components of the per-atom q6 vector
compute q6 all orientorder/atom degrees 1 6 components 6 nnn NULL cutoff 1.3 # compute the Q6 parameter.
                                                                             # Use all neighbours within 1.3 unit cell.

# get number of connections
compute coord_number all coord/atom orientorder q6 0.5

# An atom is solid if it has 8 or more connections (of a possible 14)
variable is_solid atom c_coord_number>=8
group solid dynamic all var is_solid    # Must be dynamic to update
dynamic group solid defined

# do clustering
compute cluster solid cluster/atom 1.3 # Create a cluster where all atoms within are solid and max 1.3 units from another member

# define chunks one chunk per cluster
compute clus_chunks solid chunk/atom c_cluster nchunk every compress yes  # Says which atoms are in which chunk

# count the size of each chunk
compute size_chunks solid property/chunk clus_chunks count


# Find the maximum entry in the vector of chunk sizes
variable max_n equal max(c_size_chunks)


# Thermo style which includes this variable
# thermo_style custom step temp pe vol v_max_n

thermo ${N}  # Print the thermo information every 100 steps
thermo 1000  

# Reset the npt fix at a lower temperature (below freezing)
fix 1  all npt temp  ${temp} ${temp}  0.1  iso  5.68  5.68  0.5  mtk yes tchain  5  pchain  5
fix 1  all npt temp  0.45 ${temp}  0.1  iso  5.68  5.68  0.5  mtk yes tchain  5  pchain  5
fix 1  all npt temp  0.45 0.45  0.1  iso  5.68  5.68  0.5  mtk yes tchain  5  pchain  5

dump dmp2 all dcd ${N} traj.dcd
dump dmp2 all dcd 1000 traj.dcd


compute msd all msd com yes
variable twopoint equal c_msd[4]/6/(step*dt+1.0e-6)
fix 9 all vector 10 c_msd[4]
variable fit equal slope(f_9)/6/(10*dt)
thermo_style custom step temp pe c_msd[4] v_twopoint v_fit v_max_n

fix 1 all npt temp 1.25 ${temp} 0.1 iso 5.68 5.68 0.5 mtk yes tchain 5 pchain 5
fix 1 all npt temp 1.25 0.45 0.1 iso 5.68 5.68 0.5 mtk yes tchain 5 pchain 5
run 2000000 # 5000000  # Run for this many steps
Neighbor list info ...
  update every 1 steps, delay 10 steps, check yes
  max neighbors/atom: 2000, page size: 100000
  master list distance cutoff = 3.8
  ghost atom cutoff = 3.8
  binsize = 1.9, bins = 8 8 8
  4 neighbor lists, perpetual/occasional/extra = 1 3 0
  (1) pair lj/cut, perpetual
      attributes: half, newton on
      pair build: half/bin/atomonly/newton
      stencil: half/bin/3d
      bin: standard
  (2) compute orientorder/atom, occasional
      attributes: full, newton on
      pair build: full/bin/atomonly
      stencil: full/bin/3d
      bin: standard
  (3) compute coord/atom, occasional
      attributes: full, newton on
      pair build: full/bin/atomonly
      stencil: full/bin/3d
      bin: standard
  (4) compute cluster/atom, occasional
      attributes: full, newton on
      pair build: full/bin/atomonly
      stencil: full/bin/3d
      bin: standard
Per MPI rank memory allocation (min/avg/max) = 9.816 | 9.825 | 9.831 Mbytes
Step Temp PotEng c_msd[4] v_twopoint v_fit v_max_n 
   12000    1.2462911   -7.0696674            0            0 8.3333333e+20            1 
   13000     1.241622   -7.0283628   0.49521942 0.0031744834  0.039759149            2 
   14000    1.2825319   -7.0461568   0.95191762 0.0056661761  0.039281417            1 
   15000    1.2695675   -7.0043413     1.418751 0.0078819499  0.039131862            3 
   16000    1.2458608   -7.0819221    1.8059424 0.0094059496  0.037819007            2 
   17000    1.2302618   -7.0320625    2.2440809  0.011000396  0.036742937            2 
   18000    1.2396025   -7.0430052     2.703808  0.012517629  0.036737686            3 
   19000     1.261949   -7.0537934    3.1467894  0.013801708   0.03673175            1 
   20000    1.2331859   -6.9776216    3.5953445  0.014980602  0.036668002            3 
   21000    1.2332137   -6.9827947    4.0719054  0.016158354  0.036849465            1 
   22000    1.2221554   -7.0125702    4.4638259  0.016908431  0.036878165            1 
   23000    1.2275223   -7.0508623    4.8570269  0.017597923  0.036700216            2 
   24000    1.2439439   -7.0417962    5.1950029  0.018038204   0.03641449            1 
   25000    1.2561839   -7.0270167    5.6277029  0.018759009  0.036091819            2 
   26000    1.2513314   -7.0181172    6.1333052  0.019658029     0.036002            2 
   27000    1.2410548   -7.0791013    6.5018995  0.020067591  0.035925236            4 
   28000    1.2590236    -7.047449    6.9327667  0.020633234  0.035774935            4 
   29000    1.2319093    -7.064126    7.3394843  0.021090472  0.035616083            2 
   30000    1.2407608    -7.057894    7.7861861  0.021628294  0.035579043            4 
   31000    1.2667472   -7.0354756    8.1779398  0.021983709  0.035543584            2 
   32000    1.2460549   -7.0028009    8.6097488  0.022421221  0.035471622            2 
   33000    1.2518651   -7.0133192    8.9589539  0.022623621  0.035388075            2 
   34000    1.2365743   -7.0528466    9.3223439  0.022848882  0.035279133            1 
   35000    1.2195146   -7.0706553    9.7086267  0.023115778  0.035176602            2 
   36000    1.2224368   -7.0562572     10.14337  0.023480022  0.035040033            2 
   37000    1.2417952   -7.0020245    10.636422  0.023955905  0.034952469            2 
   38000    1.2472651   -7.1000152    10.999754  0.024122267  0.034946895            1 
   39000    1.2248791   -7.0407608     11.38255  0.024321688  0.034884507            1 
   40000    1.2365742   -7.0067921    11.844162  0.024675336   0.03483299            2 
   41000    1.2440902   -7.0706173    12.246257  0.024890765  0.034801255            2 
   42000    1.2426914   -7.0568196    12.685006  0.025168662  0.034778971            1 
   43000    1.2160685   -7.0602186    13.165667  0.025514859  0.034773827            1 
   44000    1.2580388   -7.0663402     13.56427  0.025689905  0.034788434            1 
   45000    1.2446616   -7.0793018     13.94498  0.025824036  0.034789327            3 
   46000    1.2378004   -7.0188165    14.392202   0.02607283  0.034786206            3 
   47000    1.2292036   -7.0487954    14.792681  0.026228158  0.034780388            2 
   48000    1.2192836   -7.0573432    15.218186  0.026420462  0.034772087            1 
   49000    1.2377141   -7.1052632    15.615874  0.026557608  0.034775188            3 
   50000    1.2457679    -7.077889    15.960497  0.026600827  0.034764544            2 
   51000    1.2230113   -7.0394885     16.47672  0.026922745  0.034754104            2 
   52000    1.2310182   -7.0349261    16.903324   0.02708866  0.034769875            2 
   53000      1.22736   -7.0393746    17.419863  0.027389721  0.034795099            2 
   54000    1.2277964   -7.0302939    17.796596  0.027463882  0.034828241            1 
   55000    1.2140012   -7.0218031    18.273733  0.027687474  0.034845632            1 
   56000    1.2463246   -7.0465211    18.622148  0.027711529  0.034868994            2 
   57000    1.2447607   -7.0511304    19.126139  0.027962192  0.034883253            1 
   58000    1.2350198   -7.0390212    19.620303   0.02819009  0.034915454            1 
   59000    1.2332484    -7.045327    20.150663  0.028461388  0.034971505            2 
   60000      1.25482     -7.03532     20.60711  0.028620986   0.03503367            1 
   61000    1.2249714   -7.0500176    21.065892  0.028778541  0.035086381            1 
   62000    1.2694251   -7.0907757    21.481202  0.028872583  0.035138815            2 
   63000    1.2403413   -7.0833033    21.864672  0.028921524  0.035195464            2 
   64000    1.2331367   -7.0954777     22.40114  0.029168151  0.035253515            1 
   65000    1.2262457   -7.0846137    22.845796  0.029289482  0.035294699            1 
   66000    1.2262352    -7.050129    23.252637  0.029359391  0.035341119            2 
   67000    1.2376297   -7.0768831    23.661857  0.029430171  0.035389976            1 
   68000    1.2071276    -7.032229     24.16192  0.029610196  0.035423957            1 
   69000    1.2396747    -7.057114    24.545338  0.029644128   0.03545325            1 
   70000    1.2021374   -7.0873259    24.920471  0.029667228  0.035477573            2 
   71000     1.204865   -7.0981606    25.241867  0.029626604  0.035492729            2 
   72000    1.2210122   -7.0312547    25.976056   0.03006488  0.035515919            1 
   73000    1.2375006   -7.0582243    26.356562    0.0300874  0.035553374            2 
   74000    1.2222317   -7.0672403    26.866267  0.030254805  0.035577944            2 
   75000    1.1904989   -7.0670945    27.199983  0.030222203  0.035606241            1 
   76000    1.2208148   -7.0756921    27.626458  0.030292169   0.03562554            1 
   77000    1.2295271   -7.0703974    27.898995  0.030193717  0.035637336            1 
   78000     1.224146   -7.0765304    28.417563  0.030360644  0.035647475            1 
   79000     1.225008   -7.0941546    28.887991  0.030472564  0.035662616            2 
   80000    1.1969385   -7.0523366    29.359031  0.030582323  0.035688927            1 
   81000    1.2293366   -7.0882768     29.62013  0.030473384   0.03570353            1 
   82000    1.2162792   -7.0947975    30.090081  0.030579351  0.035711305            1 
   83000    1.2430794   -7.0878365    30.323951  0.030445733  0.035711377            1 
   84000    1.2214167   -7.0803566    30.776595  0.030532336  0.035710352            3 
   85000    1.2036146   -7.1091358    31.149519  0.030538743  0.035699161            1 
   86000     1.215198   -7.0875858    31.554814   0.03057637  0.035690106            3 
   87000    1.2546757   -7.0493124    31.868565  0.030525445  0.035676361            1 
   88000    1.2014612    -7.128707    32.448198   0.03072746  0.035660537            1 
   89000    1.2321591   -7.0999604    33.146666  0.031036204  0.035661874            1 
   90000    1.2053948   -7.0716895    33.387396  0.030914256  0.035660581            2 
   91000    1.2092001   -7.1073557     33.94471  0.031084899  0.035656037            3 
   92000    1.2064718   -7.0908741    34.419408     0.031177  0.035661197            1 
   93000     1.195381   -7.1261728    34.603026  0.031006295   0.03566543            2 
   94000    1.2235957   -7.1117668    35.152931  0.031163946  0.035672318            2 
   95000    1.2099507   -7.1134668    35.622193  0.031247537   0.03567667            1 
   96000    1.1967003   -7.1272404    36.010119  0.031258784  0.035673489            3 
   97000    1.2252549   -7.1247159    36.473779  0.031334861  0.035679329            1 
   98000    1.2117809   -7.1227846    36.663335  0.031176305   0.03567771            3 
   99000    1.2177321    -7.090538    37.213358  0.031324375  0.035673163            1 
  100000    1.2081982   -7.0844788    37.707017  0.031422514  0.035674628            1 
  101000    1.2490088   -7.0685703    38.349776  0.031641729  0.035681393            1 
  102000    1.2175171   -7.0799715    38.610997  0.031544932  0.035691026            1 
  103000    1.2295966   -7.1114004    38.814262  0.031403125  0.035691366            1 
  104000    1.2068338   -7.0926053    39.169213  0.031385587  0.035681471            2 
  105000    1.2212777   -7.1285511    39.533436  0.031375742  0.035666368            1 
  106000    1.2249586   -7.1247407    39.985163  0.031434877  0.035654033            1 
  107000    1.1962465   -7.0817412    40.464407  0.031514335  0.035642072            1 
  108000    1.2006412   -7.0925541    40.692191  0.031398296  0.035628052            2 
  109000    1.2053106   -7.0792882    41.207808   0.03150444  0.035609936            2 
  110000    1.2315552    -7.078299    41.479152    0.0314236  0.035595146            1 
  111000    1.2007763   -7.1021417    41.919773  0.031471301  0.035576275            1 
  112000    1.2170486   -7.1221997    42.223188  0.031416062  0.035554879            1 
  113000    1.2432548   -7.0632862    42.773815  0.031544111  0.035535613            1 
  114000    1.1933808   -7.1224543    43.220415   0.03159387  0.035514368            1 
  115000    1.2213609   -7.1125618    43.597667  0.031592512  0.035494625            1 
  116000    1.2139491   -7.1300201    43.994734  0.031605412  0.035472787            1 
  117000     1.226421   -7.0940092    44.402616  0.031625795  0.035451843            1 
  118000    1.2007422   -7.0861856    44.886561  0.031699548  0.035434113            1 
  119000    1.2127553    -7.122648    45.410839  0.031800308  0.035418732            2 
  120000    1.2089197    -7.173094    45.427639  0.031546971  0.035400952            2 
  121000      1.19844   -7.0967116    45.910958  0.031619117  0.035381385            2 
  122000    1.2215927   -7.1291904    46.281184   0.03161283  0.035359236            2 
  123000    1.1969342   -7.1175997    46.614695  0.031581772  0.035332441            2 
  124000    1.2207695    -7.159773    46.862685   0.03149374  0.035303842            4 
  125000    1.2183246    -7.109029    47.306313  0.031537542  0.035275741            1 
  126000     1.194126   -7.1061177    47.574504  0.031464619  0.035245643            2 
  127000    1.2193054   -7.1329711    48.053193  0.031530966  0.035217781            2 
  128000    1.2125064   -7.0973873    48.802013  0.031772143  0.035189465            2 
  129000    1.1766176   -7.1228551    48.898339  0.031588074  0.035163003            2 
  130000    1.2067281   -7.1372374    49.153741  0.031508808  0.035134512            1 
  131000    1.1889642   -7.1148768    49.511465  0.031495843  0.035101649            1 
  132000    1.2007409   -7.1318031    49.740756  0.031401992  0.035066611            3 
  133000    1.2175461   -7.1194693    50.022515  0.031342428  0.035027038            2 
  134000    1.1992932   -7.1130496    50.326065  0.031297304  0.034985032            3 
  135000    1.1982944    -7.182118    50.380475  0.031099059  0.034942031            3 
  136000     1.193947   -7.1510656    50.829042  0.031145246  0.034900587            1 
  137000    1.1925639   -7.1474741    51.321882   0.03121769  0.034857091            3 
  138000    1.2070592   -7.1797471    51.868254  0.031321409  0.034814882            1 
  139000    1.2215252   -7.1729665    52.333488  0.031374993  0.034776727            1 
  140000    1.2132544   -7.1898961    52.563357  0.031287712   0.03474137            2 
  141000     1.233307   -7.1427605     53.05121  0.031354143  0.034706635            3 
  142000    1.1899199   -7.1316284    53.383502  0.031328346  0.034673205            1 
  143000    1.2213708    -7.177906    53.699246  0.031293267  0.034640546            2 
  144000    1.2245476   -7.1423981     54.04243  0.031274555  0.034603666            1 
  145000    1.1919278   -7.0928657    54.656742  0.031411921  0.034571511            1 
  146000    1.1992925   -7.1433895    54.972575   0.03137704  0.034539537            6 
  147000    1.1937998   -7.1670358    55.337486  0.031370457  0.034509503            2 
  148000    1.1597024    -7.114325    55.898742  0.031474517  0.034481179            2 
  149000    1.2107735   -7.1301633    56.247209   0.03145817   0.03445444            2 
  150000    1.1791605   -7.1523199    56.648122  0.031471179    0.0344288            3 
  151000    1.2092225   -7.2169857    56.706748  0.031295115  0.034399979            2 
  152000    1.1907553   -7.1883344    57.188365   0.03135327  0.034368404            3 
  153000    1.1832057   -7.1217268    57.474278  0.031304073  0.034336689            2 
  154000    1.2166175   -7.1681828    57.863779  0.031311568  0.034304251            2 
  155000    1.2173671   -7.1547634    58.261337    0.0313233  0.034267836            1 
  156000     1.230771   -7.1566349    58.147646  0.031061776  0.034232354            1 
  157000    1.1802924   -7.1759497    58.529987  0.031066872  0.034194371            1 
  158000    1.1671527   -7.1861411    58.786844  0.031005719  0.034154664            1 
  159000    1.1650881    -7.200724    59.277494  0.031067869   0.03411582            2 
  160000    1.1769369   -7.2087993    59.544172  0.031012589  0.034076006            6 
  161000    1.1674144   -7.2310706    59.664969  0.030882489  0.034035001            1 
  162000    1.1942625   -7.1061204    60.385208   0.03106235  0.033994498            2 
  163000    1.1617877   -7.1960509    60.373872  0.030865988  0.033953362            4 
  164000    1.1893853   -7.1605235      60.7482  0.030867987  0.033909165            1 
  165000    1.1795808   -7.1583738    61.006882  0.030811557  0.033864704            1 
  166000    1.1710668   -7.1278114     61.39831  0.030822445  0.033820099            1 
  167000     1.181901   -7.1754129    61.768616  0.030822663  0.033776656            1 
  168000    1.1875742   -7.1823813    62.025207  0.030766472  0.033731286            2 
  169000    1.2059015   -7.1721984    62.423276  0.030780708  0.033687284            1 
  170000    1.1997248   -7.1984635    62.617466  0.030694836  0.033644939            2 
  171000    1.1829427   -7.2019523    62.862811  0.030634898  0.033602464            1 
  172000    1.1776632   -7.1807619    63.640064  0.030833364  0.033562706            4 
  173000    1.1868615   -7.1524748    63.730718  0.030698804  0.033520826            1 
  174000    1.1863274   -7.1336843    63.895693  0.030601386   0.03347673            2 
  175000    1.1984574   -7.1557406    64.302523  0.030620249  0.033434399            1 
  176000    1.1852675   -7.1837236    64.663422   0.03061715  0.033392501            1 
  177000    1.1688569   -7.2469319    65.161539  0.030678691  0.033351403            1 
  178000    1.2126687   -7.1601869    65.646308   0.03073329  0.033313111            1 
  179000    1.1900007   -7.2107864    65.806316  0.030636088  0.033277589            1 
  180000    1.1726459   -7.2081735    66.260265  0.030676049  0.033239687            1 
  181000    1.1967011   -7.1852022    66.408721  0.030574918  0.033202724            1 
  182000    1.2027758   -7.1794327     67.01247  0.030683365  0.033168643            2 
  183000    1.1878259    -7.217956    67.442101  0.030711339  0.033135904            2 
  184000     1.186283   -7.1923384    67.576549  0.030605321  0.033102701            1 
  185000    1.1550421   -7.1686608    68.079027  0.030666228   0.03307117            2 
  186000    1.1878562   -7.1669004    68.608915  0.030738761  0.033040854       -1e+20 
  187000     1.183733   -7.1697973    68.766672  0.030644684   0.03300833            1 
  188000     1.151343   -7.1727291    69.291428  0.030714285  0.032975497            2 
  189000    1.1633037    -7.191467    69.519569  0.030652367  0.032942625            2 
  190000    1.1626783   -7.1786188    70.152236  0.030768525  0.032910278            1 
  191000     1.148801   -7.1674736    70.274566  0.030660805  0.032878535            2 
  192000    1.1838393   -7.1817757    70.591348  0.030638606  0.032848239            1 
  193000    1.1692201   -7.1875043     70.88105  0.030604944  0.032819689            1 
  194000    1.2008358   -7.1795898    71.615904  0.030762845  0.032793615            2 
  195000    1.1631045   -7.2053078    71.489765  0.030551182  0.032765159            1 
  196000    1.1510722   -7.1926135    71.694204  0.030482229  0.032735118            1 
  197000    1.2182363   -7.1863631    72.448914  0.030646749  0.032704847            1 
  198000    1.1985919   -7.1742488    72.724242  0.030607846  0.032676474            1 
  199000    1.1760486   -7.1734205    73.180773  0.030645215   0.03264832            1 
  200000    1.1486347   -7.1888483    73.040787  0.030433661   0.03261935            1 
  201000       1.1655    -7.230679    73.355172  0.030412592  0.032588398            3 
  202000     1.185104   -7.1897355     74.04784  0.030547789   0.03255866            2 
  203000    1.1799357   -7.2163506    74.401312   0.03054241  0.032532324            1 
  204000    1.1586877   -7.1979867    74.827932  0.030566965  0.032504316            3 
  205000    1.1801465   -7.2113282      75.1782  0.030560244  0.032476922            1 
  206000    1.1706006   -7.2158802    75.421794  0.030510435  0.032451428            2 
  207000    1.1798781   -7.2134791    75.776138  0.030505691  0.032426001            1 
  208000    1.1555586   -7.1992681    76.503349   0.03065038  0.032401023            1 
  209000    1.1723038   -7.1997292    76.698379  0.030581491  0.032378322            1 
  210000    1.1796226   -7.2208033    76.947431  0.030534695  0.032354435            2 
  211000    1.1599935   -7.2011722     77.29115   0.03052573  0.032330918            3 
  212000    1.1712518   -7.1798155    77.950204  0.030640803  0.032306376            2 
  213000    1.1628517   -7.1899607    77.980344  0.030508742  0.032283216            1 
  214000    1.1633426   -7.2168826    78.465083  0.030554939  0.032260855            5 
  215000    1.1725472   -7.2061013    78.986775  0.030615029  0.032239305            1 
  216000    1.1781386   -7.2256637     79.27537  0.030584633   0.03221818            1 
  217000    1.1646757   -7.2181471    79.518726  0.030537145  0.032196887            2 
  218000    1.1581327   -7.2137301    79.740231   0.03048174  0.032174644            2 
  219000    1.1796471   -7.2344156    79.747592  0.030345354  0.032151973            4 
  220000    1.1549899    -7.221638    80.310276  0.030420559  0.032126043            2 
  221000    1.1667132   -7.2221152    80.529945  0.030365741  0.032100713            4 
  222000    1.1721094    -7.200757    80.924491  0.030377061  0.032075839            1 
  223000    1.1939995    -7.186247    81.091076  0.030303092  0.032050939            2 
  224000    1.1711845   -7.2147963    81.627109  0.030367228  0.032026628            1 
  225000    1.1657066   -7.1778792    81.831381  0.030307919  0.032002087            1 
  226000    1.1861351   -7.2264624    82.100406  0.030273011  0.031976034            2 
  227000    1.1708399   -7.2166705    82.505067  0.030288204  0.031950971            2 
  228000    1.1592069   -7.2304117    82.688296   0.03022233  0.031925363            1 
  229000    1.1577842   -7.1734467    83.126289  0.030249741  0.031902279            1 
  230000     1.164352   -7.2093743    83.710557  0.030329912  0.031879983            2 
  231000    1.1645624   -7.2381075    84.088009   0.03033478  0.031858661            2 
  232000    1.1884937   -7.2265625     84.40715   0.03031866  0.031837868            2 
  233000    1.1490939   -7.2044076    85.319496  0.030514841  0.031819601            1 
  234000     1.132315   -7.2149074    85.541739  0.030463582  0.031803051            1 
  235000     1.158341   -7.2049485     86.11123  0.030535897  0.031787703            1 
  236000       1.1839   -7.2495475    86.352146  0.030491577  0.031771941            1 
  237000    1.1567854    -7.189174    86.792252  0.030517669   0.03175583            1 
  238000    1.1791135   -7.2716853    86.865458  0.030415076  0.031740751            1 
  239000    1.1639667   -7.2696264    87.141402  0.030384031  0.031725289            1 
  240000    1.1443971   -7.2608618     87.83594   0.03049859  0.031711044            2 
  241000    1.1707045   -7.2403184     88.49677  0.030600543  0.031698056            1 
  242000    1.1548911   -7.1936662    89.179672  0.030709253  0.031687815            1 
  243000    1.1776764   -7.2092419    89.309858  0.030627523  0.031679195            3 
  244000    1.1829872   -7.2815297    89.269976   0.03048838  0.031668705            1 
  245000     1.138157   -7.2735111    89.730176  0.030520468  0.031655628            2 
  246000    1.1444075   -7.2328071    89.699426  0.030385984  0.031642196            1 
  247000    1.1491408   -7.2425183    90.293199  0.030463292  0.031628802            1 
  248000    1.1442977   -7.2124846    90.825296  0.030519253   0.03161578            3 
  249000    1.1432794   -7.2379351    90.992211  0.030452547  0.031601809            1 
  250000    1.1430545   -7.2322249    91.338126  0.030446042  0.031589476            2 
  251000    1.1472842   -7.2298289    91.935788   0.03052317  0.031577388            1 
  252000    1.1773056   -7.2144409    91.901357   0.03039066  0.031565127            2 
  253000    1.1494331   -7.1644351     92.72884  0.030543096   0.03155241            1 
  254000    1.1558542   -7.2266323    92.466664  0.030336832  0.031538173            2 
  255000    1.1623987   -7.2229357    92.848392  0.030342612  0.031522454            2 
  256000    1.1597259   -7.1845705    93.280602  0.030364779  0.031507394            1 
  257000    1.1409894   -7.2522834    93.279657  0.030246322  0.031490464            2 
  258000    1.1436817   -7.2827821     93.14753  0.030086411  0.031471027            2 
  259000    1.1790197   -7.2539428    93.465966  0.030072705  0.031451825            2 
  260000    1.1129599    -7.263012    93.974759  0.030120115  0.031433174            2 
  261000    1.1454573   -7.2347724    94.528343  0.030181463   0.03141409            1 
  262000    1.1631715   -7.2945176    94.294304  0.029991827  0.031394244            6 
  263000    1.1640026   -7.2629702    94.704064  0.030007625  0.031373936            1 
  264000    1.1332614    -7.256993    95.034842  0.029998372  0.031354056            1 
  265000    1.1323553   -7.2388838    95.506873  0.030033608  0.031334113            1 
  266000    1.1247481     -7.25786    95.807993  0.030015035  0.031314637            2 
  267000    1.1449776    -7.284939    95.512425   0.02981037  0.031295239            3 
  268000    1.1379342   -7.2270594    96.769872  0.030090134  0.031275548            4 
  269000     1.152299   -7.2769262    96.572145  0.029917021  0.031255203            1 
  270000    1.1475078   -7.3014864    96.709985  0.029848761  0.031233174            1 
  271000    1.1668078   -7.2968234    96.851181  0.029782036  0.031211022            1 
  272000    1.1248094   -7.2321424    97.470731  0.029862356  0.031189964            3 
  273000    1.1578806    -7.249886    97.620074  0.029798557    0.0311697            1 
  274000    1.1473074   -7.2855185    97.929606  0.029783944  0.031148053            2 
  275000    1.1159318   -7.2649345    98.391305  0.029815547   0.03112624            1 
  276000    1.1578585    -7.249655    98.319896  0.029685959  0.031104667            2 
  277000    1.1400022   -7.2482531     99.03277  0.029793252  0.031082595            4 
  278000     1.144697   -7.2858174    98.999822  0.029676206  0.031060711            1 
  279000    1.1687845   -7.2736686    99.675573  0.029771677  0.031038711            1 
  280000    1.1837387   -7.2951505    100.01437  0.029766181  0.031017468            1 
  281000    1.1515705   -7.3074883    99.753815  0.029582982  0.030995068            1 
  282000    1.1370888   -7.2821551    100.43375  0.029679003  0.030972695            1 
  283000    1.1453782   -7.2410524    101.02859  0.029749291  0.030952018            6 
  284000    1.1530229   -7.2662044    101.32272  0.029730844  0.030932284            3 
  285000    1.1701136   -7.2887685    101.71076  0.029739989  0.030913396            1 
  286000    1.1345845   -7.2606906    102.19634  0.029777487  0.030895773            2 
  287000    1.1208467   -7.2862788    102.88461   0.02987358  0.030878859            1 
  288000    1.1449296   -7.3013043    103.11639  0.029836919  0.030861692            1 
  289000    1.1228243   -7.2638548     103.5978  0.029872491  0.030846294            1 
  290000    1.1661393   -7.3079567    103.50575  0.029743031   0.03083073            2 
  291000    1.1730676   -7.2932743    103.90952   0.02975645  0.030815142            1 
  292000    1.1621734   -7.2825236    104.36468   0.02978444  0.030799169            2 
  293000    1.1638148   -7.2639937    104.91188   0.02983842  0.030783988       -1e+20 
  294000    1.1467866   -7.2613582    105.34792  0.029860522  0.030769643            2 
  295000    1.1426749   -7.3021783    105.46862  0.029793397   0.03075546            2 
  296000     1.114804   -7.3009408    105.67157  0.029749879   0.03074114            2 
  297000    1.1295357   -7.2796061    106.34889  0.029839755  0.030726355            1 
  298000    1.1203535   -7.2498844    106.79275  0.029863745  0.030711659            2 
  299000    1.1222336   -7.2749685     106.7262  0.029745318  0.030696706            2 
  300000    1.1393524   -7.2901049    107.04605  0.029735013  0.030680723            2 
  301000    1.1177118   -7.2636717    107.57168  0.029781748  0.030664962            1 
  302000    1.1397526   -7.2940678    107.34216  0.029619802  0.030649071            2 
  303000    1.1526202   -7.3182458    107.64337  0.029604888  0.030632426            1 
  304000    1.1101663    -7.289919     108.3917  0.029712637  0.030615682            2 
  305000    1.1411571   -7.3041247    108.43498  0.029627043  0.030600126            2 
  306000    1.1364424   -7.2636608    108.90594   0.02965848  0.030582882            1 
  307000    1.0916417   -7.2930973    109.03564  0.029597081  0.030566008            1 
  308000    1.1380321   -7.2917384     109.4441    0.0296115  0.030549261            1 
  309000    1.1595353   -7.2820489     110.0594  0.029681608  0.030534045            1 
  310000    1.1131368   -7.2906273    110.07573  0.029590249  0.030520209            2 
  311000    1.1137624   -7.2716668    110.92619  0.029722987  0.030506378            2 
  312000     1.149001   -7.3064177    110.74963  0.029580564  0.030491404            1 
  313000    1.1087339   -7.2873908     110.8839  0.029521806  0.030476463            2 
  314000    1.1372986    -7.286232    111.57934  0.029612351  0.030461261            3 
  315000    1.1190392    -7.294506    111.65602  0.029538631  0.030445881            1 
  316000    1.1293076   -7.3011671    112.21874  0.029593548   0.03043068            5 
  317000    1.1126959     -7.26242    112.91196   0.02968243  0.030416651            2 
  318000    1.1290513    -7.324535    112.46935  0.029473101  0.030403129            1 
  319000    1.1215947    -7.309453    113.19442  0.029570121  0.030389493            1 
  320000    1.1551132   -7.2674839    113.43777  0.029541086  0.030375385            3 
  321000    1.1263644   -7.3231564    113.77949  0.029537771  0.030361303            1 
  322000    1.1170821    -7.318319    114.17227  0.029547689  0.030347232            2 
  323000    1.1047228   -7.3247347    114.43454  0.029523875  0.030333359            2 
  324000    1.1234932   -7.3146119    114.78757  0.029523552   0.03032038            2 
  325000    1.1351863   -7.3168608    115.32708  0.029571046  0.030307429            1 
  326000    1.1147348   -7.2991584    115.67879  0.029570242  0.030295561            3 
  327000     1.134492    -7.295232    116.16772  0.029604414   0.03028444            4 
  328000    1.1332929   -7.3026985     116.7608  0.029664839  0.030273057            1 
  329000    1.1262653   -7.3142045    117.26393  0.029702111  0.030262902            2 
  330000    1.1443654   -7.3220824    117.09068  0.029568354  0.030252306            2 
  331000    1.1212042   -7.3067837    117.74815  0.029644549  0.030241877            1 
  332000    1.1019778   -7.3207823    117.90149  0.029593748   0.03023135            1 
  333000     1.126262   -7.3804375    117.85664  0.029493653  0.030219938            4 
  334000    1.1272899   -7.2988299    118.82872  0.029647885  0.030208506            2 
  335000    1.1375717   -7.2894556    119.16276  0.029642478  0.030197367            1 
  336000    1.1091661    -7.314747    118.84126  0.029474519  0.030185699            1 
  337000    1.1178513   -7.3114289    119.50158  0.029550341  0.030173715            2 
  338000    1.1227475   -7.3356562    119.57081  0.029479983  0.030161905            2 
  339000    1.1069903   -7.3617005    119.69782  0.029424243  0.030149329            2 
  340000    1.1207547   -7.3169972    120.37572  0.029503852  0.030137674            3 
  341000    1.1188737   -7.3074107    120.30366  0.029399721  0.030124305            1 
  342000    1.1148257   -7.3277112    120.37076  0.029330108  0.030111192            2 
  343000    1.1059684   -7.2801886    121.12752  0.029428456  0.030097272            1 
  344000    1.1408061   -7.3198021    121.24931   0.02937241  0.030083653            2 
  345000    1.1340031   -7.3361279    121.33736   0.02930854  0.030069859            2 
  346000    1.1068307   -7.3348631    121.91282  0.029362433  0.030055821            1 
  347000    1.0999132   -7.3818475    121.56456  0.029194179  0.030041222            2 
  348000    1.1272524   -7.3245078    122.21114  0.029265119  0.030026729            1 
  349000    1.1003739    -7.289942    122.98636   0.02936637  0.030012756            3 
  350000    1.1132741     -7.33877    122.88979  0.029259474  0.029998468            1 
  351000    1.1195687   -7.3102505    123.48216  0.029316753  0.029984095            1 
  352000    1.1062975   -7.3236678     123.2646  0.029181961  0.029969206            1 
  353000    1.1213568   -7.3574714    123.50066   0.02915502  0.029954022            1 
  354000    1.1175351   -7.3253228    124.00908  0.029192345  0.029939667            3 
  355000    1.1233457   -7.2882934    124.16754  0.029147311  0.029925939            6 
  356000    1.1194374   -7.3006884    124.49132  0.029141226  0.029911697            1 
  357000    1.1067711   -7.3132813    124.73083  0.029115506  0.029896358            2 
  358000    1.0960693   -7.3336955    124.94265  0.029083485  0.029881991            2 
  359000    1.1013751   -7.3638976    125.43701  0.029117226  0.029867111            1 
  360000    1.1251188   -7.3285745     125.4433  0.029037802  0.029852304            1 
  361000    1.1080749    -7.305603    125.72827  0.029023145  0.029837027       -1e+20 
  362000    1.0951027    -7.326943    125.89438   0.02898121  0.029820675            1 
  363000    1.1122629    -7.319748     126.4439  0.029027524  0.029804468            2 
  364000    1.1319412   -7.3307447    126.74708  0.029017189  0.029788321            1 
  365000    1.1220733   -7.3392305    126.68705  0.028923983  0.029771894            1 
  366000    1.1239122   -7.3335821    126.57231  0.028818832  0.029756152            2 
  367000    1.1119811   -7.3373727    127.52594  0.028956844  0.029739383            1 
  368000      1.10766   -7.3624198    127.50223  0.028872788  0.029722638            2 
  369000    1.1178082   -7.3814161    127.93946  0.028893284  0.029706124            3 
  370000    1.0910737   -7.3781336    128.18463  0.028870411  0.029689759            1 
  371000    1.0918303   -7.3593624    128.43952  0.028849848  0.029673522            1 
  372000    1.0963621   -7.3205355    128.84298  0.028862675   0.02965689            2 
  373000    1.0991447   -7.3591368    128.93109   0.02880498  0.029640114            2 
  374000     1.116159   -7.3329872    129.43187  0.028839544  0.029623531            1 
  375000    1.0906158   -7.3351197    130.21165  0.028935921  0.029607947            1 
  376000    1.0940635   -7.3351559    130.43126  0.028907638  0.029592091            1 
  377000    1.0939841   -7.3402895    130.54799  0.028856761  0.029576789            1 
  378000    1.1053843   -7.3232169    131.53246  0.028997456  0.029562037            1 
  379000    1.0857177   -7.3582552    131.10469  0.028826888  0.029547528            2 
  380000    1.1061953   -7.3634825    131.31455  0.028797051   0.02953218            3 
  381000    1.1244223   -7.3587938    131.75401  0.028817588   0.02951671            1 
  382000    1.1041653   -7.3543978    131.74629  0.028740464  0.029501399            1 
  383000    1.1007108   -7.3925753    131.49908  0.028611637  0.029485284            2 
  384000    1.1003917   -7.3642055    132.23055  0.028695867  0.029468541            1 
  385000     1.113681   -7.3919632    132.08819  0.028590517  0.029451556            1 
  386000    1.0949163   -7.3751044    132.14398  0.028528494  0.029434213            3 
  387000    1.0861742   -7.3817689    132.53272  0.028538484  0.029416195            3 
  388000    1.0923198   -7.4177224    132.55197  0.028469066  0.029397696            2 
  389000    1.0966883   -7.3794263    133.28318  0.028552522  0.029379802            1 
  390000    1.1024484   -7.3581982    133.30489   0.02848395  0.029361717            1 
  391000    1.0803636   -7.4102837    133.11369  0.028370353  0.029343358            1 
  392000    1.1020708   -7.3454491    133.97237  0.028480521  0.029324879            1 
  393000    1.1137702   -7.3586596    134.36658  0.028491642  0.029306748            2 
  394000     1.093189   -7.3809177    134.42545   0.02843178   0.02928907            3 
  395000    1.1150144   -7.3603707    134.84087  0.028447441  0.029271042            1 
  396000    1.1112987   -7.4175642    134.74045  0.028354472  0.029252492            1 
  397000     1.113776    -7.367381    135.29595  0.028399655  0.029234056            1 
  398000    1.0846228   -7.3677728    135.23396  0.028315319  0.029214937            1 
  399000    1.0961966   -7.3367536     135.2621  0.028250231  0.029195203            2 
  400000    1.0942198   -7.3546485    135.37475  0.028203073  0.029175195            2 
  401000    1.1066243   -7.3994002    135.27491  0.028111993  0.029155132            2 
  402000    1.0826731   -7.3903656    136.39583  0.028274425  0.029135547            3 
  403000    1.1007507   -7.3936122    136.20473   0.02816475  0.029115909            2 
  404000    1.0801525    -7.340913    137.26766  0.028314286  0.029097498            2 
  405000    1.0862639   -7.3819323    136.51859  0.028090245  0.029079395            2 
  406000    1.0842298   -7.3643836    137.52662  0.028227961  0.029060997            2 
  407000    1.0769609   -7.3998826    137.65749  0.028185399    0.0290426            3 
  408000    1.0752252   -7.3697472     138.2928  0.028246079  0.029024073            3 
  409000     1.090603   -7.3825545    137.94764   0.02810669  0.029005703            2 
  410000    1.0965955   -7.3973026    138.36534  0.028123036  0.028987376            1 
  411000    1.0696578   -7.3872283    139.33258  0.028250726  0.028969494            3 
  412000    1.1166159   -7.4094053    139.35235  0.028186154  0.028951776            2 
  413000    1.0849784   -7.3791842     139.4064  0.028128814  0.028934316            1 
  414000    1.0979433   -7.4226733    139.45489  0.028070631  0.028916026            3 
  415000    1.0950057   -7.4069996    139.61821  0.028035785   0.02889749            1 
  416000    1.0922041    -7.381276    140.08964  0.028062829  0.028878923            2 
  417000    1.0768053   -7.3832415    140.39018  0.028055591   0.02886001            2 
  418000    1.0997951   -7.3923266    140.60262  0.028030824  0.028841327            2 
  419000     1.085317   -7.3992384    141.26562  0.028095787  0.028822441            2 
  420000    1.0656689   -7.3729746    140.89721  0.027955796  0.028803924            1 
  421000    1.0916048   -7.3979295    141.64184  0.028036785  0.028785071            1 
  422000    1.0957876   -7.3680782    141.68429   0.02797873  0.028766094            1 
  423000    1.0945212   -7.4045227    141.19492  0.027816178   0.02874654            2 
  424000    1.0662184   -7.3845744    141.88856  0.027886902  0.028726989            2 
  425000     1.096648   -7.4050509    142.08952   0.02786069  0.028708129            1 
  426000    1.0904647   -7.4538917    141.67473  0.027714149  0.028688597            3 
  427000    1.1090801   -7.3915953    142.06009  0.027724451  0.028668584            1 
  428000    1.0942909   -7.4163056     142.6851  0.027781367  0.028648102            2 
  429000    1.0786871    -7.413062    143.12884  0.027802804  0.028627411            3 
  430000    1.0853153   -7.3847534    143.50152  0.027810371   0.02860762            1 
  431000    1.1096875   -7.4135673    143.55586  0.027756354  0.028588363            1 
  432000    1.0720452   -7.4398021    143.38598  0.027659333  0.028568508            2 
  433000    1.0975041   -7.4237108    143.58161  0.027633105  0.028548473            1 
  434000    1.0833464   -7.3936729    143.81533   0.02761431  0.028528279            2 
  435000    1.0736642   -7.4079809    144.07305  0.027600201  0.028507919            1 
  436000     1.070125   -7.4102268    144.39284   0.02759802  0.028487669            2 
  437000    1.0975781    -7.417675    144.67101  0.027587911  0.028467845            2 
  438000    1.0516577   -7.4054512    145.15438  0.027616891  0.028447953            3 
  439000    1.0517231   -7.3622905    145.55293  0.027629638  0.028428898            2 
  440000    1.0759691   -7.3874384    145.83892  0.027621008   0.02840925            2 
  441000    1.0562697   -7.4082775    145.67832  0.027528027  0.028389506            1 
  442000    1.0821314   -7.3946022     145.7177  0.027473172   0.02836962            3 
  443000     1.065275   -7.4432108    145.59204  0.027387517  0.028349211            1 
  444000    1.0575472   -7.4297718    146.14935  0.027430434  0.028328991            2 
  445000    1.0688843   -7.4525453     146.1037  0.027360244  0.028307661            1 
  446000    1.0674967   -7.3994323    146.96943  0.027460655  0.028286656            4 
  447000    1.0569544   -7.4383899    146.69626  0.027348296  0.028265327            1 
  448000    1.0720352   -7.4288206    146.52537  0.027255463  0.028243596            1 
  449000    1.0490254   -7.3966394    147.30564  0.027339577  0.028221802            1 
  450000    1.0702753   -7.4122885    147.66127  0.027344679  0.028200544            1 
  451000     1.068445   -7.4073031    147.70556  0.027292231  0.028179361            3 
  452000     1.060104   -7.4100725    147.55609  0.027204294  0.028157993            1 
  453000    1.0779317   -7.4563561    147.69413  0.027169635  0.028135925            2 
  454000    1.0820045   -7.4217114    147.91999  0.027151246  0.028113848            1 
  455000    1.0426554   -7.4131085    148.11343  0.027127002  0.028091799            1 
  456000    1.0677516   -7.4239972    148.05365  0.027056588  0.028070076            1 
  457000    1.0444795   -7.4748802    148.45348  0.027070292  0.028047781            2 
  458000    1.0827111    -7.456844    148.80791  0.027075676  0.028025246            3 
  459000    1.0571345   -7.4224875    149.52456  0.027146798  0.028003433            2 
  460000    1.0753759   -7.4319206    148.93804  0.026981529   0.02798159            2 
  461000    1.0782394   -7.4397359    149.06049  0.026945135  0.027959486            3 
  462000    1.0680162   -7.4698584    149.34098  0.026937407  0.027937424            3 
  463000    1.0615754   -7.4310608    150.03528  0.027004191  0.027915453            7 
  464000    1.0581128   -7.4472077    150.71155  0.027067448  0.027894279            2 
  465000    1.0535923   -7.4217635     150.7286  0.027012293  0.027873716            3 
  466000    1.0770587   -7.4675712    151.56592  0.027104063  0.027853515            1 
  467000    1.0754399   -7.4074254    152.21952  0.027162655  0.027833806            1 
  468000    1.0714955    -7.436888    151.86522  0.027041528  0.027814657            1 
  469000     1.041336   -7.3830723    152.72142  0.027136003    0.0277961            1 
  470000    1.0669822   -7.4406163    152.32282  0.027007593  0.027776885            1 
  471000    1.0535901   -7.4233697    152.85683  0.027044734   0.02775758            1 
  472000    1.0600973    -7.453963    152.45575  0.026916623  0.027737837            1 
  473000    1.0911523   -7.4754339    152.91033  0.026939804  0.027717769            1 
  474000    1.0607301   -7.4497549     152.8643  0.026874877  0.027697788            1 
  475000     1.057246   -7.4798777    152.80535  0.026807956  0.027677362            2 
  476000    1.0385729   -7.4388318    154.10039   0.02697836  0.027657739            2 
  477000    1.0728926   -7.4503005    153.82105     0.026873  0.027638565            1 
  478000    1.0630843   -7.4271433    154.04562  0.026855931  0.027618888            3 
  479000    1.0439353   -7.4713335    154.00733  0.026793203   0.02759854            1 
  480000    1.0693898    -7.441512    154.26402  0.026781948  0.027577801            1 
  481000     1.075862   -7.4518639    154.27097  0.026727473  0.027556906            2 
  482000    1.0559573   -7.4754731    154.59937  0.026728798  0.027536181            1 
  483000     1.077569   -7.4396572     155.0679  0.026754297  0.027514883            3 
  484000    1.0695914   -7.4597964    155.53681  0.026779753  0.027494173            2 
  485000    1.0671927   -7.4886821    155.10136  0.026649719  0.027474142            3 
  486000    1.0608553   -7.4188764    156.25856  0.026793306   0.02745419            3 
  487000    1.0479165   -7.4653291    155.64966  0.026634096  0.027434376            3 
  488000    1.0475037   -7.4505484    155.79791  0.026604835  0.027413949            2 
  489000    1.0728732   -7.4249337    156.27932  0.026632467  0.027393259            1 
  490000    1.0520246   -7.4688642    156.25735  0.026574379    0.0273726            1 
  491000    1.0809369    -7.437995    156.76098  0.026605733  0.027351969            2 
  492000    1.0668953   -7.4534685    156.85349  0.026567326  0.027331645            2 
  493000    1.0610096   -7.4661075    157.40136  0.026606045  0.027311462            1 
  494000    1.0771662   -7.4678181    157.24203  0.026525309  0.027291076            1 
  495000    1.0527036   -7.4615557    157.84966  0.026574017  0.027271117            2 
  496000    1.0608503   -7.4868132    157.53431  0.026467458  0.027250714            3 
  497000    1.0500987   -7.4477659    158.32448  0.026546694  0.027230399            1 
  498000    1.0499441   -7.4832308    158.11673  0.026458623  0.027209853            3 
  499000    1.0590343   -7.4614758    158.30216  0.026436567  0.027189861            3 
  500000    1.0547538   -7.4715532    158.73161  0.026455268  0.027170021            1 
  501000    1.0514672   -7.4629501    159.49079  0.026528741  0.027150175            1 
  502000    1.0498963   -7.4701829    159.59102  0.026492533  0.027130573            1 
  503000    1.0415129    -7.471687    159.88431  0.026488455  0.027111138            1 
  504000    1.0385497   -7.4960622    159.33643   0.02634531  0.027091765            1 
  505000    1.0523769   -7.4765432    160.45988  0.026478528  0.027072853            4 
  506000    1.0767578   -7.4900493    160.63888  0.026455679  0.027053993            3 
  507000    1.0619558   -7.4914658    160.81739  0.026432839    0.0270355            2 
  508000    1.0463631   -7.4763406    160.52977  0.026333624  0.027016144            2 
  509000    1.0434001   -7.5389185    160.72671   0.02631413  0.026996787            3 
  510000    1.0507169   -7.4861022    161.39794  0.026372213  0.026977451            3 
  511000    1.0495907   -7.4589999     161.7382  0.026376093   0.02695793            2 
  512000    1.0284178   -7.5205846    161.48614  0.026283551  0.026938911            3 
  513000    1.0459349   -7.4858434    161.88318  0.026296813  0.026919803            2 
  514000    1.0416304   -7.4937997    162.44059  0.026336023  0.026901317            2 
  515000    1.0428849   -7.5173326    162.31794  0.026265038  0.026882533            5 
  516000    1.0702178   -7.4864231    162.83085  0.026296971  0.026864145            3 
  517000    1.0450434   -7.4443295    163.22234   0.02630921  0.026846104            5 
  518000    1.0376017   -7.5015417    163.39558  0.026286289  0.026828245            3 
  519000    1.0437584   -7.5005414    164.52637  0.026417208  0.026810882            1 
  520000    1.0679891   -7.4698049    164.21695  0.026316819  0.026793118            1 
  521000    1.0556317   -7.5080772    163.83589  0.026205356  0.026775228            1 
  522000     1.036736   -7.5198305    163.99973  0.026181311  0.026757022            2 
  523000    1.0664846    -7.477448    164.64704  0.026234391  0.026739122            2 
  524000    1.0558984   -7.4675259    165.03732  0.026246393  0.026722117            2 
  525000    1.0470959   -7.4921152    165.12752  0.026210717  0.026704447            2 
  526000    1.0549546   -7.4845449    165.73482  0.026257101   0.02668675            2 
  527000    1.0447211   -7.4933607    165.45831  0.026163553  0.026669199            3 
  528000    1.0479594   -7.4952062    165.73334  0.026157409  0.026651624            2 
  529000    1.0501755   -7.4669341     166.3397  0.026203481  0.026634642            1 
  530000    1.0391624   -7.4973638    166.21452  0.026134359  0.026617278            3 
  531000    1.0226847    -7.502249    166.48516  0.026127615  0.026599602            2 
  532000    1.0330392   -7.4792737    166.94101  0.026149907  0.026581975            1 
  533000    1.0545055   -7.5067983    166.65988  0.026056892  0.026563876            1 
  534000    1.0362219   -7.4586465    166.38501  0.025965201  0.026546063            1 
  535000    1.0492422   -7.4671046    167.30054  0.026059274   0.02652778            2 
  536000    1.0415301    -7.483601    167.32675  0.026014732  0.026509758            4 
  537000    1.0488475   -7.4420771      167.908  0.026056486  0.026491669            2 
  538000    1.0327691   -7.5830658    167.00027  0.025867452  0.026473353            4 
  539000    1.0347571   -7.5092077    167.81019  0.025944679  0.026454996            2 
  540000    1.0498154   -7.4684974    168.38685  0.025985625  0.026437014            1 
  541000    1.0365786   -7.4978514    168.22486   0.02591264  0.026419309            2 
  542000    1.0643421   -7.5199528    168.27761  0.025872941  0.026401114            1 
  543000    1.0330619   -7.4764646    168.84451  0.025912294  0.026383079            1 
  544000    1.0359106   -7.5336539    168.44618  0.025803643  0.026364416            1 
  545000    1.0227432   -7.5415178    169.16834  0.025866719  0.026345786            2 
  546000     1.036492   -7.4998185    168.96111  0.025787715  0.026327226            1 
  547000    1.0443094   -7.5217355    169.21786  0.025779687  0.026308585            2 
  548000    1.0459376   -7.4931423     169.8627  0.025830703  0.026290178            2 
  549000    1.0234819   -7.5207746    169.54291   0.02573511  0.026271621            2 
  550000    1.0382416   -7.5075152    169.59023   0.02569549  0.026252949            2 
  551000    1.0581265   -7.5322533    169.88399  0.025693284  0.026234117            4 
  552000    1.0311897    -7.496573    169.83871  0.025639903  0.026215394            2 
  553000    1.0171038    -7.526553    170.64479  0.025715007   0.02619642            1 
  554000    1.0368388   -7.5121643    170.35668  0.025625252  0.026177653            1 
  555000    1.0406036   -7.4934074    170.81536  0.025647952  0.026158534            1 
  556000     1.035928   -7.4783699    170.95003  0.025622008  0.026139623            2 
  557000    1.0333755   -7.4854858    170.71965   0.02554154  0.026120632            1 
  558000    1.0408091   -7.5164528    170.84865  0.025515032  0.026101645            1 
  559000    1.0387026   -7.4869198    171.75504  0.025604508  0.026082562            2 
  560000    1.0500332   -7.4831973    171.93488  0.025585547  0.026063909            5 
  561000    1.0201299   -7.5579259    171.23271  0.025435638   0.02604517            1 
  562000    1.0402031    -7.531097    171.99901  0.025504005  0.026026026            2 
  563000     1.026682   -7.5546385    171.61713  0.025402181  0.026006597            1 
  564000    1.0324064   -7.5163726    172.40729   0.02547389  0.025987121            2 
  565000     1.026005   -7.5261348    172.18853  0.025396538  0.025967871            2 
  566000    1.0379137   -7.5429227    172.21936  0.025356207  0.025948846            3 
  567000    1.0145346   -7.5478316    172.71743   0.02538469  0.025929651            2 
  568000    1.0431664   -7.5127204    173.10333  0.025396615  0.025910539            1 
  569000    1.0259807   -7.5681305    173.25212  0.025373772  0.025891384            3 
  570000    1.0442918   -7.5386378    173.27225    0.0253322  0.025872521            3 
  571000    1.0322107   -7.5380669    173.91981  0.025382343  0.025853492            2 
  572000    1.0368749    -7.525474     173.7868  0.025318589  0.025834088            2 
  573000    1.0376397   -7.5086491     173.6715  0.025257635  0.025814767            3 
  574000     1.029003   -7.5618297    173.02417  0.025119653  0.025794982            5 
  575000    1.0436937   -7.5612137    173.84398  0.025194779  0.025775398            3 
  576000    1.0314752   -7.5321787    173.88805  0.025157415  0.025756137            3 
  577000    1.0155334    -7.509913     174.1644  0.025153727  0.025737027            1 
  578000     1.031585   -7.5193595    174.64897  0.025180071  0.025717517            4 
  579000    1.0417896   -7.5038429     174.9416    0.0251787  0.025698375            3 
  580000    1.0235544   -7.5635546    175.37039  0.025196895  0.025679616            3 
  581000    1.0245184   -7.5598775    175.10848  0.025115961  0.025660467            2 
  582000    1.0110744   -7.5479727    175.01442  0.025059338  0.025641387            1 
  583000    1.0086258   -7.5337481    175.19626  0.025042348  0.025621883            1 
  584000   0.99011349   -7.5752948    175.40183    0.0250288  0.025602322            3 
  585000     1.002497   -7.5273274    175.46687   0.02499528  0.025582562            1 
  586000    1.0220678   -7.5550348    175.83657  0.025005201  0.025563205            3 
  587000    1.0216456   -7.5701355    175.62283  0.024932258  0.025543863            1 
  588000    1.0334998   -7.5587494     176.4358  0.025005074  0.025524758            2 
  589000    1.0274524   -7.5508825    176.81616  0.025016435   0.02550569            3 
  590000   0.98982532   -7.5609626    176.60831  0.024944677  0.025486547            2 
  591000     1.033058   -7.5619551    176.56764  0.024896734  0.025467357            1 
  592000    1.0294207   -7.5506835    177.18357  0.024941381  0.025448171            2 
  593000    1.0261107   -7.5839748     177.1125  0.024889333  0.025429019            1 
  594000    1.0155439   -7.6102483    177.40328  0.024888227  0.025409992            1 
  595000    1.0189463   -7.5870997    177.97745  0.024926813  0.025391199            2 
  596000    1.0141474   -7.5010882    178.91204  0.025015666  0.025372757            2 
  597000    1.0297107   -7.5550906    178.20004  0.024874377  0.025354234            3 
  598000   0.99926811   -7.5715445    177.97809  0.024801851  0.025335659            4 
  599000    1.0111473   -7.5751364    178.35801  0.024813301  0.025316983            2 
  600000    1.0117862   -7.5359735    179.48007  0.024927788   0.02529872            1 
  601000    1.0313965   -7.5400422    179.63689  0.024908055  0.025280368            3 
  602000    1.0045629   -7.5695649    179.29916  0.024819928  0.025262046            1 
  603000    1.0033874   -7.5359684    179.83144  0.024852328  0.025243661            2 
  604000    1.0236976   -7.5650486     179.4128  0.024753422  0.025225512            4 
  605000   0.99162343   -7.5468938     180.4664  0.024857631  0.025207526            3 
  606000    1.0552104   -7.5714015    180.14188  0.024771986   0.02518962            3 
  607000    1.0220166   -7.5731452    180.27087  0.024748884  0.025171806            2 
  608000    1.0060746   -7.5892756    180.06844  0.024680433  0.025153924            1 
  609000    1.0183979   -7.5619816    180.94823  0.024760294  0.025136097            1 
  610000    1.0076198   -7.5764941    181.28546  0.024765773  0.025118403            2 
  611000    1.0223745    -7.559029    181.37095    0.0247369  0.025101284            1 
  612000   0.98403641   -7.5929973     181.4494  0.024707162  0.025084099            2 
  613000    1.0109001   -7.5767688    182.09893  0.024755156  0.025066717            1 
  614000   0.99006193   -7.5737055    182.39224  0.024754647  0.025049629            2 
  615000    1.0238887   -7.5627928     182.6743  0.024752615  0.025032261            2 
  616000   0.99973724   -7.6024965    182.04775  0.024627672   0.02501445            1 
  617000    1.0061176   -7.6036419    182.79725  0.024688986  0.024996734            3 
  618000    1.0026227   -7.5782091    182.64153  0.024628038  0.024979324            1 
  619000   0.99911427    -7.575211    182.92516  0.024626436  0.024961657            1 
  620000    1.0073794   -7.6166302    182.88982  0.024581965  0.024944098            1 
  621000   0.98162574   -7.6147128     182.8149  0.024532327  0.024926433            3 
  622000    0.9989776   -7.6284253    183.09367  0.024530234  0.024908633            2 
  623000    1.0125797   -7.5639932    184.34981  0.024658884  0.024890956            1 
  624000    1.0099756   -7.5880357    184.02314   0.02457574  0.024873675            3 
  625000   0.99278757   -7.6090584    183.64761  0.024486348  0.024856047            2 
  626000    1.0298346   -7.6040891    184.04082  0.024499576  0.024838502            1 
  627000    1.0129417   -7.5995457    183.63635  0.024406745  0.024820989            2 
  628000   0.99441636   -7.6097078     184.5025  0.024482816   0.02480325            2 
  629000    1.0117901   -7.5724052    184.70079  0.024470163  0.024785834            2 
  630000    1.0115576    -7.598759    185.07667  0.024481041  0.024768548            3 
  631000    1.0046412   -7.5945308    185.70218  0.024524852  0.024751166            2 
  632000    1.0074366   -7.5641382     185.0298  0.024397389   0.02473376            2 
  633000    1.0004938   -7.5968424     185.2861  0.024392588   0.02471634            2 
  634000   0.99082184    -7.597419    185.52235  0.024385167  0.024698631            2 
  635000   0.98907847   -7.6218802    185.20994  0.024305767  0.024680887            2 
  636000    1.0012632    -7.608091    186.29025    0.0244091  0.024663207            1 
  637000   0.99989565   -7.5794434    186.33265  0.024376327  0.024645873            1 
  638000   0.97873675   -7.6002535    186.21236  0.024322409  0.024628507            1 
  639000    1.0036398   -7.5383005    186.96836  0.024382937  0.024611552            1 
  640000    1.0168237   -7.6113396    186.81982  0.024325497  0.024594561            1 
  641000   0.97834478   -7.5988474    187.35006  0.024356482  0.024577307            2 
  642000   0.99889459   -7.5992713    187.64644  0.024357015  0.024560434            2 
  643000   0.97359259    -7.570279    187.62793  0.024316735  0.024543695            4 
  644000   0.98343547   -7.5971841    187.87486  0.024310929  0.024526654            1 
  645000   0.99757718   -7.5974262     187.6893  0.024249263  0.024509689            2 
  646000    1.0031692   -7.6025834    187.17423  0.024145283  0.024492516            1 
  647000     1.011571   -7.6234641    187.28463  0.024122183  0.024475141            2 
  648000   0.99811475   -7.6066571    187.91335  0.024165812  0.024458108            2 
  649000   0.96322637   -7.6719052      187.429  0.024066384  0.024440904            3 
  650000   0.98066321   -7.6239638    188.48927   0.02416529  0.024423594            1 
  651000   0.98710822   -7.6236671    187.88272  0.024050527  0.024406188            2 
  652000   0.98603198   -7.6793194    188.42808  0.024083343  0.024388888            2 
  653000    1.0220745   -7.6509336    188.61182  0.024069911  0.024371492            1 
  654000    1.0030384   -7.6172872    189.02119  0.024085268  0.024354404            4 
  655000    0.9885389   -7.6335657    189.07485  0.024055324  0.024337297            4 
  656000   0.98615199    -7.623524     189.5961   0.02408487   0.02432035            1 
  657000   0.97546976   -7.6220204    189.52644  0.024039375  0.024303298            2 
  658000    1.0065621   -7.5962303    190.03599  0.024067374  0.024286367            3 
  659000   0.99233979   -7.5953813    190.35349  0.024071003  0.024269703            2 
  660000   0.99283236   -7.5974191    190.46713   0.02404888  0.024252852            1 
  661000   0.96640107   -7.6477621    189.47064  0.023886868  0.024235743            2 
  662000   0.99100791   -7.6405456    189.75808  0.023886969  0.024218475            2 
  663000   0.98406303   -7.6078183    190.50013  0.023944209  0.024201584            1 
  664000   0.99205232   -7.6372298     190.4582  0.023902887  0.024184424            2 
  665000    0.9714573    -7.628986    191.00052  0.023934902  0.024167345            3 
  666000   0.99304778   -7.6664215    190.92272  0.023889229  0.024150302            4 
  667000   0.99084829   -7.6073824    191.05344  0.023869745  0.024133406            1 
  668000   0.95423309   -7.6328555    191.86792  0.023935619  0.024117003            3 
  669000   0.98741012    -7.620548    192.01977  0.023918756  0.024100546            1 
  670000    1.0047648   -7.6270587    192.05778  0.023887784  0.024083743            2 
  671000   0.98012945   -7.6329719    192.31458  0.023884075  0.024067173            1 
  672000   0.96410724   -7.6674928    192.17826  0.023831629  0.024050216            2 
  673000   0.97989568   -7.6586745    192.16421  0.023794479   0.02403301            2 
  674000   0.99903787   -7.6565093    192.44427  0.023793801  0.024016014            5 
  675000   0.97950957   -7.6390363    192.91914  0.023817178   0.02399924            2 
  676000    0.9759784   -7.5969364    193.03282  0.023795959  0.023982586            1 
  677000   0.98567855   -7.6109572     192.6107   0.02370885  0.023965664            1 
  678000   0.96332237   -7.6396177    193.35087  0.023764856   0.02394883            1 
  679000   0.99688818   -7.6258369     193.3395  0.023728461  0.023931973            1 
  680000   0.98841624    -7.649901    192.77748  0.023624692  0.023914858            2 
  681000   0.97331209   -7.6655832    192.94067  0.023609969  0.023897559            2 
  682000   0.96404672   -7.6531591    193.44916  0.023637483  0.023880392            1 
  683000   0.98996685   -7.6730255    193.01585  0.023550006  0.023863098            2 
  684000   0.98497914    -7.637009    193.87251  0.023619945  0.023846033            3 
  685000   0.97226896   -7.6297321    194.22305  0.023628109  0.023829486            2 
  686000    1.0095649   -7.6469758    194.10485  0.023579306  0.023812596            1 
  687000   0.97593667   -7.6528646    194.48851  0.023591523  0.023795929            2 
  688000   0.98245843   -7.6263876    194.91361  0.023608723  0.023779526            3 
  689000    1.0096544    -7.650443    195.00042  0.023584957  0.023762883            5 
  690000   0.98561691    -7.655385    194.57568  0.023499478  0.023746347            1 
  691000   0.99831427   -7.6379677    195.10091  0.023528812  0.023729936            1 
  692000   0.96507551   -7.6538313    195.64594  0.023560445  0.023713542            4 
  693000   0.98978531   -7.6457553    195.71641  0.023534922  0.023697028            6 
  694000   0.98149965   -7.6670709    196.28281  0.023569021  0.023680929            1 
  695000   0.97717356   -7.6641997    196.12664  0.023516383  0.023664959            2 
  696000   0.97604435   -7.6483711    196.38279  0.023513265  0.023649067            2 
  697000   0.98271822   -7.6778501    196.71035  0.023518693  0.023633127            2 
  698000   0.95497707   -7.6291909    196.55646  0.023466626   0.02361701            3 
  699000   0.97794241   -7.6525372    196.89754  0.023473717  0.023600809            2 
  700000   0.95072264   -7.6420277    197.43517  0.023504187  0.023584829            1 
  701000   0.97987628   -7.6506685     197.2544  0.023449167  0.023568942            2 
  702000   0.96063502   -7.6341667    197.04618  0.023391047  0.023553035            2 
  703000   0.95135397   -7.6715274    197.43737  0.023404145   0.02353699            2 
  704000   0.98045559   -7.6453038    197.75999   0.02340909  0.023521018            1 
  705000   0.98408002   -7.6452972     197.7819  0.023378475   0.02350494            2 
  706000   0.97915413   -7.6672659     198.0245  0.023373997  0.023488625            3 
  707000   0.95790979   -7.6630292    198.10172  0.023350037  0.023472402            1 
  708000   0.96596137   -7.6918937    197.97404   0.02330203   0.02345634            1 
  709000   0.97224691   -7.6908752     198.3287  0.023310849   0.02344032            4 
  710000   0.96970351   -7.6437561    198.80906  0.023334397  0.023424508            2 
  711000   0.95547558   -7.6876431    198.64708  0.023282593  0.023408569            2 
  712000   0.94203699   -7.6732722    198.40616  0.023221695  0.023392449            4 
  713000   0.96166539   -7.6453075    199.38189  0.023303167   0.02337613            2 
  714000   0.96326347   -7.6889647    198.94956   0.02322007   0.02335994            1 
  715000   0.97632993   -7.7252375    198.75849  0.023165325  0.023343398            1 
  716000   0.98070409   -7.6746533    199.64998  0.023236729  0.023327138            3 
  717000   0.96810921   -7.7069262     199.8342  0.023225732   0.02331101            3 
  718000   0.96703204   -7.6630672    199.67889  0.023175359  0.023294751            2 
  719000   0.99333723   -7.6823835    199.89674  0.023168375  0.023278793            4 
  720000   0.96332849    -7.670456    200.08011  0.023157421  0.023262751            1 
  721000   0.95622554   -7.6798235    199.56264  0.023065492  0.023246709            5 
  722000   0.95484403   -7.6819702    200.22073  0.023109503  0.023230419            2 
  723000   0.96773348   -7.6468038     200.3477  0.023092173  0.023214384            2 
  724000   0.96384059   -7.7163787    200.40336  0.023066685  0.023198214            3 
  725000   0.98655087   -7.6714129    200.69882   0.02306883   0.02318194            2 
  726000   0.96120263   -7.6946047    200.45101  0.023008611  0.023165778            5 
  727000   0.98062996     -7.72641    200.89633  0.023028006  0.023149617            2 
  728000   0.95696189   -7.6955505    200.47381  0.022948009    0.0231332            1 
  729000   0.95523623   -7.7065333    201.07592  0.022985359   0.02311679            1 
  730000    0.9601812   -7.7178007    200.79674  0.022922003  0.023100424            2 
  731000   0.97127929   -7.6855925    201.41148  0.022960725  0.023083989            1 
  732000   0.96005168   -7.6905565    201.20543    0.0229059  0.023067717            2 
  733000     0.961241   -7.6878721     202.0982  0.022976149  0.023051449            1 
  734000   0.97374246   -7.6898923    202.04181  0.022938443  0.023035565            1 
  735000   0.95725207   -7.6922832    202.27974  0.022934211  0.023019281            2 
  736000   0.96419466   -7.6803243    201.93658  0.022864196  0.023003216            3 
  737000   0.93948771    -7.712036     202.4406  0.022890162  0.022987134            3 
  738000   0.97368719   -7.6798094    202.84871  0.022905229  0.022971256            2 
  739000   0.95106237   -7.6901421    202.99284  0.022890487   0.02295586            1 
  740000   0.97967698   -7.6639212    203.44296  0.022910243  0.022940323            2 
  741000   0.97772107   -7.6981739    203.09223  0.022839882  0.022924725            2 
  742000   0.96015627   -7.7488262    202.26365  0.022716043  0.022908616            2 
  743000   0.96670583    -7.712799    203.14093  0.022783863  0.022892398            1 
  744000   0.93939107   -7.7547081    202.76348  0.022710964  0.022876196            6 
  745000   0.97471791   -7.7169463    202.81649  0.022686408   0.02285971            1 
  746000   0.95032245   -7.6946415    203.66887  0.022751214  0.022843478            2 
  747000   0.94702169   -7.7174766     203.8797  0.022744277  0.022827415            1 
  748000     0.970901   -7.7210984     203.9535  0.022722092  0.022811145            1 
  749000   0.93857052   -7.7124791    203.92347  0.022688415  0.022795053            1 
  750000    0.9695631   -7.7061499    204.68727  0.022743029  0.022779126            2 
  751000   0.96701088   -7.7155579    204.40895  0.022681863  0.022763209            2 
  752000     0.961359   -7.7114384    204.57278  0.022669856  0.022747321            1 
  753000   0.95607645   -7.7204957    204.85587  0.022671079   0.02273151            3 
  754000    0.9528293   -7.7014035    204.72144  0.022626154  0.022715774            2 
  755000   0.94513539   -7.7397302    204.61961  0.022584946  0.022699805            1 
  756000   0.94994585   -7.7500804    204.66243  0.022559792  0.022683637            2 
  757000   0.96617162   -7.7710461    204.94591  0.022561197   0.02266754            3 
  758000   0.94651711   -7.7143921    205.10343   0.02254875  0.022651533            1 
  759000   0.94546802   -7.7566353    205.45351  0.022557478  0.022635632            2 
  760000   0.96363913   -7.7166542    205.81324  0.022567241  0.022619768            1 
  761000   0.96880869   -7.7058203    205.74634  0.022530261  0.022603926            1 
  762000   0.95079346   -7.7644022    205.32556  0.022454677  0.022587839            1 
  763000   0.93964587   -7.7255826    206.04356  0.022503665  0.022571739            2 
  764000    0.9443239   -7.7306022    205.99098  0.022468475  0.022555812            2 
  765000   0.96066689   -7.7134516    206.26413  0.022468859  0.022540024            2 
  766000   0.94026394   -7.7279729    206.36101  0.022450066  0.022524084            1 
  767000   0.95122128   -7.7707761    206.47429  0.022433105  0.022508238            2 
  768000   0.94264355   -7.7321795    206.90644  0.022450785  0.022492133            2 
  769000   0.94527781   -7.7881801    206.25529  0.022351029  0.022476069            2 
  770000   0.95315209   -7.7417797     206.3051  0.022327392   0.02245987            4 
  771000   0.94237556    -7.734711    206.58237  0.022328402   0.02244369            4 
  772000   0.96561353   -7.7162402    207.09913   0.02235526  0.022427951            1 
  773000   0.93490445    -7.721956    207.29735  0.022347709  0.022412074            2 
  774000    0.9399416   -7.7134287    207.85174  0.022378525  0.022396259            2 
  775000   0.93944685   -7.7289665     207.6462  0.022327549  0.022380428            5 
  776000   0.95130517   -7.7462129    207.49426   0.02228246   0.02236461            2 
  777000   0.95130265   -7.7553898      207.825  0.022289254  0.022348744            4 
  778000   0.92781261   -7.7361214    208.17025  0.022297585  0.022332933            4 
  779000   0.92919272   -7.7453599    208.28983  0.022281753  0.022317197            5 
  780000   0.94741223   -7.7565412    207.73786  0.022194216  0.022301238            5 
  781000   0.95539346   -7.7532961    208.36259  0.022232458  0.022285512            1 
  782000   0.94396398   -7.7712903     208.5664  0.022225746  0.022269604            2 
  783000   0.93819555   -7.7491027    208.23007  0.022161566  0.022253731            1 
  784000   0.94146182   -7.7415099    208.68382  0.022181528  0.022237818            1 
  785000   0.92743665   -7.7938372    208.67343  0.022152168  0.022221939            2 
  786000   0.94867532   -7.7396167    209.41489  0.022202597  0.022206157            2 
  787000   0.92875044   -7.7537046    209.00039  0.022130495  0.022190326            2 
  788000   0.95404142   -7.7827083    209.13802  0.022116965  0.022174426            1 
  789000   0.93242768   -7.7929437    208.57619  0.022029593  0.022158319            1 
  790000   0.92869546   -7.7550588     209.7613  0.022126719  0.022142297            1 
  791000   0.93639426   -7.7402658    209.22611  0.022042363  0.022126515            3 
  792000   0.93611915     -7.78095    208.40969  0.021928629  0.022110609            1 
  793000   0.92563244   -7.7346296    210.38587  0.022108645   0.02209498            2 
  794000   0.95612313   -7.7522283    210.33946   0.02207593   0.02207942            1 
  795000   0.93685263   -7.7444664    210.15585  0.022028915  0.022063864            1 
  796000   0.95588452   -7.7721362    209.92781  0.021977367  0.022048291            1 
  797000   0.95554284    -7.743859    210.90172  0.022051623  0.022032922            2 
  798000   0.91605713   -7.7076865    211.12653  0.022047466  0.022017627            1 
  799000   0.95043544   -7.7377819    211.04662  0.022011537  0.022002219            2 
  800000   0.92598773   -7.7473033    210.79093  0.021957388  0.021986715            2 
  801000   0.93835531   -7.7819866    210.69317  0.021919806  0.021971173            2 
  802000   0.94126116   -7.7377845    211.03191  0.021927671  0.021955567            2 
  803000   0.92930173   -7.7587176    211.60359  0.021959692  0.021940046            1 
  804000   0.92858175   -7.7557754    211.58452  0.021930402  0.021924531            2 
  805000   0.91607706   -7.7732352    211.31397  0.021875152  0.021909067            1 
  806000   0.93146123   -7.7429958    211.99221  0.021918135  0.021893422            2 
  807000   0.94010326   -7.7327905     212.4844  0.021941801  0.021878147            1 
  808000   0.94029711   -7.7417429    212.08592  0.021873548  0.021862703            1 
  809000   0.91694055     -7.80947    211.00335  0.021734997  0.021846932            2 
  810000   0.94981082   -7.7797355    211.41236  0.021750243  0.021830997            3 
  811000    0.9203988    -7.738154    211.86407  0.021769839  0.021815329            4 
  812000   0.92221074   -7.7909401    211.96882  0.021753779  0.021799466            1 
  813000   0.94193129   -7.7852529    211.44068  0.021672886  0.021783474            3 
  814000   0.92732166   -7.7606084    211.93306  0.021696668   0.02176753            2 
  815000   0.95186587   -7.7707497     211.7147   0.02164772  0.021751523            2 
  816000   0.94100542   -7.7855259    212.08124  0.021658623  0.021735668            2 
  817000   0.92175488   -7.7971884    212.34632  0.021659151  0.021719882            2 
  818000   0.96161838   -7.7941861    213.09631  0.021709078  0.021704235            2 
  819000   0.94263173   -7.7882708    213.38672   0.02171212  0.021688875            7 
  820000   0.93150248   -7.7890504    213.47832  0.021694951  0.021673493            3 
  821000    0.9471713   -7.7559419    213.65521  0.021686481  0.021658069            2 
  822000   0.93133553   -7.7706617    213.78532  0.021673289  0.021642768            3 
  823000   0.91119045   -7.8031354    213.53728  0.021621839  0.021627444            4 
  824000    0.9231411   -7.8085375    213.86245  0.021628484  0.021612115            1 
  825000   0.92209813   -7.7676501    214.08755  0.021625005  0.021596969            2 
  826000   0.93288617    -7.752529    214.58217  0.021648726  0.021581645            2 
  827000   0.94509246   -7.7787371    214.22942  0.021587003  0.021566381            1 
  828000   0.93845665   -7.7704294    214.27244  0.021565262  0.021551093            1 
  829000   0.93379173   -7.8052572    214.29926  0.021541944  0.021535605            3 
  830000   0.93262572   -7.7999376    214.86983  0.021573276  0.021520092            4 
  831000    0.9134471   -7.7916822    214.62226  0.021522489  0.021504657            2 
  832000   0.91514383   -7.7821139    214.69599  0.021504005  0.021489195            2 
  833000    0.9343304   -7.7664174    214.70891  0.021479482   0.02147384            1 
  834000   0.93733548   -7.8081106    214.45827  0.021428685  0.021458524            2 
  835000   0.91092314   -7.7944988    214.62397  0.021419558  0.021443093            5 
  836000   0.91000769    -7.762955    215.02996  0.021434406   0.02142749            2 
  837000   0.91568544   -7.7915358    214.79072  0.021384978  0.021411892            1 
  838000   0.91804283   -7.7783817    215.57745  0.021437694  0.021396474            2 
  839000   0.92662524   -7.8154052    214.91205  0.021346052  0.021381014            5 
  840000   0.92917025   -7.8172785    215.21522  0.021350716  0.021365582            1 
  841000   0.90169937   -7.7806197    215.78921  0.021382205  0.021350313            2 
  842000   0.93365206   -7.7985738    216.15175  0.021392691  0.021335116            4 
  843000   0.92639729   -7.8048132    215.87644  0.021340099  0.021319923            3 
  844000   0.91482928   -7.8353592    215.57287  0.021284841  0.021304682            3 
  845000   0.89296715   -7.8239931    215.55603  0.021257991  0.021289282            4 
  846000   0.90710686    -7.845524     215.6891  0.021245972  0.021274034            6 
  847000   0.92233711   -7.8038755    216.83377  0.021333508  0.021258869            3 
  848000   0.92172521   -7.8113913    216.68813  0.021294038  0.021243671            2 
  849000   0.90912057   -7.7818483    216.57056  0.021257417  0.021228625            5 
  850000   0.92106735   -7.8119309    216.27332  0.021203266  0.021213247            1 
  851000   0.92196037   -7.8635798    216.13047  0.021164363  0.021197758            2 
  852000   0.91005057   -7.8297716    216.31369  0.021157442  0.021182288            3 
  853000   0.93187985   -7.8446201    217.07893  0.021207399  0.021166908            1 
  854000   0.90256396   -7.7923829     216.9986  0.021174727  0.021151648            1 
  855000   0.88456999   -7.8343016    217.11526  0.021161332  0.021136397            2 
  856000   0.92640385   -7.8295628    217.06546  0.021131762   0.02112118            2 
  857000   0.91073023   -7.8406273    217.40106  0.021139738  0.021105858            2 
  858000    0.9083689   -7.8606417    216.61183  0.021038445   0.02109039            1 
  859000   0.91863035   -7.8484299    217.43045  0.021093369  0.021075026            2 
  860000    0.9024545   -7.8350759    217.44268  0.021070027  0.021059551            2 
  861000   0.90472285   -7.8344903    217.05108  0.021007654  0.021044289            2 
  862000   0.91534804   -7.8568655    218.03974  0.021078861  0.021029102            2 
  863000   0.90661375   -7.8233206    217.93102  0.021043937  0.021014014            1 
  864000   0.90293868   -7.8510796     218.0939  0.021035291  0.020998805            2 
  865000   0.89697818   -7.8568769    217.99598  0.021001539  0.020983573            2 
  866000   0.89255384   -7.8376114    218.43556  0.021019588  0.020968423            1 
  867000   0.89421884     -7.81796    218.48388  0.020999989  0.020953418            4 
  868000   0.91741288   -7.8244335    218.50427  0.020977753  0.020938292            3 
  869000   0.90475971   -7.8429035     218.4249  0.020946001  0.020923126            1 
  870000   0.90501179   -7.8275554    219.42045  0.021017284  0.020907975            2 
  871000   0.91028166    -7.877623    218.94205  0.020947384  0.020893114            3 
  872000   0.92630467   -7.8409135     219.5442  0.020980906   0.02087835            1 
  873000    0.8937926   -7.8506869    218.96893   0.02090196  0.020863478            2 
  874000   0.92010384   -7.8374221     220.0349  0.020979681   0.02084857            2 
  875000   0.91510161   -7.8537151    219.38502  0.020893811  0.020833564            1 
  876000   0.89700587   -7.8219464     220.3983  0.020966353  0.020818609            1 
  877000     0.901299   -7.8566073     219.6571  0.020872016  0.020803748            1 
  878000    0.8931671   -7.8515304     220.4843  0.020926756  0.020788892            2 
  879000   0.91322023   -7.8162791    219.94689  0.020851999  0.020774026            3 
  880000   0.86922759   -7.8265496    220.13139  0.020845775   0.02075922            2 
  881000   0.90108913   -7.8453004     220.2684  0.020835074  0.020744311            3 
  882000   0.90450191   -7.8221724     221.2056       0.0209  0.020729534            2 
  883000   0.89869013   -7.8579575    220.19372  0.020780835   0.02071481            3 
  884000   0.92537111   -7.8648991    220.35373  0.020772411  0.020699833            2 
  885000   0.90534977   -7.8295582    220.54622  0.020767064  0.020684967            2 
  886000   0.90597002   -7.8594223    221.16215  0.020801557  0.020669918            2 
  887000   0.89838428   -7.8290532    221.27129  0.020788359  0.020655076            2 
  888000    0.8927445   -7.8218542    221.36335  0.020773588  0.020640227            1 
  889000   0.90374268   -7.8523607    221.04383  0.020720269  0.020625452            1 
  890000   0.88670174   -7.8605773    220.84528  0.020678397  0.020610644            3 
  891000   0.89165056   -7.8448456    221.06688  0.020675915  0.020595673            5 
  892000   0.88611695   -7.8699326    220.89786  0.020636945  0.020580738            1 
  893000   0.91267002   -7.8442066    221.37411  0.020658278  0.020565795            2 
  894000    0.9239872   -7.8550866    221.19546  0.020618518  0.020551054            2 
  895000   0.89159788    -7.857416    221.67212  0.020639862  0.020536174            2 
  896000   0.88862241   -7.8931567    221.39533  0.020591083  0.020521318            2 
  897000   0.89536791   -7.8833494    221.66804  0.020593463  0.020506415            2 
  898000   0.89228582    -7.880673    221.35436  0.020541421  0.020491461            1 
  899000   0.88718794   -7.8668502    221.72583  0.020553006  0.020476491            2 
  900000   0.89981624   -7.8800743    221.56301  0.020515094  0.020461467            5 
  901000   0.91943041   -7.8549335    221.83189  0.020517193  0.020446515            3 
  902000   0.90175225   -7.8465989    221.82029  0.020493375  0.020431759            3 
  903000   0.89615626   -7.8222701     222.6262  0.020545053  0.020416943            3 
  904000   0.90389517   -7.8327561    222.72157  0.020531119  0.020402246            2 
  905000   0.91426343   -7.8640721    222.71948  0.020508239  0.020387582            2 
  906000   0.87312273   -7.8592361    222.64698  0.020478935  0.020372779            1 
  907000   0.89582789   -7.8740395     222.8882  0.020478519   0.02035809            5 
  908000   0.89528148   -7.8805858    222.86481  0.020453818  0.020343387            2 
  909000   0.87565233   -7.8482021    222.78636  0.020424126  0.020328643            2 
  910000   0.89423595   -7.9106996    222.37496  0.020364007    0.0203138            2 
  911000   0.88780599   -7.8884705    223.35451  0.020431257  0.020299047            2 
  912000   0.89829885   -7.8817858    223.39475  0.020412532  0.020284396            3 
  913000   0.88773988   -7.8611409    224.23035  0.020466443   0.02026991            4 
  914000   0.87785953   -7.8762263    223.55944  0.020382881  0.020255437            7 
  915000   0.89162895   -7.8828642     223.8721   0.02038908   0.02024097            1 
  916000   0.88440731   -7.9249671    223.65233  0.020346827  0.020226428            2 
  917000   0.89979396   -7.8728164    223.87582  0.020344949  0.020212035            2 
  918000    0.8786772   -7.8459404    225.07539   0.02043168  0.020197523            1 
  919000   0.88355257   -7.9109795    223.93621  0.020306149   0.02018321            2 
  920000   0.87157729   -7.8886247    224.26317  0.020313693  0.020168843            3 
  921000   0.88092735   -7.8889551    224.73886  0.020334678  0.020154467            3 
  922000   0.88900312   -7.9153726    224.27037  0.020270279  0.020140013            2 
  923000   0.90288815   -7.9085041    224.56467  0.020274889  0.020125486            3 
  924000   0.88393438   -7.9002191    225.03678  0.020295525  0.020111067            2 
  925000   0.87619312    -7.862593     225.5263  0.020317685  0.020096813            1 
  926000   0.88025537   -7.9054195    225.60111  0.020302476  0.020082419            2 
  927000   0.91338086   -7.8337232    225.21546  0.020245906  0.020068111            1 
  928000   0.89898403   -7.8724695    224.87194  0.020193242  0.020053666            3 
  929000   0.87984499   -7.9014434    225.00018  0.020183008  0.020039291            6 
  930000   0.88606028   -7.9075162    224.80607  0.020143913  0.020024849            3 
  931000   0.87466476   -7.9452807    225.08855  0.020147561  0.020010268            2 
  932000   0.87205191   -7.9203573    224.92277   0.02011112  0.019995592            2 
  933000   0.87449366   -7.9381521    224.99393  0.020095921  0.019981032            1 
  934000   0.89696746   -7.9166082    225.71378  0.020138631  0.019966526            1 
  935000   0.87424804   -7.9123364    225.44626   0.02009325  0.019952073            3 
  936000   0.87926533   -7.8949429    225.88375  0.020110733  0.019937637            1 
  937000   0.88506938   -7.9061928    225.72438  0.020075096  0.019923293            2 
  938000    0.8855904   -7.8981485     225.9071  0.020069927  0.019908876            3 
  939000   0.89076727   -7.9082962    225.66963  0.020027479   0.01989444            2 
  940000   0.90256122   -7.8937414    225.50031  0.019991162  0.019879903            2 
  941000   0.89400611   -7.9203108    225.78314  0.019994965  0.019865209            2 
  942000   0.87284953   -7.9081303    226.06971   0.01999909  0.019850663            5 
  943000   0.88345376   -7.9129188    226.07552  0.019978395   0.01983627            1 
  944000   0.87882089   -7.9062497    226.86447  0.020026877  0.019821964            2 
  945000   0.86102127   -7.9303242    226.53755  0.019976856  0.019807499            2 
  946000   0.87674831   -7.9080946    227.24421  0.020017989  0.019793157            2 
  947000   0.86991765   -7.9134648    226.88545  0.019965281  0.019778906            2 
  948000   0.87616444   -7.9126012    227.23296  0.019974768  0.019764755            3 
  949000   0.86440588   -7.9092657    227.05378  0.019937986  0.019750714            6 
  950000   0.88049789   -7.9209519    227.01504    0.0199136  0.019736563            4 
  951000   0.87089585   -7.9326519    227.35868  0.019922772  0.019722386            3 
  952000   0.87495806   -7.8840041    227.44046  0.019909004  0.019708242            2 
  953000   0.85637962   -7.8980816    227.37844   0.01988269  0.019694099            3 
  954000   0.87772814   -7.9445333    227.48129  0.019870832  0.019679981            1 
  955000   0.86148497   -7.9301382    228.32456  0.019923609  0.019665892            2 
  956000   0.87837749   -7.9155114    228.28051  0.019898929  0.019651857            2 
  957000   0.87498526     -7.90063     228.4695  0.019894593  0.019637832            3 
  958000   0.88186927   -7.9439841    227.69025  0.019806041  0.019624038            3 
  959000   0.85367795   -7.9505483    228.24674  0.019833745  0.019610032            3 
  960000   0.86557481   -7.9408931    227.96122  0.019788301  0.019595993            1 
  961000   0.84795527   -7.9635095    228.20607  0.019788941  0.019582029            3 
  962000   0.86857257   -7.8799192     228.7815  0.019818217  0.019568113            2 
  963000   0.88048954   -7.9383377    228.42383  0.019766687  0.019554037            3 
  964000   0.87672764   -7.9112309    228.50555  0.019753246  0.019540111            1 
  965000   0.86607447   -7.9439852    228.59373  0.019740391  0.019526102            2 
  966000   0.86180594   -7.9364011    227.99192   0.01966804  0.019512068            2 
  967000   0.85772062   -7.9464571     228.8088  0.019718097  0.019498029            3 
  968000   0.85696287   -7.9274131    228.59558  0.019679372  0.019484085            3 
  969000   0.87201919   -7.9188742    229.32842  0.019722086  0.019470202            2 
  970000   0.88191405   -7.9578933    229.50333  0.019716781  0.019456444            3 
  971000   0.86864259   -7.8995255    230.00606   0.01973962  0.019442676            2 
  972000   0.86869123   -7.9546981    229.17119  0.019647735  0.019428872            6 
  973000   0.86227227   -7.9432437    229.45858  0.019652156  0.019414988            2 
  974000   0.85443197   -7.9302281    229.67722  0.019650686  0.019401166            2 
  975000   0.85597491   -7.9315974    229.25855  0.019594748  0.019387389            3 
  976000   0.85239283   -7.9261462    229.75188  0.019616793  0.019373569            1 
  977000   0.88602972   -7.9137324    229.53568  0.019578274  0.019359722            1 
  978000   0.86168666   -7.9246549    229.29861  0.019538054  0.019345759            2 
  979000   0.85978538   -7.9452206     229.8941  0.019568786  0.019331746            1 
  980000   0.86297944   -7.9626928    229.86856  0.019546646  0.019317726            3 
  981000   0.86058991   -7.9353952    230.16936  0.019552273  0.019303694            3 
  982000   0.85789004   -7.9454294    229.62255   0.01948596   0.01928973            1 
  983000   0.87633085   -7.9371111    230.24796  0.019519156  0.019275763            1 
  984000   0.88259418   -7.9562972    229.81968  0.019463049  0.019261737            2 
  985000   0.86436756   -7.9619418     229.6865  0.019432022  0.019247745            2 
  986000   0.85995546   -7.9649247    229.92202  0.019432219  0.019233655            3 
  987000   0.85210114   -7.9752342    230.27496  0.019442331  0.019219519            2 
  988000   0.84336394   -7.9467505    229.87173  0.019388641  0.019205459            3 
  989000   0.85959144   -7.9506654    230.80759  0.019447893   0.01919133            2 
  990000   0.84899248     -7.96239    230.23033  0.019379658  0.019177166            3 
  991000   0.85872674   -7.9859598    229.88402  0.019330981  0.019162876            1 
  992000   0.86556547   -7.9487794    230.61115  0.019372576  0.019148668            3 
  993000   0.85088767   -7.9297027    230.36466  0.019332382  0.019134464            3 
  994000   0.84404677   -7.9827701    229.89961  0.019273944  0.019120169            3 
  995000   0.85728362   -7.9835357      230.422  0.019298325  0.019105894            5 
  996000   0.84927401   -7.9632471    230.50312  0.019285736  0.019091806            2 
  997000   0.84167304   -7.9651211    230.16531  0.019238157  0.019077733            2 
  998000   0.85844585   -7.9757061    230.69724  0.019263297  0.019063675            2 
  999000   0.84738004   -7.9764953    230.89744  0.019260714  0.019049629            2 
 1000000    0.8644949   -7.9718835    230.86234  0.019238529  0.019035457            2 
 1001000   0.84205919   -7.9458083    231.42271   0.01926596  0.019021394            3 
 1002000   0.85380479   -7.9682877    231.36571  0.019241992   0.01900734            3 
 1003000   0.85810121    -7.944766    231.27392  0.019215181  0.018993316            1 
 1004000   0.84033543   -8.0027251    231.76487  0.019236792  0.018979382            2 
 1005000    0.8642139   -7.9657205    232.00355  0.019237442  0.018965512            1 
 1006000   0.85242528   -7.9678186    231.45372  0.019172773  0.018951609            2 
 1007000   0.85857649   -7.9510958    231.82276  0.019184274  0.018937772            2 
 1008000   0.85805099   -7.9673151    231.79291  0.019162774  0.018923957            1 
 1009000   0.84630541    -7.976539    231.43827  0.019114492  0.018909935            1 
 1010000   0.84554366   -7.9483251    231.82046    0.0191271  0.018895908            8 
 1011000   0.84215239   -8.0066087    231.78119  0.019104945  0.018881928            2 
 1012000    0.8444188    -7.969936    232.31296  0.019129855  0.018867997            2 
 1013000   0.84263313    -8.010712    231.60199  0.019052484  0.018854013            2 
 1014000   0.87079084   -8.0010112    231.75963  0.019046649   0.01884002            4 
 1015000   0.83048546   -8.0000757    232.27277  0.019070014   0.01882599            4 
 1016000   0.86701722   -7.9805786    232.10252   0.01903728  0.018812114            3 
 1017000   0.84807814   -7.9919636    232.60293  0.019059565  0.018798286            1 
 1018000   0.86373555   -8.0029291    232.33003  0.019018502  0.018784452            3 
 1019000   0.85035225   -8.0016599    232.64456  0.019025561  0.018770533            3 
 1020000   0.86454723   -7.9664271    233.22816  0.019054589  0.018756798            2 
 1021000   0.83709608   -8.0228822    232.20173  0.018952149  0.018742869            2 
 1022000   0.84170777   -8.0220903    231.68223  0.018891245  0.018728883            2 
 1023000   0.83246521   -8.0138562    232.59181  0.018946873   0.01871489            2 
 1024000   0.84159138   -8.0284628    232.34991  0.018908684  0.018700931            2 
 1025000   0.83711221   -7.9723447     232.2597  0.018882903  0.018687021            4 
 1026000   0.83983852   -8.0142811    232.96697  0.018921943  0.018673119            2 
 1027000   0.84489924   -8.0050539    233.00699  0.018906766  0.018659194            1 
 1028000   0.84879133   -7.9587019    233.07154  0.018893607  0.018645267            2 
 1029000   0.86163955   -8.0034197    231.91471   0.01878156  0.018631312            3 
 1030000   0.85306214   -8.0183518    232.51645   0.01881201  0.018617277            1 
 1031000   0.83100459   -8.0169514    232.90963  0.018825544  0.018603124            2 
 1032000   0.86008233   -8.0431196    232.37754  0.018764336  0.018588959            3 
 1033000   0.83631004   -8.0005524    233.11164  0.018805392  0.018574802            2 
 1034000   0.83529815   -8.0179697    233.11132  0.018787179   0.01856076            2 
 1035000   0.83205207   -7.9884885    233.25119  0.018780289  0.018546836            2 
 1036000   0.82478703   -8.0004508     233.3108  0.018766956   0.01853287            4 
 1037000   0.83379419   -8.0100698    233.25522  0.018744393  0.018518913            2 
 1038000   0.83378942   -8.0458855    233.12685  0.018716028  0.018504928            4 
 1039000    0.8424116   -8.0012266    233.74729  0.018747777  0.018490937            3 
 1040000   0.82952192   -8.0186743    233.06182  0.018674826  0.018477019            1 
 1041000   0.83225724   -8.0019182    233.70713  0.018708544  0.018463089            6 
 1042000   0.81949661   -8.0268606    233.42649  0.018668146  0.018449173            2 
 1043000   0.83315425   -8.0374165    233.71235  0.018673087   0.01843531            3 
 1044000   0.84263105   -8.0064595    233.42508   0.01863227  0.018421448            1 
 1045000   0.83747699   -8.0291089     233.7044  0.018636715   0.01840762            1 
 1046000   0.81931716   -8.0370921    233.81321  0.018627566  0.018393685            4 
 1047000   0.83546742   -8.0636806    232.93628  0.018539978  0.018379777            2 
 1048000   0.84231875   -8.0322245    234.10667  0.018615352  0.018365775            1 
 1049000   0.82574119   -8.0113574    233.63544  0.018560172  0.018351816            2 
 1050000   0.85281662   -8.0614491    233.60986  0.018540465  0.018337818            2 
 1051000   0.84930163   -8.0561312    233.54032  0.018517311  0.018323711            2 
 1052000   0.83200311   -8.0313829    233.98913   0.01853526  0.018309615            2 
 1053000   0.82288802    -8.042885     233.4096  0.018471795  0.018295584            2 
 1054000   0.84738531   -8.0456845    233.72867  0.018479496  0.018281536            2 
 1055000   0.81010006   -8.0671566    234.16159  0.018496176  0.018267564            1 
 1056000   0.82703166   -8.0548504    234.04782  0.018469683  0.018253571            2 
 1057000   0.81738614   -8.0664959    233.90391  0.018440863  0.018239651            3 
 1058000   0.83619374   -8.0550091    234.08863  0.018437983  0.018225688            2 
 1059000   0.82622014   -8.0295042    234.68836  0.018467765  0.018211778            1 
 1060000   0.83647641   -8.0225625    234.24144  0.018415208  0.018197934            3 
 1061000   0.81658213   -8.0533245    234.45531  0.018414649  0.018184046            5 
 1062000   0.83566031   -8.0786768    235.35057  0.018467559  0.018170184            1 
 1063000   0.83959165   -8.0486246    234.78047  0.018405493  0.018156437            1 
 1064000   0.83535533   -8.0300016    235.61072  0.018453221  0.018142732            4 
 1065000   0.83462943   -8.0388243    235.16128  0.018400726  0.018129088            3 
 1066000   0.81675086   -8.0558735     234.8116  0.018356129  0.018115417            3 
 1067000   0.81929134   -8.0622928    235.61021  0.018401297  0.018101789            6 
 1068000   0.80693465   -8.0375418    235.16561  0.018349377  0.018088099            3 
 1069000   0.82604165   -8.0583891    235.06569  0.018324423  0.018074401            2 
 1070000   0.81060599   -8.0033278    235.56486  0.018346173  0.018060678            2 
 1071000   0.83537948   -8.0510556    235.69098  0.018338856  0.018046919            1 
 1072000    0.8181008   -8.0369526    235.82662  0.018332293  0.018033071            3 
 1073000   0.83493633   -8.0291956    235.28769  0.018273352  0.018019355            2 
 1074000   0.82833567   -8.0558457    235.80335  0.018296349  0.018005609            3 
 1075000   0.80778594   -8.0557001    235.34179  0.018243549  0.017991808            1 
 1076000   0.82979767     -8.09277     234.9267  0.018194447  0.017977943            1 
 1077000   0.84883074   -8.0423885    235.27322  0.018204365  0.017964118            1 
 1078000   0.83008908   -8.0876929    235.05421  0.018170548  0.017950208            1 
 1079000   0.82745582   -8.1192219    235.20399  0.018165276  0.017936378            2 
 1080000   0.81737347   -8.0916743    234.72444  0.018111454  0.017922544            2 
 1081000   0.83365529   -8.0770541    235.77855   0.01817596  0.017908833            1 
 1082000   0.82629008   -8.1136531     235.4649  0.018135004  0.017895122            2 
 1083000    0.8116312   -8.0310706    236.66221  0.018210389  0.017881501            1 
 1084000   0.82889797   -8.0846289    235.50817  0.018104871   0.01786782            2 
 1085000   0.81617753     -8.09725    235.64908  0.018099008  0.017854159            3 
 1086000   0.82754749   -8.0668874    235.63327  0.018081129  0.017840431            2 
 1087000   0.83162305   -8.0555498    235.92597  0.018086934  0.017826793            4 
 1088000   0.81153537   -8.1016564    235.57434  0.018043378  0.017813125            3 
 1089000   0.81462575   -8.0973199    236.12643  0.018069056  0.017799376            1 
 1090000   0.82336754   -8.0614062    236.25758  0.018062506  0.017785614            1 
 1091000   0.82044948   -8.0667857    235.88309  0.018017345  0.017771863            1 
 1092000   0.82469697   -8.0607625    236.06518  0.018014742  0.017758182            2 
 1093000   0.82499711    -8.072063    236.61974  0.018040541  0.017744433            4 
 1094000     0.818862   -8.0784743    236.27776  0.017998001  0.017730732            3 
 1095000   0.80586227    -8.080898    235.96981  0.017958128  0.017717023            1 
 1096000   0.80780452   -8.0781484    236.03544  0.017946733  0.017703299            3 
 1097000   0.84198882   -8.0850288    236.65625  0.017977534  0.017689576            3 
 1098000   0.80537737   -8.1006739    236.21219  0.017927458  0.017675865            1 
 1099000   0.79779365   -8.0844377    236.38483  0.017924236  0.017662205            4 
 1100000   0.81658627   -8.1170636    236.93388  0.017949537  0.017648579            2 
 1101000   0.80589181   -8.0724059    236.74856  0.017919207  0.017634921            2 
 1102000   0.79972426   -8.0895812    236.53493  0.017886791  0.017621284            2 
 1103000   0.82548854   -8.0556562    236.84688  0.017894143  0.017607628            2 
 1104000   0.81645017   -8.0631016    236.82006  0.017875911  0.017593996            1 
 1105000    0.8044065    -8.123378    236.74917  0.017854387  0.017580285            2 
 1106000   0.81086186   -8.0812991    236.96707  0.017854662  0.017566606            3 
 1107000   0.82319891   -8.0993684    236.83315  0.017828452   0.01755299            6 
 1108000   0.81583902   -8.0698679    236.76498  0.017807234  0.017539276            1 
 1109000   0.80450235   -8.0975759    237.10002  0.017816353  0.017525655            2 
 1110000   0.81257768   -8.1007021    236.45774  0.017752082  0.017511974            1 
 1111000   0.81260171   -8.1245381    236.37739  0.017730077  0.017498207            4 
 1112000   0.79043396   -8.1289097    236.53338  0.017725823  0.017484451            3 
 1113000   0.80412957    -8.095937    237.35136  0.017771141  0.017470711            2 
 1114000   0.78862376   -8.0935019    237.05901  0.017733319  0.017456956            1 
 1115000    0.8118981   -8.1326064    236.91799  0.017706875  0.017443192            3 
 1116000   0.80936896   -8.1045592    236.71425  0.017675795   0.01742943            1 
 1117000   0.80000894   -8.0724485    236.53619  0.017646687  0.017415691            3 
 1118000   0.79161422   -8.0825859    236.56481  0.017633036  0.017401954            2 
 1119000   0.80881113   -8.0936685    236.33322  0.017600031  0.017388206            2 
 1120000   0.80412927   -8.0667094    236.97254  0.017631885  0.017374516            3 
 1121000   0.81500222   -8.1033758    236.62015  0.017589961   0.01736078            4 
 1122000   0.81528951   -8.0896989    236.65737  0.017577048  0.017347053            2 
 1123000   0.82023625   -8.1090787    236.97658  0.017585083  0.017333244            2 
 1124000   0.78635068   -8.1196802    237.19861  0.017585899  0.017319437            2 
 1125000   0.80585691   -8.1060382    237.55828  0.017596909  0.017305662            3 
 1126000   0.80517386   -8.1218226     237.0943  0.017546944  0.017291907            2 
 1127000   0.81603724   -8.1112958    236.93104  0.017519302  0.017278165            2 
 1128000   0.79385152   -8.1211475    236.63761  0.017482093  0.017264469            2 
 1129000   0.80480572   -8.1004458    237.44987  0.017526562  0.017250715            2 
 1130000   0.82060761   -8.1133521    237.58908  0.017521318  0.017237098            1 
 1131000   0.81485796   -8.1203089    237.84221  0.017524477  0.017223523            2 
 1132000   0.79842204   -8.1577112    237.37209  0.017474388  0.017209922            2 
 1133000   0.81384141   -8.1369449    238.29076  0.017526535   0.01719633            1 
 1134000   0.78014727   -8.1258323    237.53018  0.017455186  0.017182806            2 
 1135000   0.79493693   -8.1295393     237.8962  0.017466682  0.017169281            3 
 1136000    0.8138112   -8.1156835     238.0521  0.017462742  0.017155763            5 
 1137000   0.82567328   -8.1111633    237.67702  0.017419893  0.017142163            4 
 1138000    0.7893032   -8.1162315    237.76674  0.017411156  0.017128629            2 
 1139000   0.78921552   -8.1182902    237.99025  0.017412222  0.017115129            1 
 1140000    0.7988943   -8.0977225    238.52755  0.017436224  0.017101632            2 
 1141000   0.80465943   -8.1399788    237.72017  0.017361976  0.017088161            1 
 1142000   0.79294487   -8.1254038    237.94474  0.017363159  0.017074689            2 
 1143000    0.8071285   -8.1489378    237.90495  0.017345068  0.017061079            2 
 1144000    0.8243396   -8.1003703    237.98789  0.017335948  0.017047487            3 
 1145000   0.80268861   -8.1233193    238.13903  0.017331807    0.0170339            1 
 1146000   0.79167462    -8.143593    237.35804  0.017259892  0.017020267            2 
 1147000    0.7956304   -8.1362786    238.01447  0.017292536  0.017006603            2 
 1148000   0.79597775   -8.1306443    238.57825  0.017318398  0.016992965            2 
 1149000   0.78725577   -8.1287682    237.88076  0.017252738  0.016979295            3 
 1150000   0.81251296   -8.1293604    237.71124  0.017225452  0.016965646            2 
 1151000     0.796195   -8.1460999     237.5114  0.017196018  0.016952066            2 
 1152000   0.79298715   -8.1312197    237.65445  0.017191438  0.016938415            4 
 1153000   0.79237425   -8.1511379     238.3539  0.017227082  0.016924785            2 
 1154000   0.78114841   -8.1454266    238.68538   0.01723609  0.016911241            3 
 1155000   0.79325351    -8.143681    237.62014   0.01714431   0.01689766            3 
 1156000   0.78025201   -8.1333518    238.29583  0.017178189  0.016884153            2 
 1157000   0.79882085   -8.1406712    238.30849  0.017164253  0.016870638            3 
 1158000   0.78626454   -8.1408538    238.44937  0.017159569  0.016857082            3 
 1159000   0.80866684   -8.1599156     238.7818  0.017168666  0.016843548            1 
 1160000   0.80388311   -8.1610548    238.56561  0.017138334  0.016830065            3 
 1161000   0.79387682   -8.1357255    238.09057  0.017089475  0.016816529            5 
 1162000   0.79080352   -8.1468975    238.18479  0.017081525  0.016802989            1 
 1163000   0.76170112   -8.1098264    238.05189  0.017057315  0.016789447            3 
 1164000    0.7967302   -8.1274779    238.63815  0.017084633  0.016775957            3 
 1165000   0.80661576   -8.1595051    238.28055  0.017044389  0.016762454            1 
 1166000   0.78931551   -8.1466561    238.86851  0.017071792   0.01674888            3 
 1167000   0.78089529    -8.172192     238.9257  0.017061247  0.016735335            5 
 1168000   0.78802537   -8.1765453    237.49516  0.016944575  0.016721721            6 
 1169000   0.78048527   -8.1959398    237.61928  0.016938928  0.016708045            3 
 1170000   0.78165066   -8.2025677    237.61806  0.016924363  0.016694382            3 
 1171000   0.79251239   -8.1835702    238.39494  0.016965196  0.016680681            2 
 1172000    0.7868818   -8.2162719    238.00212   0.01692279  0.016666974            2 
 1173000   0.78306014   -8.2040381    237.87939  0.016899644   0.01665326            6 
 1174000   0.78118983   -8.1868904    237.60075  0.016865471  0.016639588            5 
 1175000   0.79789874   -8.1918883    237.94045  0.016875209  0.016625855            6 
 1176000   0.79106755   -8.2018512    238.31115  0.016887128  0.016612182            6 
 1177000   0.78243465    -8.193211    238.07548  0.016856095  0.016598518           14 
 1178000   0.79309597   -8.1999931    238.15759  0.016847594  0.016584809            4 
 1179000   0.78362885   -8.2185305    237.61799  0.016795164  0.016571102            3 
 1180000    0.7700443   -8.1818708    238.03467  0.016810358  0.016557458            3 
 1181000   0.78325044   -8.1938402    238.48172  0.016827668  0.016543874            3 
 1182000   0.79203152    -8.165072    238.74454  0.016831962  0.016530355            2 
 1183000   0.77383288   -8.1729384    238.27615  0.016784739  0.016516796            1 
 1184000   0.78204342   -8.2122219    239.17812  0.016834046  0.016503264            9 
 1185000   0.77606287   -8.1754589    238.60188  0.016779316  0.016489778            2 
 1186000    0.7801954   -8.1589761    238.40544  0.016751366  0.016476329            4 
 1187000     0.790692   -8.1772599    238.87674  0.016770341  0.016462903            2 
 1188000     0.761419   -8.1781526    238.99859  0.016764772  0.016449456            2 
 1189000   0.78664136   -8.1566789    239.10112  0.016757858  0.016436001            4 
 1190000   0.80317141   -8.1862161    238.93942  0.016732452   0.01642262            2 
 1191000   0.77794356   -8.1775405    239.14123  0.016732524  0.016409216            2 
 1192000   0.78524071   -8.2043268    238.29392   0.01665925  0.016395811            3 
 1193000    0.7860642   -8.1928568    238.74047  0.016676478  0.016382407            2 
 1194000   0.76415021   -8.1603141    239.43441  0.016710944  0.016369046            3 
 1195000   0.78382395   -8.1527247    239.97348  0.016734552  0.016355737            2 
 1196000   0.78162794   -8.1640021    239.82946  0.016710525   0.01634244            4 
 1197000   0.77452033   -8.1571191    239.32336  0.016661331  0.016329114            6 
 1198000   0.77750591   -8.1821328    238.87189  0.016616019  0.016315811            2 
 1199000   0.78241923   -8.1563547    239.21419  0.016625951  0.016302492            2 
 1200000   0.78543628   -8.1716927    239.56312  0.016636327    0.0162892            3 
 1201000   0.78234186   -8.1651593    238.60722  0.016556149  0.016275934            1 
 1202000   0.78076429   -8.1851031    239.84415   0.01662813  0.016262727            5 
 1203000   0.77167375    -8.172232    239.72286  0.016605906  0.016249512            1 
 1204000    0.7744565   -8.1912315    239.53461  0.016579084  0.016236283            3 
 1205000   0.76485323   -8.1905835    240.18753  0.016610479  0.016223055            5 
 1206000   0.77776764   -8.1873084    240.12739   0.01659255  0.016209889            2 
 1207000    0.7710271   -8.1896098    239.78886  0.016555431  0.016196753            1 
 1208000    0.7664876   -8.1746095    239.96813  0.016554093  0.016183611            1 
 1209000   0.78642962   -8.2036658     240.4293  0.016572188  0.016170496            2 
 1210000   0.75895135   -8.2156216    239.86092  0.016519347  0.016157393            1 
 1211000   0.79209009   -8.2127183    239.77705  0.016499935  0.016144224            2 
 1212000   0.75685592   -8.1911881    240.10489  0.016508862  0.016131064            3 
 1213000   0.77929229   -8.2098803    240.10751  0.016495432  0.016117919            2 
 1214000   0.76797668    -8.201403    239.82764  0.016462633  0.016104847            2 
 1215000   0.76568748   -8.2027984    239.68416  0.016439243  0.016091787            3 
 1216000   0.77394268   -8.2139385    240.00478  0.016447696  0.016078588            1 
 1217000    0.7574618   -8.2227352    240.04464  0.016436911  0.016065361            2 
 1218000   0.76882905   -8.2350834    240.10118  0.016427284  0.016052153            2 
 1219000   0.78755558   -8.2407341    239.34479    0.0163621  0.016038936            1 
 1220000   0.74524047   -8.2232039    239.64945  0.016369498  0.016025726            5 
 1221000   0.76748433   -8.1915061    239.32358  0.016333851  0.016012537            1 
 1222000   0.75532467   -8.1862748    239.40023  0.016325711  0.015999329            5 
 1223000   0.77637948   -8.2019234    239.94645  0.016349581  0.015986153            3 
 1224000   0.75611448   -8.2246923    240.32667   0.01636211  0.015973019            1 
 1225000   0.77438383   -8.2229229    240.19642  0.016339892  0.015959915            3 
 1226000   0.75488835   -8.2028613    240.09754  0.016319844  0.015946848            5 
 1227000   0.74811621   -8.2134521    240.04723  0.016303126  0.015933826            2 
 1228000   0.78016257    -8.217523    239.68051  0.016264964  0.015920782            1 
 1229000   0.75514074   -8.2187168    240.19012  0.016286284  0.015907685            2 
 1230000   0.76589379   -8.2409794    240.12035  0.016268316  0.015894593            3 
 1231000   0.77827637   -8.1990999    240.55692  0.016284655  0.015881558            1 
 1232000   0.76119369   -8.2206924    240.18032  0.016245963  0.015868588            1 
 1233000   0.76989118   -8.2177308    240.17024  0.016232106  0.015855598            2 
 1234000   0.77024981   -8.2276439    240.39276  0.016233979  0.015842599            3 
 1235000   0.77250915   -8.2044494    240.25999  0.016211875  0.015829585            2 
 1236000   0.75750064    -8.232467    240.77568  0.016233527  0.015816572            2 
 1237000   0.76263653   -8.2002839    240.89671  0.016228558  0.015803634            2 
 1238000     0.765039   -8.2782758    240.22739  0.016170395  0.015790683            1 
 1239000   0.75460053   -8.2447418    240.61663  0.016183524  0.015777704            1 
 1240000   0.75607019   -8.2503698    240.46219  0.016160093  0.015764735            3 
 1241000    0.7676032   -8.2344526    240.48693  0.016148733  0.015751842            2 
 1242000   0.76110846   -8.2355715    240.37136  0.016127976  0.015738937            2 
 1243000   0.74820305   -8.2485646    240.80671  0.016144188  0.015726063            3 
 1244000   0.76338968   -8.2332337    240.60937  0.016117991  0.015713205            1 
 1245000   0.76921003   -8.2419193    240.08944  0.016070243  0.015700344            5 
 1246000   0.76750876   -8.2664097    240.63059  0.016093538  0.015687448            1 
 1247000   0.75016695   -8.2210473    240.77254  0.016090119  0.015674604            1 
 1248000   0.74614234   -8.2411984     240.9501  0.016089082  0.015661772            1 
 1249000   0.77801673   -8.2388757     241.1185  0.016087436  0.015648974            1 
 1250000   0.77058003   -8.2368028    240.49331  0.016032887  0.015636171            1 
 1251000   0.76209852   -8.2232239    240.89957  0.016047134  0.015623364            2 
 1252000   0.75808721   -8.2377985    241.17572  0.016052697  0.015610549            2 
 1253000   0.74818881    -8.237856    241.14158  0.016037615   0.01559774            1 
 1254000   0.75261689   -8.2335954     240.9165  0.016009868  0.015584944            3 
 1255000   0.76542376   -8.2348315     240.7647  0.015987032  0.015572067            2 
 1256000   0.73311817   -8.2493678    240.64187  0.015966154  0.015559247            1 
 1257000   0.74978842   -8.2533222    240.96371  0.015974788  0.015546403            2 
 1258000   0.74844717   -8.2546537    240.78042  0.015949948  0.015533536            1 
 1259000   0.74852152   -8.2485616    241.23146  0.015967134  0.015520666            1 
 1260000   0.74912784   -8.2644188    240.22133  0.015887654  0.015507836            3 
 1261000   0.75962531   -8.2910696     240.1883  0.015872872  0.015494954            2 
 1262000    0.7486576   -8.2488765    240.66603   0.01589184  0.015482076            1 
 1263000   0.75744015   -8.2667431    240.64598  0.015877935  0.015469274            2 
 1264000    0.7476657   -8.2551529    240.68016  0.015867627  0.015456451            2 
 1265000   0.75577053   -8.2384737    240.98797   0.01587536  0.015443679            1 
 1266000   0.77184445   -8.2511015    240.94306  0.015859864  0.015430919            3 
 1267000   0.75629341   -8.2561653    241.29018  0.015870178  0.015418205            2 
 1268000    0.7462041   -8.2239165    241.75028  0.015887899  0.015405548            2 
 1269000   0.74477794   -8.2654046    240.96269   0.01582366  0.015392922            3 
 1270000   0.74434765    -8.262688    241.09474  0.015819865  0.015380222            2 
 1271000   0.72818139    -8.271449    241.16404  0.015811962  0.015367493            3 
 1272000   0.74419786   -8.2819823    240.75859  0.015772969  0.015354754            1 
 1273000   0.75614265     -8.26005    241.08338   0.01578184  0.015342002            5 
 1274000   0.73622245   -8.2907154     240.9846   0.01576299   0.01532924            3 
 1275000   0.74828814   -8.2621739    241.07453  0.015756505  0.015316487            4 
 1276000   0.74665288   -8.2802886    240.95993  0.015736673  0.015303768            2 
 1277000   0.74443341   -8.2461162    241.31043  0.015747222   0.01529105            3 
 1278000    0.7452431   -8.2590313     241.5638  0.015751422  0.015278386            1 
 1279000   0.74242518   -8.3046953    240.75287   0.01568627  0.015265651            2 
 1280000   0.73666666   -8.2988185    240.80812  0.015677612  0.015252959            6 
 1281000   0.73621752   -8.2974821    240.96166  0.015675362  0.015240215            1 
 1282000   0.74511777   -8.2769861    241.28034  0.015683849  0.015227555            1 
 1283000   0.74311027   -8.2880459    241.60714  0.015692852  0.015214911            2 
 1284000   0.76118893   -8.2833397    241.17649   0.01565268  0.015202307            3 
 1285000   0.72666821   -8.2926717    241.29156  0.015647961  0.015189703            2 
 1286000   0.72817317   -8.2767356    241.24561  0.015632816   0.01517706            3 
 1287000   0.74080075   -8.2636296     241.1532  0.015614685  0.015164455            2 
 1288000   0.73566763   -8.2734564    241.04625  0.015595643  0.015151855            3 
 1289000    0.7297693   -8.2975464    241.31604  0.015600985  0.015139305            3 
 1290000   0.73356264   -8.2931768    241.78362  0.015619097  0.015126801            1 
 1291000   0.72929624   -8.2916827    241.67221  0.015599807  0.015114309            2 
 1292000   0.73644999   -8.2996576    241.41158  0.015570922  0.015101795            2 
 1293000   0.73175493   -8.3193542    241.32115  0.015553052  0.015089214            2 
 1294000   0.75164683   -8.3152953    241.36176  0.015543648  0.015076612            2 
 1295000    0.7460762   -8.3211547    240.66727  0.015486954  0.015064033            2 
 1296000   0.73376837   -8.2902983    241.56673   0.01553284  0.015051475            2 
 1297000     0.738493   -8.2989454    241.05842  0.015488205  0.015038971            2 
 1298000   0.74133385   -8.3157348    240.80273  0.015459857  0.015026439            2 
 1299000   0.72284512   -8.3248017    241.17756  0.015472001  0.015013897            3 
 1300000   0.73689742   -8.3193812    241.11671  0.015456199  0.015001376            1 
 1301000   0.71845269    -8.302128    241.46747  0.015466787  0.014988901            3 
 1302000   0.71403212   -8.3042893    241.44498  0.015453467  0.014976418            3 
 1303000   0.72505865   -8.3068862    241.29865  0.015432249  0.014963884            3 
 1304000   0.74221113   -8.3166547    242.16761  0.015475946  0.014951366            2 
 1305000   0.73579656   -8.2787699    241.03277   0.01539162  0.014938886            1 
 1306000   0.73607316   -8.3216912    241.01891   0.01537895  0.014926359            1 
 1307000   0.74222641   -8.3072898    241.63321  0.015406351  0.014913851            2 
 1308000   0.73054765   -8.3115149    240.78932  0.015340808  0.014901318            3 
 1309000   0.72082989   -8.3216735    241.28787  0.015360827   0.01488877            2 
 1310000   0.72811443   -8.3177423    240.82967  0.015319954  0.014876232            4 
 1311000   0.73081405   -8.3040194    241.12665  0.015327145  0.014863721            1 
 1312000   0.72829132   -8.3332887    241.13675  0.015316104  0.014851179            4 
 1313000   0.71954378   -8.2802302     241.5302  0.015329411  0.014838669            4 
 1314000   0.72570559   -8.2940843    241.33384  0.015305292  0.014826178            6 
 1315000   0.72497867   -8.2975091    240.90605  0.015266543  0.014813688            6 
 1316000   0.73182841   -8.3081798    241.50088  0.015292609  0.014801198            2 
 1317000   0.73385538   -8.3377194    240.79314  0.015236215  0.014788697            2 
 1318000   0.71594087   -8.3242054    241.53145  0.015271336  0.014776213            1 
 1319000   0.72266594   -8.3331217    240.64799  0.015203942  0.014763719            4 
 1320000   0.71925481   -8.3328806    241.47954   0.01524492  0.014751203            1 
 1321000   0.74651529   -8.3284276    241.27971  0.015220774  0.014738682            1 
 1322000    0.7110465   -8.3443117    240.72036  0.015174002  0.014726147            3 
 1323000   0.71984717   -8.3316866       241.34  0.015201562  0.014713646            2 
 1324000   0.71282297   -8.3195652    240.82006  0.015157355  0.014701152            3 
 1325000   0.73913146   -8.3219165    240.84819  0.015147685  0.014688662            2 
 1326000   0.72559566   -8.3341495    241.65364  0.015186881  0.014676155            2 
 1327000   0.72915837   -8.3567542    241.26085  0.015150769  0.014663653            2 
 1328000    0.7258151   -8.3631863    241.01597  0.015123994  0.014651164            3 
 1329000   0.72775404   -8.3361946    241.46658  0.015140869  0.014638654            2 
 1330000   0.72773158   -8.3806687    240.49257  0.015068457  0.014626164            1 
 1331000   0.72300191    -8.333016    241.05672  0.015092456  0.014613708            4 
 1332000   0.72153839   -8.3383149    241.08843   0.01508311  0.014601281            1 
 1333000   0.71148353   -8.3513457    241.46943  0.015095613  0.014588877            4 
 1334000   0.70787664   -8.3519457    241.02719  0.015056671  0.014576475            3 
 1335000   0.72974612   -8.3492158    241.49753  0.015074752  0.014564078            4 
 1336000   0.71581011   -8.3655843    240.96514  0.015030261  0.014551697            1 
 1337000   0.71777832   -8.3597184    240.86785  0.015012955  0.014539316            2 
 1338000   0.71564179   -8.3436179    240.57687  0.014983612  0.014526941            1 
 1339000   0.72594396   -8.3759938    240.95059   0.01499568  0.014514546            4 
 1340000   0.70537373   -8.3447401    241.67191  0.015029348  0.014502189            1 
 1341000   0.69901408   -8.3573848    240.99336  0.014975973  0.014489808            4 
 1342000    0.7201051   -8.3504992    241.45725   0.01499362  0.014477417            3 
 1343000   0.73366049   -8.3581781    240.69254  0.014935005  0.014465032            3 
 1344000    0.7217925   -8.3537408    241.39997  0.014967756  0.014452668            3 
 1345000   0.71132744   -8.3648361    241.32136  0.014951757  0.014440306            6 
 1346000   0.73456409   -8.3524582    240.77195  0.014906634  0.014427947            2 
 1347000   0.71455011   -8.3686852    240.47591  0.014877252  0.014415626            3 
 1348000   0.71095657   -8.3362068    241.50624  0.014929911    0.0144033            1 
 1349000   0.70492238   -8.3611811    241.29334  0.014905692  0.014390966            2 
 1350000   0.71995891     -8.36239    241.29351  0.014894661  0.014378696            1 
 1351000   0.72002115   -8.3597544    241.29035  0.014883441  0.014366395            2 
 1352000   0.68541693   -8.3547515    240.84775  0.014845152  0.014354138            2 
 1353000   0.71345268   -8.3546362    241.29154  0.014861514  0.014341893            1 
 1354000    0.7165353   -8.3497702    241.61217  0.014870271  0.014329673            1 
 1355000   0.72995591   -8.3490954     241.3979   0.01484612  0.014317467            2 
 1356000   0.70628523   -8.3717125    240.74952  0.014795325  0.014305275            1 
 1357000   0.71216909   -8.3894723    241.14387  0.014808638  0.014293053            2 
 1358000   0.71179774   -8.3807315    241.05195  0.014792093  0.014280772            2 
 1359000   0.71701285   -8.3757929    241.56454  0.014812641  0.014268542            2 
 1360000   0.71621933   -8.3795297    240.85521  0.014758285  0.014256291            3 
 1361000   0.69712411   -8.3790054    240.90886  0.014750726  0.014244069            1 
 1362000   0.69189894   -8.3785423    241.43291   0.01477196  0.014231853            1 
 1363000   0.70984218   -8.3924618    241.06491  0.014738623  0.014219633            2 
 1364000   0.71249318   -8.3675748    241.34699  0.014745051  0.014207432            2 
 1365000   0.71499785   -8.3857363    241.43075  0.014739362  0.014195253            2 
 1366000   0.70019659   -8.3570595    241.18955  0.014713857  0.014183082            2 
 1367000   0.70344458   -8.3702605    240.98371  0.014690546  0.014170927            2 
 1368000   0.69462135   -8.3752364    241.43872  0.014707525  0.014158769            3 
 1369000   0.71683333   -8.3894476    240.72425   0.01465329  0.014146562            3 
 1370000   0.69518545   -8.3725332    240.56419  0.014632859   0.01413434            5 
 1371000   0.70298974   -8.4034624    241.25243  0.014664018  0.014122144            1 
 1372000   0.72294896   -8.3822017    240.73512  0.014621909  0.014109976            3 
 1373000   0.71752152   -8.3972789    240.95993  0.014624905  0.014097782            2 
 1374000   0.70489692    -8.390187    241.08417  0.014621796  0.014085643            2 
 1375000   0.70615575   -8.3644105    240.90425  0.014600258  0.014073486            3 
 1376000   0.70264234   -8.4028401    240.97064  0.014593668   0.01406135            5 
 1377000   0.68760209   -8.4086974    241.05115  0.014587942   0.01404918            4 
 1378000   0.70312621   -8.3891609    240.90022  0.014568228  0.014037038            4 
 1379000    0.7126772   -8.3962325     240.6189  0.014540663  0.014024905            3 
 1380000   0.70632082   -8.3669492    240.34911  0.014513835  0.014012766            5 
 1381000   0.70321648    -8.409789    240.48796  0.014511704  0.014000643            4 
 1382000   0.70464253   -8.4192593    240.94301  0.014528642  0.013988543            1 
 1383000   0.70653916    -8.389023    241.34963  0.014542639  0.013976471            2 
 1384000     0.692513   -8.3850544    241.12391   0.01451854  0.013964412            9 
 1385000   0.68831962   -8.3820227    240.88439  0.014493646  0.013952342            5 
 1386000   0.71074508   -8.4002476    241.32943  0.014509947  0.013940279            5 
 1387000   0.69454847   -8.3972351    240.88784  0.014472954  0.013928205            2 
 1388000   0.69648406   -8.4148309     241.0687  0.014473385  0.013916125            4 
 1389000    0.6919108   -8.3660305    241.58139  0.014493724  0.013904082            3 
 1390000   0.68534435   -8.3890975    240.80431  0.014436709  0.013892028            3 
 1391000   0.70983002   -8.4011945     240.1711  0.014388396  0.013879977            4 
 1392000   0.69648655   -8.4104357    240.69701  0.014409543  0.013867929            2 
 1393000   0.69983222   -8.3985096    240.88922  0.014410697  0.013855868            2 
 1394000   0.70416048   -8.3969352    241.27318  0.014423313  0.013843812            4 
 1395000   0.68642403   -8.4127565    241.24018  0.014411002  0.013831766            2 
 1396000   0.70512108   -8.4114012    240.78854  0.014373719  0.013819712            1 
 1397000   0.69663736   -8.4210524    240.70239  0.014358291  0.013807684            1 
 1398000    0.6818021   -8.4092542    240.81195  0.014354551  0.013795674            1 
 1399000    0.6947557   -8.4135648    240.72173  0.014338917  0.013783684            2 
 1400000   0.67389482   -8.4237286    240.93525  0.014341384  0.013771699            3 
 1401000   0.70916772   -8.3976827    240.60098  0.014311264  0.013759712            2 
 1402000   0.69956216   -8.3929187    240.34465  0.014285821  0.013747715            1 
 1403000    0.6749148   -8.4136176    240.59531  0.014290527  0.013735751            2 
 1404000   0.69090314    -8.411378    240.44813  0.014271613  0.013723767            2 
 1405000   0.70080944   -8.4133305    240.75973  0.014279936  0.013711801            2 
 1406000    0.7086087   -8.3983572    240.95626  0.014281428  0.013699816            3 
 1407000    0.6932687    -8.406375    240.88543  0.014267083  0.013687865            4 
 1408000   0.68266256   -8.4146855    240.75843  0.014249434  0.013675937            4 
 1409000   0.69296382   -8.4054763     240.9414  0.014250142  0.013663994            1 
 1410000   0.69829262   -8.4178078    240.56854  0.014217999  0.013652026            5 
 1411000   0.70060584   -8.4160073    240.64737  0.014212578    0.0136401            4 
 1412000   0.69164364   -8.4339537    240.72696   0.01420721  0.013628174            2 
 1413000   0.68021094   -8.4336443     240.4678  0.014181871  0.013616278            2 
 1414000   0.69397254   -8.4011549     240.3318  0.014163826  0.013604368            2 
 1415000   0.70261423   -8.4265203    240.64781  0.014172427  0.013592469            2 
 1416000   0.67648945   -8.4234329    240.82413  0.014172795  0.013580599            5 
 1417000    0.7088648   -8.4328358    240.52312   0.01414509  0.013568712            1 
 1418000   0.68601682   -8.4303351    240.94911   0.01416015   0.01355682            1 
 1419000   0.68158008   -8.4299254    240.56761  0.014127767  0.013544934            2 
 1420000   0.68698477   -8.4469026    240.52041  0.014115047  0.013533058            3 
 1421000   0.69296706   -8.4220186    240.78731  0.014120766  0.013521186            1 
 1422000   0.67702508   -8.4384977    240.27207  0.014080642  0.013509307            2 
 1423000   0.67273348   -8.4301384    240.11979  0.014061829  0.013497411            2 
 1424000   0.67970763   -8.4244371    240.28556  0.014061655  0.013485533            2 
 1425000   0.69656409   -8.4403805    240.73063  0.014077814  0.013473654            4 
 1426000   0.68939226   -8.4450203    240.30385  0.014043002  0.013461782            4 
 1427000   0.68106719   -8.4556732    240.25596  0.014030364  0.013449943            2 
 1428000   0.68593427   -8.4217988    240.28303  0.014022119  0.013438117            3 
 1429000    0.6860362   -8.4261214    240.47695  0.014023615  0.013426332            7 
 1430000   0.67888734   -8.4605054    239.92682   0.01398175  0.013414506            8 
 1431000   0.68172342     -8.42108    240.16956  0.013986115  0.013402672            4 
 1432000   0.68878924   -8.4165323    240.46505  0.013993543  0.013390862            6 
 1433000   0.66836626   -8.4490788    240.78908  0.014002622  0.013379076            3 
 1434000   0.69897049   -8.4302603    240.34697  0.013967165  0.013367284            2 
 1435000   0.68232379   -8.4491361     240.5634      0.01397  0.013355521            2 
 1436000   0.68654438   -8.4451056    240.40375  0.013951007  0.013343732            4 
 1437000   0.68285568   -8.4769324    240.49345    0.0139465  0.013331929            4 
 1438000   0.67385294   -8.4342198    239.99338  0.013907822  0.013320127            5 
 1439000   0.69236637   -8.4523862    240.31691  0.013916893  0.013308338            1 
 1440000   0.67902243   -8.4518721    240.39309  0.013911637  0.013296572            1 
 1441000   0.67864277   -8.4625684    240.69775  0.013919601  0.013284826            2 
 1442000   0.67895981   -8.4448928    240.59406  0.013903956  0.013273095            2 
 1443000   0.68326828   -8.4662177    240.69915   0.01390039  0.013261358            1 
 1444000   0.67277526   -8.4501706    240.31527   0.01386861  0.013249641            1 
 1445000   0.67932912   -8.4645321    240.12052  0.013847781   0.01323792            3 
 1446000   0.69578918   -8.4879511     240.3817  0.013853256  0.013226241            2 
 1447000   0.66906061   -8.4402405    239.94131   0.01381832  0.013214594            3 
 1448000   0.68564094   -8.4638444    239.93206  0.013808245  0.013202939       -1e+20 
 1449000   0.67976571   -8.4732427    239.38495   0.01376725  0.013191285            4 
 1450000   0.67482612   -8.4682801    240.11699  0.013799827  0.013179616            1 
 1451000    0.6728396   -8.4763931    240.11181  0.013790019   0.01316795            2 
 1452000   0.67150641   -8.4790157    239.94477  0.013770935  0.013156302            1 
 1453000   0.66870005   -8.4834112    240.19312  0.013775701  0.013144631            8 
 1454000    0.6864517   -8.4555867    240.67316  0.013793739  0.013133003            2 
 1455000   0.65672212   -8.4687495    240.54083   0.01377668  0.013121373            3 
 1456000   0.68589869   -8.4894734     240.1852  0.013746864  0.013109772            2 
 1457000   0.67676412   -8.4632376    240.32686  0.013745531   0.01309814            2 
 1458000   0.67291336   -8.4858317    239.88673  0.013710947  0.013086528            2 
 1459000   0.67172736   -8.4773953    240.36081  0.013728627  0.013074929            4 
 1460000   0.66985218   -8.4752017    239.80812  0.013687678  0.013063327            2 
 1461000   0.67801217   -8.4773193    239.91634  0.013684482  0.013051723            3 
 1462000   0.65069887   -8.5171009    239.57756  0.013655812  0.013040122            5 
 1463000   0.67472163    -8.484849    240.01909  0.013671627  0.013028535            3 
 1464000   0.67188538   -8.5137043    239.96015  0.013658934   0.01301695            4 
 1465000   0.67490012   -8.4806605     239.9064  0.013646553  0.013005383            3 
 1466000   0.65424296   -8.4866102    240.20365  0.013654141  0.012993833            2 
 1467000   0.65058567   -8.4862493    239.85373  0.013624956  0.012982287            2 
 1468000   0.64947731   -8.4893367    239.95885  0.013621642  0.012970759            2 
 1469000   0.66494785   -8.4792974    240.27687   0.01363041  0.012959248            1 
 1470000   0.66249579   -8.4816102    240.02938  0.013607108   0.01294774            1 
 1471000   0.66572604   -8.4822059    239.82379  0.013586211   0.01293626            1 
 1472000   0.66177391   -8.4962811    240.09202  0.013592166  0.012924779            2 
 1473000   0.66647087   -8.4823759    240.04013  0.013580003  0.012913316            5 
 1474000   0.65264948   -8.5018475    239.66317  0.013549478  0.012901846            2 
 1475000   0.66300173   -8.4813707    239.81378  0.013548801    0.0128904            2 
 1476000   0.67830939   -8.4725321    239.68166  0.013532162  0.012878964            2 
 1477000   0.67645401   -8.4804269    240.18638  0.013551477  0.012867563            3 
 1478000   0.65804979   -8.4408416    239.98214  0.013530793  0.012856164            3 
 1479000   0.65371907   -8.4965308    239.86896  0.013515267  0.012844797            2 
 1480000   0.67718189   -8.4668126     240.1349  0.013521109  0.012833459            2 
 1481000   0.65692345   -8.4865183    239.76385  0.013491101  0.012822098            5 
 1482000   0.66114963   -8.4848128     239.7209  0.013479583  0.012810739            4 
 1483000   0.64514882   -8.5048003    239.67819  0.013468093  0.012799377            2 
 1484000   0.66433742   -8.4791257    240.02759  0.013478638  0.012788016            3 
 1485000    0.6797281    -8.485928    239.60722  0.013445972   0.01277666            2 
 1486000   0.65283041   -8.4770258    240.17357  0.013468684  0.012765325            2 
 1487000   0.66897941   -8.4824936    239.70237   0.01343322  0.012753979            2 
 1488000   0.65010465   -8.4822168    239.74234   0.01342643  0.012742639            3 
 1489000   0.65727123   -8.5066608     239.8074  0.013421054  0.012731331            1 
 1490000   0.66304556   -8.5154596    239.80415  0.013411865  0.012720028            2 
 1491000   0.65360546   -8.4990541    239.75787  0.013400283  0.012708717            2 
 1492000   0.66692387   -8.4964638    240.24268   0.01341838  0.012697408           10 
 1493000   0.65504017   -8.5052159    239.71327  0.013379843  0.012686104            1 
 1494000   0.63654109    -8.506921    239.62393  0.013365904  0.012674817            2 
 1495000   0.65700459   -8.5035936    239.24395  0.013335783  0.012663545            2 
 1496000   0.67014764   -8.5216105    240.03208  0.013370771  0.012652294            3 
 1497000   0.66330687   -8.4939425    239.81844  0.013349946  0.012641046            2 
 1498000    0.6536627   -8.5055691    239.62089  0.013330045  0.012629836            2 
 1499000   0.65512532   -8.5075509    239.85638  0.013334244  0.012618603            1 
 1500000   0.65008304   -8.5184525    239.60871  0.013311595  0.012607411            2 
 1501000   0.64289178   -8.5055635    239.71006  0.013308354  0.012596227            1 
 1502000   0.65446656   -8.5012324    239.69498  0.013298656  0.012585065            1 
 1503000   0.63645986   -8.4942567    239.96787  0.013304939  0.012573902            1 
 1504000   0.64416365   -8.5235965    239.41163  0.013265272  0.012562736            1 
 1505000   0.63902997   -8.5269572    239.32049  0.013251411  0.012551564            3 
 1506000   0.65347743   -8.4973028    239.94698  0.013277278  0.012540415            4 
 1507000   0.63504957   -8.5012251    239.61474  0.013250096  0.012529243            1 
 1508000   0.64551472   -8.5317058     239.7608  0.013249381   0.01251808            1 
 1509000   0.64958583   -8.5101285     239.9227  0.013249541  0.012506939            4 
 1510000   0.65584789   -8.5147098    239.46557  0.013215539  0.012495817            2 
 1511000   0.66590836   -8.5119833    240.22719  0.013248797  0.012484696            2 
 1512000   0.64759186   -8.4969655    239.80922  0.013216999  0.012473597            1 
 1513000    0.6407736   -8.4912769    239.94592  0.013215792   0.01246252            3 
 1514000   0.65317049   -8.5201822    239.74145  0.013195808   0.01245145            1 
 1515000   0.65173936   -8.5248889    239.83023  0.013191982  0.012440393            4 
 1516000   0.65341206   -8.5229549    239.75329  0.013179051  0.012429358            2 
 1517000   0.64641916   -8.5235764     239.8725  0.013176912  0.012418325            3 
 1518000   0.64256912   -8.5287476    239.86616  0.013167883    0.0124073            3 
 1519000   0.64456393   -8.5185597    240.19299  0.013177145  0.012396265            3 
 1520000   0.65124833   -8.5146249    239.87025  0.013150781  0.012385253            2 
 1521000   0.66163381    -8.513423    240.25925  0.013163448  0.012374253            3 
 1522000   0.64609323   -8.5198087    239.44928  0.013110451  0.012363274            2 
 1523000   0.65438648   -8.5112594    239.59358  0.013109738  0.012352303            2 
 1524000   0.65294812   -8.5324898    239.61588  0.013102356  0.012341314            2 
 1525000   0.64234192   -8.5499043    239.67017  0.013096731   0.01233037            2 
 1526000   0.65512383   -8.5493571    239.58769  0.013083644  0.012319409            3 
 1527000   0.65055398   -8.5097781    239.45134  0.013067635  0.012308467            3 
 1528000   0.64496934    -8.519064    239.62828  0.013068733  0.012297549            2 
 1529000   0.64895099   -8.5328755    239.81112  0.013070151  0.012286624            2 
 1530000   0.63716438   -8.5140295    239.54483  0.013047104  0.012275703            1 
 1531000   0.63996375   -8.5346292    239.45815  0.013033864  0.012264806            1 
 1532000   0.65541871   -8.5201396    239.66145  0.013036415  0.012253927            4 
 1533000   0.63949373   -8.5272923    239.64452  0.013026991  0.012243054            1 
 1534000   0.63598477   -8.5336911    240.07903  0.013042103  0.012232174            3 
 1535000   0.63479152   -8.5251289    239.83469  0.013020342  0.012221322            2 
 1536000   0.64652815   -8.5387654    239.68749  0.013003879  0.012210469            7 
 1537000   0.62993817   -8.5406627    239.64261  0.012992985  0.012199608            3 
 1538000   0.63337126   -8.5256699    239.84643  0.012995581  0.012188766            2 
 1539000   0.63311912   -8.5514589    239.39838  0.012962875  0.012177925            8 
 1540000   0.64036897   -8.5474269    239.77765  0.012974981   0.01216708            2 
 1541000   0.64697602    -8.545294    239.32431  0.012942046  0.012156253            4 
 1542000   0.63917928   -8.5543184    239.12321  0.012922785  0.012145437            1 
 1543000   0.64782788   -8.5367742    239.25121  0.012921323  0.012134646            2 
 1544000   0.63041766   -8.5454717     239.3998  0.012920973  0.012123844            5 
 1545000   0.61980873   -8.5478843    239.71256   0.01292948  0.012113043            9 
 1546000   0.65374446    -8.539416    239.71615   0.01292131  0.012102279            3 
 1547000   0.62204439   -8.5669631    238.91297  0.012869693  0.012091502            7 
 1548000   0.62906902   -8.5495872    239.50059  0.012893012  0.012080728            3 
 1549000    0.6321253    -8.559608    239.37215  0.012877779  0.012069952            2 
 1550000   0.63170442   -8.5649216    239.22974  0.012861814  0.012059199            3 
 1551000   0.64604265   -8.5591062    239.08756  0.012845882  0.012048442            3 
 1552000   0.63507533   -8.5485252    239.56746  0.012863373  0.012037702            6 
 1553000   0.63706949   -8.5489881    239.06558   0.01282816  0.012026981            2 
 1554000   0.65407612   -8.5680127     239.0349   0.01281826  0.012016243            2 
 1555000   0.63753973   -8.5899685    239.00692  0.012808517  0.012005523            4 
 1556000   0.63107226   -8.5814589    238.76329  0.012787237    0.0119948            4 
 1557000   0.63028478   -8.5792183    239.01128  0.012792297  0.011984086            5 
 1558000   0.64399255    -8.565717    239.76752  0.012824536  0.011973393            4 
 1559000   0.63233351   -8.5799216    239.28297  0.012790409    0.0119627            3 
 1560000   0.63146977   -8.5693709    239.21051  0.012778339  0.011952035            2 
 1561000   0.62625189   -8.5577625    239.17488  0.012768251  0.011941377            3 
 1562000   0.63084228   -8.5678932    238.93393  0.012747222  0.011930714            3 
 1563000   0.62094297   -8.5923598    238.96028  0.012740471  0.011920073            4 
 1564000   0.62543127   -8.5941263    238.69659  0.012718275  0.011909419            2 
 1565000    0.6198615   -8.5710327    238.86903  0.012719331  0.011898778            4 
 1566000   0.63694888   -8.5621181    239.23221  0.012730535   0.01188815            1 
 1567000   0.62963761   -8.5720656    239.08973  0.012714834  0.011877522            2 
 1568000   0.61966149   -8.5877077    239.15427  0.012710155  0.011866898            2 
 1569000   0.62643884   -8.5710255    239.28869  0.012709193  0.011856294            1 
 1570000   0.62975879   -8.5864261    239.07984  0.012690013  0.011845698            1 
 1571000   0.63515248   -8.5649285    239.39328  0.012698562  0.011835105            2 
 1572000   0.63108063   -8.5910362    239.25163  0.012682974  0.011824558            1 
 1573000   0.63472767    -8.583642    239.41903   0.01268378  0.011814001            2 
 1574000   0.63606104   -8.5767073    239.23664  0.012666065  0.011803448            4 
 1575000   0.62189818   -8.5682524    238.96885  0.012643855  0.011792914            1 
 1576000   0.61763833   -8.5925897    239.05594  0.012640437  0.011782386            4 
 1577000   0.63081612   -8.5919009    238.66573  0.012611801  0.011771883            1 
 1578000   0.61318116   -8.5708484    239.58568  0.012652391   0.01176138            2 
 1579000   0.62126769   -8.5878658    239.08079  0.012617732  0.011750892            2 
 1580000   0.63139325    -8.579924    239.04316  0.012607761  0.011740405            3 
 1581000   0.62676591   -8.5729751    238.92574  0.012593598  0.011729924            1 
 1582000   0.62084643   -8.5810908    238.71057  0.012574303  0.011719456            2 
 1583000   0.61220563   -8.5997164    238.64156  0.012562727   0.01170898            3 
 1584000   0.63065892   -8.6059575    238.79011  0.012562611  0.011698509            2 
 1585000   0.62809551   -8.5864331    238.85359  0.012558023  0.011688061            3 
 1586000   0.62290968   -8.6026479    239.31482  0.012574339  0.011677633            1 
 1587000    0.6187021   -8.5912805     239.1399   0.01255723  0.011667196            2 
 1588000   0.62585807    -8.583247    238.99748  0.012541849  0.011656765            3 
 1589000   0.62461638   -8.5925876    238.80819  0.012524029  0.011646346            2 
 1590000   0.61181274   -8.6125678    238.78673  0.012515028   0.01163592            2 
 1591000   0.62523977   -8.6241422    239.00038  0.012518352  0.011625512            2 
 1592000   0.60894615   -8.6174186     238.6761  0.012493515  0.011615091            4 
 1593000   0.62129327   -8.6183056    238.59016  0.012481176  0.011604693            3 
 1594000   0.61824384    -8.597596    238.60749  0.012474252  0.011594299            1 
 1595000   0.61735767    -8.598885    238.38921  0.012455026  0.011583943            1 
 1596000   0.60078124     -8.62407    238.56013  0.012456147  0.011573563            1 
 1597000   0.62146708   -8.6109594    238.47529   0.01244392  0.011563205            2 
 1598000   0.61751144   -8.6144725    238.48964  0.012436881  0.011552864            3 
 1599000   0.61432363   -8.5889552     238.3869  0.012423749  0.011542526            2 
 1600000   0.62447462   -8.6071793    239.01405  0.012448649    0.0115322            2 
 1601000   0.61387258   -8.6173266    238.75437  0.012427356  0.011521889            4 
 1602000   0.61005019   -8.6144756    238.60104  0.012411623  0.011511578            1 
 1603000   0.61482196   -8.6180908    238.68667  0.012408332  0.011501293            2 
 1604000   0.61219452   -8.5721873    239.07387  0.012420712  0.011491029            2 
 1605000   0.62281241   -8.6059186    238.54341  0.012385431  0.011480764            2 
 1606000   0.61088461   -8.6013595    238.42148  0.012371393  0.011470511            3 
 1607000   0.61577653   -8.6174611    238.93125  0.012390129  0.011460266            3 
 1608000   0.61769562   -8.6049738    239.20312  0.012396513  0.011450039            2 
 1609000   0.60809498   -8.6067543    238.40403  0.012347422   0.01143982            4 
 1610000   0.61482928   -8.6098048    238.75387  0.012357861  0.011429616            3 
 1611000   0.59694404   -8.6195201    238.88547  0.012356997  0.011419395            2 
 1612000   0.61278232   -8.6500041    238.22538  0.012315208  0.011409184            3 
 1613000    0.6182005   -8.6327754    238.60502  0.012327187  0.011398988            2 
 1614000   0.62038917   -8.6217232    238.66159  0.012322469  0.011388812            2 
 1615000   0.60411372   -8.6103466    238.53168  0.012308136  0.011378644            6 
 1616000   0.61183703   -8.6336144    238.18027  0.012282398  0.011368475            3 
 1617000   0.60798399   -8.6477108    238.51816  0.012292216  0.011358329            3 
 1618000    0.6030642   -8.6393408     238.7534  0.012296735  0.011348201            1 
 1619000   0.60123341    -8.645165    238.45407  0.012273732  0.011338087            5 
 1620000   0.60726042    -8.619982    238.41149  0.012263966  0.011327973            2 
 1621000   0.60510707   -8.6132171    238.31103  0.012251235  0.011317877            2 
 1622000   0.60096434   -8.6441756    238.42633  0.012249606  0.011307784            3 
 1623000    0.6329728   -8.6135914    238.88421  0.012265568  0.011297727            4 
 1624000   0.60425878   -8.6379154    238.25298  0.012225625  0.011287675            3 
 1625000    0.6023694   -8.6451762    238.79628  0.012245963   0.01127763            2 
 1626000   0.60410153   -8.6191556     238.8327  0.012240298  0.011267601            3 
 1627000   0.61764464   -8.6366376    238.29651  0.012205312  0.011257575            4 
 1628000   0.59969121   -8.6079989    238.80198  0.012223689  0.011247555            4 
 1629000   0.60029187   -8.6117137    238.70577  0.012211263  0.011237562            3 
 1630000   0.59504387   -8.6557071     238.0656  0.012171043  0.011227561            2 
 1631000   0.58689771   -8.6343359    237.76913  0.012148433  0.011217555            4 
 1632000   0.59148464   -8.6303757    238.72771  0.012189936  0.011207555            7 
 1633000   0.58690876    -8.631887    238.69211  0.012180655  0.011197569            3 
 1634000   0.59222239   -8.6394535    238.49435  0.012163115  0.011187602            8 
 1635000   0.60544585   -8.6355943     238.7075  0.012166539  0.011177655            2 
 1636000   0.60166741   -8.6500946    238.55382  0.012151274  0.011167699            2 
 1637000   0.59947545   -8.6459801    238.46092  0.012139122  0.011157759            3 
 1638000   0.59785123   -8.6207433     238.8988  0.012153989  0.011147829            6 
 1639000   0.59826653   -8.6443153    238.05556  0.012103699  0.011137898            1 
 1640000   0.59826972   -8.6496523    238.43008   0.01211535  0.011127971            3 
 1641000   0.59843428   -8.6351296    238.17804  0.012095167  0.011118061            4 
 1642000   0.60691897   -8.6404336    238.48965  0.012103616  0.011108155            2 
 1643000   0.60877577   -8.6478205    238.29578  0.012086416  0.011098264            2 
 1644000   0.59380367   -8.6406266     238.2637  0.012077438   0.01108838            4 
 1645000    0.5992713   -8.6555182    238.22967  0.012068372  0.011078502            2 
 1646000     0.586829    -8.645642    238.09147  0.012054044  0.011068632            3 
 1647000   0.59227258   -8.6381644    238.14099  0.012049231  0.011058767            5 
 1648000   0.60508372   -8.6404951    238.51444  0.012060803  0.011048923            4 
 1649000   0.60038468   -8.6658973    237.78454  0.012016603  0.011039064            3 
 1650000   0.58777681    -8.672453    238.03858   0.01202215  0.011029207            3 
 1651000   0.60007514   -8.6495615    238.30816  0.012028476  0.011019383            3 
 1652000   0.59972924   -8.6661492    238.20597  0.012016039  0.011009569            5 
 1653000   0.58678137   -8.6464557    237.69427  0.011982974  0.010999759            3 
 1654000   0.58275436   -8.6491334    237.99576  0.011990919  0.010989962            2 
 1655000   0.59588145   -8.6573552    237.83721   0.01197569  0.010980182            2 
 1656000    0.6003974   -8.6560914    238.29114  0.011991301  0.010970413            1 
 1657000   0.58782227   -8.6609358     238.1992  0.011979441  0.010960642            1 
 1658000   0.59211891   -8.6718708    238.21248  0.011972883  0.010950888            2 
 1659000   0.57593692   -8.6557889    238.24695  0.011967397  0.010941154            1 
 1660000   0.59089791   -8.6760438    238.13328  0.011954482  0.010931439            1 
 1661000   0.58985565   -8.6660538    238.31611  0.011956457  0.010921726            6 
 1662000   0.58732451   -8.6484694    237.77169  0.011921966  0.010912016            3 
 1663000   0.58031199   -8.6581526     238.1824  0.011935378  0.010902291            2 
 1664000   0.58578276   -8.6806401    238.09327  0.011923742  0.010892586            3 
 1665000   0.58613398   -8.6599705    237.99018  0.011911421   0.01088289            3 
 1666000   0.58725005   -8.6730941    238.15581  0.011912555  0.010873197            3 
 1667000   0.58968003   -8.6596468    238.34855  0.011915044  0.010863524            1 
 1668000   0.59410654   -8.6857592    237.64109  0.011872557  0.010853866            3 
 1669000   0.59111148   -8.6784275    237.98625  0.011882677  0.010844205            3 
 1670000   0.58521781   -8.6687148    238.22021  0.011887236  0.010834554            2 
 1671000   0.58535735   -8.6596362    237.83368  0.011860846  0.010824909            1 
 1672000   0.59473838   -8.6700487    238.02852  0.011863463  0.010815281            2 
 1673000   0.59068393   -8.6675666    238.12795  0.011861325  0.010805673            2 
 1674000    0.5905687   -8.6717252    238.02867  0.011849297  0.010796066            1 
 1675000   0.59328146   -8.6711144    237.86449  0.011834054  0.010786465            2 
 1676000   0.58575012   -8.6637885    237.72079  0.011819849  0.010776866            2 
 1677000   0.57321491   -8.6645514    238.04091  0.011828707  0.010767284            2 
 1678000   0.58601586   -8.6736874    237.85092  0.011812223  0.010757711            2 
 1679000   0.58834526    -8.657729    238.06969  0.011816046  0.010748148            4 
 1680000   0.58453263   -8.6752595    238.22935  0.011816932  0.010738617            2 
 1681000   0.58485876   -8.6835883    237.64202  0.011780786   0.01072908            3 
 1682000   0.57872646    -8.646887    238.27506  0.011805146  0.010719567            5 
 1683000   0.58405129    -8.675776    238.33498  0.011801098  0.010710072            2 
 1684000   0.57967288   -8.6735128    237.79553  0.011767396   0.01070058            2 
 1685000   0.56655223   -8.6842153     238.0742  0.011774194  0.010691093            2 
 1686000   0.57396015   -8.6694375    237.99259  0.011763177  0.010681618            1 
 1687000   0.58725382   -8.6805666    237.86628  0.011749965  0.010672148            2 
 1688000   0.58644688   -8.6650242    238.05773  0.011752455   0.01066269            3 
 1689000   0.56553311   -8.6712328    238.17222  0.011751145  0.010653251            2 
 1690000   0.57020362   -8.6774879    237.95986  0.011733721  0.010643796            2 
 1691000   0.58090227   -8.6742431    237.97545   0.01172755  0.010634367            4 
 1692000   0.58447641   -8.6900906    238.21624  0.011732478  0.010624948            2 
 1693000   0.57822468   -8.6858076    238.03643  0.011716698  0.010615543            2 
 1694000   0.58463785   -8.6778128    237.88915  0.011702536  0.010606139            1 
 1695000    0.5658481   -8.6668842    238.06419  0.011704237  0.010596756            2 
 1696000   0.56989278   -8.6653212    238.05851  0.011697057  0.010587378            3 
 1697000   0.58854833    -8.663679    238.00599  0.011687586  0.010578022            3 
 1698000    0.5686971   -8.6833657    237.62371  0.011661941   0.01056867            2 
 1699000   0.58410891   -8.6814174    238.29493  0.011687999  0.010559334            2 
 1700000   0.57897785   -8.6690227    238.10717   0.01167192  0.010549998            2 
 1701000   0.57667702   -8.6911875    237.91932  0.011655855  0.010540678            3 
 1702000   0.56407833   -8.6706602    238.04623  0.011655221  0.010531356            2 
 1703000   0.56782855   -8.6905395    237.82058  0.011637335  0.010522048            6 
 1704000   0.60596385   -8.6779079    237.69797  0.011624509   0.01051275            2 
 1705000   0.58045959   -8.6920785     237.7189  0.011618714  0.010503454            2 
 1706000   0.58012168   -8.6928247    237.69841  0.011610903  0.010494158            2 
 1707000   0.57484605   -8.6774812     237.5194  0.011595362  0.010484879            3 
 1708000   0.56945975   -8.6887192     237.6626   0.01159556  0.010475619            1 
 1709000   0.56252101   -8.6813523    237.65484  0.011588397  0.010466374            2 
 1710000   0.58106395   -8.7068563    237.67866  0.011582781  0.010457131            6 
 1711000   0.56659274   -8.6937585    237.80737   0.01158228  0.010447905            2 
 1712000   0.55625446   -8.7036554    237.50405   0.01156075  0.010438673            3 
 1713000   0.57038537   -8.6831685    237.44992  0.011551368  0.010429475            5 
 1714000   0.56728231    -8.685517    238.03946  0.011573291  0.010420281            2 
 1715000   0.57474244   -8.6733123    238.17597  0.011573177  0.010411104            7 
 1716000   0.55688942   -8.6845081    237.91646   0.01155383  0.010401933            3 
 1717000   0.56521223   -8.6821689    237.65989  0.011534648  0.010392775            4 
 1718000   0.57521026   -8.6815721    238.14494  0.011551462  0.010383635            7 
 1719000   0.57197863   -8.6748852    237.76816  0.011526477  0.010374501            2 
 1720000   0.56281082   -8.6882937    237.81432  0.011522011  0.010365382            2 
 1721000   0.56070059   -8.6867538    237.50256  0.011500221  0.010356264            3 
 1722000   0.56891322   -8.6837116     237.7193  0.011504031  0.010347138            2 
 1723000   0.57379649   -8.7073687    237.54387   0.01148887  0.010338022            3 
 1724000   0.56630544   -8.6998094    237.41647  0.011476047  0.010328924            1 
 1725000   0.56716748   -8.6947276    237.88487  0.011492022  0.010319823            4 
 1726000   0.57130327   -8.6964022    237.88081  0.011485169   0.01031075            4 
 1727000   0.55634889   -8.6861066    238.19745  0.011493797  0.010301686            3 
 1728000     0.566654   -8.7208406     237.5836  0.011457543  0.010292629            3 
 1729000    0.5561172   -8.7081243    237.85893  0.011464186  0.010283579            3 
 1730000   0.55660127   -8.6948702     237.8177  0.011455573  0.010274525            1 
 1731000   0.57062507   -8.6958268    237.55813  0.011436459  0.010265477            4 
 1732000   0.56105654   -8.6932126    237.27263  0.011416119   0.01025645            2 
 1733000   0.56769343   -8.7027743    237.57819  0.011424225  0.010247427            4 
 1734000   0.55286342    -8.706056    237.58159    0.0114178  0.010238409            3 
 1735000   0.55616599   -8.7180474    237.63245  0.011413662  0.010229395            3 
 1736000   0.56271696   -8.7160852    237.69045  0.011409872  0.010220386            3 
 1737000   0.55574342   -8.6971817    237.40461   0.01138959   0.01021139            1 
 1738000   0.55965569    -8.706864    237.62407  0.011393559  0.010202398            4 
 1739000   0.54920383   -8.7139695    237.52668  0.011382341  0.010193419            1 
 1740000    0.5526031   -8.6990998    237.64678  0.011381551  0.010184448            5 
 1741000    0.5634608   -8.6956472     237.9199  0.011388086  0.010175487            3 
 1742000   0.56083641   -8.7135264    237.38353   0.01135589  0.010166538            2 
 1743000   0.55610775   -8.6947578    237.29449  0.011345118  0.010157603            3 
 1744000   0.55283139    -8.706992    237.49637  0.011348259  0.010148674            2 
 1745000   0.56523131   -8.7160819     237.7909  0.011355822  0.010139754            3 
 1746000   0.55902113   -8.7256514    237.72286   0.01134607  0.010130848            2 
 1747000   0.55005875   -8.7165566     237.7661  0.011341638  0.010121942            1 
 1748000   0.55298726   -8.7311116    237.67725  0.011330914  0.010113055            3 
 1749000   0.56964843      -8.7074     237.0697  0.011295488   0.01010418            1 
 1750000   0.54984898   -8.7203643    237.67446  0.011317831  0.010095313            4 
 1751000   0.55307698    -8.712545    237.32734  0.011294848  0.010086449            1 
 1752000   0.56330899    -8.696648      237.442  0.011293855  0.010077599            3 
 1753000    0.5489854   -8.7213382    237.33033  0.011282104  0.010068755            3 
 1754000   0.55181206   -8.7262533    237.32297  0.011275322   0.01005992            2 
 1755000   0.55197501   -8.7136865    237.61531  0.011282778  0.010051095            3 
 1756000    0.5472543   -8.7177129      237.123   0.01125299  0.010042268            3 
 1757000   0.54275313   -8.7145873    237.44512  0.011261863  0.010033468            3 
 1758000   0.54947097   -8.7125554    237.02801  0.011235685  0.010024674            1 
 1759000   0.54377659   -8.7131717    236.87345  0.011221975  0.010015891            2 
 1760000     0.551634   -8.7288442    237.47118  0.011243901  0.010007107            2 
 1761000   0.54299317   -8.7110079    237.73388  0.011249947 0.0099983331            4 
 1762000   0.54713014    -8.730282    237.19833  0.011218234 0.0099895634            4 
 1763000   0.55074341   -8.7145302    237.52432  0.011227279 0.0099808078            5 
 1764000   0.55494376    -8.728037    236.79704  0.011186557 0.0099720584            4 
 1765000   0.54652653   -8.7261008    237.34224   0.01120596 0.0099633232            3 
 1766000   0.54603913   -8.7249851    237.59759  0.011211664 0.0099546008            3 
 1767000   0.55041331   -8.7237716    237.18103  0.011185674 0.0099458926            3 
 1768000   0.54568192   -8.7284719    237.46387  0.011192678 0.0099371792            5 
 1769000   0.54370481   -8.7481706     236.7593  0.011153161 0.0099284827            3 
 1770000   0.54415218   -8.7282594    237.20338  0.011167767 0.0099197895            3 
 1771000   0.53671973    -8.731258    237.32556  0.011167211 0.0099111112            5 
 1772000   0.53982753   -8.7383849     237.4045  0.011164621 0.0099024473            2 
 1773000   0.54549032   -8.7165734     237.5702  0.011166112 0.0098937964            2 
 1774000   0.54664661    -8.710715    237.69232  0.011165554 0.0098851656            1 
 1775000    0.5425371   -8.7242179    237.33048  0.011142276 0.0098765421            3 
 1776000   0.54868695   -8.7447874    237.31059  0.011135069  0.009867923            5 
 1777000   0.54723264   -8.7382393     237.0462  0.011116404 0.0098593093            2 
 1778000   0.54227758   -8.7130538    237.07865  0.011111673 0.0098506961            2 
 1779000   0.53874202   -8.7325896    236.92547  0.011098251 0.0098420913            2 
 1780000   0.53344109   -8.7297408    237.12359  0.011101292 0.0098334971            6 
 1781000   0.54079475   -8.7355243    237.33801  0.011105091 0.0098249155            2 
 1782000    0.5387191   -8.7404465    237.30426  0.011097281 0.0098163413            3 
 1783000   0.55058396   -8.7330026    237.41244  0.011096113 0.0098077765            2 
 1784000   0.53881623   -8.7367405    237.44348  0.011091344 0.0097992209            2 
 1785000   0.54634245   -8.7535024    237.10557  0.011069354  0.009790665            2 
 1786000   0.53470715   -8.7453543    237.24053  0.011069454 0.0097821131            6 
 1787000   0.54266514   -8.7308324     237.0726  0.011055428 0.0097735818            3 
 1788000    0.5269474   -8.7620536     236.9727  0.011044589 0.0097650588            2 
 1789000   0.52542131   -8.7377621    237.27291    0.0110524 0.0097565362            3 
 1790000    0.5434094   -8.7227081    237.44296  0.011054142  0.009748039            2 
 1791000   0.53464784   -8.7477071    237.32529  0.011042495 0.0097395453            2 
 1792000   0.53114641   -8.7439688     237.4199  0.011040732 0.0097310487            4 
 1793000   0.53221874   -8.7435349    237.31003  0.011029468 0.0097225674            2 
 1794000   0.53761575   -8.7402903    236.78352  0.010998863  0.009714102            3 
 1795000   0.53441539   -8.7332858    237.45423  0.011023873 0.0097056496            2 
 1796000   0.53387721   -8.7399867    237.29117  0.011010169 0.0096972016            5 
 1797000   0.54891479   -8.7412445    236.93654  0.010987597 0.0096887648            4 
 1798000   0.55098665   -8.7419815    237.04455  0.010986492  0.009680336            2 
 1799000   0.52880263   -8.7591699    237.18874  0.010987064 0.0096719157            3 
 1800000   0.53024989   -8.7473765    237.15656   0.01097947   0.00966352            2 
 1801000   0.52864381   -8.7301227    237.29716   0.01097988 0.0096551178            2 
 1802000   0.52935556   -8.7447965    237.05423  0.010962552  0.009646722            5 
 1803000   0.52979411   -8.7558138    237.01607  0.010954709 0.0096383371            4 
 1804000   0.53437738   -8.7667139    236.81955  0.010939558 0.0096299513            7 
 1805000   0.54117707   -8.7788062    237.11042  0.010946926 0.0096215856            4 
 1806000   0.53831307   -8.7592431    236.94631  0.010933292 0.0096132281            2 
 1807000   0.53028065    -8.762685    237.36236  0.010946429  0.009604875            7 
 1808000   0.53311004   -8.7518409     237.2148  0.010933573 0.0095965366            2 
 1809000   0.52893107   -8.7730132    236.98687  0.010917029 0.0095882063            5 
 1810000   0.53029317    -8.763144    236.85722  0.010905029 0.0095798812            3 
 1811000    0.5310744   -8.7583272     236.9394  0.010902789 0.0095715645            2 
 1812000   0.53337968   -8.7573599    236.82341  0.010891437 0.0095632568            2 
 1813000   0.54513415   -8.7571237    236.78414  0.010883625  0.009554965            2 
 1814000   0.52800939   -8.7724654    236.68879  0.010873244  0.009546678            2 
 1815000   0.52041764   -8.7453602    236.69469  0.010867525 0.0095383978            4 
 1816000   0.51801182   -8.7744315       237.04  0.010877386 0.0095301242            3 
 1817000   0.51996851   -8.7556143    236.88807  0.010864432 0.0095218572            3 
 1818000   0.52038335   -8.7644467    237.06562  0.010866594 0.0095136085            4 
 1819000   0.53589093   -8.7338889    237.07117  0.010860875 0.0095053676            1 
 1820000   0.52284436   -8.7642853    236.89925  0.010847035 0.0094971408            2 
 1821000   0.53506157   -8.7797473     237.0469  0.010847835 0.0094889075            3 
 1822000   0.52848588   -8.7692817    236.93015  0.010836542  0.009480684            4 
 1823000   0.52221113   -8.7805297    236.89844  0.010829148 0.0094724734            3 
 1824000   0.53200902   -8.7542531    237.18839  0.010836458  0.009464274            1 
 1825000    0.5146996   -8.7813765    237.20101  0.010831096 0.0094560764            3 
 1826000   0.52396717   -8.7696342    236.77301  0.010805632 0.0094478829            2 
 1827000   0.51894591   -8.7847233    236.58545  0.010791163 0.0094396974            2 
 1828000   0.52389052   -8.7747455    236.80433  0.010795238 0.0094315262            1 
 1829000   0.51552625   -8.7904382    236.69668  0.010784431 0.0094233654            3 
 1830000   0.51779547   -8.7589162    237.24272  0.010803402 0.0094152181            4 
 1831000   0.51583691    -8.766558    237.24484  0.010797599 0.0094070753            2 
 1832000   0.52265967   -8.7713877    237.03608  0.010782209 0.0093989431            4 
 1833000   0.52242738   -8.7742358    237.13792  0.010780957 0.0093908224            2 
 1834000   0.52694653   -8.7693687    236.77263   0.01075848 0.0093827047            2 
 1835000   0.53011934   -8.7646618    236.93411   0.01075995 0.0093745971            2 
 1836000   0.51196732   -8.7709793    236.76553  0.010746438 0.0093664918            2 
 1837000   0.50811017   -8.7707464       236.56  0.010731265 0.0093583994            2 
 1838000   0.53093035   -8.7777577    236.62071  0.010728179 0.0093503168            2 
 1839000   0.52004538   -8.7843266    236.67537  0.010724822 0.0093422447            3 
 1840000   0.51325241   -8.7787389    237.06447  0.010736615 0.0093341833            2 
 1841000   0.52477893    -8.779532    237.04592  0.010729944 0.0093261343            4 
 1842000   0.52152794     -8.79317    236.86838  0.010716087 0.0093180854            3 
 1843000    0.5247578   -8.7759757    236.61439  0.010698788 0.0093100397            3 
 1844000   0.52129527   -8.7790549    237.09704  0.010714798 0.0093020032            5 
 1845000   0.51967225   -8.7714585    236.63005  0.010687898 0.0092939928            3 
 1846000   0.51721394   -8.7879826    237.07948  0.010702396 0.0092859823            2 
 1847000   0.52117343   -8.7842237    236.61194  0.010675507 0.0092779848            2 
 1848000   0.52095219   -8.7705888    237.23079  0.010697637 0.0092699995            3 
 1849000   0.51782785   -8.7917374    236.60047  0.010663443 0.0092620221            2 
 1850000   0.50771855   -8.7841026     236.6931  0.010661851 0.0092540508            4 
 1851000   0.49906352   -8.7989945    236.49188  0.010647032 0.0092460814            2 
 1852000   0.51140468    -8.793162    236.70392  0.010650825 0.0092381238            2 
 1853000   0.52366482   -8.7854898    236.58358  0.010639664 0.0092301704            4 
 1854000   0.53030781   -8.7601404    236.82698  0.010644866 0.0092222311            3 
 1855000   0.50851624    -8.805062    236.76996  0.010636566 0.0092142919            2 
 1856000   0.51743526   -8.8000872    236.33885  0.010611478 0.0092063696            5 
 1857000   0.51709602   -8.7873412    236.98778  0.010634885 0.0091984553            6 
 1858000   0.50052819   -8.7865561    236.41974  0.010603684 0.0091905475            5 
 1859000   0.50893376   -8.7986011    236.81741  0.010615806 0.0091826504            2 
 1860000   0.50406125   -8.7960946    236.70356  0.010604998 0.0091747616            3 
 1861000    0.5039944   -8.7647338      236.591  0.010594259 0.0091668854            3 
 1862000   0.51405669   -8.7947582    236.60038  0.010588989 0.0091590173            3 
 1863000   0.49902825   -8.7681788    236.90433  0.010596901 0.0091511553            5 
 1864000   0.50865048   -8.7893332    236.65156  0.010579916 0.0091432891            2 
 1865000   0.52064501   -8.7867798    236.83165   0.01058229 0.0091354392            2 
 1866000    0.5151461   -8.7728736    236.54958  0.010564022 0.0091276043            2 
 1867000     0.507548   -8.8013255    236.49982  0.010556142  0.009119767            4 
 1868000    0.5030095   -8.8000545    236.35608  0.010544079 0.0091119308            3 
 1869000     0.517213   -8.7864669    236.65659  0.010551837 0.0091041077            3 
 1870000    0.5114467   -8.7816108    236.69825  0.010548051 0.0090962961            4 
 1871000   0.51814099    -8.785671    236.47536  0.010532485 0.0090884962            2 
 1872000   0.50429425   -8.7815399      236.844  0.010543269 0.0090807039            3 
 1873000   0.50744655     -8.80962    236.47397  0.010521177 0.0090729228            4 
 1874000   0.50081286   -8.8364137    236.72273  0.010526625 0.0090651428            3 
 1875000   0.50146577   -8.8003336    236.33726  0.010503878 0.0090573791            5 
 1876000   0.50261078   -8.7900508     235.9586  0.010481459 0.0090496148            3 
 1877000   0.49531571   -8.8186897    236.27822  0.010490065 0.0090418687            3 
 1878000   0.51541662   -8.8140861    236.22447  0.010482094 0.0090341197            3 
 1879000   0.50088272   -8.8081496    236.78952  0.010501575 0.0090263783            2 
 1880000   0.49243907   -8.8071612    236.87323    0.0104997 0.0090186579            3 
 1881000   0.50970559   -8.8085388    236.28073  0.010467869  0.009010938            3 
 1882000   0.50792709   -8.8132558    236.48608  0.010471399 0.0090032256            2 
 1883000   0.49560869   -8.8089953    236.51976  0.010467329 0.0089955196            2 
 1884000   0.50427388   -8.8108008      236.467  0.010459439 0.0089878273            2 
 1885000   0.50047196   -8.8140529     236.6132  0.010460354 0.0089801332            2 
 1886000   0.50717622   -8.7996665      236.564  0.010452633 0.0089724571            4 
 1887000    0.5014852   -8.8028767     236.3499  0.010437639 0.0089647788            3 
 1888000   0.49988984   -8.8054512    236.34457  0.010431876 0.0089571089            2 
 1889000   0.49689963   -8.8138757    236.44998  0.010431003 0.0089494543            2 
 1890000   0.49257833   -8.8096144    236.57127  0.010430832 0.0089418102            4 
 1891000   0.49807911   -8.8179335    236.30486  0.010413576 0.0089341673            2 
 1892000   0.49390922    -8.822628    236.57907   0.01042015 0.0089265375            3 
 1893000   0.49997539   -8.8213653    236.00786  0.010389499 0.0089189205            7 
 1894000   0.51303883   -8.8245727    236.37931  0.010400357 0.0089113001            2 
 1895000    0.4790767   -8.8145767    236.37289  0.010394586 0.0089036881            3 
 1896000   0.49251265   -8.8265787     236.4991  0.010394651 0.0088960866            2 
 1897000    0.4930374   -8.8381383     236.3862  0.010384212 0.0088884855            2 
 1898000   0.49269646   -8.8143693    236.44325  0.010381246 0.0088808942            3 
 1899000   0.48842313   -8.8154387    236.10442   0.01036091 0.0088733155            3 
 1900000   0.49225961   -8.8254774     236.2692  0.010362684 0.0088657477            3 
 1901000   0.49454423   -8.8225418    236.05795  0.010347973  0.008858187            2 
 1902000   0.49977531    -8.802482    236.04735  0.010342068  0.008850636            1 
 1903000   0.48911959   -8.8204627    236.39642  0.010351919 0.0088430894            2 
 1904000   0.49455149   -8.8162619    236.20395  0.010338058 0.0088355516            4 
 1905000   0.49348438   -8.8241973    236.22612  0.010333601 0.0088280252            2 
 1906000    0.4944413   -8.8282258    236.32919  0.010332686 0.0088204981            4 
 1907000   0.49339137   -8.8179412    235.94572   0.01031051 0.0088129786            2 
 1908000   0.49256458   -8.8211724    236.42064  0.010325849 0.0088054666            5 
 1909000   0.48770885   -8.8129465     235.9036   0.01029787 0.0087979625            4 
 1910000   0.49537356   -8.8170424     236.0275  0.010297884 0.0087904718            3 
 1911000   0.48836146   -8.8270082    235.82649   0.01028373 0.0087829815            2 
 1912000   0.48706588   -8.8236996    235.74554  0.010274823 0.0087755022            4 
 1913000   0.49505197   -8.8262865    236.44046  0.010299724 0.0087680312            2 
 1914000    0.4911272   -8.7999003    236.03009  0.010276475 0.0087605714            2 
 1915000   0.48566231   -8.8321884    236.39829  0.010287132  0.008753126            4 
 1916000   0.47526258   -8.8215153    236.32752  0.010278685 0.0087456762            4 
 1917000   0.49675312   -8.8255375    236.03155  0.010260457 0.0087382324            3 
 1918000   0.49028013   -8.8321526    236.29984  0.010266764 0.0087307951            3 
 1919000   0.48550812   -8.8298804    235.85558  0.010242122 0.0087233667            2 
 1920000   0.47935292   -8.8243203    236.02464  0.010244125 0.0087159517            3 
 1921000   0.48434035   -8.8246888    236.21992  0.010247264 0.0087085446            2 
 1922000    0.4814752   -8.8219496    236.10023  0.010236743  0.008701142            2 
 1923000   0.47896982   -8.8247997    236.11264  0.010231957 0.0086937539            5 
 1924000   0.48554335   -8.8283021    236.13508  0.010227611 0.0086863769            1 
 1925000   0.49012507   -8.8444416    236.06947  0.010219458 0.0086790122            2 
 1926000   0.48210875   -8.8351451    236.46864  0.010231423 0.0086716543            3 
 1927000   0.46882248   -8.8355618    236.06067  0.010208471 0.0086643015            4 
 1928000   0.49027201    -8.842447    236.73159  0.010232175 0.0086569563            2 
 1929000   0.47344187   -8.8413037     236.0361  0.010196825 0.0086496214            2 
 1930000   0.48517796   -8.8458698    236.14313  0.010196163 0.0086422928            4 
 1931000    0.4809622    -8.832778    236.21753  0.010194093 0.0086349735            3 
 1932000   0.48705647   -8.8352803    235.84112  0.010172581 0.0086276576            2 
 1933000   0.47508937   -8.8384624    236.00795  0.010174511 0.0086203577            1 
 1934000   0.47363346   -8.8630008    236.12583  0.010174329 0.0086130616            2 
 1935000   0.48321772   -8.8436009    235.94298  0.010161196 0.0086057715            4 
 1936000   0.48225403   -8.8436861    235.89388  0.010153835 0.0085984887            2 
 1937000   0.48981999   -8.8571504    236.19039  0.010161349 0.0085912108            2 
 1938000   0.47540885   -8.8454612    236.08297  0.010151486 0.0085839393            3 
 1939000   0.49114918   -8.8439435    236.08357  0.010146277 0.0085766832            4 
 1940000   0.47799499   -8.8393977    236.06744  0.010140354 0.0085694361            1 
 1941000    0.4803316   -8.8493612    236.40354  0.010149559  0.008562198            3 
 1942000   0.46843067    -8.853386    235.94514  0.010124663 0.0085549591            3 
 1943000   0.47524624    -8.850293    236.56894  0.010146206 0.0085477338            3 
 1944000   0.48375106   -8.8524325    236.15981  0.010123449 0.0085405124            2 
 1945000   0.47863388   -8.8435382    236.23663  0.010121535 0.0085332967            3 
 1946000    0.4712265   -8.8438003    235.84543  0.010099582 0.0085260907            4 
 1947000   0.48127635   -8.8576683    235.84706  0.010094464 0.0085188902            2 
 1948000    0.4764317   -8.8434377    235.67419  0.010081887 0.0085117013            5 
 1949000   0.48453011   -8.8633251    236.10662  0.010095204 0.0085045177            2 
 1950000    0.4776701   -8.8556478    236.18803  0.010093506 0.0084973423            3 
 1951000   0.47467987    -8.842624    236.05573  0.010082681 0.0084901738            2 
 1952000   0.47337578   -8.8502781    235.95231  0.010073101 0.0084830147            1 
 1953000   0.46868772   -8.8392621    236.06814  0.010072885 0.0084758653            2 
 1954000   0.46990009   -8.8638545    235.67802  0.010051092 0.0084687211            2 
 1955000   0.47014804   -8.8591687    235.84831   0.01005321 0.0084615933            4 
 1956000   0.46437806   -8.8502066    235.73011  0.010043035 0.0084544699            3 
 1957000   0.46781045   -8.8598064    235.90303  0.010045266 0.0084473511            2 
 1958000   0.46874227   -8.8493658    236.02378  0.010045275 0.0084402403            3 
 1959000   0.46693881   -8.8599435    235.99648  0.010038986  0.008433128            3 
 1960000   0.47872743   -8.8716159    236.16629  0.010041084 0.0084260275            3 
 1961000   0.47960511   -8.8651914    235.78907  0.010019933 0.0084189424            2 
 1962000   0.46474232   -8.8690361    235.69236  0.010010718 0.0084118606            2 
 1963000    0.4730359   -8.8842355    235.80994   0.01001061 0.0084047825            1 
 1964000   0.45771284   -8.8461886    235.94463  0.010011228 0.0083977098            4 
 1965000   0.47207966   -8.8584118    235.61595 0.0099921948 0.0083906492            2 
 1966000   0.47447117   -8.8621449    235.83503 0.0099963985 0.0083836035            3 
 1967000   0.46510003   -8.8868215    235.77691  0.009988854 0.0083765609            2 
 1968000   0.47445841   -8.8643922    235.67121 0.0099793024 0.0083695199            4 
 1969000   0.47131017   -8.8610815    236.04325 0.0099899799 0.0083624879            3 
 1970000   0.46103988   -8.8715869     235.6903 0.0099699789  0.008355463            3 
 1971000   0.45699802   -8.8745877    235.77495 0.0099684995 0.0083484488            3 
 1972000   0.46651924   -8.8763324    235.96337 0.0099714066 0.0083414369            2 
 1973000   0.46173472   -8.8805455    235.64958 0.0099530995 0.0083344382            4 
 1974000   0.46632851   -8.8631409    235.77802 0.0099534793  0.008327439            3 
 1975000    0.4724626   -8.8742818    235.70262 0.0099452584 0.0083204518            2 
 1976000   0.46576341    -8.877789    235.69929 0.0099400847 0.0083134708            3 
 1977000   0.46444906   -8.8628862    235.99947 0.0099477098 0.0083064988            2 
 1978000   0.47440648   -8.8683619    236.03898 0.0099443452 0.0082995428            3 
 1979000   0.46872235    -8.859359    235.66324 0.0099234982 0.0082925952            2 
 1980000   0.44999371   -8.8770693    235.52596 0.0099127086 0.0082856538            1 
 1981000   0.46708974   -8.8663553    236.03563 0.0099291449 0.0082787182            2 
 1982000    0.4548765   -8.8645724    235.53259 0.0099029847 0.0082717883            3 
 1983000   0.45636621   -8.8757954    235.99286 0.0099173333 0.0082648644            4 
 1984000   0.45854025   -8.8593997    235.73915 0.0099016781 0.0082579521            2 
 1985000   0.46635814   -8.8624438    235.65178  0.009893022 0.0082510508            2 
 1986000   0.46475234   -8.8736643    235.85374 0.0098965146 0.0082441573            3 
 1987000   0.47616214   -8.8744382    235.56967 0.0098796203 0.0082372653            4 
 1988000   0.45382162   -8.8846331    235.71052 0.0098805549 0.0082303813            2 
 1989000   0.45682569    -8.866003    235.59717 0.0098708382 0.0082235115            3 
 1990000   0.45715806   -8.8672444    235.61294 0.0098665384 0.0082166405            2 
 1991000   0.45756204   -8.8905031    235.70322 0.0098653616 0.0082097767            2 
 1992000   0.45369812   -8.8897074    235.56629 0.0098546808 0.0082029182            5 
 1993000   0.45945237   -8.8923412    235.67267 0.0098541843 0.0081960665            3 
 1994000   0.45926806   -8.8690438    235.50127 0.0098420791 0.0081892303            3 
 1995000    0.4596705     -8.88305    235.67036 0.0098442089 0.0081823963            3 
 1996000   0.45723162   -8.8855351    235.64478 0.0098382089 0.0081755757            4 
 1997000   0.45269533   -8.8505632    235.65725 0.0098338026 0.0081687603            3 
 1998000   0.45210113   -8.8861627     235.6967 0.0098305262 0.0081619591            2 
 1999000   0.44826894   -8.8901978    235.48873 0.0098169388 0.0081551546            3 
 2000000   0.45517431   -8.8859642    235.46893 0.0098112055 0.0081483505            2 
 2001000   0.45389029   -8.8823347    235.90558 0.0098244871 0.0081415555            5 
 2002000   0.44898588   -8.8826737    235.63954 0.0098085057 0.0081347758            1 
 2003000   0.45105806   -8.8850668    235.85455 0.0098125541 0.0081279991            2 
 2004000   0.45260984    -8.883357    235.60181 0.0097971479 0.0081212299            3 
 2005000   0.44146693   -8.8890812    235.65672 0.0097945435 0.0081144668            3 
 2006000   0.45647689   -8.8859376    235.43281 0.0097803593 0.0081077089            2 
 2007000    0.4541678   -8.8897703    235.63355 0.0097838214 0.0081009662            2 
 2008000   0.44116265   -8.8855972    235.65855 0.0097799862 0.0080942249            4 
 2009000   0.45802005   -8.8985084    235.24301 0.0097578818 0.0080874897            2 
 2010000   0.44781768   -8.8872377    235.86213 0.0097786951 0.0080807646            3 
 2011000   0.45494259   -8.8945119    235.80017 0.0097712652 0.0080740494            2 
 2012000   0.45156036    -8.905183    235.75205 0.0097644158 0.0080673352            3 
Loop time of 4864.97 on 48 procs for 2000000 steps with 4000 atoms

Performance: 71038.418 tau/day, 411.102 timesteps/s
99.4% CPU use with 48 MPI tasks x no OpenMP threads

MPI task timing breakdown:
Section |  min time  |  avg time  |  max time  |%varavg| %total
---------------------------------------------------------------
Pair    | 312.51     | 333.33     | 350.77     |  55.1 |  6.85
Neigh   | 31.92      | 33.484     | 35.609     |  12.5 |  0.69
Comm    | 310.54     | 331.5      | 356.44     |  62.4 |  6.81
Output  | 4.2309     | 4.233      | 4.2713     |   0.3 |  0.09
Modify  | 4101.9     | 4118.7     | 4129.3     |   8.6 | 84.66
Other   |            | 43.72      |            |       |  0.90

Nlocal:        83.3333 ave          92 max          77 min
Histogram: 4 2 9 2 10 10 8 2 0 1
Nghost:        2144.35 ave        2173 max        2122 min
Histogram: 3 3 6 3 19 8 1 3 0 2
Neighs:        14121.2 ave       16054 max       12554 min
Histogram: 2 3 6 10 9 6 6 5 0 1
FullNghs:      28242.2 ave       31259 max       25762 min
Histogram: 3 3 7 5 7 11 7 4 0 1

Total # of neighbors = 1355626
Ave neighs/atom = 338.90650
Neighbor list builds = 106920
Dangerous builds = 0

#clear
#
#next RN
#
#jump SELF
Total wall time: 1:21:08
