
units lj                  # Use reduced LJ style units
atom_style atomic         # Uncharged point particles
atom_modify map hash      # Needed for indexing of clusters etc
                          # Used to be able to find where atoms are in relation to each other.

lattice fcc 1.0 spacing 1 1 1
Lattice spacing in x,y,z = 1.5874011 1.5874011 1.5874011
region box block 0 10 0 10 0 10 units lattice
create_box 2 box
Created orthogonal box = (0.0000000 0.0000000 0.0000000) to (15.874011 15.874011 15.874011)
  3 by 4 by 4 MPI processor grid
create_atoms 1 box
Created 4000 atoms
  using lattice units in orthogonal box = (0.0000000 0.0000000 0.0000000) to (15.874011 15.874011 15.874011)
  create_atoms CPU = 0.015 seconds
set type 1 type/fraction 2 0.81 78393
Setting atom values ...
  3229 settings made for type/fraction
mass 1 1.0
mass 2 1.0
pair_style lj/cut  3.5
pair_modify tail  yes
pair_coeff 1  1  1.0  1.0   # Intearaction between 1 and 1 set with epsilon = 1 and sigma = 1
pair_coeff 1  2  1.5  0.8
pair_coeff 2  2  0.5  0.88

write_data data.0
System init for write_data ...
Neighbor list info ...
  update every 1 steps, delay 10 steps, check yes
  max neighbors/atom: 2000, page size: 100000
  master list distance cutoff = 3.8
  ghost atom cutoff = 3.8
  binsize = 1.9, bins = 9 9 9
  1 neighbor lists, perpetual/occasional/extra = 1 0 0
  (1) pair lj/cut, perpetual
      attributes: half, newton on
      pair build: half/bin/atomonly/newton
      stencil: half/bin/3d
      bin: standard
WARNING: Not all mixed pair coeffs generated from mixing. Use write_data with 'pair ij' option to store all pair coeffs. (../write_data.cpp:312)


#############################
#   M E L T   S Y S T E M   #
#############################

velocity all create 2.4 1741580 mom yes dist gaussian # Assign velocities
                                                    # Temperature 2.4, random number seed, zero linear momentum
                                                                                # Gaussian distribution

timestep 0.002   # simulation timestep
thermo 1000       # output thermodynamic data every 1000 steps bf 100

# Define a fix  in this case with index 1 applied to all
# particles in the simulation. This fix is for simulations
# in the anisotropic NPT ensemble. Note that we use the MTK
# correction.
fix 1 all npt temp 2.4 2.4 0.1 iso 5.68 5.68 0.5 mtk yes tchain 5 pchain 5 # Use NPT ensemble
                                                                         # Set temperature and pressure and damping
                                                                         # Numbers of thermostats in chain and in barostat
run 10000          # run for 10000 steps
Per MPI rank memory allocation (min/avg/max) = 3.642 | 3.644 | 3.648 Mbytes
Step Temp E_pair E_mol TotEng Press Volume 
       0          2.4   -3.6458899            0 -0.046789881   -3.2123361         4000 
    1000    2.3250694   -3.0149051            0   0.47182714    5.6594785    3786.3777 
    2000     2.361585   -2.9800181            0    0.5614738    5.5950417    3813.9338 
    3000    2.4001441   -2.9739246            0   0.62539155    5.4461152    3834.2613 
    4000     2.391804   -2.9630677            0   0.62374137    5.8005294    3804.4846 
    5000    2.4000645   -2.9970999            0   0.60209672    5.4767974    3824.8033 
    6000    2.3933788   -2.9461689            0   0.64300168    5.9547565    3806.1406 
    7000    2.3993814   -3.0616943            0   0.53647797    5.3093028    3795.1733 
    8000    2.4436961   -3.0426336            0   0.62199421    5.7927144    3766.4426 
    9000    2.4253918   -2.9714634            0   0.66571483    5.7448161    3805.4629 
   10000    2.4266728    -2.947711            0   0.69138824    5.7036297    3834.4037 
Loop time of 2.66795 on 48 procs for 10000 steps with 4000 atoms

Performance: 647689.351 tau/day, 3748.202 timesteps/s
99.6% CPU use with 48 MPI tasks x no OpenMP threads

MPI task timing breakdown:
Section |  min time  |  avg time  |  max time  |%varavg| %total
---------------------------------------------------------------
Pair    | 1.1515     | 1.2224     | 1.3646     |   3.5 | 45.82
Neigh   | 0.20981    | 0.21997    | 0.24592    |   1.2 |  8.24
Comm    | 0.77261    | 0.90646    | 1.0047     |   5.2 | 33.98
Output  | 0.00024881 | 0.00025526 | 0.00032917 |   0.0 |  0.01
Modify  | 0.25509    | 0.3031     | 0.35504    |   4.7 | 11.36
Other   |            | 0.01578    |            |       |  0.59

Nlocal:        83.3333 ave          99 max          75 min
Histogram: 4 8 11 6 6 10 1 1 0 1
Nghost:        1690.46 ave        1716 max        1663 min
Histogram: 5 2 2 3 7 8 9 8 2 2
Neighs:        9960.56 ave       12377 max        8861 min
Histogram: 9 7 9 7 8 5 1 1 0 1

Total # of neighbors = 478107
Ave neighs/atom = 119.52675
Neighbor list builds = 903
Dangerous builds = 186

# Equilibrate just above the melting temperature to avoid step fn in T

fix 1 all npt temp 1.25 1.25 0.1 iso 5.68 5.68 0.5 mtk yes tchain 5 pchain 5
run 2000
Per MPI rank memory allocation (min/avg/max) = 3.643 | 3.646 | 3.649 Mbytes
Step Temp E_pair E_mol TotEng Press Volume 
   10000    2.4266728    -2.947711            0   0.69138824    5.7036297    3834.4037 
   11000    1.2657964   -4.3844404            0   -2.4862204    5.7528992    2930.7249 
   12000    1.2382255   -4.4252003            0   -2.5683264    5.6461508    2918.8444 
Loop time of 0.642253 on 48 procs for 2000 steps with 4000 atoms

Performance: 538105.339 tau/day, 3114.036 timesteps/s
99.7% CPU use with 48 MPI tasks x no OpenMP threads

MPI task timing breakdown:
Section |  min time  |  avg time  |  max time  |%varavg| %total
---------------------------------------------------------------
Pair    | 0.2809     | 0.3126     | 0.3564     |   2.2 | 48.67
Neigh   | 0.040489   | 0.043594   | 0.048506   |   0.7 |  6.79
Comm    | 0.18775    | 0.23703    | 0.27094    |   2.9 | 36.91
Output  | 5.2298e-05 | 5.3898e-05 | 8.0779e-05 |   0.0 |  0.01
Modify  | 0.040565   | 0.044121   | 0.047215   |   0.9 |  6.87
Other   |            | 0.004855   |            |       |  0.76

Nlocal:        83.3333 ave          91 max          75 min
Histogram: 2 6 3 5 4 7 9 4 4 4
Nghost:        2035.19 ave        2056 max        2011 min
Histogram: 3 2 4 5 2 10 8 9 3 2
Neighs:        13077.1 ave       14796 max       11736 min
Histogram: 5 6 5 6 7 4 4 6 2 3

Total # of neighbors = 627700
Ave neighs/atom = 156.92500
Neighbor list builds = 145
Dangerous builds = 20

#############################
# L I N E A R  Q U E N C H  #
#############################

# Define solid atoms. This closely follows ten Wolde  Ruiz-Montero and Frenkel  Faraday Discuss  1996  104  93-110
# Compute components of the per-atom q6 vector
compute q6 all orientorder/atom degrees 1 6 components 6 nnn NULL cutoff 1.3 # compute the Q6 parameter.
                                                                             # Use all neighbours within 1.3 unit cell.

# get number of connections
compute coord_number all coord/atom orientorder q6 0.5

# An atom is solid if it has 8 or more connections (of a possible 14)
variable is_solid atom c_coord_number>=8
group solid dynamic all var is_solid    # Must be dynamic to update
dynamic group solid defined

# do clustering
compute cluster solid cluster/atom 1.3 # Create a cluster where all atoms within are solid and max 1.3 units from another member

# define chunks one chunk per cluster
compute clus_chunks solid chunk/atom c_cluster nchunk every compress yes  # Says which atoms are in which chunk

# count the size of each chunk
compute size_chunks solid property/chunk clus_chunks count


# Find the maximum entry in the vector of chunk sizes
variable max_n equal max(c_size_chunks)


# Thermo style which includes this variable
# thermo_style custom step temp pe vol v_max_n

thermo ${N}  # Print the thermo information every 100 steps
thermo 1000  

# Reset the npt fix at a lower temperature (below freezing)
fix 1  all npt temp  ${temp} ${temp}  0.1  iso  5.68  5.68  0.5  mtk yes tchain  5  pchain  5
fix 1  all npt temp  0.45 ${temp}  0.1  iso  5.68  5.68  0.5  mtk yes tchain  5  pchain  5
fix 1  all npt temp  0.45 0.45  0.1  iso  5.68  5.68  0.5  mtk yes tchain  5  pchain  5

dump dmp2 all dcd ${N} traj.dcd
dump dmp2 all dcd 1000 traj.dcd


compute msd all msd com yes
variable twopoint equal c_msd[4]/6/(step*dt+1.0e-6)
fix 9 all vector 10 c_msd[4]
variable fit equal slope(f_9)/6/(10*dt)
thermo_style custom step temp pe c_msd[4] v_twopoint v_fit v_max_n

fix 1 all npt temp 1.25 ${temp} 0.1 iso 5.68 5.68 0.5 mtk yes tchain 5 pchain 5
fix 1 all npt temp 1.25 0.45 0.1 iso 5.68 5.68 0.5 mtk yes tchain 5 pchain 5
run 2000000 # 5000000  # Run for this many steps
Neighbor list info ...
  update every 1 steps, delay 10 steps, check yes
  max neighbors/atom: 2000, page size: 100000
  master list distance cutoff = 3.8
  ghost atom cutoff = 3.8
  binsize = 1.9, bins = 8 8 8
  4 neighbor lists, perpetual/occasional/extra = 1 3 0
  (1) pair lj/cut, perpetual
      attributes: half, newton on
      pair build: half/bin/atomonly/newton
      stencil: half/bin/3d
      bin: standard
  (2) compute orientorder/atom, occasional
      attributes: full, newton on
      pair build: full/bin/atomonly
      stencil: full/bin/3d
      bin: standard
  (3) compute coord/atom, occasional
      attributes: full, newton on
      pair build: full/bin/atomonly
      stencil: full/bin/3d
      bin: standard
  (4) compute cluster/atom, occasional
      attributes: full, newton on
      pair build: full/bin/atomonly
      stencil: full/bin/3d
      bin: standard
Per MPI rank memory allocation (min/avg/max) = 9.836 | 9.841 | 9.846 Mbytes
Step Temp PotEng c_msd[4] v_twopoint v_fit v_max_n 
   12000    1.2382255   -4.4252003 8.4270066e-31 5.8520877e-33 8.3333333e+20            2 
   13000    1.2431101   -4.4504924    0.8048083 0.0051590274  0.068649389            2 
   14000    1.2746121   -4.4180157    1.6548096 0.0098500568  0.069148816            2 
   15000    1.2412851   -4.4494595    2.4370108  0.013538948  0.068673328            2 
   16000    1.2484264   -4.4006897    3.2795015  0.017080736  0.068097956            2 
   17000    1.2757506   -4.4515036    4.0796637  0.019998351  0.068005064            1 
   18000    1.2207131   -4.3744332    4.9256999  0.022804165  0.067956222            2 
   19000    1.2434592   -4.4057453    5.7394335  0.025172953  0.068281876            1 
   20000    1.2581179   -4.4223885    6.4639388  0.026933078  0.068015749            3 
   21000    1.2596521   -4.3967057    7.3176955  0.029038473  0.067678648            1 
   22000    1.2481446   -4.4214979    8.2132882  0.031110939  0.067987713            2 
   23000    1.2555182   -4.4290429    8.9581321     0.032457  0.068172378            4 
   24000    1.2333568   -4.4480684    9.7631782  0.033899923  0.068051304            2 
   25000    1.2353672   -4.4221166    10.500353  0.035001175  0.067907109            1 
   26000    1.2503709   -4.4326293    11.252485  0.036065656  0.067551026            2 
   27000    1.2351884    -4.426891    12.180989  0.037595646  0.067440926            4 
   28000    1.2431119   -4.4281407    12.965785  0.038588646   0.06738515            2 
   29000    1.2298385   -4.4249202     13.79229  0.039633017   0.06733558            2 
   30000    1.2430921   -4.4020889     14.65306  0.040702944   0.06726923            2 
   31000    1.2298131   -4.4076303     15.34317   0.04124508  0.067301547            4 
   32000    1.2395207   -4.4011761    16.066623  0.041840162  0.067220191            2 
   33000     1.286758   -4.4525221    16.708284  0.042192635  0.067051514            6 
   34000    1.2241223   -4.4126274    17.705576  0.043396019  0.066933043            2 
   35000    1.2324277    -4.420225    18.480389  0.044000927  0.066859229            2 
   36000    1.2507633   -4.4475817    19.195257  0.044433466  0.066828354            4 
   37000    1.2195505   -4.4388115    20.168064  0.045423567  0.066785982            4 
   38000    1.2440065   -4.4577568    20.917452  0.045871605  0.066765841            5 
   39000    1.2035819   -4.4592901     21.75534  0.046485769  0.066797148            3 
   40000    1.2406053   -4.4339518    22.639554  0.047165737  0.066902125            1 
   41000    1.2186657   -4.4594561    23.423138  0.047608004  0.067023613            4 
   42000    1.2548504   -4.4356498    24.253268  0.048121563  0.067089322            2 
   43000    1.2481721   -4.4472655    25.156248  0.048752418  0.067122746            2 
   44000    1.2444169   -4.3908486      25.9316  0.049112879  0.067177627            7 
   45000     1.222727   -4.3958294    26.868772  0.049756984  0.067256658            1 
   46000    1.2391493   -4.4550502    27.713969  0.050206466  0.067339752            3 
   47000    1.2437146   -4.4178008       28.638  0.050776595  0.067417814            2 
   48000     1.225368   -4.4329027    29.536673  0.051278946  0.067523515            1 
   49000    1.2551461   -4.3967973    30.412936  0.051722679  0.067623475            1 
   50000    1.2216575   -4.4230201    31.252357   0.05208726  0.067760564            2 
   51000    1.2572939   -4.4412895    32.106037  0.052460844  0.067942457            2 
   52000    1.2168433   -4.4874201     32.97451  0.052843766  0.068083907            3 
   53000     1.208511     -4.42167    33.769674  0.053096971  0.068205692            1 
   54000    1.2316797   -4.4586702    34.494442  0.053232164  0.068304673            2 
   55000    1.2874223   -4.4639298    35.594961  0.053931758  0.068401858            4 
   56000    1.2710109   -4.4319597    36.538034  0.054372074  0.068519564            2 
   57000    1.2629082   -4.4436159    37.344594  0.054597359  0.068624667            4 
   58000    1.2229028   -4.4309334    38.158873  0.054825967  0.068709185            3 
   59000    1.2278603   -4.4350363    38.968168  0.055039785  0.068790661            1 
   60000    1.2563783   -4.4808534    39.466893  0.054815128  0.068840223            2 
   61000    1.2410686   -4.4274984    40.552929  0.055400175   0.06889013            2 
   62000    1.2406032   -4.4658763     41.13699  0.055291653  0.068922533            2 
   63000     1.241885   -4.4396202     42.33502  0.055998703  0.068956318            1 
   64000    1.2381986    -4.432013    43.139059  0.056170649  0.069002552            2 
   65000    1.2365472    -4.446056    43.860165  0.056230981   0.06904955            2 
   66000    1.2343331   -4.4381787    44.813157  0.056582269  0.069085509            5 
   67000    1.2188823   -4.4681426    45.236814  0.056264693  0.069113103            2 
   68000    1.2458974   -4.4093722    46.376609  0.056834079  0.069140177            4 
   69000    1.2385967   -4.4127164    47.199356  0.057004052  0.069152999            1 
   70000      1.22673   -4.4425745     47.29627  0.056305083  0.069118094            3 
   71000    1.2241422   -4.4436261    48.125419  0.056485233  0.069062094            4 
   72000     1.239739   -4.4280555    48.764708  0.056440634  0.068991294            3 
   73000    1.1886848   -4.4496914    49.167928  0.056127771  0.068889888            2 
   74000     1.225264   -4.4556038    49.862235  0.056151165  0.068759072            2 
   75000    1.2346376   -4.4326986      50.8314  0.056479333  0.068642188            2 
   76000    1.2006734   -4.4492252    51.753653  0.056747427  0.068547369            1 
   77000    1.2158667   -4.4360088    52.830539  0.057175907  0.068468824            3 
   78000    1.2135171   -4.4685356    53.331952  0.056978581  0.068385653            5 
   79000    1.2022191   -4.4695369    54.195696  0.057168455  0.068318909            2 
   80000    1.2248518   -4.4643438    55.209674  0.057510077  0.068263745            3 
   81000    1.2496911   -4.4736187    56.022562  0.057636381  0.068219005            4 
   82000    1.2620523    -4.475824    57.103525  0.058032037  0.068188156            1 
   83000    1.2063415   -4.4438593    57.536967  0.057768039  0.068153771            2 
   84000    1.2038778   -4.4283732    58.202402  0.057740478  0.068098451            2 
   85000     1.220143   -4.5111388    58.859594  0.057705484  0.068045248            3 
   86000    1.1907021   -4.4755223    59.725191  0.057873247   0.06798355            5 
   87000    1.2347073   -4.4948294     60.49623   0.05794658  0.067934998            1 
   88000     1.231539   -4.4775408    61.427397  0.058169883  0.067880674            2 
   89000    1.2007048   -4.4845283    62.455597  0.058479023  0.067851838            3 
   90000    1.2334486   -4.4583403    63.212152   0.05852977  0.067816419            2 
   91000    1.2491237   -4.4471338    64.268999  0.058854394  0.067794346            2 
   92000    1.2113288   -4.4742265    64.670437  0.058578294  0.067795222            3 
   93000    1.2337333   -4.4474255    65.693098  0.058864783   0.06777925            4 
   94000    1.2148709    -4.454587    66.175924  0.058666599  0.067757442            2 
   95000    1.2324569   -4.4628215    66.956298  0.058733595  0.067715124            2 
   96000    1.2143273   -4.4725121    67.604418   0.05868439  0.067673226            4 
   97000    1.2140807   -4.5467824    68.204336   0.05859479  0.067634394            7 
   98000    1.2096327   -4.4826441    69.283767  0.058914768  0.067612336            2 
   99000    1.2271423   -4.4818161    70.495198  0.059339392  0.067591025            2 
  100000    1.1992066    -4.436491    71.497996  0.059581663  0.067575418            1 
  101000    1.2200746   -4.4639337    72.234354  0.059599301  0.067565454            2 
  102000    1.1847223   -4.4924835     72.99033  0.059632622  0.067557297            1 
  103000    1.1955294   -4.4640614    73.747998  0.059666665  0.067545784            2 
  104000    1.2363643   -4.4614296    74.612005   0.05978526  0.067536692            1 
  105000    1.2413038   -4.4699715    75.526712  0.059941834  0.067529469            4 
  106000    1.2341501    -4.523188    75.951103  0.059709986  0.067523741            4 
  107000     1.212749   -4.4591335    77.278779  0.060185964  0.067520008            3 
  108000    1.2078887   -4.4723791    77.866998   0.06008256  0.067515664            1 
  109000    1.2419584   -4.4787266    78.562372  0.060062975   0.06749875            2 
  110000    1.2070255   -4.4598218    79.969207  0.060582732    0.0675001            2 
  111000    1.1915349   -4.4569946    80.762221  0.060632298  0.067508994            1 
  112000    1.1997514   -4.4820042     81.20926  0.060423556  0.067516452            1 
  113000     1.207421   -4.4550626    81.760769  0.060295552   0.06752049            1 
  114000    1.2122605   -4.5206035    82.165789  0.060062711   0.06751213            2 
  115000    1.1998218   -4.4994379    83.006758  0.060149824  0.067493094            2 
  116000    1.1978931   -4.5131068     83.93654  0.060299238  0.067475832            2 
  117000    1.2015241   -4.4523331    85.010627   0.06054888  0.067469777            6 
  118000    1.2049369   -4.4648066     85.69347  0.060517987  0.067458283            2 
  119000    1.2063107   -4.4689269    86.694488  0.060710426  0.067441847            2 
  120000    1.1997684   -4.4810546    86.539936  0.060097177  0.067412688            3 
  121000    1.2060009    -4.470297    87.608148   0.06033619  0.067371331            3 
  122000    1.2138308   -4.4930217    87.808171  0.059978259  0.067331151            2 
  123000    1.2184878   -4.5035822    88.911937  0.060238439  0.067295124            3 
  124000    1.1878918   -4.4958001    89.827118  0.060367686    0.0672639            5 
  125000     1.182486    -4.475824    90.620995  0.060413997  0.067239664            2 
  126000    1.1927701   -4.4632399    92.160956  0.060953013   0.06722345            1 
  127000    1.2032555   -4.4536242    92.325668  0.060581147  0.067203944            2 
  128000    1.1962991   -4.4903871    92.959729  0.060520656  0.067181099            1 
  129000    1.2158611   -4.4966246    94.148573  0.060819491  0.067160625            5 
  130000    1.1807887    -4.526648    94.739391  0.060730378  0.067141461            2 
  131000    1.2080961   -4.4960643    95.485002  0.060741095  0.067121175            3 
  132000    1.2163261   -4.4776474    96.559745  0.060959435   0.06710291            2 
  133000    1.2137712   -4.4937044    97.031286  0.060796545  0.067093356            1 
  134000    1.2078471   -4.4716612    98.132117  0.061027435   0.06707436            1 
  135000     1.210207   -4.4849977     98.54092  0.060827728  0.067049251            4 
  136000    1.1955339   -4.4895296    98.500335  0.060355597  0.067006946            4 
  137000    1.2159823   -4.4648917    99.497398  0.060521531  0.066959525            1 
  138000    1.1893482   -4.4913609    99.961852  0.060363437  0.066910941            2 
  139000    1.2106958    -4.530344    100.06368  0.059990219  0.066855154            3 
  140000    1.2117309   -4.4570962    100.96205  0.060096458  0.066796096            1 
  141000    1.1975151   -4.4603433    101.95621  0.060257805  0.066734928            3 
  142000    1.1956009   -4.4844288    102.14357  0.059943409  0.066665474            1 
  143000    1.2192206    -4.492543    102.38844  0.059666923   0.06658753            3 
  144000    1.1990419    -4.514703    103.11958  0.059675682  0.066508215            2 
  145000     1.240004   -4.4872291    103.94406  0.059737966  0.066428719            5 
  146000    1.1834405    -4.517157    104.44755  0.059616179   0.06634439            8 
  147000    1.1660692   -4.5076729    104.67229  0.059338035  0.066253826            2 
  148000    1.1900922   -4.5320364    105.70457  0.059518336  0.066169035            2 
  149000    1.1884177   -4.4886948    106.67886  0.059663792  0.066088264            3 
  150000    1.2000437   -4.4904978     107.5286   0.05973811  0.066007454            2 
  151000    1.1643122   -4.5283737    107.73518  0.059456504  0.065929235            2 
  152000    1.1959481   -4.5041594     108.8678  0.059686294  0.065849664            1 
  153000    1.2109937   -4.5089448    109.02542  0.059382034  0.065767075            3 
  154000    1.2139977   -4.5147908    110.12183  0.059589736  0.065685491            2 
  155000    1.1895025   -4.5193071    110.26545  0.059282499  0.065612356            2 
  156000    1.2075448   -4.5122012    111.11928  0.059358591  0.065532717            2 
  157000    1.1875985   -4.5172998    112.71996  0.059830125  0.065459446            2 
  158000    1.1862598   -4.5209086    112.39817  0.059281736  0.065391212            3 
  159000    1.1967677   -4.4904655    113.76193  0.059623651  0.065314757            3 
  160000    1.2066066   -4.5367461    113.42054  0.059073198  0.065239599            3 
  161000    1.2051997   -4.5309809    114.12822  0.059072575  0.065159593            4 
  162000    1.1882286   -4.5234219      115.099  0.059207306  0.065083466            1 
  163000    1.1974567   -4.5229906    116.46728  0.059543599  0.065007808            2 
  164000    1.1815399   -4.5381194    116.36372  0.059127905  0.064935156            2 
  165000    1.1803157   -4.5621257    117.42588     0.059306  0.064868874            3 
  166000    1.1865051   -4.4935229    118.54505  0.059510569  0.064798053            4 
  167000    1.1764489   -4.5130539    119.12892  0.059445566  0.064736485            2 
  168000    1.2001045   -4.5119006    120.23637  0.059641058  0.064680035            1 
  169000    1.2028917   -4.5060392    121.20498  0.059765771  0.064622766            1 
  170000    1.1942774    -4.496598    121.70305  0.059658356  0.064570485            4 
  171000    1.2017095   -4.4933545    122.18137  0.059542579   0.06451694            2 
  172000    1.1925513   -4.5187436    123.02439   0.05960484  0.064461397            2 
  173000    1.1791322   -4.5243607    123.13829  0.059315167  0.064410617            3 
  174000    1.1658305   -4.5366995    124.63306  0.059690165  0.064358799            2 
  175000    1.2097623   -4.4959373    125.63989   0.05982852  0.064310766            3 
  176000    1.1444269   -4.5223257    125.50564  0.059425017   0.06426206            2 
  177000    1.1827081   -4.5143204    126.65197  0.059628989  0.064215801            3 
  178000    1.1717918   -4.5299698     127.4989  0.059690498  0.064170841            3 
  179000    1.1896549   -4.5315577    127.98003   0.05958102  0.064122416            3 
  180000    1.1696098    -4.554062    128.26581  0.059382321  0.064077184            3 
  181000    1.1978396   -4.5592054    129.31399  0.059536828  0.064035485            4 
  182000    1.2046068   -4.4793718    130.34173   0.05968028  0.063989578            2 
  183000    1.1786658   -4.5078862    131.03506  0.059669881  0.063949893            2 
  184000    1.1850355   -4.5200644    131.31155  0.059470809  0.063906321            2 
  185000    1.1616457   -4.5602329    131.98508  0.059452741  0.063868049            4 
  186000    1.1704278   -4.5509425    132.59201  0.059405022  0.063828722            1 
  187000    1.1778699   -4.5253297    134.30054  0.059848724  0.063794409            2 
  188000    1.1624805   -4.5276398    134.89316  0.059793067  0.063759578            2 
  189000    1.1595256   -4.5163615    135.91847   0.05992878  0.063723122            2 
  190000    1.1764546   -4.5012363    136.26953   0.05976734  0.063691312            3 
  191000    1.1585549   -4.4937886    137.17262   0.05984844  0.063652697            2 
  192000    1.1764838   -4.5311481     137.7636  0.059793227  0.063620429            2 
  193000    1.1755567   -4.5578783    138.32397  0.059725377  0.063590057            1 
  194000    1.1753904   -4.5421257    139.40847  0.059883364  0.063557578            2 
  195000    1.1772624   -4.5339199     139.8924  0.059783076  0.063526432            2 
  196000     1.166464   -4.5469592    140.87726  0.059896793  0.063495588            2 
  197000     1.189365   -4.5410382    141.96438  0.060052613  0.063470789            7 
  198000     1.166296   -4.5542381    142.19052  0.059844495  0.063449396            2 
  199000    1.1740499   -4.5225376    143.61395  0.060139846  0.063428336            3 
  200000    1.2126706   -4.4858105     144.4483  0.060186791  0.063408523            1 
  201000    1.1748441   -4.5454324    144.39642  0.059865846  0.063384635            2 
  202000    1.1541925   -4.5586337    145.20478  0.059902961  0.063358279            4 
  203000    1.1832845   -4.5704345    146.22388  0.060026224  0.063334417            1 
  204000    1.1949832   -4.5775002    146.26677  0.059749498  0.063310323            4 
  205000    1.1715859    -4.503042     147.1344  0.059810731  0.063285191            1 
  206000       1.1742   -4.5410528    147.68028  0.059741213  0.063260356            1 
  207000    1.1752785   -4.5364945    148.81674  0.059910119  0.063233499            2 
  208000    1.1672458   -4.5416849    150.03462  0.060110025  0.063213226            3 
  209000    1.1952732    -4.537659    150.86859  0.060154941   0.06319278            3 
  210000    1.1605384   -4.4912564    151.85859  0.060261345  0.063173436            4 
  211000    1.1818466   -4.5091864     152.4897  0.060224999  0.063157126            5 
  212000      1.17388   -4.5370611    153.01135   0.06014597  0.063140578            2 
  213000    1.1438348   -4.5235053    154.00578  0.060252653  0.063123789            2 
  214000    1.1903732   -4.5362101    154.31601  0.060091904  0.063105243            2 
  215000    1.1765249   -4.5293331    155.53625  0.060285368  0.063088093            1 
  216000    1.1901873   -4.5536169    155.89994  0.060146581  0.063069261            2 
  217000    1.1821283   -4.5803285    156.88586  0.060248026  0.063050289            2 
  218000     1.184914   -4.5327629    157.79769  0.060320217  0.063037928            2 
  219000     1.184319   -4.5335701    158.73598  0.060401821  0.063028658            2 
  220000    1.1821002    -4.500349    159.73219  0.060504618  0.063017419            1 
  221000    1.1915325   -4.5763386    159.20732  0.060032927  0.063005656            2 
  222000    1.1633281   -4.5504389     160.7554  0.060343619   0.06299263            2 
  223000    1.1694295   -4.5657072    161.50245  0.060352185  0.062980594            3 
  224000    1.1639733   -4.5297103    162.01956  0.060275135  0.062966463            3 
  225000    1.1637175   -4.5638527    162.46398  0.060171846  0.062948821            3 
  226000    1.1517265   -4.5763437    162.80335  0.060030734  0.062930021            7 
  227000    1.1848784   -4.5744825      163.222  0.059919969  0.062912461            4 
  228000     1.177456    -4.572624    164.39003  0.060084076  0.062898442            2 
  229000    1.1470733    -4.552689    164.75353  0.059953977  0.062877755            3 
  230000    1.2049555   -4.5527618    165.49867  0.059963286  0.062856591            2 
  231000    1.1544852   -4.5568346    165.85966  0.059833931  0.062833895            2 
  232000    1.1570562   -4.5367204    167.50661  0.060167605  0.062812743            1 
  233000    1.1434533   -4.5836625    167.41017  0.059874882  0.062788235            2 
  234000    1.1629828   -4.5355163     168.0894  0.059860896  0.062768411            2 
  235000    1.1444349   -4.5286874    169.33362  0.060047383  0.062750506            1 
  236000    1.1503569   -4.5635934     169.7339  0.059934285   0.06272764            2 
  237000     1.165359   -4.5591112    170.30161  0.059881017  0.062707276            5 
  238000    1.1525968   -4.5884357     170.4358    0.0596764  0.062684097            4 
  239000    1.1503261   -4.5492068    171.67215  0.059857792  0.062661697            2 
  240000     1.175585   -4.5877062    172.12813   0.05976671  0.062637724            6 
  241000    1.1537741   -4.5544515    173.26213  0.059910834  0.062615894            4 
  242000    1.1499061   -4.5679428    173.88753  0.059878626  0.062597578            2 
  243000    1.1677715   -4.5417013    174.33499  0.059785663  0.062577651            1 
  244000    1.1517335   -4.5699793    175.16134  0.059822861  0.062556359            3 
  245000    1.1605054   -4.5534686     176.5322  0.060044965  0.062534344            2 
  246000    1.1483628   -4.5603651    176.07674   0.05964659  0.062511961            2 
  247000    1.1666878   -4.5314736      177.741  0.059966601  0.062490255            3 
  248000    1.1616175   -4.5598974    177.80179  0.059745226  0.062468453            3 
  249000    1.1753268   -4.5669101    178.44249  0.059719707  0.062447293            1 
  250000    1.1514564   -4.5732132    179.16127  0.059720423  0.062425037            3 
  251000    1.1609728   -4.5664648    179.96759  0.059750197  0.062403646            2 
  252000     1.176693   -4.5595846    180.70598  0.059757269  0.062383962            2 
  253000    1.1458757   -4.5782218    181.97136  0.059937866   0.06236455            2 
  254000    1.1505604   -4.5753871    181.47266  0.059538275  0.062344184            5 
  255000    1.1509404   -4.5975795    182.16749  0.059531861  0.062320311            2 
  256000    1.1570064    -4.573173     183.7098  0.059801368  0.062298123            2 
  257000    1.1644569   -4.5817374    183.42501  0.059476331  0.062275391            1 
  258000    1.1325254   -4.6145789    183.79923  0.059366677  0.062251942            3 
  259000    1.1171941   -4.5749085    185.18691  0.059583949  0.062227935            3 
  260000    1.1335551   -4.5755676    186.13201  0.059657697  0.062206866            2 
  261000    1.1397973   -4.5817464    187.57189  0.059888854  0.062184846            2 
  262000    1.1397473   -4.5596319    188.12607  0.059836537     0.062166            2 
  263000    1.1571079   -4.5700044    188.99114  0.059883124  0.062147975            2 
  264000    1.1783927   -4.5963459    189.16414  0.059710901  0.062133833            1 
  265000    1.1507494   -4.5879116    190.38416  0.059869233   0.06211895            3 
  266000    1.1501577   -4.5962385    190.80805  0.059776956  0.062102623            3 
  267000    1.1488629   -4.5739065    190.67892  0.059512772   0.06208295            4 
  268000    1.1253282   -4.6127501    190.75177  0.059313361  0.062062388            2 
  269000    1.1623528   -4.5680271    192.91096  0.059761758  0.062043326            5 
  270000    1.1617858   -4.6115037    193.29187  0.059657984  0.062025279            3 
  271000    1.1254146    -4.580935    195.15913  0.060012031   0.06200694            2 
  272000    1.1474791   -4.5814137    195.12615  0.059781295  0.061992691            2 
  273000    1.1510486   -4.6153718    195.17054  0.059575868  0.061975798            3 
  274000    1.1635866   -4.5874811    195.74052  0.059531788  0.061955659            3 
  275000    1.1387164   -4.5665018    196.67534  0.059598587  0.061936996            2 
  276000    1.1370988   -4.5710802    198.01904  0.059788357  0.061916572            2 
  277000    1.1555898   -4.5988661    198.35433  0.059673385  0.061896261            2 
  278000    1.1478058   -4.5818091    198.85033  0.059607412  0.061879418            3 
  279000    1.1167497      -4.5468    200.26254  0.059815572   0.06186024            3 
  280000    1.1271713   -4.5817973    200.29394  0.059611292  0.061841198            4 
  281000     1.138505   -4.5753965     200.2396  0.059383036  0.061819346            2 
  282000    1.1242674   -4.6196325    200.71661  0.059313418  0.061795879            3 
  283000    1.1636273   -4.6359368    201.35433  0.059291615  0.061771741            2 
  284000    1.1706431   -4.5914826    201.56183   0.05914373  0.061746718            7 
  285000    1.1417445   -4.5916151    202.15758  0.059110403   0.06171767            3 
  286000    1.1363679   -4.5963497    201.91786  0.058833875  0.061686695            2 
  287000    1.1347834    -4.563535    203.88076  0.059198828  0.061657607            3 
  288000    1.1483395   -4.5707332    203.98061  0.059022167  0.061627499            2 
  289000    1.1311931   -4.5828928    204.10435  0.058853618  0.061597384            2 
  290000    1.1463242   -4.5858288    205.32588  0.059001688  0.061568914            2 
  291000    1.1204334     -4.63291      205.531  0.058857674  0.061540046            5 
  292000    1.1460934   -4.5930583    206.20234  0.058847701    0.0615131            2 
  293000    1.1275432   -4.6165334    207.68799  0.059069395  0.061484435            3 
  294000    1.1235233   -4.5689179    208.17982  0.059007884  0.061455724            2 
  295000    1.1401502   -4.5993922    208.67723  0.058948369  0.061426513            1 
  296000    1.1383881   -4.5986809    208.82265   0.05879016  0.061398394            3 
  297000    1.1245097   -4.6006134    210.24528  0.058991381  0.061371048            3 
  298000    1.1604417   -4.5953393    211.10262  0.059033171  0.061343601            1 
  299000    1.1380535   -4.6028931     211.7577  0.059018312  0.061318938            4 
  300000    1.1350267   -4.6242501    212.26065  0.058961292  0.061293635            2 
  301000     1.126942   -4.5642732    213.83586  0.059201511  0.061269014            2 
  302000    1.1438741   -4.6057083    214.04029  0.059061891  0.061245218            2 
  303000    1.1448743   -4.6124076    214.28319  0.058933772  0.061224132            2 
  304000    1.1076425   -4.6246663    215.22129  0.058997065  0.061200068            3 
  305000     1.132448   -4.6078747     215.4363  0.058862376  0.061176488            2 
  306000     1.152331   -4.6194422    216.28824  0.058902027  0.061152999            1 
  307000     1.119209   -4.6034466    217.02186  0.058909299  0.061129793            2 
  308000    1.1290467   -4.6072579    218.21295    0.0590403  0.061104901            4 
  309000    1.1385658   -4.5986194    217.70796  0.058713042  0.061081401            2 
  310000    1.1373294   -4.6165117    219.61618  0.059036606  0.061058212            3 
  311000    1.1272762   -4.6121598    219.77003  0.058888002  0.061030899            3 
  312000    1.1230263   -4.5959016     220.4867  0.058890678  0.061007274            4 
  313000    1.1035329   -4.6177557    221.25077  0.058905956  0.060982994            2 
  314000    1.1099783   -4.6136587    222.25449  0.058984736  0.060959988            4 
  315000    1.1426675   -4.5977241    221.83759  0.058687192  0.060934806            2 
  316000    1.1256732   -4.6652418    222.28661  0.058619886  0.060908641            4 
  317000    1.1416836   -4.6400139    222.74349  0.058555071  0.060882023            2 
  318000    1.1277819   -4.6311067    223.75762  0.058636692   0.06085502            3 
  319000    1.1063893   -4.6234674    224.97378  0.058770579  0.060831021            3 
  320000    1.1205843   -4.6263573    225.30245  0.058672512  0.060807299            3 
  321000    1.1639785    -4.589171    225.58155  0.058562189  0.060783011            3 
  322000    1.1449989   -4.6269993    227.29309  0.058823265  0.060758517            3 
  323000    1.1004195   -4.6368755    226.85275   0.05852754   0.06073328            2 
  324000    1.1087636   -4.5834203    228.14623  0.058679585  0.060708188            4 
  325000    1.1285575   -4.5968386      228.653  0.058628975  0.060683933            1 
  326000    1.1159786   -4.6137282    229.57131  0.058683874  0.060658931            1 
  327000    1.1312395   -4.6274052    229.95119  0.058601221  0.060634246            4 
  328000      1.11748   -4.6123361    230.28538  0.058507463  0.060612196            5 
  329000    1.1246537   -4.6480464    231.27951  0.058581437  0.060588615            1 
  330000    1.1228737   -4.6538217    231.01326  0.058336681  0.060565518            2 
  331000    1.1254192   -4.5976616    232.75051  0.058597811  0.060544175            1 
  332000    1.1347955   -4.6229851    233.26564  0.058550611  0.060522173            2 
  333000    1.1198956   -4.6348831    234.76665  0.058750412  0.060499346            2 
  334000    1.1131477   -4.6719505    234.18115  0.058428429  0.060478186            2 
  335000    1.1045231   -4.6079707    234.96295  0.058448495  0.060456546            3 
  336000    1.1175254   -4.6317329    236.08181  0.058552037  0.060433908            1 
  337000    1.1301746   -4.6176871    237.04156  0.058615618  0.060411668            4 
  338000    1.1248568   -4.6473337    237.08764   0.05845356  0.060389825            2 
  339000    1.1184123    -4.619343    238.39991  0.058603714  0.060368205            3 
  340000    1.1133966   -4.6360968    238.39137  0.058429258  0.060348622            2 
  341000    1.1456814   -4.6238756     239.1821  0.058451149  0.060325892            5 
  342000    1.1147491   -4.6157757    240.11787  0.058508253   0.06030607            4 
  343000    1.1262237   -4.6403476    241.55411  0.058686615  0.060285881            6 
  344000    1.1351201   -4.6283551    240.95958   0.05837199   0.06026568            2 
  345000    1.1173037   -4.6057161    241.99339  0.058452508  0.060244282            4 
  346000    1.1161818   -4.6401208    242.99318   0.05852437  0.060223756            2 
  347000    1.1219493   -4.6284226    243.08796  0.058378474  0.060203653            4 
  348000    1.1446413   -4.5785692    245.30405  0.058741391   0.06018329            2 
  349000    1.1385896   -4.6454523    244.68489  0.058425236  0.060164354            2 
  350000    1.1147264   -4.6094242    246.85381  0.058774716  0.060144283            5 
  351000    1.1067938   -4.6477686    246.49729  0.058522622  0.060123994            2 
  352000    1.1136795   -4.6682653    245.52786   0.05812686  0.060104728            4 
  353000    1.1370982   -4.6447977    248.19871  0.058592708  0.060085791            5 
  354000     1.143944   -4.6354567    248.33796  0.058459972  0.060066452            1 
  355000    1.1001513   -4.6348937    248.39535  0.058308767  0.060046923            2 
  356000    1.1143073   -4.6623686     248.3945  0.058144781   0.06002658            5 
  357000     1.111967   -4.6432224    249.60546   0.05826458  0.060005039            3 
  358000    1.0928761   -4.6269461    251.03484  0.058434553  0.059985275            2 
  359000    1.0810416   -4.6558875    251.75752  0.058439536  0.059965801            2 
  360000     1.108988    -4.639907    251.43021  0.058201437  0.059947509            2 
  361000    1.1210705   -4.6506559    251.94014  0.058157928  0.059926883            3 
  362000    1.0925659   -4.6691437    253.63446  0.058387308   0.05990735            4 
  363000    1.0992288   -4.6645634    252.73828  0.058020725  0.059887264            3 
  364000    1.0789279   -4.6408627    254.66374  0.058302139  0.059865813            2 
  365000    1.1028715   -4.6597272    254.16048  0.058027507  0.059844287            4 
  366000    1.1180106      -4.6543    256.52893  0.058408225  0.059824456            1 
  367000    1.1125323   -4.6441764    257.21457  0.058404762  0.059805771            2 
  368000     1.101397   -4.6745256    256.51818  0.058088355  0.059786576            2 
  369000    1.1060605   -4.6179658    258.39082  0.058353844  0.059767165            2 
  370000    1.1023157   -4.6233476    259.39045  0.058421273    0.0597479            3 
  371000    1.1163192   -4.6832655    258.97353  0.058170154  0.059728938            2 
  372000    1.1075494   -4.6874716    258.40289  0.057885953  0.059709729            2 
  373000     1.097482   -4.6880694    259.90845  0.058067126  0.059688972            3 
  374000    1.1163296    -4.684724    260.13549  0.057962454  0.059669481            2 
  375000    1.1254641   -4.6507278    261.43804  0.058097343  0.059650797            4 
  376000    1.0817006    -4.634052    261.53384  0.057964059  0.059629776            5 
  377000     1.116057   -4.6493303    261.72629  0.057852849  0.059606691            2 
  378000    1.0965193   -4.6546849    263.02539  0.057986197  0.059583791            3 
  379000     1.122427   -4.6625697    262.59199  0.057737904  0.059563722            4 
  380000    1.0964916   -4.6670202    265.01263  0.058116805  0.059543214            3 
  381000    1.1048646   -4.6482343    265.77067  0.058130068  0.059524887            1 
  382000    1.1063185   -4.6644104    265.50704  0.057920384  0.059506013            2 
  383000    1.1171231   -4.6378014    265.65785  0.057801969  0.059484924            1 
  384000    1.0786128   -4.6483581     266.6007  0.057856055  0.059466177            3 
  385000    1.1111894   -4.6466038    268.65637  0.058150728  0.059446428            2 
  386000    1.1061256   -4.6965751    267.66009  0.057784994  0.059426589            4 
  387000    1.0826583    -4.673053    268.75024  0.057870422   0.05940707            5 
  388000    1.0662404   -4.6635111    269.33142  0.057846095  0.059387892            5 
  389000     1.088759   -4.6572837    269.30151  0.057690983  0.059367507            4 
  390000    1.0997886   -4.6835221    269.74463  0.057637741  0.059346041            3 
  391000    1.1002863   -4.6743398    270.60724  0.057674177  0.059323367            5 
  392000    1.0883925   -4.6543036    271.46794  0.057710022  0.059300392            2 
  393000    1.1173209   -4.6600461    272.38397  0.057757416  0.059279592            2 
  394000     1.094738   -4.6754369    272.27591  0.057587967  0.059259756            5 
  395000    1.1049367   -4.6569064     275.0197  0.058021034  0.059239268            2 
  396000    1.0832125   -4.6724685    274.22133  0.057706509  0.059219615            1 
  397000    1.0893521   -4.6809486    274.14358  0.057544833  0.059197969            5 
  398000    1.0868172    -4.642179    274.99815  0.057579176  0.059176016            1 
  399000     1.100404   -4.6747772    275.81046  0.057604523  0.059153914            2 
  400000    1.0805029   -4.6684331    275.78839  0.057455914  0.059132275            6 
  401000    1.0852569   -4.6800954    276.83055  0.057529207  0.059109054            3 
  402000    1.1188666   -4.6782936    277.41425  0.057507101   0.05908439            3 
  403000    1.0910437   -4.6715508    278.31758  0.057551195  0.059061631            2 
  404000    1.0846219   -4.7066013    277.70379  0.057282135  0.059037904            3 
  405000    1.0920578   -4.6952329    279.30639   0.05747045  0.059013953            3 
  406000    1.1024932    -4.700152    279.69244  0.057408137  0.058992257            2 
  407000     1.090508   -4.6813857    280.46428  0.057425118  0.058969685            3 
  408000    1.0892062   -4.6861276    282.23407  0.057645847  0.058948598            4 
  409000    1.0940127   -4.6679649    282.24772  0.057507684  0.058929339            3 
  410000    1.1065848   -4.6699162    282.14637  0.057346824   0.05890669            2 
  411000    1.0877898   -4.7200504    282.83706  0.057347336  0.058883966            3 
  412000    1.0738488    -4.709845     283.3779  0.057317536  0.058862308            3 
  413000    1.0901975   -4.6833114    283.74673  0.057253173  0.058839919            4 
  414000    1.0761072   -4.7098048     284.4161  0.057249617  0.058818854            3 
  415000    1.0870867   -4.6979153    286.02329  0.057434396  0.058798006            5 
  416000    1.0856775   -4.6902395    286.24264  0.057340272  0.058778024            1 
  417000    1.0721844   -4.6638381    288.13318  0.057580571  0.058757476            5 
  418000    1.1044074   -4.6854451    288.50948  0.057517839  0.058738288            3 
  419000     1.088605   -4.7359446    287.59867  0.057199417  0.058717228            2 
  420000    1.0872607   -4.6692961    288.27788  0.057197991  0.058694418            5 
  421000    1.1026713   -4.6470429    289.46186  0.057296489  0.058672587            7 
  422000    1.0664486   -4.7389785    290.18007  0.057302541  0.058653053            4 
  423000    1.0789438   -4.6886873    290.16826  0.057164748  0.058632775            2 
  424000    1.0892053   -4.7017296    290.10203  0.057016908   0.05861274            4 
  425000     1.075143   -4.6676302    292.56928  0.057366526  0.058592841            2 
  426000    1.0945687   -4.6689617    292.52945  0.057224072  0.058570998            2 
  427000    1.0712964    -4.720498    291.86952  0.056961265  0.058549678            4 
  428000    1.0747875   -4.6829226    292.70909  0.056991645   0.05852832            4 
  429000    1.0919541   -4.6841301    294.21393  0.057151113  0.058509183            2 
  430000    1.0939185   -4.7111547    293.78156  0.056934412  0.058488649            2 
  431000    1.0773315   -4.7000537     295.6366  0.057160983  0.058467825            3 
  432000     1.076724   -4.6575045    295.87564  0.057074777  0.058448574            3 
  433000    1.1010443   -4.6913854    297.59459  0.057273785  0.058428377            6 
  434000    1.0809372   -4.7124626     297.4321  0.057110618  0.058407968            1 
  435000    1.0868853   -4.7190223    298.63506  0.057209781  0.058388207            2 
  436000    1.0625489   -4.7419308    298.03651  0.056964164  0.058368036            4 
  437000    1.0782819   -4.7105769    299.10636  0.057037826  0.058346666            3 
  438000    1.0755327   -4.7141481    299.26708  0.056938182   0.05832491            6 
  439000     1.082148   -4.7115722    299.75194   0.05690052  0.058304221            2 
  440000    1.0845628   -4.7228095    299.93676  0.056806204  0.058282088            2 
  441000    1.0833327   -4.7320932     299.4821  0.056591477  0.058258981            4 
  442000    1.0651922   -4.7230979    300.54957  0.056664699  0.058236241            3 
  443000    1.0596038   -4.7022662    300.01021  0.056435328  0.058211009            2 
  444000    1.0715392   -4.6673964    302.52522  0.056780259   0.05818668            4 
  445000    1.0544383   -4.7332256    301.11364  0.056388322  0.058161926            3 
  446000    1.0901923   -4.7367581    302.08353  0.056443111  0.058137863            3 
  447000    1.0610746   -4.7068258     303.8175  0.056640101  0.058112324            2 
  448000    1.0494597    -4.698326    303.13702  0.056387094  0.058086582            2 
  449000    1.0648355   -4.7200677    304.33452  0.056483764  0.058061062            2 
  450000    1.0565879   -4.7387814    304.68729  0.056423571  0.058035542            1 
  451000    1.0620646   -4.7428885    304.15636  0.056200363  0.058009704            3 
  452000    1.0544142   -4.6735324    306.14538  0.056442732  0.057984061            5 
  453000    1.0892994   -4.7089817    307.39095  0.056547268  0.057960233            3 
  454000    1.0727106   -4.7286471    306.58342   0.05627449  0.057936087            3 
  455000    1.0837232   -4.7159502    308.11087  0.056430561  0.057911092            3 
  456000    1.0755488   -4.7022117    309.71904  0.056600701  0.057887971            2 
  457000    1.0678891   -4.7257204    309.53372  0.056443056  0.057864201            5 
  458000      1.07347   -4.6877061    310.64337   0.05652172  0.057839323            1 
  459000    1.0627066   -4.7042713    310.12063  0.056303672  0.057815917            4 
  460000    1.0617881   -4.7200757    311.09721   0.05635819  0.057791783            4 
  461000    1.0776156   -4.7489248    311.40524   0.05629162  0.057767152            2 
  462000    1.0819456    -4.723258    311.52577  0.056191517  0.057743812            2 
  463000    1.0744908   -4.7139062    313.26211  0.056382669  0.057720501            2 
  464000    1.0598021   -4.7196963     313.4598  0.056296659  0.057698696            3 
  465000    1.0660376   -4.7153407      313.507   0.05618405  0.057676787            2 
  466000    1.0491554   -4.7294416    315.09884  0.056348147  0.057654074            3 
  467000    1.0602277   -4.7134146    315.44321  0.056288938  0.057630567            5 
  468000    1.0745079   -4.7397841    316.19213  0.056302017  0.057607579            1 
  469000    1.0618448   -4.7357025      316.161  0.056176439  0.057584535            5 
  470000    1.0619194   -4.7374259    316.93021  0.056193299  0.057561482            4 
  471000    1.0767577   -4.7071317    317.11251  0.056106247  0.057537863            4 
  472000    1.0518441   -4.7333398    317.16532  0.055996701  0.057513692            2 
  473000    1.0660926   -4.7146041    318.10318  0.056043548   0.05748983            3 
  474000    1.0513424   -4.7562575    319.02405   0.05608721  0.057466577            2 
  475000    1.0577291   -4.7193116    319.47057  0.056047468  0.057443129            1 
  476000    1.0634679   -4.7132549    320.19121  0.056055885  0.057419074            3 
  477000    1.0601174   -4.7110421     321.1676  0.056108945  0.057394953            2 
  478000    1.0564064   -4.7728671    320.30738  0.055841594  0.057371497            3 
  479000     1.065943   -4.7269334    322.01383  0.056021891  0.057346915            2 
  480000    1.0579073   -4.7352593     321.9003  0.055885469  0.057323322            3 
  481000    1.0750787   -4.7510158    321.94797  0.055777542  0.057299569            4 
  482000    1.0806692   -4.7703234    322.50987  0.055758968  0.057276127            2 
  483000    1.0663096   -4.7301611    322.90913  0.055712411  0.057253235            3 
  484000    1.0573388   -4.7449802    323.97815  0.055781362  0.057228765            2 
  485000    1.0754317   -4.7463465    324.36268  0.055732419  0.057204448            3 
  486000    1.0782143   -4.7529407     324.8842  0.055707167  0.057180306            2 
  487000    1.0438389   -4.7478281    324.74685  0.055569276  0.057156708            2 
  488000    1.0613001    -4.748739    326.91912  0.055826352  0.057132835            4 
  489000    1.0426377   -4.7331273    327.67988  0.055841833   0.05711038            2 
  490000    1.0557313   -4.7344821    327.30552  0.055664204  0.057087187            6 
  491000    1.0659178   -4.7034795     329.7596  0.055967346  0.057065536            3 
  492000    1.0525576   -4.7483903    329.25355  0.055767878  0.057041945            2 
  493000    1.0437617    -4.744055    330.10641  0.055798919  0.057018123            4 
  494000    1.0834212   -4.7503503    331.18511  0.055867933  0.056994769            2 
  495000    1.0455062   -4.7297927    330.99245  0.055722634   0.05697205            2 
  496000     1.041867   -4.7610711    329.09163  0.055290932  0.056948205            3 
  497000    1.0368797   -4.7553637    330.62065  0.055436057  0.056923175            2 
  498000    1.0481886   -4.7612485    331.79512  0.055521272  0.056899924            3 
  499000    1.0663304   -4.7457983    332.35198  0.055503003  0.056874989            4 
  500000    1.0868484   -4.7335245    331.65062  0.055275103  0.056850487            1 
  501000    1.0663127   -4.7701028    332.84961  0.055364206  0.056826505            2 
  502000    1.0521955   -4.7354228    333.91822  0.055431311  0.056801513            2 
  503000    1.0534598   -4.7624807    333.68872  0.055283088  0.056777851            2 
  504000    1.0577402   -4.7484683    334.13849  0.055247767  0.056754129            1 
  505000    1.0737019   -4.7404213     335.8814  0.055425973   0.05672992            3 
  506000    1.0331629    -4.797446    334.70765   0.05512313  0.056706288            4 
  507000    1.0513411   -4.7637734    335.97497   0.05522271  0.056682252            5 
  508000    1.0541406   -4.7355683    337.94452  0.055437093  0.056658728            1 
  509000    1.0443587   -4.7532603     337.4719  0.055250802  0.056635221            6 
  510000    1.0497497   -4.7677898    337.81024  0.055197752  0.056611327            3 
  511000    1.0384707   -4.7532009    338.40043  0.055185979  0.056587543            4 
  512000    1.0700663    -4.765038    339.19979  0.055208299  0.056562375            3 
  513000    1.0660512   -4.7677399    338.64874  0.055011167  0.056537692            4 
  514000    1.0452473   -4.7623416    338.75965  0.054922121  0.056511606            3 
  515000    1.0502847    -4.756464    340.16991  0.055043675  0.056485026            6 
  516000    1.0313094   -4.7919857    339.26946  0.054791579  0.056457993            5 
  517000    1.0387168     -4.72383    342.20073   0.05515808  0.056432288            3 
  518000    1.0458243   -4.7817031    340.68645  0.054807987  0.056406952            9 
  519000    1.0453874   -4.7848961    341.38026  0.054813785  0.056380983            3 
  520000     1.043198   -4.7908146    343.46336  0.055042204  0.056355441            5 
  521000    1.0375906    -4.770018    342.88657  0.054844301  0.056328541            4 
  522000    1.0518445   -4.7664751    342.61138  0.054695303   0.05630132            1 
  523000     1.049278   -4.7672893     342.9205  0.054639978  0.056273841            3 
  524000    1.0449518   -4.7701613    344.03651  0.054713186  0.056246043            3 
  525000    1.0452444   -4.7392611    345.12231  0.054781318  0.056218087            2 
  526000    1.0466204   -4.7503851    345.21617  0.054692042  0.056191234            3 
  527000    1.0466852   -4.7944874    344.08756  0.054409798  0.056163787            8 
  528000    1.0377596   -4.8037617    344.04025  0.054299282  0.056135289            3 
  529000    1.0658584   -4.7902715    345.37544  0.054406969  0.056107541            3 
  530000    1.0376525   -4.7857765    346.65527  0.054505545  0.056078925            4 
  531000     1.063941    -4.751646    346.65034  0.054402125  0.056050961            3 
  532000    1.0341862   -4.7840246    348.34824  0.054565827  0.056022743            3 
  533000    1.0278038   -4.7774075     347.2328  0.054289056  0.055994597            3 
  534000    1.0271611   -4.7764907     346.9988  0.054150874   0.05596573            4 
  535000    1.0472857   -4.8189003    349.93845  0.054507547  0.055937302            3 
  536000    1.0359472   -4.7923827    349.86337   0.05439418  0.055909667            2 
  537000    1.0378112   -4.7530193    350.65299  0.054415424  0.055882385            2 
  538000    1.0275274   -4.7942777    349.80749  0.054183316  0.055854385            1 
  539000    1.0462376   -4.8147557    349.83121  0.054086459  0.055826094            3 
  540000    1.0322107   -4.7729521    351.56705  0.054254174   0.05579764            4 
  541000    1.0516957   -4.7739999    351.46812   0.05413865  0.055769137            4 
  542000    1.0353133   -4.8025303    352.71181  0.054229982  0.055741239            3 
  543000    1.0324333   -4.7707178    352.44047   0.05408847  0.055712918            2 
  544000    1.0531732   -4.7859592    351.52999  0.053849569  0.055683733            4 
  545000    1.0504152   -4.8308111    352.13265  0.053842912  0.055654006            6 
  546000    1.0269893   -4.8103213    352.73382  0.053836053  0.055624108            2 
  547000    1.0389891   -4.7768826    352.35438  0.053679826  0.055593995            2 
  548000    1.0393886   -4.7594747    354.53254    0.0539131   0.05556423            3 
  549000    1.0527524   -4.7826173    355.81076   0.05400892  0.055534656            5 
  550000    1.0110744   -4.7651883    355.84241  0.053915516  0.055504839            3 
  551000    1.0438445   -4.7747888    356.57264  0.053928106  0.055475388            4 
  552000     1.040737   -4.7871199     357.0886  0.053908303  0.055445193            4 
  553000    1.0331724   -4.7831072    355.96843  0.053642017   0.05541509            2 
  554000    1.0123604   -4.8272379    356.78548  0.053668092  0.055385178            2 
  555000    1.0380046   -4.7986858     356.8879  0.053586772   0.05535561            4 
  556000      1.03442   -4.7904188    358.79751  0.053776605  0.055326194            2 
  557000    1.0033774   -4.7769632    360.36181  0.053914095   0.05529726            6 
  558000    1.0043842   -4.7810901    359.57432  0.053699868  0.055268051            2 
  559000    1.0057138   -4.7691649    360.64248  0.053763042  0.055239121            3 
  560000    1.0178263   -4.7929792    360.87525  0.053701674  0.055209443            2 
  561000    1.0121922   -4.8107423    360.73018    0.0535844  0.055180067            2 
  562000    1.0564148   -4.7975344    362.19246   0.05370588  0.055151018            3 
  563000    1.0373809   -4.7950267    361.69114  0.053536284  0.055122757            2 
  564000    1.0355074   -4.8146778    361.49944  0.053413038  0.055094807            2 
  565000    1.0377345   -4.7854855    363.43044   0.05360331  0.055066677            2 
  566000    1.0471379   -4.8081985    365.40334  0.053799078  0.055038446            3 
  567000    1.0531762   -4.7845405    364.71636  0.053603227  0.055011485            5 
  568000    1.0354194   -4.7749397     366.4363  0.053761194  0.054984759            3 
  569000    1.0194769    -4.827303    364.54624    0.0533899  0.054956703            3 
  570000    1.0157139   -4.7956386    366.13503  0.053528513  0.054928251            6 
  571000    1.0344504   -4.8402949    365.42037  0.053330469  0.054899617            4 
  572000    1.0047984   -4.7817926    367.13761  0.053487415  0.054870921            3 
  573000    1.0334111   -4.8189187    367.03173   0.05337867  0.054842039            3 
  574000    1.0237853    -4.815148    366.43967   0.05319972  0.054812549            3 
  575000    1.0189885   -4.8423619    366.00186  0.053043748  0.054783039            3 
  576000     1.022493   -4.8100043    367.42528  0.053157593  0.054753403            5 
  577000    1.0225422   -4.7926652    368.73602  0.053254769  0.054724041            3 
  578000    1.0443071   -4.7958575    368.30275  0.053100165  0.054694451            2 
  579000    1.0183202   -4.8089828     368.5665  0.053046417  0.054665618            4 
  580000    1.0219837   -4.8237942    369.85847  0.053140585  0.054636626            2 
  581000    1.0006984   -4.8105832    369.58899  0.053010469  0.054607943            3 
  582000    1.0356387    -4.800568    372.09116  0.053277658  0.054578467            6 
  583000    1.0094914   -4.8200482    371.52877  0.053105885  0.054550008            3 
  584000     1.026153   -4.8224043    372.13218  0.053101053  0.054520245            6 
  585000    1.0279735   -4.7873383    371.43308  0.052910696  0.054489764            2 
  586000    1.0139669   -4.8036713    372.34666  0.052950321  0.054459405            6 
  587000    1.0185109   -4.8487335    372.16238  0.052833955  0.054428696            4 
  588000    1.0433605   -4.8266207    372.14313  0.052741373  0.054397886            2 
  589000    1.0356907   -4.8120512    372.86991  0.052754656   0.05436763            3 
  590000    1.0403695   -4.8060656     374.0688  0.052834576  0.054338676            2 
  591000    1.0135778   -4.8309902    374.57418  0.052816438  0.054309762            3 
  592000    1.0063373   -4.7949903    376.14933  0.052948948  0.054281208            1 
  593000    0.9958445   -4.8216665    375.27047  0.052736154  0.054252506            3 
  594000    1.0360521   -4.8347493     375.6287   0.05269763  0.054222884            2 
  595000    1.0210846   -4.8096802    375.75563  0.052626839  0.054192721            7 
  596000    1.0076212   -4.8189835    375.74494  0.052537044  0.054162815            5 
  597000   0.99859594   -4.8274992    376.89555  0.052609652  0.054132133            2 
  598000    1.0185083   -4.8029858    376.69649  0.052493936  0.054101176            5 
  599000    1.0300901   -4.8441696    376.47337  0.052375261  0.054069927            2 
  600000    1.0135732   -4.8235933    377.11886  0.052377619   0.05403913            4 
  601000   0.99930702   -4.8491763    378.05523  0.052420304  0.054009176            2 
  602000    1.0156348   -4.8261332    378.76269  0.052431158  0.053978633            2 
  603000    1.0096921   -4.8101762    379.70266   0.05247411  0.053948558            4 
  604000     1.019133   -4.8083913    380.64697  0.052517518  0.053918481            6 
  605000    1.0106869    -4.785261    381.30198  0.052520934   0.05388904            2 
  606000    1.0233067   -4.8129945    379.92929  0.052245501  0.053858458            3 
  607000    1.0027401   -4.8296666     380.3989  0.052223902  0.053828101            3 
  608000    1.0056687   -4.8726707    381.09887  0.052233945   0.05379746            3 
  609000    1.0030234   -4.8478301    381.81872  0.052246678  0.053768216            2 
  610000   0.98072376   -4.8028796    382.97572  0.052319087  0.053738901            3 
  611000      1.00559   -4.8211605    383.48251  0.052302579  0.053710065            4 
  612000    1.0005285   -4.8293255    385.21731  0.052453337  0.053680764            6 
  613000    1.0100356   -4.8307841    383.63689  0.052152922  0.053652205            3 
  614000   0.99563109   -4.8079853    386.01636  0.052390928  0.053623683            2 
  615000   0.99731056   -4.8582133    385.93614   0.05229487  0.053595255            4 
  616000   0.99228049   -4.8363752    386.24279  0.052251459  0.053566933            5 
  617000    1.0427949   -4.8107469    386.20173  0.052161227    0.0535379            1 
  618000    1.0264864   -4.8297871    386.34369  0.052095967  0.053509509            4 
  619000    1.0132113   -4.8679154    385.81379  0.051940467  0.053480797            3 
  620000   0.99771825   -4.8740635    385.68672  0.051839613  0.053451201            3 
  621000   0.99135967   -4.8704952    388.39541   0.05211962  0.053421688            3 
  622000   0.99225135   -4.8450779    388.75465  0.052083956  0.053392316            3 
  623000    1.0101155   -4.8156803    389.65793  0.052121178  0.053363672            2 
  624000   0.98504225   -4.8507364      388.752  0.051916666  0.053334273            3 
  625000    1.0219054   -4.8160093    391.10976  0.052147967  0.053305716            2 
  626000    1.0166176   -4.8439006    389.61706  0.051865956  0.053277227            3 
  627000    1.0052086   -4.8377972    391.39977  0.052020171  0.053248761            3 
  628000     1.019546   -4.8538667    390.95725  0.051878616  0.053221009            3 
  629000    0.9855778     -4.86245     393.2541  0.052100437  0.053192277            2 
  630000     1.012304   -4.8447328    391.46179   0.05178066  0.053163542            6 
  631000    0.9662103   -4.8295382    392.10984  0.051784184  0.053135062            3 
  632000   0.99192778   -4.8269224    394.24324  0.051983549  0.053106469            3 
  633000    1.0184735   -4.8322324    394.08969  0.051881213  0.053078333            3 
  634000   0.97968116   -4.8650174    392.62441  0.051606784  0.053050014            4 
  635000   0.99616091   -4.8523601     393.1002  0.051587953  0.053020878            2 
  636000    1.0042283   -4.8557774    393.24562  0.051525893  0.052991761            5 
  637000    1.0115206   -4.8250765    394.35237  0.051589792  0.052963055            7 
  638000   0.99160623   -4.8148029     394.7735  0.051563937  0.052933622            5 
  639000   0.99987335   -4.8583038    395.25993  0.051546678  0.052904819            4 
  640000   0.98228401   -4.8277869    396.87822  0.051676851  0.052875979            3 
  641000      1.01096    -4.849019    396.58844  0.051558559  0.052846961            5 
  642000    1.0015102    -4.864034    396.04238   0.05140737   0.05281817            9 
  643000    1.0050567   -4.8449355    398.77958  0.051682165  0.052790182            3 
  644000   0.99330664   -4.8740759    396.82027  0.051348378  0.052761916            2 
  645000   0.98804436   -4.8488103    399.66719  0.051636587  0.052733721            5 
  646000   0.98699766   -4.8733805    399.96726  0.051595364  0.052704997            2 
  647000   0.98007315    -4.867783     398.3498   0.05130729   0.05267588            1 
  648000    1.0034129   -4.8557368    399.40957    0.0513644  0.052647098            2 
  649000    1.0101849   -4.8666085    399.04322  0.051238215  0.052617996            2 
  650000   0.97814918   -4.8885564    398.88426  0.051139008   0.05258895            2 
  651000   0.98209854   -4.8604377    399.97753  0.051200401  0.052559551            3 
  652000   0.98841396   -4.8883379    399.72078  0.051089056  0.052529544            4 
  653000   0.99476673   -4.8559147     401.4873  0.051236255   0.05249982            3 
  654000   0.98586127   -4.8538567    399.46319  0.050899999  0.052469672            4 
  655000   0.99189721   -4.8657579    400.21226   0.05091759  0.052439249            2 
  656000    1.0214073   -4.8505749    402.22345  0.051095458  0.052408705            2 
  657000   0.98450547   -4.8545378    402.57601  0.051062406  0.052379073            3 
  658000   0.98323247   -4.8469779    401.39383  0.050835085  0.052348648            3 
  659000   0.98953112   -4.8472639    401.73481  0.050801063  0.052318386            5 
  660000    1.0032647   -4.8905515    401.77278  0.050728886  0.052287154            3 
  661000   0.98417118   -4.8611187    402.87703  0.050791355  0.052256116            4 
  662000   0.95988924   -4.8893861    403.07036  0.050738968  0.052224964            2 
  663000    1.0049756   -4.8543737    405.09148  0.050916476  0.052194342            3 
  664000    1.0089648   -4.8566213    405.61429  0.050905408  0.052163879            5 
  665000   0.96414476   -4.8658474    404.44789  0.050682693  0.052133218            9 
  666000   0.96659848   -4.9032059    404.59488  0.050624984  0.052102433            3 
  667000   0.99060173   -4.8739747    405.97164  0.050721094  0.052071982            3 
  668000   0.96764225   -4.8483116    406.13058  0.050664993   0.05204158            3 
  669000   0.98719268   -4.8221507    407.11541  0.050711935  0.052011202            3 
  670000   0.96105509   -4.8839534     405.9966  0.050497089  0.051980389            5 
  671000    1.0049613   -4.8692943    407.82517  0.050648929  0.051948862            3 
  672000   0.98218633   -4.8795896    407.92338  0.050585736  0.051917896            3 
  673000   0.99046901   -4.8846025    406.75938  0.050366442   0.05188646            1 
  674000   0.98474371   -4.9105743    407.25385   0.05035285  0.051855317            2 
  675000   0.97756419   -4.8803673    409.19948  0.050518454  0.051824685            3 
  676000   0.97754897   -4.9071737     408.5468  0.050363264   0.05179356            3 
  677000   0.99113671   -4.8984576    407.84116  0.050202014  0.051762328            3 
  678000    0.9760846   -4.8743374    410.30157  0.050430379  0.051731588            2 
  679000    1.0004754   -4.9113935    410.68859  0.050403607  0.051701258            2 
  680000   0.96213654   -4.8901098    411.59906  0.050441061  0.051670744            4 
  681000   0.97241303   -4.8998701    410.55608  0.050239363  0.051640968            5 
  682000   0.99634067   -4.8961766    413.63517  0.050541932  0.051611108            2 
  683000   0.97476575   -4.8920978    413.60199  0.050463883  0.051582049            5 
  684000   0.94848674   -4.8958736    413.37956  0.050363006  0.051552639            4 
  685000    1.0045446   -4.8689561    413.88698  0.050351214  0.051522821            7 
  686000   0.98105809    -4.902453    413.26107  0.050201783  0.051492843            3 
  687000   0.99550642   -4.8919887    413.91657  0.050208221  0.051463135            4 
  688000   0.99670101   -4.9399496    412.64177  0.049980834   0.05143291            2 
  689000   0.98416064   -4.8440499    415.24311   0.05022292  0.051403237            4 
  690000   0.97097463   -4.8923222    413.99432  0.049999313  0.051373637            5 
  691000   0.98027541   -4.8993497    414.35385  0.049970314  0.051343572            3 
  692000   0.98146291   -4.8695651    415.67969  0.050057766  0.051314067            5 
  693000   0.96863177   -4.8938715    416.06384  0.050031727  0.051284165            3 
  694000   0.96321606   -4.9129861    414.87275  0.049816613  0.051254178            5 
  695000   0.98172706   -4.9030291    417.40453  0.050048504  0.051224229            1 
  696000   0.96683347   -4.9196703     417.7379  0.050016511  0.051194898            2 
  697000    0.9729232   -4.8797513    418.81026  0.050072962   0.05116596            3 
  698000    1.0120675   -4.8689986    419.51193  0.050084996  0.051137342            4 
  699000   0.97643307   -4.9049797    419.04432  0.049957596  0.051108714            3 
  700000   0.96758017   -4.9073999    418.30114  0.049797755  0.051080091            3 
  701000   0.98181712   -4.9249061    418.85895  0.049793028  0.051050737            6 
  702000   0.96638471   -4.8958961    421.55435  0.050042064  0.051021602            5 
  703000   0.99354879   -4.8860504    421.02421  0.049908038  0.050993101            3 
  704000   0.96430252   -4.9030877    421.63773   0.04990977  0.050964513            5 
  705000   0.98067332   -4.9013127    422.33655  0.049921578  0.050935317            4 
  706000   0.97057688   -4.8985127    421.53451  0.049756198  0.050906291            3 
  707000   0.97644698   -4.8893464      421.266  0.049654173  0.050876801            3 
  708000   0.96269554   -4.8921977     422.2436  0.049699105  0.050846957            6 
  709000   0.98524751   -4.8739595    423.51984  0.049779013   0.05081809            4 
  710000   0.97406616   -4.9088617    423.31367  0.049684703  0.050790071            2 
  711000   0.96781488   -4.9105758     424.7823  0.049786955  0.050761987            3 
  712000   0.96678826   -4.8718459    426.44304  0.049911404  0.050734905            4 
  713000   0.96139287   -4.9160746    427.08533  0.049916472  0.050708203            4 
  714000    0.9551453   -4.9200678    426.10668  0.049732339  0.050681205            8 
  715000   0.94092751   -4.9105788    426.06875  0.049658363   0.05065402            4 
  716000   0.95845859    -4.912933    426.74881  0.049668157  0.050626512            4 
  717000   0.95437534   -4.9372017    426.92099  0.049618897  0.050598917            4 
  718000   0.95234698   -4.9067779    426.32409  0.049480512  0.050571176            2 
  719000   0.97562428    -4.921178    428.26459  0.049636601  0.050543595            5 
  720000   0.95056045   -4.9442252    427.78589  0.049512255  0.050515733            4 
  721000   0.95092263   -4.9164256    427.34667  0.049392819  0.050487771            4 
  722000   0.97483886    -4.922658    429.03476  0.049519248  0.050460044            4 
  723000   0.95885322   -4.9188434     429.4992  0.049504287  0.050432451            2 
  724000   0.95434457   -4.9042064    427.81201  0.049241714  0.050403719            5 
  725000   0.95527817   -4.9621173    429.32802  0.049348048  0.050375377            4 
  726000   0.97743624   -4.9033779    430.95632  0.049466979  0.050347666            4 
  727000   0.95711091   -4.9211831    430.08411  0.049298958  0.050319808            6 
  728000   0.96488042   -4.9320978    432.75604  0.049537093  0.050292486            4 
  729000   0.97976066   -4.9650359    430.39929  0.049199736  0.050265363            2 
  730000    0.9675576   -4.9467003    432.02756  0.049318215  0.050238111            7 
  731000   0.94035247   -4.9313368     433.0225   0.04936417  0.050211721            3 
  732000   0.96730361   -4.9184435    433.95062  0.049402393   0.05018592            5 
  733000   0.94154342   -4.9480281    433.52182  0.049286246  0.050159885            3 
  734000   0.97422594   -4.9418542    436.10226  0.049512064  0.050133131            4 
  735000    0.9582625   -4.9531602    433.86457  0.049190995  0.050106587            2 
  736000   0.96585475   -4.9588287    435.25251  0.049281308  0.050079918            3 
  737000   0.93600776   -4.9135076    435.87099  0.049284372  0.050052803            3 
  738000   0.93823831   -4.9467086    434.53609  0.049066857   0.05002576            3 
  739000   0.94609854   -4.9424278    435.12434  0.049066795  0.049999075            3 
  740000   0.96227525    -4.930708    436.11433  0.049111974   0.04997157            5 
  741000   0.95521584   -4.9553543    436.33867  0.049070925  0.049943881            4 
  742000   0.95475011   -4.9183436    436.81787  0.049058611  0.049916468            3 
  743000    0.9619522   -4.9561953    436.45707  0.048952116  0.049889626            5 
  744000   0.95380155   -4.9012096    437.81465  0.049038379  0.049862204            3 
  745000   0.97112582   -4.9698949    436.24647  0.048797145  0.049834808            4 
  746000   0.93811861   -4.9772398     436.3473  0.048742996  0.049806987            4 
  747000   0.98007271   -4.9399066    437.87194  0.048847829  0.049779754            2 
  748000   0.96756507   -4.9151908    440.18064  0.049039733  0.049752802            2 
  749000   0.94940205   -4.9336497    439.86652   0.04893931  0.049725957            3 
  750000   0.96531695    -4.954042    440.97981  0.048997756   0.04969929            3 
  751000   0.94850716   -4.9516436    439.48861  0.048767045  0.049672482            2 
  752000   0.96162342   -4.9643578    440.84035  0.048851989  0.049645314            4 
  753000   0.94709391   -4.9226334    442.20924  0.048938606    0.0496182            3 
  754000   0.96460801   -4.9515308    440.60374  0.048696258  0.049591631            2 
  755000   0.93917448   -4.9514668    442.03097   0.04878929  0.049565167            5 
  756000   0.95363276     -4.94068    441.36021  0.048650816  0.049538541            2 
  757000   0.93195441   -4.9539987    440.98824  0.048545601   0.04951189            5 
  758000   0.94825134   -4.9464504    443.72824  0.048782788  0.049485334            3 
  759000   0.95014346   -4.9159711    445.33304  0.048894713  0.049458919            5 
  760000   0.96846441   -4.9389001    444.01568  0.048685929  0.049433402            4 
  761000   0.95302519   -4.9133541    446.21991  0.048863328   0.04940763            4 
  762000   0.95860688   -4.9802433    443.54892  0.048507099  0.049382212            2 
  763000   0.94570934   -4.9626107    445.68453  0.048676772  0.049356472            7 
  764000   0.95872036   -4.9822078    445.32523  0.048573869  0.049330605            3 
  765000   0.95705006   -4.9448596    446.72877  0.048663264  0.049305002            5 
  766000    0.9760368   -4.9539041    448.80556   0.04882567  0.049279588            5 
  767000   0.94484759   -4.9454515    447.98378  0.048672727  0.049254365            5 
  768000   0.93953633   -4.9672631    446.53714   0.04845238  0.049228553            5 
  769000   0.95076445   -4.9373709    448.30047  0.048580458  0.049202488            4 
  770000   0.95854494   -4.9490401    447.85006  0.048468621  0.049176941            3 
  771000   0.94838286   -4.9437321    449.78903  0.048615329  0.049151503            3 
  772000   0.91911811   -4.9454901    447.93686  0.048352425  0.049125928            3 
  773000   0.92347211   -4.9558586    450.51732  0.048568059   0.04910064            5 
  774000   0.95973289   -4.9707007    449.23202  0.048366927  0.049075147            4 
  775000    0.9564217   -4.9595079     448.6343  0.048240247  0.049049559            3 
  776000    0.9371453    -4.970487     451.5066  0.048486534  0.049023699            3 
  777000   0.92417827   -4.9637632    449.74718  0.048235433  0.048997294            2 
  778000   0.93110854   -4.9216276    451.70448  0.048383085  0.048971683            9 
  779000   0.95039952   -4.9622412     450.6835  0.048211756   0.04894557            4 
  780000   0.93637785   -4.9646906    449.90619  0.048066901  0.048919336            5 
  781000   0.94898738   -4.9673003    451.66616  0.048193145   0.04889285            3 
  782000   0.93837772   -4.9848496    452.28065     0.048197  0.048867019            6 
  783000   0.94406399   -4.9763861    452.86272  0.048197395  0.048841242            8 
  784000   0.93287417   -4.9834548    453.15485   0.04816697   0.04881534            7 
  785000   0.94061257   -4.9418619    454.38866  0.048236588  0.048789271           11 
  786000   0.93272402   -4.9713431    453.39647  0.048070025  0.048763337            7 
  787000    0.9446322   -4.9405644     455.6767  0.048250391  0.048737459            1 
  788000   0.95789332   -4.9619863    453.65617  0.047975483  0.048711495            3 
  789000   0.92789833   -4.9788898    454.07069  0.047958459  0.048684641            2 
  790000   0.92287703   -4.9517419    455.35635   0.04803337  0.048658466            1 
  791000    0.9214088     -4.96632    454.34559   0.04786616  0.048632223            3 
  792000   0.93800008   -4.9945587     454.8869  0.047862678  0.048606126            3 
  793000   0.94532878   -4.9751518    457.82486  0.048111062  0.048580308            4 
  794000    0.9469894   -4.9632807    456.50881  0.047912344  0.048554792            3 
  795000   0.93214791   -4.9968481    458.22579  0.048032054  0.048528971            4 
  796000   0.92145366   -4.9752074    457.68837   0.04791545  0.048503372            3 
  797000   0.94343005   -4.9530518     458.0172  0.047889712  0.048477629            2 
  798000   0.92792273    -5.011191    457.70415  0.047797008  0.048451589            2 
  799000   0.92367052   -4.9872753     457.4616   0.04771189  0.048425321            3 
  800000   0.91500002   -4.9792148    457.72425  0.047679609  0.048399102            5 
  801000   0.92958426   -4.9785001    458.44658  0.047695233  0.048373292            5 
  802000   0.93177534   -4.9822294    459.79436  0.047775806  0.048347434            8 
  803000   0.91830147   -4.9693963    460.40885   0.04778008  0.048321796            5 
  804000    0.9409251   -5.0137133    460.29162  0.047708501   0.04829626            2 
  805000   0.94345986    -4.992115    460.15621  0.047635218  0.048270514            3 
  806000   0.93183248   -4.9870331     460.0466  0.047564785  0.048244271            3 
  807000    0.9032611   -4.9693035    462.21362  0.047729618  0.048218338            5 
  808000   0.93381852   -5.0083888    460.15441   0.04745817  0.048192493            3 
  809000   0.93202822    -4.973795    461.89583  0.047578887  0.048166555            3 
  810000   0.93929255   -4.9786958    461.82788  0.047513156  0.048140436            4 
  811000   0.93096059   -5.0005413    460.98474  0.047367935  0.048114262            4 
  812000   0.93033018   -5.0014234    462.19581  0.047433888    0.0480879            5 
  813000   0.91610433   -4.9726605    461.51872  0.047306142  0.048061802            3 
  814000   0.94061001   -4.9871349    462.74474  0.047373541  0.048035444            2 
  815000   0.93594918   -4.9778894    462.28325  0.047268226   0.04800919            4 
  816000   0.93544861   -5.0056952    463.80871  0.047366085  0.047982749            4 
  817000   0.92972319   -4.9923618    464.43784  0.047372281  0.047957031            3 
  818000   0.94598382   -4.9709697    464.58291  0.047329148  0.047931129            2 
  819000   0.91371947   -4.9941556    464.54509  0.047267511  0.047905109            3 
  820000   0.92672522   -4.9866209    465.64588  0.047321736   0.04787886            5 
  821000   0.90903446   -4.9751392    466.35821    0.0473364  0.047852738            2 
  822000   0.92577948   -4.9899173    467.20678   0.04736484  0.047826642            4 
  823000   0.94494446   -4.9748923    465.05527  0.047089436  0.047800511            2 
  824000   0.91465815   -5.0198386    465.83492  0.047111137  0.047773795            7 
  825000   0.93659073     -5.00921    465.33914  0.047003953  0.047747491            2 
  826000   0.90675276   -4.9840494    466.67362  0.047081681  0.047721066            3 
  827000   0.92440172   -5.0198551    466.84886  0.047042408  0.047694698            4 
  828000   0.93178089   -5.0251831    466.33568  0.046933945  0.047668658            3 
  829000   0.91996734    -4.991535    467.54807  0.046999203  0.047642215            8 
  830000   0.95577235    -5.033454    465.74326  0.046761372   0.04761561            2 
  831000    0.9062602   -5.0030361    466.84268  0.046815351  0.047588595            3 
  832000   0.92352725   -4.9969729    467.91998  0.046866985  0.047561617            2 
  833000   0.90685675   -5.0142806    469.56495  0.046975285  0.047535095            6 
  834000   0.92328422   -5.0342513    467.99712  0.046762302  0.047508474            5 
  835000   0.91897894   -5.0307523    467.77887  0.046684518  0.047481345            2 
  836000   0.91474123   -5.0051477      469.308  0.046781101  0.047454354            8 
  837000   0.89806468   -5.0317915    470.05268  0.046799351  0.047426821           13 
  838000   0.93227966   -5.0223296    471.27231  0.046864788  0.047399833            3 
  839000   0.92559821   -5.0055031    469.49646  0.046632544  0.047373123            3 
  840000   0.91563697   -5.0198583    470.32924  0.046659647  0.047345996            7 
  841000   0.92183873   -5.0223267    469.02111  0.046474545  0.047318834            3 
  842000   0.90452982   -5.0016977    471.84585  0.046698916  0.047291515            4 
  843000   0.92379096     -5.01681    470.60968  0.046521321  0.047264233            5 
  844000   0.92840693   -5.0293442    470.12504  0.046418349  0.047236544            5 
  845000   0.93499522    -5.043497    470.96446  0.046446199  0.047208764            8 
  846000   0.92010191   -5.0401595    469.60645  0.046257531  0.047181137            5 
  847000   0.90176752   -5.0214751    471.58083   0.04639717  0.047152853            3 
  848000   0.91917506   -5.0240924    470.96718  0.046282152  0.047124475            3 
  849000   0.90352014   -5.0262864    471.89123  0.046318338  0.047096666            2 
  850000   0.91431273   -5.0146468    470.70502  0.046147551  0.047069192            6 
  851000   0.90770284    -5.030419    472.01264  0.046221371  0.047041449            5 
  852000   0.91369485   -4.9768531    474.28679  0.046389553   0.04701423            2 
  853000   0.90843711   -5.0411881    473.76708  0.046284397   0.04698702            3 
  854000   0.91985545   -5.0250306    473.99676  0.046252611  0.046959591            2 
  855000   0.91026024   -5.0514495    472.66856   0.04606906  0.046932479           10 
  856000   0.92618966   -5.0022648    475.21839  0.046263472   0.04690534            5 
  857000   0.90955034   -5.0193873    475.01965  0.046190164  0.046877925            4 
  858000    0.8921101   -5.0316817    474.40779  0.046076903  0.046850479            4 
  859000   0.90894251    -5.004227    475.56008  0.046135048   0.04682342            4 
  860000   0.90838658   -5.0104216     475.4982  0.046075407   0.04679591            3 
  861000   0.91600311   -5.0132393      475.127  0.045985966  0.046768726            3 
  862000   0.90561607   -5.0405229    476.37741  0.046053501  0.046741968            3 
  863000   0.90732638   -5.0327442    477.28827  0.046088091    0.0467152            3 
  864000   0.91654983   -5.0546442    476.12734  0.045922776  0.046687799            4 
  865000   0.90321142   -5.0351178    476.29615  0.045885949  0.046660495            4 
  866000   0.92821218   -5.0336944    476.16087  0.045819945  0.046633118            6 
  867000   0.91638711   -5.0299155    476.44035  0.045793959  0.046605615            7 
  868000   0.89793414   -5.0456111    477.26094  0.045819982  0.046578222           13 
  869000    0.9076888   -5.0634193    477.08286  0.045750179  0.046551167            7 
  870000   0.91517399   -5.0115671    478.08822  0.045793891  0.046523675            4 
  871000   0.91321804   -5.0593772    478.70553  0.045800376  0.046495947            2 
  872000   0.90116519   -5.0095441    479.29692   0.04580437  0.046468678            5 
  873000   0.89494657   -5.0798155    478.04639   0.04563253  0.046440945            3 
  874000   0.91579185   -5.0476101     479.0562  0.045676601  0.046412874            4 
  875000   0.91287684   -5.0361899    479.76422  0.045691831  0.046385714            4 
  876000   0.91008197   -5.0522967     479.7442  0.045637767  0.046358571            6 
  877000   0.90884974   -5.0253362    479.93566   0.04560392  0.046331224            3 
  878000   0.88717273   -5.0577455    479.27905  0.045489659  0.046303986            4 
  879000   0.90724347   -5.0415973    480.27779  0.045532593  0.046276703            4 
  880000   0.89215411   -5.0256126    481.09326  0.045558074   0.04624961            4 
  881000   0.90681099    -5.044302    481.51944  0.045546674  0.046222644            4 
  882000   0.91842704   -5.0561172    481.00846  0.045446756  0.046195464            4 
  883000   0.90821546   -5.0613918    483.12468  0.045595006  0.046168627            6 
  884000    0.8918769   -5.0474583    482.61758  0.045495624  0.046141473            4 
  885000   0.90014508   -5.0557763    482.05802  0.045391528   0.04611473            3 
  886000    0.9089195    -5.050107    483.43386  0.045469701  0.046087811           11 
  887000   0.89212391   -5.0590817    483.43521  0.045418566   0.04606104            6 
  888000   0.89293895   -5.0687456    483.09199  0.045335209  0.046034552            5 
  889000   0.89610183   -5.0284259    484.61804  0.045427263  0.046008054            3 
  890000   0.92515414   -5.0469233    483.63518  0.045284193  0.045981541            2 
  891000   0.89579062   -5.0451467    484.28192  0.045293857  0.045955048            3 
  892000   0.90068786   -5.0549158    484.79066  0.045290607  0.045928269            6 
  893000   0.90673589   -5.0704849    484.56047  0.045218409  0.045901844            2 
  894000   0.91062419   -5.0836413    484.83699  0.045193605  0.045874683            2 
  895000   0.90232964   -5.0444124     486.1925   0.04526932  0.045847479            3 
  896000   0.87886546   -5.0454146    486.28683   0.04522757  0.045820563            3 
  897000   0.89612324    -5.067178     484.4942   0.04501061  0.045793787            4 
  898000   0.90365684   -5.0904179    485.68077  0.045070599  0.045766825            4 
  899000   0.88531886   -5.0551761    487.15587  0.045157199  0.045740348            5 
  900000   0.88989839   -5.0550134     486.9475  0.045087731  0.045713572            3 
  901000   0.90101413   -5.0624012      487.792  0.045115797  0.045686923            3 
  902000   0.91053888   -5.0586129    486.72132  0.044966863  0.045659967            8 
  903000   0.88729732   -5.0502479    488.49091  0.045080372  0.045633255            4 
  904000   0.88520924   -5.0615975    489.07253  0.045084119  0.045606705            4 
  905000   0.89306939   -5.0534527    489.97665  0.045117555  0.045580126            6 
  906000   0.90059667   -5.0686623    488.92172  0.044970724  0.045554009            5 
  907000   0.89065133   -5.0721235    489.72437  0.044994889  0.045527494            7 
  908000   0.87949269   -5.0645147    487.25563  0.044718762  0.045500731            6 
  909000   0.89135756   -5.0660671    489.42916  0.044868826  0.045474027            3 
  910000   0.88434969   -5.1048312    488.09012  0.044696897  0.045447361            2 
  911000   0.88075492   -5.0636233    489.71255  0.044796245  0.045420616            8 
  912000    0.8860247   -5.0893301    489.61128  0.044737873  0.045394111            4 
  913000   0.89725948   -5.0475619    490.13387  0.044736571  0.045367356            6 
  914000   0.89174207   -5.0790868    489.73714  0.044651453    0.0453405            6 
  915000   0.89251856   -5.0813853    490.67915  0.044688447  0.045313928            4 
  916000   0.86706682   -5.0637532    489.70827  0.044551334   0.04528702            3 
  917000   0.86487697     -5.08219    490.77671  0.044599846  0.045259928            4 
  918000   0.86864981   -5.0748328    491.27994  0.044596945  0.045232494            9 
  919000   0.90341185   -5.0839902    490.43683  0.044471965  0.045205211            7 
  920000   0.90899395   -5.1002141    490.21342   0.04440339  0.045177783            6 
  921000   0.89257579   -5.0561795    492.00773  0.044517529  0.045150498            6 
  922000   0.91256908   -5.0929369    491.25671  0.044401365  0.045123287            8 
  923000   0.90670244   -5.0726658     492.9834  0.044509155  0.045095984            3 
  924000   0.87224295   -5.0690913     494.1134  0.044562897  0.045068988            6 
  925000   0.89205612   -5.0734153    493.23336  0.044435437  0.045042055            8 
  926000   0.86663744   -5.0776348    493.13574  0.044378666  0.045015311            8 
  927000   0.88286224   -5.0904507    492.76848  0.044297778  0.044988434            7 
  928000   0.87562594   -5.0906628    493.56608  0.044321667  0.044961322            3 
  929000   0.87819639   -5.0650672    493.75374  0.044290791  0.044934462            4 
  930000   0.87374286   -5.1032732    494.56571  0.044315924  0.044907628            4 
  931000   0.88057713   -5.0975023    494.10373  0.044226972  0.044880764            3 
  932000   0.88528725   -5.1131834    497.17882  0.044454473  0.044854367           11 
  933000    0.8626629   -5.0926002    495.66085  0.044271244  0.044828145            4 
  934000   0.88424534   -5.1211182    495.26809  0.044188802  0.044801727            9 
  935000   0.89537673   -5.0930755     494.4586  0.044069394  0.044775095            3 
  936000    0.9008788   -5.0951402    497.87918   0.04432685  0.044748518            3 
  937000   0.86268732   -5.0730433    497.22377  0.044221253  0.044722395            3 
  938000   0.87668973    -5.082025    497.78084    0.0442236  0.044696284           10 
  939000   0.87277175   -5.0903167    497.10503  0.044116527  0.044669929            7 
  940000    0.8761754   -5.0780922    498.73823  0.044214382  0.044643486            6 
  941000    0.8820963   -5.0943534     499.7702  0.044258785  0.044617165            4 
  942000   0.86633112   -5.0958846    498.61627  0.044109719  0.044591073            7 
  943000   0.87380152   -5.1058747    498.25046  0.044030617  0.044564935            4 
  944000   0.86362387   -5.0800145    499.38075  0.044083752  0.044538509            8 
  945000   0.89623429   -5.0810459     499.2141  0.044022407  0.044511915           11 
  946000   0.89347431   -5.0698805    500.13294  0.044056813  0.044485449            5 
  947000   0.87657602   -5.0939676    499.50641  0.043955157  0.044459231            4 
  948000   0.88788266   -5.0601766    498.90647  0.043856054  0.044432683            5 
  949000   0.86476433   -5.0964026    499.75414  0.043884276  0.044406144            5 
  950000   0.88213587   -5.0923809    498.40998  0.043720174  0.044379768            5 
  951000   0.89111944   -5.1073131    500.17805  0.043829131  0.044353605            8 
  952000   0.86586842   -5.0806841    500.18883  0.043784036  0.044327302            5 
  953000   0.88567454   -5.0683381    499.53743  0.043681132  0.044301029            5 
  954000   0.87063296   -5.0932645    501.97675  0.043848424   0.04427455            2 
  955000   0.85033044   -5.1234663    498.94048  0.043537563  0.044247738            4 
  956000   0.87948793   -5.1334122    499.92725  0.043578038   0.04422092            6 
  957000   0.86860962   -5.0961589    501.70409  0.043687225  0.044194265            4 
  958000    0.8566084     -5.08053      501.574  0.043630306  0.044167802            9 
  959000   0.85590943   -5.1181894      503.814  0.043779458  0.044141543            6 
  960000   0.88657379   -5.1095897    503.29443  0.043688752  0.044115288            2 
  961000   0.84425334   -5.1280076    501.73354  0.043507938  0.044088852            6 
  962000   0.86907234   -5.1119576    502.85384  0.043559757  0.044062331            3 
  963000   0.86346005   -5.1290496    503.28545  0.043551873  0.044036159            2 
  964000   0.88020123   -5.0759444    504.47042   0.04360913  0.044009735            6 
  965000   0.89016743   -5.1173821    502.53877  0.043397131  0.043983723            2 
  966000   0.87073074    -5.121293    504.67359  0.043536369  0.043957507            5 
  967000   0.86113073   -5.0873899    505.50367  0.043562881  0.043931458            3 
  968000   0.86031647   -5.1246423    504.78569  0.043456068  0.043905364            5 
  969000   0.86652205   -5.1431156    505.90074  0.043507115   0.04387927            7 
  970000   0.89320123   -5.1243149    504.76529  0.043364716  0.043853205            8 
  971000   0.85558687   -5.1272114    505.74667   0.04340428  0.043827432            3 
  972000   0.84260855   -5.1346504    505.98021  0.043379648  0.043801564            3 
  973000   0.85016472   -5.0900222    505.97957   0.04333501  0.043775632            4 
  974000   0.85759524   -5.1039326    508.15297  0.043476469  0.043749923            6 
  975000   0.85710922    -5.095159    507.38506  0.043366245  0.043723991            3 
  976000   0.85521634   -5.1013213    506.78537  0.043270609  0.043698216            4 
  977000   0.86702659   -5.1212291    508.23276  0.043349774   0.04367229            6 
  978000   0.85790606   -5.1161008    508.16234  0.043299449  0.043646468            5 
  979000    0.8493111   -5.1401778    507.87205  0.043230511  0.043620722            6 
  980000   0.87144836   -5.1252575     506.7342  0.043089643  0.043594783            4 
  981000   0.86139068   -5.1342209    507.58245  0.043117775  0.043568972            3 
  982000    0.8641116   -5.1180277    509.25145    0.0432155   0.04354341            6 
  983000   0.87536562   -5.1437038    509.57353  0.043198841  0.043517994            6 
  984000    0.8707122   -5.1159929    510.45423  0.043229525  0.043492418            8 
  985000   0.85214564   -5.1168278     510.3695  0.043178469  0.043467378            4 
  986000   0.85766219    -5.143816    510.05289  0.043107918  0.043441987            4 
  987000   0.85363831   -5.1306883    510.74499  0.043122677  0.043416862            6 
  988000   0.86036757   -5.1493798    509.13684  0.042943391   0.04339109            5 
  989000   0.86740204   -5.1619589    509.05011  0.042892662  0.043365658            4 
  990000   0.84317664   -5.1321837    510.98634  0.043012318  0.043340123            6 
  991000   0.86206718   -5.1157096    510.36148  0.042916371   0.04331471            4 
  992000   0.85913462   -5.1253866    512.08473   0.04301787  0.043289342            5 
  993000   0.84804033   -5.1229459    511.68883  0.042941325  0.043264038            4 
  994000   0.85551286   -5.1431019    511.93752  0.042918973  0.043238456            7 
  995000   0.85937064   -5.1182446    512.88807   0.04295545  0.043213153            5 
  996000   0.85513989   -5.1312661    512.52387   0.04288185  0.043187702            6 
  997000   0.87611776    -5.130776    512.99009  0.042877808  0.043162781           10 
  998000   0.87010939   -5.1337462    513.40705   0.04286966  0.043137898            6 
  999000   0.85983513   -5.1286328     515.0481  0.042963639  0.043113006            8 
 1000000   0.85399634   -5.1556184    512.88003  0.042740002   0.04308845            3 
 1001000   0.85974962   -5.1589855    514.25276  0.042811585  0.043063553            4 
 1002000   0.86364011    -5.146002    515.49856  0.042872469  0.043038693            9 
 1003000   0.82139983   -5.1232522    514.91021  0.042780842  0.043013954            4 
 1004000    0.8487305   -5.1650003    515.69267  0.042803177  0.042989408            6 
 1005000   0.85472153   -5.1533096    514.05372  0.042624687  0.042964732            4 
 1006000   0.83884045   -5.1452112     516.4376  0.042779788  0.042939886            8 
 1007000   0.84078973   -5.1580711    516.30125  0.042726022  0.042915172            7 
 1008000   0.86834722   -5.1768582    515.74905  0.042637984  0.042890515            2 
 1009000   0.85970907   -5.1536012     516.0153  0.042617715  0.042865825            4 
 1010000   0.85494824   -5.1708557    517.37521  0.042687724  0.042841157            7 
 1011000   0.84851418   -5.1655195    516.82195  0.042599897  0.042816645           11 
 1012000   0.83774863    -5.133113    519.03405  0.042739958  0.042792366            8 
 1013000   0.86227069   -5.1633233    518.51731  0.042655258  0.042768447            4 
 1014000   0.84293312   -5.1503717    520.06265  0.042740192  0.042744559            5 
 1015000   0.83809047   -5.1155126    519.20818  0.042627929  0.042720721            7 
 1016000   0.85612933   -5.1692114    518.88194  0.042559214  0.042697061            6 
 1017000   0.85027999   -5.1484197    521.09725  0.042698889  0.042673477            3 
 1018000   0.83235646    -5.161155    521.44097  0.042685083  0.042649491            3 
 1019000   0.85489216   -5.1426674    519.07829  0.042449974  0.042625408            4 
 1020000   0.83498712   -5.1456374    521.06789  0.042570906  0.042601328            3 
 1021000   0.83291787   -5.1490742    522.08878  0.042612535  0.042577475            3 
 1022000   0.86313314   -5.1415076    521.04467  0.042485703  0.042553605            3 
 1023000   0.82789059   -5.1861948    520.21783  0.042376819  0.042529914            4 
 1024000   0.85395061   -5.1468792    522.24896  0.042500729  0.042506286            6 
 1025000   0.86083817   -5.1677948    521.61984  0.042408117  0.042482664            9 
 1026000   0.84332298    -5.203282    521.26503  0.042337965  0.042459162            8 
 1027000   0.85104811   -5.1492909    521.43614  0.042310625  0.042435178            7 
 1028000   0.82520835   -5.1613799    521.77187  0.042296682  0.042411243            6 
 1029000   0.83888193   -5.1723936    522.48516  0.042313343  0.042387177            6 
 1030000   0.84763443   -5.1576532    522.06775  0.042238491   0.04236316            9 
 1031000   0.87609978   -5.1910444     520.7172   0.04208836  0.042338949            5 
 1032000   0.84548229   -5.1992519    522.25094  0.042171426  0.042314727            8 
 1033000   0.85120003     -5.15924    523.13891  0.042202235  0.042290713            6 
 1034000   0.84888883   -5.1652862     523.4431  0.042185937  0.042266761            5 
 1035000   0.85275639   -5.1669068    525.19127  0.042285931  0.042243143            5 
 1036000   0.83884481   -5.1718142    523.42408  0.042102966  0.042219268            6 
 1037000   0.85095612   -5.1339441    525.42827  0.042223423  0.042195732            3 
 1038000   0.84385234   -5.1746896    524.49162  0.042107548  0.042172059            6 
 1039000   0.82864246   -5.1828589    524.21654  0.042044958  0.042148393            4 
 1040000   0.85123149   -5.1620853    524.91336  0.042060365  0.042124637            5 
 1041000   0.83724963    -5.190878    525.18956  0.042042071  0.042100704            4 
 1042000   0.83361786   -5.1728676    526.19157  0.042081859  0.042076742            5 
 1043000    0.8470272   -5.1680252    526.57711  0.042072316   0.04205342            4 
 1044000   0.81768329   -5.1564882    527.58746  0.042112664  0.042030095            5 
 1045000   0.84894852   -5.1797501    527.13152  0.042036007  0.042006501            7 
 1046000   0.82738065   -5.1971344    524.20473  0.041762646  0.041982303            9 
 1047000   0.83980518   -5.1770319    527.20088  0.041961229  0.041958392            5 
 1048000   0.82305295   -5.1585087    527.36177  0.041933983  0.041934761           11 
 1049000   0.84532832   -5.1689322    529.29774  0.042047803  0.041911266            4 
 1050000   0.84313741   -5.1623329    527.78823  0.041887955  0.041887676            4 
 1051000   0.83323808   -5.1991648    527.94599  0.041860608  0.041864087           10 
 1052000   0.83503918   -5.2012993    526.37953  0.041696731  0.041840384            3 
 1053000   0.80090136   -5.1809523    528.03313  0.041787997  0.041816638            9 
 1054000   0.84162101   -5.2192292    528.18886  0.041760663  0.041792948            9 
 1055000   0.82875719   -5.1635736    529.82184  0.041850066  0.041769386            5 
 1056000   0.82156444   -5.1899382    528.83658  0.041732685  0.041745777            4 
 1057000   0.81832762   -5.2157056    527.71264  0.041604592  0.041721866            6 
 1058000   0.81440862   -5.1756729    529.44641  0.041701828  0.041698496            3 
 1059000   0.83607133   -5.2067097    529.40147  0.041658913  0.041675055            3 
 1060000   0.85207375   -5.1930926    529.31762   0.04161302  0.041651443            6 
 1061000   0.82546234   -5.1737528    531.22621  0.041723705   0.04162789            5 
 1062000    0.8193664   -5.2091861    529.56809  0.041554307  0.041604658            4 
 1063000   0.81723251   -5.2048494    531.22755  0.041645308  0.041581315            3 
 1064000   0.82828012    -5.196124    531.34854  0.041615644  0.041557992            6 
 1065000   0.82995907   -5.1846116    532.65093  0.041678477  0.041535101           10 
 1066000   0.83950138   -5.2100402    533.06484  0.041671736  0.041511924            3 
 1067000   0.82230486   -5.1700643    532.77062  0.041609702  0.041489143            4 
 1068000   0.81501927   -5.2369481     529.9851  0.041353394  0.041465591            4 
 1069000   0.82543535   -5.1840432    531.69452  0.041447967  0.041441944            3 
 1070000   0.82591466   -5.2024167    532.19852  0.041448483   0.04141846            6 
 1071000   0.81692714   -5.2258911    531.89217  0.041385946  0.041395105            9 
 1072000   0.83095409   -5.1977201    531.83907  0.041343211  0.041371662            5 
 1073000   0.81868214   -5.2183203    531.22577   0.04125705  0.041348064            7 
 1074000   0.81037969   -5.1726308    533.54871  0.041398876  0.041324615            8 
 1075000   0.81275054   -5.2219122    532.91344  0.041311119  0.041301091            6 
 1076000   0.81060138   -5.1823289    534.99811  0.041434179  0.041277505            5 
 1077000   0.82484949   -5.1940201    533.23357  0.041259174  0.041254105            6 
 1078000   0.80259073   -5.2017024    533.50797  0.041242113  0.041230636            6 
 1079000   0.83875103   -5.2250065    533.24328  0.041183448  0.041207221           10 
 1080000   0.81108092   -5.2107801    533.22733  0.041144084  0.041183852            5 
 1081000   0.82069494   -5.2178534    533.71906   0.04114393  0.041160336            3 
 1082000   0.81446432   -5.2037712    534.14739  0.041138893  0.041136914            3 
 1083000   0.82522171   -5.1840098    535.83509  0.041230771  0.041113604            2 
 1084000   0.83364109   -5.2198473    536.16792  0.041218321  0.041090517            4 
 1085000   0.82785879   -5.2034929     535.8788  0.041158126  0.041067212            6 
 1086000   0.82673262    -5.186185    536.61563  0.041176768  0.041044098            6 
 1087000   0.82154808   -5.1837569    535.72848  0.041070874  0.041020941            3 
 1088000   0.80256222   -5.1982757    536.97936  0.041128934  0.040997879            3 
 1089000   0.81272147   -5.2060563    535.62504   0.04098753  0.040975086            8 
 1090000   0.82297158   -5.2260743    536.99216  0.041054447  0.040952031            4 
 1091000   0.82838722   -5.2218212    537.72722  0.041072962  0.040928965            7 
 1092000   0.82250866    -5.227833    537.55839  0.041022465  0.040905982            3 
 1093000   0.81049628   -5.1908829    539.36572   0.04112273  0.040882951            5 
 1094000   0.81361346   -5.2103117    538.31017  0.041004736   0.04086019            5 
 1095000   0.81152732   -5.2100022    539.12028  0.041028941  0.040837502            5 
 1096000   0.82065591   -5.2032264    538.77709  0.040965411   0.04081471            3 
 1097000   0.80868283   -5.2187311     538.4674  0.040904543  0.040791978            6 
 1098000   0.80593959   -5.1967897    539.47289  0.040943602  0.040769402            9 
 1099000   0.82123958   -5.2293384    538.14051  0.040805316  0.040746182            6 
 1100000   0.80950124   -5.1990117    538.99199  0.040832727  0.040723105            6 
 1101000   0.81724061    -5.200075    539.82668  0.040858816  0.040700232            5 
 1102000   0.80286756   -5.2145103     541.4532  0.040944737  0.040677276            7 
 1103000   0.81238323   -5.2180917    540.70543   0.04085112  0.040654497            7 
 1104000   0.81072873   -5.2634726     538.7981  0.040670146   0.04063165            6 
 1105000   0.81760863   -5.2457798    542.13889  0.040885286  0.040609056           10 
 1106000   0.83292731   -5.2221971    539.83731  0.040674902  0.040586379            8 
 1107000   0.81931759   -5.2121841    541.64038  0.040773892  0.040563603            8 
 1108000   0.81034259    -5.226354     540.0824  0.040619916  0.040540831            7 
 1109000   0.79614185   -5.2431763      541.735  0.040707469   0.04051828            4 
 1110000    0.8165904   -5.2079972    542.87427  0.040756326   0.04049595            7 
 1111000   0.81362342   -5.2007272    541.86582  0.040644001  0.040473461            3 
 1112000   0.82123125   -5.2316031    542.71769   0.04067129  0.040450893            6 
 1113000   0.80927575   -5.2409797    542.24608  0.040599437  0.040428101            6 
 1114000   0.82032014   -5.2489863    542.82422   0.04060624   0.04040562            3 
 1115000   0.79229957   -5.2596621    542.16958  0.040520896  0.040382842            8 
 1116000   0.79529295   -5.2425498    542.20969  0.040487581  0.040359952            8 
 1117000   0.80423313    -5.253096    541.35189  0.040387339  0.040336989            7 
 1118000   0.79037558   -5.2678289    540.20896  0.040266022  0.040314039            5 
 1119000   0.80974557   -5.2297144    541.23334  0.040306325  0.040290864            7 
 1120000   0.80476236   -5.2624904    541.72852  0.040307181  0.040267681            8 
 1121000   0.81400842   -5.2530564     541.3685  0.040244462  0.040244265            5 
 1122000   0.80748174   -5.2484173    540.88597  0.040172755  0.040220908            5 
 1123000   0.80755237   -5.2424939    543.17922  0.040307155  0.040197804            5 
 1124000   0.80603361   -5.2454064    542.17927  0.040197158  0.040174534            7 
 1125000   0.79745522   -5.2384759    541.08812  0.040080602  0.040151182            4 
 1126000   0.81287673   -5.2459298    543.81643  0.040246923  0.040127868            5 
 1127000   0.79720419   -5.2544317    543.57018  0.040193004  0.040104457            9 
 1128000   0.78935996   -5.2337518    543.35873   0.04014175  0.040081056            4 
 1129000   0.81355623   -5.2485073    541.87589  0.039996744  0.040057412            6 
 1130000   0.79718993   -5.2605302    543.59837  0.040088375  0.040033951            9 
 1131000   0.80710441    -5.235418    543.02079  0.040010374  0.040010326            7 
 1132000   0.78273483   -5.2572036     543.8294  0.040034555  0.039986628            5 
 1133000   0.80411019   -5.2436314    543.56941  0.039980098  0.039963136            3 
 1134000   0.82664913   -5.2460151    543.30949  0.039925742  0.039939665            5 
 1135000   0.80217316   -5.2400512     543.9379  0.039936703  0.039915993            2 
 1136000   0.79496973    -5.264486    542.32327  0.039783104   0.03989237            8 
 1137000   0.78508671   -5.2799312    544.79615  0.039929357   0.03986883            8 
 1138000   0.78921943   -5.2582367    543.50494  0.039799717  0.039845493            5 
 1139000   0.81326705   -5.2702972    544.47981  0.039836099  0.039821985            4 
 1140000   0.79862432   -5.2562155    544.69473  0.039816866  0.039798601            4 
 1141000   0.78089337   -5.2828387    544.01431  0.039732275  0.039775212            8 
 1142000   0.78407761   -5.2634622     544.2945  0.039717929    0.0397518            7 
 1143000    0.8032626   -5.2722544    544.97311  0.039732656  0.039728211            8 
 1144000   0.80116986   -5.2863155      545.107  0.039707678  0.039704633            3 
 1145000   0.79656079   -5.2662688    545.08603  0.039671472  0.039680968            3 
 1146000    0.7879908   -5.2584183    546.01723  0.039704569  0.039657202            5 
 1147000   0.80446849    -5.272618    545.30867  0.039618473   0.03963341            4 
 1148000   0.80360993   -5.2651517    546.59141  0.039677077  0.039609621           15 
 1149000   0.79526394   -5.2555925    545.55432  0.039567328  0.039585857            6 
 1150000   0.80104572   -5.2538222    544.37968  0.039447803  0.039562086            5 
 1151000   0.80198768   -5.2932517    546.04386  0.039534018  0.039538394            7 
 1152000     0.791232   -5.2521664    546.58628  0.039538938  0.039514576            3 
 1153000   0.79953015   -5.3056798    545.40044  0.039418939  0.039490673            9 
 1154000   0.78353372   -5.2757114     545.3915  0.039384135  0.039467009            2 
 1155000    0.7915008    -5.272393    547.31418  0.039488758  0.039443556            6 
 1156000   0.79037441   -5.2742383    546.41888  0.039390058  0.039420039           14 
 1157000   0.79195406   -5.2588566    547.68534   0.03944723  0.039396299            6 
 1158000   0.79284542   -5.2588675     548.5029  0.039471999  0.039372504            5 
 1159000   0.78870565   -5.2524649     547.7292  0.039382312  0.039348765            3 
 1160000   0.78086265   -5.2760783    547.38539  0.039323663  0.039325103            6 
 1161000   0.80142821   -5.2720903    547.50969  0.039298715  0.039301518            4 
 1162000   0.79634041   -5.2807703    548.34538  0.039324827  0.039277814            4 
 1163000   0.78103977   -5.2842913     547.6221  0.039239187   0.03925395            6 
 1164000   0.77405014   -5.2892546    547.36691  0.039187207  0.039230344           11 
 1165000   0.82190234   -5.3012782    548.11555  0.039207121   0.03920653           15 
 1166000   0.79307755   -5.2944926    548.00019  0.039165251  0.039182706            5 
 1167000   0.78872402   -5.2685125    548.86065  0.039193134  0.039158742            8 
 1168000   0.78821395   -5.2541653    549.03582  0.039172076  0.039135337            8 
 1169000   0.79389328   -5.2794906    548.83861  0.039124508  0.039111926           17 
 1170000   0.78648286   -5.2996638    547.34935  0.038984997  0.039088143            3 
 1171000   0.77598898   -5.2679509    549.43663  0.039100244  0.039064644            5 
 1172000   0.79754442   -5.2843165    547.85328  0.038954301  0.039040953            4 
 1173000   0.80302209   -5.3097889    547.46015  0.038893162  0.039016852           10 
 1174000   0.78711305   -5.2973378    549.46836  0.039002581  0.038993038            5 
 1175000   0.79084805     -5.30091    548.00073    0.0388653  0.038969066            6 
 1176000   0.78807777   -5.2507844    550.30088  0.038995243   0.03894526            4 
 1177000   0.79172327   -5.2853165    547.27255  0.038747703  0.038921409           12 
 1178000   0.79134805   -5.3149253    547.90391  0.038759473  0.038897524            3 
 1179000   0.77228867   -5.2690357    549.43956   0.03883514  0.038873466            6 
 1180000   0.77958195   -5.2799798    549.45219   0.03880312  0.038849658            5 
 1181000   0.80039622   -5.3031142    548.42597  0.038697853  0.038825828            5 
 1182000   0.79671536   -5.3070114    549.90655  0.038769497  0.038801849            6 
 1183000   0.77986573   -5.2941688    549.74724  0.038725503  0.038778012            7 
 1184000   0.79072322   -5.3100192     550.0686  0.038715414   0.03875387            8 
 1185000   0.78070113   -5.3019851    548.48743  0.038571549  0.038729771            6 
 1186000   0.77236203   -5.2438714    550.97035  0.038713488  0.038705864           10 
 1187000   0.76944967    -5.270145    551.39457  0.038710655   0.03868198            7 
 1188000   0.77585846   -5.3099044    549.81062  0.038566963  0.038657926            5 
 1189000   0.76684138   -5.2785426    550.76425  0.038601363  0.038633723            4 
 1190000   0.80050033   -5.2944461      550.281  0.038535084   0.03860949            7 
 1191000    0.7828223   -5.3076211     551.6587  0.038599125  0.038585731            7 
 1192000    0.7855929   -5.3070955    551.51713  0.038556846  0.038561764           10 
 1193000     0.775859   -5.3088253     551.1262   0.03849722  0.038537971           12 
 1194000   0.78610654     -5.27966    552.56328  0.038565277  0.038514072            8 
 1195000   0.76964069   -5.2965974    551.13839   0.03843364  0.038490348           11 
 1196000   0.78077557   -5.2986771    552.83183  0.038519497   0.03846673            9 
 1197000    0.7672668   -5.2678921    551.97569  0.038427714  0.038443011           10 
 1198000   0.77044855    -5.273723     552.5551  0.038435942  0.038419111           12 
 1199000   0.76383189    -5.332459    551.25853   0.03831377  0.038395288            7 
 1200000   0.77175585   -5.3242965    552.43428  0.038363492  0.038371293            4 
 1201000   0.75901141   -5.3125127    552.74005  0.038352765  0.038347332           11 
 1202000   0.76033806   -5.3202391    552.03486  0.038271967  0.038323261            8 
 1203000   0.77942436   -5.2914902    551.08969   0.03817468  0.038299179            6 
 1204000   0.77861667   -5.3028589    553.70682  0.038324115  0.038275264            5 
 1205000   0.78087598   -5.3242677    553.39821  0.038270969  0.038251478            9 
 1206000   0.77310263   -5.3040522    552.82539  0.038199653  0.038227756            4 
 1207000   0.79330772   -5.3337301    553.78151  0.038234018  0.038203974            9 
 1208000   0.78597972     -5.28988      554.877  0.038277939   0.03818026            5 
 1209000   0.78159855   -5.2985923    555.17002  0.038266475  0.038156773            4 
 1210000   0.76214692    -5.295679    555.01366  0.038224081  0.038133187            8 
 1211000   0.74635567   -5.3466358    554.13149  0.038131812  0.038109508            5 
 1212000   0.76980338   -5.3137166    554.15601  0.038102036  0.038086062            8 
 1213000    0.7793944   -5.3420398    553.50936  0.038026199  0.038062555            5 
 1214000    0.7668658   -5.3371462    554.73198  0.038078802  0.038038955            5 
 1215000   0.78288338   -5.3248589    554.19323   0.03801051  0.038015161            5 
 1216000   0.77024794   -5.3390482    555.17701   0.03804667  0.037991548            7 
 1217000    0.7808969   -5.3224937    553.93444  0.037930323   0.03796807            4 
 1218000   0.77566279    -5.326878    555.61795  0.038014364  0.037944525            5 
 1219000   0.76620924   -5.3405167     556.6258  0.038052078  0.037921181            4 
 1220000   0.76344787   -5.3329714    557.01276   0.03804732  0.037897764            7 
 1221000   0.74944927   -5.3416499    555.91931  0.037941531  0.037874294            7 
 1222000   0.77729116   -5.3400116    556.04071  0.037918761  0.037850699            7 
 1223000   0.75207101   -5.3671126    554.44554  0.037779064  0.037827212            8 
 1224000   0.76258406   -5.3204769    556.79393  0.037908084  0.037803794           10 
 1225000     0.774091   -5.3507053    555.09386  0.037761487   0.03778018            5 
 1226000   0.76697822    -5.358731    555.37979  0.037750121  0.037756654            9 
 1227000   0.75216781   -5.3532593    556.85293  0.037819406  0.037733406            4 
 1228000   0.75034715     -5.33931    556.13576   0.03773994  0.037710109            3 
 1229000   0.77545862   -5.3335448    556.04139  0.037702834  0.037686578            6 
 1230000   0.74072376   -5.3727659    556.24189  0.037685765  0.037663208            8 
 1231000   0.76875835   -5.3507424     557.7632  0.037758137  0.037639806            6 
 1232000   0.75989997   -5.3402408    557.30405  0.037696432  0.037616501           11 
 1233000   0.77622328   -5.3565268    556.38489  0.037603737  0.037593248            7 
 1234000   0.75996934   -5.3426924    557.92984  0.037677596   0.03757004            9 
 1235000   0.78426878   -5.3364354    559.17123  0.037730852  0.037546712            4 
 1236000     0.759373    -5.319993    559.05266  0.037692331  0.037523349            5 
 1237000   0.74084888   -5.3452051    557.90426  0.037584496  0.037500003            7 
 1238000   0.76269827   -5.3380494    558.76612  0.037612152  0.037476746           10 
 1239000   0.76204057   -5.3481344    557.99146  0.037529692  0.037453484            7 
 1240000   0.75935584   -5.3577318    557.60964  0.037473766  0.037430396            6 
 1241000   0.76224073   -5.3456211     558.6898  0.037516103  0.037407175            7 
 1242000   0.74720016   -5.3859797    557.85419   0.03742983  0.037384157            6 
 1243000   0.74772178   -5.3520415    559.24776  0.037493146  0.037360853            7 
 1244000   0.74877225   -5.3521578    559.37716  0.037471675  0.037337791            8 
 1245000   0.74326211   -5.3403205    559.75621  0.037466948  0.037314719           10 
 1246000   0.75400649   -5.3799401    560.37821  0.037478478  0.037291446            6 
 1247000   0.76973646   -5.3883705    558.74054  0.037338983  0.037268333            4 
 1248000   0.76313519   -5.3683077     560.4374  0.037422369  0.037245154            8 
 1249000    0.7835026   -5.3701301    558.13359  0.037238697  0.037221955            6 
 1250000   0.74937216   -5.3570637    559.82633  0.037321755  0.037198905            8 
 1251000   0.74346715   -5.4089462    558.97446  0.037235176  0.037175771           10 
 1252000   0.75756368   -5.3765697    560.01484  0.037274683  0.037152911            6 
 1253000   0.77579466   -5.3328435    559.83762  0.037233148  0.037129964            5 
 1254000   0.74344882   -5.3676488    561.62499  0.037322235  0.037106906            5 
 1255000   0.74845415   -5.3717464    559.25707  0.037135264  0.037083903           12 
 1256000   0.74571818   -5.3539392    559.87538  0.037146721  0.037060947           13 
 1257000   0.73444693   -5.3357839    562.45393  0.037288115  0.037038201           16 
 1258000   0.74039072   -5.3489853    561.21881  0.037176657  0.037015466            6 
 1259000   0.75055582   -5.3381971    560.37816  0.037091485    0.0369925            7 
 1260000    0.7446067   -5.3702313    562.04443   0.03717225   0.03696961            7 
 1261000   0.76121892   -5.3770443    562.12766  0.037148272  0.036946626            7 
 1262000   0.76017818   -5.3586661    561.89631   0.03710356  0.036923524            6 
 1263000   0.73661706   -5.3722692    562.47025  0.037112051   0.03690044           13 
 1264000   0.74770908   -5.3559993     561.2751  0.037003896  0.036877379            5 
 1265000   0.73981141   -5.3723942    561.40601  0.036983268  0.036854577            6 
 1266000   0.73975933   -5.3416773    561.66358  0.036971009  0.036831518            9 
 1267000   0.72817477   -5.3871875    560.52809  0.036867146  0.036808587            6 
 1268000   0.73760102   -5.3604548    562.21079  0.036948659  0.036785416            4 
 1269000   0.75075156   -5.3657209    562.37667  0.036930436  0.036762314           10 
 1270000   0.73954244   -5.3981963    563.69445  0.036987825  0.036739454            5 
 1271000   0.74645704   -5.3871223    562.78391  0.036899023  0.036716498            8 
 1272000    0.7525903   -5.3952504      562.413  0.036845716  0.036693664            5 
 1273000   0.73644487   -5.3921817    562.76524   0.03683983  0.036670918            9 
 1274000   0.74634489   -5.3994906      561.335   0.03671736  0.036647938           12 
 1275000   0.75270577   -5.3866151    562.13559  0.036740888  0.036625141            5 
 1276000   0.73888568   -5.3608566    563.86628  0.036825123  0.036602384           15 
 1277000   0.74577122   -5.4031566    562.17502  0.036685919  0.036579486           11 
 1278000   0.74591583   -5.3829629    563.78475  0.036762177  0.036556725            7 
 1279000   0.75899252   -5.4265016    563.39411  0.036707982  0.036533938           10 
 1280000   0.73258276   -5.3816368    563.55892  0.036690034  0.036511193            3 
 1281000   0.73295947   -5.3942628    563.22777   0.03663985  0.036488312           10 
 1282000   0.74790913    -5.366821     564.3167  0.036682053  0.036465452            6 
 1283000   0.74025772   -5.3671304    565.48562  0.036729386  0.036442918            5 
 1284000   0.73832556   -5.3746472    566.32706  0.036755391   0.03642036           18 
 1285000    0.7401299   -5.3754588    564.62876  0.036616651   0.03639789            5 
 1286000   0.73616461   -5.3848414    565.31807  0.036632845  0.036375539            4 
 1287000    0.7377269   -5.3753667     566.4325  0.036676541  0.036353056            6 
 1288000   0.74640894   -5.3779125    565.28412  0.036573765  0.036330583            8 
 1289000   0.72517759   -5.3733622    565.09723  0.036533309  0.036308237           10 
 1290000   0.74674728   -5.3840008    565.63832  0.036539943  0.036285939           11 
 1291000   0.74437394   -5.3988959    564.71211  0.036451853  0.036263437            9 
 1292000   0.74741913    -5.398298    566.62612  0.036547092  0.036240988            4 
 1293000   0.74322116   -5.4093554    565.70779  0.036459641   0.03621848            6 
 1294000    0.7255611   -5.3875089    565.94814  0.036446944  0.036195947            4 
 1295000   0.72924793   -5.4106768    565.73254  0.036404925  0.036173227            6 
 1296000   0.72938408   -5.3900959    565.14236  0.036338886  0.036150502            9 
 1297000    0.7253256   -5.3719621    567.49458  0.036462001   0.03612801            5 
 1298000   0.73842872   -5.3927928    566.49961  0.036370032  0.036105603           14 
 1299000   0.73362404   -5.3918977    565.91075  0.036304256  0.036083019            7 
 1300000    0.7423816   -5.4113241    566.67235  0.036325151  0.036060397            4 
 1301000   0.73802935   -5.3892276    564.88766  0.036182914  0.036037778           12 
 1302000   0.73342743   -5.3990472     566.7987  0.036277438  0.036015024           10 
 1303000   0.73367958    -5.398464    566.33807  0.036220137  0.035992458            5 
 1304000    0.7369083   -5.4027812    565.20409  0.036119893  0.035969843            8 
 1305000   0.74223208   -5.4074595    566.53584  0.036177257  0.035947273            6 
 1306000   0.74194088   -5.4111422    566.29535  0.036134211  0.035924678           21 
 1307000   0.73941773   -5.4225814    565.45075  0.036052713  0.035902154           10 
 1308000   0.72193493   -5.4165687    567.49748  0.036155548  0.035879525           20 
 1309000   0.71221809   -5.4080645    569.01772  0.036224708   0.03585707           15 
 1310000   0.74543666   -5.4009713    568.07444  0.036137051   0.03583472           17 
 1311000   0.72928627   -5.4326082    569.31464   0.03618832  0.035812504           18 
 1312000   0.71313905   -5.4144139    569.06299  0.036144753  0.035790273            4 
 1313000   0.74388777   -5.4070777    568.61831  0.036089002  0.035768031            7 
 1314000   0.73268806   -5.4231842    567.40427  0.035984543  0.035745722           16 
 1315000   0.73032602   -5.4000467    568.72351   0.03604078  0.035723532            5 
 1316000   0.72238363   -5.4054442    568.66224  0.036009514  0.035701321           18 
 1317000   0.70870399    -5.427594    568.35788  0.035962913  0.035678977            9 
 1318000   0.72983955    -5.426607    568.90671  0.035970328  0.035656866            9 
 1319000   0.72380812   -5.4294764    568.98782  0.035948182  0.035634624            8 
 1320000   0.74024861   -5.4095686    568.72544  0.035904384  0.035612528           13 
 1321000   0.74331238   -5.4073732    570.18966  0.035969572  0.035590752           11 
 1322000   0.72852347   -5.3942997    569.19029  0.035879368  0.035568792            7 
 1323000   0.71783071   -5.3993368    572.06419   0.03603327  0.035546785           10 
 1324000   0.72054136   -5.4206287    570.03071  0.035878066  0.035524877           13 
 1325000    0.7222215   -5.4207157    569.26459  0.035802805  0.035502687           12 
 1326000   0.72787493    -5.418575    569.63072  0.035798813  0.035480499           10 
 1327000   0.71457065   -5.4131344    568.88683  0.035725121  0.035458323            6 
 1328000   0.71584169   -5.4090317    569.67948  0.035747959  0.035436235            7 
 1329000   0.73438547   -5.4160269    569.75554   0.03572583  0.035414191           11 
 1330000   0.72439329   -5.4318287    569.74903  0.035698561   0.03539196           19 
 1331000   0.73060943   -5.4199411     570.7857  0.035736645  0.035369818            4 
 1332000   0.71417668   -5.4077835    570.15995  0.035670668  0.035347779           17 
 1333000   0.71723629   -5.4291968     569.8958  0.035627394  0.035325578            8 
 1334000   0.72594981   -5.4315315    570.18585  0.035618806  0.035303411            6 
 1335000    0.7186615   -5.4334461    569.49794  0.035549185  0.035281187           16 
 1336000   0.72380334   -5.4461708    569.70328  0.035535384  0.035258711            8 
 1337000   0.70918971   -5.4496112    569.92643  0.035522714  0.035236176           10 
 1338000   0.73235806   -5.4365355    568.30658  0.035395278  0.035213597            6 
 1339000   0.69123196    -5.418106    570.08247  0.035479367   0.03519123           12 
 1340000   0.71873568   -5.4330116    571.67925  0.035552192  0.035168847            6 
 1341000   0.71796882   -5.4309618    570.68551  0.035463927  0.035146616            7 
 1342000   0.71606438   -5.4606708    570.55544  0.035429424  0.035124396           17 
 1343000   0.71386853    -5.436848    570.16227  0.035378647   0.03510193            8 
 1344000   0.71776022   -5.4534422    570.40706  0.035367501  0.035079648           11 
 1345000   0.73346567   -5.4308643    570.65984  0.035356867  0.035057388            6 
 1346000   0.72049816    -5.442123    571.79291   0.03540075  0.035035184           11 
 1347000   0.70722093   -5.4491636    572.06725  0.035391441  0.035013037            8 
 1348000   0.72304878   -5.4483617    570.58594  0.035273612  0.034991001           13 
 1349000   0.71174189   -5.4611888    571.39255  0.035297291   0.03496893            9 
 1350000   0.72804834   -5.4253836    571.60447  0.035284227   0.03494673            5 
 1351000    0.7123609   -5.4426932    570.41391  0.035184672  0.034924475            7 
 1352000   0.70018989   -5.4713365    570.06927  0.035137406  0.034902083            8 
 1353000   0.70694929   -5.4499067    569.14314  0.035054394  0.034879808            5 
 1354000   0.72418034   -5.4405859    571.02074  0.035144063  0.034857455            7 
 1355000   0.71115169    -5.445443    572.00744  0.035178809  0.034835186           13 
 1356000   0.70122628   -5.4612359    572.72615  0.035197035  0.034812902           10 
 1357000    0.7230867    -5.488628    571.56247  0.035099636  0.034790676           19 
 1358000   0.70300244   -5.4576624     571.3854  0.035062924  0.034768315            5 
 1359000    0.7201674   -5.4556121    570.07087  0.034956517  0.034745906            7 
 1360000   0.72093672   -5.4500317    572.44619   0.03507636  0.034723737            6 
 1361000   0.70378618   -5.4644961    571.40256  0.034986686  0.034701486            8 
 1362000   0.71057854   -5.4582297    573.38188  0.035082102  0.034679387           10 
 1363000    0.7048114   -5.4868759    572.24891  0.034987094    0.0346574           10 
 1364000   0.69230113    -5.467631    572.37934  0.034969412  0.034635371            9 
 1365000   0.71730551   -5.4290702    573.26529  0.034997881  0.034613579           17 
 1366000    0.7274037   -5.4521456    575.73666  0.035123027  0.034591868            9 
 1367000    0.7178154   -5.4700202    574.61977  0.035029247  0.034570116           11 
 1368000   0.70011088   -5.4523521     573.6097  0.034942111  0.034548278           20 
 1369000   0.68659853   -5.4415809    574.79027  0.034988451  0.034526458            4 
 1370000   0.70835232   -5.4672168    573.18143   0.03486505  0.034504646            7 
 1371000   0.70252643   -5.4617044    574.76744  0.034936022  0.034482969           16 
 1372000   0.71896406   -5.4598513    573.70524  0.034846042  0.034461044            8 
 1373000   0.71220569    -5.479066    575.24886  0.034914352  0.034439245            9 
 1374000   0.71195689   -5.4646446    575.02445  0.034875331  0.034417474           11 
 1375000   0.70400344    -5.470057    574.59968  0.034824223  0.034395675            6 
 1376000   0.70266641   -5.4484034    575.15611  0.034832613  0.034374037           11 
 1377000   0.70373739   -5.4604485    573.51526  0.034708016   0.03435222            7 
 1378000   0.70762999   -5.4709313    574.59985  0.034748418  0.034330408           10 
 1379000    0.7121594   -5.4628057    575.06118  0.034751099  0.034308501           18 
 1380000   0.70806657   -5.4817764    573.95491  0.034659113  0.034286537            7 
 1381000   0.69531975   -5.4587399    573.88206   0.03462962  0.034264589            7 
 1382000    0.6979707   -5.4731212    575.03457  0.034674058  0.034242726           15 
 1383000   0.71661092   -5.4781751    574.59123  0.034622272  0.034220915           12 
 1384000   0.67673894   -5.4596162     575.4689  0.034650102  0.034198928           10 
 1385000   0.68940923   -5.4547106    575.84262   0.03464757  0.034177077           11 
 1386000   0.68924253   -5.4644935    575.39934   0.03459592  0.034155374           16 
 1387000   0.72769715   -5.4896649    575.53381  0.034579056  0.034133635           17 
 1388000   0.69490861   -5.4822575    575.48877  0.034551439  0.034111956            6 
 1389000    0.6957932   -5.4837994    575.05046  0.034500268  0.034090222            8 
 1390000   0.69721008   -5.4682335    576.36304  0.034554139    0.0340686            8 
 1391000   0.70638619   -5.5152296    573.24442  0.034342464    0.0340468            9 
 1392000   0.70728288   -5.4970901     575.3514   0.03444393  0.034024861           23 
 1393000   0.69758773   -5.4751779    573.76199   0.03432412  0.034002985           19 
 1394000   0.70501235   -5.4979746    574.27561  0.034330202   0.03398117            4 
 1395000   0.68790482   -5.4809979    576.02101  0.034409857  0.033959423           12 
 1396000   0.68483859   -5.5051014    574.66497  0.034304261  0.033937716           12 
 1397000    0.6945732   -5.4822322     575.0279  0.034301354  0.033915975            7 
 1398000    0.7039271   -5.4888859    575.35657   0.03429641  0.033894237            3 
 1399000   0.69774611   -5.4924243    575.84852  0.034301198  0.033872552            7 
 1400000   0.70114287   -5.4950311    573.83658  0.034156939  0.033850799            6 
 1401000    0.6914426   -5.4852982    576.62341  0.034298323  0.033829121            9 
 1402000   0.70056357   -5.4849943    576.00944  0.034237365  0.033807334           10 
 1403000    0.7008399   -5.5085347    575.70201  0.034194702   0.03378549            7 
 1404000   0.68440139   -5.5003961    576.19092  0.034199366  0.033763726            5 
 1405000   0.70044592   -5.5050441    575.40661  0.034128506  0.033741942            6 
 1406000    0.6999056   -5.4969072    576.18991  0.034150658  0.033720227            5 
 1407000   0.69088841   -5.4875372    576.15802  0.034124498  0.033698483           12 
 1408000   0.69876223   -5.4870589    577.51797  0.034180751  0.033676706           14 
 1409000   0.69613723   -5.4894661    577.21686  0.034138683  0.033655118           11 
 1410000   0.67904261   -5.5131297    577.09509  0.034107275  0.033633365           10 
 1411000    0.6825954   -5.4887931    577.21103   0.03408995   0.03361168           12 
 1412000   0.69163143   -5.4957763    575.69794  0.033976507    0.0335901           11 
 1413000   0.69776735   -5.4848604    575.62924   0.03394841  0.033568422            9 
 1414000   0.68469289   -5.4812279    577.17493  0.034015495  0.033546685           19 
 1415000    0.7002339   -5.5210283     575.1154  0.033870165  0.033524955           19 
 1416000   0.67337323   -5.5135528    574.65439  0.033819114  0.033503128           18 
 1417000   0.68975594   -5.5110863    576.79904  0.033921374  0.033481272           12 
 1418000   0.69244582   -5.5206885    577.31745  0.033927918  0.033459456           20 
 1419000   0.69487177    -5.529462    576.93143  0.033881339  0.033437538           13 
 1420000   0.67878708   -5.5080049    577.39715  0.033884809  0.033415702           27 
 1421000   0.66715888   -5.5223759    576.83509  0.033828002  0.033393933            5 
 1422000   0.69084162    -5.531767    576.46918  0.033782769  0.033372182           12 
 1423000   0.68428814   -5.5375118    575.93852  0.033727953   0.03335044           16 
 1424000    0.6773232   -5.5189817    577.88239  0.033818024  0.033328832            6 
 1425000   0.68337298   -5.5188805    577.22849  0.033756052  0.033307136           10 
 1426000   0.68462704   -5.5210535    574.15449   0.03355274  0.033285406           12 
 1427000   0.67295331   -5.5376835    577.44562  0.033721421  0.033263615            7 
 1428000   0.69052685   -5.4814443    578.01031   0.03373076  0.033242054            7 
 1429000   0.68080216   -5.5218529    576.96812   0.03364638  0.033220509            9 
 1430000   0.68427835   -5.5314165    577.04793  0.033627501  0.033198886            5 
 1431000    0.6793149   -5.5433461    577.33649  0.033620807  0.033177316            5 
 1432000   0.68603517   -5.5190582    577.49744  0.033606695  0.033156023           11 
 1433000   0.67467578   -5.5043604    578.16127  0.033621846    0.0331346            7 
 1434000   0.67567694   -5.5148183    577.84191  0.033579841  0.033113283            4 
 1435000   0.68388461   -5.5096009    578.04177  0.033568047  0.033091874           10 
 1436000   0.67893839   -5.5130944     578.0205  0.033543437  0.033070591            7 
 1437000   0.68073689   -5.5163272    578.87223  0.033569487  0.033049199            6 
 1438000   0.67534794   -5.5288631    578.48775  0.033523861  0.033027614            8 
 1439000   0.66727731   -5.5518321    577.06113  0.033417948  0.033006146           18 
 1440000   0.67526982   -5.5372769    577.95668  0.033446567  0.032984702           15 
 1441000    0.6757094   -5.5384476    578.64703   0.03346328  0.032963204           18 
 1442000   0.68816453   -5.5480088    577.97501  0.033401237  0.032941719           11 
 1443000   0.67360628   -5.5364967    579.05289  0.033440338  0.032920193            5 
 1444000   0.67135621   -5.5242829     579.6966  0.033454328  0.032898687            7 
 1445000   0.68694071   -5.5463375    578.52318  0.033363505  0.032877304            6 
 1446000   0.68067644   -5.5394377    578.45296  0.033336385  0.032855966            6 
 1447000   0.68097169   -5.4957607    578.60391   0.03332204  0.032834736           15 
 1448000    0.6838079   -5.5265398    580.29809  0.033396529  0.032813553           28 
 1449000    0.6734048   -5.5224491    579.21027   0.03331092  0.032792296           11 
 1450000   0.68043986   -5.5318321    579.35722  0.033296392  0.032771009           17 
 1451000   0.67855941   -5.5455485    578.31324  0.033213487  0.032749656           15 
 1452000    0.6762074    -5.539834    579.44059  0.033255314  0.032728375            8 
 1453000   0.67152357   -5.5402219      580.756  0.033307869  0.032707083            5 
 1454000   0.67168409   -5.5282235    580.65616  0.033279239  0.032685932            7 
 1455000   0.66313872    -5.528317    580.64631  0.033255802  0.032664883           11 
 1456000   0.66821538   -5.5338407    581.05994  0.033256636  0.032643747            8 
 1457000   0.68647658   -5.5293587    582.03894  0.033289804  0.032622652            7 
 1458000    0.6685113   -5.5347736    580.70497  0.033190728  0.032601689           11 
 1459000   0.66070175   -5.5595399     578.5438   0.03304454  0.032580613           10 
 1460000   0.67326753   -5.5512771    579.68481  0.033087032  0.032559544           11 
 1461000   0.67167987    -5.537521    580.52362   0.03311223  0.032538532            8 
 1462000    0.6536523    -5.532202    579.10955   0.03300898  0.032517542            9 
 1463000   0.66916142   -5.5317746     582.1418  0.033159137  0.032496548           13 
 1464000     0.665548   -5.5133628    581.53223  0.033101789  0.032475752            7 
 1465000   0.67398187   -5.5325408    581.89249  0.033099687  0.032454912            8 
 1466000   0.66716678   -5.5268645    583.19849  0.033151347  0.032434033            6 
 1467000   0.67013398   -5.5425411    580.66293  0.032984716  0.032413106            7 
 1468000   0.65544139   -5.5530045    580.55755  0.032956264  0.032392184           27 
 1469000   0.67659194   -5.5584514    581.27065  0.032974282  0.032371335            9 
 1470000   0.66411904    -5.559824    581.44658  0.032961824  0.032350472           10 
 1471000   0.66809636   -5.5640721    582.31014  0.032988338  0.032329556           15 
 1472000   0.65896727   -5.5609377    581.10745   0.03289784   0.03230864           11 
 1473000   0.66028196   -5.5842468    582.22047  0.032938474  0.032287637           13 
 1474000   0.67272007   -5.5714169    580.57769  0.032823253  0.032266622           27 
 1475000    0.6613295   -5.5649827    581.35331   0.03284482  0.032245802            4 
 1476000    0.6706452   -5.5312273    582.77172  0.032902649  0.032225056           14 
 1477000   0.66102889   -5.5701902    582.24667  0.032850749  0.032204267            8 
 1478000   0.66619067   -5.5369995    583.15665  0.032879829  0.032183449           33 
 1479000   0.63884806   -5.5510634     582.3109  0.032809945  0.032162677            4 
 1480000   0.67907312   -5.5490678    582.37303  0.032791274  0.032141888           13 
 1481000   0.65182072   -5.5597815    581.78789  0.032736208  0.032121168            9 
 1482000   0.65718679   -5.5495606    583.16488  0.032791547  0.032100526            9 
 1483000   0.66220417   -5.5535782    582.18248  0.032714232  0.032079837            5 
 1484000   0.67947534   -5.5534159    582.63142  0.032717398  0.032059108            9 
 1485000   0.66375596   -5.5489342    581.90377  0.032654533  0.032038376           10 
 1486000   0.65736764   -5.5613625    582.10494  0.032643839  0.032017694           10 
 1487000   0.66446513   -5.5594116    581.99451  0.032615698   0.03199693           15 
 1488000   0.66461651   -5.5621977    582.56362  0.032625651  0.031976148            7 
 1489000   0.63756904   -5.5503837    583.68844  0.032666691  0.031955446           10 
 1490000   0.66214777   -5.5594858    581.30178  0.032511285  0.031934753            7 
 1491000   0.65899275   -5.5545377    583.51296  0.032613065  0.031914102            9 
 1492000    0.6640806   -5.5739495      582.232   0.03251966  0.031893369           11 
 1493000   0.65513285   -5.5767785    583.80273  0.032585551  0.031872453            7 
 1494000   0.66071413   -5.5763621    581.72464  0.032447827  0.031851701            9 
 1495000   0.67295124   -5.5952002     581.7071  0.032425145  0.031830924            6 
 1496000   0.65588121   -5.5935942    583.06589   0.03247916  0.031810046           23 
 1497000   0.65978005   -5.5649398    582.75266  0.032440028  0.031789204            8 
 1498000   0.65873605   -5.5857429     582.7341   0.03241734  0.031768366           10 
 1499000   0.64911229    -5.559249    583.71307  0.032450138  0.031747573           16 
 1500000   0.65571349    -5.579272    582.64674  0.032369263  0.031726697           12 
 1501000   0.65839624   -5.5985212    582.88127  0.032360719  0.031705862           10 
 1502000    0.6502067   -5.5886909    584.01492  0.032402071  0.031685216           10 
 1503000   0.67290726   -5.5935791    581.93523  0.032265205   0.03166446           27 
 1504000   0.66073885   -5.5764664    582.98835  0.032302103  0.031643785           13 
 1505000   0.64710147   -5.6030148    582.38898  0.032247452  0.031623172           10 
 1506000   0.64566053   -5.5468035    584.40501  0.032337595  0.031602577           11 
 1507000   0.65384021   -5.5924084    581.64233  0.032163367  0.031581975           17 
 1508000   0.64737069    -5.583993    584.80765  0.032316957  0.031561412            8 
 1509000   0.62954995   -5.5860338    583.20952  0.032207285  0.031540828           14 
 1510000    0.6634671   -5.5750627    582.99492  0.032174113  0.031520258           10 
 1511000   0.65446096   -5.5866378    583.15628  0.032161719  0.031499667           20 
 1512000   0.64599332   -5.5878099    583.34119  0.032150639  0.031479112           21 
 1513000   0.64746666   -5.6092977    583.35309  0.032130045   0.03145847           27 
 1514000   0.63944704   -5.6044866    581.45709  0.032004463  0.031437852           24 
 1515000   0.64607337   -5.5966603    583.29835  0.032084618  0.031417098            8 
 1516000   0.64661462   -5.6010435    581.52696  0.031966082  0.031396329           10 
 1517000   0.64451992   -5.6019666     582.6327  0.032005751  0.031375493            9 
 1518000   0.63597884   -5.6094406    583.61041  0.032038341  0.031354712           11 
 1519000   0.65219859   -5.6097686    582.57659  0.031960532  0.031334085           14 
 1520000   0.65701963    -5.612369    582.29259  0.031923936  0.031313399           10 
 1521000   0.64759032   -5.6186949    583.30301  0.031958306  0.031292731            5 
 1522000   0.64787696   -5.5991477    585.04576  0.032032729  0.031271996            5 
 1523000   0.64192152   -5.5788985    583.18193  0.031909714  0.031251305           10 
 1524000   0.66004772   -5.6126326    582.34712  0.031843128  0.031230578           40 
 1525000   0.64453625   -5.6232854    582.60081   0.03183611  0.031209897           15 
 1526000   0.63860607   -5.5959052    583.39258  0.031858485  0.031189191           25 
 1527000   0.64951453   -5.5996345    582.82124  0.031806442  0.031168597           22 
 1528000   0.64221595   -5.6075414    583.25421  0.031809239  0.031148069           22 
 1529000    0.6408422   -5.6127506    583.65417  0.031810234  0.031127417           27 
 1530000    0.6321245   -5.6088829    583.82466  0.031798729  0.031106824           23 
 1531000   0.63403556   -5.5811678    583.02777  0.031734584  0.031086368            9 
 1532000   0.63799726   -5.5995874     585.1787  0.031830869  0.031065806            7 
 1533000   0.63694227   -5.6080415     582.8691  0.031684556  0.031045172           11 
 1534000   0.63652309   -5.6346557    582.94817  0.031668197  0.031024556           15 
 1535000   0.64191036   -5.6138615    583.14616  0.031658315  0.031004023           15 
 1536000   0.63670857   -5.6109752    584.76171  0.031725353  0.030983461           12 
 1537000    0.6356916   -5.6275001    583.76441  0.031650641  0.030962965           13 
 1538000   0.63399504   -5.6121016    583.84878  0.031634632  0.030942545           16 
 1539000   0.64524034    -5.608148    584.30212  0.031638624  0.030922163           49 
 1540000   0.63104106   -5.6251447    583.90473  0.031596576  0.030901717            9 
 1541000   0.64617554    -5.605259    583.96751  0.031579467  0.030881247           15 
 1542000   0.63692178   -5.6079887    587.04021  0.031725044  0.030860914           11 
 1543000    0.6202525   -5.5998841    583.92458  0.031536216  0.030840596            8 
 1544000   0.63756009   -5.6494795    584.43564  0.031543375  0.030820362            8 
 1545000   0.63683199   -5.6163719    583.92414  0.031495369  0.030799916            7 
 1546000   0.64060993   -5.6087576    584.69101  0.031516333  0.030779548            7 
 1547000   0.63029387   -5.6172268    583.74033   0.03144475  0.030759252           14 
 1548000    0.6488625     -5.61651    584.84461  0.031483883  0.030738839           12 
 1549000   0.64091939   -5.6353112    584.22514  0.031430231  0.030718521           14 
 1550000   0.63057411   -5.6136164    584.98698  0.031450913  0.030698104           17 
 1551000   0.65161551   -5.6364187    584.89046  0.031425449  0.030677855            6 
 1552000   0.64737326   -5.6104774    586.02485  0.031466111  0.030657661           24 
 1553000   0.63642324   -5.6225395    583.99169  0.031336751  0.030637418            8 
 1554000   0.63775233   -5.6115564    583.99473  0.031316748  0.030617196           13 
 1555000   0.63952421   -5.6055155      584.259  0.031310772  0.030597109           13 
 1556000   0.61535446    -5.613727    584.28151  0.031291854  0.030576929            5 
 1557000   0.63663678   -5.6376925    585.60511  0.031342599  0.030556867           10 
 1558000   0.62836932   -5.6064947    586.60855  0.031376153  0.030536687            9 
 1559000   0.63223163   -5.6236379    584.43962  0.031240091  0.030516584           11 
 1560000   0.61479027   -5.6188124    585.68588  0.031286639  0.030496501           10 
 1561000   0.63479869   -5.6371017    585.16183   0.03123862  0.030476381           11 
 1562000   0.63010099   -5.6438322    585.40014  0.031231335  0.030456242            8 
 1563000   0.62503392   -5.6401587    585.98807  0.031242699  0.030436155           20 
 1564000   0.62506547   -5.6498301    586.86127  0.031269249  0.030415914           10 
 1565000   0.61358926   -5.6285443    585.25064  0.031163506  0.030395789           26 
 1566000   0.62694606   -5.6389911    585.05384  0.031133133  0.030375608           18 
 1567000   0.61912054   -5.6525447     584.2235  0.031069108  0.030355309            7 
 1568000   0.62894932   -5.6649475    585.11403  0.031096622  0.030335018           13 
 1569000   0.63532031   -5.6395684    586.06896  0.031127521  0.030314809           15 
 1570000   0.64771793   -5.6360481    584.34445   0.03101616  0.030294538           22 
 1571000    0.6314842   -5.6484766    584.35768  0.030997118   0.03027434           14 
 1572000   0.62871507   -5.6215413    586.51506  0.031091765  0.030254223           20 
 1573000   0.62617042   -5.6595618     584.6508  0.030973236  0.030234095           17 
 1574000   0.62403687   -5.6503962    585.23368  0.030984418  0.030213947           13 
 1575000   0.63474925   -5.6427954     586.5418  0.031033958  0.030193921           10 
 1576000   0.62368442   -5.6536666    586.68878  0.031022038  0.030173914           20 
 1577000   0.60584173   -5.6290089    585.29919  0.030928936  0.030153827            8 
 1578000   0.62086574   -5.6495599    584.86263  0.030886282  0.030133767           13 
 1579000   0.62655657   -5.6648439    584.05188  0.030823933  0.030113618           19 
 1580000   0.62557738   -5.6554156     585.4132  0.030876223   0.03009356           11 
 1581000   0.62025296     -5.63561     586.5488   0.03091655  0.030073561           15 
 1582000    0.6290422   -5.6522828    585.18331   0.03082508    0.0300535           21 
 1583000   0.62881704   -5.6635422    585.96751  0.030846889  0.030033488           20 
 1584000   0.62150765   -5.6552047    584.05687  0.030726898  0.030013327            7 
 1585000   0.61430797    -5.652394     585.5852  0.030787865  0.029993227           18 
 1586000   0.62142539   -5.6764049    585.42685  0.030760133  0.029973169           17 
 1587000   0.61359649   -5.6403966    585.54201  0.030746798  0.029953152           26 
 1588000    0.6252493   -5.6366167    585.84802  0.030743494  0.029933232           25 
 1589000   0.61480218   -5.6709232    584.77759  0.030668009  0.029913205           15 
 1590000   0.61637683   -5.6613513    585.62958  0.030693374   0.02989321            8 
 1591000   0.61179582    -5.667906     584.4943  0.030614618  0.029873205           26 
 1592000   0.61851701   -5.6773473    584.79676   0.03061122  0.029853085           20 
 1593000   0.60392226    -5.656268    584.58667  0.030581014  0.029833115           17 
 1594000   0.62269444   -5.6661105     587.0551  0.030690877  0.029813096           12 
 1595000    0.6160014    -5.647354    586.29075  0.030631701  0.029793102           11 
 1596000   0.61775476   -5.6449668     585.5909  0.030575966  0.029773166            7 
 1597000    0.6164463   -5.6663633    586.77352  0.030618531  0.029753285           13 
 1598000   0.62754447   -5.6453482    586.07985  0.030563196  0.029733466            7 
 1599000   0.60308844   -5.6267948    586.40463  0.030561008  0.029713742           12 
 1600000   0.62557289   -5.6729441    585.99594  0.030520622  0.029693966           16 
 1601000   0.62200073   -5.6675841    586.33376  0.030519142  0.029674145           14 
 1602000   0.62043183   -5.6919643    586.38024  0.030502509  0.029654303           11 
 1603000   0.61642395   -5.6679105    587.26427  0.030529438  0.029634513           15 
 1604000    0.6043581   -5.6596601    587.07592  0.030500619  0.029614734           11 
 1605000   0.63060659    -5.672395    586.37672  0.030445313  0.029594959           13 
 1606000   0.61551573   -5.6770645     586.2256  0.030418514  0.029575114            8 
 1607000   0.61659485   -5.6830063     586.5932  0.030418648  0.029555236           13 
 1608000   0.61731811   -5.6718256    586.75839  0.030408291  0.029535448           19 
 1609000   0.61142071   -5.6918528    585.40181  0.030319133  0.029515625           18 
 1610000   0.61626692   -5.6810171     585.6317    0.0303122   0.02949584           21 
 1611000     0.604051   -5.6614317    586.59164   0.03034304  0.029476086           10 
 1612000   0.61542225   -5.6849594    584.73686  0.030228332  0.029456298           20 
 1613000   0.61292828   -5.6601741    585.47725  0.030247843  0.029436474           11 
 1614000   0.61822765   -5.6907631    585.53859  0.030232269  0.029416682           43 
 1615000   0.60982117   -5.6942315    585.36717  0.030204704  0.029396808           11 
 1616000   0.60864968   -5.6987366    585.54298   0.03019508  0.029376989           29 
 1617000   0.60333682   -5.6960661    584.39529  0.030117259  0.029357151           20 
 1618000   0.61095316   -5.7014473    583.99819  0.030078193  0.029337141           32 
 1619000   0.59066682   -5.7228728    585.38261  0.030130873  0.029317286           44 
 1620000   0.59434268   -5.6752305    585.75913  0.030131643  0.029297398           18 
 1621000   0.60582429   -5.7056329    584.19507  0.030032648   0.02927761           32 
 1622000   0.61495122    -5.678141    585.70522  0.030091719   0.02925768           26 
 1623000   0.60900269   -5.7036235    585.64298  0.030069983  0.029237827           27 
 1624000   0.59467028   -5.7026716    585.54686  0.030046534  0.029218014           26 
 1625000    0.6013334   -5.6932077    584.64146  0.029981613  0.029198184           15 
 1626000   0.60680994   -5.6793562    586.72436  0.030069924  0.029178442            6 
 1627000   0.61164634   -5.7042735    585.59012  0.029993348  0.029158726           22 
 1628000   0.60192817    -5.697548    586.65375  0.030029369  0.029138911           16 
 1629000   0.60237393   -5.6791294    585.48739  0.029951268  0.029119031           19 
 1630000   0.60917299   -5.7271408    583.94832  0.029854208  0.029099095           33 
 1631000    0.6059442   -5.6988538     585.5167  0.029916038  0.029079158            5 
 1632000   0.62039062   -5.7253149     586.1478  0.029929932  0.029059267            7 
 1633000   0.59693942   -5.6857903    585.48656  0.029877861  0.029039462           24 
 1634000   0.59150682   -5.7100154    584.86331   0.02982779  0.029019706           23 
 1635000   0.60546088   -5.7195432    585.82609  0.029858618  0.029000005           11 
 1636000   0.62271263   -5.6986508    587.38934  0.029919995  0.028980322            8 
 1637000   0.58894764   -5.7041038    584.84202  0.029772043  0.028960688            8 
 1638000   0.60366197   -5.7147993    585.32995  0.029778691  0.028940911           19 
 1639000   0.59706458   -5.7158867    585.45369  0.029766814  0.028921165           10 
 1640000   0.59642954   -5.7419381    586.11396  0.029782213  0.028901474           11 
 1641000   0.58769181   -5.7125134    586.73416   0.02979556  0.028881743           11 
 1642000   0.61176391   -5.7031311    585.32535  0.029705915  0.028862025           10 
 1643000   0.59937741   -5.7116064    586.33505  0.029739047   0.02884236           35 
 1644000   0.58865422   -5.7280877    585.34955  0.029671003  0.028822665           15 
 1645000   0.59113911   -5.7284451    586.92145  0.029732596  0.028802981           17 
 1646000    0.6120031   -5.7200994    584.92499  0.029613456  0.028783328           13 
 1647000   0.58288512   -5.7230684     583.9321  0.029545239  0.028763575           22 
 1648000    0.5956653    -5.711204    586.32944  0.029648536  0.028743955           14 
 1649000   0.60991688     -5.71547    584.36036  0.029531047  0.028724253            8 
 1650000   0.59754947   -5.7319582      585.712  0.029581414  0.028704541           18 
 1651000   0.59504882   -5.7264333    585.06813  0.029530998  0.028684878           17 
 1652000   0.58661033   -5.7274413    585.24898  0.029522245  0.028665298           11 
 1653000   0.58806768    -5.728997    584.89079  0.029486328  0.028645695           22 
 1654000   0.59055244   -5.7081034    585.76019  0.029512303  0.028626108            9 
 1655000   0.58266042   -5.7143673     586.0322  0.029508167  0.028606581           10 
 1656000   0.59640874   -5.7365898    586.36055  0.029506871  0.028587002           17 
 1657000   0.58956927   -5.7038257    585.78063  0.029459899  0.028567405           10 
 1658000   0.57936817   -5.7295781    585.31135  0.029418544  0.028547792           29 
 1659000   0.58697566   -5.7284989    585.38936   0.02940473  0.028528163            7 
 1660000   0.59011389   -5.7273332    585.36835  0.029385961   0.02850852           18 
 1661000   0.59300352     -5.71743    584.61802  0.029330625  0.028488931           10 
 1662000   0.59104431   -5.7396859    584.77136  0.029320666  0.028469395           18 
 1663000   0.59871928   -5.7317213    585.38328  0.029333698  0.028449811           12 
 1664000   0.57894201   -5.7363207    587.42828  0.029418484  0.028430394           14 
 1665000   0.58027782    -5.724369    584.96999  0.029277777  0.028410857           15 
 1666000   0.58415261   -5.7404692    585.09682  0.029266547  0.028391415           12 
 1667000   0.59018507   -5.7123424    586.33155  0.029310715  0.028372008           19 
 1668000   0.58806818   -5.7253183    586.28104  0.029290619  0.028352519           29 
 1669000   0.58256157    -5.720561     584.6483  0.029191547  0.028333053           42 
 1670000   0.59896187   -5.7526025    586.19254  0.029251125  0.028313609           24 
 1671000   0.59792739   -5.7316805    585.37221  0.029192709  0.028294076           13 
 1672000   0.57563411   -5.7185972    586.13289  0.029213162  0.028274631           10 
 1673000   0.58636678   -5.7315252     585.8022  0.029179229  0.028255166           22 
 1674000   0.58088014   -5.7556771     585.8454  0.029163949  0.028235616           20 
 1675000   0.58938476   -5.7361628    585.28273  0.029118544  0.028216117           14 
 1676000   0.59288372   -5.7459154    585.31341  0.029102696  0.028196611           19 
 1677000   0.58073359   -5.7715524    586.10161  0.029124509  0.028177121           20 
 1678000    0.5665982    -5.754593    583.35192  0.028970596  0.028157624           19 
 1679000    0.5821796   -5.7633409    586.19247  0.029094325  0.028138095           32 
 1680000   0.58422862   -5.7516762    585.03976   0.02901983  0.028118573           28 
 1681000   0.58588752   -5.7568618    584.92593  0.028996923  0.028099115           31 
 1682000    0.5800273   -5.7768732    584.28283  0.028947822  0.028079597           21 
 1683000   0.57756037   -5.7513085    585.04433  0.028968327  0.028060123           21 
 1684000   0.57317095   -5.7502859    585.45859  0.028971625  0.028040684           15 
 1685000   0.58610547   -5.7248744    585.91625  0.028977065  0.028021296           18 
 1686000   0.58197494   -5.7577239    584.77625  0.028903531  0.028001918           20 
 1687000   0.58187187     -5.73827    586.35321  0.028964296  0.027982586           24 
 1688000   0.57643777    -5.756594    585.09892  0.028885215  0.027963279           24 
 1689000   0.57810967   -5.7460811    584.82926  0.028854809  0.027943895           24 
 1690000   0.57834313   -5.7736313     585.1593  0.028854009  0.027924543           47 
 1691000   0.57603677   -5.7360584    586.58161  0.028907038  0.027905257           23 
 1692000   0.56755278   -5.7601084    585.60596  0.028841901  0.027885959           18 
 1693000   0.57559371   -5.7727401    585.27173  0.028808414  0.027866673           26 
 1694000   0.56133126   -5.7505028     585.2574  0.028790703  0.027847399            9 
 1695000   0.57351318   -5.7783453    585.91884  0.028806236  0.027828136           15 
 1696000   0.58577488     -5.76406    583.84204  0.028687207  0.027808904           18 
 1697000   0.58049194   -5.7409627    587.36817  0.028843458   0.02778975           14 
 1698000   0.58881355   -5.7899409    586.23801  0.028771006  0.027770602           13 
 1699000   0.56401879    -5.775358    586.45962  0.028764941  0.027751413            8 
 1700000   0.57115305   -5.7733029    585.68731  0.028710162  0.027732243           17 
 1701000   0.58126139   -5.7564696     585.6917  0.028693499  0.027713135           20 
 1702000    0.5742192    -5.749608    585.74958  0.028679474  0.027694018           15 
 1703000    0.5776855    -5.757792    586.15408  0.028682427  0.027674919           14 
 1704000   0.57161237   -5.7795126    585.23124  0.028620464  0.027655788           22 
 1705000    0.5632875   -5.7627216    586.01527  0.028641998  0.027636603           26 
 1706000   0.57475898   -5.7708382    587.19517  0.028682843   0.02761746           35 
 1707000   0.55786726   -5.7670866    586.93868  0.028653519  0.027598363           26 
 1708000    0.5679486   -5.7704554    586.56988  0.028618749  0.027579289           37 
 1709000   0.57007163   -5.7704406     585.2994  0.028540053  0.027560257           10 
 1710000   0.57253507   -5.7619025    584.97536  0.028507571  0.027541127           31 
 1711000   0.57462002   -5.8013037    583.95635  0.028441279  0.027521963           17 
 1712000   0.57035454   -5.8032099    585.41672  0.028495751  0.027502773           26 
 1713000   0.58063703   -5.7893555    584.98252  0.028457994  0.027483667          102 
 1714000    0.5572069   -5.8022561    584.78827  0.028431946  0.027464565           70 
 1715000   0.57353536   -5.7802109    585.14523  0.028432713  0.027445458           64 
 1716000   0.58030024   -5.7871825    585.26422  0.028421922  0.027426358           54 
 1717000   0.56133485   -5.7946056    586.35551  0.028458334  0.027407343           47 
 1718000      0.55731   -5.7764832    585.59554  0.028404906  0.027388319           27 
 1719000   0.58085943   -5.7870182    585.56497    0.0283869  0.027369344           29 
 1720000   0.57015328   -5.7922939    586.40232  0.028410965  0.027350353           16 
 1721000   0.57124438   -5.8002119     585.3836  0.028345129  0.027331311           29 
 1722000   0.55767933    -5.792492    585.64119  0.028341134  0.027312275           28 
 1723000   0.56693628   -5.7976514    585.23857  0.028305212  0.027293253           39 
 1724000   0.57731519   -5.7984335    584.92523  0.028273648  0.027274247           40 
 1725000   0.57752362   -5.8055492    584.60028  0.028241559  0.027255207           13 
 1726000   0.57145898   -5.8260861     584.8035  0.028235009  0.027236196           31 
 1727000   0.56176954   -5.8273889    583.92572  0.028176304  0.027217109           37 
 1728000   0.55795264   -5.8063018    585.08342  0.028215828  0.027198032           24 
 1729000   0.56416437   -5.8063042     583.8509  0.028140105  0.027179004           19 
 1730000   0.56478851   -5.8253282    585.49286  0.028202931  0.027159942           19 
 1731000   0.56545469   -5.7920245    585.53429  0.028188633  0.027140985           19 
 1732000   0.56899054   -5.7900191    585.29422  0.028160807  0.027122021           23 
 1733000   0.55525107   -5.8037973    586.99161  0.028226179  0.027103061           41 
 1734000   0.56335194   -5.8034962    584.79715  0.028104438  0.027084109           27 
 1735000   0.56582927   -5.8333892    584.06787  0.028053212  0.027065152           29 
 1736000   0.56095175   -5.8102492    586.06077  0.028132717  0.027046232           50 
 1737000    0.5609153   -5.8029279    584.89075  0.028060389   0.02702734           36 
 1738000   0.55612449   -5.8115153    583.92137  0.027997764  0.027008385           49 
 1739000   0.54915052   -5.8146581    584.95333  0.028031116  0.026989421           24 
 1740000   0.56621973   -5.7980755    585.89726  0.028060214  0.026970533           26 
 1741000   0.55064982   -5.8078389    586.23117  0.028060079  0.026951667           58 
 1742000   0.55176847   -5.8195573    585.53395  0.028010618  0.026932821           43 
 1743000   0.55283116   -5.8127924     584.7531  0.027957215  0.026913983           53 
 1744000   0.56254882    -5.803194    585.54882  0.027979206  0.026895178           29 
 1745000   0.56260508   -5.8059763    585.98124  0.027983822  0.026876458           30 
 1746000   0.55592953   -5.7993169    584.23829  0.027884607  0.026857748           61 
 1747000   0.55943287    -5.806976    584.45002  0.027878745  0.026839081           27 
 1748000   0.55656056   -5.8310586    584.62789  0.027871276  0.026820358           35 
 1749000     0.559884   -5.8189027    585.97687  0.027919614  0.026801661           35 
 1750000   0.55238107   -5.8305928    585.47997  0.027879999  0.026782869           27 
 1751000   0.55342042   -5.8128605     586.2323  0.027899881  0.026764101           23 
 1752000   0.56586788   -5.8172791    586.89392  0.027915426  0.026745414           26 
 1753000   0.55453983   -5.8135387    585.80789  0.027847875  0.026726806           32 
 1754000   0.54379516   -5.8037165    587.51094  0.027912911  0.026708248           27 
 1755000   0.55469964   -5.8363852    584.91187  0.027773593  0.026689678           43 
 1756000    0.5516118   -5.8383548    585.23305  0.027773019  0.026671045           21 
 1757000   0.54205688   -5.8189532    586.11195  0.027798897  0.026652461           74 
 1758000   0.54172616   -5.8292828    584.98126  0.027729487  0.026633864           37 
 1759000   0.55482577   -5.8213839    584.46637   0.02768933  0.026615232           32 
 1760000   0.55381212   -5.8199596    584.60756  0.027680282  0.026596623           20 
 1761000   0.54940093   -5.8228697    584.77619  0.027672543  0.026578017           35 
 1762000   0.54598954   -5.8422163    584.96393  0.027665718  0.026559421           23 
 1763000   0.56469109   -5.8396718    585.91193  0.027694835  0.026540863           21 
 1764000   0.55413507   -5.8245244    585.03927   0.02763791  0.026522347           68 
 1765000   0.54038634   -5.8310481    584.39777  0.027591963  0.026503834           87 
 1766000   0.54498163   -5.8208767    587.17957  0.027707605  0.026485391           59 
 1767000   0.54835311   -5.8386428    585.84882  0.027629165  0.026466882           31 
 1768000   0.55476089   -5.8652025    584.02598   0.02752762  0.026448389           23 
 1769000   0.55241761   -5.8305161    584.19004  0.027519787  0.026429895           54 
 1770000   0.55631013   -5.8557695    585.19828  0.027551708  0.026411383           34 
 1771000   0.55573455   -5.8410766    585.05971  0.027529631  0.026392862           27 
 1772000   0.55090762   -5.8228965    585.34801  0.027527653  0.026374369           40 
 1773000   0.54716587   -5.8403899    585.40476  0.027514794   0.02635589           25 
 1774000   0.53970897   -5.8412241    585.78587  0.027517187  0.026337455           27 
 1775000   0.54261153   -5.8207272    587.12323  0.027564471    0.0263191           32 
 1776000   0.54321104   -5.8429962     585.2555  0.027461313  0.026300764           63 
 1777000   0.54963475    -5.837448    585.81293     0.027472  0.026282395           19 
 1778000   0.53188109   -5.8379565    583.94674  0.027369082  0.026264024           31 
 1779000   0.53296356   -5.8316598    585.31479  0.027417781  0.026245663           15 
 1780000     0.537941   -5.8342415    585.19378  0.027396712  0.026227326           26 
 1781000    0.5402488   -5.8455242    584.13537  0.027331807  0.026208956           36 
 1782000   0.53920374   -5.8491613    585.64363  0.027387001  0.026190639           37 
 1783000   0.53557223    -5.841919    584.81084  0.027332718  0.026172272           36 
 1784000   0.53347563   -5.8652333    584.03997  0.027281389  0.026153929           27 
 1785000   0.53929655   -5.8803303    584.02414  0.027265366  0.026135551           36 
 1786000   0.53604693   -5.8615778    585.73722  0.027330031  0.026117212           38 
 1787000   0.54109583   -5.8686935     584.1982  0.027242968  0.026098873           53 
 1788000   0.53796921   -5.8461977    584.50006    0.0272418   0.02608052           15 
 1789000   0.53555389   -5.8609969    584.21418  0.027213256  0.026062157           18 
 1790000   0.53796433   -5.8471839    585.36898  0.027251815   0.02604389           24 
 1791000    0.5406315   -5.8494759    584.52691  0.027197418  0.026025592           36 
 1792000   0.53586219   -5.8632677      584.932  0.027201079   0.02600732           52 
 1793000   0.53051819   -5.8562115    584.73245  0.027176634  0.025989035           20 
 1794000   0.55641348   -5.8686962    585.59095  0.027201363   0.02597077           15 
 1795000   0.52473952   -5.8635658    584.53699  0.027137279  0.025952529           30 
 1796000   0.53187279   -5.8700039    584.41976   0.02711673  0.025934286           26 
 1797000   0.53363086   -5.8718305    584.51503  0.027106058  0.025916017           69 
 1798000   0.54915417   -5.8462021     584.5983  0.027094842   0.02589779           68 
 1799000   0.53618415   -5.8606783    584.36138  0.027068806  0.025879561           87 
 1800000   0.53025906   -5.8720429    583.77091  0.027026431  0.025861352           35 
 1801000   0.52968971   -5.8607629    584.10965  0.027027098   0.02584318           55 
 1802000   0.53860148   -5.8661872    585.09855  0.027057832  0.025825036           64 
 1803000   0.54279793   -5.8520154    583.92025  0.026988364  0.025806938           36 
 1804000   0.53801315   -5.8530446    585.36631  0.027040203   0.02578883           54 
 1805000   0.52961587   -5.8581874    585.59371  0.027035721  0.025770828           36 
 1806000   0.53120576   -5.8698763    584.89931  0.026988709  0.025752798           53 
 1807000   0.54575038   -5.8853102    584.79324  0.026968882  0.025734816           24 
 1808000    0.5421439   -5.8569336    585.55195  0.026988936  0.025716839           47 
 1809000   0.52778739   -5.8409456    585.31844   0.02696326  0.025698872           20 
 1810000   0.53661468   -5.8621314    584.91625  0.026929846  0.025680887           21 
 1811000   0.53598431   -5.8670987    585.55727  0.026944472  0.025662891           47 
 1812000   0.53593974   -5.8718502    585.81217  0.026941325  0.025644905           53 
 1813000   0.53268002   -5.8669003     585.8073  0.026926241  0.025626927           35 
 1814000   0.53816636   -5.8743928    586.71231  0.026952973  0.025608984           31 
 1815000    0.5264279    -5.865474     585.5185   0.02688331  0.025591053           26 
 1816000   0.53245775   -5.8573643    585.64727  0.026874416  0.025573137           26 
 1817000   0.52129011   -5.8672696    586.51353  0.026899355  0.025555244           40 
 1818000   0.51935546   -5.8892714    585.14551  0.026821851  0.025537329           82 
 1819000   0.53700866   -5.8437373     585.3985  0.026818696  0.025519458           40 
 1820000   0.51657539   -5.8622599    584.72313  0.026773037  0.025501607           38 
 1821000   0.52723586   -5.8500846     586.0316  0.026818213  0.025483794           41 
 1822000   0.53109236   -5.8775598    587.01457  0.026848453  0.025465967           22 
 1823000   0.53322581    -5.857209    586.52412  0.026811306    0.0254482            9 
 1824000   0.53939574   -5.8858534    585.14094  0.026733413  0.025430472           48 
 1825000   0.53822855   -5.8775657    586.12169  0.026763547  0.025412714           28 
 1826000   0.52218867   -5.8871317    584.55348  0.026677322  0.025394945           39 
 1827000   0.52264014   -5.8965366    584.43459  0.026657298  0.025377155           20 
 1828000   0.52319619   -5.8837358    584.58076  0.026649378  0.025359349           23 
 1829000   0.51563493    -5.884129    585.32973  0.026668932  0.025341529           35 
 1830000   0.52317683   -5.8908396    585.96399  0.026683242  0.025323754           34 
 1831000   0.52778054   -5.8770741     584.9339  0.026621787  0.025305948           40 
 1832000   0.53213371   -5.8753053    584.75803  0.026599255  0.025288163           21 
 1833000   0.53399192   -5.8631009    585.51815  0.026619301  0.025270425           32 
 1834000   0.52654838   -5.8857326     584.4035  0.026554139  0.025252726           45 
 1835000   0.51408899   -5.8993069    584.98174  0.026565928  0.025235017           32 
 1836000   0.51501464    -5.886912    584.50517  0.026529828  0.025217281           37 
 1837000   0.51225376   -5.9003415    584.94182  0.026535194   0.02519957           20 
 1838000   0.52009712   -5.8893621    586.70718  0.026600797  0.025181904           61 
 1839000   0.52008634   -5.8897983    584.30014  0.026477258   0.02516422           30 
 1840000   0.49621452   -5.9044364    585.18228  0.026502821  0.025146535           43 
 1841000   0.52183335   -5.8946467    584.59345  0.026461771  0.025128838           43 
 1842000   0.52065046   -5.8679291     583.3294  0.026390219  0.025111204           32 
 1843000   0.51860588   -5.8893315     585.3038  0.026465174  0.025093621           38 
 1844000   0.51920372   -5.8681544    584.41007  0.026410433  0.025076044           22 
 1845000   0.52044744   -5.8980206    585.13748  0.026428974  0.025058456          104 
 1846000    0.5158876    -5.893267    584.62184   0.02639138  0.025040838           66 
 1847000    0.5170051   -5.9337594    584.53972  0.026373386  0.025023155           93 
 1848000   0.51725846   -5.9168883    583.91287  0.026330847  0.025005518           58 
 1849000   0.52415218   -5.9203568    584.09497  0.026324814  0.024987897           63 
 1850000   0.51056752   -5.9124348    583.81483  0.026297966  0.024970285           72 
 1851000   0.52261992   -5.8946019    583.70904  0.026278995  0.024952654           72 
 1852000    0.5122688   -5.9153613    584.77574  0.026312803  0.024935099           38 
 1853000   0.51590495   -5.9273146    584.52084   0.02628714  0.024917484           47 
 1854000   0.52307273   -5.9117742    586.24383  0.026350406  0.024899942           28 
 1855000    0.5147338   -5.9172729    584.64345  0.026264306   0.02488237          105 
 1856000   0.51203048   -5.9249865    584.11136  0.026226265  0.024864796           85 
 1857000   0.50196182   -5.8942848     584.5104  0.026230048  0.024847257           87 
 1858000   0.50817126   -5.9112978    584.88508  0.026232736  0.024829713           45 
 1859000   0.51403477   -5.9057055    583.85066  0.026172255  0.024812149           55 
 1860000   0.52389228   -5.9220777     584.4154  0.026183485  0.024794635           35 
 1861000   0.51444434   -5.9200842    584.56229  0.026175994    0.0247771           29 
 1862000   0.50419473   -5.9360059     584.1211   0.02614219  0.024759587           81 
 1863000   0.50774234   -5.9261847    583.22331  0.026087999   0.02474205          109 
 1864000   0.50130846   -5.9347262    582.65505  0.026048598  0.024724521          106 
 1865000   0.49826863   -5.9227468    583.94412   0.02609223  0.024707027           64 
 1866000   0.50618592   -5.9418263    583.20772  0.026045361  0.024689562          120 
 1867000   0.51397444   -5.9230758    584.01908  0.026067625  0.024672124           85 
 1868000   0.52894318   -5.9067532    584.54684  0.026077214  0.024654724           27 
 1869000   0.51670699   -5.9104527    584.43766  0.026058394  0.024637329           80 
 1870000   0.49064391   -5.9268849     583.5752  0.026006025  0.024619938           66 
 1871000   0.51309946   -5.9340735    583.96669  0.026009562  0.024602578           66 
 1872000   0.51418956   -5.9266616    583.68947  0.025983327  0.024585226           77 
 1873000   0.51345847   -5.9449827    584.61533  0.026010648  0.024567912           68 
 1874000   0.50298249   -5.9360967    584.12107   0.02597479  0.024550564           91 
 1875000   0.50209949   -5.9402066    584.06797  0.025958576  0.024533234           79 
 1876000   0.50322471   -5.9566888    583.81911  0.025933685  0.024515902           47 
 1877000   0.50600151   -5.9273225    583.91681  0.025924206  0.024498537           58 
 1878000   0.50152826   -5.9497637    583.15396  0.025876551  0.024481154          149 
 1879000   0.50454873   -5.9344369    583.56943  0.025881206  0.024463789           62 
 1880000   0.50239831    -5.940015    584.56644  0.025911633   0.02444643           79 
 1881000   0.49272599   -5.9271087     583.2264   0.02583849  0.024429105          128 
 1882000   0.49874424   -5.9385658    583.07632  0.025818115  0.024411818           95 
 1883000   0.50284877   -5.9460882    583.73162  0.025833405   0.02439453           48 
 1884000   0.50536367   -5.9317101    583.30549  0.025800844  0.024377235          110 
 1885000   0.49436051   -5.9392708    583.05976  0.025776293  0.024359914           92 
 1886000   0.50094789   -5.9357758    583.15745  0.025766943  0.024342616           48 
 1887000   0.49858061   -5.9418777    583.80135  0.025781723  0.024325321          123 
 1888000   0.49617034   -5.9485256    583.55818  0.025757335  0.024308061          161 
 1889000   0.50258557   -5.9391647    582.77439  0.025709122  0.024290812          154 
 1890000    0.5030616   -5.9512324    584.06729  0.025752526  0.024273554           83 
 1891000   0.48990777   -5.9314681    584.19388  0.025744486  0.024256364           91 
 1892000   0.49425542    -5.939889    583.73283  0.025710572  0.024239134           79 
 1893000   0.49992108   -5.9443304    584.22257  0.025718549  0.024221937           56 
 1894000   0.50665644   -5.9431552    583.59635  0.025677418  0.024204763          224 
 1895000    0.5066888   -5.9555085    583.16993  0.025645116   0.02418766          216 
 1896000   0.49616956   -5.9441054    582.98033  0.025623256  0.024170514          192 
 1897000   0.48880894   -5.9491084    583.44376  0.025630107  0.024153335          204 
 1898000   0.48808982   -5.9368093    583.13593  0.025603088  0.024136163          171 
 1899000   0.48291985   -5.9555916     584.2106  0.025636765     0.024119          228 
 1900000    0.4921174   -5.9644417    584.53352  0.025637435  0.024101843          225 
 1901000   0.50535632     -5.95905    582.53843  0.025536491   0.02408474          230 
 1902000   0.50195943   -5.9552356    583.80022  0.025578348  0.024067652          306 
 1903000   0.49642069   -5.9690695    582.96228  0.025528214  0.024050583          303 
 1904000   0.48818537    -5.957241    582.93584  0.025513649  0.024033525          220 
 1905000   0.50401385   -5.9667025    582.26919  0.025471093  0.024016459          164 
 1906000   0.48568964   -5.9567114    583.38278  0.025506418  0.023999376          225 
 1907000    0.4880617   -5.9507378    582.59524  0.025458628  0.023982322          197 
 1908000   0.50110186   -5.9652655    583.44294  0.025482309  0.023965308          228 
 1909000   0.49130812   -5.9782624    582.28601  0.025418457  0.023948227          197 
 1910000   0.48218042   -5.9646895    583.25193  0.025447292  0.023931157          267 
 1911000   0.48761172   -5.9732786    581.65044  0.025364139  0.023914109          186 
 1912000   0.50039499   -5.9755345    582.53448  0.025389404  0.023897026          178 
 1913000   0.48504858   -5.9685605    581.61031  0.025335873  0.023879938          191 
 1914000   0.47808006   -5.9669042     581.1432  0.025302299  0.023862876          166 
 1915000   0.48347146   -5.9812741     582.4902  0.025347702  0.023845809          181 
 1916000   0.49017889   -5.9653981    582.71489  0.025344246  0.023828755          179 
 1917000   0.49275911   -5.9846332    581.90402  0.025295775  0.023811762          228 
 1918000   0.48263392   -5.9903589    582.78211  0.025320738  0.023794756          193 
 1919000   0.48972141    -5.973666    582.45082  0.025293157  0.023777785          291 
 1920000    0.4815843   -5.9631013    582.95212  0.025301741  0.023760839          230 
 1921000   0.48696772   -5.9787619    581.97509  0.025246186   0.02374388          262 
 1922000     0.473604   -5.9760524    582.68259  0.025263726  0.023726908          224 
 1923000   0.49107475   -5.9850106     582.6433  0.025248886      0.02371          274 
 1924000   0.48918987   -5.9723582    582.18309   0.02521583  0.023693109          314 
 1925000   0.49889035   -5.9790063    581.74706  0.025183856  0.023676199          327 
 1926000   0.49363045   -5.9730862    581.52357   0.02516111  0.023659276          258 
 1927000   0.47984639   -5.9812988    582.38546  0.025185325  0.023642347          346 
 1928000   0.48444386   -5.9841859    582.58645   0.02518095  0.023625452          288 
 1929000   0.48486783   -5.9982775    582.76839  0.025175755   0.02360855          252 
 1930000   0.48835856   -5.9934199    582.49312  0.025150825  0.023591645          341 
 1931000    0.4917535   -5.9875033    582.00601  0.025116779  0.023574739          255 
 1932000   0.48817911   -5.9926957     581.7975  0.025094785  0.023557852          273 
 1933000   0.47627732    -5.992905    582.21481  0.025099794  0.023540947          247 
 1934000   0.49965127   -5.9941444    581.85977  0.025071517  0.023524098          302 
 1935000   0.48298529   -5.9917971    580.55629  0.025002424  0.023507268          315 
 1936000   0.48110874    -5.995464    581.87142  0.025046118  0.023490413          374 
 1937000    0.4779468   -5.9881633    581.33799  0.025010239  0.023473572          380 
 1938000   0.48226307   -5.9986698    581.05283  0.024985072   0.02345677          283 
 1939000   0.48441868   -6.0046872     581.4787  0.024990489  0.023439942          363 
 1940000   0.48303531   -6.0013711     581.3132  0.024970498  0.023423159          341 
 1941000   0.47678425   -5.9883554    581.78084  0.024977711  0.023406369          365 
 1942000   0.47357977   -6.0054918    580.88425  0.024926375  0.023389588          378 
 1943000   0.48302077   -6.0233326    581.29438  0.024931137  0.023372806          394 
 1944000   0.46406654    -5.985602    581.89822  0.024944197  0.023356025          334 
 1945000   0.46782599   -6.0106001    580.47175  0.024870255  0.023339267          294 
 1946000     0.478299   -6.0144356    581.23202  0.024890032  0.023322494          299 
 1947000   0.46724729   -6.0062977    581.03395   0.02486877  0.023305728          385 
 1948000   0.47306353   -5.9968556    581.20642  0.024863382   0.02328896          381 
 1949000   0.46696013   -5.9957117    582.89045  0.024922629   0.02327223          352 
 1950000   0.48399637   -6.0037956    581.56038  0.024853008  0.023255534          416 
 1951000   0.47957984   -6.0239871    581.17862  0.024823963  0.023238824          417 
 1952000   0.47719279   -6.0096773    580.65673  0.024788965  0.023222119          296 
 1953000   0.47749414   -6.0287558    580.59397  0.024773595  0.023205442          344 
 1954000   0.47427615   -6.0241891    581.06051  0.024780813  0.023188752          317 
 1955000   0.46866937   -6.0240284    580.35012  0.024737857  0.023172085          330 
 1956000   0.47275458   -6.0212947    581.40813  0.024770285  0.023155445          342 
 1957000   0.47053491   -6.0083576    581.56419  0.024764273  0.023138839          359 
 1958000   0.47724714   -6.0068024    580.10819  0.024689657  0.023122258          405 
 1959000     0.474949   -6.0125632    579.32895  0.024643906  0.023105624          380 
 1960000   0.46830254   -6.0148362    580.28975  0.024672183  0.023088968          315 
 1961000   0.47825657   -5.9962913    580.06378  0.024649999   0.02307236          455 
 1962000   0.47439547   -6.0296302    580.37372    0.0246506   0.02305578          435 
 1963000     0.477035   -6.0146433    579.37937   0.02459583  0.023039208          458 
 1964000   0.47078166   -6.0164966    580.61084  0.024635558  0.023022644          432 
 1965000   0.46116564   -6.0295635    581.31113   0.02465272  0.023006073          459 
 1966000   0.47145709   -6.0099134    580.09037  0.024588436   0.02298957          411 
 1967000   0.47187797   -6.0140466    581.63917  0.024641551  0.022973079          384 
 1968000   0.47845562   -6.0153439     580.9378  0.024599331  0.022956562          439 
 1969000   0.46811594   -6.0316816    580.77099  0.024579778  0.022940074          497 
 1970000   0.46922951   -6.0339814    580.71191  0.024564801  0.022923589          439 
 1971000   0.46065203   -6.0313485    580.40679  0.024539438  0.022907099          371 
 1972000     0.460729    -6.033109    579.84029  0.024503055  0.022890606          456 
 1973000   0.47333509   -6.0374166     580.7688  0.024529853  0.022874141          400 
 1974000   0.46298939   -6.0413397    579.87736  0.024479794   0.02285768          434 
 1975000   0.46914944   -6.0316071    580.04855  0.024474622  0.022841247          397 
 1976000   0.46626622   -6.0425996     580.5428   0.02448308  0.022824804          412 
 1977000   0.47908488   -6.0377697    580.15847  0.024454496  0.022808395          427 
 1978000     0.467531   -6.0293819    580.28684  0.024447541  0.022791982          495 
 1979000   0.46210367   -6.0403669    580.52624  0.024445269  0.022775602          606 
 1980000   0.45883975   -6.0438998    581.11318  0.024457625   0.02275923          550 
 1981000   0.46070003   -6.0284082    580.59681  0.024423558  0.022742909          500 
 1982000   0.45281718   -6.0313402    580.16527  0.024393091  0.022726583          354 
 1983000   0.46326517   -6.0420205    580.06495  0.024376574  0.022710249          466 
 1984000    0.4721794   -6.0400061    579.99928  0.024361529  0.022693957          471 
 1985000   0.45816379   -6.0486163    579.81082  0.024341344  0.022677692          474 
 1986000   0.45094441   -6.0358647    579.50455  0.024316236  0.022661413          516 
 1987000   0.46174346   -6.0602552    580.71498  0.024354763  0.022645123          496 
 1988000   0.46000553   -6.0412089    579.63639    0.0242973  0.022628841          385 
 1989000   0.46068779   -6.0525699    580.46646  0.024319862  0.022612591          549 
 1990000   0.46363224   -6.0382095    580.04927   0.02429017  0.022596327          405 
 1991000   0.45840731   -6.0201164    579.84407  0.024269382  0.022580106          453 
 1992000   0.46018852   -6.0394017    581.25069  0.024316043  0.022563904          498 
 1993000   0.44851022   -6.0420323    579.97363  0.024250444  0.022547701          527 
 1994000   0.45513177    -6.049373    579.06991  0.024200514   0.02253154          437 
 1995000   0.44625755   -6.0480362    579.18399  0.024193149  0.022515349          548 
 1996000    0.4558597   -6.0318372     580.1766   0.02422247  0.022499171          513 
 1997000   0.45548603   -6.0406127    580.37315  0.024218542  0.022482994          500 
 1998000   0.45779198    -6.050832    579.27378  0.024160568  0.022466823          556 
 1999000   0.45060433   -6.0560254    579.20089  0.024145443  0.022450646          578 
 2000000   0.45613839   -6.0424617    579.33932  0.024139138  0.022434444          539 
 2001000   0.45287004   -6.0413653    580.24451  0.024164772  0.022418251          610 
 2002000   0.45083631   -6.0546611    579.48697  0.024121169  0.022402058          669 
 2003000   0.45466959   -6.0482993     579.9279  0.024127471  0.022385874          586 
 2004000   0.46043648   -6.0558968    578.61492  0.024060833   0.02236972          638 
 2005000   0.45995655   -6.0689036    578.66869  0.024051068  0.022353572          529 
 2006000   0.44772643   -6.0585109    578.64786  0.024038213  0.022337441          492 
 2007000   0.45556136   -6.0670323    579.02781  0.024042012  0.022321338          678 
 2008000   0.44841728   -6.0685482    578.89154  0.024024383  0.022305221          652 
 2009000   0.44879194   -6.0741816     578.9576  0.024015165  0.022289115          581 
 2010000   0.45160914   -6.0701424    579.45369  0.024023785  0.022273066          600 
 2011000   0.45635006   -6.0679722    578.39131  0.023967815  0.022257018          610 
 2012000   0.44851414   -6.0601831    579.36548  0.023996251  0.022240983          521 
Loop time of 5107.44 on 48 procs for 2000000 steps with 4000 atoms

Performance: 67666.007 tau/day, 391.586 timesteps/s
99.4% CPU use with 48 MPI tasks x no OpenMP threads

MPI task timing breakdown:
Section |  min time  |  avg time  |  max time  |%varavg| %total
---------------------------------------------------------------
Pair    | 353.88     | 376.61     | 393.41     |  49.4 |  7.37
Neigh   | 34.63      | 35.927     | 37.796     |  11.9 |  0.70
Comm    | 330.44     | 349.66     | 373.7      |  53.7 |  6.85
Output  | 4.6685     | 4.671      | 4.7155     |   0.3 |  0.09
Modify  | 4283.4     | 4292.8     | 4303.7     |   9.0 | 84.05
Other   |            | 47.75      |            |       |  0.93

Nlocal:        83.3333 ave          89 max          76 min
Histogram: 2 2 1 10 3 6 11 4 5 4
Nghost:        2351.33 ave        2375 max        2333 min
Histogram: 3 3 6 10 8 9 4 2 1 2
Neighs:        16067.5 ave       17651 max       14179 min
Histogram: 2 0 7 6 7 7 5 5 4 5
FullNghs:      32135.0 ave       34791 max       29112 min
Histogram: 2 2 2 9 4 12 5 6 4 2

Total # of neighbors = 1542482
Ave neighs/atom = 385.62050
Neighbor list builds = 107551
Dangerous builds = 3

#clear
#
#next RN
#
#jump SELF
Total wall time: 1:25:11
