
units lj                  # Use reduced LJ style units
atom_style atomic         # Uncharged point particles
atom_modify map hash      # Needed for indexing of clusters etc
                          # Used to be able to find where atoms are in relation to each other.

lattice fcc 1.0 spacing 1 1 1
Lattice spacing in x,y,z = 1.5874011 1.5874011 1.5874011
region box block 0 10 0 10 0 10 units lattice
create_box 2 box
Created orthogonal box = (0.0000000 0.0000000 0.0000000) to (15.874011 15.874011 15.874011)
  3 by 4 by 4 MPI processor grid
create_atoms 1 box
Created 4000 atoms
  using lattice units in orthogonal box = (0.0000000 0.0000000 0.0000000) to (15.874011 15.874011 15.874011)
  create_atoms CPU = 0.002 seconds
set type 1 type/fraction 2 0.33 78393
Setting atom values ...
  1342 settings made for type/fraction
mass 1 1.0
mass 2 1.0
pair_style lj/cut  3.5
pair_modify tail  yes
pair_coeff 1  1  1.0  1.0   # Intearaction between 1 and 1 set with epsilon = 1 and sigma = 1
pair_coeff 1  2  1.5  0.8
pair_coeff 2  2  0.5  0.88

write_data data.0
System init for write_data ...
Neighbor list info ...
  update every 1 steps, delay 10 steps, check yes
  max neighbors/atom: 2000, page size: 100000
  master list distance cutoff = 3.8
  ghost atom cutoff = 3.8
  binsize = 1.9, bins = 9 9 9
  1 neighbor lists, perpetual/occasional/extra = 1 0 0
  (1) pair lj/cut, perpetual
      attributes: half, newton on
      pair build: half/bin/atomonly/newton
      stencil: half/bin/3d
      bin: standard
WARNING: Not all mixed pair coeffs generated from mixing. Use write_data with 'pair ij' option to store all pair coeffs. (../write_data.cpp:312)


#############################
#   M E L T   S Y S T E M   #
#############################

velocity all create 2.4 3143649 mom yes dist gaussian # Assign velocities
                                                    # Temperature 2.4, random number seed, zero linear momentum
                                                                                # Gaussian distribution

timestep 0.002   # simulation timestep
thermo 1000       # output thermodynamic data every 1000 steps bf 100

# Define a fix  in this case with index 1 applied to all
# particles in the simulation. This fix is for simulations
# in the anisotropic NPT ensemble. Note that we use the MTK
# correction.
fix 1 all npt temp 2.4 2.4 0.1 iso 5.68 5.68 0.5 mtk yes tchain 5 pchain 5 # Use NPT ensemble
                                                                         # Set temperature and pressure and damping
                                                                         # Numbers of thermostats in chain and in barostat
run 10000          # run for 10000 steps
Per MPI rank memory allocation (min/avg/max) = 3.642 | 3.644 | 3.648 Mbytes
Step Temp E_pair E_mol TotEng Press Volume 
       0          2.4   -6.2616635            0   -2.6625635   -4.0519521         4000 
    1000    2.4010766   -4.9212671            0   -1.3205527    5.7714045    4098.6474 
    2000    2.3879109   -5.0768209            0     -1.49585     5.942732    4016.5768 
    3000     2.394312   -5.0338464            0   -1.4432763    5.2295039    4101.4426 
    4000    2.4018894   -4.9953392            0   -1.3934058    5.4315958    4095.8577 
    5000    2.3925999   -5.0107745            0   -1.4227718    5.3908427     4095.966 
    6000    2.3803324   -5.0346525            0   -1.4650465    6.1545732    4013.2888 
    7000    2.4326587   -5.0244471            0   -1.3763712    5.5727752    4085.4786 
    8000    2.4322893   -5.0524151            0   -1.4048933     5.471084    4062.3413 
    9000      2.42139   -5.0187854            0   -1.3876084      5.57655    4081.0221 
   10000    2.4537415   -5.0194043            0   -1.3397122    5.8646091    4059.6031 
Loop time of 2.4521 on 48 procs for 10000 steps with 4000 atoms

Performance: 704701.506 tau/day, 4078.134 timesteps/s
99.6% CPU use with 48 MPI tasks x no OpenMP threads

MPI task timing breakdown:
Section |  min time  |  avg time  |  max time  |%varavg| %total
---------------------------------------------------------------
Pair    | 1.0588     | 1.1336     | 1.2585     |   3.4 | 46.23
Neigh   | 0.20029    | 0.21269    | 0.23547    |   1.2 |  8.67
Comm    | 0.70464    | 0.83804    | 0.91133    |   4.6 | 34.18
Output  | 0.00024547 | 0.00024962 | 0.00031605 |   0.0 |  0.01
Modify  | 0.21126    | 0.25242    | 0.30451    |   4.7 | 10.29
Other   |            | 0.01509    |            |       |  0.62

Nlocal:        83.3333 ave          94 max          76 min
Histogram: 2 6 8 14 6 3 2 4 2 1
Nghost:        1628.58 ave        1650 max        1608 min
Histogram: 4 4 4 6 5 7 9 3 3 3
Neighs:        9403.31 ave       10933 max        8168 min
Histogram: 1 3 9 10 9 5 4 4 1 2

Total # of neighbors = 451359
Ave neighs/atom = 112.83975
Neighbor list builds = 904
Dangerous builds = 198

# Equilibrate just above the melting temperature to avoid step fn in T

fix 1 all npt temp 1.25 1.25 0.1 iso 5.68 5.68 0.5 mtk yes tchain 5 pchain 5
run 2000
Per MPI rank memory allocation (min/avg/max) = 3.643 | 3.645 | 3.649 Mbytes
Step Temp E_pair E_mol TotEng Press Volume 
   10000    2.4537415   -5.0194043            0   -1.3397122    5.8646091    4059.6031 
   11000    1.2677886   -6.9562118            0   -5.0550044     5.687969    3253.9275 
   12000    1.2271788   -6.9344136            0   -5.0941057     5.800599    3251.8558 
Loop time of 0.587512 on 48 procs for 2000 steps with 4000 atoms

Performance: 588242.819 tau/day, 3404.183 timesteps/s
99.6% CPU use with 48 MPI tasks x no OpenMP threads

MPI task timing breakdown:
Section |  min time  |  avg time  |  max time  |%varavg| %total
---------------------------------------------------------------
Pair    | 0.26128    | 0.27908    | 0.32391    |   2.0 | 47.50
Neigh   | 0.038214   | 0.040125   | 0.047507   |   0.7 |  6.83
Comm    | 0.17034    | 0.21979    | 0.23878    |   2.6 | 37.41
Output  | 5.1839e-05 | 5.3923e-05 | 6.9223e-05 |   0.0 |  0.01
Modify  | 0.038146   | 0.043704   | 0.048223   |   1.4 |  7.44
Other   |            | 0.004757   |            |       |  0.81

Nlocal:        83.3333 ave          93 max          75 min
Histogram: 2 2 8 9 2 12 6 5 1 1
Nghost:        1890.48 ave        1914 max        1864 min
Histogram: 4 0 5 7 4 7 4 10 4 3
Neighs:        11758.7 ave       13440 max       10116 min
Histogram: 2 0 3 15 8 6 6 2 2 4

Total # of neighbors = 564418
Ave neighs/atom = 141.10450
Neighbor list builds = 142
Dangerous builds = 9

#############################
# L I N E A R  Q U E N C H  #
#############################

# Define solid atoms. This closely follows ten Wolde  Ruiz-Montero and Frenkel  Faraday Discuss  1996  104  93-110
# Compute components of the per-atom q6 vector
compute q6 all orientorder/atom degrees 1 6 components 6 nnn NULL cutoff 1.3 # compute the Q6 parameter.
                                                                             # Use all neighbours within 1.3 unit cell.

# get number of connections
compute coord_number all coord/atom orientorder q6 0.5

# An atom is solid if it has 8 or more connections (of a possible 14)
variable is_solid atom c_coord_number>=8
group solid dynamic all var is_solid    # Must be dynamic to update
dynamic group solid defined

# do clustering
compute cluster solid cluster/atom 1.3 # Create a cluster where all atoms within are solid and max 1.3 units from another member

# define chunks one chunk per cluster
compute clus_chunks solid chunk/atom c_cluster nchunk every compress yes  # Says which atoms are in which chunk

# count the size of each chunk
compute size_chunks solid property/chunk clus_chunks count


# Find the maximum entry in the vector of chunk sizes
variable max_n equal max(c_size_chunks)


# Thermo style which includes this variable
# thermo_style custom step temp pe vol v_max_n

thermo ${N}  # Print the thermo information every 100 steps
thermo 1000  

# Reset the npt fix at a lower temperature (below freezing)
fix 1  all npt temp  ${temp} ${temp}  0.1  iso  5.68  5.68  0.5  mtk yes tchain  5  pchain  5
fix 1  all npt temp  0.45 ${temp}  0.1  iso  5.68  5.68  0.5  mtk yes tchain  5  pchain  5
fix 1  all npt temp  0.45 0.45  0.1  iso  5.68  5.68  0.5  mtk yes tchain  5  pchain  5

dump dmp2 all dcd ${N} traj.dcd
dump dmp2 all dcd 1000 traj.dcd


compute msd all msd com yes
variable twopoint equal c_msd[4]/6/(step*dt+1.0e-6)
fix 9 all vector 10 c_msd[4]
variable fit equal slope(f_9)/6/(10*dt)
thermo_style custom step temp pe c_msd[4] v_twopoint v_fit v_max_n

fix 1 all npt temp 1.25 ${temp} 0.1 iso 5.68 5.68 0.5 mtk yes tchain 5 pchain 5
fix 1 all npt temp 1.25 0.45 0.1 iso 5.68 5.68 0.5 mtk yes tchain 5 pchain 5
run 500000 # 5000000  # Run for this many steps
Neighbor list info ...
  update every 1 steps, delay 10 steps, check yes
  max neighbors/atom: 2000, page size: 100000
  master list distance cutoff = 3.8
  ghost atom cutoff = 3.8
  binsize = 1.9, bins = 8 8 8
  4 neighbor lists, perpetual/occasional/extra = 1 3 0
  (1) pair lj/cut, perpetual
      attributes: half, newton on
      pair build: half/bin/atomonly/newton
      stencil: half/bin/3d
      bin: standard
  (2) compute orientorder/atom, occasional
      attributes: full, newton on
      pair build: full/bin/atomonly
      stencil: full/bin/3d
      bin: standard
  (3) compute coord/atom, occasional
      attributes: full, newton on
      pair build: full/bin/atomonly
      stencil: full/bin/3d
      bin: standard
  (4) compute cluster/atom, occasional
      attributes: full, newton on
      pair build: full/bin/atomonly
      stencil: full/bin/3d
      bin: standard
Per MPI rank memory allocation (min/avg/max) = 9.816 | 9.820 | 9.826 Mbytes
Step Temp PotEng c_msd[4] v_twopoint v_fit v_max_n 
   12000    1.2271788   -6.9344136 1.5524783e-30 1.0781099e-32 8.3333333e+20            1 
   13000    1.2747812   -6.9415516     0.482882 0.0030953973  0.039279483            2 
   14000     1.265468   -6.9802768   0.96411001 0.0057387498  0.039845322            2 
   15000    1.2226421   -6.9698899    1.4264555 0.0079247528   0.03926313            3 
   16000    1.2486923   -6.9989512    1.8434793 0.0096014545   0.03840746            1 
   17000    1.2405049   -6.9714056    2.3229699  0.011387107   0.03788705            5 
   18000    1.2266886   -6.9872943    2.8011313    0.0129682  0.038155286            2 
   19000    1.2378537   -6.9945635    3.1742433  0.013922119  0.038011257            1 
   20000    1.2283286   -6.9945201    3.6616034   0.01525668  0.037736894            1 
   21000    1.2429616   -7.0291819    4.1143695  0.016326863  0.037705323            1 
   22000    1.2623439   -7.0011114    4.5687312  0.017305799  0.037773188            1 
   23000    1.1973655   -6.9948918    5.0902405    0.0184429  0.037899121            1 
   24000    1.2277284   -7.0393205    5.4653977  0.018977075  0.037990679            3 
   25000    1.2328976   -6.9994392    5.9430603  0.019810201  0.037870744            1 
   26000    1.2325245   -6.9704975    6.4184414  0.020571927   0.03788147            2 
   27000     1.214749     -7.01276    6.7332462  0.020781624  0.037779932            2 
   28000    1.2322234   -7.0065492    7.2254114    0.0215042  0.037601373            1 
   29000    1.2672221    -7.007279    7.5696623  0.021751903  0.037398564            1 
   30000    1.2259958   -6.9700026    8.1091467  0.022525407  0.037296532            2 
   31000    1.2261972   -7.0073993    8.3731952  0.022508589  0.037130904            1 
   32000    1.2133121   -7.0510424    8.6901811   0.02263068  0.036846397            1 
   33000    1.2159461   -7.0253543    9.0240416  0.022787983   0.03650382            1 
   34000    1.2128623   -7.0487361    9.3827613  0.022996964  0.036160391            2 
   35000    1.2291696   -7.0461806    9.8014157  0.023336704  0.035823286            1 
   36000    1.2349654   -7.0015809    10.105506  0.023392375  0.035544048            3 
   37000     1.211899   -7.0496269    10.497503  0.023643024  0.035257735            2 
   38000    1.1798003    -7.021291    10.921687  0.023951068  0.035026003            1 
   39000    1.2016789   -7.0523815    11.252196  0.024043154  0.034800816            1 
   40000    1.2134103   -7.0272171    11.546947  0.024056139  0.034581698            2 
   41000    1.2047875   -6.9940919    11.978858  0.024347271  0.034347892            1 
   42000    1.1792603   -7.0459785    12.334318  0.024472853  0.034160901            1 
   43000     1.207748   -7.0783419    12.755779  0.024720501  0.034009228            4 
   44000    1.2019422   -7.0612438    13.207548  0.025014294  0.033895291            1 
   45000    1.1976234   -7.0948349    13.592371  0.025171057   0.03379139            2 
   46000    1.1916227   -7.0510852    13.890291  0.025163571  0.033669441            3 
   47000    1.1838704   -7.0778984      14.2696  0.025300709  0.033560193            1 
   48000    1.1981442   -7.0837285    14.674996  0.025477424  0.033445462            1 
   49000    1.1896863   -7.0445428    15.059826  0.025611948  0.033357014            1 
   50000    1.1696465   -7.1116322    15.444446  0.025740743  0.033274837            1 
   51000    1.2138919   -7.0871256    15.790194   0.02580097  0.033196895            1 
   52000    1.1778294    -7.094852    16.185019   0.02593753  0.033124062            2 
   53000    1.1946558   -7.0860139    16.600878   0.02610201  0.033060485            2 
   54000    1.1988595   -7.1411118     16.94961  0.026156806  0.033001301            2 
   55000    1.1930698   -7.1162314    17.315451  0.026235531  0.032943597            2 
   56000    1.1734445   -7.0829798    17.660875  0.026281064  0.032872928            2 
   57000    1.1664819   -7.1026231     18.02136  0.026347018  0.032792308            2 
   58000    1.1800922   -7.0741531     18.40643   0.02644602  0.032730193            1 
   59000    1.1695524    -7.117084    18.731948  0.026457553  0.032662016            2 
   60000    1.1886557   -7.1402706    19.024155  0.026422437  0.032576878            1 
   61000    1.1473804   -7.1047001      19.3134  0.026384426  0.032485188            3 
   62000    1.1288475   -7.1211318    19.705841  0.026486345   0.03240407            2 
   63000    1.1581699   -7.1402093    19.884392  0.026302105  0.032313917            2 
   64000    1.1855626   -7.1416176    20.158444  0.026247974  0.032201039            1 
   65000    1.1614181   -7.1158401    20.612961  0.026426872   0.03208976            1 
   66000    1.1785934   -7.1318979    20.913908  0.026406449   0.03199295            1 
   67000    1.1567614   -7.1984468    21.243455  0.026422208  0.031911889            2 
   68000    1.1219868   -7.1315057    21.681725  0.026570741  0.031830773            1 
   69000    1.1656059    -7.186521    21.959318  0.026520915  0.031754588            1 
   70000    1.1479556   -7.1276045    22.225124  0.026458481  0.031667978            1 
   71000    1.1593308   -7.1484627    22.588545  0.026512376  0.031582659            1 
   72000    1.1491723   -7.1351436     22.77837  0.026363854  0.031487006            3 
   73000    1.1494099   -7.1798436    23.085304  0.026353087  0.031394396            2 
   74000    1.1544066    -7.213924    23.563448  0.026535414  0.031302364            2 
   75000    1.1395996   -7.2055218    23.854732  0.026505258  0.031215618            3 
   76000    1.1434328   -7.1549593    24.245406  0.026584875   0.03113802            1 
   77000    1.1526141   -7.1716149    24.553346  0.026572885  0.031062944            2 
   78000    1.1575167   -7.1601458    24.903651  0.026606465  0.030985821            1 
   79000    1.1446729   -7.1718634    25.186202  0.026567724  0.030912607            1 
   80000    1.1556944   -7.2333007    25.573026  0.026638569  0.030840486            1 
   81000    1.1216048   -7.1954651    25.966628  0.026714637  0.030779316            4 
   82000    1.1399648   -7.1664586    26.341555  0.026769873  0.030724019            1 
   83000     1.174024   -7.2114724    26.768923  0.026876429  0.030671836            1 
   84000    1.1606673   -7.1870212    27.076618  0.026861724  0.030625581            2 
   85000    1.1360311   -7.2025388    27.454211  0.026915893  0.030585324            3 
   86000    1.1078402   -7.2170996    27.662936   0.02680517  0.030537357            2 
   87000    1.1263034   -7.2550662    28.009527  0.026829049  0.030487476            1 
   88000    1.1358838   -7.1985978    28.423828  0.026916504  0.030442282            2 
   89000     1.146774   -7.1770941    28.815697   0.02698099   0.03040423            2 
   90000    1.1121721   -7.2705096     29.12112  0.026963999  0.030368384            2 
   91000     1.125371   -7.2381794    29.609121   0.02711458  0.030336085            1 
   92000    1.1077358   -7.2339529     30.03142  0.027202373  0.030312489            1 
   93000    1.1121612   -7.2287466    30.217011  0.027076174  0.030286545            2 
   94000    1.1241147   -7.2525853    30.539343  0.027073885  0.030255881            1 
   95000    1.1170807   -7.2535638     30.89155  0.027097851  0.030227201            2 
   96000    1.1188079     -7.24737    31.329021  0.027195331   0.03020257            1 
   97000    1.1007394    -7.254608    31.520123  0.027079144  0.030174054            1 
   98000    1.1186829   -7.2310541     31.85018  0.027083486   0.03013799            2 
   99000    1.1220131   -7.2977509    32.139882  0.027053773  0.030106547            2 
  100000    1.1028624   -7.2152976    32.446559  0.027038799  0.030064382            1 
  101000    1.1110781   -7.2813363    32.703814  0.026983345  0.030025663            2 
  102000    1.1015445   -7.2862082    33.015642  0.026973563  0.029984647            4 
  103000    1.1173113   -7.2885035    33.275353  0.026921806  0.029941758            1 
  104000    1.0762379   -7.2611825    33.618092  0.026937573  0.029897828            1 
  105000    1.1214571   -7.2499264    33.834066  0.026852433  0.029851352            2 
  106000    1.1056381   -7.2664328    34.056061  0.026773632  0.029804081            1 
  107000    1.1276924   -7.2753489    34.192486  0.026629662   0.02974769            2 
  108000    1.1079451   -7.3323999    34.238267  0.026418416  0.029683057            1 
  109000    1.0924662   -7.3201175    34.712998  0.026538989  0.029617844            1 
  110000    1.0787332   -7.3059663     34.90023  0.026439568  0.029549808            3 
  111000    1.0891289   -7.3226893     34.99828  0.026274985  0.029478761            2 
  112000    1.0857938   -7.2972312    35.348123  0.026300686   0.02940138            1 
  113000    1.0868118   -7.3502605    35.425496  0.026124997  0.029320258            1 
  114000    1.1023604   -7.3357896    35.631939  0.026046739  0.029239161            1 
  115000    1.1055964   -7.3058351    36.088627  0.026151179  0.029161486            2 
  116000    1.0981447   -7.3227429     36.40081  0.026150007  0.029086801            2 
  117000     1.077016   -7.3149375    36.705797   0.02614373  0.029016984            1 
  118000    1.1092388   -7.3137928    37.055049   0.02616882  0.028947712            3 
  119000    1.0600131    -7.324006    37.193757  0.026046048  0.028880674            1 
  120000    1.0628071   -7.3612766     37.33938  0.025930125  0.028806318            1 
  121000    1.0600663   -7.3469789    37.505437  0.025830191  0.028731498            2 
  122000    1.0763324   -7.3598131    37.909323  0.025894346  0.028658871            2 
  123000    1.0588379   -7.3801373    38.213925  0.025890193  0.028586959            4 
  124000    1.0886315   -7.3699543    38.464737  0.025849957  0.028518013            1 
  125000    1.0921912   -7.3425704    38.853849  0.025902566  0.028450466            2 
  126000    1.0667223   -7.3477449    38.825383  0.025678163  0.028382927            1 
  127000    1.0634612    -7.375847    39.165036  0.025698842  0.028311459            1 
  128000    1.0758312   -7.3564327    39.327028  0.025603534  0.028237932            1 
  129000    1.0627236   -7.3458239    39.483361  0.025506047  0.028162137            2 
  130000    1.0593751     -7.36126    39.932057  0.025597472  0.028089832            2 
  131000    1.0525682   -7.3581009    40.245734  0.025601612  0.028017681            4 
  132000    1.0704288   -7.3701636      40.5347  0.025590088  0.027946769            2 
  133000    1.0397984   -7.3641505     40.61518  0.025448108  0.027879222            2 
  134000    1.0475064   -7.4024857     41.06664  0.025538955   0.02781387            4 
  135000    1.0711791    -7.390049    41.299606  0.025493584  0.027751543            1 
  136000    1.0649737   -7.3862406    41.495499  0.025426164  0.027687137            1 
  137000    1.0460594   -7.4141927    41.617729   0.02531492  0.027621343            1 
  138000    1.0371718   -7.3709728     42.18972  0.025476884  0.027558471            1 
  139000    1.0314746   -7.4137955    42.465264  0.025458791  0.027503575            2 
  140000    1.0574746   -7.4141573    42.759955  0.025452354  0.027448045            2 
  141000    1.0255237   -7.3772509    43.173562   0.02551629  0.027396617            2 
  142000    1.0519239   -7.4009034    43.324863  0.025425389  0.027343131            3 
  143000    1.0653461   -7.4004885    43.597314   0.02540636  0.027289846            2 
  144000    1.0260223   -7.4336428    43.830178  0.025364686  0.027233941            1 
  145000    1.0529689   -7.4316107      43.8137  0.025180287  0.027179109            1 
  146000    1.0030939   -7.4290982    44.327013  0.025300806  0.027123761            3 
  147000    1.0323591   -7.4388664    44.282396  0.025103399  0.027067715            1 
  148000    1.0114118   -7.4757115    44.683663   0.02515972  0.027012412            2 
  149000    1.0435418   -7.4509377    44.865656  0.025092649  0.026957639            4 
  150000    1.0232737    -7.423427    45.226889  0.025126049  0.026901246            5 
  151000    1.0373117   -7.4387134    45.184089  0.024936031  0.026842681            1 
  152000    1.0287487   -7.4615895    45.386646  0.024883029  0.026784167            1 
  153000    1.0148433   -7.5028458    45.695338  0.024888528  0.026726378            2 
  154000   0.98669878   -7.4401218    45.943428  0.024861162  0.026667294            1 
  155000    1.0236063   -7.4789225    46.202481  0.024840044  0.026611038            2 
  156000     1.032591   -7.4730943    46.446024   0.02481091  0.026554156            2 
  157000    1.0139034    -7.491048    46.621048  0.024745779  0.026498184            1 
  158000    1.0110809   -7.4634608    46.859598  0.024714978   0.02644062            1 
  159000   0.99192186   -7.4653927     47.04743  0.024657982  0.026384295            1 
  160000   0.99747889   -7.5410143    47.340489  0.024656505  0.026326667            1 
  161000    1.0059238   -7.5404922    47.171158  0.024415713  0.026268222            2 
  162000    1.0199146   -7.5023257    47.589617  0.024480255  0.026208785            1 
  163000    1.0017659   -7.4827715    47.771206  0.024422907   0.02614892            2 
  164000    1.0141514   -7.4970459    47.898758  0.024338799  0.026088666            2 
  165000    1.0141674   -7.5504762    47.927098  0.024205605  0.026025975            1 
  166000    1.0109549   -7.5187044    48.194773  0.024194163  0.025960934            1 
  167000    1.0131271   -7.5357233    48.586476  0.024244748  0.025897963            2 
  168000    0.9944972   -7.5002228     48.75169  0.024182386  0.025840105            1 
  169000    1.0066125   -7.5481086    49.016376  0.024169811  0.025782027            2 
  170000   0.98599345   -7.5159209    49.173887  0.024104847  0.025723105            1 
  171000   0.99639354   -7.5449479     49.35147  0.024050424  0.025663862            1 
  172000   0.99695134   -7.5641601     49.33072  0.023900542  0.025601822            1 
  173000    0.9998686   -7.5081728    49.734657  0.023956964  0.025539021            2 
  174000   0.99575513   -7.5868365    49.829172  0.023864546  0.025478658            2 
  175000   0.97860236   -7.5865208    49.965895  0.023793283  0.025418104            2 
  176000    1.0143687   -7.5637535    49.990666  0.023669823  0.025353756            1 
  177000   0.98650613    -7.542714    50.207331  0.023638103  0.025288316            2 
  178000   0.97789467   -7.5481898    50.418667  0.023604245  0.025223546            1 
  179000   0.98318388   -7.5408165    50.532523  0.023525383  0.025158398            2 
  180000   0.96680889   -7.5838762    50.702537  0.023473397  0.025092742            3 
  181000   0.96435602   -7.5583158    50.713005  0.023348529  0.025026926            1 
  182000   0.99296141   -7.5883361    50.872587  0.023293309  0.024960098            2 
  183000   0.97680243   -7.5552465    51.088172  0.023264195  0.024892891            3 
  184000   0.97286803   -7.5745222    51.182317  0.023180397  0.024823356            4 
  185000   0.96980462   -7.5669335    51.333586  0.023123237  0.024754737            2 
  186000   0.97526141   -7.6131544    51.343353  0.023003294   0.02468626            1 
  187000   0.98341372   -7.5862017    51.628203   0.02300722  0.024617691            4 
  188000   0.96906653   -7.5641296    51.755136  0.022941106  0.024550149            2 
  189000   0.95979542   -7.5548634    52.057666  0.022953115  0.024483861            2 
  190000   0.96475973   -7.6260239    52.084212  0.022843953  0.024417236            1 
  191000   0.96575486    -7.566899    52.558165  0.022931137    0.0243512            2 
  192000   0.95859046    -7.595474    52.489998  0.022782117  0.024286481            2 
  193000    0.9418314   -7.6279338    52.613094  0.022717225  0.024219291            2 
  194000   0.97221065   -7.6009242    52.970478  0.022753642  0.024154057            1 
  195000   0.95068432    -7.601794    53.105085  0.022694481  0.024091193            3 
  196000   0.93856419   -7.5886394    53.472257  0.022734803  0.024028132            2 
  197000   0.92495809   -7.5956689    53.344908  0.022565528  0.023964714            3 
  198000   0.92867234   -7.6260108    53.659231  0.022583851   0.02390177            1 
  199000   0.96938657   -7.6337466    53.837643  0.022545076  0.023838885            3 
  200000   0.94310785   -7.6542367     54.04371  0.022518212  0.023776162            1 
  201000   0.93038691   -7.6423097    54.069313  0.022416797  0.023713406            2 
  202000   0.94492234   -7.6726192    54.128991  0.022330442  0.023649304            3 
  203000   0.91563123   -7.6509784    54.213504  0.022255133  0.023586097            2 
  204000   0.95799406   -7.6315592    54.318089  0.022188762  0.023522206            1 
  205000   0.94807081   -7.6814194    54.444645  0.022131969  0.023457183            2 
  206000    0.9416473   -7.6663073    54.572519  0.022076262  0.023392378            1 
  207000   0.93434848   -7.6983182    54.645348  0.021998932   0.02332717            3 
  208000   0.93254056     -7.71154    54.812515  0.021960142  0.023262288            1 
  209000   0.91251497   -7.6727409     54.87133  0.021878521  0.023197314            2 
  210000   0.92194996   -7.6663141    55.175173   0.02189491  0.023131639            1 
  211000   0.93229493   -7.6758692    55.368958  0.021867677   0.02306645            3 
  212000    0.9305051   -7.6920764    55.342121  0.021753978  0.023002642            1 
  213000   0.91557628   -7.6958562    55.669665  0.021779994  0.022939447            3 
  214000    0.9246992   -7.7034174    55.698814  0.021689569  0.022875724            1 
  215000    0.9261524   -7.7012699    55.813958  0.021633317  0.022812783            2 
  216000   0.91460456   -7.7121132    55.933652  0.021579341  0.022750532            2 
  217000   0.90459102   -7.7301248    55.861549  0.021452208  0.022687267            1 
  218000    0.9071848   -7.6885344    56.146618  0.021462775  0.022623164            1 
  219000   0.92059993   -7.7220409    56.212841   0.02138997  0.022559167            2 
  220000   0.91842455   -7.6963264     56.45981  0.021386292  0.022496141            3 
  221000   0.93103547   -7.7083149    56.624428  0.021351594  0.022433525            2 
  222000   0.91652581   -7.7368922    56.667431  0.021271558  0.022371223            3 
  223000   0.92207465   -7.7598415    56.734747  0.021201326  0.022308242            1 
  224000    0.9199524   -7.7072328    56.898207  0.021167488  0.022244841            1 
  225000   0.89557789   -7.7405648    56.777935  0.021028865  0.022181556            1 
  226000   0.91512075   -7.7749607    56.981957  0.021011046  0.022117666            2 
  227000   0.91090404   -7.7516621    57.237451   0.02101228  0.022053927            2 
  228000   0.89943342   -7.7462313    57.261183  0.020928795  0.021990674            5 
  229000   0.89721853   -7.7761463    57.424796  0.020896942  0.021927588            2 
  230000   0.89323277   -7.7805182    57.617324  0.020875842  0.021864832            1 
  231000   0.89172626   -7.7856574    57.449586  0.020724959  0.021801989            1 
  232000   0.89319527   -7.7553275    57.630028  0.020700441  0.021738031            1 
  233000   0.89472745   -7.7840728    57.632556  0.020612502  0.021673917            1 
  234000    0.8930272   -7.7434797    57.716455  0.020554293  0.021610028            2 
  235000   0.90022543   -7.7784096    57.877087  0.020523789  0.021545434            1 
  236000     0.894536   -7.7784687    57.610179  0.020342577   0.02147956            3 
  237000   0.89617038   -7.8012997    57.701003  0.020288679  0.021412692            2 
  238000   0.88573659   -7.7760593    57.650102   0.02018561  0.021344979            3 
  239000   0.88145912   -7.8328272    57.714583  0.020123634   0.02127683            2 
  240000   0.88575726   -7.8062761    57.899742  0.020104077  0.021208738            2 
  241000   0.87332393   -7.8196619    57.809624  0.019989497  0.021140371            2 
  242000   0.88467366   -7.8039461    58.024638  0.019980936  0.021072636            2 
  243000   0.86905997   -7.8282269    58.162509  0.019945991  0.021005418            1 
  244000   0.87304249   -7.8164083    58.267897  0.019900238   0.02093876            3 
  245000   0.89110982   -7.8076635    58.280971  0.019823459  0.020872274            2 
  246000   0.88214535   -7.8420426    58.474783  0.019808531  0.020805645            3 
  247000   0.88999299   -7.8139599    58.742272   0.01981858  0.020740502            1 
  248000   0.88042757   -7.8417826    58.713023  0.019728838  0.020676068            3 
  249000   0.87836616   -7.8369385    58.770597  0.019668875  0.020611511            1 
  250000   0.85380597   -7.8293735    59.055997  0.019685332  0.020547479            2 
  251000   0.87639622   -7.8399823    58.893934  0.019553099  0.020484247            2 
  252000   0.87896604   -7.8123918     59.34545  0.019624818  0.020422192            3 
  253000   0.86051856   -7.8163979    59.301029  0.019532618  0.020360316            2 
  254000   0.85580565   -7.8648626     59.49915  0.019520718  0.020298102            3 
  255000   0.87684112   -7.8524586    59.506706  0.019446636   0.02023628            1 
  256000   0.84367589   -7.8457706    59.534386  0.019379683  0.020174324            2 
  257000    0.8537121    -7.859683    59.720371  0.019364582  0.020112811            2 
  258000   0.84960332   -7.8681332    59.716463  0.019288263  0.020051689            1 
  259000   0.86961166   -7.9208753    59.692302  0.019206017  0.019990233            3 
  260000   0.86090844   -7.8618772    60.042055  0.019244248   0.01992905            2 
  261000   0.86853651   -7.8749833    60.014115  0.019161595  0.019867991            4 
  262000   0.84485308   -7.8768678    60.094306  0.019113965  0.019807694            6 
  263000   0.84004398   -7.9093741    60.028096  0.019020309  0.019747235            2 
  264000   0.86015481   -7.8977673     60.24402   0.01901642  0.019686747            1 
  265000   0.85436313   -7.9211557    60.160836  0.018918502  0.019626362            1 
  266000   0.84863762   -7.9193455    60.153555  0.018845099  0.019565535            1 
  267000   0.83537054   -7.9439471    60.567532  0.018903724  0.019505604            4 
  268000   0.82264305   -7.8803594    60.618306  0.018848976   0.01944578            1 
  269000   0.83022766   -7.9023488    60.731709  0.018814036  0.019387028            1 
  270000   0.83575622   -7.8943392    60.671003  0.018725618  0.019328289            2 
  271000    0.8622227   -7.9096417    60.596167  0.018633508  0.019269231            1 
  272000   0.83249109   -7.9258615    60.753658  0.018613253  0.019209601            2 
  273000   0.84881115   -7.9554796    60.731289  0.018538245  0.019149438            1 
  274000   0.82409595   -7.9212278    60.679085  0.018454709  0.019088849            1 
  275000   0.83890353   -7.9868217    60.697365  0.018393141  0.019028475            1 
  276000   0.84659935   -7.9948098    60.643367  0.018310195  0.018967852            2 
  277000   0.80448105   -7.9553467    60.763923  0.018280362  0.018907249            2 
  278000   0.82307913   -7.9566402    60.951953  0.018270969  0.018847354            2 
  279000   0.84114507   -7.9434964    61.060545  0.018237917  0.018787981            4 
  280000   0.81971692   -7.9686383    60.906742  0.018127007   0.01872837            2 
  281000   0.82770037   -7.9669105     61.00102  0.018090457   0.01866825            3 
  282000   0.81779934   -7.9573758    61.123935  0.018062629  0.018608362            1 
  283000   0.82605691   -7.9879999     61.18617  0.018017129  0.018548693            2 
  284000   0.82177388   -8.0147669    61.158249  0.017945495  0.018489495            1 
  285000   0.82221534   -8.0201488    61.238361  0.017905953  0.018430329            2 
  286000   0.81818745   -7.9744262     61.09808  0.017802471  0.018370933            2 
  287000   0.82722364   -7.9924916    61.225563  0.017777457  0.018311559            1 
  288000   0.79779636   -7.9966461    61.222257  0.017714774   0.01825217            2 
  289000   0.79986636   -8.0281822    61.139001   0.01762947  0.018192845            2 
  290000   0.81766932   -8.0115907    61.343696  0.017627499  0.018133617            3 
  291000   0.81702505   -8.0191912    61.518962  0.017617114  0.018074562            3 
  292000   0.77848251   -8.0086428    61.362621  0.017512164  0.018016102            2 
  293000    0.7905321   -8.0398628    61.526708  0.017499064   0.01795742            4 
  294000   0.79124409   -8.0386907    61.564614  0.017450287  0.017899405            1 
  295000   0.78757773   -8.0460445    61.545247  0.017385663    0.0178412            2 
  296000   0.80097884   -8.0269182    61.701121  0.017370811  0.017783098            1 
  297000    0.8066669   -8.0185491    61.796187  0.017338998   0.01772544            3 
  298000   0.79250186   -8.0354205    61.851873  0.017296385  0.017667982            3 
  299000   0.77730997   -8.0590178    61.690485  0.017193558   0.01761037            6 
  300000   0.79410135   -8.0560772    61.866502  0.017185139  0.017552971            1 
  301000   0.78108134   -8.0555588     61.91045  0.017140213  0.017496356            2 
  302000   0.78976239   -8.0761992    61.797174    0.0170522  0.017439643            2 
  303000   0.76438957   -8.0701653    61.962924  0.017041508  0.017383093            3 
  304000   0.79806821   -8.0559444    61.887362  0.016964737  0.017326208            7 
  305000   0.78274519   -8.1036022    62.027787  0.016947483  0.017269663            2 
  306000   0.77347093   -8.0590089    61.940781  0.016868404  0.017213222            2 
  307000   0.77583033   -8.0768208    62.198789  0.016883493  0.017157147            2 
  308000   0.76795806   -8.0717669    62.054256  0.016789571  0.017101158            2 
  309000   0.77615434   -8.0607386    62.015783  0.016724861  0.017045018            2 
  310000   0.78067315   -8.0659841    62.275662  0.016740769  0.016989187            2 
  311000   0.77362247   -8.0950608    62.080273  0.016634585  0.016934113            3 
  312000   0.76609703   -8.0904743    62.219068  0.016618341  0.016878794            1 
  313000   0.77614745   -8.0945058    62.334377  0.016595947  0.016823488            3 
  314000     0.763171     -8.07973    62.310796  0.016536835  0.016768951            2 
  315000   0.75089732   -8.1096848    62.439494  0.016518385  0.016714772            2 
  316000   0.76153026   -8.0983254     62.48623  0.016478436  0.016660995            1 
  317000   0.77201857   -8.1043007    62.624787  0.016462878  0.016607563            3 
  318000     0.752533   -8.1393583    62.743213  0.016442142  0.016554051            2 
  319000   0.75361124   -8.1092578    62.565192  0.016344094  0.016500966            2 
  320000   0.75674938   -8.1085249    62.714665  0.016331944  0.016448154            1 
  321000   0.75499341    -8.126431      62.6831  0.016272871  0.016395497            2 
  322000   0.74484318   -8.1145824    62.726784   0.01623364  0.016342871            2 
  323000   0.73814963   -8.1024565    62.725109  0.016182949  0.016290298            4 
  324000   0.73615906   -8.1156692    62.694759  0.016125195    0.0162375            3 
  325000   0.74153528   -8.1616813     62.64371   0.01606249  0.016184517            2 
  326000   0.74687403   -8.1539661     62.74326  0.016038666  0.016131973            2 
  327000   0.73662793   -8.1429069    62.857064   0.01601862  0.016079377            1 
  328000   0.74327017   -8.1316341    62.869637  0.015972977  0.016027374            2 
  329000   0.74252171   -8.1560629    62.925939  0.015938688  0.015975668            5 
  330000   0.74068336   -8.1438405    62.987453  0.015905922   0.01592434            2 
  331000   0.75082952   -8.1649321    62.803685  0.015811602  0.015872922            1 
  332000   0.72802974   -8.1653017    63.002125  0.015813786  0.015821778            5 
  333000   0.73026123    -8.171341    62.985369  0.015762104  0.015770616            2 
  334000   0.74602863   -8.1702088     63.07457  0.015737168   0.01571935            3 
  335000   0.73397322   -8.1751224    63.076399  0.015690646   0.01566835            2 
  336000   0.72759868   -8.1929518    62.935123   0.01560891  0.015617145            2 
  337000   0.73453109   -8.1974903    63.022597  0.015584223  0.015566027            2 
  338000   0.73151011   -8.1847716    63.111111  0.015559939  0.015515146            2 
  339000   0.73664545   -8.2065701    63.137125  0.015520434  0.015464578            2 
  340000   0.72668609   -8.1959688     63.09217  0.015463767  0.015414111            2 
  341000   0.72179625   -8.2201393     63.08775  0.015417339  0.015363433            2 
  342000   0.73002122   -8.2380017    63.001162   0.01535116  0.015312849            1 
  343000   0.74737738   -8.2408217    63.043907   0.01531679  0.015262244            2 
  344000   0.72503788   -8.2425171    63.061915  0.015276627  0.015211848            3 
  345000   0.71253716   -8.2553195    63.175043  0.015259672  0.015161791            2 
  346000   0.73319135    -8.255826     63.18528  0.015218035  0.015112066            6 
  347000   0.71148974   -8.2587781    63.057984  0.015143608  0.015061997            2 
  348000   0.70458632   -8.2601268     63.11543  0.015113848  0.015012115            1 
  349000   0.72022632   -8.2623066    63.111092  0.015069506  0.014962312            2 
  350000    0.6876715   -8.2675564    62.968142  0.014992415  0.014912948            1 
  351000   0.71003854   -8.2653463    63.233931  0.015012804  0.014863433            4 
  352000   0.71886014   -8.2517522     63.16993  0.014955002  0.014814321            1 
  353000   0.70507478   -8.2671637     62.98072   0.01486797  0.014765284            4 
  354000   0.69052414   -8.2793226     63.19494  0.014876398  0.014716451            4 
  355000   0.71227706   -8.2415172    63.172742  0.014829282  0.014667462           14 
  356000   0.70714058   -8.2807542    63.199834  0.014793969  0.014618498            8 
  357000    0.6901264   -8.2761253     63.14635  0.014740044  0.014569708            4 
  358000   0.68733247   -8.2795968    63.110566  0.014690541  0.014521039            3 
  359000   0.69064182    -8.294708    63.159707  0.014661028  0.014472319            1 
  360000   0.69121692   -8.2743142    63.134357  0.014614434   0.01442399            5 
  361000   0.70008687   -8.3131323    63.080472  0.014561512  0.014375671            2 
  362000   0.68656051   -8.3015723    63.117009  0.014529698  0.014327474            1 
  363000   0.67966795   -8.3115784    63.153134  0.014497965   0.01427963            1 
  364000   0.67181799   -8.3318092    62.984739  0.014419583  0.014231744            6 
  365000   0.68914364   -8.2915377    63.141329  0.014415829   0.01418402            3 
  366000   0.67426614    -8.328359    63.100524   0.01436715   0.01413648            2 
  367000   0.68546104   -8.3498256    63.156101  0.014340622  0.014088891            4 
  368000   0.68559126   -8.3190196     63.18026  0.014307124  0.014041628            2 
  369000    0.6747973   -8.3302421    63.202789  0.014273439  0.013994554            1 
  370000   0.68190842   -8.3185668    63.219288  0.014238578  0.013947445            1 
  371000   0.66790173   -8.3501952    63.005654  0.014152213  0.013900436            1 
  372000   0.66631377   -8.3570947    62.951575  0.014102055  0.013853383            2 
  373000   0.67502493   -8.3586309    63.084952  0.014094046  0.013806416            2 
  374000   0.66514556   -8.3446229     63.09476  0.014058547  0.013759812            2 
  375000   0.68031683   -8.3712691    63.108335  0.014024074  0.013713287            3 
  376000   0.67120127   -8.3469417    63.120626    0.0139895  0.013666994            2 
  377000   0.65573207   -8.3565327    63.065738   0.01394026  0.013620913            3 
  378000   0.66607494   -8.3675775    63.090889  0.013908926  0.013574774            2 
  379000   0.65634839   -8.3846856    63.098486  0.013873898  0.013528909            3 
  380000    0.6673853   -8.3749336    63.179013  0.013855047  0.013483144            6 
  381000   0.65581373   -8.3822441    63.192602  0.013821654  0.013437737            3 
  382000   0.66312496   -8.3717953    63.194264  0.013785834  0.013392433            2 
  383000    0.6583462   -8.3915681    63.228313  0.013757248  0.013347339            3 
  384000    0.6448383   -8.3775398    63.081813   0.01368963  0.013302398            1 
  385000   0.63816908   -8.4174411    62.968398  0.013629523  0.013257406            2 
  386000     0.643072   -8.3934929    63.115945  0.013626068  0.013212577            2 
  387000    0.6374883   -8.4171086    63.209081  0.013610913  0.013167905            2 
  388000   0.64301975   -8.4088174    63.110978  0.013554763  0.013123489            4 
  389000   0.64863443   -8.4254117    63.197358  0.013538423  0.013079168            2 
  390000   0.63738847   -8.4070451    63.209377  0.013506277  0.013034835            2 
  391000   0.64615572   -8.4200851    63.119085   0.01345249  0.012990727            3 
  392000   0.63968833   -8.4083036    63.117087  0.013417748  0.012946863            4 
  393000   0.64121577   -8.4280219    63.021581  0.013363355  0.012903123            4 
  394000   0.62294608   -8.4243019    63.128709  0.013352096  0.012859567            2 
  395000   0.64173475   -8.4388025    63.179644  0.013329039  0.012816136            1 
  396000   0.63678316   -8.4425553    63.159929  0.013291231  0.012772743            1 
  397000   0.64797529   -8.4313327    63.096539  0.013244446  0.012729539            2 
  398000   0.61407839   -8.4464148    63.028462  0.013196914  0.012686492            2 
  399000   0.62943407   -8.4636411    62.975595  0.013152798  0.012643552            2 
  400000   0.63366721   -8.4483303    62.975988  0.013119998  0.012600688            1 
  401000   0.62729203   -8.4641605     63.07423  0.013107695  0.012558011            2 
  402000   0.62192348   -8.4487386    63.027886  0.013065482  0.012515566            2 
  403000   0.62469081   -8.4487576    63.076271  0.013043067  0.012473025            2 
  404000   0.61412194    -8.459352    63.066737  0.013008815  0.012430749            1 
  405000   0.62589052   -8.4705457     63.05703  0.012974698  0.012388632            2 
  406000   0.62994822   -8.4618094    63.008174  0.012932712  0.012346602            3 
  407000   0.60740569   -8.4786569    63.115034  0.012922816  0.012304801            1 
  408000   0.61480133   -8.4827052    63.108978  0.012889906  0.012263062            1 
  409000   0.60905257   -8.4515755    63.036814  0.012843687  0.012221616            1 
  410000    0.6156781   -8.5013595    62.897514  0.012784048  0.012180366            2 
  411000   0.61650439   -8.4941582    63.059511  0.012785789  0.012139261            2 
  412000   0.60722808   -8.4754629    63.168015  0.012776702  0.012098317            1 
  413000    0.6170279   -8.4802528     63.02481  0.012716871   0.01205753            2 
  414000   0.61932008   -8.4774605    63.051062  0.012691438   0.01201695            2 
  415000   0.60151268   -8.4916215    62.983254   0.01264724  0.011976496            2 
  416000   0.59766791   -8.5034829    63.147157  0.012649671  0.011936008            1 
  417000   0.61376045   -8.5040924    62.929746  0.012575888   0.01189567            1 
  418000   0.60181853    -8.487038    62.938981  0.012547644  0.011855454            2 
  419000   0.58474299   -8.4832308    62.986601  0.012527168  0.011815429            1 
  420000   0.58690476   -8.5217792    62.971382  0.012494322  0.011775454            2 
  421000   0.59663287   -8.4984761    62.994563  0.012469233   0.01173563            2 
  422000     0.601483   -8.5253222    62.927513  0.012426444  0.011696081            3 
  423000    0.5847567    -8.512647    62.910738  0.012393762  0.011656627            2 
  424000    0.5962666   -8.5091636    62.949899  0.012372229  0.011617269            2 
  425000   0.58230274   -8.5271227    62.950534  0.012343242  0.011578107            3 
  426000   0.59169874   -8.5248163    62.907969  0.012305941  0.011539155            1 
  427000   0.58790696   -8.5135679    62.902415  0.012276037  0.011500339            1 
  428000   0.58313763    -8.530575     62.96719  0.012259967  0.011461709            2 
  429000   0.59298112   -8.5375371    62.847544  0.012208148   0.01142309            1 
  430000   0.58666087   -8.5522241    62.965874  0.012202689  0.011384605            3 
  431000    0.5762429   -8.5444992    62.844634  0.012150935  0.011346207            1 
  432000   0.58775308    -8.558484    62.952603  0.012143635  0.011307928            1 
  433000   0.58826083     -8.54609    63.048244  0.012133996  0.011269857            2 
  434000   0.57304293   -8.5444111     62.91006  0.012079505    0.0112319            2 
  435000   0.58190383   -8.5533403    62.928806  0.012055327  0.011194103            2 
  436000    0.5682332   -8.5752739    62.823292   0.01200751  0.011156405            4 
  437000   0.56339833   -8.5724668    62.819323  0.011979276  0.011118785            2 
  438000   0.57011707   -8.5816545    62.804344  0.011949076  0.011081411            1 
  439000   0.56551311   -8.5659718    62.805123  0.011922005  0.011044001            1 
  440000   0.56379235   -8.5741124    62.820603  0.011897842  0.011006832            1 
  441000   0.56608954   -8.5542526    62.869522  0.011880106   0.01096979            2 
  442000   0.55694221   -8.5845613    62.867096  0.011852771   0.01093293            2 
  443000   0.56084995   -8.5997696    62.824357  0.011817975  0.010896146            1 
  444000   0.55213164   -8.5677813    62.677073  0.011763715  0.010859572            2 
  445000   0.57284509   -8.6032742    62.793648   0.01175911  0.010823123            1 
  446000   0.55731947    -8.589329    62.849618  0.011743202  0.010786823            3 
  447000    0.5519267   -8.5986833    62.695943  0.011688282  0.010750679            3 
  448000   0.55933685   -8.5829284    62.630749  0.011650065  0.010714543            3 
  449000    0.5574878   -8.5906301     62.81256  0.011657862  0.010678618            2 
  450000   0.55155806   -8.5951377    62.655318  0.011602837  0.010642827            1 
  451000   0.53739271   -8.5924793     62.69203  0.011583893  0.010607147            1 
  452000   0.53962686   -8.6122517    62.669528  0.011554116  0.010571615            2 
  453000   0.54368797   -8.6193653    62.577944  0.011511763   0.01053616            1 
  454000   0.54718077   -8.6287443    62.693825  0.011507677  0.010500906            1 
  455000   0.53629498   -8.6248475     62.74052  0.011490938  0.010465735            4 
  456000   0.53509396   -8.6206414    62.691579  0.011456794  0.010430688            2 
  457000   0.55004599   -8.6096748    62.760513  0.011444295  0.010395807            2 
  458000   0.52602408    -8.614888    62.627248   0.01139506  0.010361044            3 
  459000   0.53058288   -8.6358249    62.668921    0.0113778  0.010326474            2 
  460000   0.52983828   -8.6107529    62.643361  0.011348435  0.010291958            2 
  461000   0.53432263   -8.6170398    62.574525  0.011311375   0.01025759            2 
  462000   0.54160519    -8.618615    62.658802  0.011302093  0.010223395            2 
  463000   0.52765851   -8.6362461      62.6768  0.011280921  0.010189317            1 
  464000   0.52147065   -8.6347882    62.553466  0.011234459  0.010155346            1 
  465000   0.52789008   -8.6373344    62.539983  0.011207882  0.010121509            6 
  466000   0.51892107   -8.6499003    62.577107   0.01119047  0.010087827            2 
  467000   0.51695567   -8.6431578    62.596896  0.011170039  0.010054338            2 
  468000   0.53220074   -8.6376785    62.598814  0.011146512   0.01002097            2 
  469000   0.51752405   -8.6558339    62.598478  0.011122686 0.0099877302            2 
  470000   0.52132991   -8.6508944    62.596238  0.011098624 0.0099546189            3 
  471000    0.5086054   -8.6427073    62.569735  0.011070371 0.0099216457            2 
  472000   0.52096589   -8.6581013    62.623412  0.011056393 0.0098888309            3 
  473000   0.50388555   -8.6677698    62.611859  0.011030983 0.0098560518            1 
  474000   0.50782695   -8.6632246    62.488639  0.010986048 0.0098233853            3 
  475000    0.5020299   -8.6461246    62.411731  0.010949427 0.0097908693            3 
  476000    0.5089578   -8.6739927    62.659664  0.010969829 0.0097584877            2 
  477000   0.50148314   -8.6739671    62.405118  0.010902362 0.0097261543            3 
  478000   0.50725552   -8.6674055    62.540303  0.010903121 0.0096940718            2 
  479000   0.49516131   -8.6980043    62.373447   0.01085133 0.0096620719            3 
  480000   0.50238032   -8.6865386    62.516263  0.010853518  0.009630164            2 
  481000   0.50611902   -8.6856596    62.457269  0.010820733 0.0095983957            1 
  482000   0.50164543   -8.6811524    62.448397  0.010796749  0.009566694            1 
  483000    0.4988587   -8.6978608    62.466931  0.010777593 0.0095352255            3 
  484000   0.48768624   -8.6846901    62.370093  0.010738652   0.00950384            2 
  485000   0.49050899   -8.7026576    62.406822  0.010722822 0.0094725844            2 
  486000    0.5032633    -8.708838     62.52175  0.010720465 0.0094414577            1 
  487000   0.48468834   -8.6878085     62.40613  0.010678667 0.0094104814            2 
  488000   0.48697027   -8.7166158    62.467399  0.010667247 0.0093795514            4 
  489000    0.4828311   -8.7087237      62.4413  0.010640985 0.0093487334            2 
  490000    0.4758973   -8.7135927    62.532543  0.010634786 0.0093181015            3 
  491000   0.47451467   -8.6980448    62.407593   0.01059192  0.009287551            2 
  492000   0.48130235   -8.7142095    62.362269  0.010562715  0.009257204            3 
  493000   0.48188203   -8.7085879    62.346777  0.010538671 0.0092269252            4 
  494000    0.4743516   -8.7287345    62.336886  0.010515669 0.0091967652            1 
  495000   0.48796897    -8.703675    62.410221  0.010506771 0.0091667755            1 
  496000   0.46721082   -8.7078756     62.46625  0.010495002 0.0091368891            2 
  497000    0.4758454    -8.726609    62.356322  0.010455453 0.0091071385            2 
  498000   0.46805974   -8.7190056     62.31894  0.010428203 0.0090774976            2 
  499000   0.48197149   -8.7397817    62.333009  0.010409654 0.0090480059            2 
  500000   0.46677161   -8.7358497    62.370492  0.010395082 0.0090186098            3 
  501000   0.46486511   -8.7463545     62.40373  0.010379862 0.0089894181            2 
  502000   0.46387142    -8.730222    62.330671  0.010347057 0.0089602819            4 
  503000   0.46013747   -8.7391099    62.361158  0.010331537 0.0089312695            2 
  504000   0.46208892   -8.7490708    62.299165  0.010300788 0.0089023474            1 
  505000   0.46496857   -8.7333515    62.237432  0.010270203 0.0088735425            1 
  506000   0.46517367   -8.7423578    62.255698  0.010252915 0.0088448926            1 
  507000   0.45882628   -8.7478109    62.302139  0.010240325 0.0088163207            1 
  508000   0.45181602   -8.7573634    62.310302  0.010221506 0.0087878925            3 
  509000   0.45960602     -8.73316    62.278369  0.010196197 0.0087595644            3 
  510000   0.45357638   -8.7697164    62.310322  0.010181425 0.0087313579            2 
  511000   0.44944489   -8.7506736    62.256656  0.010152749 0.0087032757            4 
  512000   0.44149422      -8.7523    62.306263  0.010140993  0.008675295            3 
Loop time of 1199.26 on 48 procs for 500000 steps with 4000 atoms

Performance: 72044.513 tau/day, 416.924 timesteps/s
99.4% CPU use with 48 MPI tasks x no OpenMP threads

MPI task timing breakdown:
Section |  min time  |  avg time  |  max time  |%varavg| %total
---------------------------------------------------------------
Pair    | 75.894     | 81.261     | 85.909     |  27.1 |  6.78
Neigh   | 7.9453     | 8.2764     | 8.687      |   6.3 |  0.69
Comm    | 76.789     | 81.594     | 87.481     |  29.9 |  6.80
Output  | 0.85757    | 0.85809    | 0.8661     |   0.1 |  0.07
Modify  | 1014.8     | 1016.7     | 1018.7     |   2.7 | 84.78
Other   |            | 10.55      |            |       |  0.88

Nlocal:        83.3333 ave          91 max          75 min
Histogram: 1 1 1 9 10 10 9 4 2 1
Nghost:        2097.52 ave        2111 max        2083 min
Histogram: 3 2 5 4 6 10 7 6 2 3
Neighs:        13710.1 ave       15706 max       12147 min
Histogram: 2 1 6 12 11 7 7 0 1 1
FullNghs:      27419.6 ave       29924 max       24761 min
Histogram: 1 1 3 8 12 7 6 7 1 2

Total # of neighbors = 1316140
Ave neighs/atom = 329.03500
Neighbor list builds = 26750
Dangerous builds = 0

#clear
#
#next RN
#
#jump SELF
Total wall time: 0:20:02
