
units lj                  # Use reduced LJ style units
atom_style atomic         # Uncharged point particles
atom_modify map hash      # Needed for indexing of clusters etc
                          # Used to be able to find where atoms are in relation to each other.

lattice fcc 1.0 spacing 1 1 1
Lattice spacing in x,y,z = 1.5874011 1.5874011 1.5874011
region box block 0 10 0 10 0 10 units lattice
create_box 2 box
Created orthogonal box = (0.0000000 0.0000000 0.0000000) to (15.874011 15.874011 15.874011)
  3 by 4 by 4 MPI processor grid
create_atoms 1 box
Created 4000 atoms
  using lattice units in orthogonal box = (0.0000000 0.0000000 0.0000000) to (15.874011 15.874011 15.874011)
  create_atoms CPU = 0.002 seconds
set type 1 type/fraction 2 0.48 78393
Setting atom values ...
  1918 settings made for type/fraction
mass 1 1.0
mass 2 1.0
pair_style lj/cut  3.5
pair_modify tail  yes
pair_coeff 1  1  1.0  1.0   # Intearaction between 1 and 1 set with epsilon = 1 and sigma = 1
pair_coeff 1  2  1.5  0.8
pair_coeff 2  2  0.5  0.88

write_data data.0
System init for write_data ...
Neighbor list info ...
  update every 1 steps, delay 10 steps, check yes
  max neighbors/atom: 2000, page size: 100000
  master list distance cutoff = 3.8
  ghost atom cutoff = 3.8
  binsize = 1.9, bins = 9 9 9
  1 neighbor lists, perpetual/occasional/extra = 1 0 0
  (1) pair lj/cut, perpetual
      attributes: half, newton on
      pair build: half/bin/atomonly/newton
      stencil: half/bin/3d
      bin: standard
WARNING: Not all mixed pair coeffs generated from mixing. Use write_data with 'pair ij' option to store all pair coeffs. (../write_data.cpp:312)


#############################
#   M E L T   S Y S T E M   #
#############################

velocity all create 2.4 2750902 mom yes dist gaussian # Assign velocities
                                                    # Temperature 2.4, random number seed, zero linear momentum
                                                                                # Gaussian distribution

timestep 0.002   # simulation timestep
thermo 1000       # output thermodynamic data every 1000 steps bf 100

# Define a fix  in this case with index 1 applied to all
# particles in the simulation. This fix is for simulations
# in the anisotropic NPT ensemble. Note that we use the MTK
# correction.
fix 1 all npt temp 2.4 2.4 0.1 iso 5.68 5.68 0.5 mtk yes tchain 5 pchain 5 # Use NPT ensemble
                                                                         # Set temperature and pressure and damping
                                                                         # Numbers of thermostats in chain and in barostat
run 10000          # run for 10000 steps
Per MPI rank memory allocation (min/avg/max) = 3.642 | 3.644 | 3.648 Mbytes
Step Temp E_pair E_mol TotEng Press Volume 
       0          2.4   -5.4168687            0   -1.8177687   -4.2006027         4000 
    1000    2.3635494   -4.9146473            0   -1.3702096    5.6180857    3741.1231 
    2000    2.4009983   -4.9795573            0   -1.3789603    5.4181555    3726.8182 
    3000    2.4033544   -4.8819357            0   -1.2778054    5.6304708    3767.0467 
    4000    2.4317606   -4.9806463            0   -1.3339174    5.5914103    3717.9777 
    5000    2.4013138   -4.9082018            0   -1.3071315    5.8112991    3735.0007 
    6000    2.4591124   -4.9112046            0   -1.2234581      5.84128     3736.719 
    7000    2.3698497   -4.9874122            0   -1.4335263    5.7146758    3708.5279 
    8000    2.3560418   -4.9529786            0   -1.4197994    5.4746675     3745.258 
    9000    2.3511546   -4.9166298            0   -1.3907795    5.8349356    3727.4051 
   10000    2.4061958   -4.9118405            0   -1.3034492    5.5959648    3753.1674 
Loop time of 2.65205 on 48 procs for 10000 steps with 4000 atoms

Performance: 651570.834 tau/day, 3770.665 timesteps/s
99.6% CPU use with 48 MPI tasks x no OpenMP threads

MPI task timing breakdown:
Section |  min time  |  avg time  |  max time  |%varavg| %total
---------------------------------------------------------------
Pair    | 1.142      | 1.2451     | 1.3615     |   3.6 | 46.95
Neigh   | 0.2143     | 0.22442    | 0.24637    |   1.1 |  8.46
Comm    | 0.77653    | 0.89732    | 1.0053     |   5.0 | 33.83
Output  | 0.00026418 | 0.0002709  | 0.00033639 |   0.0 |  0.01
Modify  | 0.22087    | 0.26933    | 0.31657    |   5.0 | 10.16
Other   |            | 0.01558    |            |       |  0.59

Nlocal:        83.3333 ave          95 max          73 min
Histogram: 2 2 7 8 9 9 2 3 4 2
Nghost:        1706.46 ave        1749 max        1667 min
Histogram: 2 1 4 11 9 8 6 5 0 2
Neighs:        10171.6 ave       12138 max        8837 min
Histogram: 2 7 8 9 10 4 1 1 5 1

Total # of neighbors = 488238
Ave neighs/atom = 122.05950
Neighbor list builds = 911
Dangerous builds = 237

# Equilibrate just above the melting temperature to avoid step fn in T

fix 1 all npt temp 1.25 1.25 0.1 iso 5.68 5.68 0.5 mtk yes tchain 5 pchain 5
run 2000
Per MPI rank memory allocation (min/avg/max) = 3.644 | 3.646 | 3.649 Mbytes
Step Temp E_pair E_mol TotEng Press Volume 
   10000    2.4061958   -4.9118405            0   -1.3034492    5.5959648    3753.1674 
   11000     1.259112   -7.0649284            0   -5.1767326    5.6942336    2913.8431 
   12000    1.2352629   -7.1312041            0    -5.278773    5.8262991    2890.8607 
Loop time of 0.647422 on 48 procs for 2000 steps with 4000 atoms

Performance: 533809.550 tau/day, 3089.176 timesteps/s
99.6% CPU use with 48 MPI tasks x no OpenMP threads

MPI task timing breakdown:
Section |  min time  |  avg time  |  max time  |%varavg| %total
---------------------------------------------------------------
Pair    | 0.28679    | 0.31362    | 0.34046    |   2.2 | 48.44
Neigh   | 0.04111    | 0.043286   | 0.046216   |   0.6 |  6.69
Comm    | 0.20878    | 0.23896    | 0.26857    |   2.8 | 36.91
Output  | 5.4255e-05 | 5.6147e-05 | 7.0835e-05 |   0.0 |  0.01
Modify  | 0.043015   | 0.046492   | 0.050544   |   0.8 |  7.18
Other   |            | 0.00501    |            |       |  0.77

Nlocal:        83.3333 ave          91 max          77 min
Histogram: 2 5 7 3 9 12 1 6 0 3
Nghost:        2046.31 ave        2067 max        2027 min
Histogram: 1 6 2 9 6 7 9 3 3 2
Neighs:        13212.1 ave       14715 max       11543 min
Histogram: 1 4 7 4 4 9 6 5 6 2

Total # of neighbors = 634181
Ave neighs/atom = 158.54525
Neighbor list builds = 143
Dangerous builds = 8

#############################
# L I N E A R  Q U E N C H  #
#############################

# Define solid atoms. This closely follows ten Wolde  Ruiz-Montero and Frenkel  Faraday Discuss  1996  104  93-110
# Compute components of the per-atom q6 vector
compute q6 all orientorder/atom degrees 1 6 components 6 nnn NULL cutoff 1.3 # compute the Q6 parameter.
                                                                             # Use all neighbours within 1.3 unit cell.

# get number of connections
compute coord_number all coord/atom orientorder q6 0.5

# An atom is solid if it has 8 or more connections (of a possible 14)
variable is_solid atom c_coord_number>=8
group solid dynamic all var is_solid    # Must be dynamic to update
dynamic group solid defined

# do clustering
compute cluster solid cluster/atom 1.3 # Create a cluster where all atoms within are solid and max 1.3 units from another member

# define chunks one chunk per cluster
compute clus_chunks solid chunk/atom c_cluster nchunk every compress yes  # Says which atoms are in which chunk

# count the size of each chunk
compute size_chunks solid property/chunk clus_chunks count


# Find the maximum entry in the vector of chunk sizes
variable max_n equal max(c_size_chunks)


# Thermo style which includes this variable
# thermo_style custom step temp pe vol v_max_n

thermo ${N}  # Print the thermo information every 100 steps
thermo 1000  

# Reset the npt fix at a lower temperature (below freezing)
fix 1  all npt temp  ${temp} ${temp}  0.1  iso  5.68  5.68  0.5  mtk yes tchain  5  pchain  5
fix 1  all npt temp  0.45 ${temp}  0.1  iso  5.68  5.68  0.5  mtk yes tchain  5  pchain  5
fix 1  all npt temp  0.45 0.45  0.1  iso  5.68  5.68  0.5  mtk yes tchain  5  pchain  5

dump dmp2 all dcd ${N} traj.dcd
dump dmp2 all dcd 1000 traj.dcd


compute msd all msd com yes
variable twopoint equal c_msd[4]/6/(step*dt+1.0e-6)
fix 9 all vector 10 c_msd[4]
variable fit equal slope(f_9)/6/(10*dt)
thermo_style custom step temp pe c_msd[4] v_twopoint v_fit v_max_n

fix 1 all npt temp 1.25 ${temp} 0.1 iso 5.68 5.68 0.5 mtk yes tchain 5 pchain 5
fix 1 all npt temp 1.25 0.45 0.1 iso 5.68 5.68 0.5 mtk yes tchain 5 pchain 5
run 2000000 # 5000000  # Run for this many steps
Neighbor list info ...
  update every 1 steps, delay 10 steps, check yes
  max neighbors/atom: 2000, page size: 100000
  master list distance cutoff = 3.8
  ghost atom cutoff = 3.8
  binsize = 1.9, bins = 8 8 8
  4 neighbor lists, perpetual/occasional/extra = 1 3 0
  (1) pair lj/cut, perpetual
      attributes: half, newton on
      pair build: half/bin/atomonly/newton
      stencil: half/bin/3d
      bin: standard
  (2) compute orientorder/atom, occasional
      attributes: full, newton on
      pair build: full/bin/atomonly
      stencil: full/bin/3d
      bin: standard
  (3) compute coord/atom, occasional
      attributes: full, newton on
      pair build: full/bin/atomonly
      stencil: full/bin/3d
      bin: standard
  (4) compute cluster/atom, occasional
      attributes: full, newton on
      pair build: full/bin/atomonly
      stencil: full/bin/3d
      bin: standard
Per MPI rank memory allocation (min/avg/max) = 9.835 | 9.841 | 9.844 Mbytes
Step Temp PotEng c_msd[4] v_twopoint v_fit v_max_n 
   12000    1.2352629   -7.1312041 1.025322e-30 7.1202911e-33 8.3333333e+20            2 
   13000    1.2496721   -7.0732353   0.47510129  0.003045521  0.039120508            2 
   14000    1.2412959   -7.2106991   0.90183783 0.0053680821  0.036279621            2 
   15000     1.252851   -7.1144841    1.2757908 0.0070877263  0.035398694            2 
   16000    1.2155151    -7.109567    1.6840853 0.0087712771  0.034689647            2 
   17000    1.2459942   -7.1011925    2.0656076  0.010125527  0.033705618            1 
   18000    1.2630282   -7.1918536    2.5112281  0.011626056  0.033759268            2 
   19000    1.2698562   -7.1786343    2.9937356  0.013130419  0.034223561            3 
   20000    1.1882105   -7.1634419    3.3994561    0.0141644  0.034612565            2 
   21000    1.2279671   -7.1245251     3.789337  0.015037051   0.03476618            2 
   22000    1.2524176   -7.1265519    4.1808888    0.0158367  0.034674514            1 
   23000    1.2294317   -7.1126072    4.5549417  0.016503412  0.034498424            6 
   24000    1.2441442   -7.1006554    4.9956027  0.017345842  0.034348708            2 
   25000    1.2189278   -7.1793181     5.383406  0.017944686  0.034281466            2 
   26000    1.2301649   -7.1080696    5.8056744   0.01860793  0.034258701            2 
   27000    1.2384516   -7.1463995    6.1421864  0.018957365  0.034137228            1 
   28000    1.2288475   -7.1347517    6.5768472   0.01957395   0.03400268            3 
   29000    1.2334598   -7.1069602    7.0249743  0.020186707  0.033977298            3 
   30000    1.2302119   -7.1467106    7.4248202    0.0206245  0.033972798            2 
   31000    1.2139143    -7.186082     7.746336  0.020823483  0.033930858            2 
   32000    1.2396329   -7.1470002    8.1428784  0.021205412  0.033841583            1 
   33000    1.2458242   -7.1588462    8.5920601  0.021697121  0.033839341            1 
   34000    1.2371505   -7.1686965    8.9439505  0.021921447  0.033815595            2 
   35000     1.243323   -7.1868447    9.3572896  0.022279261  0.033770742            1 
   36000    1.2534075   -7.1411103    9.8742399  0.022857037  0.033749445            2 
   37000    1.2401543   -7.1489491    10.310195  0.023221159   0.03381361            2 
   38000    1.2338354   -7.1205045    10.652685   0.02336115  0.033849818            3 
   39000    1.2285748    -7.167196     11.00453  0.023513953  0.033836557            9 
   40000    1.2041954   -7.1475827    11.316791  0.023576648  0.033784604            4 
   41000    1.2150101   -7.1941959    11.735777  0.023853205   0.03371966            1 
   42000    1.2270975    -7.185136    12.149859  0.024106863   0.03368278            2 
   43000    1.2395401   -7.1129568    12.641755  0.024499525  0.033665805            2 
   44000    1.2453439   -7.1419901    13.052222  0.024720117   0.03364782            1 
   45000    1.2391951   -7.1147073    13.437936  0.024885066  0.033631016            1 
   46000    1.2756027   -7.1558616    13.737628  0.024887006  0.033605123            1 
   47000    1.2084467   -7.1645105    14.123872  0.025042326   0.03355715            1 
   48000    1.2605256   -7.1620648    14.357578  0.024926351  0.033486825            1 
   49000     1.244315   -7.1539521    14.750968  0.025086679  0.033395521            3 
   50000    1.2389779   -7.1941452    15.222956  0.025371594  0.033329939            2 
   51000    1.2472255   -7.1793265    15.474346  0.025284879  0.033254732            1 
   52000    1.2222659    -7.192264    15.873679  0.025438588  0.033180312            3 
   53000    1.2371649   -7.1604775    16.291556  0.025615654   0.03313463            3 
   54000    1.2261741   -7.1732548    16.620649  0.025649149  0.033067348            3 
   55000      1.22459   -7.1696702    16.990034  0.025742475   0.03299838            2 
   56000    1.2165641   -7.1766929    17.395508  0.025886172  0.032936197            2 
   57000     1.226355   -7.1434312    17.912435   0.02618777  0.032900539            1 
   58000    1.2426874   -7.2047376    18.169711  0.026105907  0.032871337            2 
   59000    1.2386248   -7.2075658    18.606091  0.026279789  0.032825953            1 
   60000    1.2497163   -7.1992092    19.021106  0.026418202   0.03278538            1 
   61000    1.2080904   -7.1711935     19.45669  0.026580178  0.032757206            1 
   62000    1.2340192   -7.1645566    19.842566  0.026670115  0.032738137            1 
   63000    1.2423472     -7.24094    20.158192  0.026664276  0.032723558            3 
   64000    1.2449038   -7.1499847    20.560201  0.026771095  0.032712879            3 
   65000     1.242939   -7.2167476     20.95208   0.02686164  0.032696551            1 
   66000    1.1961726   -7.1603761    21.283017  0.026872497   0.03267447            2 
   67000    1.1976113   -7.2221524    21.595809  0.026860459  0.032640861            3 
   68000    1.2383728   -7.1723036     22.00577  0.026967856  0.032610865            1 
   69000    1.2086197   -7.1506407    22.555764  0.027241261  0.032594402            1 
   70000    1.2270442   -7.1914547    22.806544  0.027150647   0.03257843            4 
   71000    1.2291291   -7.2169094    23.027682  0.027027795  0.032543236            2 
   72000    1.2523552   -7.1981145    23.316982  0.026987248  0.032503963            4 
   73000    1.2184264   -7.2000888    23.800174  0.027169148  0.032462282            4 
   74000    1.2037024   -7.2159784    24.138914  0.027183461  0.032428355            1 
   75000    1.2111449   -7.2215876    24.604653  0.027338503  0.032398436            3 
   76000    1.2384429    -7.184277    24.934962  0.027340967  0.032356343            1 
   77000    1.2093294   -7.2369448    25.122922  0.027189309  0.032307951            1 
   78000    1.2037133     -7.19078    25.627578  0.027379891  0.032269001            2 
   79000    1.2228656   -7.1965484    26.019579  0.027446814  0.032245901            3 
   80000      1.24084   -7.1707092    26.424387  0.027525403  0.032216348            1 
   81000     1.226513    -7.203135    26.859834  0.027633574  0.032192926            1 
   82000    1.2329352   -7.1791789    27.263337  0.027706643  0.032177426            2 
   83000    1.2118578   -7.1703956    27.599196  0.027710036  0.032157208            2 
   84000    1.2137562   -7.1744334    27.997398  0.027775196  0.032138646            3 
   85000    1.2173176   -7.2066143    28.314136  0.027758957  0.032115649            1 
   86000    1.2312781   -7.2628558    28.492208  0.027608729  0.032092714            2 
   87000    1.2277006   -7.2218556    29.119675  0.027892408  0.032074024            3 
   88000    1.2274127   -7.1874748    29.523831  0.027958173  0.032064176            1 
   89000    1.2136666   -7.2249956    29.857561  0.027956517  0.032043869            1 
   90000    1.2256285    -7.214068    30.070751  0.027843288   0.03202038            3 
   91000    1.2210414   -7.1909659    30.399743  0.027838592  0.031994227            2 
   92000     1.238728   -7.2321118    30.819985  0.027916653  0.031969288            1 
   93000    1.2123279   -7.1869814     31.01777  0.027793701  0.031935616            3 
   94000    1.2277503   -7.2108179    31.335129  0.027779369  0.031897808            2 
   95000    1.2271316    -7.231182    31.704591  0.027811045  0.031862409            2 
   96000    1.2267532   -7.2049452     32.20762  0.027958003  0.031828488            1 
   97000    1.2184866   -7.2520692    32.501013  0.027921832  0.031801492            4 
   98000    1.1996865   -7.2494813    32.912204  0.027986568  0.031775851            1 
   99000    1.2184743    -7.245311    33.109872  0.027870263  0.031746307            5 
  100000    1.1774413    -7.267873    33.396102  0.027830085  0.031714135            3 
  101000    1.2241641   -7.2309673    33.908846  0.027977595  0.031682333            3 
  102000    1.2194491   -7.2174996    34.242557  0.027975945  0.031651876            2 
  103000    1.1824994   -7.1907297    34.680611  0.028058746  0.031622933            2 
  104000    1.1951709   -7.2293985    34.970307  0.028021079  0.031593294            3 
  105000    1.2068946    -7.265823    35.315039  0.028027809  0.031562499            2 
  106000    1.1861219   -7.2803034    35.587527  0.027977615  0.031533324            2 
  107000    1.1827825     -7.25492    35.826925   0.02790259  0.031502506            1 
  108000    1.2187767   -7.2660287    36.003701  0.027780634  0.031462406            3 
  109000    1.2234333   -7.2384762    36.343978  0.027785916  0.031422493            1 
  110000    1.2165383    -7.232353    36.841978  0.027910589  0.031381326            1 
  111000    1.2014403   -7.2284705    37.061741  0.027824129  0.031341816            1 
  112000    1.2072478   -7.2233184    37.422159  0.027843869  0.031300571            3 
  113000    1.2151097   -7.1920058    38.040051  0.028053135  0.031265386            3 
  114000    1.2146512    -7.221959    38.499494  0.028142905  0.031241615            1 
  115000    1.2120819   -7.2443857    38.684987  0.028032599  0.031214824            1 
  116000    1.2191714    -7.208053    38.993255  0.028012396  0.031185207            2 
  117000    1.1989127   -7.2137088    39.301445  0.027992482  0.031156831            5 
  118000    1.2052836   -7.1824316    39.926463  0.028196655  0.031128581            2 
  119000    1.2217165    -7.265256     39.98781  0.028002668  0.031100878            3 
  120000    1.2053642   -7.2135874    40.409146  0.028061907  0.031071985            2 
  121000    1.1952347    -7.223761     40.74263  0.028059662  0.031041548            1 
  122000    1.1979414   -7.2542601    41.046849  0.028037465  0.031015702            1 
  123000    1.1758633   -7.2250067    41.510177  0.028123426  0.030989172            3 
  124000    1.2220166   -7.2214451    41.742508  0.028052761  0.030959197            1 
  125000    1.2174762   -7.2269446    42.013628  0.028009085  0.030927309            5 
  126000    1.2032975   -7.2305306    42.357558  0.028014258  0.030893574            2 
  127000    1.1953997   -7.2351446    42.618171  0.027964679  0.030862102            2 
  128000    1.2051697   -7.2377145    42.858086    0.0279024  0.030826024            1 
  129000    1.1893309     -7.26137    43.264355   0.02794855   0.03078812            2 
  130000    1.1990189   -7.2202312      43.7843  0.028066859  0.030757047            1 
  131000    1.2234511    -7.198043    43.929816  0.027945175  0.030726363            5 
  132000    1.2073218   -7.2587466    44.190288  0.027897909  0.030692294            2 
  133000    1.1938394   -7.2347015    44.520233  0.027894883  0.030660754            2 
  134000      1.23258   -7.2424286    44.887613  0.027915182  0.030627711            6 
  135000    1.2153976   -7.2617339    45.125206  0.027855066  0.030595857            3 
  136000    1.1992908   -7.2644323    45.437153  0.027841392  0.030561289            2 
  137000    1.1904552   -7.2876407    45.759361  0.027834161  0.030528739            2 
  138000    1.2111578   -7.2072818    46.233541  0.027918805   0.03049401            2 
  139000    1.2208864   -7.2122432    46.821536  0.028070465  0.030465906            2 
  140000    1.2173529   -7.2098706    46.824662  0.027871823  0.030440949            3 
  141000    1.2079543   -7.2677844     47.20239  0.027897394  0.030413788            2 
  142000    1.2126555   -7.2556721    47.760443  0.028028429  0.030386668            2 
  143000    1.1648829    -7.226081    48.196256  0.028086396  0.030364293            2 
  144000    1.2038556   -7.2488716    48.553221  0.028097929   0.03034491            1 
  145000    1.1736733   -7.2387326    49.026919   0.02817639  0.030325631            2 
  146000     1.210302   -7.2593646    49.388339  0.028189691  0.030306897            2 
  147000    1.2045534   -7.2673732    49.699411  0.028174269  0.030292055            2 
  148000    1.1470828   -7.2586229    49.838094   0.02806199  0.030277317            4 
  149000    1.2069115    -7.243568    50.409662  0.028193323  0.030259016            6 
  150000    1.1834843   -7.2699038    50.886382  0.028270212  0.030244078            2 
  151000    1.2006811   -7.2666566    51.318744  0.028321603  0.030233274            4 
  152000    1.2238549    -7.256404    51.719821  0.028355165  0.030226239            5 
  153000    1.1556538   -7.2600144    52.108809  0.028381704  0.030220406            3 
  154000    1.1909768   -7.2342144    52.282522  0.028291408  0.030210494            2 
  155000    1.1881875   -7.2683946    52.907244  0.028444755  0.030205093            2 
  156000    1.2241781   -7.2529006    53.105396  0.028368267  0.030198578            1 
  157000    1.1886286   -7.2898742    53.266547  0.028273114  0.030189438            2 
  158000    1.2340045   -7.2768061    53.479925  0.028206711  0.030176376            1 
  159000    1.2039688   -7.2702525    53.956463  0.028279068  0.030164161            3 
  160000    1.1874523   -7.2995947    53.763977  0.028002071  0.030148657            2 
  161000    1.2348568   -7.2692692     54.28729  0.028099011  0.030128403            3 
  162000    1.1953566   -7.3252158    54.269209   0.02791626  0.030108854            2 
  163000    1.1987139   -7.2471664    54.936494  0.028086142  0.030090043            2 
  164000     1.188886   -7.2877743    55.374542   0.02813747  0.030071981            1 
  165000    1.1452359   -7.3263153    55.499686  0.028030144  0.030053567            2 
  166000    1.2174041   -7.2949521    55.834061  0.028029147  0.030034514            3 
  167000    1.1570539   -7.2693306    56.275511  0.028081592  0.030016523            2 
  168000    1.1952782   -7.2733098    56.668953    0.0281096  0.029999037            2 
  169000    1.2024101   -7.2887727    57.226386  0.028218139  0.029983062            2 
  170000    1.1776889   -7.3153698    57.251521  0.028064471  0.029967765            2 
  171000    1.2037831   -7.2931644    57.369833  0.027958008  0.029947838            3 
  172000    1.1765748    -7.278549    57.733322  0.027971571  0.029927299            1 
  173000    1.2065906   -7.2904446    58.100279  0.027986647  0.029906711            1 
  174000    1.2026048   -7.3433867    58.166119  0.027857336  0.029885821            2 
  175000    1.2101344   -7.2861361    58.590241  0.027900115  0.029862871            4 
  176000    1.1510363   -7.3112483    58.951606  0.027912692  0.029841123            2 
  177000    1.1804533   -7.2689738    59.581279   0.02805145  0.029821754            2 
  178000    1.1658043    -7.317777    60.090284  0.028132155  0.029803928            5 
  179000    1.1563023   -7.2770462     60.30202  0.028073566   0.02978751            1 
  180000    1.1986131   -7.2878027    60.661809  0.028084171  0.029770502            3 
  181000    1.1874422   -7.2969337    60.751218  0.027970174   0.02975385            1 
  182000    1.1705518    -7.246754    61.499933   0.02815931  0.029737522            2 
  183000    1.1871222   -7.2725201    61.754529   0.02812137   0.02972344            1 
  184000    1.2066934   -7.2914035    61.874294  0.028022778  0.029706888            1 
  185000    1.1706683   -7.2911817     62.24351  0.028037617  0.029691061            2 
  186000     1.172507   -7.2888705    62.551527  0.028024877  0.029676415            2 
  187000    1.1661466   -7.3109772    63.046031  0.028095379  0.029661416            5 
  188000    1.1652553   -7.2932048    63.710323  0.028240391  0.029651512            2 
  189000    1.1629584   -7.3193204    63.673532   0.02807475  0.029640937            3 
  190000    1.2037602   -7.3184495    63.935696  0.028041972  0.029625824            2 
  191000    1.1920457   -7.3348942    64.219312  0.028018897    0.0296113            1 
  192000    1.1942277   -7.2751811    64.597537  0.028037125  0.029596548            1 
  193000     1.189628   -7.3301518    64.966167  0.028051022  0.029583522            3 
  194000    1.1424685    -7.285291     65.32925  0.028062393  0.029569998            2 
  195000    1.1937375   -7.2748037    65.925871  0.028173449  0.029556033            2 
  196000    1.1708645   -7.3488855    65.966396  0.028046937  0.029544328            1 
  197000    1.2045648   -7.2911837    66.474798  0.028119627  0.029532276            2 
  198000    1.1721791   -7.3063725    66.640482  0.028047341  0.029520005            2 
  199000    1.1706133   -7.3076566    67.109507  0.028102808   0.02950961            3 
  200000    1.1401768   -7.2857974    67.299474  0.028041448  0.029497325            2 
  201000    1.1946145   -7.3053142    67.445588  0.027962516  0.029482258            1 
  202000    1.1555766   -7.3083877    67.757651  0.027952826  0.029466891            4 
  203000    1.1794362   -7.3004744    68.072866  0.027944526  0.029450945            2 
  204000    1.1590733   -7.3510954    68.302652   0.02790141  0.029433595            2 
  205000    1.1712712   -7.3255055    68.843977  0.027985356   0.02941868            2 
  206000     1.164252   -7.3291333    69.170498  0.027981593  0.029403095            1 
  207000     1.184016   -7.2780307    69.447836  0.027958066  0.029386877            1 
  208000     1.159692   -7.3260185    69.744498  0.027942507   0.02936887            2 
  209000    1.1787416   -7.3099316    69.940114  0.027886808  0.029349968            2 
  210000    1.1747211   -7.2863551    69.868197  0.027725475  0.029331585            2 
  211000    1.1808818   -7.3497697    69.977311  0.027637169  0.029309899            2 
  212000     1.174275   -7.3492834    70.150654  0.027574943  0.029287518            2 
  213000    1.1510626   -7.3445292    70.836542  0.027713827  0.029266694            4 
  214000     1.194356   -7.3718468     70.68541  0.027525471  0.029244717            4 
  215000     1.157407   -7.3648477    71.095103  0.027556241  0.029221681            1 
  216000    1.1628334   -7.3531994    71.275901  0.027498418  0.029198354            2 
  217000    1.1834637   -7.3324616     72.01817  0.027656747  0.029176799            1 
  218000    1.1894994   -7.3615094    72.378979  0.027667805  0.029155865            5 
  219000    1.1551306   -7.3403176    72.559525  0.027610169  0.029135516            3 
  220000    1.1568451   -7.2934187    72.870063  0.027602297  0.029114556            1 
  221000    1.1598865    -7.334874    73.186176  0.027596597  0.029093519            1 
  222000    1.1818683   -7.3985527    73.201403  0.027478004  0.029072006            1 
  223000    1.1617018   -7.3387749    73.957219  0.027637227  0.029050768            1 
  224000    1.1586038   -7.3347826     74.03111  0.027541336   0.02903082            5 
  225000    1.1549845   -7.3232993    74.599103  0.027629297  0.029012013            2 
  226000    1.1641975   -7.3859264    74.775712  0.027572165  0.028993745            3 
  227000     1.160027   -7.3960197    74.975981  0.027524222  0.028975549            1 
  228000    1.1785469   -7.3634141    75.464029  0.027581882  0.028956044            2 
  229000    1.1576569   -7.3438287    75.900133  0.027620136  0.028938667            1 
  230000    1.1846067    -7.376235    76.120628  0.027579938   0.02891999            4 
  231000    1.1726549   -7.3642333    76.510722   0.02760127  0.028902829            2 
  232000    1.1516512   -7.3675876     76.84577  0.027602647  0.028887184            3 
  233000    1.1959579   -7.3810208    76.992248  0.027536569  0.028872281            2 
  234000    1.1656467   -7.3940861    77.594441  0.027633348  0.028856899            4 
  235000    1.1344542   -7.3726067     78.01964  0.027666539  0.028843133            2 
  236000    1.1589446   -7.3968857    78.350031  0.027665971  0.028830377            3 
  237000    1.1401637     -7.37235    79.183543  0.027842315  0.028817988            9 
  238000     1.157532   -7.3673018    79.026853  0.027670467  0.028807804            1 
  239000    1.1792316   -7.3665192    80.012549  0.027898378  0.028797395            2 
  240000    1.1413271   -7.3496255    79.930716  0.027753721  0.028786915            3 
  241000    1.1656639   -7.3700847    79.966073  0.027650786  0.028774556            2 
  242000    1.1384452     -7.32124    80.464997  0.027708332  0.028761269            2 
  243000    1.1832028   -7.3242968     80.96345  0.027765243  0.028749563            2 
  244000     1.198325   -7.3947161    80.979659  0.027656987    0.0287387            1 
  245000    1.1538686   -7.3543236    81.566208  0.027743608  0.028726261            3 
  246000    1.1287728   -7.3680317    82.022909  0.027785538  0.028715794            1 
  247000    1.1576386   -7.3784182    82.095747  0.027697621  0.028705677            1 
  248000    1.1673891    -7.421527    82.126786  0.027596366  0.028694337            2 
  249000    1.1460881   -7.4308691    82.410328  0.027580431  0.028681026            2 
  250000    1.1655454   -7.3706347    83.103539   0.02770118   0.02866851            1 
  251000    1.1270653   -7.3961359     83.30567  0.027657925  0.028657372            3 
  252000    1.1696967   -7.3866623    83.552558  0.027629814  0.028647991            4 
  253000    1.1724128   -7.3852915    84.085129  0.027696024  0.028638555            5 
  254000    1.1488831   -7.3446291    84.752678  0.027805997  0.028628626            2 
  255000    1.1501934   -7.4040122    84.714009  0.027684316  0.028618933            2 
  256000    1.1436717   -7.3535738    84.748448  0.027587385  0.028608152            1 
  257000    1.1487371   -7.3485874    85.229502  0.027636025  0.028596794            4 
  258000    1.1339515   -7.3645463    85.306188  0.027553678  0.028585599            1 
  259000    1.1249823   -7.4037444    85.538768  0.027522126  0.028572598            2 
  260000    1.1256012   -7.4199276     85.95995  0.027551266  0.028559838            2 
  261000    1.1488698   -7.3934802    86.204791   0.02752388  0.028547363            5 
  262000    1.1341063   -7.3566149     86.47892  0.027506018   0.02853378            3 
  263000    1.1673562   -7.4034098    86.704592  0.027472938  0.028521048            4 
  264000    1.1436292   -7.3764714    87.176808  0.027517932  0.028508182            1 
  265000    1.1358104   -7.3760468    87.554712  0.027532928  0.028495714            2 
  266000    1.1465753    -7.386689    87.385349  0.027376362  0.028483488            3 
  267000    1.1327148   -7.3740868    87.731085  0.027381737  0.028468382            1 
  268000    1.1240899   -7.4057723    88.021828  0.027369971  0.028453248            1 
  269000    1.1418267    -7.398164    88.069496  0.027282991  0.028437939            3 
  270000    1.1500549    -7.390821    88.406446   0.02728594  0.028423442            1 
  271000    1.1243729   -7.3662182    88.736309  0.027286688  0.028407507            2 
  272000    1.1397613   -7.4028069    88.650701  0.027160141  0.028390981            2 
  273000    1.1404584   -7.4058356    89.049996  0.027182539   0.02837209            2 
  274000    1.1504043   -7.3635143    89.387061  0.027185846  0.028352787            2 
  275000    1.1654393   -7.4030454    89.552837  0.027137223  0.028333781            6 
  276000    1.1353852   -7.4396119    89.489716  0.027019842  0.028314112            1 
  277000    1.1511844   -7.4362588    89.860396  0.027033813  0.028293316            1 
  278000    1.1386987   -7.4130957    90.362377  0.027087044  0.028273468            1 
  279000    1.1494297   -7.3826048    90.444258  0.027014414  0.028253837            1 
  280000     1.139247   -7.4141543    90.912556  0.027057308  0.028233212            2 
  281000    1.1504041    -7.445213    90.611444  0.026871721  0.028212748            3 
  282000    1.1340083   -7.3966237    91.403125   0.02701038  0.028191847            4 
  283000    1.1376438   -7.4340611    91.204766  0.026856527  0.028171281            2 
  284000    1.1285829   -7.3741106    91.603802   0.02687905  0.028149843            4 
  285000    1.1335484   -7.3617793    91.957317  0.026888104  0.028127649            2 
  286000    1.1319965   -7.4055985    92.005732  0.026808197  0.028107504            5 
  287000    1.1365291   -7.4135271    92.448592  0.026843377  0.028087774            1 
  288000    1.1462743   -7.3841463    92.897549  0.026880078  0.028067695            5 
  289000     1.137315   -7.3942956    93.347652  0.026916855  0.028047248            2 
  290000    1.1338804   -7.3964623    93.426968   0.02684683  0.028027024            4 
  291000    1.1724842   -7.4141425    93.711083  0.026835934   0.02800622            4 
  292000    1.1547134     -7.35411     93.52655  0.026691367  0.027984484            1 
  293000    1.1414968   -7.3734036    93.766851  0.026668615  0.027961474            6 
  294000    1.1224252   -7.3864891    93.955387  0.026631346  0.027937629            4 
  295000    1.1360426    -7.369421    94.570891  0.026714941  0.027913864            1 
  296000    1.1453935   -7.4496604    94.316781  0.026553148  0.027889575            3 
  297000    1.1147033    -7.392746    94.962103   0.02664481   0.02786537            2 
  298000    1.1412961   -7.3715692    95.101725  0.026594442  0.027842487            1 
  299000    1.1428752   -7.3841398     95.36812  0.026579744  0.027819486            1 
  300000    1.1230818   -7.4248279    95.442147  0.026511707  0.027796171            2 
  301000    1.1381288   -7.4205281    95.802931  0.026523513  0.027771625            1 
  302000    1.1439898   -7.4327481    95.837444  0.026445211  0.027748098            3 
  303000     1.125218   -7.4256542    96.091538  0.026427816  0.027724395            2 
  304000    1.1363823   -7.4661171    96.483517  0.026448332  0.027701122            3 
  305000    1.1364085   -7.3885363     96.98925  0.026499795  0.027678608            5 
  306000    1.1413384   -7.4113386     97.19033  0.026467955  0.027655373            2 
  307000    1.1178917   -7.4585568      97.5987   0.02649259  0.027633215            2 
  308000    1.1460183   -7.4392315    97.974518  0.026508257   0.02761132            1 
  309000    1.1203914   -7.4139359    98.336561  0.026520108  0.027590049            2 
  310000    1.1514231   -7.4508306    98.483088  0.026473948  0.027569122            2 
  311000    1.1208699   -7.4415639    98.514901  0.026397348  0.027548792            2 
  312000    1.1430645   -7.4172371    99.084595  0.026464903   0.02752902            2 
  313000    1.1356929   -7.4404355    99.262113  0.026427613   0.02750822            2 
  314000    1.0983799   -7.4502547    99.373627  0.026373043  0.027485936            1 
  315000    1.1452473   -7.4462232    99.806089  0.026403727  0.027464388            1 
  316000     1.150242   -7.4202738    100.05154  0.026384901  0.027443568            2 
  317000    1.1103628   -7.4288422     100.6802  0.026466929   0.02742363            1 
  318000    1.0968257   -7.4781703    100.53872  0.026346624  0.027404035            2 
  319000    1.1123515   -7.4592089    100.74205  0.026317149  0.027384257            2 
  320000    1.1180872   -7.4319564    101.54943  0.026445163  0.027365287            2 
  321000       1.1271   -7.4386712    101.80673  0.026429577  0.027346981            3 
  322000    1.1382977   -7.4604252    101.59746  0.026293338  0.027327576            5 
  323000    1.1347389   -7.4346062     102.1362  0.026350929  0.027308349            1 
  324000    1.1185653   -7.4666683    102.05194  0.026247927  0.027288669            3 
  325000    1.1322368   -7.4491111    102.64095  0.026318193  0.027269406            5 
  326000    1.1621698    -7.447209     103.3132  0.026409304  0.027251498            2 
  327000    1.1236806   -7.4567525    103.22851   0.02630696  0.027233176            1 
  328000    1.1478513   -7.4814891    103.18883  0.026216675  0.027214464            2 
  329000     1.129972    -7.406777    104.17573  0.026386962  0.027196502            1 
  330000    1.1164391   -7.4786279    103.92128  0.026242747  0.027179105            1 
  331000    1.1099919   -7.4153517    104.74569  0.026371019  0.027160856            2 
  332000    1.1211934   -7.4695996    105.04761  0.026367371  0.027143936            3 
  333000    1.1291892   -7.4803122     104.6963  0.026200276   0.02712631            3 
  334000    1.1175296   -7.4851949    105.08486  0.026218777  0.027107679            5 
  335000    1.1034076   -7.4621247    105.27499  0.026187809  0.027089578            4 
  336000    1.0991762   -7.4352788    105.29565  0.026114992  0.027071589            3 
  337000    1.1454164   -7.4602149    105.78299   0.02615801  0.027053078            2 
  338000    1.1126795   -7.5112815    106.07608   0.02615288  0.027035106            4 
  339000    1.1333418   -7.4567277    106.28087  0.026126073   0.02701706            5 
  340000    1.1064619    -7.425744    106.81791   0.02618086  0.026998905            7 
  341000    1.1264049   -7.5161942    106.60996  0.026053264  0.026980223            5 
  342000    1.1054032   -7.4583544    106.66728  0.025991052  0.026960874            6 
  343000    1.1175909   -7.4579815    107.16006     0.026035  0.026941941            1 
  344000    1.1149954   -7.4736241    107.29669  0.025992416  0.026922625            4 
  345000    1.1435407   -7.4613331    107.61965  0.025995085  0.026903146            2 
  346000    1.1077835   -7.4387182    108.10715  0.026037368  0.026884317            1 
  347000    1.1355939   -7.4623665    108.35543  0.026021956  0.026865829            2 
  348000    1.1029261    -7.448154    108.03065  0.025869408  0.026846629            2 
  349000    1.1109533   -7.5057953    108.34432  0.025870182  0.026827636            2 
  350000    1.1242874   -7.4523606    109.08687  0.025973063  0.026808714            1 
  351000    1.1084168   -7.4729332    109.36708  0.025965595  0.026791296            2 
  352000    1.0840509    -7.497868    109.77205  0.025987701  0.026773854            2 
  353000    1.0950718    -7.479667    109.95542   0.02595737  0.026756103            2 
  354000    1.1047832   -7.4367698    110.62349   0.02604131  0.026739025            3 
  355000    1.1019484   -7.4612389    110.51224  0.025941841  0.026722086            1 
  356000    1.1281746   -7.4978246    110.80059  0.025936467   0.02670387            4 
  357000    1.1162971   -7.4790092    110.92104  0.025891933  0.026686759            3 
  358000    1.1127647   -7.4591989    111.31438  0.025911168  0.026669545            3 
  359000    1.1122969   -7.4912045    111.51912  0.025886517  0.026652286            3 
  360000    1.0951941   -7.4898878    111.62066  0.025838115  0.026634546            2 
  361000    1.0891281   -7.5039539    111.43499  0.025723682  0.026616759            3 
  362000    1.1198163   -7.4998484    112.00415  0.025783644  0.026597898            3 
  363000    1.1088882   -7.4720729    111.94603  0.025699272  0.026578687            2 
  364000    1.1190922   -7.5015553    112.41701  0.025736495  0.026559546            1 
  365000     1.127104   -7.5030243    112.78148  0.025749197  0.026540901            1 
  366000    1.0911398   -7.4664299    113.00985  0.025730841  0.026522855            2 
  367000    1.1063753   -7.5211557    112.87615  0.025630371   0.02650475            2 
  368000    1.1058292   -7.5011788    113.35665   0.02566953  0.026486169            2 
  369000    1.1102111   -7.5300801    113.89557  0.025721672  0.026468364            2 
  370000    1.1145032   -7.4912101    113.99678   0.02567495  0.026450495            1 
  371000    1.0812855   -7.4750498    114.63162  0.025748342  0.026432385            3 
  372000    1.1063268   -7.4981598    114.64092   0.02568121  0.026414703            1 
  373000    1.1085639   -7.4616061    114.62157  0.025608036  0.026396506            3 
  374000    1.1120955    -7.556519    114.49075  0.025510416  0.026377377            2 
  375000    1.1205349   -7.5263908    114.90096  0.025533546  0.026358098            2 
  376000    1.0964182   -7.5042368    115.15395  0.025521708  0.026338655            9 
  377000    1.1031093   -7.4729492    115.29897  0.025486067  0.026318703            2 
  378000    1.1085179   -7.5093996    114.97694   0.02534765  0.026297662            2 
  379000    1.1353542   -7.5133889    115.49633  0.025394971  0.026276439            3 
  380000     1.105676   -7.5259158    115.52276  0.025333939  0.026255405            3 
  381000    1.1082235   -7.4913998    115.69253  0.025304577  0.026233938            1 
  382000    1.0804138   -7.5095676    115.95454  0.025295493  0.026211855            2 
  383000     1.135647   -7.5238162    115.91021  0.025219803  0.026190079            2 
  384000    1.1099334   -7.4339604    116.59541  0.025302823  0.026169376            6 
  385000     1.096705    -7.493783     116.7357  0.025267467  0.026148352            2 
  386000     1.091571   -7.5101737    116.02418  0.025048398  0.026126577            3 
  387000      1.10901   -7.5244189    116.80723  0.025152289  0.026104193            2 
  388000    1.1288644   -7.5328847    117.12374  0.025155443   0.02608182            3 
  389000    1.0925389    -7.503766    117.47704  0.025166462  0.026059998            1 
  390000     1.074661   -7.5072324    117.68368  0.025146086  0.026037506            2 
  391000    1.0848917   -7.5261054    117.40544  0.025022472   0.02601433            4 
  392000      1.08499   -7.5403606     117.7703  0.025036204  0.025990921            3 
  393000    1.0826309   -7.5331956    117.98683  0.025018412  0.025968253            1 
  394000    1.1145788    -7.491503    118.29301  0.025019672  0.025945417            4 
  395000    1.1099386   -7.4915803     118.0975  0.024915085  0.025922665            2 
  396000    1.0885486   -7.4824409    118.86111   0.02501286  0.025900244            2 
  397000    1.1198468   -7.5118141    119.08502  0.024996856  0.025878934            2 
  398000     1.084633    -7.493902    119.46019  0.025012603  0.025857565            3 
  399000    1.1106064    -7.505985    119.38221  0.024933627  0.025835898            1 
  400000    1.0810153   -7.5564979    119.73085  0.024943927  0.025813359            5 
  401000     1.114097   -7.5599172    119.64901  0.024864715   0.02579096            1 
  402000    1.0821624   -7.5108592    120.02846  0.024881521  0.025768941            3 
  403000    1.0799926    -7.587333    119.74619  0.024761413  0.025746674            4 
  404000    1.0957202   -7.5725683    120.00118  0.024752718  0.025724831            2 
  405000    1.0865128   -7.5339078    120.41575  0.024776904  0.025702789            2 
  406000    1.0780284   -7.5534965    120.76565  0.024787695  0.025680634            2 
  407000    1.0975062   -7.5084824    121.20088  0.024815904  0.025658577            1 
  408000    1.1030232   -7.5083083    121.18263  0.024751354  0.025637416            3 
  409000    1.0857074   -7.5278714    121.86065  0.024828983  0.025616559            5 
  410000    1.1017755   -7.5711753    121.57328  0.024710016  0.025595403            2 
  411000     1.112171   -7.5425384    122.30839  0.024798944  0.025574358            8 
  412000    1.0925863   -7.5335529    122.47203   0.02477185  0.025553775            2 
  413000     1.128133   -7.5553952    122.62271  0.024742274  0.025533302            5 
  414000    1.1012844   -7.5693199    122.52357  0.024662554  0.025512151            4 
  415000    1.0717169   -7.5421178     123.0683   0.02471251  0.025490972            2 
  416000    1.0848781   -7.5354465    123.29093  0.024697702  0.025469911            2 
  417000    1.0725023   -7.5186604    123.36515  0.024653308  0.025448791            2 
  418000    1.1134097   -7.5209715    123.40596  0.024602464  0.025427976            1 
  419000    1.0827195   -7.5620121    123.41685  0.024545914  0.025406581            4 
  420000    1.0731949   -7.5832562    123.38828  0.024481801   0.02538452            3 
  421000    1.0892535   -7.5440398    123.61018  0.024467573  0.025362761            5 
  422000    1.0606519    -7.570695    124.34914  0.024555517  0.025341952            3 
  423000    1.0836868   -7.5789218    124.63766  0.024554307   0.02532095            2 
  424000    1.0698536    -7.554883    124.74468  0.024517429  0.025299754            2 
  425000    1.0665225    -7.593135    124.45994  0.024403909  0.025278001            3 
  426000     1.109443    -7.551212    125.00211  0.024452681  0.025256214            3 
  427000    1.1065961   -7.5523601    125.41923  0.024476821  0.025234468            2 
  428000    1.0931431   -7.5174018    125.70169  0.024474627  0.025213441            4 
  429000    1.0715299   -7.5510803    125.83274  0.024443035    0.0251928            5 
  430000    1.1021412   -7.5467699    126.20027  0.024457417  0.025172216            4 
  431000    1.0866766   -7.5794894    126.24788  0.024409876  0.025151588            2 
  432000    1.0715178   -7.5340803    126.50925   0.02440379  0.025131339            4 
  433000     1.111161   -7.6030896    126.47291  0.024340438  0.025110713            3 
  434000    1.1018893   -7.5243811    126.80585  0.024348281  0.025089703            2 
  435000    1.0792878   -7.5460728    127.24857   0.02437712  0.025069045            3 
  436000    1.0533876   -7.5440638    127.52455  0.024373959  0.025048256            3 
  437000    1.0843025   -7.5754604    127.00258  0.024218646  0.025027568            2 
  438000    1.0779909   -7.5823037    127.49968  0.024257929  0.025006792            3 
  439000    1.0841981   -7.5653654    127.59701  0.024221148  0.024985995            2 
  440000      1.05108   -7.5900981    128.14462  0.024269813  0.024965438            2 
  441000    1.0624279   -7.6029438    128.26157   0.02423688  0.024945048            2 
  442000    1.0793107    -7.559019    128.65601  0.024256411  0.024924634            3 
  443000    1.0856778   -7.5810467    128.54123  0.024180065  0.024904494            3 
  444000    1.0920687   -7.5542586    128.87657  0.024188546  0.024883965            1 
  445000    1.0983195   -7.5577449      129.041   0.02416498  0.024863694            3 
  446000    1.0590191   -7.5533503    129.79757  0.024252162  0.024843634            1 
  447000    1.0941004   -7.5383689    130.02713  0.024240702  0.024824044            2 
  448000    1.0702724    -7.569909    129.99435  0.024180497  0.024804236            2 
  449000    1.0791152   -7.5719475    130.60651  0.024240257  0.024784258            1 
  450000    1.0693276   -7.6019072     129.9869  0.024071649  0.024764159            2 
  451000     1.056965   -7.6280433    130.22287  0.024061875  0.024744253            1 
  452000    1.0640303   -7.5802095    130.48842  0.024057599  0.024724753            3 
  453000    1.0581014   -7.5595561    130.66274   0.02403656  0.024704712            5 
  454000    1.0713036   -7.5952627    130.73036  0.023996027  0.024684067            2 
  455000    1.0868029   -7.6010798    130.95617  0.023984647   0.02466368            5 
  456000    1.0499944   -7.5945048    131.29349  0.023993693  0.024643135            2 
  457000    1.0487973   -7.5611686     131.4162  0.023963567   0.02462268            2 
  458000    1.0701645   -7.5508464     131.3597  0.023900965  0.024601996            3 
  459000    1.0815074   -7.6067273    131.72789  0.023915739  0.024581283            5 
  460000    1.0746389   -7.5852909     132.0784  0.023927247  0.024560659            3 
  461000    1.0760199   -7.5611293    132.15628  0.023889422  0.024539978            7 
  462000     1.081761   -7.5706978    132.25596  0.023855692   0.02451942            2 
  463000    1.0532348   -7.6001584    132.33572  0.023818525  0.024498775            3 
  464000    1.0448902   -7.5780924    133.12345  0.023908666  0.024478507            3 
  465000    1.0490608   -7.6093398    132.88861  0.023815163  0.024458211            4 
  466000    1.0702372   -7.6036623    133.26941  0.023832155  0.024438135            3 
  467000    1.0524265   -7.5507242    133.48906  0.023820317  0.024418166            2 
  468000    1.0523445   -7.5860546    133.81498  0.023827454  0.024398678            4 
  469000      1.03726   -7.6008964    133.93275  0.023797575  0.024378942            3 
  470000    1.0712587   -7.5926006    134.09889    0.0237764  0.024359134            4 
  471000     1.051899   -7.6238528    133.83361  0.023678983  0.024338916            8 
  472000    1.0710522   -7.5998753    134.03507  0.023664384  0.024318537            4 
  473000    1.0630425   -7.5797731    134.61752  0.023716969  0.024298117            1 
  474000    1.0618148    -7.615038    134.67447  0.023676946  0.024277684            4 
  475000    1.0557326   -7.6551723    134.56695  0.023608237  0.024256998            3 
  476000    1.0919143   -7.6106776    135.05619  0.023644291  0.024236431            2 
  477000    1.0521414   -7.6146319    134.84769  0.023558296  0.024216083            1 
  478000    1.0850189   -7.6019028    135.28121   0.02358459  0.024195781            2 
  479000    1.0604966   -7.5899901    135.55645  0.023583237   0.02417555            2 
  480000    1.0707171   -7.6406065    135.50958  0.023525968  0.024155259            2 
  481000    1.0604227   -7.6206164    135.61163  0.023494739   0.02413466            2 
  482000    1.0693086   -7.6274551     135.8627  0.023489402  0.024114121            2 
  483000    1.0366009   -7.6238222    136.19365  0.023497869  0.024093759            2 
  484000    1.0779991    -7.641572     135.7252  0.023368664  0.024073072            2 
  485000    1.0717976   -7.6116182    136.69258  0.023486697  0.024052519            5 
  486000    1.0535376   -7.6216695    136.43025  0.023393391  0.024031737            1 
  487000     1.042098   -7.6201487       136.41  0.023341889  0.024010591            3 
  488000    1.0677616   -7.6219962    136.63536  0.023332541  0.023989473            3 
  489000    1.0708756   -7.6062207    136.95543  0.023339371  0.023968664            2 
  490000    1.0729447   -7.6240687    137.23258  0.023338874  0.023947943            2 
  491000    1.0501523    -7.597126    137.34763  0.023310868  0.023927332            3 
  492000    1.0570363   -7.6199365    137.38922  0.023270532  0.023906546            2 
  493000    1.0613486   -7.6120282    138.14995  0.023351919  0.023886347            2 
  494000    1.0545214   -7.6416835    137.59126  0.023210402  0.023865859            3 
  495000    1.0321129   -7.6532122    137.72408  0.023185872  0.023845458            1 
  496000    1.0432264   -7.6450492    138.42853  0.023257482  0.023825496            6 
  497000    1.0417861   -7.6089577    138.58091  0.023236235  0.023805382            2 
  498000    1.0328038   -7.6269592    139.13417  0.023282156   0.02378554            3 
  499000     1.072632   -7.6446926     139.2386  0.023252939  0.023765776            5 
  500000    1.0441905   -7.6152541    139.30848   0.02321808  0.023746049            1 
  501000     1.060755   -7.6425683    139.38491   0.02318445  0.023725956            5 
  502000    1.0499431   -7.6397982    139.67023  0.023185629  0.023706183            4 
  503000    1.0452109   -7.6483897    139.80749  0.023162275  0.023686199            5 
  504000    1.0411844   -7.6123871    140.05157  0.023156675  0.023666252            2 
  505000    1.0594875   -7.6389319    140.35497  0.023160887  0.023647263            3 
  506000     1.051553   -7.6313662    140.69144  0.023170527  0.023628172            6 
  507000    1.0397027   -7.6240133    141.05071  0.023183877  0.023609116            3 
  508000    1.0402656   -7.6776908    140.54293  0.023054943  0.023589557            2 
  509000    1.0417495   -7.6203509      141.308  0.023134905  0.023570352            4 
  510000    1.0804957   -7.6408805    141.13867  0.023061874  0.023551247            1 
  511000    1.0157287   -7.6295897    141.34379  0.023050194  0.023532049            2 
  512000     1.059443   -7.6397092     141.9466  0.023103288  0.023512953            1 
  513000    1.0424161   -7.6398383    141.96733   0.02306162  0.023494242            2 
  514000    1.0712761   -7.6624715    142.15563  0.023047281  0.023475725            2 
  515000    1.0575139   -7.5989139    142.56902  0.023069421  0.023457525            4 
  516000    1.0407861   -7.6094416    142.76423  0.023056239  0.023439397            1 
  517000    1.0457722   -7.6508046    143.04062  0.023056193  0.023421141            2 
  518000    1.0469493   -7.6556187    143.35322  0.023061972  0.023403063            2 
  519000    1.0569782   -7.6168311    143.64319  0.023064096  0.023384924            5 
  520000    1.0356627   -7.6466326    143.14072  0.022939217  0.023366887            3 
  521000    1.0355466   -7.6451242    143.55172  0.022960928   0.02334831            3 
  522000    1.0724114   -7.6246188    143.97073  0.022983833  0.023330224            2 
  523000     1.044074   -7.6435085    144.09535  0.022959744  0.023312744            4 
  524000    1.0278947   -7.6554214    144.43247  0.022969541  0.023295447            2 
  525000    1.0459838    -7.662249    144.64533  0.022959576  0.023277973            2 
  526000    1.0541481   -7.7079775    144.77837  0.022937004  0.023260582            1 
  527000    1.0768912   -7.6646233    145.52517   0.02301157  0.023243455            8 
  528000    1.0424645    -7.651546    145.05523  0.022893818   0.02322661            3 
  529000    1.0565799   -7.6430329    145.51682  0.022923254  0.023209386            2 
  530000    1.0397495   -7.6607997    145.74521  0.022915913  0.023191988            5 
  531000    1.0312148   -7.6537559    146.12039  0.022931637  0.023174755            1 
  532000    1.0571637   -7.6665196    145.92856  0.022858484  0.023157661            3 
  533000    1.0441277   -7.6699551     146.2398  0.022864258  0.023140456            6 
  534000    1.0580319   -7.6867528    146.39693  0.022845963  0.023123397            3 
  535000    1.0322337   -7.6260567    146.77552   0.02286223  0.023106218            3 
  536000    1.0369904   -7.6188669    146.85869  0.022832508  0.023088829            5 
  537000    1.0423808   -7.6347539    147.16602  0.022837682  0.023071627            8 
  538000    1.0645386   -7.6902249    146.70951  0.022724522  0.023054369            3 
  539000    1.0384457   -7.6574698    147.36023  0.022782967  0.023037064            2 
  540000    1.0549497   -7.6688154    147.27954  0.022728325  0.023019784            2 
  541000    1.0451438   -7.6680268    147.74594  0.022758155  0.023002538            4 
  542000   0.99814509   -7.6885241    147.28053  0.022644608  0.022985018            2 
  543000    1.0400339   -7.6733866    147.90838   0.02269926  0.022967502            3 
  544000    1.0403972   -7.7170925    147.43336  0.022584767  0.022949826            3 
  545000    1.0664006   -7.6591249    148.03846  0.022635851    0.0229328            2 
  546000     1.036909   -7.7053386    148.16234  0.022613299  0.022915791            1 
  547000     1.033447    -7.652778    148.72373  0.022657485  0.022898596            1 
  548000    1.0553591   -7.7398101    148.20925  0.022537903  0.022881175            2 
  549000    1.0256949   -7.6909476    148.99132  0.022615562   0.02286382            2 
  550000    1.0172505   -7.7358062    148.43236  0.022489751  0.022846149            6 
  551000    1.0551212   -7.6673254    149.52238   0.02261379  0.022828986            5 
  552000    1.0442328   -7.6924409    149.26064  0.022533309  0.022811934            4 
  553000    1.0400134   -7.6746641    149.40081  0.022513684  0.022795035            6 
  554000    1.0428176   -7.6874746    149.93664  0.022553646  0.022778048            3 
  555000    1.0393786   -7.6396753    150.14493  0.022544284    0.0227611            5 
  556000    1.0265955   -7.6653118    149.98351  0.022479543  0.022743995            9 
  557000    1.0482703   -7.7154813       149.83  0.022416217   0.02272689            2 
  558000    1.0190371   -7.7062419    150.07366  0.022412434  0.022709093            1 
  559000    1.0271434   -7.7317559    150.20667  0.022392169  0.022691125            2 
  560000    1.0447279    -7.769249    149.56865   0.02225724  0.022673344            3 
  561000    1.0080157   -7.7111804     150.2285  0.022315583  0.022655237            3 
  562000    1.0181983   -7.7396337    149.85066  0.022219849  0.022636998            3 
  563000    1.0114142   -7.6774064    150.89819  0.022335433  0.022618699            2 
  564000    1.0302447   -7.6954113    150.11278  0.022179784  0.022600469            4 
  565000    1.0171407   -7.6933661    150.47092  0.022193352  0.022582054            6 
  566000    1.0199728   -7.6999752    150.78414  0.022200256  0.022563804            2 
  567000    1.0501142   -7.6887229    150.64057  0.022140002  0.022545646            7 
  568000    1.0266928   -7.6945895    151.03926  0.022159515  0.022527168            7 
  569000    1.0352472   -7.7080762    151.22776  0.022148177  0.022509228            5 
  570000    1.0339405   -7.7001048    152.02217  0.022225463  0.022491435            2 
  571000    1.0222069   -7.7237556    151.45393  0.022103609  0.022473579            5 
  572000     1.040326   -7.7163584    152.00424   0.02214514  0.022455392            2 
  573000    1.0305158   -7.7025428    151.92602  0.022095116  0.022437226            2 
  574000    1.0310674   -7.6801151    152.63314  0.022159283  0.022419265            6 
  575000      1.01297   -7.7339198    151.90684  0.022015484  0.022401278            2 
  576000    1.0055984   -7.7019049    152.33589  0.022039336  0.022383063            3 
  577000    1.0349652   -7.7073226    152.20594  0.021982371  0.022364609            3 
  578000    1.0107757   -7.7051354    152.69967  0.022015523  0.022346438            4 
  579000    1.0057406   -7.7342504    152.89163  0.022005128  0.022328102            2 
  580000    1.0367331   -7.6963627    153.21501  0.022013651  0.022309812            1 
  581000    1.0040737   -7.7303611    153.56416  0.022025841  0.022291933            4 
  582000    1.0237701    -7.760247    152.77054  0.021874361  0.022273691            9 
  583000    1.0151207   -7.7400056    153.48474  0.021938928   0.02225532            3 
  584000    1.0180033   -7.7342121     153.3407  0.021880807  0.022236523            2 
  585000     1.029638    -7.690768    153.70819  0.021895753  0.022218023            6 
  586000    1.0406607   -7.7214699    153.34745   0.02180709  0.022199619            3 
  587000    1.0125703   -7.7713933    153.28803  0.021761503  0.022180984            3 
  588000    1.0276428   -7.7414861    154.01008  0.021826825  0.022162485            6 
  589000    1.0244154   -7.7270139    154.60063   0.02187332  0.022144486            2 
  590000   0.98977872   -7.7549987     154.2252  0.021783221  0.022126465            4 
  591000    1.0294608   -7.7199731    154.78813  0.021825738  0.022108352            1 
  592000    1.0213308    -7.748013    155.07666  0.021829485  0.022090883            8 
  593000   0.99461721   -7.7366524    154.90916  0.021769134  0.022072727            3 
  594000    1.0051852   -7.7094372    155.30039  0.021787372   0.02205478            3 
  595000    1.0189793   -7.7424638    155.35788  0.021758806  0.022037193            3 
  596000      1.00543   -7.7061257    155.55383  0.021749696  0.022019621            3 
  597000    1.0195726   -7.7063861    156.15655  0.021797397  0.022002164            2 
  598000    1.0209954   -7.7297578     155.7337   0.02170202  0.021984619            2 
  599000    1.0573102   -7.7193643    155.69054  0.021659786  0.021966755            3 
  600000    1.0379665   -7.7297557    156.49522  0.021735448  0.021948975            1 
  601000   0.98311448   -7.7274561    156.09757  0.021644144  0.021931412            4 
  602000      1.01897   -7.7279456    156.12658  0.021612206   0.02191343            1 
  603000    1.0103497    -7.738465     156.4889  0.021626437  0.021895604            1 
  604000    1.0276891    -7.751444    156.63107  0.021610247  0.021877976            2 
  605000     1.013877   -7.7597169    156.81781  0.021600249  0.021860597            2 
  606000   0.99439837   -7.7289547     157.9164  0.021715677  0.021843591            5 
  607000   0.99069465   -7.7331488     158.1079  0.021706191   0.02182675            6 
  608000    1.0083049   -7.7479021    158.05731  0.021663557  0.021810189            2 
  609000    1.0218059     -7.80393    157.78669  0.021590953  0.021793378            4 
  610000    1.0188859   -7.7321596    158.58469  0.021664575  0.021776732            1 
  611000    1.0011263   -7.7675742    158.58661  0.021629379  0.021760093            4 
  612000    1.0062915   -7.7538946    158.52044  0.021585028  0.021743644            2 
  613000    1.0097998    -7.783838    158.55674   0.02155475  0.021726986            2 
  614000    1.0277015   -7.7603547    158.80244  0.021552992  0.021710823            2 
  615000    1.0090283   -7.7088651    159.15606  0.021565862  0.021694588            2 
  616000    1.0056109   -7.7515731    159.14952  0.021529968  0.021678252            2 
  617000    1.0087875   -7.8033707    159.05904  0.021482853  0.021661776            5 
  618000     0.986857   -7.7813559    159.42455  0.021497378  0.021645175            3 
  619000    1.0024967   -7.7647682    160.26238  0.021575442  0.021628935            7 
  620000    1.0314858   -7.7802456     159.9101  0.021493293  0.021612708            5 
  621000   0.97596808   -7.7818567    160.03415  0.021475329  0.021596293            4 
  622000    1.0019221   -7.7519605    160.25412  0.021470273  0.021579855            4 
  623000   0.99143751    -7.773388    160.43219  0.021459629  0.021563391            2 
  624000    1.0066211   -7.7544831    160.47999  0.021431623  0.021547271            2 
  625000    1.0004762    -7.778067      160.034  0.021337866  0.021531301            2 
  626000   0.96741005   -7.7857034    161.05828  0.021440133  0.021515201            1 
  627000   0.98587602   -7.7519155    161.06154  0.021406372   0.02149944            7 
  628000    1.0145341   -7.7869669    161.95108  0.021490323  0.021483403            1 
  629000   0.99952441   -7.7681895    161.77745  0.021433155  0.021467493            2 
  630000    1.0077345   -7.7947063    161.67377   0.02138542  0.021451626            9 
  631000   0.99889072   -7.7871154    161.28496   0.02130018  0.021435528            4 
  632000   0.98563556   -7.7863762    161.83854   0.02133947  0.021419291            2 
  633000    1.0089919   -7.7998478     161.7774  0.021297709  0.021402915            1 
  634000     1.004244   -7.7843587     162.1061  0.021307321  0.021386691            3 
  635000    1.0142888   -7.7671132    161.94967  0.021253237  0.021370344            5 
  636000    1.0072996    -7.837183    161.89686  0.021212901  0.021353917            6 
  637000   0.99244021   -7.7881009    161.97717  0.021190105  0.021337583            5 
  638000     0.995054   -7.8082551    162.66157  0.021246286  0.021321039            9 
  639000   0.99517269    -7.770333    162.51498   0.02119392  0.021304803            7 
  640000   0.99712315   -7.8155169     162.8581  0.021205482  0.021288575            6 
  641000   0.98675367   -7.8061666    162.61568  0.021140884  0.021272322            3 
  642000    1.0005888   -7.7788287    162.99481  0.021157167  0.021255831            3 
  643000   0.99800347   -7.8324067     162.8957  0.021111418  0.021239429            4 
  644000   0.98430471   -7.7654313    162.90806  0.021080235  0.021222873            1 
  645000    1.0116618   -7.7661782    163.23557  0.021089867  0.021206447            4 
  646000    0.9787883   -7.7782847    163.74909  0.021123464  0.021189795            4 
  647000   0.98555744   -7.8215625    163.39535  0.021045254  0.021173462            3 
  648000    1.0030828   -7.7787093    163.59528  0.021038487  0.021156825            2 
  649000   0.97494847   -7.8301441    163.13429  0.020946879  0.021140156            4 
  650000    1.0031142   -7.7780025    163.58826  0.020972854  0.021123515            4 
  651000     1.005467   -7.7756889     164.0531  0.021000141  0.021107022            3 
  652000    1.0220177   -7.7917351    164.62806  0.021041419  0.021090642            1 
  653000   0.98159785   -7.7827348     164.2911  0.020966195  0.021074432            1 
  654000    0.9938926   -7.7851698    164.63079  0.020977419  0.021058165            3 
  655000   0.98848242   -7.7928026    164.88658  0.020977936  0.021042134            1 
  656000   0.96384035   -7.7734689    164.97888  0.020957683  0.021026114            5 
  657000    1.0005263   -7.7852444    165.12514  0.020944335  0.021009942            2 
  658000   0.99689222   -7.8208397    165.47543  0.020956868  0.020993888            5 
  659000   0.99638693   -7.8048394    165.65827  0.020948188  0.020978187            2 
  660000   0.98967155   -7.8006478      165.648  0.020915151  0.020962486            2 
  661000   0.98753037   -7.8043084    165.87496  0.020912123  0.020946785            3 
  662000    1.0117165    -7.825379    165.75394  0.020865299  0.020930815            8 
  663000    0.9874099   -7.8147923    166.13278  0.020881446  0.020914865            2 
  664000   0.99859349   -7.7895902     166.1058  0.020846612  0.020899045            1 
  665000   0.99265082   -7.8075508    166.37878  0.020849472  0.020883347            2 
  666000   0.98971553   -7.7778401    166.70063  0.020858437  0.020867924            2 
  667000   0.99556269   -7.8170229    166.50249   0.02080241  0.020852476            3 
  668000    0.9701308   -7.8309827    167.05812  0.020840584  0.020837038            3 
  669000    1.0010295   -7.8174698    167.47042   0.02086079  0.020821517            5 
  670000    0.9908904   -7.7867689    167.30018   0.02080848  0.020806092            6 
  671000    0.9805148   -7.8201999    167.58051  0.020812284  0.020790544            4 
  672000   0.97390048   -7.7804421    167.81187  0.020810003  0.020774939            1 
  673000   0.99077439   -7.8582127    166.98521  0.020676723  0.020759593            7 
  674000   0.98029866   -7.8196483    167.55132  0.020716039   0.02074382            2 
  675000    1.0129228   -7.7989241    167.67584  0.020700721  0.020728204            4 
  676000    1.0029683   -7.7975703    168.11721  0.020724508  0.020712876            3 
  677000   0.96680912   -7.8368085    167.73505  0.020646855  0.020697381            4 
  678000   0.98646114   -7.8185344    168.26728  0.020681819  0.020681695            2 
  679000   0.99910822   -7.8438228    168.14079  0.020635836  0.020666103            9 
  680000   0.97184564   -7.8433232    168.19726   0.02061241  0.020650595            5 
  681000   0.98727734   -7.8440435    168.46167  0.020614497  0.020634953            2 
  682000   0.97738768   -7.8746859    168.30989  0.020565724   0.02061931            2 
  683000   0.98384811   -7.8619217    168.01268  0.020499351  0.020603583            3 
  684000   0.97639883   -7.8415747    168.51115  0.020530111  0.020587842            3 
  685000   0.97519912   -7.8059292    169.04588  0.020565192  0.020572187            4 
  686000   0.97181853   -7.8800617    168.78492  0.020503513  0.020556399            2 
  687000   0.96598165   -7.8772915    168.44833  0.020432839  0.020540367            3 
  688000   0.97788525   -7.8439866    169.56271  0.020538119   0.02052432            2 
  689000   0.98121301   -7.8550421    169.16742  0.020460501  0.020508654            4 
  690000   0.97537467   -7.8517741    169.23322  0.020438795  0.020492693            3 
  691000   0.99402522   -7.8654126    169.45973  0.020436533  0.020476666            4 
  692000   0.99145691   -7.8322668    169.05688  0.020358487    0.0204607            3 
  693000    0.9856806   -7.8962324    169.69195  0.020405478   0.02044468            3 
  694000   0.98354644   -7.8490663    169.47259  0.020349734  0.020428611            4 
  695000   0.96701408   -7.8315702    169.67635  0.020344886   0.02041259            2 
  696000   0.98302556   -7.8609413     169.8153  0.020332292  0.020396901            3 
  697000   0.97625413   -7.8390613    170.82441   0.02042377  0.020381008           10 
  698000   0.97917882   -7.8413423    170.59452  0.020367063  0.020365108            1 
  699000   0.97870963   -7.7965173    170.63492  0.020342742  0.020349543            3 
  700000   0.94800839   -7.8474503    170.65993  0.020316659   0.02033402            7 
  701000   0.99895676   -7.8458507    170.81143  0.020305685  0.020318192            6 
  702000   0.96508541   -7.8489753    170.18878  0.020202846  0.020302452            3 
  703000    0.9720863   -7.8222728    171.29097  0.020304762  0.020286465            2 
  704000   0.96622862   -7.8371533    170.95455  0.020236097  0.020270776            3 
  705000   0.97234439   -7.8044514    171.38029  0.020257717  0.020255124            5 
  706000   0.99188425   -7.8678947     170.5497  0.020130984  0.020239305            2 
  707000   0.96005841   -7.8542963    170.91745  0.020145857   0.02022316            5 
  708000   0.96617905   -7.8530569    171.36203   0.02016973  0.020207172            5 
  709000   0.96167981   -7.8644055    171.17626  0.020119448  0.020191137            2 
  710000    0.9566397   -7.8584412    171.29714  0.020105298    0.0201752            3 
  711000   0.96172298   -7.8215565    172.24126  0.020187677  0.020159505            2 
  712000   0.97440011   -7.8406711    172.15881  0.020149673  0.020143754            3 
  713000   0.97301048   -7.8368483    172.46912  0.020157681  0.020128068            4 
  714000   0.97494629   -7.8407361    172.40068  0.020121462  0.020112402            5 
  715000   0.97085763    -7.842464    172.45011   0.02009908  0.020096766            5 
  716000   0.96747981   -7.8638475    172.68768  0.020098659  0.020081237            3 
  717000   0.96255385   -7.8504869    172.21641  0.020015854  0.020065575            3 
  718000   0.96592228   -7.8714351     172.7858  0.020054063  0.020049807            2 
  719000   0.95609483   -7.8258185     172.8548  0.020034167  0.020034261            6 
  720000   0.95487198   -7.8501528    172.57641  0.019974122  0.020018668            1 
  721000   0.97014882   -7.8855839    172.80824  0.019973213  0.020003056            3 
  722000   0.97447088    -7.892167     173.0982  0.019979017  0.019987518            3 
  723000   0.95673874    -7.871529    173.28663  0.019973101  0.019972019            4 
  724000   0.96448416   -7.9002474    173.16719  0.019931767   0.01995637            2 
  725000   0.94407756   -7.8490731    173.45538  0.019937401  0.019940594            2 
  726000   0.96674632   -7.8815827    173.23498   0.01988464  0.019924817            4 
  727000   0.99029082   -7.8642897    173.72539  0.019913502  0.019908889           10 
  728000    0.9578622   -7.9086308    173.57912  0.019869405  0.019892984            2 
  729000   0.96195163   -7.9133234    173.66563  0.019852038  0.019877105           24 
  730000   0.96406196   -7.8927918     173.8521   0.01984613  0.019861566            3 
  731000    0.9866493   -7.8663848     174.8779  0.019935921  0.019846131            9 
  732000   0.96357004   -7.8712898    174.05013   0.01981445  0.019830665            2 
  733000   0.97295696   -7.8656585    174.06511  0.019789121  0.019815308            6 
  734000   0.95536975   -7.8548019    174.61843  0.019824981  0.019799739            4 
  735000   0.95389963   -7.9032302    174.19394   0.01974988  0.019784143            7 
  736000   0.95459175   -7.8652865     174.6829  0.019778408  0.019768495            2 
  737000   0.96139257   -7.8701975     175.3208  0.019823699  0.019753029            1 
  738000   0.96036305   -7.9031149     175.2821  0.019792469  0.019737544            2 
  739000   0.97902951   -7.8856353    174.98275  0.019731929   0.01972211            3 
  740000   0.94053194   -7.9006096    174.53691  0.019655058  0.019706326            3 
  741000   0.96558173   -7.8822905    174.74483  0.019651915  0.019690498            2 
  742000   0.96052288   -7.8688819    174.96623  0.019650295  0.019674277            3 
  743000    0.9672524   -7.8826623    174.72331  0.019596602  0.019658116            5 
  744000   0.95682626   -7.9235535    174.58186   0.01955442  0.019641892            3 
  745000   0.95739831   -7.9180281    174.97551  0.019572205  0.019625549            2 
  746000    0.9597259   -7.8984941    174.91237  0.019538915  0.019609495            4 
  747000   0.95022975   -7.9392741     174.5176   0.01946872  0.019593412            3 
  748000   0.96808564   -7.9254802    175.25999    0.0195254  0.019577271            4 
  749000   0.95321368   -7.8975481    175.45159  0.019520648    0.0195612            4 
  750000   0.96143821   -7.8573091    175.65784  0.019517537  0.019545115            4 
  751000    0.9473691   -7.9425806    174.88111   0.01940536  0.019528714            2 
  752000   0.97103137   -7.8883789    175.99925  0.019503463  0.019512434            7 
  753000   0.94896751   -7.9114333    175.65919  0.019439928   0.01949618            3 
  754000   0.93387998   -7.9261648     175.6611  0.019414357  0.019479775            4 
  755000   0.94554533   -7.8991869    175.76311  0.019399902  0.019463443            2 
  756000    0.9444858    -7.898458    175.82878  0.019381479   0.01944719            2 
  757000   0.96565082   -7.8888119    175.84621  0.019357795  0.019430928            4 
  758000   0.97430366   -7.9104334    175.82037  0.019329417  0.019414705            4 
  759000   0.95037272    -7.915804    175.75482  0.019296752  0.019398363            3 
  760000    0.9523171   -7.9220043    175.63981  0.019258751  0.019381989            4 
  761000   0.96748184   -7.9536343    175.37736  0.019204705  0.019365441            4 
  762000   0.95023866   -7.9356778    175.90794  0.019237527  0.019348984            3 
  763000    0.9411972   -7.9267052    175.95531  0.019217487  0.019332331            2 
  764000   0.97426807   -7.9241423    175.85185  0.019181048  0.019315595            2 
  765000   0.93273283   -7.9446182     176.3149  0.019206416  0.019298941            2 
  766000    0.9490662   -7.9397051    176.21049  0.019169983  0.019282309            2 
  767000   0.94525607   -7.9387261     176.1542  0.019138875  0.019265833            5 
  768000   0.95841566   -7.9071225    176.27597  0.019127167   0.01924935            3 
  769000   0.96189445   -7.9240308    176.78946  0.019157938  0.019232963            3 
  770000   0.94542349   -7.9634926    176.84688  0.019139273  0.019216572            4 
  771000   0.93471301   -7.9169384    177.19117  0.019151661  0.019200397            3 
  772000    0.9397622   -7.9297791    177.10006  0.019117018    0.0191841            2 
  773000   0.96291686   -7.9419898    177.13377  0.019095922  0.019167854            6 
  774000   0.94236313   -7.9117609    177.59689  0.019121112  0.019151744            2 
  775000   0.95702163   -7.9001659    177.75827  0.019113792  0.019135672            6 
  776000   0.94902663   -7.9493873     177.1705  0.019026041  0.019119447            3 
  777000    0.9505791   -7.9337184    177.50567  0.019037503  0.019103203            3 
  778000   0.94254537   -7.9132538    177.52959  0.019015595  0.019087042            6 
  779000   0.94206141   -7.9253977    177.59702  0.018998397   0.01907093            7 
  780000    0.9355833   -7.9346182     177.8078   0.01899656  0.019054727            5 
  781000   0.94352582    -7.953688    178.12151  0.019005709  0.019038667            6 
  782000   0.93033169   -7.9516536    178.07484  0.018976433  0.019022483            4 
  783000   0.95026947   -7.9703447    178.07762  0.018952492  0.019006511            2 
  784000   0.93148248   -7.9512197     178.5156  0.018974873  0.018990501            5 
  785000   0.93700291   -7.9188589      179.007  0.019002866  0.018974607            6 
  786000   0.94550505   -7.9417294    178.74734   0.01895116  0.018958629            3 
  787000   0.94536349   -7.9297384    178.57331  0.018908652  0.018942684            8 
  788000   0.94714758    -7.967202    178.08021  0.018832509  0.018926595            6 
  789000   0.95171377   -7.9268503    179.15592  0.018922256  0.018910752            8 
  790000   0.93307132     -7.91297    178.93628  0.018875135  0.018895012            4 
  791000   0.95591642   -7.9486233    178.80243  0.018837172  0.018879217            8 
  792000   0.93127627   -7.9407341    179.42599  0.018878998  0.018863344            6 
  793000   0.93454306   -7.9696582    179.34903  0.018847102   0.01884739           11 
  794000   0.91014535     -7.99272    178.89629  0.018775849  0.018831344            3 
  795000   0.93449492   -7.9671064    179.02304  0.018765517  0.018815303            3 
  796000   0.96111102   -7.9698931    179.34204   0.01877534  0.018799306            3 
  797000   0.93947736   -7.9661031     179.6175  0.018780584  0.018783371            6 
  798000   0.94687678   -7.9620341    179.69189  0.018764818  0.018767475            6 
  799000   0.91992499   -7.9678267    179.60465  0.018732233  0.018751626            4 
  800000   0.95286473    -7.957105    179.60122   0.01870846  0.018735794            2 
  801000   0.92756196   -7.9776115    179.61491  0.018686529  0.018719802            2 
  802000   0.94788611   -7.9806157    179.77342  0.018679699  0.018703735            7 
  803000   0.91987215    -7.973712    179.59767  0.018638197  0.018687538            2 
  804000   0.92888889   -7.9717889    180.12011  0.018669166  0.018671434            4 
  805000   0.91214147    -7.967571     180.0923  0.018643095  0.018655384            4 
  806000   0.93040173   -7.9836321    179.57415  0.018566393  0.018639376            3 
  807000    0.9180207   -7.9900023    180.10572  0.018598277  0.018623235            3 
  808000   0.94030271   -7.9834366    179.52018   0.01851487  0.018606932            2 
  809000   0.92866669   -7.9789867    180.41242  0.018583891  0.018590849            5 
  810000   0.90981324   -7.9625483     180.0954  0.018528333  0.018574686            2 
  811000   0.92309793   -7.9858349    180.53036  0.018550181  0.018558825            2 
  812000    0.9246354   -7.9685706    180.39594  0.018513541  0.018542786            3 
  813000   0.93409282   -7.9520231    180.92909  0.018545417  0.018526881            3 
  814000   0.94006432   -7.9952578    180.38539  0.018466973  0.018510865            3 
  815000   0.93642394   -7.9600057      180.951  0.018502147  0.018494965            8 
  816000   0.92735349   -7.9840599    180.49791  0.018433202  0.018478922            3 
  817000   0.94501365    -7.981265    180.04392  0.018364333  0.018462728            4 
  818000   0.92847106    -7.993243    180.83962  0.018422944  0.018446505            2 
  819000   0.92119607   -8.0011154    180.24918  0.018340373  0.018430213           11 
  820000   0.94270985   -8.0142361    180.54636  0.018348207  0.018413897            6 
  821000   0.93167332   -8.0073093    181.06741  0.018378746  0.018397603            6 
  822000    0.9261987   -7.9949196    181.22429  0.018372292   0.01838159            3 
  823000   0.93846439   -8.0199337      180.758  0.018302754  0.018365531            2 
  824000   0.93656728   -8.0415451    180.83502  0.018288331  0.018349402            3 
  825000   0.93460153   -7.9958795    181.09677  0.018292604  0.018333253            3 
  826000   0.91276346   -7.9975299    181.23631  0.018284535   0.01831735            4 
  827000   0.93903484   -7.9358487    181.25081  0.018263887  0.018301442            4 
  828000   0.90473407   -7.9591816    181.96441  0.018313648  0.018285863            5 
  829000   0.93827855   -7.9955116    181.87225  0.018282293  0.018270208            5 
  830000   0.91565172   -7.9765563    182.19673  0.018292844  0.018254453            2 
  831000   0.91534258   -8.0035113    181.84389  0.018235449  0.018238776            5 
  832000   0.92545895   -7.9730801    182.05392  0.018234568  0.018223059            6 
  833000   0.92930009   -8.0054252    182.34733   0.01824203  0.018207269            2 
  834000   0.92132543   -7.9944263    182.44175  0.018229591  0.018191589            3 
  835000    0.9318561   -8.0417845    182.28632  0.018192248  0.018176004            4 
  836000   0.91998411   -7.9923904    182.79989  0.018221679  0.018160271            9 
  837000   0.91480188   -8.0292576    182.08877  0.018129108  0.018144489            2 
  838000     0.921794   -8.0306003    181.80383   0.01807914  0.018128697            8 
  839000   0.92405868   -7.9982651    182.73444  0.018150024  0.018112752            2 
  840000    0.9183294    -7.996478    182.74792  0.018129754  0.018096935            4 
  841000   0.90948136   -8.0027433    183.43466  0.018176245  0.018081257            6 
  842000    0.9016439   -8.0444686    182.76068  0.018087953  0.018065664            3 
  843000    0.9225458   -7.9780583    183.24116  0.018113994  0.018050182            2 
  844000   0.90841654   -8.0187339    183.00471  0.018069186  0.018034725            4 
  845000   0.90184447   -8.0232869    183.50426  0.018097067  0.018019248            1 
  846000   0.93259747   -8.0129437    182.90554    0.0180167  0.018003843            2 
  847000   0.93565717   -8.0020888    183.94326  0.018097527  0.017988421            5 
  848000   0.90813365   -7.9858469    183.95565  0.018077402  0.017973025            4 
  849000   0.90194684   -8.0043577     183.8148  0.018042285  0.017957623            4 
  850000    0.9219391   -8.0065922     183.5641  0.017996481  0.017942142            2 
  851000   0.90703963   -8.0481324    183.01369  0.017921435  0.017926615            3 
  852000   0.94670013   -8.0607648    183.22309  0.017920881  0.017910981            7 
  853000   0.92328118   -8.0727206    183.19654  0.017897279  0.017895416            2 
  854000   0.92674813   -7.9955808    183.86192  0.017941249  0.017879858            5 
  855000   0.91509425   -7.9864813    184.56938  0.017989218  0.017864537            7 
  856000   0.89769164   -8.0043017    184.38757  0.017950503  0.017849426            4 
  857000   0.90833825   -8.0374919    184.11818  0.017903363  0.017834263            3 
  858000   0.90568691    -8.032066    184.41314  0.017911144  0.017818923            4 
  859000   0.91846378   -8.0109105    184.82671  0.017930414  0.017803754            5 
  860000   0.89531158   -8.0376566    184.28656  0.017857225  0.017788532            3 
  861000   0.89654911   -8.0122451    184.48847  0.017856027  0.017773227            2 
  862000   0.89877609   -8.0444895    184.78568  0.017864044  0.017758092            6 
  863000   0.90106058   -8.0073296    184.76025  0.017840889  0.017742845            7 
  864000   0.91880698   -8.0406686    185.06678  0.017849805  0.017727556            4 
  865000   0.89714468   -7.9957426    185.35619  0.017857051  0.017712503            4 
  866000   0.89711715   -7.9828787    185.17051  0.017818563  0.017697417            4 
  867000   0.89805342   -8.0385806    184.59224   0.01774243  0.017682259            5 
  868000    0.9184516   -8.0237362    184.88648  0.017750238  0.017667067            7 
  869000   0.89657447   -8.0752359    184.78646   0.01772022  0.017651831           10 
  870000   0.90058047   -8.0816037    184.89427  0.017710179  0.017636507            6 
  871000   0.89043895   -8.0897235    184.79654  0.017680496  0.017621128            5 
  872000   0.91767545    -8.080731    184.96849  0.017676652  0.017605752            3 
  873000   0.91918217   -8.0378782    185.55691  0.017712572  0.017590538            2 
  874000   0.91385737   -8.0240158    185.40335  0.017677665  0.017575396            6 
  875000   0.90105274   -8.0422191    184.98057  0.017617197  0.017560191            3 
  876000   0.91085014   -8.0353094     185.8739  0.017682068  0.017544856            3 
  877000   0.88498703   -8.0793694    185.29262  0.017606672  0.017529593            3 
  878000   0.90455491   -8.0581857    185.60328  0.017616104  0.017514248            4 
  879000   0.90451568   -8.0518326    185.33575    0.0175707  0.017498846            7 
  880000   0.90376314   -8.0488517    185.38895  0.017555772  0.017483419            8 
  881000   0.90191197    -8.049757    185.48705  0.017545124   0.01746808            5 
  882000   0.90495609    -8.050409     185.8843  0.017562765   0.01745287            9 
  883000   0.88801109   -8.0683219    185.65708  0.017521431  0.017437692            4 
  884000   0.90226877   -8.0735554    185.55624  0.017492104   0.01742241            5 
  885000   0.90483684   -8.0742358    185.69095  0.017485024  0.017407123            4 
  886000   0.89625283   -8.0571354    185.52597  0.017449772  0.017391792            9 
  887000   0.90958166    -8.060475    185.69342  0.017445831  0.017376456            9 
  888000    0.9006752   -8.0754003    185.59657  0.017417096  0.017361126            5 
  889000   0.89088161   -8.1047141     185.1351  0.017354246  0.017345667            4 
  890000   0.90567097   -8.0708504    185.38344     0.017358  0.017330192            1 
  891000   0.89609444   -8.0605438     185.8748  0.017384475  0.017314621            1 
  892000   0.88792208   -8.1080557    185.46854  0.017327031  0.017299099            6 
  893000   0.88817975   -8.1047511     185.9408  0.017351699  0.017283612            5 
  894000   0.90577769   -8.0341157    186.11123  0.017348176  0.017268253            2 
  895000   0.88675402   -8.0857615    185.91376  0.017310406  0.017252866            2 
  896000     0.889077     -8.04831    186.18836  0.017316626  0.017237492            2 
  897000   0.87821994   -8.0657997    186.49856  0.017326139  0.017222284            4 
  898000      0.89992   -8.0519158    186.75074  0.017330247  0.017207242            4 
  899000   0.89381277   -8.0997483    186.25625  0.017265133  0.017192156            6 
  900000   0.90515223   -8.0736151     186.8088  0.017297112  0.017176926            8 
  901000   0.91122552   -8.0563643    186.52532  0.017251694  0.017161721            5 
  902000   0.90602402   -8.0336408    187.49885   0.01732251   0.01714659            2 
  903000   0.86994102   -8.0699574     186.5613  0.017216805   0.01713139            6 
  904000   0.88628912   -8.1115187     186.3847   0.01718148  0.017116131            3 
  905000   0.88419115   -8.0832574    187.21222  0.017238694   0.01710093            8 
  906000   0.88686394   -8.0793866    187.20193   0.01721872  0.017085864           12 
  907000   0.89573755   -8.0668995    186.94501  0.017176131  0.017070765            4 
  908000   0.89061329   -8.1029808    186.84648  0.017148172  0.017055578            7 
  909000   0.91557072   -8.1233497    187.08752  0.017151405  0.017040439            6 
  910000   0.88960785    -8.077925    187.68584  0.017187348  0.017025335            3 
  911000   0.87643926   -8.0933189    187.07481  0.017112587  0.017010233            4 
  912000   0.91732182   -8.1189559    187.06842   0.01709324  0.016995221            5 
  913000   0.89648385   -8.0566391    187.65123  0.017127714  0.016980326            2 
  914000   0.87647726   -8.0912599    187.34658  0.017081198  0.016965346            9 
  915000   0.89546178   -8.0770248    187.75822   0.01710002  0.016950446            4 
  916000   0.88403293   -8.0773818    187.92193  0.017096245  0.016935479            2 
  917000   0.89245928   -8.0748534      187.788  0.017065431  0.016920568            4 
  918000   0.89164332   -8.0895104    187.52925  0.017023352  0.016905662           10 
  919000   0.89639756   -8.0941883    187.62192  0.017013232  0.016890699            3 
  920000   0.87277104   -8.1001145    187.65017  0.016997298  0.016875718            5 
  921000   0.88694354   -8.0749062     188.1429  0.017023426   0.01686077            9 
  922000   0.88320283   -8.0914824    188.39636   0.01702787     0.016846            7 
  923000   0.87509303   -8.1445947    187.89869   0.01696449  0.016831114           11 
  924000   0.88529943    -8.123156    188.52948  0.017003019  0.016816279            4 
  925000   0.89472595   -8.1712017    188.12268  0.016947989  0.016801326            8 
  926000    0.9117516     -8.14758    188.08095  0.016925932  0.016786419            6 
  927000   0.88147963   -8.0948098     188.2319  0.016921242  0.016771465            4 
  928000   0.88561856    -8.095419    187.90585   0.01687373  0.016756616           14 
  929000   0.88933134   -8.1155248    187.94081  0.016858702  0.016741693            3 
  930000   0.89947048   -8.1323526    188.17697  0.016861736  0.016726882            4 
  931000   0.88003785   -8.0974779    188.19914  0.016845609  0.016711974            3 
  932000     0.876455   -8.1152472    188.67528  0.016870107  0.016697016            6 
  933000   0.88984964   -8.1004794    188.81889  0.016864853  0.016682177            3 
  934000    0.8803373   -8.1484554     188.3995  0.016809378  0.016667306            4 
  935000   0.88856314   -8.1094037    188.69004  0.016817294  0.016652488            6 
  936000   0.88643868    -8.124689    188.83746  0.016812452  0.016637665            6 
  937000   0.87835623   -8.1165965    188.57065   0.01677078  0.016622812            7 
  938000   0.87420542   -8.1351588    188.53978  0.016750158  0.016607995            5 
  939000   0.87844793   -8.1332759    189.12577  0.016784325  0.016593287            8 
  940000   0.86116321   -8.1576473    188.65561  0.016724788   0.01657858            5 
  941000   0.87690018   -8.1766781    188.58672  0.016700914  0.016563758            6 
  942000   0.87074182   -8.0982363    189.04204  0.016723464  0.016549173            2 
  943000   0.88115916    -8.108206    189.48312  0.016744708  0.016534619           11 
  944000   0.87089933   -8.1360132    189.30044  0.016710844  0.016520253            8 
  945000   0.89069019   -8.1252786     189.7403  0.016731949  0.016505802            4 
  946000   0.89238666   -8.1420319    189.79447  0.016719034  0.016491385            4 
  947000   0.87905681   -8.1375634    189.48842  0.016674447  0.016476998            4 
  948000   0.86581213   -8.1143809    190.30562  0.016728694   0.01646276            3 
  949000    0.8864452   -8.1591872      189.656  0.016654022  0.016448439            3 
  950000   0.86787476   -8.1753024    189.96831  0.016663887  0.016434031            3 
  951000   0.88581537   -8.1554572    190.14445  0.016661799  0.016419546           23 
  952000   0.86296793   -8.1375179    189.75182  0.016609928  0.016405241            5 
  953000   0.88219499    -8.110933    190.58892  0.016665698  0.016391059            4 
  954000   0.86399479   -8.1464824    190.25415  0.016618986  0.016376958            5 
  955000   0.90389661   -8.1151505    191.14686  0.016679482  0.016362841            3 
  956000    0.8612493   -8.1448149    190.62076  0.016616175  0.016348839            5 
  957000   0.89225691   -8.1272048    190.29991  0.016570873   0.01633478            5 
  958000   0.86437728   -8.1012173    190.68015  0.016586652  0.016320774            2 
  959000   0.85049122   -8.1148578    190.98721  0.016596039   0.01630678            4 
  960000   0.88418768   -8.1115072    190.53687  0.016539659  0.016292772            4 
  961000   0.85609566   -8.1522208    190.42747  0.016512961  0.016278612            4 
  962000   0.88102744   -8.1401222    191.06177  0.016550743  0.016264484            6 
  963000   0.87178068   -8.1467378    190.89838  0.016519417  0.016250506            5 
  964000   0.85827289   -8.1421741     190.7715  0.016491312  0.016236534            5 
  965000   0.86905905   -8.1315382    191.02681   0.01649627  0.016222507            7 
  966000   0.86124484   -8.1276434    191.10118  0.016485609  0.016208587            4 
  967000   0.88299285   -8.1603539    190.87747  0.016449282  0.016194621            7 
  968000    0.8738361   -8.1430949    190.86158  0.016430921  0.016180591            3 
  969000   0.88402153   -8.1662236    191.30992  0.016452521  0.016166572            3 
  970000   0.87590243   -8.1801272    190.50629   0.01636652  0.016152393            3 
  971000   0.84068933   -8.2035332    191.05534  0.016396785   0.01613811            3 
  972000   0.87039549   -8.1354281    191.17606  0.016390266   0.01612391            7 
  973000   0.86941604   -8.1383917    191.02633  0.016360597  0.016109802           10 
  974000   0.83893888   -8.1804587    191.03318  0.016344386   0.01609569            8 
  975000   0.86000665   -8.1667409    191.08379  0.016331948   0.01608154           10 
  976000   0.86241808   -8.1706082    191.01801  0.016309598  0.016067358            7 
  977000    0.8637858   -8.1477803    192.08669  0.016384057    0.0160533            6 
  978000   0.86269953   -8.1261057    191.41321  0.016309919   0.01603925            6 
  979000   0.85081256   -8.1592553     191.2521  0.016279546  0.016025204            6 
  980000   0.88265443    -8.150059    191.73656  0.016304129  0.016011116            5 
  981000   0.85273276   -8.1582502    191.78701  0.016291795   0.01599706            7 
  982000   0.86162812   -8.1661309    191.43804  0.016245591  0.015982981            4 
  983000   0.85574951   -8.1629463    190.94071  0.016186903  0.015968825            4 
  984000   0.86104483   -8.1566925    191.83391  0.016246097  0.015954748            1 
  985000   0.87581898   -8.2061147    191.37667   0.01619092  0.015940711            6 
  986000    0.8657886   -8.1694167    191.67128  0.016199398  0.015926649           13 
  987000   0.86522014   -8.1879461    191.89061  0.016201504  0.015912618            4 
  988000   0.86188814   -8.1994855    192.02101  0.016196104  0.015898675           28 
  989000   0.84508624   -8.1472564    192.65611  0.016233242  0.015884719           14 
  990000   0.85442141   -8.1592569     192.3242  0.016188906  0.015870814            8 
  991000   0.86923318    -8.201792    191.80628  0.016129018  0.015856894            8 
  992000   0.84550799   -8.2026342      191.622  0.016097278  0.015842944            4 
  993000   0.85905163   -8.1478843    192.38699  0.016145266  0.015829031            5 
  994000   0.85636947   -8.1894478    192.28996  0.016120889   0.01581515            3 
  995000   0.86786793   -8.1846411    192.28566  0.016104327  0.015801287            6 
  996000   0.86253505   -8.1878152    192.41019  0.016098576  0.015787437            9 
  997000   0.87768084   -8.1727091    192.28288  0.016071789  0.015773589            5 
  998000   0.86666405    -8.182941    192.42803  0.016067805  0.015759754            6 
  999000   0.84208517   -8.1661238    192.64392   0.01606973  0.015745872            8 
 1000000   0.83899109    -8.219406    192.21695  0.016018079  0.015732072            3 
 1001000   0.85279614   -8.2206608    192.40359  0.016017615  0.015718317            3 
 1002000   0.84747634   -8.1884934    192.68139  0.016024733  0.015704558            3 
 1003000   0.86714328   -8.2376736    192.81017  0.016019456  0.015690854            5 
 1004000   0.82502446   -8.2041462    192.53537  0.015980692  0.015677046           14 
 1005000   0.86248727   -8.1833083    192.88857  0.015994077  0.015663331            5 
 1006000   0.87500314    -8.174541     192.5436  0.015949602  0.015649532            3 
 1007000   0.83446762   -8.1795118    192.65917  0.015943328  0.015635786            4 
 1008000   0.84064028   -8.2002165    192.70598   0.01593138  0.015621999            4 
 1009000   0.84751561   -8.2135907    192.73765  0.015918207  0.015608164            6 
 1010000    0.8533375   -8.1929203    192.71639  0.015900693   0.01559427            6 
 1011000   0.83470494   -8.2170792    192.74145   0.01588703  0.015580465           10 
 1012000   0.85406637   -8.1821851    192.88515  0.015883165  0.015566652            5 
 1013000   0.86016147   -8.1914781     192.6285  0.015846373  0.015552963            8 
 1014000   0.83426482   -8.2027002    192.81702  0.015846237  0.015539232            5 
 1015000   0.83997252   -8.1659045    192.81227  0.015830236  0.015525416            7 
 1016000   0.85305368   -8.1648158    193.43878  0.015866042  0.015511775            7 
 1017000   0.84540989   -8.1894217     193.2709  0.015836685  0.015498269            3 
 1018000   0.85288567   -8.1836079    193.85691  0.015869099  0.015484801            6 
 1019000    0.8574535   -8.2034835    193.40692  0.015816725  0.015471293            8 
 1020000   0.83122345   -8.2398984    193.05446  0.015772423   0.01545776           14 
 1021000   0.84839312   -8.2251327    193.14826  0.015764631  0.015444063           13 
 1022000    0.8204599   -8.1926334    193.53815  0.015780997  0.015430409           17 
 1023000   0.85455425   -8.2386326    192.91747  0.015715011  0.015416698            9 
 1024000   0.81892133   -8.2337008     193.3403  0.015734074  0.015402877           10 
 1025000   0.85307401   -8.2348591    193.22234  0.015709133  0.015389138           12 
 1026000   0.82082408   -8.2618806    192.73851  0.015654525  0.015375337            8 
 1027000   0.84831076   -8.2541399    193.10311  0.015668867  0.015361562            8 
 1028000   0.82185235   -8.2054429    193.12474  0.015655378  0.015347895            6 
 1029000   0.85337989   -8.2190884    193.45488    0.0156669  0.015334216            7 
 1030000   0.84753931   -8.2480261    193.05015  0.015618944  0.015320484            4 
 1031000   0.82354144    -8.215793    193.01636  0.015601064  0.015306745            6 
 1032000     0.837066    -8.200727    193.38566  0.015615767  0.015293072            3 
 1033000    0.8306953   -8.2553537    192.89649  0.015561188  0.015279398            4 
 1034000   0.84908763   -8.2330054    193.45428  0.015591093  0.015265706            3 
 1035000   0.83786103   -8.2052295    193.66597  0.015593073  0.015252166            3 
 1036000   0.83742236    -8.201261    193.80874  0.015589506   0.01523873            3 
 1037000   0.83813014   -8.2378712    193.62591  0.015559781  0.015225206           13 
 1038000    0.8441068   -8.2181621    193.86502  0.015563986  0.015211691            9 
 1039000   0.84593534    -8.240944    193.80347   0.01554407   0.01519814            5 
 1040000   0.84405383    -8.246656    193.68444  0.015519586  0.015184562            4 
 1041000   0.83571231    -8.248101    193.68419  0.015504658  0.015170983            6 
 1042000   0.84554629   -8.2721094    193.53786  0.015478076  0.015157361            4 
 1043000    0.8359457   -8.2683953    193.74962  0.015480155  0.015143714            3 
 1044000   0.85190075   -8.2279011    193.79016  0.015468563  0.015130145            6 
 1045000   0.82699541   -8.2610993    193.81385   0.01545565  0.015116506            5 
 1046000    0.8237791   -8.2612003    194.16729  0.015469032  0.015102851            2 
 1047000    0.8254847   -8.2447201    193.65317  0.015413337  0.015089191            5 
 1048000   0.83563557     -8.23282    194.17762  0.015440332  0.015075641            7 
 1049000   0.82935254   -8.2510418     193.9407  0.015406792  0.015062163            4 
 1050000   0.83757102   -8.2577742    193.63074  0.015367519   0.01504864            8 
 1051000   0.82102153   -8.2716306    194.02461  0.015384127  0.015035153            8 
 1052000   0.84205483   -8.2613143    194.32668  0.015393432  0.015021691            4 
 1053000   0.81963027   -8.2293849    194.55679  0.015397024  0.015008246            4 
 1054000   0.84025114   -8.2539545    194.07526  0.015344343  0.014994833            7 
 1055000    0.8248446   -8.2596799    194.13512  0.015334528  0.014981419           12 
 1056000   0.81242709   -8.2669992    194.27656  0.015331168  0.014967962            3 
 1057000   0.84152107    -8.263476    194.22147   0.01531232  0.014954466            5 
 1058000   0.83656138   -8.2359044    193.85072  0.015268645  0.014940896            6 
 1059000    0.8249382   -8.2919008    194.18827   0.01528079  0.014927347            7 
 1060000   0.82946109   -8.2743109    194.21871  0.015268766  0.014913871            5 
 1061000   0.83228749   -8.2553494    194.95489  0.015312197  0.014900481            7 
 1062000   0.84277576   -8.2352435    194.39819  0.015254096  0.014887121            8 
 1063000   0.83899487   -8.2728663    194.31479  0.015233207  0.014873701            3 
 1064000   0.84072201    -8.286542    194.47587  0.015231506  0.014860207            6 
 1065000   0.81269319   -8.2802017    194.26747  0.015200897  0.014846815            7 
 1066000   0.84527605    -8.283813    194.38424  0.015195766  0.014833352            6 
 1067000   0.82958535   -8.2621147    194.43399   0.01518541  0.014819907            7 
 1068000   0.79317471   -8.3159264    194.20367   0.01515322  0.014806433           10 
 1069000   0.82917622   -8.2800842     194.9681  0.015198636  0.014792992           10 
 1070000   0.83995643   -8.2545507    194.73864   0.01516656  0.014779676            7 
 1071000   0.81964306    -8.288212    194.69414  0.015148937  0.014766391           10 
 1072000   0.81363493   -8.2956889    194.49966  0.015119688  0.014753088            7 
 1073000   0.81945114   -8.2733952    194.67339  0.015119089  0.014739792           10 
 1074000   0.82015556   -8.3135251    194.50367  0.015091843  0.014726472            2 
 1075000   0.82222799   -8.2788673    195.22454  0.015133685  0.014713128            5 
 1076000   0.82168319   -8.2841635    194.60657   0.01507176  0.014699836            4 
 1077000   0.82665499   -8.3085543    195.24965  0.015107525  0.014686563            5 
 1078000   0.81928076   -8.2576693     195.4316  0.015107576  0.014673368            8 
 1079000   0.82342865   -8.2475865    195.15474  0.015072192  0.014660216            3 
 1080000   0.83734184   -8.3014276    195.22419  0.015063595  0.014646979            5 
 1081000   0.82355331   -8.2668948    195.28574  0.015054405  0.014633807            5 
 1082000   0.81631963   -8.2683234    195.39242  0.015048708  0.014620694           12 
 1083000   0.80541489   -8.2574929    195.52747  0.015045204   0.01460761            2 
 1084000   0.81910013   -8.3049586    194.84343  0.014978738  0.014594472            3 
 1085000   0.82466859   -8.2966051    195.25033  0.014996185  0.014581367            4 
 1086000   0.82443813   -8.2966988    195.39258  0.014993292  0.014568285            6 
 1087000   0.82406765   -8.2722797    195.49862  0.014987628  0.014555104            5 
 1088000   0.81379632   -8.2922421    195.47393  0.014971961  0.014541984            8 
 1089000    0.8229298   -8.2728768    195.45239  0.014956565  0.014528817            5 
 1090000   0.82955021   -8.2628839    195.46163   0.01494355  0.014515678           10 
 1091000   0.82696687   -8.2898446     195.3003   0.01491753  0.014502584           10 
 1092000   0.81052419   -8.2805746    195.42079  0.014913064   0.01448951            6 
 1093000   0.81564769   -8.3269661    194.96407  0.014864598  0.014476386            6 
 1094000   0.84063521   -8.3156891    195.11496  0.014862505  0.014463235            6 
 1095000   0.80676126   -8.2796253    195.91692  0.014909963  0.014450151            3 
 1096000    0.8386758   -8.2850348    195.48934  0.014863849  0.014437053            7 
 1097000   0.83716273   -8.2583005    195.49255  0.014850543  0.014423987            3 
 1098000   0.79737336    -8.319435    195.24436  0.014818182  0.014410935            3 
 1099000   0.81488901   -8.2977501    195.14862  0.014797439  0.014397879            4 
 1100000    0.8057611   -8.3180556    195.11257  0.014781255  0.014384782            3 
 1101000   0.80894327   -8.3206058    195.34468  0.014785398  0.014371644            8 
 1102000   0.83473465   -8.3298736    195.23546  0.014763722  0.014358561            9 
 1103000   0.80147302   -8.3174634    195.29627  0.014754931  0.014345414            4 
 1104000   0.80716494   -8.2811941    195.48604  0.014755891   0.01433238            4 
 1105000   0.80391188   -8.3041725    195.17664  0.014719203  0.014319328            4 
 1106000   0.81471826   -8.3033781    194.91539  0.014686211  0.014306258            5 
 1107000   0.83408148   -8.3402805    195.21791  0.014695717  0.014293213            7 
 1108000   0.82562694   -8.3008614     195.2932  0.014688117  0.014280185           12 
 1109000   0.81152331   -8.3195316    195.56429  0.014695243  0.014267179           13 
 1110000   0.82005716   -8.3136995    195.19842  0.014654536  0.014254126            5 
 1111000   0.80452338    -8.318816    195.44607  0.014659921  0.014241099            7 
 1112000   0.82430736   -8.3085744    196.05562  0.014692418  0.014228122            5 
 1113000   0.79672142    -8.352607    195.35065  0.014626434  0.014215135            9 
 1114000   0.78769508   -8.3527476    195.45563  0.014621157  0.014202131            6 
 1115000   0.81978245   -8.3192727    195.48028  0.014609886  0.014189188            6 
 1116000   0.78854346   -8.3274962    195.94369  0.014631399  0.014176309            6 
 1117000   0.80833268   -8.3324358    196.27091  0.014642712   0.01416345            7 
 1118000   0.79345449   -8.2807803    196.26815  0.014629409   0.01415065            8 
 1119000    0.8077416   -8.3279529    196.07673   0.01460208  0.014137918            7 
 1120000   0.80867319   -8.3250679    196.04185  0.014586447  0.014125152           19 
 1121000   0.79864982   -8.3235023     196.3266  0.014594603  0.014112333           14 
 1122000   0.80575681   -8.3318425    196.49043  0.014593764  0.014099571            8 
 1123000   0.80766183   -8.3460717    195.72285  0.014523809  0.014086802            7 
 1124000   0.80798185   -8.3353262    196.22856  0.014548381  0.014074026            4 
 1125000   0.78982233   -8.3210082    196.25129  0.014537133  0.014061227            3 
 1126000   0.80087957   -8.3183606    196.63995  0.014552986  0.014048502            3 
 1127000   0.80715823   -8.3502792    196.02092    0.0144943   0.01403581            5 
 1128000   0.80696896   -8.3378549    196.37941  0.014507935  0.014023069           11 
 1129000    0.7908333   -8.3627887    195.92176  0.014461305  0.014010305            6 
 1130000   0.80735997   -8.3250207    196.61455  0.014499598   0.01399752            5 
 1131000    0.8009339   -8.3573303    195.83598  0.014429412  0.013984773            4 
 1132000   0.80763307   -8.3443258    196.34104  0.014453846  0.013972069           27 
 1133000   0.80863406   -8.3530353    196.67083  0.014465345  0.013959404           11 
 1134000   0.80582741   -8.3627097    196.27865  0.014423769  0.013946755            8 
 1135000   0.81111481   -8.3423949    196.26605  0.014410136  0.013934081            7 
 1136000   0.79380435   -8.3392814    196.47173  0.014412539  0.013921435            3 
 1137000   0.77743539   -8.3476685    196.20873  0.014380587  0.013908778            4 
 1138000   0.79613944   -8.3579916     196.3133  0.014375608  0.013896134            9 
 1139000   0.80310171   -8.3297028    196.36134  0.014366501  0.013883548            2 
 1140000   0.80020838   -8.3702028    196.25965  0.014346465    0.0138709            6 
 1141000   0.79610308   -8.3651838    196.56084  0.014355889  0.013858218            8 
 1142000   0.80179361   -8.3655887    196.62682  0.014348134  0.013845626            5 
 1143000   0.81285177   -8.3600188    196.22861  0.014306548  0.013832995            9 
 1144000   0.79927719   -8.3650529    196.06356  0.014282019  0.013820407           11 
 1145000    0.7899257   -8.3517929    196.60455  0.014308919  0.013807844            5 
 1146000   0.79896991   -8.3782366    196.56984  0.014293909   0.01379529            5 
 1147000   0.79673158     -8.39501    196.67354  0.014288981  0.013782798            5 
 1148000   0.79251395   -8.3825265    196.60722   0.01427172  0.013770272            7 
 1149000   0.80703005   -8.3458309    196.61998  0.014260225   0.01375774            4 
 1150000   0.78872118    -8.414189    196.09348  0.014209673  0.013745182            7 
 1151000   0.80037754   -8.4086687    196.15349  0.014201672   0.01373256           12 
 1152000    0.7732704   -8.3608885    196.95927  0.014247632  0.013719992           10 
 1153000   0.77648875   -8.3735421    196.42842  0.014196908  0.013707478            7 
 1154000   0.79016786   -8.3624262     196.6385  0.014199776  0.013694991            7 
 1155000   0.78544398   -8.3558746    196.92438  0.014208108  0.013682432            5 
 1156000   0.78573905   -8.3785153    196.42424  0.014159763  0.013669885            3 
 1157000   0.80094866   -8.4000933    196.54201  0.014156007  0.013657392            4 
 1158000   0.80277985   -8.3796319    196.99338  0.014176265  0.013644898            6 
 1159000   0.79694718   -8.3797552    196.67425  0.014141088  0.013632439            6 
 1160000   0.77309174   -8.3496387     196.4773  0.014114749  0.013620012            2 
 1161000   0.79620107   -8.3609016    196.92063  0.014134412  0.013607574            4 
 1162000   0.79615381   -8.3701957    196.63992  0.014102117  0.013595158            7 
 1163000   0.78916645   -8.3646276    196.95337  0.014112452  0.013582798           11 
 1164000   0.79283442    -8.361105    197.15688  0.014114897  0.013570446            9 
 1165000   0.78547082   -8.3558611    197.16783  0.014103564  0.013558153           11 
 1166000   0.79592564   -8.3713599    196.92434  0.014074067  0.013545848            3 
 1167000   0.81175679    -8.430176    196.62869  0.014040895  0.013533545            2 
 1168000   0.79154442   -8.3791106      197.404   0.01408419  0.013521183           10 
 1169000   0.77274098   -8.3715567    197.20451  0.014057921  0.013508869            4 
 1170000   0.80302569   -8.3908176    197.01142  0.014032152  0.013496554            7 
 1171000   0.77073677   -8.4076985    196.89428  0.014011833  0.013484268            4 
 1172000   0.79877473   -8.3785913    197.41027  0.014036567  0.013471965            4 
 1173000   0.77623897   -8.3902239    197.69765  0.014045016  0.013459742            4 
 1174000   0.78084076   -8.4131988    197.05886   0.01398771  0.013447443            5 
 1175000   0.78585397   -8.3618304    197.26552  0.013990463   0.01343522            7 
 1176000   0.78030743   -8.3947453    197.07841  0.013965307  0.013422984            3 
 1177000    0.7625728   -8.3667658    197.64738  0.013993725  0.013410769            7 
 1178000   0.79390225   -8.3714004    197.04834  0.013939469  0.013398497            6 
 1179000   0.77560611   -8.4006987    196.42365  0.013883492  0.013386137            6 
 1180000   0.77357206   -8.4021163    197.21231  0.013927423  0.013373805           13 
 1181000   0.77082368   -8.4036198     196.5819  0.013871148  0.013361473            4 
 1182000   0.80785729   -8.4091786    197.13756  0.013898587  0.013349203           11 
 1183000   0.79773513   -8.3948132    197.28166  0.013896989  0.013336955           13 
 1184000   0.78858877    -8.392371    197.19376  0.013879066    0.0133247            6 
 1185000     0.778674   -8.3972753    197.47681  0.013887258  0.013312439           18 
 1186000   0.80117007   -8.3988971    197.13944  0.013851844  0.013300185            8 
 1187000   0.77816369   -8.4143726    197.05579  0.013834301  0.013287949            8 
 1188000   0.76708356   -8.4419884    196.86068   0.01380897  0.013275726           10 
 1189000   0.76879406   -8.4235413    196.70001  0.013786095  0.013263474            8 
 1190000   0.78299882   -8.4017761    197.30113  0.013816606  0.013251259            9 
 1191000   0.76579096   -8.4223299    197.49897  0.013818848  0.013239059           18 
 1192000   0.76770331   -8.3837777    196.95066  0.013768922  0.013226878            8 
 1193000   0.77639494   -8.4052096    197.10192  0.013767946  0.013214692           15 
 1194000   0.77525372   -8.4199158    197.13494   0.01375872  0.013202469           23 
 1195000   0.78513739   -8.3850871    196.90753  0.013731348  0.013190305           16 
 1196000   0.78839278   -8.4019193    197.22202  0.013741779  0.013178121           18 
 1197000   0.76653901   -8.3897264    197.13284  0.013724091  0.013165939           15 
 1198000   0.74719694   -8.4450583    196.93226  0.013698682  0.013153728           12 
 1199000   0.76412427   -8.4377389    197.06368  0.013696391  0.013141501           10 
 1200000    0.7842519   -8.4296272    197.17769  0.013692895  0.013129255           10 
 1201000    0.7738974   -8.4337773    197.18056  0.013681693   0.01311705           10 
 1202000   0.76767534   -8.4089131     197.1106  0.013665461  0.013104888           10 
 1203000    0.7847104   -8.4268492     196.8056  0.013632973  0.013092692           12 
 1204000   0.77208023   -8.4504445    196.69881  0.013614258  0.013080525            8 
 1205000   0.77556826     -8.43785    196.72661  0.013604883  0.013068361           28 
 1206000   0.77119116   -8.4399012    196.92325   0.01360719  0.013056182           21 
 1207000   0.77370047   -8.4579742    197.02839  0.013603175  0.013044035            8 
 1208000    0.7662798   -8.4427704     196.7943  0.013575766  0.013031932           10 
 1209000   0.77589761   -8.4405037    197.16341  0.013589979  0.013019842            3 
 1210000   0.77029671   -8.4253997    196.99273  0.013566992  0.013007756           11 
 1211000   0.76753315   -8.4399876    197.22933  0.013572071    0.0129957           23 
 1212000   0.78114943   -8.4090996    197.38424  0.013571523  0.012983649           27 
 1213000   0.79425574   -8.4517713    197.24887  0.013551036   0.01297161           21 
 1214000   0.77113309   -8.4403539    196.89162   0.01351535  0.012959501           10 
 1215000   0.77731159   -8.4430211    197.02553  0.013513411  0.012947448           11 
 1216000   0.76947534    -8.464022    197.42702  0.013529812  0.012935431           10 
 1217000   0.77078167   -8.4426144    197.31159  0.013510791   0.01292342            7 
 1218000    0.7672987   -8.4269013    197.48127  0.013511307  0.012911435            4 
 1219000   0.76182892   -8.4458237    197.49607  0.013501235  0.012899437            7 
 1220000   0.75750456   -8.4406618    197.38297  0.013482443  0.012887438           13 
 1221000   0.76743397   -8.4587481    197.29104  0.013465127   0.01287541            9 
 1222000   0.77182553   -8.4465118    197.04743  0.013437495  0.012863386            9 
 1223000   0.77362969   -8.4478767    197.51864  0.013458615  0.012851432            5 
 1224000   0.76601986   -8.4527714    197.29088  0.013432113    0.0128395            6 
 1225000   0.76660131   -8.4580143    197.45407   0.01343225  0.012827606            5 
 1226000   0.76900357   -8.4651251    197.16309  0.013401515  0.012815746           14 
 1227000   0.78580483   -8.4483001    197.51958  0.013414805  0.012803875            9 
 1228000   0.75493034   -8.4768036    197.61325  0.013410237  0.012791998            9 
 1229000   0.74945743   -8.4890383    197.25813  0.013375246  0.012780114           11 
 1230000   0.77106438   -8.4634991    197.51002  0.013381438  0.012768181            9 
 1231000   0.75856933   -8.4905377    197.14295  0.013345718  0.012756273            9 
 1232000   0.77072893   -8.4575101    197.39446  0.013351898  0.012744378            7 
 1233000   0.74505886   -8.4494381    197.52897   0.01335016  0.012732519           12 
 1234000   0.75140697   -8.4496863       197.68  0.013349541  0.012720693            7 
 1235000   0.76323815   -8.4933404    196.93648  0.013288562  0.012708887           12 
 1236000   0.77166965   -8.4655873    197.40933  0.013309691  0.012697063            8 
 1237000    0.7726594   -8.4745229    197.18249  0.013283649  0.012685203           11 
 1238000   0.75166283   -8.4636942    197.21791  0.013275303  0.012673399           11 
 1239000   0.77718584   -8.4554064     197.5898  0.013289602  0.012661632            4 
 1240000   0.75925878   -8.4765686    196.93311  0.013234752  0.012649864            8 
 1241000   0.76681484    -8.470876    197.89638  0.013288771  0.012638115           10 
 1242000   0.77111031   -8.4408058    197.97571  0.013283395  0.012626413           12 
 1243000   0.74826253   -8.4644088    197.47948  0.013239439  0.012614702           19 
 1244000    0.7558336   -8.4745637    197.71783  0.013244764  0.012603004           22 
 1245000   0.74866395   -8.4698162    197.52881  0.013221473  0.012591253           11 
 1246000   0.75938514   -8.4426581    197.50197  0.013209067  0.012579495           15 
 1247000   0.74918554   -8.4663797    197.02709   0.01316674   0.01256776           14 
 1248000   0.75367601   -8.4700266    197.35865  0.013178329  0.012555979           19 
 1249000   0.74239823   -8.4893346    197.46243  0.013174702  0.012544232           11 
 1250000   0.73795064    -8.477542    196.94156  0.013129437  0.012532497           11 
 1251000   0.76758682   -8.4902121    197.93411  0.013185059  0.012520793           11 
 1252000   0.75894252   -8.5143385    197.86276  0.013169779  0.012509123           12 
 1253000   0.75036372    -8.498205    197.47585  0.013133536  0.012497426           23 
 1254000    0.7603436   -8.5303264    197.35861  0.013115272  0.012485703           20 
 1255000   0.75142044   -8.4851031    197.33169  0.013103034  0.012473979           15 
 1256000   0.74336346   -8.5129024    197.22565  0.013085566  0.012462274           11 
 1257000   0.75685274   -8.4892616    197.76459  0.013110885  0.012450566           17 
 1258000   0.75970076   -8.5001295    197.11255   0.01305727  0.012438892           16 
 1259000   0.75250786    -8.481293     197.2514  0.013056089  0.012427255           12 
 1260000   0.75747913   -8.4950086    197.37472  0.013053884  0.012415632           20 
 1261000   0.74279134   -8.4919724    197.80121  0.013071716  0.012403976           19 
 1262000   0.75767837   -8.5294394    197.07621  0.013013484  0.012392367           12 
 1263000   0.74937266   -8.5344979    197.06245  0.013002273  0.012380765           10 
 1264000   0.74802117   -8.5049973    197.43172  0.013016331  0.012369163           20 
 1265000   0.74808323    -8.502303    197.53037  0.013012541  0.012357578           16 
 1266000   0.73419174   -8.5032827    197.41075  0.012994389  0.012346006            7 
 1267000      0.76115   -8.4959917    197.77742  0.013008249  0.012334428           21 
 1268000   0.74422022   -8.5246639    197.56854  0.012984263  0.012322897           13 
 1269000   0.74337824   -8.5038134    197.51124  0.012970268  0.012311338            8 
 1270000   0.75006962   -8.5099583    197.06378  0.012930694  0.012299778           14 
 1271000   0.73513118   -8.5199728    197.28194  0.012934824  0.012288193           17 
 1272000   0.74215582   -8.5334873    197.00378  0.012906432   0.01227663           13 
 1273000   0.74555049   -8.5001966     197.3406  0.012918342  0.012265081           21 
 1274000   0.75729698   -8.5157032    197.12062  0.012893813  0.012253572            9 
 1275000   0.72934354   -8.4983564    197.96136  0.012938651  0.012242054           23 
 1276000   0.73138651   -8.5179616    197.13855  0.012874775  0.012230532           19 
 1277000   0.73982514   -8.5232768    197.53549  0.012890596  0.012219035           21 
 1278000   0.75654374   -8.4893305    197.12805  0.012853941  0.012207565           10 
 1279000   0.74540179   -8.4894818    197.55429  0.012871663  0.012196135           15 
 1280000   0.74815844    -8.501051    197.92899  0.012886002  0.012184718           15 
 1281000   0.73737171   -8.5226324     197.4635  0.012845661  0.012173306           20 
 1282000   0.73073226   -8.5221803    197.74246  0.012853774  0.012161887           12 
 1283000   0.73984522   -8.5276889    197.64347  0.012837326  0.012150506            9 
 1284000   0.74151916   -8.5311399    197.34098  0.012807696   0.01213906           21 
 1285000   0.73851303   -8.5375471    197.27281  0.012793308  0.012127648           22 
 1286000   0.72992491   -8.5270668    197.57571  0.012802988  0.012116232           15 
 1287000   0.73414011   -8.5037822    197.30696  0.012775638  0.012104803           19 
 1288000   0.73319322    -8.544188    197.15423  0.012755838   0.01209335           25 
 1289000   0.74330438   -8.5178114    197.38086  0.012760594  0.012081917           18 
 1290000     0.729758   -8.5382695    197.28502   0.01274451  0.012070463           18 
 1291000   0.75140521   -8.5361446    196.74832  0.012699995  0.012059041           22 
 1292000   0.73618742   -8.5550744    197.28871   0.01272502  0.012047638           20 
 1293000   0.73541667   -8.5515969    196.49654  0.012664123  0.012036237           22 
 1294000   0.73103089   -8.5379316    197.05187    0.0126901  0.012024832           20 
 1295000    0.7555924   -8.5313195    197.36883  0.012700697  0.012013439           30 
 1296000   0.76025363   -8.5830167    197.36839  0.012690869  0.012002036           20 
 1297000   0.74159652   -8.5340061    197.18224  0.012669124  0.011990672           13 
 1298000    0.7288603   -8.5398807    197.47063  0.012677878  0.011979299           21 
 1299000   0.75400883   -8.5733491    197.36331  0.012661234  0.011967947           20 
 1300000   0.73342585     -8.55542    196.98415  0.012627189  0.011956592           18 
 1301000   0.73732306    -8.548858    197.01853  0.012619686  0.011945236           19 
 1302000   0.74071301   -8.5489756    197.51206  0.012641581  0.011933857            7 
 1303000   0.72530567   -8.5517232    197.36599  0.012622537  0.011922512           19 
 1304000    0.7241195   -8.5673977    197.05862  0.012593215  0.011911188           23 
 1305000   0.73627087   -8.5427447    196.93884  0.012575916  0.011899866           12 
 1306000   0.71470844   -8.5425439    197.43777  0.012598122  0.011888571           24 
 1307000   0.74081056    -8.541745    197.20896  0.012573894  0.011877293           14 
 1308000   0.73282237   -8.5525419    197.43965  0.012578979  0.011866053           14 
 1309000   0.73336663   -8.5572447    197.02043  0.012542681  0.011854796            7 
 1310000   0.72905153   -8.5598696    197.38047  0.012556009  0.011843516           18 
 1311000   0.72415449   -8.5523707    196.90298   0.01251608  0.011832247           14 
 1312000   0.72284906   -8.5551665    197.07021  0.012517162  0.011820993           40 
 1313000   0.73224164   -8.5783809    197.25382  0.012519283  0.011809782           19 
 1314000    0.7120469   -8.5395325    197.38964  0.012518369  0.011798607           34 
 1315000   0.73652509   -8.5471413    197.22274  0.012498272  0.011787434           17 
 1316000   0.71484544   -8.5618159    197.49933   0.01250629  0.011776269           20 
 1317000   0.72439176   -8.5632751    197.41989  0.012491767  0.011765107            9 
 1318000   0.71271885   -8.5687753    197.25455  0.012471835  0.011753953           11 
 1319000   0.73264942   -8.5284852    197.55394  0.012481295  0.011742838           12 
 1320000    0.7235403   -8.5477813    197.30993  0.012456435  0.011731742           18 
 1321000   0.71953792   -8.5515926    197.81253  0.012478711  0.011720671           11 
 1322000   0.72462207   -8.5468615    197.49589  0.012449313  0.011709636           33 
 1323000   0.72824458   -8.5774514    197.23291  0.012423338  0.011698559           24 
 1324000    0.7445147   -8.5868033    197.39277  0.012424016  0.011687491            8 
 1325000    0.7166926   -8.5807392    197.53592  0.012423642    0.0116764           12 
 1326000    0.7145268   -8.5588695    197.75435  0.012428001  0.011665342           10 
 1327000   0.72884966   -8.5941729    197.15991  0.012381306  0.011654267            9 
 1328000   0.72457462   -8.5872326     197.4179  0.012388172  0.011643227           13 
 1329000   0.72261244   -8.5999516    197.41216   0.01237849  0.011632164           11 
 1330000   0.71559754    -8.610757    197.27101  0.012360339  0.011621128           11 
 1331000   0.71205768   -8.6106249    197.01334   0.01233492  0.011610082           19 
 1332000    0.7364773   -8.5960361    197.51015  0.012356741  0.011599045            9 
 1333000   0.72559362   -8.5891181    197.39112   0.01234003  0.011588052           17 
 1334000   0.71549285   -8.5935797    197.47834  0.012336228  0.011577101           13 
 1335000   0.70648755   -8.6058441    197.52898  0.012330148  0.011566142            5 
 1336000   0.71808246   -8.5627502    197.32145  0.012307975  0.011555199            6 
 1337000   0.73091917   -8.5909538    197.44613   0.01230654  0.011544274            6 
 1338000     0.730639   -8.5868201    197.54924  0.012303764  0.011533328            7 
 1339000   0.70727173   -8.6011102    197.69632  0.012303729  0.011522384            6 
 1340000   0.72338725   -8.5847944    197.35256  0.012273169  0.011511435            9 
 1341000   0.72934824   -8.6031705    197.82091  0.012293121  0.011500483            9 
 1342000   0.69992785   -8.6175561    196.96897  0.012231059  0.011489546            9 
 1343000   0.72248642   -8.5928318    197.11954  0.012231295  0.011478606           15 
 1344000   0.71448118   -8.6041559    197.13025  0.012222858  0.011467689            9 
 1345000    0.7103187    -8.625006    197.01389   0.01220656  0.011456743           16 
 1346000   0.71020746   -8.6172802    196.84379  0.012186961  0.011445807           12 
 1347000   0.72350762   -8.6090696    196.90545  0.012181728  0.011434885            6 
 1348000   0.71077311   -8.6265226    196.90233  0.012172498  0.011423966            9 
 1349000   0.71825228   -8.5998113    197.08911  0.012175013  0.011413057            7 
 1350000   0.71147116   -8.6278154    196.70703  0.012142409  0.011402158            8 
 1351000   0.72687302   -8.6326946    196.72698  0.012134652  0.011391271            8 
 1352000   0.70355564   -8.6401742    197.16357  0.012152587  0.011380441            7 
 1353000   0.71097054   -8.6161756    197.39783  0.012158034  0.011369619            9 
 1354000   0.69856228   -8.6253576    196.88494  0.012117488  0.011358809            9 
 1355000   0.70934559   -8.6175716    196.90831  0.012109982  0.011347969           11 
 1356000   0.70976134   -8.6450756    196.86863  0.012098613  0.011337158            9 
 1357000   0.69552253   -8.6220654    196.98867  0.012097069  0.011326337            8 
 1358000   0.71146018     -8.64949    197.14466  0.012097733  0.011315521            7 
 1359000   0.71027542    -8.632561    197.03207  0.012081927  0.011304708            4 
 1360000   0.70149311   -8.6270005    196.95112  0.012068083  0.011293903           12 
 1361000    0.7185118   -8.6301921    197.30927  0.012081145  0.011283112            7 
 1362000   0.72517071   -8.6280141    196.57542  0.012027375  0.011272376           14 
 1363000   0.69967379   -8.6393793    197.10717  0.012051062  0.011261603           10 
 1364000   0.71637384   -8.6580571    197.14612  0.012044607  0.011250853           11 
 1365000   0.70506924   -8.6218653    197.53671  0.012059628  0.011240133           11 
 1366000   0.71578666   -8.6073174    196.97847  0.012016744  0.011229415           10 
 1367000   0.70490959   -8.6378683     196.7674  0.011995087  0.011218732            7 
 1368000   0.71261317   -8.6217792    196.99203  0.012000002  0.011208036           18 
 1369000    0.7137301   -8.6438427      197.286   0.01200913  0.011197359           32 
 1370000   0.70519047   -8.6281796    197.26887  0.011999323  0.011186692           17 
 1371000   0.70994757    -8.655085    196.87308  0.011966513  0.011176022            9 
 1372000   0.69017515   -8.6369775    197.11878  0.011972715   0.01116536           12 
 1373000   0.70148477   -8.6513558    196.71649  0.011939578  0.011154707           13 
 1374000   0.70398188   -8.6424834    197.15959  0.011957762   0.01114406           10 
 1375000    0.7057886   -8.6560341    196.84334  0.011929899  0.011133428           13 
 1376000   0.71223788   -8.6520544    196.71596  0.011913515  0.011122784           16 
 1377000   0.71552186   -8.6402986    196.73264  0.011905873   0.01111214           19 
 1378000   0.72106316   -8.6494548    196.94021  0.011909786  0.011101507            6 
 1379000   0.70665974   -8.6365393    197.06759  0.011908846  0.011090858           19 
 1380000   0.69436302   -8.6485041    197.09324  0.011901766  0.011080233            6 
 1381000   0.68964317   -8.6505991     197.1276  0.011895221  0.011069605           11 
 1382000   0.70089475   -8.6636989    196.90537  0.011873213   0.01105902           10 
 1383000   0.69125115   -8.6511656    196.88496  0.011863398  0.011048432           16 
 1384000   0.70372656   -8.6644452    197.27887  0.011878545   0.01103786           10 
 1385000   0.70091731   -8.6479609    197.03345  0.011855201  0.011027307           10 
 1386000    0.7009975   -8.6408087    196.93676  0.011840834  0.011016764           12 
 1387000   0.70164007   -8.6620162    197.01241  0.011836843  0.011006251           13 
 1388000   0.69992605   -8.6305804    196.58982  0.011802943   0.01099575           10 
 1389000    0.7036785    -8.654247    196.73494  0.011803152  0.010985257           22 
 1390000   0.70170319   -8.6304886    196.99664   0.01181035  0.010974762           15 
 1391000   0.67428499   -8.6630097    196.78286  0.011789052  0.010964274           14 
 1392000   0.71180247   -8.6484639     197.1505  0.011802592  0.010953819           44 
 1393000   0.70728692   -8.6567356    196.60073   0.01176123  0.010943365           12 
 1394000   0.68803644    -8.654341     197.0316  0.011778551  0.010932902           19 
 1395000   0.69284574   -8.6695094     196.9615   0.01176592  0.010922436           13 
 1396000   0.69811146   -8.6546703    196.95285  0.011756975  0.010911958           10 
 1397000   0.69609652   -8.6749408    197.04996  0.011754352  0.010901512           14 
 1398000   0.68072016   -8.6731072    196.46865  0.011711293  0.010891069           12 
 1399000   0.69093961   -8.6708263    196.80708  0.011723081  0.010880633           16 
 1400000   0.68136523   -8.6703708    196.28067  0.011683373  0.010870218           15 
 1401000   0.70892898   -8.6704739    197.06126  0.011721464  0.010859805           11 
 1402000   0.68678831   -8.6636864    196.88619  0.011702698  0.010849436           15 
 1403000   0.69192472    -8.691143    197.02757  0.011702754  0.010839075           15 
 1404000   0.69034945   -8.6828821    196.98882  0.011692119  0.010828707           14 
 1405000   0.68523286   -8.6461308     196.9273  0.011680148  0.010818353           21 
 1406000   0.69457603   -8.6704483    196.90254  0.011670374  0.010808015           11 
 1407000   0.69032849   -8.6840018    196.67284  0.011648474  0.010797691            9 
 1408000   0.70106987   -8.6692006    196.80409  0.011647969  0.010787351           11 
 1409000   0.68318039    -8.679913    197.14221    0.0116597   0.01077703           39 
 1410000    0.6864293   -8.6798528     196.5455  0.011616164  0.010766724           12 
 1411000    0.6932518    -8.678127    196.69656  0.011616853  0.010756433            6 
 1412000   0.68098395    -8.675323    196.45205  0.011594196  0.010746156           31 
 1413000   0.68769904   -8.6681004    196.63987  0.011597067  0.010735871           28 
 1414000   0.69782862   -8.6916373    196.80389  0.011598532  0.010725589           16 
 1415000   0.69654198   -8.7046491    196.67933  0.011582999  0.010715307           11 
 1416000    0.6849905   -8.6815418    196.45845   0.01156182  0.010705032           38 
 1417000   0.67217807   -8.6796013    196.73327  0.011569823  0.010694792           29 
 1418000   0.70065785   -8.6785942    196.72207  0.011561005  0.010684557           26 
 1419000   0.67493033   -8.6719208    196.79847  0.011557345  0.010674315           10 
 1420000   0.66902489   -8.6883387    196.43569  0.011527916   0.01066408           45 
 1421000   0.69237516   -8.7054669    196.67735  0.011533975  0.010653861           28 
 1422000   0.66528411   -8.6831751    196.62295  0.011522676   0.01064366           31 
 1423000   0.67805887   -8.7067248    196.25229  0.011492872  0.010633449           30 
 1424000   0.67610511   -8.6905148    196.83536  0.011518923  0.010623257           25 
 1425000   0.68035895   -8.6737817    196.54155  0.011493658  0.010613069           10 
 1426000   0.67547118    -8.665363    196.50211  0.011483293  0.010602897           18 
 1427000   0.68083705   -8.7010056    196.63327  0.011482905  0.010592744           20 
 1428000   0.68649781   -8.7039592    196.71999  0.011479925  0.010582611           25 
 1429000   0.68470574   -8.7013167    196.69877  0.011470654  0.010572467           17 
 1430000   0.67441076   -8.6764513    196.56835  0.011455032  0.010562342           16 
 1431000   0.70200368   -8.6770927    196.56156  0.011446632  0.010552225           25 
 1432000   0.67563232   -8.7044333    196.47623  0.011433673  0.010542114           57 
 1433000   0.69819472    -8.659458    196.36912  0.011419465  0.010532013           28 
 1434000   0.66907495   -8.6992199    196.52456  0.011420535  0.010521909           24 
 1435000   0.67985076   -8.6911266    196.23813  0.011395942  0.010511822           48 
 1436000   0.67482166   -8.7116896    196.24997  0.011388693   0.01050175           17 
 1437000   0.68129053   -8.6868367    196.55424  0.011398413  0.010491676           20 
 1438000   0.67848448   -8.7026727    196.64134  0.011395535  0.010481655           25 
 1439000   0.67997377   -8.7184887    196.48957  0.011378826  0.010471613           11 
 1440000   0.67710996   -8.7001096    196.81876  0.011389975  0.010461587           61 
 1441000   0.68798446    -8.703195    196.44518  0.011360466  0.010451565           76 
 1442000   0.67844657   -8.6964117    196.37296  0.011348414  0.010441557           26 
 1443000   0.67292777   -8.7043342     196.5219  0.011349151  0.010431551           49 
 1444000   0.67134649   -8.6781984    196.35635  0.011331738  0.010421564           36 
 1445000   0.66337102   -8.7237562    196.30047  0.011320673  0.010411586           26 
 1446000   0.66647616   -8.7141154    196.40173   0.01131868  0.010401607           41 
 1447000   0.68232432   -8.7211552    196.59121   0.01132177  0.010391615           24 
 1448000   0.68341639   -8.7226145    196.51534  0.011309584  0.010381658           23 
 1449000   0.67048632   -8.7091724    196.54482  0.011303475  0.010371713           41 
 1450000   0.68529904   -8.7189879    196.54387  0.011295625   0.01036178           29 
 1451000   0.68370315   -8.7397822     196.7535  0.011299879  0.010351866           22 
 1452000   0.66134866   -8.7021231    196.67994  0.011287876  0.010341951           22 
 1453000   0.68445317   -8.7288246    196.53868  0.011272005  0.010332055           20 
 1454000   0.66817613   -8.7145323     196.6354  0.011269796  0.010322167           24 
 1455000   0.67480747   -8.7224233    196.66014  0.011263468  0.010312295           32 
 1456000   0.66295712   -8.7399207    196.59661  0.011252096  0.010302415           46 
 1457000    0.6904792   -8.7288436    196.55521  0.011242005  0.010292553           18 
 1458000   0.67682505   -8.6979804    196.71028  0.011243157   0.01028273           32 
 1459000   0.67043964   -8.7105259    196.27823  0.011210774  0.010272899           20 
 1460000   0.65168128   -8.7061164    196.15098  0.011195832  0.010263064           19 
 1461000   0.66275958   -8.7117198    196.45811  0.011205687  0.010253252           26 
 1462000   0.66454742   -8.7128688    196.54367    0.0112029  0.010243446           32 
 1463000   0.66971458   -8.7192834    196.28149  0.011180308  0.010233656           23 
 1464000   0.68513247   -8.7115558    196.60714  0.011191208  0.010223887           36 
 1465000   0.66693177   -8.7460022     196.3805  0.011170677  0.010214109           39 
 1466000   0.67388036    -8.735317    196.19131  0.011152303  0.010204337           42 
 1467000   0.68444348   -8.7240826    196.49814   0.01116213  0.010194592           59 
 1468000   0.66801366    -8.716942    196.47139  0.011153008  0.010184871           45 
 1469000   0.66613574   -8.7306128     196.7204  0.011159542  0.010175167           36 
 1470000   0.65396754   -8.7597445    196.56025  0.011142871  0.010165457           56 
 1471000   0.67619348   -8.7089784    196.41195  0.011126895  0.010155752           34 
 1472000   0.66577157   -8.7351675     196.5945  0.011129671  0.010146037           43 
 1473000   0.65659656   -8.7417939    196.49127  0.011116274  0.010136356           56 
 1474000   0.65848587   -8.7308778    196.74083  0.011122842  0.010126696           46 
 1475000   0.66237306   -8.7540723     196.3603  0.011093802   0.01011702           72 
 1476000   0.67169469   -8.7412426    196.39267  0.011088114  0.010107362           48 
 1477000   0.65402524   -8.7393945    196.60979  0.011092856  0.010097712           37 
 1478000   0.65942543   -8.7360346    196.19126  0.011061754  0.010088057           38 
 1479000   0.66000685   -8.7316357    196.47516  0.011070271  0.010078393           43 
 1480000   0.65696713   -8.7528185    196.46592   0.01106227  0.010068741           54 
 1481000   0.65992234   -8.7383233    196.20369  0.011040045  0.010059089           38 
 1482000   0.66619257   -8.7344761    196.28962  0.011037428  0.010049449           43 
 1483000   0.67289104   -8.7573901    195.78868  0.011001837  0.010039802           41 
 1484000   0.67025782   -8.7770716    196.35603  0.011026282  0.010030173           85 
 1485000    0.6577617   -8.7456101    196.35677  0.011018898  0.010020568           46 
 1486000   0.65563142    -8.753843    196.33374  0.011010192  0.010010978           70 
 1487000   0.65933783   -8.7508139    196.52629  0.011013578  0.010001377           36 
 1488000   0.65775691   -8.7626514    196.25608  0.010991044 0.0099917864           36 
 1489000   0.66156969   -8.7614544    195.96201  0.010967204 0.0099822061           26 
 1490000   0.65546645   -8.7514569    196.19996  0.010973152 0.0099726407           29 
 1491000   0.66360372   -8.7529082    196.42878  0.010978582 0.0099631089           34 
 1492000   0.65477604   -8.7664451    196.38511  0.010968784 0.0099535863           48 
 1493000   0.67167081   -8.7786172    196.16101  0.010948929 0.0099440729           89 
 1494000   0.66221123   -8.7318299    196.24502  0.010946286 0.0099345705           46 
 1495000   0.66188476   -8.7643223    196.27445  0.010940605 0.0099250686           52 
 1496000   0.65123052   -8.7907989    195.83091  0.010908585 0.0099155533           48 
 1497000   0.66270755   -8.7858295    195.96731   0.01090889 0.0099060601           46 
 1498000   0.66283611   -8.7722769    195.85608  0.010895421 0.0098965789           43 
 1499000   0.63675993   -8.7870749    196.00332  0.010896337 0.0098871092           50 
 1500000   0.66048385   -8.7691139    196.05581  0.010891989 0.0098776336           45 
 1501000   0.66354674    -8.760821    196.06561  0.010885277 0.0098681883           59 
 1502000   0.65078224   -8.7544675    196.27244  0.010889505 0.0098587517           63 
 1503000   0.64279461   -8.7667476    196.34076  0.010886048 0.0098493227           44 
 1504000   0.64586728   -8.7828966     196.0078  0.010860361 0.0098399074           56 
 1505000   0.65758535   -8.8081831    195.74565  0.010838629 0.0098304741           49 
 1506000   0.66179105   -8.7778286    195.99881  0.010845441 0.0098210615           43 
 1507000   0.63904811   -8.7695151    195.93562   0.01083475 0.0098116442           56 
 1508000   0.64470796   -8.7795593    196.01262   0.01083182  0.009802259           58 
 1509000   0.65387979    -8.784732    196.30365  0.010840714 0.0097928878           84 
 1510000   0.65361539   -8.7577709    195.83601  0.010807727 0.0097835198           56 
 1511000    0.6519448   -8.7743826    195.96759  0.010807831  0.009774173           60 
 1512000   0.64928039    -8.803257    195.92435  0.010798299 0.0097648286           71 
 1513000   0.63597132   -8.7992221    195.58357  0.010772393 0.0097554867           58 
 1514000   0.65205089   -8.7891328    195.98605  0.010787431 0.0097461693           86 
 1515000    0.6507254   -8.7908881    195.99092  0.010780579 0.0097368429           77 
 1516000   0.65045966     -8.78094    195.90292   0.01076863 0.0097275386           49 
 1517000   0.64959926   -8.7757162    195.95638  0.010764468 0.0097182369           52 
 1518000   0.64820052   -8.7907588    196.04818  0.010762417 0.0097089463           72 
 1519000   0.63799021   -8.7946224     195.8828  0.010746259 0.0096996634           87 
 1520000    0.6461033   -8.8008327    195.81623  0.010735539 0.0096904226          119 
 1521000   0.64749682   -8.7883921    196.15273  0.010746917 0.0096811517           50 
 1522000   0.64383691   -8.7882732    196.21285  0.010743148 0.0096718877           66 
 1523000   0.63877433   -8.8214617    195.82894  0.010715088 0.0096626413           51 
 1524000   0.65586238    -8.804544    196.15162  0.010725701  0.009653404           64 
 1525000   0.65495696   -8.7774742     195.9899   0.01070983 0.0096441993           61 
 1526000   0.64352009   -8.8139203    195.71295  0.010687688 0.0096349911           68 
 1527000   0.64505201   -8.7959241    195.85077   0.01068821 0.0096257916          117 
 1528000   0.65674329    -8.828568    195.93516  0.010685818  0.009616606           65 
 1529000   0.66735682    -8.820317    195.46018  0.010652942 0.0096074275           75 
 1530000   0.64900386   -8.8362774    195.53344   0.01064997 0.0095982357           49 
 1531000   0.64432412   -8.8079151    196.25414  0.010682241 0.0095890648           71 
 1532000   0.62825745   -8.7999755    196.01099  0.010662042 0.0095799059           78 
 1533000   0.63924557   -8.7921948    195.98386  0.010653613 0.0095707759           69 
 1534000   0.65546717   -8.8280119     195.6727  0.010629764 0.0095616557           57 
 1535000   0.65375028   -8.8163515    196.12892  0.010647607 0.0095525238          121 
 1536000   0.63660392   -8.8081532    196.02967   0.01063529 0.0095434253           52 
 1537000    0.6336399   -8.8210656    195.40951  0.010594747 0.0095343228           65 
 1538000   0.63363406   -8.7937006    195.91079  0.010615019 0.0095252328          128 
 1539000   0.63492097   -8.8067044    195.92772  0.010609038 0.0095161562           93 
 1540000   0.64806696   -8.8228514     196.0404  0.010608247  0.009507084           73 
 1541000   0.63863664   -8.8165438    196.13244   0.01060634 0.0094980256          132 
 1542000   0.64561544    -8.807989    195.89163  0.010586448 0.0094889673          141 
 1543000   0.64022827   -8.8179053    195.90503  0.010580311 0.0094799356          141 
 1544000   0.63572273    -8.819875    195.39403  0.010545878 0.0094709075          128 
 1545000   0.65125344   -8.8276986    195.54559  0.010547227 0.0094618901          112 
 1546000   0.64394451   -8.8213018    195.47458  0.010536577 0.0094528545          106 
 1547000    0.6321129   -8.8326208    195.54181  0.010533388 0.0094438508          104 
 1548000   0.64457352   -8.8419708    195.71474  0.010535892 0.0094348573           58 
 1549000   0.62434922   -8.8294505    195.87656  0.010537796 0.0094258885           98 
 1550000   0.62724942    -8.817245    195.60887  0.010516606 0.0094169313          115 
 1551000   0.64037508   -8.8276654    195.82687  0.010521538 0.0094079832           77 
 1552000    0.6181672     -8.84101    196.35406  0.010543066 0.0093990437          103 
 1553000   0.64279734   -8.8277271    195.63705  0.010497803 0.0093901116          104 
 1554000   0.64902701   -8.8473344    195.76592  0.010497958 0.0093811825           62 
 1555000   0.61399392   -8.8352138     195.6837    0.0104868 0.0093722741           66 
 1556000   0.63025341   -8.8299999    196.08811   0.01050172 0.0093633722           59 
 1557000   0.62392996   -8.8463498    195.96211  0.010488231 0.0093544802           70 
 1558000   0.63464253     -8.83459    195.39844   0.01045135 0.0093455947           54 
 1559000   0.62911579   -8.8236072    195.87714  0.010470234 0.0093367051           85 
 1560000   0.63685114   -8.8333418    195.61564  0.010449554 0.0093278483          100 
 1561000   0.62419976   -8.8298954    196.08671  0.010468007 0.0093189947           49 
 1562000   0.64015904   -8.8456298    195.83595  0.010447928 0.0093101561           61 
 1563000   0.63674737   -8.8375179    195.79134  0.010438864 0.0093013195           70 
 1564000   0.64479423   -8.8301174    195.45137  0.010414076 0.0092924936           56 
 1565000   0.63159206   -8.8351281    195.83184   0.01042768 0.0092836745           59 
 1566000   0.62000415   -8.8511044    195.18608  0.010386658 0.0092748539           57 
 1567000   0.64393367   -8.8273213     195.6008  0.010402085  0.009266052           99 
 1568000   0.63544371   -8.8395598    195.73556  0.010402613 0.0092572575           61 
 1569000      0.63245   -8.8330339    195.72378  0.010395357 0.0092484659           89 
 1570000   0.63772958   -8.8376472    195.63169  0.010383847 0.0092396899           42 
 1571000   0.62667395   -8.8493208    195.81714  0.010387075 0.0092309229           57 
 1572000   0.64355713   -8.8264991    195.34476  0.010355426 0.0092221621           58 
 1573000   0.63091172   -8.8514839    195.59367   0.01036203 0.0092134117           63 
 1574000   0.61611737   -8.8770084    195.64906  0.010358379 0.0092046653           61 
 1575000     0.629649   -8.8547054    195.61293  0.010349891  0.009195927           71 
 1576000   0.63429951   -8.8516606    195.38973  0.010331521 0.0091871931           58 
 1577000   0.62721872   -8.8308648    195.39004  0.010324986 0.0091784902          128 
 1578000   0.63497307   -8.8402865    195.71492    0.0103356 0.0091697619           72 
 1579000   0.61872472   -8.8518134    195.48823  0.010317091 0.0091610686           65 
 1580000   0.62279476   -8.8572628    195.49805  0.010311079 0.0091523853           71 
 1581000   0.63026131   -8.8489856    195.43984  0.010301488 0.0091437125           65 
 1582000   0.61006201   -8.8328945     195.7556   0.01031161 0.0091350458           57 
 1583000   0.62557724     -8.84804    195.33079  0.010282733 0.0091263962           64 
 1584000   0.63038419   -8.8459889    195.58091    0.0102894 0.0091177412           68 
 1585000   0.63314015   -8.8516056     195.2906  0.010267645 0.0091091001           75 
 1586000   0.62208898   -8.8763279    195.73874  0.010284717 0.0091004802          102 
 1587000   0.62139651   -8.8624287     195.6225  0.010272133 0.0090918554           76 
 1588000   0.60938724   -8.8291981    195.62438  0.010265763 0.0090832615           62 
 1589000   0.61273422   -8.8582166    195.48286  0.010251881 0.0090746742          107 
 1590000    0.6128674   -8.8596018    195.33364  0.010237612 0.0090661052           66 
 1591000   0.62008192   -8.8396888    195.46987  0.010238313  0.009057527           63 
 1592000   0.62918042    -8.882018    195.40652  0.010228566 0.0090489498           85 
 1593000   0.61149213   -8.8550454    195.39822  0.010221711 0.0090404051           66 
 1594000   0.62364958   -8.8654143    195.67903  0.010229979 0.0090318544           63 
 1595000   0.62176656   -8.8639665    195.56688  0.010217705 0.0090233229           58 
 1596000   0.61526413    -8.855589    195.95992  0.010231825 0.0090147875           68 
 1597000   0.61120845   -8.8685316     195.4196  0.010197224 0.0090062689           58 
 1598000   0.62531811   -8.8644596    195.51874  0.010196013 0.0089977516           76 
 1599000   0.62393008   -8.8944285    194.95748  0.010160386 0.0089892426          106 
 1600000   0.62362007   -8.8703786    195.36275  0.010175143 0.0089807477           62 
 1601000   0.59570272   -8.8754871    195.84136    0.0101937  0.008972258          106 
 1602000   0.61356166   -8.8742289    195.37661  0.010163161 0.0089637755           98 
 1603000   0.63465909   -8.8799695    195.13384    0.0101442 0.0089553144           72 
 1604000   0.60489389   -8.8693008    195.36537  0.010149905 0.0089468532           72 
 1605000   0.59482096   -8.8614803    195.35663  0.010143127 0.0089383978           85 
 1606000   0.61774694   -8.8758715    195.64441  0.010151744 0.0089299618           92 
 1607000   0.61485654   -8.8731308     195.3953  0.010132509 0.0089215227           64 
 1608000   0.61548122   -8.8571925    195.46109  0.010129617 0.0089131026           83 
 1609000   0.61465856   -8.8804832    195.64267  0.010132726 0.0089046987           74 
 1610000   0.60203945    -8.863279    195.40805  0.010114288 0.0088962943           86 
 1611000   0.60994122   -8.8690974    195.37745  0.010106427 0.0088878984           85 
 1612000   0.59939989   -8.8594597    195.28817  0.010095542 0.0088795104           88 
 1613000   0.60210673   -8.8615996    195.09624  0.010079367 0.0088711401           83 
 1614000   0.60955377   -8.8940442    195.58101  0.010098152 0.0088627798           88 
 1615000   0.60906518   -8.8946144    195.16108  0.010070231 0.0088544311          141 
 1616000   0.60284978   -8.8471933     196.0106  0.010107807  0.008846089          127 
 1617000   0.60173106   -8.8919693    195.32292  0.010066116  0.008837746           81 
 1618000   0.59113245   -8.8695869    195.30347  0.010058893 0.0088294112           92 
 1619000   0.61532607   -8.8942169    195.10258   0.01004234 0.0088210805          106 
 1620000   0.60903307   -8.8725243    195.30084  0.010046339 0.0088127779           84 
 1621000   0.61601035   -8.8947045    195.07923  0.010028749 0.0088044845           78 
 1622000   0.59675163   -8.8813636    194.81038  0.010008754 0.0087961968           82 
 1623000   0.60266092    -8.901921    195.58346  0.010042281 0.0087879191           78 
 1624000   0.59071436   -8.8702882    195.00143  0.010006231 0.0087796413           73 
 1625000   0.62601231   -8.8739183    195.55755  0.010028592  0.008771378          127 
 1626000   0.60106544    -8.888335    195.27757  0.010008076 0.0087631169           77 
 1627000   0.59574107   -8.8898978    195.10281 0.0099929735 0.0087548708          119 
 1628000   0.60399098   -8.8814337    195.03998 0.0099836192 0.0087466357           78 
 1629000   0.59318349   -8.8956713    195.12196 0.0099816841 0.0087384046           70 
 1630000   0.61010324   -8.8814647    195.19605 0.0099793479 0.0087301855           91 
 1631000    0.6146813   -8.8786937    195.27516 0.0099772716 0.0087219794           78 
 1632000   0.61205014   -8.8946388    195.05187 0.0099597564 0.0087137827           80 
 1633000   0.59800871   -8.8913368    195.17629 0.0099600064  0.008705599           73 
 1634000   0.59739507   -8.8915719     194.9115  0.009940407 0.0086974291           90 
 1635000   0.60887984   -8.8950735    194.90537 0.0099340148 0.0086892744           85 
 1636000   0.61335134   -8.9185324    195.30776 0.0099484394 0.0086810982           81 
 1637000   0.60558671   -8.8860164    194.96481 0.0099249039 0.0086729439          131 
 1638000   0.59749553    -8.895318    195.37599 0.0099397636 0.0086647859          113 
 1639000   0.58926043   -8.8953597    195.06549 0.0099179119 0.0086566507           95 
 1640000   0.59512575   -8.9049559    195.26498 0.0099220009 0.0086485237          125 
 1641000   0.60137034    -8.897044    195.25734 0.0099155668 0.0086404138           76 
 1642000   0.58569465    -8.871516    194.90698 0.0098917467 0.0086323118           59 
 1643000   0.61086769   -8.8924924    195.00691 0.0098907948 0.0086242169          101 
 1644000    0.5913003   -8.8889535    195.01811 0.0098853463 0.0086161261           93 
 1645000   0.59388214    -8.901976    194.82236 0.0098694205 0.0086080423           78 
 1646000   0.58791975   -8.9143151    195.28429 0.0098868109 0.0085999683           73 
 1647000   0.58463914   -8.9031116    195.14546 0.0098737834 0.0085919007           89 
 1648000   0.58905632   -8.9183922    195.37256  0.009879276 0.0085838464           93 
 1649000   0.60790847   -8.8801632    194.58791 0.0098336318 0.0085758083           66 
 1650000    0.5937361    -8.911742    194.81013 0.0098388954 0.0085677638           78 
 1651000   0.59847889   -8.9133127    194.67873 0.0098263036 0.0085597249           83 
 1652000   0.58121783   -8.9014138    195.24792 0.0098490678 0.0085517064           70 
 1653000   0.59877995   -8.9221975     195.3149  0.009846486 0.0085436802           77 
 1654000   0.59365944   -8.9040879    194.81716 0.0098154556 0.0085356713           85 
 1655000   0.59426978   -8.9175953    194.71845 0.0098045542 0.0085276779          129 
 1656000   0.59194504   -8.9170087    194.84538 0.0098050212 0.0085196906           94 
 1657000   0.60599951   -8.9140823    194.77835 0.0097957329 0.0085117055           88 
 1658000   0.58420641   -8.9187016    194.81953 0.0097918942 0.0085037309           88 
 1659000   0.58490141   -8.9268892    194.68732  0.009779351 0.0084957633           82 
 1660000   0.58197973   -8.9078282    194.92984 0.0097856346  0.008487812           88 
 1661000   0.58398161   -8.8992245     194.9309 0.0097797965 0.0084798729           93 
 1662000   0.58553096   -8.9151533    194.97533 0.0097761398 0.0084719502           84 
 1663000   0.58886095   -8.9129495    194.79912 0.0097614313 0.0084640148           70 
 1664000   0.60514554   -8.8920341    194.32786 0.0097319644 0.0084560994           74 
 1665000   0.60065089   -8.9356575    195.04044 0.0097617837  0.008448192           83 
 1666000    0.5824803   -8.9347045    194.88878 0.0097483383 0.0084402884           82 
 1667000   0.57651566   -8.9282088     194.8485  0.009740477 0.0084323959           86 
 1668000   0.58196179   -8.9141775    194.74935 0.0097296839 0.0084245095           90 
 1669000   0.58303402   -8.8971921    195.04038  0.009738385 0.0084166424           71 
 1670000   0.59890098   -8.9341932    194.93952  0.009727521 0.0084087783           87 
 1671000   0.60498176    -8.916595    194.94065 0.0097217562 0.0084009227           81 
 1672000   0.58394486   -8.9097324    195.28618 0.0097331628 0.0083930881           79 
 1673000   0.58957542   -8.9068589     194.7679 0.0097015293 0.0083852596          105 
 1674000   0.58825632   -8.9408585    194.99017 0.0097067987 0.0083774434          109 
 1675000   0.58284189   -8.9310198    194.81222 0.0096921504 0.0083696336           75 
 1676000   0.57683019   -8.9262627    195.01881 0.0096966394 0.0083618387           84 
 1677000   0.58281207   -8.9205387    195.10119  0.009694951 0.0083540472          110 
 1678000   0.57177171   -8.9150578    194.75059 0.0096717614 0.0083462636           81 
 1679000   0.58381632   -8.9143576    194.84783 0.0096708274 0.0083384787           89 
 1680000   0.58167436   -8.9163325    194.60863  0.009653206 0.0083307008          108 
 1681000   0.59602282   -8.9353976    194.92441 0.0096631177 0.0083229267          111 
 1682000   0.58711907   -8.9219602    194.65933 0.0096442396  0.008315166           86 
 1683000   0.58311128   -8.9311373    194.51806 0.0096315143 0.0083074076           82 
 1684000   0.58622729   -8.9228781    194.98851 0.0096490753  0.008299672           92 
 1685000   0.57566348    -8.936443     195.0386 0.0096458258 0.0082919396          120 
 1686000   0.58545652   -8.9277525    194.75539 0.0096261066   0.00828421           83 
 1687000   0.58919994   -8.9332811    194.64621 0.0096150075 0.0082764866           93 
 1688000   0.58285586   -8.9377989    194.93033 0.0096233376 0.0082687866          145 
 1689000   0.58806507    -8.937325     194.4345 0.0095931765 0.0082610896           84 
 1690000     0.569149    -8.939349    194.93744 0.0096122999 0.0082534001           89 
 1691000   0.58518373   -8.9198072    194.55902 0.0095879666 0.0082457242           86 
 1692000   0.57717582   -8.9345664     194.8195 0.0095951291 0.0082380526           82 
 1693000   0.58045703   -8.9267897    194.72747 0.0095849315 0.0082303986          180 
 1694000   0.58100862   -8.9405284     194.4502 0.0095656336 0.0082227453           98 
 1695000   0.57458939   -8.9296481    194.73591 0.0095740369 0.0082151025          108 
 1696000   0.56814541   -8.9372156    194.70404 0.0095668257 0.0082074674           86 
 1697000   0.58115061   -8.9343048    194.90873 0.0095712397 0.0081998372          110 
 1698000   0.57843514   -8.9296846    194.84837 0.0095626407 0.0081922076          129 
 1699000   0.56203044   -8.9290932    194.76082 0.0095527182 0.0081845941          116 
 1700000     0.571814   -8.9282085    194.71393 0.0095448006 0.0081769968           73 
 1701000   0.57444321   -8.9385308    194.69063 0.0095380478 0.0081694156           91 
 1702000   0.57118334   -8.9338958    194.39374 0.0095179076 0.0081618386           79 
 1703000   0.58024983   -8.9530616    194.89285 0.0095367413 0.0081542658           85 
 1704000   0.58003066   -8.9379699    194.93394 0.0095331545 0.0081467039          100 
 1705000   0.57129406   -8.9329657    194.85215 0.0095235655 0.0081391508           88 
 1706000   0.56822076   -8.9406861    194.74573 0.0095127846 0.0081316065           95 
 1707000   0.57901884   -8.9379372    194.41442 0.0094910378 0.0081240647           89 
 1708000    0.5633435   -8.9351363     194.4734 0.0094883585 0.0081165353           79 
 1709000   0.56936663   -8.9323246    194.64883 0.0094913611 0.0081090198          140 
 1710000   0.57626476    -8.961951    194.84264 0.0094952553 0.0081015107           89 
 1711000    0.5577938   -8.9360442    194.83675  0.009489419 0.0080940147          150 
 1712000   0.57642301   -8.9455551    194.85083 0.0094845615 0.0080865217          140 
 1713000   0.57150231   -8.9235221    195.12776 0.0094924967   0.00807904           95 
 1714000   0.57451703   -8.9417992    194.91764 0.0094767423 0.0080715607           88 
 1715000   0.57307439   -8.9487616    194.55005 0.0094533553 0.0080640964           92 
 1716000   0.57713677   -8.9585278     194.4335 0.0094421865 0.0080566307           94 
 1717000   0.56406636   -8.9518039    194.86795 0.0094577727 0.0080491672           96 
 1718000   0.57992801   -8.9495477    194.64173 0.0094412948 0.0080417311           87 
 1719000   0.57317861   -8.9467795    194.51613 0.0094297133 0.0080343015          111 
 1720000   0.55990304   -8.9490018    194.60389  0.009428483  0.008026875           92 
 1721000   0.57142655    -8.940282    194.69238 0.0094272895 0.0080194644          146 
 1722000   0.56380837   -8.9594057    194.17989 0.0093970136 0.0080120565          210 
 1723000   0.56624838   -8.9472206    194.36051 0.0094002954 0.0080046542           88 
 1724000    0.5624178   -8.9528247     194.4695  0.009400111 0.0079972721           82 
 1725000   0.55294091   -8.9672795    194.63005 0.0094024181 0.0079898961           88 
 1726000   0.55885876    -8.967194    194.53681 0.0093924684 0.0079825284          125 
 1727000      0.56498   -8.9518868    194.47887  0.009384234  0.007975163          121 
 1728000   0.56356458   -8.9553602    194.58455 0.0093838999 0.0079678017          130 
 1729000   0.55985851   -8.9506959    194.43523 0.0093712755 0.0079604468          141 
 1730000   0.55446647   -8.9526092    194.42861 0.0093655402 0.0079530976           90 
 1731000   0.55356858   -8.9631203    194.62288 0.0093694822 0.0079457711          102 
 1732000   0.56032291   -8.9553991    194.60629  0.009363274 0.0079384494          109 
 1733000    0.5659781   -8.9489526    194.66946  0.009360909 0.0079311354          100 
 1734000    0.5632906   -8.9697668    194.55512 0.0093500153 0.0079238295           73 
 1735000   0.57113351    -8.951159    194.82126 0.0093574092 0.0079165312           86 
 1736000    0.5696518   -8.9557543    194.68822 0.0093456328 0.0079092462           77 
 1737000     0.549271   -8.9642097    194.38109 0.0093255179 0.0079019612           87 
 1738000   0.55048564   -8.9371015    194.67111 0.0093340579 0.0078946907           85 
 1739000   0.55826294   -8.9623104    194.33345 0.0093125096 0.0078874272           88 
 1740000   0.55890721    -8.961551    194.72231 0.0093257809 0.0078801787           88 
 1741000   0.55123729   -8.9808292    194.36762 0.0093034475 0.0078729364           80 
 1742000   0.55360183   -8.9829704      194.246 0.0092922886 0.0078657003           96 
 1743000   0.56238204   -8.9650779    194.45302  0.009296855 0.0078584664          117 
 1744000   0.55771014   -8.9692756    194.60958 0.0092990052 0.0078512443          100 
 1745000   0.55765151   -8.9762551    194.42695 0.0092849547 0.0078440327           94 
 1746000   0.55113167   -8.9823517    194.51322 0.0092837542 0.0078368288           89 
 1747000   0.55539019   -8.9607989    194.67422 0.0092861199 0.0078296326          141 
 1748000   0.56043174   -8.9554733    194.43583 0.0092694429 0.0078224482           99 
 1749000   0.55870008   -8.9626814    194.58307 0.0092711583 0.0078152622           94 
 1750000   0.53740689   -8.9696204    194.52191 0.0092629482 0.0078080828           93 
 1751000   0.54908326   -8.9859479     194.4785 0.0092555921   0.00780091           97 
 1752000   0.55184789   -8.9648571    194.21369 0.0092377137  0.007793758           87 
 1753000   0.55267987   -8.9690142    194.32302 0.0092376413 0.0077866062          133 
 1754000   0.55127438   -8.9685523    194.04714 0.0092192674 0.0077794648           87 
 1755000   0.53988506   -8.9771332    194.24752 0.0092235292 0.0077723139           90 
 1756000   0.55105082   -8.9632367    194.33837 0.0092225876 0.0077651845          158 
 1757000     0.558258   -8.9654233    194.34865 0.0092178264 0.0077580605           93 
 1758000    0.5508009   -8.9735503    194.35195 0.0092127393 0.0077509437           95 
 1759000    0.5565901     -8.99214    194.04891 0.0091931451 0.0077438374          112 
 1760000   0.55232001   -8.9819959    194.45499 0.0092071489 0.0077367394           92 
 1761000   0.55397929    -8.967086    194.48665 0.0092034189 0.0077296438          161 
 1762000   0.54842997   -8.9863875    194.22424 0.0091857853 0.0077225532          100 
 1763000   0.55524941   -8.9856826     194.5148 0.0091943091 0.0077154842          103 
 1764000   0.55503396   -8.9850339    194.41057 0.0091841729 0.0077084188          116 
 1765000   0.53716609   -8.9854724    193.92097 0.0091558532  0.007701363           85 
 1766000   0.55583696   -8.9838033    194.25694 0.0091665224 0.0076943146          209 
 1767000   0.55566512   -8.9764627      194.283 0.0091625638 0.0076872834          164 
 1768000   0.55915083   -8.9783136    194.02117 0.0091450401 0.0076802552          108 
 1769000   0.55340204   -8.9991554    194.17086 0.0091469221 0.0076732394           75 
 1770000    0.5523786   -8.9664715    194.49317 0.0091569291 0.0076662311          156 
 1771000   0.55154369   -8.9974059    194.55803 0.0091548105 0.0076592344          148 
 1772000   0.55715301   -8.9695401    194.25415 0.0091353532 0.0076522418          170 
 1773000    0.5544315   -9.0033627    194.33691 0.0091340906 0.0076452484          123 
 1774000   0.54274377   -8.9865238    194.18773 0.0091219337 0.0076382605          121 
 1775000   0.54992532   -8.9727777    194.20441 0.0091175782  0.007631284           99 
 1776000   0.52467803   -8.9880426    194.11485  0.009108242  0.007624309          127 
 1777000    0.5448974   -8.9897322    194.15461 0.0091049808 0.0076173465          132 
 1778000   0.55684201   -8.9879746    193.97717 0.0090915433 0.0076103956          125 
 1779000   0.54749929   -9.0196668     194.1876   0.00909629 0.0076034477          117 
 1780000   0.54372931   -9.0105756    194.34419 0.0090985108 0.0075965094           88 
 1781000   0.54408624    -8.995807    194.10337 0.0090821343 0.0075895703          148 
 1782000   0.54821654   -8.9985396    194.31286  0.009086834 0.0075826357          121 
 1783000   0.54372026   -8.9938957    194.09999 0.0090717888 0.0075757062          122 
 1784000   0.54565249   -9.0016682    194.13053 0.0090681303 0.0075687869           88 
 1785000   0.53019021   -8.9930387    194.64431 0.0090870359 0.0075618852           76 
 1786000   0.52494485   -9.0054116    194.09169 0.0090561632 0.0075549898           84 
 1787000   0.53309827   -9.0099873    193.84909 0.0090397821 0.0075480956           84 
 1788000   0.54290346   -9.0109083    194.02949 0.0090431342 0.0075412089           75 
 1789000    0.5428368   -8.9959641    193.97206 0.0090354041 0.0075343373           82 
 1790000   0.54553711   -9.0043091    194.29634 0.0090454532 0.0075274721          112 
 1791000   0.53270255   -8.9941898    194.22611 0.0090371354 0.0075206231           79 
 1792000   0.54608865   -9.0077293    193.94532 0.0090190345  0.007513783           88 
 1793000   0.52211343    -8.990453    194.44087 0.0090370364 0.0075069564          126 
 1794000    0.5395394   -8.9939226    194.17989 0.0090198761 0.0075001235          126 
 1795000   0.53254612   -9.0011364    194.46515 0.0090280945 0.0074933026           84 
 1796000   0.53299481   -9.0056056    194.26212 0.0090136469 0.0074864902           78 
 1797000    0.5337598   -9.0138866    193.97477 0.0089953056 0.0074796831           86 
 1798000   0.53513208   -9.0113386    194.15351  0.008998587 0.0074728869           87 
 1799000   0.54645431   -9.0176608    193.89783 0.0089817411 0.0074660945          129 
 1800000   0.51702166     -8.99707    194.21549 0.0089914577 0.0074593093          104 
 1801000   0.52483367   -8.9975843    194.14383 0.0089831495  0.007452534          141 
 1802000   0.52704405   -9.0047623    193.85698 0.0089648991 0.0074457644          156 
 1803000   0.53949562   -9.0004806    193.70686 0.0089529886 0.0074390106          135 
 1804000   0.53559537   -9.0005236    194.15207 0.0089685917 0.0074322678          112 
 1805000   0.53019979   -8.9986496    194.11657 0.0089619836 0.0074255362          127 
 1806000   0.53830454   -9.0067813     193.8117 0.0089429542 0.0074187976           93 
 1807000    0.5316334    -9.010833    194.18576 0.0089552556 0.0074120668           99 
 1808000   0.52286531   -9.0098122    194.00493 0.0089419675 0.0074053436          121 
 1809000    0.5377296    -8.994472    194.00742 0.0089371392 0.0073986271           96 
 1810000   0.51968333   -9.0199699    194.22175 0.0089420695 0.0073919243          184 
 1811000   0.53489469   -9.0231794    193.89154  0.008921937 0.0073852218          102 
 1812000   0.52422687   -9.0320937    193.89597 0.0089172172 0.0073785304          113 
 1813000   0.52248844   -9.0232422    194.37773 0.0089344423 0.0073718443           94 
 1814000   0.52843547   -9.0219143    194.08465 0.0089160534 0.0073651677          105 
 1815000   0.54329315   -9.0237435    193.81393  0.008898711 0.0073585005           93 
 1816000   0.53702837   -9.0126563    193.88799 0.0088972096 0.0073518391          104 
 1817000   0.51928119   -9.0190499    193.82981 0.0088896444 0.0073451869          120 
 1818000   0.52769755   -9.0296965    193.91644 0.0088887256 0.0073385487          102 
 1819000   0.51991344   -9.0290955    193.75091 0.0088762558 0.0073319112          126 
 1820000   0.51906765    -9.017388    193.99065 0.0088823556 0.0073252803          140 
 1821000    0.5350325   -9.0220568     193.8885 0.0088728036 0.0073186535          124 
 1822000   0.52468936   -9.0214504    193.80886 0.0088642911 0.0073120386          147 
 1823000    0.5133437     -9.01248    193.76172 0.0088572738 0.0073054254          204 
 1824000   0.52242845   -9.0372459    193.78089 0.0088532936 0.0072988275          124 
 1825000   0.51255211   -9.0290974    193.79296 0.0088489935  0.007292225           98 
 1826000   0.52215222   -9.0239767    193.80076 0.0088445033  0.007285631          144 
 1827000   0.52069925   -9.0398336    193.77457 0.0088384678 0.0072790461           99 
 1828000   0.53820216   -9.0204289    193.66912 0.0088288258 0.0072724713           79 
 1829000   0.53210134   -9.0321707    193.89226 0.0088341651 0.0072659054          111 
 1830000   0.52305311   -9.0238832    193.95445 0.0088321696 0.0072593472          100 
 1831000    0.5285669    -9.036621     194.2663 0.0088415393 0.0072527972           98 
 1832000   0.51586168   -9.0221781    193.66364 0.0088092996 0.0072462561           96 
 1833000   0.52509164   -9.0064019    193.63938 0.0088033908 0.0072397175           99 
 1834000   0.51776866   -9.0283918    193.50436 0.0087924553 0.0072331852          127 
 1835000   0.52501189   -9.0383489    193.79101 0.0088006817 0.0072266593           94 
 1836000   0.51707219   -9.0416072    193.73532 0.0087933604 0.0072201432           97 
 1837000   0.52116493   -9.0398138    193.56245 0.0087807318 0.0072136384           87 
 1838000   0.52534975   -9.0222285    193.69104 0.0087817845 0.0072071376          127 
 1839000    0.5275002   -9.0265185    193.74706 0.0087795477 0.0072006402          108 
 1840000   0.51438617   -9.0291747    193.89082 0.0087812873 0.0071941588          121 
 1841000   0.51753838   -9.0367177    194.00888 0.0087818613 0.0071876792           80 
 1842000    0.5241728   -9.0529315    193.44902 0.0087517653 0.0071812054           92 
 1843000   0.52061932   -9.0476518    193.62552 0.0087549974 0.0071747434          105 
 1844000   0.51621615   -9.0304434    193.97582 0.0087660802  0.007168292           96 
 1845000   0.52000149   -9.0327914    193.73476 0.0087504408 0.0071618437          125 
 1846000   0.50777399   -9.0499573    193.84859 0.0087508393 0.0071554007           96 
 1847000   0.51365259   -9.0532384    193.91331 0.0087490212 0.0071489659           92 
 1848000   0.52348394    -9.039573    193.73237  0.008736128 0.0071425383          129 
 1849000   0.52038857   -9.0479522    193.68204 0.0087291347 0.0071361175           88 
 1850000    0.4993653   -9.0383603    193.40115 0.0087117633 0.0071297017           99 
 1851000   0.51696144   -9.0203575    193.68757  0.008719952 0.0071232979          106 
 1852000   0.51787155   -9.0423967    193.77065 0.0087189818 0.0071169053          132 
 1853000   0.51001929   -9.0429817    193.78397 0.0087148755 0.0071105125          100 
 1854000   0.51508995    -9.046705    193.99237  0.008719542 0.0071041323           72 
 1855000   0.50445423   -9.0406503    193.68225 0.0087009095 0.0070977615          104 
 1856000   0.50306204   -9.0623361    193.61183 0.0086930598 0.0070913978          101 
 1857000   0.51801939   -9.0418472    193.92234 0.0087023129 0.0070850389           85 
 1858000   0.50904575   -9.0368899    193.81858 0.0086929752 0.0070786828          128 
 1859000   0.50972826    -9.052241    193.52223 0.0086750147 0.0070723305          128 
 1860000   0.51490213   -9.0427494    193.75957 0.0086809842 0.0070659919           97 
 1861000   0.50979772   -9.0623343    193.56984  0.008667824 0.0070596552          102 
 1862000   0.51416018   -9.0538497     193.6258 0.0086656732 0.0070533325          136 
 1863000   0.51139262   -9.0481179    193.40798 0.0086512784 0.0070470083          114 
 1864000   0.51967066   -9.0519395    193.67968 0.0086587838 0.0070406971           87 
 1865000    0.5158568   -9.0452057    193.39831 0.0086415686 0.0070343974          111 
 1866000   0.50875098   -9.0438286    193.38194 0.0086362069 0.0070281012           94 
 1867000   0.51118792   -9.0535605    193.41174 0.0086329111  0.007021814          101 
 1868000   0.50767749   -9.0575663    193.78636 0.0086450017  0.007015536          109 
 1869000   0.50981914   -9.0484878     193.5426 0.0086295076 0.0070092605          103 
 1870000   0.50932006   -9.0378008    193.48641 0.0086223889 0.0070029905          128 
 1871000   0.50331364   -9.0756502    193.83994 0.0086335267 0.0069967312           86 
 1872000   0.52473114   -9.0581616    193.53749 0.0086154508 0.0069904801           99 
 1873000   0.49369206   -9.0714533    193.38129 0.0086039016 0.0069842354           96 
 1874000   0.50564899    -9.053845    193.47947 0.0086036762 0.0069780028           93 
 1875000   0.50023424     -9.06165    193.46929  0.008598635 0.0069717703           89 
 1876000   0.49449346   -9.0558736    193.44303 0.0085928853 0.0069655438           98 
 1877000   0.50430994    -9.066928    193.38098 0.0085855525 0.0069593255          114 
 1878000   0.51223616   -9.0642117    193.44768 0.0085839404 0.0069531122          121 
 1879000   0.49719775   -9.0730037    193.56076 0.0085843873  0.006946911          138 
 1880000   0.48603466   -9.0645006    193.74144 0.0085878296 0.0069407149           99 
 1881000   0.49748547   -9.0590275    193.43914 0.0085698717 0.0069345292          107 
 1882000   0.50211129   -9.0549499    193.50312 0.0085681511 0.0069283465           91 
 1883000   0.50224846   -9.0747814    193.65659 0.0085703925 0.0069221747          134 
 1884000    0.5028659   -9.0527199    193.46865 0.0085575306 0.0069160045          105 
 1885000   0.50277155   -9.0642394    193.82899 0.0085689211 0.0069098472          107 
 1886000   0.51119629   -9.0645917     193.6875 0.0085581256 0.0069037005          129 
 1887000   0.49837479   -9.0731813    193.46536 0.0085437804 0.0068975564          128 
 1888000   0.49993284   -9.0722835    193.57487 0.0085440884 0.0068914199          129 
 1889000   0.49901721   -9.0688507    193.21255 0.0085235817 0.0068852967          104 
 1890000   0.49190093   -9.0691414    193.45692 0.0085298468 0.0068791732           98 
 1891000   0.50057718   -9.0562331    193.40079 0.0085228623 0.0068730556          159 
 1892000   0.49243278   -9.0675079     193.4703 0.0085214191 0.0068669416          152 
 1893000   0.50653803   -9.0790057    193.49181 0.0085178645 0.0068608364          131 
 1894000   0.50642616   -9.0876939    193.15146 0.0084983923 0.0068547428          135 
 1895000   0.49230321   -9.0688473    193.76889 0.0085210594 0.0068486572          162 
 1896000   0.48907633   -9.0727744    193.62015 0.0085100277 0.0068425761          120 
 1897000   0.47743043    -9.074464    193.27032  0.008490174 0.0068365032          110 
 1898000   0.48761709   -9.0590813    193.21832 0.0084834177 0.0068304366          100 
 1899000    0.4952141    -9.064127    193.05293 0.0084716926 0.0068243763          109 
 1900000   0.50089405   -9.0786818    193.40007 0.0084824592 0.0068183242          113 
 1901000   0.49687566   -9.0697316     193.3271 0.0084747984 0.0068122843          104 
 1902000   0.50977989   -9.0726375    193.48115 0.0084770921 0.0068062483          100 
 1903000   0.49102283   -9.0809075    193.65976 0.0084804591 0.0068002272          120 
 1904000   0.49234284   -9.0735778    193.40341 0.0084647851 0.0067942063          101 
 1905000   0.49728222   -9.0768643    193.42797 0.0084614158 0.0067881948          151 
 1906000   0.49474171   -9.0724756    193.30692  0.008451684 0.0067821887          135 
 1907000   0.48831479   -9.0750907    193.53264  0.008457116 0.0067761893          112 
 1908000   0.50525692   -9.0859529    193.53251 0.0084526778 0.0067701921          136 
 1909000   0.49801638   -9.0817707    193.39709 0.0084423387 0.0067642003          128 
 1910000   0.49596219    -9.095573    193.32486 0.0084347671  0.006758216          104 
 1911000   0.49147018     -9.07368     193.1156 0.0084212282   0.00675224          113 
 1912000   0.47946793   -9.0746719    193.28967 0.0084244103  0.006746264          144 
 1913000   0.48854965   -9.0750934    193.33259 0.0084218763 0.0067403002           95 
 1914000   0.48832646   -9.0828345    193.32978 0.0084173539 0.0067343377          113 
 1915000   0.49270383   -9.0763708    193.29502 0.0084114457 0.0067283873          107 
 1916000   0.48197863   -9.0892202    193.09943 0.0083985485 0.0067224361          105 
 1917000   0.47956191   -9.0853117    193.35288 0.0084051851 0.0067164954          133 
 1918000   0.48678486   -9.0867107    193.00849 0.0083858398  0.006710565          111 
 1919000   0.49409804   -9.0865585    193.40273 0.0083985901 0.0067046426          110 
 1920000   0.50020735   -9.0962391    193.06879 0.0083797217 0.0066987208           96 
 1921000   0.49535072   -9.0886979    193.07012 0.0083754173  0.006692804          108 
 1922000   0.49540987   -9.0864898    193.13067 0.0083736848 0.0066869032          204 
 1923000   0.48802003   -9.0862089    193.22882 0.0083735837 0.0066810046          121 
 1924000   0.48562418    -9.092263     193.1146 0.0083642845 0.0066751148          109 
 1925000   0.49113668   -9.0828949    193.12855 0.0083605434 0.0066692347          103 
 1926000   0.48515502   -9.0826456    193.35237 0.0083658866 0.0066633559          138 
 1927000   0.47439284   -9.0805876    193.22614 0.0083560862  0.006657487          187 
 1928000   0.48375514    -9.097578     193.0416  0.008343776 0.0066516284          116 
 1929000   0.47956773   -9.0918428    193.12756 0.0083431639 0.0066457744          142 
 1930000   0.48417423   -9.0929139     192.9796 0.0083324524 0.0066399231          105 
 1931000   0.48433655   -9.0894826    193.00695 0.0083293178 0.0066340778          115 
 1932000   0.48355929   -9.0999651    193.43166 0.0083433256 0.0066282441          107 
 1933000   0.49261779   -9.1002162    193.11448 0.0083253353 0.0066224163          116 
 1934000   0.47643669   -9.0947023    193.32061 0.0083299124 0.0066165881          121 
 1935000   0.48066889   -9.0901992    193.45224 0.0083312764 0.0066107762          115 
 1936000   0.49697458    -9.101967    193.50749 0.0083293513  0.006604972          123 
 1937000   0.48396678   -9.0978315    193.52732 0.0083259044 0.0065991688           98 
 1938000   0.47292052   -9.0900468    193.17558 0.0083064834 0.0065933748          108 
 1939000   0.48267936   -9.1021293    193.37927 0.0083109537 0.0065875855          134 
 1940000   0.48216915   -9.1003744     193.2829 0.0083025301 0.0065817974          112 
 1941000   0.48067953   -9.0960022     192.9905 0.0082856989 0.0065760144           92 
 1942000   0.47080548   -9.1015236    192.81237 0.0082737886 0.0065702451          142 
 1943000   0.47375135    -9.117803    192.73711 0.0082663027 0.0065644776          137 
 1944000   0.47223634   -9.0958656    193.07774 0.0082766522 0.0065587195          116 
 1945000   0.47460581   -9.0827652    192.94656 0.0082667764 0.0065529716          112 
 1946000   0.46535242   -9.0969814    193.22497 0.0082744507 0.0065472328          117 
 1947000   0.48619294   -9.0947169    193.11202 0.0082653663 0.0065414937          105 
 1948000   0.47633272   -9.1004341    193.14618 0.0082625847 0.0065357671          129 
 1949000   0.47921914   -9.1098568    193.24209 0.0082624459 0.0065300382          139 
 1950000   0.47738032   -9.0995856    193.08737 0.0082515972  0.006524318          104 
 1951000   0.46240705   -9.1089435    193.11504 0.0082485496 0.0065186084           99 
 1952000   0.47929625   -9.0957614    192.95068 0.0082373071 0.0065129025          109 
 1953000    0.4629294   -9.1030186    192.86212 0.0082293105 0.0065071997          136 
 1954000   0.46319019    -9.114029    193.27681 0.0082427843  0.006501505          124 
 1955000   0.47834101   -9.1110821    193.23205 0.0082366604 0.0064958188          109 
 1956000   0.46802792   -9.1325757    193.15738 0.0082292679 0.0064901354          120 
 1957000   0.46249442   -9.1203231    192.96582 0.0082169059 0.0064844574          113 
 1958000   0.47521143   -9.1054447    193.07426 0.0082173245 0.0064787881          109 
 1959000   0.46425116   -9.0969188    193.11754 0.0082149712  0.006473124          114 
 1960000   0.47006384   -9.1014854    192.88868 0.0082010495 0.0064674647          164 
 1961000   0.47053493   -9.1070067    193.18691 0.0082095406 0.0064618143          114 
 1962000   0.48432538   -9.1091961    192.73799 0.0081862892  0.006456165          105 
 1963000   0.45685455   -9.1070328    192.90728 0.0081893055 0.0064505311          144 
 1964000   0.46863791    -9.114667     193.1006 0.0081933383 0.0064448971          102 
 1965000   0.47972881   -9.1232505     192.8977 0.0081805641 0.0064392747          141 
 1966000    0.4644187   -9.1098716    193.09321 0.0081846902 0.0064336632          119 
 1967000   0.47405723    -9.132516    192.87237 0.0081711732 0.0064280592          118 
 1968000   0.47153601    -9.093684    193.20984 0.0081813112 0.0064224532          139 
 1969000    0.4677034   -9.1158896    193.22125 0.0081776389 0.0064168556          183 
 1970000   0.46640933    -9.119122    192.68914 0.0081509786 0.0064112621          120 
 1971000   0.46383077   -9.1154582    192.94343 0.0081575945 0.0064056776          148 
 1972000   0.46322685   -9.1178519    192.84083 0.0081491222 0.0064000988          150 
 1973000   0.45706454    -9.119954    192.91774 0.0081482402 0.0063945247          172 
 1974000   0.46110044   -9.1241017    192.84063 0.0081408575 0.0063889535          124 
 1975000   0.46953813   -9.1276562    192.76914 0.0081337191 0.0063833921          139 
 1976000    0.4678076   -9.1186352    193.06745 0.0081421831 0.0063778371          130 
 1977000   0.46147646   -9.1263039    192.86874  0.008129689 0.0063722879          217 
 1978000   0.46789752   -9.1314967    192.80645 0.0081229546 0.0063667416          129 
 1979000   0.45443034    -9.123005    192.99867 0.0081269442 0.0063612096          170 
 1980000   0.46292498   -9.1238643    192.89843 0.0081186206 0.0063556768          125 
 1981000   0.46327248   -9.1401735    192.81104 0.0081108463 0.0063501477          120 
 1982000   0.46254695   -9.1032212    192.93032 0.0081117694 0.0063446289          122 
 1983000   0.45008223   -9.1322382    192.88694 0.0081058558 0.0063391183          118 
 1984000   0.44966159   -9.1403812    192.64185 0.0080914757 0.0063336104          186 
 1985000   0.45532785   -9.1334272    192.60129 0.0080856964 0.0063281112          114 
 1986000   0.46846879   -9.1351481    192.89221 0.0080938324 0.0063226195          115 
 1987000   0.45518193   -9.1269212    192.75247 0.0080838984 0.0063171391          162 
 1988000   0.46223669   -9.1299389    192.91342 0.0080865787 0.0063116654          110 
 1989000   0.45804111   -9.1218081    192.93618 0.0080834665 0.0063061934          142 
 1990000   0.45455385   -9.1318835    192.66225 0.0080679335 0.0063007311          126 
 1991000   0.45625141   -9.1386768    192.75784 0.0080678823  0.006295272          126 
 1992000   0.45671354   -9.1338267    192.77974 0.0080647481 0.0062898219          147 
 1993000   0.46068173   -9.1275183    193.08865 0.0080736179 0.0062843764          131 
 1994000   0.46628127   -9.1263601    193.10593 0.0080702913 0.0062789356          116 
 1995000   0.45600051   -9.1371838    192.70489 0.0080494943 0.0062735013          144 
 1996000   0.45273962   -9.1187118     192.9024 0.0080537075 0.0062680703          131 
 1997000   0.45200782   -9.1411191    192.70708 0.0080415241 0.0062626475          126 
 1998000   0.44466748    -9.128984    192.83316 0.0080427577 0.0062572327          126 
 1999000   0.45311723   -9.1223941    193.01066  0.008046134 0.0062518212          198 
 2000000   0.45855568   -9.1392984    192.66233 0.0080275971 0.0062464185          138 
 2001000   0.44910033   -9.1418464    193.03692 0.0080391853 0.0062410212          162 
 2002000   0.45600512   -9.1343517    193.02029 0.0080344777 0.0062356257          116 
 2003000   0.45628478    -9.139674    192.79283 0.0080210029  0.006230233          169 
 2004000   0.45193401   -9.1339283    193.17441 0.0080328681 0.0062248543          166 
 2005000   0.44786387   -9.1405087    192.82531 0.0080143518 0.0062194773          131 
 2006000   0.45444724   -9.1384554    192.68981 0.0080047279 0.0062141009          138 
 2007000   0.44891495   -9.1483069    192.52135 0.0079937447 0.0062087349          113 
 2008000   0.44857732   -9.1497392    192.64273 0.0079948012 0.0062033717          136 
 2009000   0.44670764   -9.1291239    192.57974 0.0079882089 0.0061980151          120 
 2010000   0.45203641   -9.1312517    192.77579 0.0079923628 0.0061926674          150 
 2011000   0.44322687   -9.1379489    192.72564 0.0079863103 0.0061873263          114 
 2012000   0.45198511   -9.1350355    192.63357 0.0079785276 0.0061819911          128 
Loop time of 5130.24 on 48 procs for 2000000 steps with 4000 atoms

Performance: 67365.274 tau/day, 389.845 timesteps/s
99.4% CPU use with 48 MPI tasks x no OpenMP threads

MPI task timing breakdown:
Section |  min time  |  avg time  |  max time  |%varavg| %total
---------------------------------------------------------------
Pair    | 360.47     | 382.51     | 402.79     |  42.2 |  7.46
Neigh   | 34.395     | 35.609     | 37.599     |  11.2 |  0.69
Comm    | 324.38     | 343.83     | 368.55     |  55.8 |  6.70
Output  | 4.3297     | 4.3316     | 4.3807     |   0.3 |  0.08
Modify  | 4306.2     | 4317.4     | 4330.1     |  10.3 | 84.16
Other   |            | 46.57      |            |       |  0.91

Nlocal:        83.3333 ave          91 max          77 min
Histogram: 2 0 10 9 8 8 3 7 0 1
Nghost:        2286.65 ave        2299 max        2270 min
Histogram: 1 1 2 4 10 8 9 8 2 3
Neighs:        15534.5 ave       17670 max       14274 min
Histogram: 5 6 7 9 6 12 0 1 1 1
FullNghs:      31070.2 ave       34170 max       28624 min
Histogram: 2 2 6 15 7 4 6 5 0 1

Total # of neighbors = 1491370
Ave neighs/atom = 372.84250
Neighbor list builds = 106581
Dangerous builds = 0

#clear
#
#next RN
#
#jump SELF
Total wall time: 1:25:33
