
units lj                  # Use reduced LJ style units
atom_style atomic         # Uncharged point particles
atom_modify map hash      # Needed for indexing of clusters etc
                          # Used to be able to find where atoms are in relation to each other.

lattice fcc 1.0 spacing 1 1 1
Lattice spacing in x,y,z = 1.5874011 1.5874011 1.5874011
region box block 0 10 0 10 0 10 units lattice
create_box 2 box
Created orthogonal box = (0.0000000 0.0000000 0.0000000) to (15.874011 15.874011 15.874011)
  3 by 4 by 4 MPI processor grid
create_atoms 1 box
Created 4000 atoms
  using lattice units in orthogonal box = (0.0000000 0.0000000 0.0000000) to (15.874011 15.874011 15.874011)
  create_atoms CPU = 0.003 seconds
set type 1 type/fraction 2 0.47 78393
Setting atom values ...
  1873 settings made for type/fraction
mass 1 1.0
mass 2 1.0
pair_style lj/cut  3.5
pair_modify tail  yes
pair_coeff 1  1  1.0  1.0   # Intearaction between 1 and 1 set with epsilon = 1 and sigma = 1
pair_coeff 1  2  1.5  0.8
pair_coeff 2  2  0.5  0.88

write_data data.0
System init for write_data ...
Neighbor list info ...
  update every 1 steps, delay 10 steps, check yes
  max neighbors/atom: 2000, page size: 100000
  master list distance cutoff = 3.8
  ghost atom cutoff = 3.8
  binsize = 1.9, bins = 9 9 9
  1 neighbor lists, perpetual/occasional/extra = 1 0 0
  (1) pair lj/cut, perpetual
      attributes: half, newton on
      pair build: half/bin/atomonly/newton
      stencil: half/bin/3d
      bin: standard
WARNING: Not all mixed pair coeffs generated from mixing. Use write_data with 'pair ij' option to store all pair coeffs. (../write_data.cpp:312)


#############################
#   M E L T   S Y S T E M   #
#############################

velocity all create 2.4 9622624 mom yes dist gaussian # Assign velocities
                                                    # Temperature 2.4, random number seed, zero linear momentum
                                                                                # Gaussian distribution

timestep 0.002   # simulation timestep
thermo 1000       # output thermodynamic data every 1000 steps bf 100

# Define a fix  in this case with index 1 applied to all
# particles in the simulation. This fix is for simulations
# in the anisotropic NPT ensemble. Note that we use the MTK
# correction.
fix 1 all npt temp 2.4 2.4 0.1 iso 5.68 5.68 0.5 mtk yes tchain 5 pchain 5 # Use NPT ensemble
                                                                         # Set temperature and pressure and damping
                                                                         # Numbers of thermostats in chain and in barostat
run 10000          # run for 10000 steps
Per MPI rank memory allocation (min/avg/max) = 3.642 | 3.644 | 3.648 Mbytes
Step Temp E_pair E_mol TotEng Press Volume 
       0          2.4   -5.4815223            0   -1.8824223   -4.2035566         4000 
    1000    2.4181925   -4.9758625            0   -1.3494806    5.8449821    3734.3199 
    2000    2.4071931   -4.9307089            0    -1.320822      5.67346    3773.5517 
    3000    2.3968015   -5.0180878            0   -1.4237844    5.7994576    3722.8114 
    4000    2.3780009   -4.9694328            0   -1.4033233    5.6993766    3745.5686 
    5000    2.4172527    -4.968889            0   -1.3439164    5.6134118     3755.655 
    6000    2.3715392   -4.9242718            0   -1.3678524     5.434315    3791.0413 
    7000    2.4287157   -4.9580712            0   -1.3159084    5.9171236      3731.59 
    8000    2.4418558   -4.9889813            0   -1.3271133    5.5459923    3757.0818 
    9000    2.3632732   -4.9456173            0   -1.4015938    5.6361235    3761.2996 
   10000    2.3787814   -5.0298471            0   -1.4625671    5.5802569    3734.8311 
Loop time of 2.63614 on 48 procs for 10000 steps with 4000 atoms

Performance: 655503.801 tau/day, 3793.425 timesteps/s
99.6% CPU use with 48 MPI tasks x no OpenMP threads

MPI task timing breakdown:
Section |  min time  |  avg time  |  max time  |%varavg| %total
---------------------------------------------------------------
Pair    | 1.1579     | 1.2293     | 1.3643     |   3.6 | 46.63
Neigh   | 0.21243    | 0.22113    | 0.24675    |   1.3 |  8.39
Comm    | 0.76327    | 0.91651    | 1.0066     |   5.2 | 34.77
Output  | 0.00024351 | 0.0002476  | 0.00030718 |   0.0 |  0.01
Modify  | 0.2238     | 0.25301    | 0.30074    |   3.9 |  9.60
Other   |            | 0.01597    |            |       |  0.61

Nlocal:        83.3333 ave          92 max          75 min
Histogram: 2 4 8 5 6 8 3 6 3 3
Nghost:        1720.06 ave        1766 max        1695 min
Histogram: 4 5 9 15 6 7 0 1 0 1
Neighs:        10220.2 ave       11472 max        8903 min
Histogram: 2 2 5 10 4 4 11 5 0 5

Total # of neighbors = 490570
Ave neighs/atom = 122.64250
Neighbor list builds = 905
Dangerous builds = 201

# Equilibrate just above the melting temperature to avoid step fn in T

fix 1 all npt temp 1.25 1.25 0.1 iso 5.68 5.68 0.5 mtk yes tchain 5 pchain 5
run 2000
Per MPI rank memory allocation (min/avg/max) = 3.644 | 3.646 | 3.649 Mbytes
Step Temp E_pair E_mol TotEng Press Volume 
   10000    2.3787814   -5.0298471            0   -1.4625671    5.5802569    3734.8311 
   11000    1.2317296    -7.041578            0   -5.1944455    5.7323103    2941.2482 
   12000    1.2643855   -7.1259087            0   -5.2298045    5.6316423    2924.1827 
Loop time of 0.635696 on 48 procs for 2000 steps with 4000 atoms

Performance: 543656.105 tau/day, 3146.158 timesteps/s
99.6% CPU use with 48 MPI tasks x no OpenMP threads

MPI task timing breakdown:
Section |  min time  |  avg time  |  max time  |%varavg| %total
---------------------------------------------------------------
Pair    | 0.28651    | 0.30804    | 0.34167    |   2.4 | 48.46
Neigh   | 0.040581   | 0.043016   | 0.046702   |   0.7 |  6.77
Comm    | 0.19954    | 0.236      | 0.26       |   3.0 | 37.12
Output  | 5.0592e-05 | 5.1872e-05 | 6.7002e-05 |   0.0 |  0.01
Modify  | 0.0406     | 0.043772   | 0.047621   |   0.9 |  6.89
Other   |            | 0.004818   |            |       |  0.76

Nlocal:        83.3333 ave          92 max          74 min
Histogram: 2 3 5 8 3 5 10 6 5 1
Nghost:        2040.35 ave        2060 max        2022 min
Histogram: 3 2 7 7 8 6 5 4 4 2
Neighs:        13078.9 ave       14569 max       11574 min
Histogram: 4 3 5 7 6 4 5 5 6 3

Total # of neighbors = 627789
Ave neighs/atom = 156.94725
Neighbor list builds = 144
Dangerous builds = 13

#############################
# L I N E A R  Q U E N C H  #
#############################

# Define solid atoms. This closely follows ten Wolde  Ruiz-Montero and Frenkel  Faraday Discuss  1996  104  93-110
# Compute components of the per-atom q6 vector
compute q6 all orientorder/atom degrees 1 6 components 6 nnn NULL cutoff 1.3 # compute the Q6 parameter.
                                                                             # Use all neighbours within 1.3 unit cell.

# get number of connections
compute coord_number all coord/atom orientorder q6 0.5

# An atom is solid if it has 8 or more connections (of a possible 14)
variable is_solid atom c_coord_number>=8
group solid dynamic all var is_solid    # Must be dynamic to update
dynamic group solid defined

# do clustering
compute cluster solid cluster/atom 1.3 # Create a cluster where all atoms within are solid and max 1.3 units from another member

# define chunks one chunk per cluster
compute clus_chunks solid chunk/atom c_cluster nchunk every compress yes  # Says which atoms are in which chunk

# count the size of each chunk
compute size_chunks solid property/chunk clus_chunks count


# Find the maximum entry in the vector of chunk sizes
variable max_n equal max(c_size_chunks)


# Thermo style which includes this variable
# thermo_style custom step temp pe vol v_max_n

thermo ${N}  # Print the thermo information every 100 steps
thermo 1000  

# Reset the npt fix at a lower temperature (below freezing)
fix 1  all npt temp  ${temp} ${temp}  0.1  iso  5.68  5.68  0.5  mtk yes tchain  5  pchain  5
fix 1  all npt temp  0.45 ${temp}  0.1  iso  5.68  5.68  0.5  mtk yes tchain  5  pchain  5
fix 1  all npt temp  0.45 0.45  0.1  iso  5.68  5.68  0.5  mtk yes tchain  5  pchain  5

dump dmp2 all dcd ${N} traj.dcd
dump dmp2 all dcd 1000 traj.dcd


compute msd all msd com yes
variable twopoint equal c_msd[4]/6/(step*dt+1.0e-6)
fix 9 all vector 10 c_msd[4]
variable fit equal slope(f_9)/6/(10*dt)
thermo_style custom step temp pe c_msd[4] v_twopoint v_fit v_max_n

fix 1 all npt temp 1.25 ${temp} 0.1 iso 5.68 5.68 0.5 mtk yes tchain 5 pchain 5
fix 1 all npt temp 1.25 0.45 0.1 iso 5.68 5.68 0.5 mtk yes tchain 5 pchain 5
run 500000 # 5000000  # Run for this many steps
Neighbor list info ...
  update every 1 steps, delay 10 steps, check yes
  max neighbors/atom: 2000, page size: 100000
  master list distance cutoff = 3.8
  ghost atom cutoff = 3.8
  binsize = 1.9, bins = 8 8 8
  4 neighbor lists, perpetual/occasional/extra = 1 3 0
  (1) pair lj/cut, perpetual
      attributes: half, newton on
      pair build: half/bin/atomonly/newton
      stencil: half/bin/3d
      bin: standard
  (2) compute orientorder/atom, occasional
      attributes: full, newton on
      pair build: full/bin/atomonly
      stencil: full/bin/3d
      bin: standard
  (3) compute coord/atom, occasional
      attributes: full, newton on
      pair build: full/bin/atomonly
      stencil: full/bin/3d
      bin: standard
  (4) compute cluster/atom, occasional
      attributes: full, newton on
      pair build: full/bin/atomonly
      stencil: full/bin/3d
      bin: standard
Per MPI rank memory allocation (min/avg/max) = 9.835 | 9.841 | 9.844 Mbytes
Step Temp PotEng c_msd[4] v_twopoint v_fit v_max_n 
   12000    1.2643855   -7.1259087 5.9164568e-34 4.1086504e-36 8.3333333e+20            2 
   13000    1.2503944   -7.1108819   0.47518414  0.003046052  0.038554345            2 
   14000    1.2394586   -7.1072965   0.90539748 0.0053892705  0.037549494            1 
   15000    1.2498567   -7.1342844    1.2849661 0.0071387001   0.03534209            1 
   16000    1.2400918   -7.1457562    1.6533962 0.0086114381  0.033942827            2 
   17000    1.2418772   -7.1698924    2.0319202 0.0099603929  0.033383606            2 
   18000    1.2611685   -7.1874963    2.3615614  0.010933154  0.032402798            4 
   19000    1.2384042   -7.1204584    2.7419995  0.012026313  0.031650597            1 
   20000    1.2386453   -7.1518128    3.1856051  0.013273354  0.031827239            1 
   21000    1.2618804   -7.1474485     3.601051  0.014289884  0.032081702            2 
   22000    1.2240216   -7.2078449    3.9182294  0.014841778  0.032132895            1 
   23000    1.2357282    -7.164212    4.2844872  0.015523504  0.032015882            3 
   24000    1.2285867   -7.1935541    4.6253983  0.016060411  0.031821606            1 
   25000     1.242515   -7.2340665    5.0609027  0.016869675  0.031654717            2 
   26000    1.2394141   -7.1650695    5.5137188  0.017672175  0.031701086            1 
   27000     1.225994   -7.2051771    5.9025133  0.018217633  0.031827257            2 
   28000    1.2244738   -7.1594687    6.3490999   0.01889613  0.032002834            3 
   29000    1.2073667   -7.1977449    6.6205027  0.019024433  0.032069817            2 
   30000    1.2203789   -7.1960915    6.9728976   0.01936916  0.032027065            2 
   31000    1.2246385   -7.2635399    7.3693528  0.019810088  0.031964319            1 
   32000    1.2101151   -7.2287768    7.7239527   0.02011446  0.031935957            2 
   33000    1.2233182   -7.2059736    8.0487282  0.020325071  0.031846663            2 
   34000    1.1976165   -7.2067232     8.374012  0.020524539   0.03171822            1 
   35000    1.2039335   -7.1895329    8.6771924  0.020659982  0.031593141            1 
   36000    1.2092251   -7.2332446    9.0321096  0.020907661  0.031416665            3 
   37000    1.2284816   -7.2523867    9.3079887  0.020963938  0.031230722            1 
   38000     1.213722   -7.2497711    9.6264293   0.02111059  0.031044119            1 
   39000    1.2243149   -7.2379501    9.9588952   0.02127969  0.030877347            2 
   40000    1.1966954    -7.225497    10.265396  0.021386242    0.0307011            5 
   41000     1.208943   -7.2366937    10.701316  0.021750642  0.030553876            2 
   42000    1.1904333   -7.2322977    11.103258  0.022030274  0.030467544            2 
   43000    1.2038094   -7.2829878    11.388118  0.022069996  0.030395026            2 
   44000     1.206826   -7.2184034    11.865316   0.02247219  0.030331926            2 
   45000    1.1844256   -7.2383562    12.167369  0.022532165  0.030280342            2 
   46000    1.2072638    -7.265566    12.539385  0.022716277  0.030227399            4 
   47000    1.1872112   -7.3104482    12.821361   0.02273291  0.030173754            2 
   48000    1.2074069   -7.2771955    13.213081  0.022939376  0.030129235            2 
   49000    1.1944413   -7.3286723    13.564363  0.023068644  0.030096585            3 
   50000    1.1856933   -7.2984292    13.868726  0.023114543  0.030061051            2 
   51000    1.1940596   -7.2888336    14.030008  0.022924849  0.030004231            1 
   52000    1.1753407   -7.2967526    14.450402  0.023157695  0.029922397            3 
   53000    1.1744305   -7.3131291    14.842858  0.023337827  0.029859625            2 
   54000    1.1964944   -7.2294953      15.2477  0.023530401  0.029820715            2 
   55000    1.1699109   -7.3430057    15.517731  0.023511713  0.029780711            2 
   56000    1.1769616   -7.2798976    15.969269  0.023763793  0.029734851            3 
   57000    1.1865406    -7.272651    16.308388  0.023842673  0.029701663            3 
   58000    1.1621725   -7.3699603    16.670907  0.023952453  0.029680217            1 
   59000    1.1914572   -7.3614052    16.935044  0.023919553  0.029657258            3 
   60000    1.1717035    -7.356021    17.341021  0.024084751  0.029627844            1 
   61000    1.1547928   -7.3422023    17.673999  0.024144807  0.029605403            2 
   62000    1.1770361   -7.3750743    18.017742  0.024217395  0.029589524            3 
   63000    1.1717518   -7.3514144    18.268179  0.024164258  0.029558632            1 
   64000    1.1600222   -7.3883102    18.603646  0.024223497   0.02952089            3 
   65000    1.1734382   -7.3298364    18.938244  0.024279799  0.029477969            1 
   66000    1.1496461   -7.3965559    19.256094   0.02431325  0.029435844            2 
   67000    1.1662777   -7.3716699     19.58246  0.024356293  0.029403761            2 
   68000    1.1763177   -7.4360916     19.65925  0.024092219  0.029346609            5 
   69000    1.1402634   -7.3590569    20.044548  0.024208392  0.029289782            2 
   70000    1.1775282   -7.3504598    20.366811  0.024246203  0.029222038            3 
   71000    1.1346449   -7.3682561    20.683537  0.024276452  0.029157521            2 
   72000    1.1398131   -7.3591131    20.915003  0.024207179  0.029085025            2 
   73000    1.1502754   -7.3700184    21.055519  0.024035981  0.029006255            4 
   74000     1.119549   -7.4064924     21.24185  0.023921002  0.028911349            1 
   75000    1.1475493   -7.4052078    21.635422  0.024039358  0.028815114            1 
   76000    1.1368593   -7.3896267    21.916763  0.024031538  0.028722977            2 
   77000    1.1550961   -7.4573182    22.128707  0.023948816  0.028632195            4 
   78000    1.1181322   -7.3828541    22.558306  0.024100754  0.028544226            2 
   79000    1.1390972   -7.4004047    22.842933   0.02409592  0.028463905            4 
   80000    1.1437614   -7.3946386    22.968852  0.023925887  0.028381015            1 
   81000    1.1456925   -7.4114964    23.287432  0.023958264  0.028290849            2 
   82000    1.1417393   -7.3883566    23.634713  0.024019017  0.028204938            1 
   83000    1.1398177   -7.4561477    23.860323  0.023956148  0.028119975            2 
   84000    1.1459167   -7.3988763    24.325244  0.024132186   0.02804538            2 
   85000    1.1395301   -7.4072068    24.404636  0.023926114  0.027970162            2 
   86000    1.1239322   -7.4678792    24.759507   0.02399177  0.027896329            1 
   87000    1.1474283   -7.4460906    25.118472  0.024059838  0.027829886            3 
   88000    1.1214679   -7.4039728    25.476598  0.024125566  0.027762789            4 
   89000    1.1092728   -7.4417966    25.818233  0.024174376  0.027703431            1 
   90000    1.1181387   -7.4629054    26.143665  0.024207097  0.027649986            2 
   91000    1.1042352   -7.4353037     26.34822  0.024128406  0.027596543            1 
   92000     1.114196   -7.4527333    26.634622  0.024125564  0.027538121            4 
   93000    1.0937465     -7.44177    26.749698  0.023969263  0.027474409            1 
   94000    1.1407737   -7.4966111    26.946744  0.023888957  0.027407171            1 
   95000    1.1079712   -7.4809891    27.223449  0.023880218   0.02733811            2 
   96000    1.1133243   -7.4899639    27.585295  0.023945569  0.027270631            2 
   97000    1.1205809   -7.5307404    27.779928  0.023865917  0.027203122            1 
   98000    1.0991119   -7.4816357    27.991795  0.023802546  0.027131011            1 
   99000    1.0969317   -7.5013362    28.322081  0.023840135  0.027063614            2 
  100000    1.1151263   -7.4653906    28.636962  0.023864135  0.027000413            2 
  101000    1.1198346   -7.4940676    28.995131  0.023923375  0.026936844            5 
  102000     1.125221   -7.4849216    29.168897  0.023830798  0.026876471            1 
  103000    1.1229009   -7.5090245    29.269122  0.023680519  0.026812071            4 
  104000    1.0985192   -7.4984041    29.664232  0.023769417  0.026744401            3 
  105000    1.0939491   -7.5222455    29.903722  0.023733113   0.02668182            2 
  106000    1.1227556   -7.5167779    29.998431  0.023583672   0.02661218            1 
  107000    1.0856259   -7.5210985    30.260126  0.023567076  0.026539608            2 
  108000     1.109824   -7.5695879    30.558132  0.023578806  0.026472328            1 
  109000    1.1122199   -7.5770113    30.679469  0.023455252  0.026399953            3 
  110000    1.0994343   -7.5524847    30.914833  0.023420328  0.026326176            2 
  111000    1.0990347   -7.4874003    31.211471  0.023432035  0.026254186            2 
  112000    1.0943489   -7.5529544    31.459302  0.023407219  0.026183217            2 
  113000     1.076995   -7.5085501    31.764313  0.023425009  0.026115133            2 
  114000    1.0957481   -7.5114809    32.009248  0.023398573  0.026048873            3 
  115000     1.091861   -7.6046029    31.998223  0.023187118  0.025978142            4 
  116000    1.0944361   -7.5822084    32.198324   0.02313098  0.025903245            1 
  117000    1.0795647   -7.5176159    32.517351  0.023160506  0.025827302            5 
  118000    1.0813754   -7.6105436    32.617759   0.02303514  0.025752231            2 
  119000    1.0888551      -7.5797    32.843001    0.0229993  0.025680536            2 
  120000    1.0669204   -7.5532589    33.151704  0.023022016  0.025610749            2 
  121000    1.0450626   -7.5818758    33.414918  0.023013029  0.025539786            5 
  122000    1.0803881   -7.5928536     33.63827   0.02297696   0.02546924            3 
  123000    1.0589418   -7.5657285    33.893722  0.022963226  0.025397252            5 
  124000    1.0777798   -7.6325642    34.040471   0.02287666  0.025329727            2 
  125000    1.0908089    -7.567222    34.334943  0.022889962   0.02526091            4 
  126000    1.0660838   -7.5816472    34.542038  0.022845263  0.025193562            1 
  127000    1.0784572   -7.5849819    34.792239  0.022829553  0.025126093            5 
  128000    1.0697214   -7.5948257    35.039519  0.022812187  0.025058984            2 
  129000    1.0603025   -7.6478945    35.174283  0.022722405  0.024992783            1 
  130000    1.0437599   -7.6151669    35.365263   0.02267004   0.02492448            4 
  131000    1.0546092   -7.6216652    35.622252  0.022660465  0.024856517            3 
  132000    1.0313517   -7.6286758    35.656587  0.022510472  0.024787011            3 
  133000    1.0356042   -7.5953187    35.885174  0.022484445  0.024715116            2 
  134000    1.0492378   -7.6263565    35.870859  0.022307748  0.024639597            1 
  135000    1.0441466   -7.6629048    36.016906  0.022232658  0.024565525            1 
  136000    1.0490473   -7.6774349    36.303942  0.022245062  0.024490385            8 
  137000    1.0502632   -7.6423866     36.54955  0.022232086  0.024415314            5 
  138000    1.0612553   -7.6347634    36.656237  0.022135409   0.02434023            1 
  139000    1.0308821   -7.6660466     36.95374   0.02215452  0.024263137            3 
  140000    1.0564265    -7.613433    37.098788  0.022082612  0.024188812            1 
  141000    1.0556723   -7.6336569    37.337834  0.022067278  0.024114152            1 
  142000    1.0550337   -7.6685958    37.398796   0.02194765  0.024041327            6 
  143000    1.0409532   -7.6864235     37.72512  0.021984335  0.023968768            3 
  144000    1.0612513    -7.707484    37.762621  0.021853369  0.023897911            2 
  145000    1.0487283   -7.6459633    38.160047  0.021931061  0.023826168            4 
  146000    1.0330304   -7.6571551    38.223186  0.021816887  0.023755411            5 
  147000    1.0415599   -7.6456586    38.371811  0.021752727  0.023683904            3 
  148000    1.0443632   -7.7015755    38.526602  0.021692906   0.02361154            2 
  149000    1.0390876   -7.7119012    38.755813  0.021675511  0.023540385            4 
  150000    1.0099641   -7.6851599    39.086481  0.021714712   0.02347174            6 
  151000    1.0273804   -7.7072482    39.178573  0.021621729  0.023402458            1 
  152000    1.0423239   -7.7076523    39.215061  0.021499485  0.023333414            4 
  153000    1.0222789   -7.7291478    39.318973  0.021415563  0.023262462            1 
  154000    1.0500556   -7.7248332    39.350765  0.021293704  0.023190122            4 
  155000    1.0013283   -7.7021899    39.709652  0.021349275  0.023118014            3 
  156000    1.0259302   -7.7639671    39.764466  0.021241702  0.023046923            2 
  157000    1.0480113   -7.7133875    39.862324  0.021158346  0.022974034            1 
  158000   0.99981687   -7.7496796    39.991509  0.021092568  0.022900107            2 
  159000    1.0060968   -7.6956344    40.075526  0.021003944   0.02282564            5 
  160000    1.0313029    -7.699118    40.276688  0.020977442  0.022749703            4 
  161000    1.0358076   -7.7436346    40.502067  0.020963803  0.022676195            2 
  162000    1.0213214   -7.7919264    40.517789  0.020842484  0.022602645            2 
  163000   0.98904446   -7.7207541    40.840777  0.020879743  0.022529016            2 
  164000    1.0091237   -7.7363046    40.883296  0.020774032  0.022456086            6 
  165000   0.99325983   -7.7658638    41.006256   0.02071023  0.022382597            2 
  166000    1.0215527   -7.8112868      41.1101    0.0206376  0.022309082            3 
  167000   0.99152742   -7.8425738    40.957164  0.020437707  0.022232516            2 
  168000    1.0127376   -7.7864116     41.43271  0.020551939  0.022157756            3 
  169000    1.0027816   -7.7919106    41.542987  0.020484707  0.022082583            4 
  170000    1.0118079   -7.7750317    41.842592  0.020511075  0.022010583            1 
  171000   0.97077417   -7.8103263    41.882179  0.020410419  0.021937984            1 
  172000   0.98461498   -7.8370202    41.660327  0.020184267  0.021863999            4 
  173000   0.98173942   -7.8048274    41.957922  0.020210945  0.021787924            2 
  174000    1.0027347   -7.8039942    42.099713  0.020162698  0.021714064            6 
  175000     0.982822   -7.8016491    42.297905  0.020141859  0.021639426            1 
  176000   0.99170334    -7.810261      42.2234   0.01999214  0.021565092            2 
  177000   0.99600796   -7.8069558    42.398545   0.01996165   0.02149011            4 
  178000   0.98306703   -7.8211953    42.588514  0.019938443  0.021415605            2 
  179000   0.96832865   -7.8028074    42.913622  0.019978409  0.021342473            4 
  180000   0.99298893   -7.8482258    42.903636  0.019862794  0.021270597            1 
  181000   0.97602124   -7.7847083    43.196261  0.019887781  0.021200514            3 
  182000    0.9919134   -7.8377584    43.005536  0.019691179  0.021130746            5 
  183000   0.98320019   -7.8185059    43.255586  0.019697444  0.021059552            3 
  184000   0.98477264   -7.8393832    43.379975  0.019646728  0.020988992            4 
  185000    0.9780651   -7.8277568    43.536639  0.019611099  0.020918619            5 
  186000   0.99688952   -7.8213372    43.530806  0.019503049  0.020848076            2 
  187000   0.98451053   -7.8468828    43.587062  0.019423824  0.020776053            6 
  188000   0.95895036    -7.849021    43.838055  0.019431762  0.020704026            2 
  189000   0.96857302   -7.8624244    43.883588  0.019349025  0.020633939            3 
  190000   0.96886414   -7.8599064    43.991714  0.019294611  0.020563825            2 
  191000   0.98135452   -7.8656957    44.116668   0.01924811  0.020493752            3 
  192000    0.9778281    -7.877937     44.22765  0.019196029  0.020424214            4 
  193000   0.97278973   -7.8447317    44.445269   0.01919053  0.020354546            5 
  194000   0.96066636   -7.9240755    44.512861  0.019120645    0.0202857            3 
  195000   0.95849143   -7.8806374    44.541041  0.019034633  0.020215971            3 
  196000   0.98983877   -7.8896153    44.790807   0.01904371  0.020148503            3 
  197000   0.95657597   -7.8877006    44.765462  0.018936321  0.020081897            6 
  198000   0.94594599   -7.9497329    44.725183   0.01882373  0.020013096            3 
  199000   0.95707568   -7.8960598    45.030605  0.018857037  0.019944964            4 
  200000   0.96102345   -7.9512201    45.109115  0.018795464  0.019877577            2 
  201000   0.95707106   -7.9100512    45.295631  0.018779283  0.019810744            2 
  202000   0.94214557   -7.9346235    45.455034  0.018752076  0.019744461            3 
  203000   0.93899032   -7.9015513    45.607712  0.018722378  0.019679234            6 
  204000   0.95365155   -7.9426652      45.6349  0.018641708  0.019614579            3 
  205000   0.93496728   -7.8763155    45.784073  0.018611412  0.019549729            6 
  206000   0.93827823    -7.954482    45.891204  0.018564403  0.019486513            1 
  207000   0.93657339   -7.9446671    46.081324  0.018551258  0.019424088            4 
  208000   0.92524572   -7.9039211    46.349159  0.018569375  0.019361878            6 
  209000   0.92520285   -7.9464374     46.27643  0.018451527  0.019300295            2 
  210000   0.93879081   -7.9506581    46.397944  0.018411882  0.019237984            3 
  211000   0.94217442   -7.9633294    46.338103  0.018300989  0.019175041            2 
  212000   0.93423384   -7.9969849     46.58576  0.018312012  0.019112163            4 
  213000   0.93518351   -7.9511871    46.531356  0.018204756  0.019049268            5 
  214000   0.92516676    -7.958569    46.800471  0.018224482  0.018986445            4 
  215000   0.91779875   -7.9428614    46.803724  0.018140978  0.018924496            4 
  216000   0.92125676    -7.977864    46.956743  0.018116027  0.018863117            2 
  217000   0.93354558   -7.9927202    47.028865   0.01806024  0.018802327            8 
  218000   0.90343343   -8.0323421    47.028125  0.017977112  0.018741541            3 
  219000   0.92427838   -8.0018688    47.231635  0.017972464  0.018681742            2 
  220000   0.90981034   -8.0087822    47.349781  0.017935523  0.018622151            4 
  221000   0.91954642    -8.034916    47.408957  0.017876681  0.018562083            2 
  222000   0.90836741   -8.0421324    47.435484  0.017806113  0.018502622            8 
  223000   0.92865595    -8.021001    47.614378  0.017793116  0.018442856            3 
  224000    0.9055026   -8.0233442    47.682264  0.017738937  0.018383747            6 
  225000   0.92652562   -8.0233757    47.915126  0.017746343  0.018325212            6 
  226000   0.89900863   -8.0639774    47.961115  0.017684777  0.018266917            6 
  227000   0.88182372    -8.062455     48.00897  0.017624438  0.018208621            5 
  228000   0.91426763   -8.0493018    48.070845  0.017569753  0.018149956           13 
  229000   0.89778629   -8.0539507    47.982938   0.01746104  0.018091287            2 
  230000   0.90829221   -8.0548258    48.216301  0.017469674   0.01803269            6 
  231000     0.899653   -8.0518584    48.472188  0.017486359  0.017975692            6 
  232000   0.89079386   -8.0540779    48.491213  0.017417821  0.017918346            2 
  233000   0.88311857   -8.0684488     48.53238   0.01735779  0.017861002            5 
  234000   0.89392909   -8.0579291    48.584021  0.017302002  0.017804119            4 
  235000    0.8911559   -8.0765073    48.643208  0.017249365  0.017747396            4 
  236000    0.8998426   -8.0903724    48.666584  0.017184528  0.017690389            4 
  237000   0.90927112   -8.1094895    48.744703  0.017139488  0.017633634            2 
  238000   0.88015089   -8.1000726    48.756277  0.017071526   0.01757708            2 
  239000   0.91120073   -8.1088219    48.825103  0.017024095  0.017520297            5 
  240000   0.86645906   -8.1007305    48.924774  0.016987769  0.017463361            6 
  241000   0.90602619   -8.0957357    49.087878  0.016973678  0.017407348            3 
  242000   0.88057017   -8.0723742    49.274159  0.016967686  0.017351012            1 
  243000   0.87978083   -8.0928836    49.241649  0.016886711  0.017294964            1 
  244000   0.89730879   -8.1437278     49.34542  0.016852944  0.017239467            6 
  245000   0.89535704   -8.1273973    49.451214  0.016820141  0.017185411            3 
  246000   0.87759128   -8.1245478    49.484939  0.016763191  0.017130462            2 
  247000   0.87827822   -8.1268587     49.38311  0.016660968  0.017075576            5 
  248000   0.87686057   -8.1126006    49.594355   0.01666477  0.017020543            2 
  249000   0.86980261   -8.1421116    49.623969  0.016607754  0.016965626            6 
  250000   0.86867565   -8.1077323    49.707951  0.016569317  0.016910901            4 
  251000   0.85268239   -8.1475129    49.741521  0.016514449   0.01685678            4 
  252000    0.8626443   -8.1817414    49.808911  0.016471201  0.016802685            9 
  253000   0.84471468   -8.1903035    49.812403  0.016407247  0.016748188            9 
  254000   0.84198431   -8.1769939    49.892909  0.016369065   0.01669356            8 
  255000   0.87069751   -8.1847912    49.952159  0.016324235  0.016639282            4 
  256000   0.85300337    -8.193363    49.905019  0.016245123   0.01658513            4 
  257000   0.84907579   -8.1472154    49.939657  0.016193144  0.016530505            8 
  258000   0.85692729   -8.1589287    50.087442  0.016178114  0.016475912            9 
  259000   0.86148098   -8.1774314    50.151536  0.016136273  0.016422238            3 
  260000   0.85913756   -8.2217231    50.032286  0.016035989  0.016367985            4 
  261000    0.8635069   -8.2035605    50.276544  0.016052536   0.01631364            4 
  262000   0.85327806   -8.2316501    50.239413  0.015979457  0.016259479            2 
  263000   0.82971299   -8.1892172    50.397587  0.015968817  0.016205723            4 
  264000    0.8498965   -8.2196519    50.167258  0.015835624  0.016152263            2 
  265000   0.85015157   -8.1808026    50.518009  0.015886166  0.016099281            5 
  266000   0.84693905   -8.2058727    50.522724  0.015827921  0.016046167            4 
  267000   0.83701046   -8.2245069    50.436193  0.015741633  0.015993045            3 
  268000    0.8305291   -8.2295338    50.564256  0.015722716  0.015939976            2 
  269000   0.84254231   -8.2220292    50.551203  0.015660224  0.015886811            3 
  270000    0.8383812   -8.2590315    50.495574  0.015585054  0.015833838            3 
  271000   0.83461808   -8.2479127    50.508253  0.015531443   0.01578114            4 
  272000   0.83587836   -8.2403653    50.553644  0.015488249  0.015728244            2 
  273000    0.8402225   -8.2338164    50.688116  0.015472563  0.015675132            5 
  274000   0.82363258   -8.2523743    50.797599  0.015449391   0.01562296            3 
  275000   0.83481702   -8.2325367    50.880634  0.015418374  0.015570715            2 
  276000   0.83308759   -8.2633526      50.6693  0.015298702  0.015518265            5 
  277000   0.80737302   -8.2542467     50.79554   0.01528145  0.015465958            4 
  278000   0.82816382   -8.2417107    50.908167  0.015260242  0.015413719            4 
  279000   0.81992406   -8.2672905    50.912866  0.015206949  0.015361568            3 
  280000   0.83359574    -8.240242    50.999088    0.0151783  0.015309687            6 
  281000   0.81948757   -8.2661285    51.014156  0.015128753  0.015257999            3 
  282000   0.81123889    -8.321006    50.874734  0.015033905  0.015206224            4 
  283000   0.79966364   -8.3199801    51.020604  0.015023735  0.015154545           12 
  284000   0.82683442   -8.2660186    51.139164  0.015005623  0.015103117            2 
  285000   0.81252747   -8.2998016    51.103322  0.014942492   0.01505185            3 
  286000   0.79397079   -8.2792687    51.182461  0.014913305  0.015000664            5 
  287000    0.8122356   -8.3009232    51.162751  0.014855619  0.014949564            6 
  288000   0.81365702   -8.3394541    51.016063  0.014761592  0.014898253            7 
  289000   0.81244697   -8.3113501    51.218262  0.014768818  0.014846685            7 
  290000   0.79614785    -8.333208    51.107511  0.014686066  0.014794929            4 
  291000   0.80821705   -8.3756173    51.011081  0.014607984  0.014743051            7 
  292000   0.77899007    -8.336118    51.087849  0.014579865  0.014691354            3 
  293000   0.80211204   -8.3227229    51.176768  0.014555395  0.014639886            5 
  294000   0.77823282   -8.3559775    51.191689  0.014510116  0.014589014            3 
  295000   0.79720767   -8.3561652     51.23536  0.014473265  0.014538479            3 
  296000   0.78376302   -8.3558015    51.383133  0.014465972  0.014487427            6 
  297000   0.80102434   -8.3963857    51.362795  0.014411559  0.014436962            6 
  298000   0.80010729   -8.3950434    51.326584  0.014353071  0.014386405            8 
  299000   0.78729743   -8.3656576    51.261889  0.014287037    0.0143357            4 
  300000   0.79130466   -8.3819183    51.202808  0.014223002   0.01428485            4 
  301000   0.78388346   -8.3988525    51.261705  0.014192056  0.014234091           10 
  302000    0.7916584   -8.4065639    51.272056  0.014147918   0.01418338            5 
  303000   0.79301875   -8.3959933    51.280724  0.014103609  0.014132837            3 
  304000   0.76291129   -8.3979841    51.247838  0.014048201  0.014082095            3 
  305000    0.7647771   -8.3804126    51.297034  0.014015583   0.01403163            7 
  306000   0.78228038   -8.3957617    51.401699  0.013998284  0.013981401            8 
  307000   0.77459045   -8.3858856     51.36216  0.013941954  0.013930975            4 
  308000   0.77769591   -8.4177037    51.285075  0.013875832  0.013880583           12 
  309000   0.76959543   -8.3925939    51.245389  0.013820224  0.013830365            7 
  310000   0.76635114   -8.4087452     51.37996  0.013811817  0.013780154           15 
  311000    0.7880756   -8.4336094    51.301589  0.013746406  0.013730069           14 
  312000   0.77693384   -8.4179349    51.378193  0.013722808  0.013680194            6 
  313000   0.76684256    -8.473757    51.406203  0.013686423  0.013630622           18 
  314000   0.77170791   -8.4691961     51.34165  0.013625703  0.013581278           25 
  315000   0.76347723   -8.4595575    51.447301  0.013610397  0.013531809           22 
  316000   0.77075356   -8.4502284    51.341126  0.013539326  0.013482434           21 
  317000   0.77927136   -8.4258364    51.455984   0.01352681  0.013433289           39 
  318000   0.76297246   -8.4423823     51.27547  0.013436968  0.013384405           45 
  319000   0.75926431   -8.4488608    51.343539  0.013412628  0.013335441           50 
  320000   0.76251921   -8.4821522    51.386971  0.013382024  0.013286841           64 
  321000   0.77271646   -8.4966487    51.366516  0.013335025  0.013238025           46 
  322000   0.75498616   -8.4749386     51.43881  0.013312322  0.013189771           55 
  323000   0.74478159   -8.4807726    51.520455  0.013292171  0.013141825           27 
  324000    0.7468881   -8.4871008    51.474966  0.013239446  0.013094026           47 
  325000   0.75618543   -8.5129141    51.474186  0.013198509  0.013046449           52 
  326000   0.73597252   -8.4622905    51.490566   0.01316221  0.012998926           54 
  327000   0.74891528   -8.5160473    51.502137  0.013124907   0.01295167           43 
  328000   0.73984891   -8.5222613    51.469675  0.013076645   0.01290457           41 
  329000   0.73573813   -8.4764483    51.645362  0.013081399  0.012857708           41 
  330000   0.74530103   -8.5054745    51.519883  0.013010071  0.012810862           53 
  331000   0.74147699   -8.5069472    51.542289  0.012976407  0.012764122           42 
  332000   0.74049919   -8.5160274    51.501093  0.012926981  0.012717527           54 
  333000   0.72140924   -8.5110723    51.542327   0.01289848   0.01267091           56 
  334000   0.74007666   -8.5350555    51.609059  0.012876512  0.012624433           56 
  335000   0.73772277   -8.5658434    51.497542  0.012810334  0.012578233           60 
  336000   0.73534518   -8.5330297    51.602728  0.012798296   0.01253215           61 
  337000   0.72392016   -8.5466109    51.477963  0.012729467  0.012486083           65 
  338000   0.72208412   -8.5557433    51.435807  0.012681412  0.012439895           46 
  339000   0.72276975   -8.5590184    51.438162  0.012644582  0.012393828           72 
  340000   0.73261474   -8.5597814    51.413573  0.012601366  0.012348094           42 
  341000   0.71835997   -8.5744354    51.468277   0.01257778  0.012302485           51 
  342000    0.7171296   -8.5701493    51.614629  0.012576664   0.01225723           28 
  343000   0.72299374   -8.5737117    51.402872   0.01248855  0.012212234           54 
  344000   0.71821749   -8.5777431    51.525728  0.012482008  0.012167221           49 
  345000   0.71289938   -8.5847704    51.500096  0.012439637  0.012122491           61 
  346000   0.71745634   -8.5765308    51.497782  0.012403127  0.012077858           46 
  347000     0.697511   -8.5851908    51.494511  0.012366597  0.012033312           46 
  348000   0.72587094   -8.5738449    51.545831   0.01234335  0.011988949           48 
  349000   0.72511821    -8.581939    51.563528  0.012312208  0.011944802           46 
  350000   0.69297503   -8.5750415    51.597854  0.012285203  0.011900954           26 
  351000   0.70865055   -8.6103845    51.584119  0.012246942  0.011857327           56 
  352000   0.73158878   -8.6234565    51.554664  0.012205176  0.011813823           51 
  353000   0.70287676   -8.6064664     51.56525    0.0121731  0.011770349           68 
  354000   0.70972998   -8.5873655    51.565998  0.012138888  0.011727144           35 
  355000   0.69304853   -8.6146226    51.580236  0.012108037  0.011684056           49 
  356000   0.71848355   -8.6055648    51.638039  0.012087556  0.011641272           48 
  357000   0.69189919   -8.6039409    51.618518   0.01204914  0.011598714           37 
  358000    0.7007897   -8.6075839    51.624137  0.012016792  0.011556432           37 
  359000     0.686284   -8.6250746    51.601494  0.011978063   0.01151424           45 
  360000   0.70730617   -8.6069563    51.584973  0.011940966  0.011472054           65 
  361000   0.69453636   -8.6429928    51.695669  0.011933442  0.011429945           44 
  362000   0.68776706   -8.6315414    51.555663  0.011868246  0.011388197           45 
  363000   0.68935584   -8.6454954    51.572186  0.011839345  0.011346502           59 
  364000    0.6765123   -8.6292719    51.579035  0.011808387  0.011304893           61 
  365000   0.71401667   -8.6582011    51.635926  0.011789024  0.011263449           49 
  366000   0.68755049   -8.6615332    51.508509  0.011727802  0.011222043           43 
  367000   0.69402771   -8.6471233    51.540874  0.011703196   0.01118077           64 
  368000   0.68260178   -8.6527938    51.562204  0.011676224  0.011139729           55 
  369000   0.65479501   -8.6731631    51.540418  0.011639661  0.011098951          102 
  370000   0.66279764   -8.6766215    51.446029  0.011586943  0.011058258           96 
  371000   0.67397235   -8.6683772    51.561618  0.011581675  0.011017657           93 
  372000   0.68270676   -8.6622548     51.58701   0.01155623  0.010977345           92 
  373000   0.66437297   -8.6686585    51.501109  0.011506057  0.010937055           77 
  374000   0.68864127   -8.6826344     51.61167  0.011499926  0.010897074           74 
  375000    0.6807925   -8.6738953    51.548756  0.011455279  0.010857264           87 
  376000   0.68162992   -8.6749266    51.502514  0.011414564  0.010817648           48 
  377000   0.68112916   -8.6992416    51.594475  0.011404614  0.010778241           86 
  378000   0.67624082   -8.7041565    51.612919  0.011378509  0.010738938           57 
  379000   0.66204355   -8.7092621    51.611727  0.011348225  0.010699815           74 
  380000    0.6619058   -8.7068517    51.468869  0.011287033  0.010660759           56 
  381000   0.65945149   -8.7065291    51.561217  0.011277607  0.010621799           70 
  382000   0.64346118   -8.7074359    51.620232  0.011260958  0.010583221           50 
  383000   0.65103836   -8.7066546    51.596448  0.011226381  0.010544786           51 
  384000   0.64809938   -8.6955567    51.584651  0.011194586  0.010506524           71 
  385000   0.65340447   -8.7084206    51.670975  0.011184194  0.010468366           66 
  386000   0.65202263   -8.7046415    51.545291  0.011128085  0.010430396           60 
  387000   0.65266552   -8.7069439    51.536482  0.011097434  0.010392445           62 
  388000   0.63951998   -8.7171948    51.622795   0.01108737  0.010354651           87 
  389000   0.64911511    -8.736349    51.596499  0.011053234  0.010317025           70 
  390000   0.63028847    -8.742251    51.574582   0.01102021  0.010279606           77 
  391000    0.6474128   -8.7237628     51.52004  0.010980401  0.010242234           67 
  392000   0.63862594   -8.7501451    51.512008  0.010950682  0.010204935           72 
  393000   0.63326329   -8.7433447     51.49515  0.010919243  0.010167771           80 
  394000   0.63109071   -8.7362758    51.523955  0.010897622  0.010130762           70 
  395000   0.63301791   -8.7496835    51.545454  0.010874568  0.010093966           88 
  396000    0.6313093   -8.7714385    51.446277  0.010826237  0.010057328           69 
  397000   0.61656278   -8.7604327    51.495041  0.010809202  0.010020795           89 
  398000   0.62943552   -8.7810756    51.524282  0.010788166 0.0099845029           91 
  399000   0.62334275   -8.7610942    51.490882  0.010754152 0.0099483638           65 
  400000   0.63556706   -8.7569781     51.57519  0.010744831 0.0099123768           76 
  401000   0.64320986   -8.7540359    51.430468  0.010687961 0.0098764604           83 
  402000   0.62222889   -8.7687425    51.549482  0.010686045 0.0098406848           70 
  403000   0.63156849    -8.750167    51.498835  0.010649056 0.0098050779           95 
  404000   0.60640918   -8.7838413    51.554752  0.010634231 0.0097697173           83 
  405000   0.61607309   -8.7743572    51.511527   0.01059908 0.0097344048           73 
  406000   0.63636763   -8.7852886    51.397515  0.010549572 0.0096992079           91 
  407000   0.62256213   -8.7991247    51.411335  0.010526481 0.0096640298          113 
  408000   0.62883231   -8.7967178    51.468282  0.010512312 0.0096289242           94 
  409000   0.61935578   -8.8303192    51.429819  0.010478773 0.0095940199          103 
  410000   0.60755418   -8.7980803    51.318571  0.010430604 0.0095593093           92 
  411000   0.60133601   -8.8106449    51.390484  0.010419806 0.0095247295           84 
  412000   0.60993344   -8.8281229    51.347686  0.010385859 0.0094902185           88 
  413000   0.61326848   -8.8308434    51.418197  0.010374939  0.009455918           76 
  414000   0.60106362   -8.8171172      51.3471  0.010335568 0.0094216649           99 
  415000   0.59578937   -8.8229352     51.45565   0.01033246 0.0093876564          108 
  416000   0.59704336   -8.8300604    51.439483  0.010304384 0.0093537786          107 
  417000   0.61018415   -8.8198046    51.363744  0.010264537 0.0093200965          108 
  418000   0.60593677   -8.8397857    51.403462  0.010247899 0.0092865267           79 
  419000   0.59055033   -8.8226991    51.386431  0.010220054 0.0092531241           79 
  420000   0.59648506    -8.827603    51.365786  0.010191624 0.0092197611           96 
  421000   0.58827088   -8.8418218    51.404166  0.010175013 0.0091865848           81 
  422000    0.5970461   -8.8343298    51.337127  0.010137663 0.0091534841          112 
  423000   0.58627122   -8.8317107    51.279286  0.010102302 0.0091204653          107 
  424000   0.58959927    -8.851556    51.394208  0.010101063 0.0090877412           98 
  425000   0.57817778   -8.8399588    51.290176  0.010056897 0.0090551403          106 
  426000   0.59398943   -8.8469094    51.359579  0.010046866  0.009022676          122 
  427000   0.59023169   -8.8549671     51.21237 0.0099946077  0.008990272           93 
  428000   0.59185845   -8.8702913    51.283674  0.009985139 0.0089581048          123 
  429000   0.57959027   -8.8658645    51.303623 0.0099657386 0.0089260579           95 
  430000    0.5671385   -8.8541257    51.268051 0.0099356687 0.0088941494          114 
  431000   0.58093442   -8.8785288    51.270275 0.0099130462 0.0088623226          111 
  432000    0.5756345   -8.8740212    51.320665 0.0098998196 0.0088306977          112 
  433000   0.57897659    -8.880926    51.279904 0.0098691117 0.0087991176          113 
  434000   0.57869099     -8.86445    51.330485 0.0098560839 0.0087677748          102 
  435000    0.5741852   -8.8572863    51.279846 0.0098237253 0.0087365147           98 
  436000   0.57449055   -8.8837203    51.252698 0.0097960049 0.0087054259          101 
  437000   0.56938878   -8.9000493    51.310458 0.0097846031  0.008674384          114 
  438000   0.56974527   -8.8797578    51.221497  0.009745338 0.0086435043          114 
  439000   0.55868855   -8.8650424    51.296568 0.0097373895 0.0086127272          103 
  440000   0.57639711    -8.898529    51.163062 0.0096899739 0.0085820938           92 
  441000   0.55519078    -8.915882    51.105265 0.0096570795 0.0085515547          101 
  442000   0.56102367   -8.9074259    51.264671 0.0096652848 0.0085211561           91 
  443000   0.56454418   -8.9036229    51.162934 0.0096243292 0.0084909221          108 
  444000   0.55716444   -8.9093459    51.170615 0.0096040944 0.0084608072          125 
  445000   0.56418842   -8.9172662    51.170844 0.0095825551 0.0084307776          102 
  446000   0.56588432   -8.8910642    51.152642 0.0095576685 0.0084008458           93 
  447000   0.54787422    -8.930178    51.213229 0.0095475818 0.0083710917           91 
  448000   0.56091063   -8.9128504    51.158739 0.0095161344  0.008341431          106 
  449000   0.55083146   -8.9219058    51.105136 0.0094849919 0.0083119014          115 
  450000   0.55130729   -8.9344436    51.183611 0.0094784465 0.0082825534           98 
  451000   0.54834453   -8.9526087    51.294359 0.0094778934 0.0082532988          102 
  452000   0.54745871   -8.9314675    51.140064 0.0094284778 0.0082241858          107 
  453000   0.55149491    -8.939762    51.112476 0.0094025894 0.0081951258          106 
  454000   0.54291199   -8.9361502    51.068399 0.0093737883 0.0081662355           97 
  455000   0.54916268   -8.9257984    51.209387 0.0093790086 0.0081374676           96 
  456000   0.55059327   -8.9359669    51.128934 0.0093437379  0.008108839          113 
  457000   0.53685261   -8.9393005     51.09913 0.0093178573 0.0080802911           98 
  458000   0.53773173   -8.9517578    51.130157  0.009303158 0.0080518939          110 
  459000   0.54136002   -8.9475784    51.144211 0.0092854413 0.0080236532           98 
  460000   0.54168804   -8.9523505    51.070662 0.0092519316  0.007995527           92 
  461000   0.53383332   -8.9462123    51.052414 0.0092285636 0.0079675263           98 
  462000   0.53200874   -8.9601079    51.114921 0.0092198631 0.0079395766          104 
  463000   0.51558553    -8.953026    51.026186 0.0091839787 0.0079117839           99 
  464000   0.52884288   -8.9784974    51.132509  0.009183281 0.0078841239           96 
  465000   0.51249582   -8.9492524    51.078166 0.0091537932 0.0078565949          114 
  466000   0.50211597   -8.9759018    51.039058 0.0091271563 0.0078291779          106 
  467000   0.50951842   -8.9591357    51.040504   0.00910787 0.0078018869          109 
  468000   0.51801623   -8.9849682    50.991586 0.0090796983 0.0077746714          129 
  469000   0.51645944   -8.9808628    50.881199 0.0090407248 0.0077475546          133 
  470000   0.53027451   -8.9624663    51.100428 0.0090603595 0.0077205835           90 
  471000   0.51757898   -8.9711818    50.961277 0.0090165033  0.007693755          113 
  472000   0.51511545   -8.9852589    51.040974 0.0090114714 0.0076670562          103 
  473000   0.52429979   -8.9860949    50.995077 0.0089843335 0.0076404762          135 
  474000   0.49893702   -8.9909939    51.011433 0.0089682547 0.0076139707          117 
  475000   0.50315311    -9.003504    50.980843 0.0089440075 0.0075875831          106 
  476000   0.50730869   -8.9856887    50.941894 0.0089183988 0.0075612347          122 
  477000   0.50370021   -9.0010162    50.977622 0.0089059437  0.007535083          113 
  478000   0.50729697   -9.0094339    50.869315   0.00886843  0.007509025          107 
  479000   0.51592307   -8.9929394    50.913143 0.0088575405 0.0074830898          118 
  480000   0.49088048   -9.0019402    51.103275 0.0088720964 0.0074572892          115 
  481000   0.49339155    -9.021622    50.951922 0.0088274294 0.0074315897          120 
  482000   0.50173484   -9.0077129    50.892946 0.0087989187 0.0074060254          107 
  483000   0.50614994   -9.0269614    50.983986  0.008796409 0.0073805504          109 
  484000   0.49533777   -9.0081565    50.974757 0.0087766455 0.0073551983          116 
  485000   0.50087628    -9.031867    50.985074  0.008760322 0.0073299828          127 
  486000   0.49791268   -9.0423767     50.94899 0.0087361093 0.0073048249          113 
  487000    0.4762349   -9.0296858     50.90112 0.0087099795 0.0072797851          117 
  488000   0.48611909   -9.0209631    50.906072 0.0086929768 0.0072549042          110 
  489000    0.4824148   -9.0480209    51.033015 0.0086968328 0.0072300984          107 
  490000   0.49431037   -9.0348519    50.883047 0.0086535794 0.0072053755          119 
  491000   0.47776151   -9.0339393    50.841979  0.008628985 0.0071807475          138 
  492000   0.48846078   -9.0371389    50.867808 0.0086158211 0.0071562513          124 
  493000   0.48859176   -9.0365782    50.910535 0.0086055671 0.0071318693          111 
  494000   0.47631367   -9.0463712    50.874114  0.008582003 0.0071076257          131 
  495000   0.46891964   -9.0401213    50.882343 0.0085660509 0.0070834712          109 
  496000   0.46023324   -9.0409195    50.851767 0.0085436436 0.0070594265          115 
  497000   0.48458106   -9.0583621    50.915935 0.0085372125 0.0070354856          113 
  498000   0.48407145    -9.050138    50.868243 0.0085120888 0.0070116121          132 
  499000   0.47293237   -9.0638108    50.910808 0.0085021389 0.0069878715          135 
  500000   0.46810668   -9.0481148    50.793313 0.0084655521 0.0069641839          110 
  501000   0.46430663   -9.0536622    50.876191 0.0084624403 0.0069406316          106 
  502000   0.46821651   -9.0679522    50.859877 0.0084428746 0.0069171839          146 
  503000   0.46490373   -9.0611655    50.801332 0.0084163903 0.0068938781          133 
  504000   0.47481549   -9.0750398    50.823732 0.0084033948 0.0068706298          101 
  505000   0.45022068   -9.0698457    50.941115 0.0084061246 0.0068474936          108 
  506000   0.46600924   -9.0612344    50.816563 0.0083689992 0.0068244768          118 
  507000   0.47075567   -9.0824853    50.800898 0.0083499174 0.0068015803           95 
  508000    0.4592133   -9.0761157    50.786874 0.0083311802  0.006778714          110 
  509000   0.45872063   -9.0767953     50.78309 0.0083141929 0.0067559959           91 
  510000   0.44913094   -9.1057602     50.73953 0.0082907729 0.0067333518          113 
  511000     0.459678   -9.0842382    50.800258 0.0082844518 0.0067108038          112 
  512000   0.45849021   -9.0808131    50.820711 0.0082716001 0.0066883552          126 
Loop time of 1271.91 on 48 procs for 500000 steps with 4000 atoms

Performance: 67929.363 tau/day, 393.110 timesteps/s
99.4% CPU use with 48 MPI tasks x no OpenMP threads

MPI task timing breakdown:
Section |  min time  |  avg time  |  max time  |%varavg| %total
---------------------------------------------------------------
Pair    | 87.395     | 93.342     | 98.822     |  28.0 |  7.34
Neigh   | 8.5218     | 8.8321     | 9.1118     |   5.6 |  0.69
Comm    | 82.097     | 87.075     | 94.271     |  35.1 |  6.85
Output  | 0.91877    | 0.91957    | 0.94581    |   0.4 |  0.07
Modify  | 1066       | 1069.8     | 1075.9     |   6.2 | 84.11
Other   |            | 11.91      |            |       |  0.94

Nlocal:        83.3333 ave          91 max          77 min
Histogram: 1 2 14 2 8 11 2 4 1 3
Nghost:        2269.88 ave        2293 max        2255 min
Histogram: 3 5 11 8 6 6 5 3 0 1
Neighs:        15340.1 ave       17095 max       13864 min
Histogram: 2 7 7 3 9 4 7 5 2 2
FullNghs:      30680.9 ave       33538 max       28185 min
Histogram: 1 4 8 6 8 9 3 4 2 3

Total # of neighbors = 1472684
Ave neighs/atom = 368.17100
Neighbor list builds = 26630
Dangerous builds = 0

#clear
#
#next RN
#
#jump SELF
Total wall time: 0:21:15
