
units lj                  # Use reduced LJ style units
atom_style atomic         # Uncharged point particles
atom_modify map hash      # Needed for indexing of clusters etc
                          # Used to be able to find where atoms are in relation to each other.

lattice fcc 1.0 spacing 1 1 1
Lattice spacing in x,y,z = 1.5874011 1.5874011 1.5874011
region box block 0 10 0 10 0 10 units lattice
create_box 2 box
Created orthogonal box = (0.0000000 0.0000000 0.0000000) to (15.874011 15.874011 15.874011)
  3 by 4 by 4 MPI processor grid
create_atoms 1 box
Created 4000 atoms
  using lattice units in orthogonal box = (0.0000000 0.0000000 0.0000000) to (15.874011 15.874011 15.874011)
  create_atoms CPU = 0.014 seconds
set type 1 type/fraction 2 0.18 78393
Setting atom values ...
  747 settings made for type/fraction
mass 1 1.0
mass 2 1.0
pair_style lj/cut  3.5
pair_modify tail  yes
pair_coeff 1  1  1.0  1.0   # Intearaction between 1 and 1 set with epsilon = 1 and sigma = 1
pair_coeff 1  2  1.5  0.8
pair_coeff 2  2  0.5  0.88

write_data data.0
System init for write_data ...
Neighbor list info ...
  update every 1 steps, delay 10 steps, check yes
  max neighbors/atom: 2000, page size: 100000
  master list distance cutoff = 3.8
  ghost atom cutoff = 3.8
  binsize = 1.9, bins = 9 9 9
  1 neighbor lists, perpetual/occasional/extra = 1 0 0
  (1) pair lj/cut, perpetual
      attributes: half, newton on
      pair build: half/bin/atomonly/newton
      stencil: half/bin/3d
      bin: standard
WARNING: Not all mixed pair coeffs generated from mixing. Use write_data with 'pair ij' option to store all pair coeffs. (../write_data.cpp:312)


#############################
#   M E L T   S Y S T E M   #
#############################

velocity all create 2.4 5833274 mom yes dist gaussian # Assign velocities
                                                    # Temperature 2.4, random number seed, zero linear momentum
                                                                                # Gaussian distribution

timestep 0.002   # simulation timestep
thermo 1000       # output thermodynamic data every 1000 steps bf 100

# Define a fix  in this case with index 1 applied to all
# particles in the simulation. This fix is for simulations
# in the anisotropic NPT ensemble. Note that we use the MTK
# correction.
fix 1 all npt temp 2.4 2.4 0.1 iso 5.68 5.68 0.5 mtk yes tchain 5 pchain 5 # Use NPT ensemble
                                                                         # Set temperature and pressure and damping
                                                                         # Numbers of thermostats in chain and in barostat
run 10000          # run for 10000 steps
Per MPI rank memory allocation (min/avg/max) = 3.642 | 3.644 | 3.648 Mbytes
Step Temp E_pair E_mol TotEng Press Volume 
       0          2.4   -7.1764538            0   -3.5773538   -3.5088476         4000 
    1000    2.4514056   -4.8341739            0   -1.1579848    5.5256477    4532.8962 
    2000    2.4128616   -4.7703483            0   -1.1519607     5.935466     4528.233 
    3000    2.3964598   -4.7780585            0   -1.1842675    5.5605422    4570.8908 
    4000    2.3968379   -4.8203597            0   -1.2260017    5.6565734    4528.3335 
    5000    2.3976416   -4.8046553            0    -1.209092    5.5820227    4549.8412 
    6000    2.4192035   -4.7831036            0   -1.1552055    5.6930824    4540.8057 
    7000    2.3701846   -4.7975388            0   -1.2431507    5.8038736    4523.1195 
    8000    2.4540793   -4.8049983            0   -1.1247996    5.4872446    4558.0301 
    9000    2.3741607   -4.7784567            0    -1.218106    5.6091211    4555.6255 
   10000    2.4372862   -4.7992215            0   -1.1442061    5.6191358    4550.1763 
Loop time of 2.27367 on 48 procs for 10000 steps with 4000 atoms

Performance: 760003.784 tau/day, 4398.170 timesteps/s
99.7% CPU use with 48 MPI tasks x no OpenMP threads

MPI task timing breakdown:
Section |  min time  |  avg time  |  max time  |%varavg| %total
---------------------------------------------------------------
Pair    | 0.94115    | 1.0273     | 1.1569     |   3.7 | 45.18
Neigh   | 0.19338    | 0.20255    | 0.22389    |   1.1 |  8.91
Comm    | 0.64931    | 0.78669    | 0.89132    |   5.0 | 34.60
Output  | 0.0002476  | 0.00025306 | 0.00032198 |   0.0 |  0.01
Modify  | 0.20256    | 0.24195    | 0.27893    |   4.6 | 10.64
Other   |            | 0.01495    |            |       |  0.66

Nlocal:        83.3333 ave          93 max          75 min
Histogram: 4 6 7 6 4 4 4 7 3 3
Nghost:        1505.75 ave        1531 max        1479 min
Histogram: 1 2 5 7 4 14 7 5 0 3
Neighs:        8383.40 ave        9581 max        7246 min
Histogram: 3 4 6 6 8 6 4 4 3 4

Total # of neighbors = 402403
Ave neighs/atom = 100.60075
Neighbor list builds = 900
Dangerous builds = 185

# Equilibrate just above the melting temperature to avoid step fn in T

fix 1 all npt temp 1.25 1.25 0.1 iso 5.68 5.68 0.5 mtk yes tchain 5 pchain 5
run 2000
Per MPI rank memory allocation (min/avg/max) = 3.642 | 3.645 | 3.649 Mbytes
Step Temp E_pair E_mol TotEng Press Volume 
   10000    2.4372862   -4.7992215            0   -1.1442061    5.6191358    4550.1763 
   11000    1.2513981   -6.4565057            0   -4.5798779    5.7214109    3722.6604 
   12000    1.2685827    -6.487539            0   -4.5851407    5.8202586    3704.0554 
Loop time of 0.505524 on 48 procs for 2000 steps with 4000 atoms

Performance: 683646.566 tau/day, 3956.288 timesteps/s
99.7% CPU use with 48 MPI tasks x no OpenMP threads

MPI task timing breakdown:
Section |  min time  |  avg time  |  max time  |%varavg| %total
---------------------------------------------------------------
Pair    | 0.22142    | 0.24442    | 0.27033    |   2.4 | 48.35
Neigh   | 0.031791   | 0.034214   | 0.037272   |   0.6 |  6.77
Comm    | 0.1444     | 0.17265    | 0.19561    |   3.0 | 34.15
Output  | 5.3004e-05 | 5.4034e-05 | 7.0192e-05 |   0.0 |  0.01
Modify  | 0.04509    | 0.04954    | 0.053732   |   1.1 |  9.80
Other   |            | 0.00464    |            |       |  0.92

Nlocal:        83.3333 ave          92 max          70 min
Histogram: 2 0 0 5 4 13 11 4 4 5
Nghost:        1724.17 ave        1762 max        1687 min
Histogram: 1 4 7 8 4 8 2 9 3 2
Neighs:        10309.6 ave       11618 max        8499 min
Histogram: 2 0 3 4 6 11 6 8 6 2

Total # of neighbors = 494859
Ave neighs/atom = 123.71475
Neighbor list builds = 141
Dangerous builds = 9

#############################
# L I N E A R  Q U E N C H  #
#############################

# Define solid atoms. This closely follows ten Wolde  Ruiz-Montero and Frenkel  Faraday Discuss  1996  104  93-110
# Compute components of the per-atom q6 vector
compute q6 all orientorder/atom degrees 1 6 components 6 nnn NULL cutoff 1.3 # compute the Q6 parameter.
                                                                             # Use all neighbours within 1.3 unit cell.

# get number of connections
compute coord_number all coord/atom orientorder q6 0.5

# An atom is solid if it has 8 or more connections (of a possible 14)
variable is_solid atom c_coord_number>=8
group solid dynamic all var is_solid    # Must be dynamic to update
dynamic group solid defined

# do clustering
compute cluster solid cluster/atom 1.3 # Create a cluster where all atoms within are solid and max 1.3 units from another member

# define chunks one chunk per cluster
compute clus_chunks solid chunk/atom c_cluster nchunk every compress yes  # Says which atoms are in which chunk

# count the size of each chunk
compute size_chunks solid property/chunk clus_chunks count


# Find the maximum entry in the vector of chunk sizes
variable max_n equal max(c_size_chunks)


# Thermo style which includes this variable
# thermo_style custom step temp pe vol v_max_n

thermo ${N}  # Print the thermo information every 100 steps
thermo 1000  

# Reset the npt fix at a lower temperature (below freezing)
fix 1  all npt temp  ${temp} ${temp}  0.1  iso  5.68  5.68  0.5  mtk yes tchain  5  pchain  5
fix 1  all npt temp  0.45 ${temp}  0.1  iso  5.68  5.68  0.5  mtk yes tchain  5  pchain  5
fix 1  all npt temp  0.45 0.45  0.1  iso  5.68  5.68  0.5  mtk yes tchain  5  pchain  5

dump dmp2 all dcd ${N} traj.dcd
dump dmp2 all dcd 1000 traj.dcd


compute msd all msd com yes
variable twopoint equal c_msd[4]/6/(step*dt+1.0e-6)
fix 9 all vector 10 c_msd[4]
variable fit equal slope(f_9)/6/(10*dt)
thermo_style custom step temp pe c_msd[4] v_twopoint v_fit v_max_n

fix 1 all npt temp 1.25 ${temp} 0.1 iso 5.68 5.68 0.5 mtk yes tchain 5 pchain 5
fix 1 all npt temp 1.25 0.45 0.1 iso 5.68 5.68 0.5 mtk yes tchain 5 pchain 5
run 500000 # 5000000  # Run for this many steps
Neighbor list info ...
  update every 1 steps, delay 10 steps, check yes
  max neighbors/atom: 2000, page size: 100000
  master list distance cutoff = 3.8
  ghost atom cutoff = 3.8
  binsize = 1.9, bins = 9 9 9
  4 neighbor lists, perpetual/occasional/extra = 1 3 0
  (1) pair lj/cut, perpetual
      attributes: half, newton on
      pair build: half/bin/atomonly/newton
      stencil: half/bin/3d
      bin: standard
  (2) compute orientorder/atom, occasional
      attributes: full, newton on
      pair build: full/bin/atomonly
      stencil: full/bin/3d
      bin: standard
  (3) compute coord/atom, occasional
      attributes: full, newton on
      pair build: full/bin/atomonly
      stencil: full/bin/3d
      bin: standard
  (4) compute cluster/atom, occasional
      attributes: full, newton on
      pair build: full/bin/atomonly
      stencil: full/bin/3d
      bin: standard
Per MPI rank memory allocation (min/avg/max) = 9.767 | 9.775 | 9.782 Mbytes
Step Temp PotEng c_msd[4] v_twopoint v_fit v_max_n 
   12000    1.2685827    -6.487539 1.0099392e-30 7.0134662e-33 8.3333333e+20            4 
   13000     1.249623   -6.4669344   0.53981717 0.0034603663  0.044332883            2 
   14000    1.2574855   -6.4747666    1.0636856  0.006331462  0.042704952            1 
   15000    1.2318214   -6.5274244    1.5310078 0.0085055983  0.042739053            3 
   16000    1.2432346   -6.5062646    2.0414037  0.010632311  0.042271348            2 
   17000    1.2349425   -6.5287261    2.5406189  0.012454014  0.041994214            1 
   18000    1.1920276    -6.540315    3.0559339  0.014147842  0.042108341            1 
   19000    1.2111928   -6.5225067    3.5399144   0.01552594  0.042009596            2 
   20000    1.2484468   -6.5052221    3.9976312  0.016656796  0.041528189            2 
   21000    1.2188431   -6.5148926    4.5066726  0.017883621  0.041228638            2 
   22000    1.2526227   -6.4869902    5.0095125  0.018975426  0.041260312            1 
   23000    1.2044218   -6.5163064    5.4569963  0.019771725  0.041285738            1 
   24000    1.2202176   -6.5241366     6.045325  0.020990712  0.041291014            3 
   25000    1.2570759   -6.5357741    6.5576199  0.021858732  0.041415666            2 
   26000    1.2271357    -6.504687    7.0417327  0.022569656   0.04156893            1 
   27000    1.2353922   -6.4850806    7.5152893  0.023195337  0.041570581            1 
   28000    1.2026153   -6.5815203    7.9879376  0.023773623  0.041533425            2 
   29000    1.1812477   -6.5420764    8.4554549  0.024297284  0.041471262            2 
   30000    1.2350585   -6.5274547    8.8841376   0.02467816  0.041320274            1 
   31000    1.2035087   -6.5597675    9.3964616  0.025259305  0.041183124            3 
   32000    1.2129349   -6.5308206    9.8268574  0.025590774  0.041017771            2 
   33000    1.2234871   -6.5286972    10.269822  0.025933893  0.040892024            4 
   34000    1.2023764   -6.5694829    10.793987  0.026455851  0.040795725            3 
   35000    1.2078178   -6.5092375    11.355001  0.027035715  0.040720441            1 
   36000    1.2300466   -6.5696466    11.785444  0.027281119  0.040700155            1 
   37000    1.2175148   -6.5412606    12.319777  0.027747246  0.040679572            2 
   38000    1.2049623    -6.575228    12.725296   0.02790635  0.040638034            1 
   39000    1.2185157   -6.5541305    13.249433  0.028310754  0.040608051            1 
   40000    1.2287499   -6.5615051    13.687505  0.028515635  0.040544026            3 
   41000    1.2258682    -6.580375    14.176637  0.028814302  0.040491476            3 
   42000    1.2256862   -6.5954417    14.659731  0.029086767  0.040458244            2 
   43000    1.2269013   -6.5782069    15.301066  0.029653228  0.040478993            2 
   44000     1.200333   -6.5709799    15.661227  0.029661415  0.040503365            3 
   45000    1.1789655   -6.5668536    16.200269  0.030000498  0.040501262            1 
   46000    1.1985319   -6.5798748    16.530849   0.02994719  0.040483587            2 
   47000    1.1891631   -6.5746396    16.960219  0.030071311  0.040432201            2 
   48000    1.2244802   -6.5879386    17.364966   0.03014751  0.040344156            1 
   49000    1.1847867   -6.5848342    17.750634  0.030188153   0.04024292            2 
   50000    1.1748009   -6.6074014    18.132437  0.030220728  0.040105214            1 
   51000    1.1978315    -6.629336    18.406142  0.030075396  0.039972096            2 
   52000    1.1865695   -6.5726893    18.826876  0.030171275  0.039822632            3 
   53000     1.195877   -6.5936058    19.360692  0.030441339  0.039685314            2 
   54000    1.1793226   -6.6418191    19.729247  0.030446368   0.03954674            3 
   55000    1.1908861   -6.6539345    20.217195  0.030632113  0.039413981            3 
   56000    1.1781473   -6.6468673    20.628412  0.030697041   0.03930914            2 
   57000    1.1510042   -6.6299176    21.071404  0.030806146  0.039193162            2 
   58000     1.177159   -6.6472547    21.438355  0.030802234   0.03906822            2 
   59000    1.1775043   -6.6482391    21.806231  0.030799761  0.038951215            4 
   60000    1.1937005     -6.63034    22.197577  0.030829968  0.038831295            2 
   61000    1.1443723   -6.6232951    22.706221  0.031019428  0.038716322            3 
   62000    1.1686741   -6.6484831    23.092712  0.031038591   0.03861816            2 
   63000    1.1437076   -6.6652821    23.431567  0.030994136  0.038495826            3 
   64000    1.1712385   -6.6369889    23.909477  0.031132131  0.038392436            2 
   65000     1.173205   -6.6769207    24.452532  0.031349399  0.038308321            2 
   66000    1.1551525   -6.6412636    24.899675  0.031438983  0.038229519            3 
   67000    1.1397296   -6.6749252    25.410107   0.03160461  0.038173526            4 
   68000    1.1650664    -6.697273    25.843039  0.031670391  0.038124497            2 
   69000    1.1793368   -6.6479943    26.272096  0.031729584  0.038081043            3 
   70000    1.1708028   -6.7068856    26.471449  0.031513629  0.038015267            2 
   71000    1.1627236   -6.6675959    26.776655  0.031427998  0.037926355            3 
   72000    1.1558522   -6.7101127    27.153152  0.031427259   0.03783006            3 
   73000    1.1300544   -6.6583231    27.471497  0.031360157  0.037736161            1 
   74000    1.1338602   -6.6913125    27.881823  0.031398449  0.037632456            1 
   75000    1.1471087    -6.691481    28.053223  0.031170248  0.037524497            2 
   76000    1.1650093   -6.6889817    28.640535  0.031404096  0.037417134            3 
   77000    1.1361812   -6.6836118    28.792533   0.03116075  0.037300365            3 
   78000    1.1077464   -6.6695302    29.275183  0.031276905     0.037184            1 
   79000    1.1270184   -6.6958545    29.632753  0.031258178  0.037072884            2 
   80000    1.1337209   -6.7054892    29.919562  0.031166211  0.036956891            2 
   81000     1.121102   -6.7137577    30.220154  0.031090694  0.036829615            2 
   82000    1.1325743   -6.7232185    30.561804  0.031058743  0.036709314            2 
   83000    1.1184417   -6.7425429    30.896121  0.031020202  0.036586907            4 
   84000     1.127768   -6.7205178    31.318494  0.031069934  0.036468922            4 
   85000    1.1212795   -6.7231336    31.760979  0.031138214  0.036360693            2 
   86000    1.1309513   -6.7097488    32.285271  0.031284177  0.036266995            2 
   87000    1.1597037   -6.7188382    32.864632  0.031479532  0.036193579            5 
   88000    1.0986721   -6.7233301    33.322339  0.031555245  0.036131817            1 
   89000    1.1379192   -6.7301012    33.753794  0.031604676  0.036068971            3 
   90000    1.1314474   -6.7079088    34.123458  0.031595794  0.036007143            2 
   91000    1.1087123   -6.7228242    34.258853  0.031372576   0.03593825            3 
   92000    1.1366285   -6.7446203    34.610495  0.031350086  0.035867414            5 
   93000    1.1294621   -6.7274593    35.083057  0.031436431  0.035793315            2 
   94000    1.0981924   -6.7310015     35.24051  0.031241587  0.035714747            4 
   95000    1.1172906   -6.7599944     35.86165  0.031457587   0.03564502            3 
   96000    1.1224808   -6.7652991     36.10399  0.031340269  0.035579043            3 
   97000    1.1382388   -6.7409475    36.610849   0.03145262  0.035514924            2 
   98000    1.1157763   -6.7803261    36.878178  0.031358994  0.035449863            4 
   99000    1.1098926   -6.7307543    37.419918  0.031498247  0.035385632            3 
  100000    1.1131789   -6.7459255    37.809447  0.031507873   0.03532733            1 
  101000    1.1217654   -6.7784193    38.286631   0.03158963  0.035276665            2 
  102000    1.1111307   -6.8055936    38.489894  0.031445991  0.035227197            4 
  103000    1.1067509   -6.7529503     39.04185  0.031587257  0.035175911            3 
  104000    1.0990246   -6.7669665    39.329612  0.031514112  0.035126216            2 
  105000    1.1045215   -6.8050606    39.569244  0.031404162  0.035074511            2 
  106000    1.1175198   -6.7857559    39.919544  0.031383289  0.035023132            3 
  107000    1.0831702   -6.8201773     40.22005  0.031324027  0.034964228            2 
  108000    1.0903061   -6.8036291    40.631952  0.031351815  0.034906322            1 
  109000    1.0567388   -6.8137894    41.032867  0.031370693  0.034850547            3 
  110000    1.0847146   -6.7705658    41.290272  0.031280509  0.034791282            2 
  111000    1.0828249   -6.7587684    41.490899  0.031149324  0.034730892            5 
  112000    1.1054535   -6.7908325    41.788233  0.031092435  0.034662214            4 
  113000    1.1073094   -6.8434886     42.09209  0.031041364  0.034592301            2 
  114000    1.0627406   -6.8069029    42.551165  0.031104653  0.034527299            1 
  115000    1.1090036   -6.8201194    42.954099  0.031126159  0.034463424            2 
  116000    1.0599638   -6.7906049    43.186877  0.031025055  0.034397455            2 
  117000     1.096584   -6.7630567     43.35209  0.030877557  0.034326544            6 
  118000     1.081757   -6.7872139    43.437155  0.030675957  0.034249764            2 
  119000    1.0856518   -6.7967694    43.923866   0.03075901  0.034167141            5 
  120000    1.0828396   -6.8400849    43.928379  0.030505819  0.034080573            4 
  121000    1.0614568   -6.8125103    44.026143  0.030321035  0.033990161            2 
  122000    1.0728925    -6.845468     44.31775  0.030271687  0.033893414            2 
  123000    1.0732259    -6.832684    44.645206  0.030247429  0.033798095            3 
  124000    1.0783749   -6.8285265     45.05852  0.030281263  0.033706036            2 
  125000    1.0713379   -6.8569793    45.299628  0.030199752  0.033616474            1 
  126000    1.0478181   -6.8030031    45.616711  0.030169783  0.033526377            2 
  127000    1.0706565   -6.8430117    45.880639  0.030105406   0.03343414            3 
  128000    1.0989251   -6.8567101    46.154118  0.030048254  0.033345274           10 
  129000    1.0586768   -6.8421028    46.528471  0.030057152  0.033258721            2 
  130000    1.0646366   -6.8416061    46.763287  0.029976466  0.033170169            3 
  131000    1.0686364   -6.8601515    47.051424  0.029930931  0.033081587            4 
  132000    1.0519133   -6.9000473    47.328125  0.029878866  0.032994035            2 
  133000    1.0619049   -6.9026065    47.339548  0.029661371  0.032901591            4 
  134000     1.069912   -6.8597737    47.770033  0.029707732  0.032808426            6 
  135000    1.0339502   -6.8534881    47.962731  0.029606624  0.032716262            2 
  136000     1.042574   -6.8739308     48.28769  0.029588045  0.032626155            2 
  137000    1.0470488   -6.8566373    48.579406  0.029549517  0.032536095            1 
  138000    1.0566658   -6.8711948     48.90627  0.029532772  0.032447191            3 
  139000    1.0530233   -6.8937877      49.1885  0.029489508  0.032359967            2 
  140000    1.0444035   -6.9017254    49.573178  0.029507844  0.032275811            2 
  141000    1.0211645   -6.8445664    49.939185  0.029514885   0.03219741            3 
  142000    1.0315891   -6.9101338    50.063836  0.029380185  0.032117015            4 
  143000    1.0427172   -6.8952038    50.336684  0.029333732  0.032036087            2 
  144000     1.036668   -6.9075436    50.603705  0.029284551  0.031952519            3 
  145000    1.0068367    -6.883581    50.871917  0.029236734  0.031867377            2 
  146000    1.0085039   -6.8948244    50.879913  0.029041046  0.031782524            3 
  147000    1.0465038   -6.9156667    50.945861  0.028880873  0.031692748            3 
  148000    1.0355243    -6.919321    51.295809  0.028882775  0.031602813            2 
  149000    1.0378935   -6.8780778    51.605066  0.028861893   0.03151291            3 
  150000    1.0491209   -6.9380512    51.965651  0.028869806  0.031425544            1 
  151000    1.0311989   -6.9333546    52.119821  0.028763698  0.031340635            4 
  152000    1.0290413   -6.9091001    52.481003   0.02877248   0.03125969            5 
  153000    1.0030867   -6.9181028    53.038975  0.028888331  0.031180854            4 
  154000    1.0179136   -6.9115625    53.252744   0.02881642  0.031104835            4 
  155000    1.0456287   -6.9281711    53.438429  0.028730338  0.031029696            4 
  156000    1.0359152   -6.9038801     54.13835  0.028920058  0.030957568            1 
  157000    1.0126318   -6.9330989     54.14315  0.028738402  0.030886922            4 
  158000    0.9978157   -6.9576408    54.493207  0.028741143  0.030817416            4 
  159000    1.0151181   -6.9317049     54.93964   0.02879436  0.030750426            5 
  160000    1.0265042   -6.9668135    55.184213  0.028741778  0.030684779            3 
  161000     1.028582   -6.9556027    55.329501  0.028638458  0.030620776            3 
  162000    1.0035747   -6.9692407    55.650488  0.028626794  0.030555484            5 
  163000     1.019217   -6.9620503    55.850338  0.028553342  0.030488102            4 
  164000   0.99266804   -6.9718525    55.967983  0.028439016  0.030419565            3 
  165000    1.0078153   -6.9745658    56.082041  0.028324263  0.030348907            4 
  166000    1.0076957   -7.0040603    56.322004  0.028274098  0.030275731            3 
  167000     1.004579   -6.9807633    56.528076  0.028207623  0.030203284            3 
  168000   0.99412364   -6.9553695    56.705854  0.028127904  0.030128985            3 
  169000    1.0096126   -6.9714843    56.936289  0.028075093   0.03005524            2 
  170000   0.99947912   -7.0083644     57.21389  0.028046024  0.029981233            2 
  171000   0.99642324   -6.9985738    57.310656  0.027929169   0.02990634            1 
  172000    0.9779548   -6.9655035    57.555798  0.027885561  0.029832231            2 
  173000   0.98689655   -7.0009435    57.857509  0.027869706  0.029758108            3 
  174000    1.0156407   -6.9823428    58.164762  0.027856687   0.02968589            3 
  175000    1.0068912   -6.9745296    58.175885  0.027702802  0.029612785            2 
  176000   0.98078426   -6.9862833    58.480424  0.027689595  0.029537759            3 
  177000   0.97047695   -6.9630665    58.864294  0.027713886   0.02946512            1 
  178000   0.96561086   -6.9956925    58.731797  0.027496159  0.029391901            2 
  179000   0.98460108   -6.9811676    59.016701  0.027475186  0.029317921            2 
  180000   0.99628709    -6.971653    59.335032  0.027469922   0.02924533            4 
  181000   0.98537105   -7.0052281    59.637767  0.027457535   0.02917389            2 
  182000    0.9817353   -7.0046292    59.885505  0.027420103  0.029102695            4 
  183000   0.96947268   -7.0387358    59.844943  0.027251796  0.029030575            2 
  184000   0.97539019   -7.0609114    60.002457  0.027175026  0.028956415            3 
  185000   0.96191796    -7.035913     60.22415  0.027127996  0.028883048            4 
  186000   0.96760761   -7.0191297    60.627631  0.027162917  0.028809262            3 
  187000   0.97946248   -7.0247025    60.797447  0.027093336  0.028735535            3 
  188000   0.96854999    -7.026604    60.859516  0.026976736  0.028662123            2 
  189000    1.0097556    -7.054503    60.855141  0.026832073  0.028587057            2 
  190000   0.96577164   -7.0446497    61.287745   0.02688059  0.028512939            1 
  191000   0.95894929   -7.0591987    61.476619   0.02682226  0.028440685            4 
  192000   0.96464001   -7.0674852    61.990882  0.026905765  0.028370593            4 
  193000   0.96605316   -7.0427816    62.101619   0.02681417  0.028300139            1 
  194000   0.94812998   -7.0382137    62.112422  0.026680594  0.028230329            9 
  195000   0.95426607   -7.0872229    62.302983  0.026625206  0.028159686            2 
  196000   0.95250655   -7.0848332     62.43124  0.026543895  0.028088198            2 
  197000   0.93415465   -7.0532919    62.534871  0.026452991  0.028016873            5 
  198000   0.95373541   -7.0573234      62.9097  0.026477146  0.027946194            7 
  199000    0.9667127   -7.0620192    62.986523  0.026376266  0.027875598            3 
  200000   0.94162432   -7.0667374    63.124467  0.026301861  0.027805325            5 
  201000   0.94125291   -7.0851164    63.341447  0.026260965  0.027734324            3 
  202000   0.95052371   -7.0891769     63.59781   0.02623672    0.0276626            6 
  203000   0.93268527   -7.0914886    63.980313  0.026264496  0.027593285            1 
  204000   0.93671508   -7.0988711    64.128679  0.026196356  0.027525759            3 
  205000   0.94609815   -7.1185316    64.455586  0.026201458  0.027459224            2 
  206000   0.93557326   -7.1048508    64.662583  0.026158003  0.027393265            2 
  207000   0.93106708   -7.0883168    64.742663  0.026063874  0.027326149            3 
  208000   0.93098634   -7.1105901    65.038163  0.026056956  0.027258931            6 
  209000   0.94873348   -7.1023178    65.209518  0.026000605  0.027193235            3 
  210000   0.96049957    -7.167361     65.23417  0.025886575  0.027126904            3 
  211000   0.93966732   -7.1018742    65.657338  0.025931018  0.027061896            3 
  212000    0.9244225   -7.1321279    65.673156   0.02581492  0.026997256            3 
  213000     0.920656   -7.1318086    65.896751  0.025781202   0.02693156            3 
  214000   0.91139228   -7.1379709    66.094733  0.025737824  0.026866435            5 
  215000   0.91188575   -7.1165875    66.194976  0.025656967  0.026802901            2 
  216000   0.92070843   -7.1131518    66.534076  0.025669011  0.026739066            2 
  217000   0.89459129   -7.1318255     66.66759  0.025601993  0.026674737           10 
  218000   0.91560222   -7.1425287    66.753776  0.025517498  0.026610171            6 
  219000   0.91894287   -7.1407727     67.03122  0.025506552  0.026545699            4 
  220000   0.90809843   -7.1264752    67.278268  0.025484192  0.026481668            5 
  221000   0.90887603   -7.1494922    67.408702  0.025418063  0.026417629            4 
  222000   0.92930709   -7.1776553    67.504671  0.025339591  0.026353524            6 
  223000   0.91231965   -7.1696226    67.593388  0.025259113  0.026290021            2 
  224000   0.93147474   -7.1708629    67.940327  0.025275419  0.026226669            2 
  225000   0.90634249   -7.1613264    67.914986  0.025153698  0.026163503            3 
  226000   0.91167731   -7.2308058    67.904543  0.025038548  0.026099078            5 
  227000   0.89161994   -7.1649016     67.96341  0.024949857  0.026035075            4 
  228000    0.9085567   -7.1891715    68.187267  0.024922247  0.025970488            4 
  229000   0.88599431   -7.1576416    68.560923   0.02494939  0.025905672            4 
  230000   0.88230082   -7.1863913    68.654643   0.02487487  0.025842191            3 
  231000   0.91102319   -7.1542417    68.918015  0.024862199  0.025778672            3 
  232000    0.8994763   -7.1879849    68.963361  0.024771322  0.025714691            3 
  233000   0.89968663   -7.2092018    68.778939  0.024599048  0.025650558            2 
  234000   0.89446438   -7.1882929    69.057413  0.024593096  0.025584494            4 
  235000   0.90135005    -7.187403    69.194016  0.024536885  0.025518831            3 
  236000   0.88065571   -7.2415513      69.1767  0.024426801   0.02545268            4 
  237000    0.8922683    -7.247936    69.363338  0.024389359  0.025386594            3 
  238000   0.89913713   -7.1911332    69.438524  0.024313209  0.025320484            4 
  239000   0.88372821   -7.1681661    69.531177  0.024243785   0.02525323            3 
  240000   0.87778568     -7.21238    69.627548  0.024176232  0.025186697            3 
  241000   0.90237264   -7.2309657    69.680786  0.024094324  0.025120002            2 
  242000   0.89020786    -7.229812    69.760102  0.024022074  0.025052422            7 
  243000   0.87416814   -7.2510056    69.906559  0.023973443  0.024984397            3 
  244000   0.87232674   -7.2296702    70.050368  0.023924306  0.024916421            4 
  245000   0.88476261   -7.2355865    70.015121  0.023814667  0.024847783            2 
  246000   0.87115133   -7.2470974     70.10236  0.023747412  0.024778516            5 
  247000   0.88609798   -7.2420503    70.423349  0.023759564  0.024711801            7 
  248000   0.88498116   -7.2592083     70.56395  0.023711005  0.024645417            2 
  249000   0.85436365   -7.2374868    70.652068   0.02364527  0.024578272            5 
  250000   0.87033211   -7.2169894    70.739578  0.023579859  0.024511146            3 
  251000   0.86438675   -7.2631362    70.753806  0.023490639  0.024443634            6 
  252000   0.85416343   -7.2601619    71.132314   0.02352259  0.024377193            4 
  253000   0.84813729   -7.2618287    71.237635  0.023464307  0.024311245            4 
  254000   0.85314059    -7.296997    71.174883   0.02335134  0.024244919            3 
  255000   0.83921195   -7.2956041    71.310598  0.023304117  0.024178785            3 
  256000   0.86101448   -7.2813494    71.496177  0.023273495  0.024112784            3 
  257000   0.84913809   -7.2997645      71.4772  0.023176783  0.024046314            4 
  258000   0.84920151   -7.2960211    71.505517  0.023096097   0.02397978            4 
  259000   0.84118222   -7.2798325    71.947266  0.023149056   0.02391407            5 
  260000    0.8641546   -7.2953752    71.662143  0.022968636  0.023847878            4 
  261000   0.87077423   -7.2486716    72.019844  0.022994842  0.023782102            3 
  262000   0.84768081   -7.2860254    72.163501  0.022952768  0.023717672            3 
  263000   0.87241968    -7.310138    72.321625  0.022915597  0.023653474            2 
  264000    0.8425759   -7.2866894    72.407991  0.022856058  0.023589918            3 
  265000   0.86502209   -7.3029173    72.569768  0.022820682  0.023526338            6 
  266000   0.84464335   -7.2792099    72.682942  0.022770345  0.023462321            2 
  267000   0.83476685   -7.2871835    72.785832  0.022717176  0.023398527            5 
  268000   0.83609912   -7.3140038    72.604715  0.022576093  0.023334432            5 
  269000   0.83801553   -7.3033941    72.889264  0.022580317  0.023270219            4 
  270000   0.84213307   -7.3107444     73.04164  0.022543716  0.023206494            2 
  271000   0.83615548    -7.316771    73.043267  0.022461029  0.023143052            6 
  272000   0.83451316   -7.3316849    73.148489  0.022410689  0.023079608            4 
  273000   0.83008304   -7.3600546    72.967653  0.022273398  0.023015397            4 
  274000   0.83365323    -7.377476    72.856826  0.022158402  0.022950203            5 
  275000   0.81331107    -7.343154    73.295879  0.022210872  0.022885146            3 
  276000   0.81373842   -7.3147353    73.562157  0.022210796  0.022821464            6 
  277000   0.84504291    -7.303604    73.619646  0.022147908  0.022758385            3 
  278000   0.82979683   -7.3575974    73.881349  0.022146687  0.022695858            2 
  279000   0.82617522   -7.3854035    73.800792  0.022043247  0.022633301            2 
  280000    0.8330803    -7.378399    73.925326  0.022001585  0.022570719            9 
  281000    0.8107455   -7.3606083    73.923549  0.021922761  0.022507936            9 
  282000   0.83025502   -7.3681054    73.981002  0.021861998  0.022445271            6 
  283000   0.81246462   -7.3674883    74.047039  0.021804193   0.02238161           10 
  284000    0.8083176   -7.3798617    74.191367  0.021769767  0.022318261            5 
  285000     0.797777    -7.364553    74.205933  0.021697641  0.022255099            2 
  286000   0.79776414   -7.3991858    74.285402  0.021644931  0.022192252            2 
  287000   0.81882592   -7.3651702    74.308928  0.021576344  0.022128896            5 
  288000   0.81164473   -7.3924485    74.301605  0.021499307  0.022065654            6 
  289000   0.81333788   -7.4072501    74.433123  0.021462838  0.022002025            5 
  290000   0.80237494   -7.4239441    74.355073    0.0213664  0.021938346            3 
  291000   0.81180916   -7.4180403     74.41177  0.021309212  0.021874659            5 
  292000   0.80234244   -7.4097253     74.34481  0.021217126  0.021810563            5 
  293000   0.80771947   -7.4198927    74.289485  0.021128977  0.021746385            8 
  294000   0.80483079   -7.4165185    74.572237  0.021137255   0.02168246            6 
  295000    0.8038676   -7.4064999    74.483505  0.021040538  0.021618607            4 
  296000   0.78542613   -7.4368215    74.595225  0.021000908  0.021554964           11 
  297000   0.78287249   -7.4190542    74.712173  0.020963012  0.021491596            4 
  298000   0.81089958   -7.4240423     74.76183  0.020906552  0.021428033            7 
  299000   0.79347104   -7.4472446    74.770138  0.020838946  0.021364657           12 
  300000   0.78644682   -7.4252124    74.932271   0.02081452  0.021301878            9 
  301000   0.77512628   -7.4250799    75.079963  0.020786258  0.021239721            4 
  302000    0.7885161   -7.4526684    75.187958  0.020747229  0.021177785            3 
  303000   0.77329551   -7.4355769     75.16711  0.020673023  0.021116513            4 
  304000   0.76538523   -7.4603185     75.07993  0.020581121  0.021054678            3 
  305000   0.76847069   -7.4701236    75.399217  0.020600879  0.020992619            3 
  306000   0.76933553   -7.4486753    75.309462  0.020509113  0.020931095            3 
  307000   0.77397095   -7.4657717    75.402475  0.020467556  0.020869315            3 
  308000   0.78045286   -7.4348515    75.608334    0.0204568  0.020807978            6 
  309000   0.78877671   -7.4998527    75.497773   0.02036078  0.020746922            5 
  310000   0.75357932   -7.4783522    75.694735  0.020348047  0.020685947            5 
  311000   0.78371051   -7.4778152    75.731971  0.020292597  0.020625338            5 
  312000    0.7547669   -7.4699648    75.529012  0.020173347  0.020564529            3 
  313000   0.77064203   -7.4683794    75.620598  0.020133279   0.02050372            5 
  314000   0.78016996   -7.4772239    75.616064  0.020067958  0.020442932            5 
  315000   0.77523645   -7.4843896     75.61793  0.020004743   0.02038225            7 
  316000   0.77497889    -7.498624     75.82497  0.019996036  0.020321685           13 
  317000   0.75779073    -7.509566    75.869365  0.019944628   0.02026124            3 
  318000   0.76898503   -7.5220547    75.987303  0.019912815   0.02020091            5 
  319000   0.75465989   -7.4976144    76.099849  0.019879793  0.020140786           11 
  320000   0.74878449   -7.5126298    76.118274  0.019822467  0.020080972            4 
  321000   0.74470771   -7.5236759    75.940189  0.019714483   0.02002125            4 
  322000   0.74282367   -7.5177837    75.943446  0.019654101  0.019961469            5 
  323000   0.76337415   -7.5069509    76.120519  0.019638937  0.019901878            4 
  324000    0.7643728   -7.5233729    76.271198  0.019617078  0.019842696            5 
  325000   0.75548181   -7.5186784    76.179593  0.019533229   0.01978332            4 
  326000    0.7642931   -7.5333743    76.155311  0.019467104  0.019723521            7 
  327000   0.73796707   -7.5416609    76.294958  0.019443159  0.019663911           13 
  328000   0.75923561   -7.5481532    76.391787  0.019408482  0.019604258            5 
  329000   0.73126388   -7.5503277    76.277751  0.019320606  0.019545283            5 
  330000   0.73742429   -7.5259644    76.421559  0.019298373  0.019486276            5 
  331000    0.7317941   -7.5194168    76.492739  0.019257991  0.019427645            5 
  332000   0.75179534   -7.5397042    76.472101  0.019194804  0.019369336            5 
  333000   0.73896613    -7.541577      76.4074  0.019120971  0.019310995            3 
  334000   0.72516243   -7.5498175    76.609024  0.019114028  0.019253091            5 
  335000   0.72489349   -7.5623631     76.59231  0.019052813  0.019195489            4 
  336000   0.73038209   -7.5486429    76.766741   0.01903937   0.01913797            7 
  337000   0.73374786    -7.566189    76.758647  0.018980872  0.019080803            9 
  338000   0.72774462   -7.5769418    76.774351  0.018928587  0.019023446           13 
  339000   0.73690564   -7.5589929    76.623494  0.018835667  0.018966037            4 
  340000    0.7315222   -7.5563202    76.817432  0.018827802  0.018908885            6 
  341000   0.71861042   -7.5358429    76.738416  0.018753279   0.01885179            5 
  342000   0.70978922   -7.5432739    76.878837   0.01873266  0.018794705            2 
  343000   0.73207597   -7.5449187    76.786057  0.018655505   0.01873776            5 
  344000   0.71922918   -7.6201298    76.856641  0.018618372  0.018680883            4 
  345000    0.7110198   -7.6033549    76.694759  0.018525304  0.018623591            4 
  346000     0.706878   -7.5847971    76.815869  0.018500932  0.018566733            4 
  347000   0.71254476   -7.5799101    77.030758  0.018499221  0.018510345            6 
  348000   0.70220427   -7.5868095    77.044893  0.018449448  0.018454342           10 
  349000   0.69961169   -7.6060861    77.058807  0.018399906  0.018398471            6 
  350000   0.70852932   -7.6033129    76.931305  0.018316977  0.018342715            5 
  351000   0.71483393   -7.5999812    77.018923  0.018285594  0.018286921           10 
  352000    0.6927603   -7.6418113    77.161031   0.01826729   0.01823113            5 
  353000   0.70151118   -7.6074595     77.20824  0.018226685  0.018175754            3 
  354000   0.71425119   -7.6300405    77.203911  0.018174179  0.018120903            6 
  355000   0.69405218   -7.6405124    76.997108  0.018074439  0.018065778            4 
  356000   0.69734228   -7.6493019    77.283406  0.018090685  0.018010934           11 
  357000   0.70366794   -7.6395511     77.21258  0.018023478  0.017956197            5 
  358000   0.68461431   -7.6472296    77.188337   0.01796749  0.017901751            5 
  359000   0.70580466   -7.6467822    77.276421  0.017937888  0.017847326            5 
  360000   0.71901465   -7.6669341    77.247547  0.017881377  0.017792598            5 
  361000   0.68689979   -7.6631728    77.109502  0.017799977  0.017737851           14 
  362000   0.68700144   -7.6501627     77.15866  0.017762123   0.01768327            5 
  363000    0.6874751   -7.6833942    77.089963   0.01769742  0.017628735            7 
  364000   0.67024204   -7.6894961    77.020918  0.017632994  0.017573826            4 
  365000    0.6810888   -7.6553504    77.155245  0.017615353  0.017519205            6 
  366000   0.69950024   -7.6813794    77.207863  0.017579204  0.017464702            4 
  367000   0.67875261   -7.6753739    77.366585  0.017567345  0.017410457            5 
  368000    0.6843028   -7.6443335    77.116075  0.017462879  0.017356508            6 
  369000   0.69030469   -7.6827079    77.152009  0.017423669  0.017302639            7 
  370000   0.68170391   -7.6708133    77.181295  0.017383175  0.017248739            7 
  371000   0.69176387   -7.6737496    77.228278  0.017346873   0.01719497            8 
  372000   0.66863714   -7.7109848       77.046  0.017259409  0.017141149            8 
  373000    0.6628593   -7.6814771    77.239851  0.017256446  0.017087416           13 
  374000   0.65865836   -7.6949507    77.213835  0.017204509   0.01703391           15 
  375000   0.68056802   -7.7238455    77.237085  0.017163797  0.016980617           15 
  376000   0.66721168   -7.6852152    77.293978  0.017130757  0.016927246            6 
  377000   0.67277717   -7.6906853    77.217292  0.017068367  0.016874098            4 
  378000   0.64355881   -7.7026323    77.406023   0.01706482  0.016821025            6 
  379000   0.65151917    -7.718413    77.289124  0.016994091  0.016768373            6 
  380000   0.64680859   -7.7377786    77.349912    0.0169627  0.016715801            8 
  381000   0.66043575   -7.7176279    77.218811  0.016889504  0.016663243            9 
  382000   0.67106077   -7.7171992    77.110587  0.016821681   0.01661066            7 
  383000   0.65527432   -7.7470293    77.177803  0.016792385  0.016558224            6 
  384000   0.66072944   -7.7257069    77.261185   0.01676675  0.016506097            6 
  385000   0.66640522   -7.7257032    77.229446   0.01671633  0.016454059            6 
  386000   0.65198926   -7.7508863    77.185229  0.016663478   0.01640224            9 
  387000   0.65249759   -7.7651498    77.282218  0.016641304  0.016350474            8 
  388000   0.65267207   -7.7568953    77.348377  0.016612624  0.016299165            9 
  389000   0.64853836   -7.7484643    77.308447  0.016561364  0.016247847           12 
  390000   0.64153742   -7.7634479    77.145825  0.016484151  0.016196601            6 
  391000   0.63568642   -7.7624192    77.277369  0.016470027   0.01614557            5 
  392000   0.62811271   -7.7542555    77.252231  0.016422668  0.016094767            7 
  393000   0.63103635   -7.7717902    77.263637  0.016383299  0.016044164            7 
  394000   0.64101426   -7.7483664    77.311276  0.016351793  0.015993594            4 
  395000   0.64396208   -7.7647294    77.387191  0.016326412  0.015943119            6 
  396000   0.62857863   -7.7562522    77.317144  0.016270443   0.01589269            8 
  397000   0.61430465   -7.7568594    77.198378  0.016204529  0.015842365            6 
  398000   0.62859421    -7.800129    77.021551   0.01612679  0.015791998            6 
  399000   0.62815899   -7.7867346      77.2627  0.016136738  0.015741962            8 
  400000   0.62578573   -7.7900659     77.27548  0.016099058  0.015692196            4 
  401000    0.6147291   -7.7509483    77.388637  0.016082427  0.015642535            6 
  402000   0.62227917    -7.778643    77.423234  0.016049592  0.015593182            5 
  403000   0.62226421   -7.7898291    77.460822   0.01601754  0.015543875            5 
  404000   0.62522733   -7.7910354    77.440548   0.01597371  0.015494875            4 
  405000   0.63003739   -7.8002696    77.263582  0.015897856  0.015446077            3 
  406000   0.62325231   -7.8018123    77.404875    0.0158877  0.015397356            5 
  407000   0.62543421   -7.8233674    77.370632  0.015841653   0.01534882            4 
  408000   0.60290474   -7.7854936    77.182313  0.015764361  0.015300323            4 
  409000   0.61898237   -7.8251426    77.405671  0.015771327  0.015251937           14 
  410000   0.60832658   -7.8284399    77.310054  0.015713425  0.015203731            4 
  411000   0.61918931   -7.8094953    77.406974  0.015694845  0.015155695            4 
  412000   0.61436217    -7.833412    77.537584  0.015683168  0.015107952            3 
  413000   0.59791774   -7.8322672    77.404189  0.015618279  0.015060338            3 
  414000   0.61450432   -7.8257895    77.405919  0.015580902  0.015012862            4 
  415000   0.60449678   -7.8357879    77.294703  0.015521025  0.014965448            6 
  416000   0.59823702   -7.8500334    77.273708  0.015479509  0.014918142            6 
  417000   0.60842642   -7.8031598    77.312474  0.015450135     0.014871            4 
  418000   0.60310346   -7.8431131    77.514642  0.015453477  0.014824011            4 
  419000   0.59414873   -7.8512994    77.343031  0.015382464  0.014777133            5 
  420000   0.59282216   -7.8552994    77.213083  0.015320056  0.014730237            7 
  421000   0.60567148   -7.8673609    77.396588   0.01531999  0.014683516            4 
  422000   0.61520646   -7.8670195    77.328382  0.015270218  0.014637022            6 
  423000   0.58858126   -7.8669685    77.194458  0.015207734  0.014590509            7 
  424000   0.59381124   -7.8722083    77.329332  0.015198375  0.014544186            4 
  425000    0.5773555   -7.8901028    77.228366  0.015142817  0.014497972            6 
  426000   0.57938464   -7.8837249    77.254502  0.015112383  0.014451832            3 
  427000   0.58171445   -7.8861195    77.328524  0.015091437  0.014405755            3 
  428000   0.58790587   -7.8724708     77.09154  0.015010035  0.014359786            3 
  429000   0.57701708   -7.8747168    77.091815    0.0149751  0.014314031            7 
  430000   0.58124803   -7.8965922    77.242229  0.014969424  0.014268394            7 
  431000   0.58456645   -7.8948459    77.174606  0.014921618   0.01422289            4 
  432000    0.5747506   -7.8710288    77.147492  0.014881846  0.014177441           11 
  433000   0.57053614   -7.9188243    77.086986  0.014835832  0.014132242            4 
  434000   0.56748575   -7.9192743    77.122529  0.014808473  0.014087143            6 
  435000   0.57890062   -7.9070215    76.930241  0.014737594  0.014042161            5 
  436000   0.56572355   -7.9108648    77.134947  0.014742918  0.013997232           12 
  437000   0.57696841   -7.9000981    77.169952  0.014715857  0.013952527            7 
  438000   0.57287928   -7.9061038    76.999343  0.014649799  0.013907949            8 
  439000   0.56435448    -7.923927    77.045886  0.014625263  0.013863483            8 
  440000   0.57124488   -7.9344557     77.32905  0.014645653  0.013819314            5 
  441000   0.57023403   -7.9262072    77.039403   0.01455771  0.013775155            6 
  442000   0.56197389   -7.9206972    77.193625  0.014553851  0.013731208           10 
  443000   0.55291581   -7.9424972    77.097796  0.014502971  0.013687484            5 
  444000   0.56756133   -7.9254595    77.142705  0.014478736  0.013643864            5 
  445000   0.56414214   -7.9474382    76.927477  0.014405895  0.013600293            3 
  446000   0.55634378   -7.9490871    77.090103   0.01440398  0.013556828            4 
  447000   0.55452177   -7.9379134    77.032517  0.014361021  0.013513501            6 
  448000   0.55140234   -7.9510698    76.992549  0.014321531  0.013470398            5 
  449000   0.53004785   -7.9322018    76.938171  0.014279542   0.01342737            5 
  450000   0.56976952   -7.9586266    77.144437  0.014286007  0.013384568            4 
  451000   0.55557791   -7.9491321    77.031621  0.014233485  0.013341968            5 
  452000   0.54884589   -7.9620746    77.078603  0.014210657  0.013299443            6 
  453000   0.53829864   -7.9706163    76.900827  0.014146583  0.013257101            9 
  454000   0.55121942    -7.965892    76.957391  0.014125806  0.013214909           13 
  455000   0.52731187    -7.956733    77.004798  0.014103443  0.013172904            6 
  456000   0.53690198   -7.9692705    76.933473   0.01405948  0.013131031            7 
  457000   0.53340581   -7.9786766    76.947672  0.014031304  0.013089283           13 
  458000   0.54999718   -7.9946584    76.992142  0.014008759  0.013047699            9 
  459000   0.53182244   -7.9867205     77.07714  0.013993671  0.013006306           11 
  460000    0.5417897   -7.9905054     76.85344  0.013922725  0.012965023            6 
  461000   0.52253747   -7.9864058    76.834887   0.01388917  0.012923922           11 
  462000   0.53866565   -7.9731964    76.895646  0.013870066  0.012882951           10 
  463000   0.53898376   -7.9892292    77.086581  0.013874475   0.01284218           13 
  464000   0.52548003    -8.010376    76.939193  0.013818102  0.012801453            9 
  465000   0.52796366   -7.9898144    76.850098  0.013772419  0.012760856            6 
  466000   0.53216658   -8.0000482    76.868385  0.013746135  0.012720435            5 
  467000   0.52948437   -7.9977042    76.771771   0.01369946  0.012680098           17 
  468000   0.51796717   -8.0102146    76.873881  0.013688369   0.01263988           13 
  469000   0.52105412   -8.0054754    76.828043  0.013651038  0.012599916            9 
  470000   0.51518217   -7.9941893    76.934963  0.013640951  0.012560138           10 
  471000   0.50459806   -8.0271177    76.830056  0.013593428  0.012520402           14 
  472000   0.51089548   -8.0211802     76.92637  0.013581633  0.012480833           11 
  473000   0.51593151   -8.0371461    76.809002  0.013532241  0.012441384            8 
  474000   0.51091574   -8.0149765    76.715119  0.013487187  0.012402018           14 
  475000    0.5182235   -8.0126139    76.777083  0.013469664  0.012362851            7 
  476000   0.50774373   -8.0414256    76.733919  0.013433809  0.012323818            7 
  477000   0.50020855    -8.035217    76.803142   0.01341774  0.012284964           11 
  478000   0.50213643   -8.0249506     76.79226  0.013387772  0.012246233           10 
  479000   0.50749778   -8.0295393     76.80306  0.013361701  0.012207539           10 
  480000   0.50259538   -8.0273941    76.734205  0.013321911  0.012169015           12 
  481000   0.49104327   -8.0500258    76.760257  0.013298728   0.01213063            8 
  482000   0.49889252   -8.0265343    76.596158  0.013242766  0.012092327            8 
  483000   0.49260248   -8.0410813    76.647037  0.013224127  0.012054122           10 
  484000    0.4991115   -8.0584372    76.761745  0.013216554  0.012016174           10 
  485000   0.48623316   -8.0458491    76.581796  0.013158384  0.011978324            6 
  486000   0.48978676   -8.0567808    76.673429  0.013147021  0.011940589            9 
  487000   0.49466781   -8.0503696    76.735411  0.013130632  0.011903051           10 
  488000   0.47287826   -8.0737445    76.562795  0.013074248  0.011865506            8 
  489000   0.48732191   -8.0670236    76.658055  0.013063745  0.011828187            8 
  490000   0.47930413   -8.0674004     76.67367   0.01303974  0.011790961            9 
  491000   0.48006088   -8.0566061    76.618339  0.013003791  0.011753939            8 
  492000   0.48772441   -8.0759486    76.518993  0.012960534  0.011716967           12 
  493000   0.49031742   -8.0677248    76.509399  0.012932623   0.01168014            7 
  494000   0.47411467   -8.0806744    76.448213  0.012896122  0.011643481            9 
  495000     0.477408   -8.0839728    76.565159  0.012889757  0.011606899            5 
  496000   0.47699233   -8.0915448    76.534688   0.01285865  0.011570524           12 
  497000   0.46994145   -8.0897269    76.416693  0.012812993  0.011534274            9 
  498000   0.47704788   -8.0769558    76.371513  0.012779704  0.011498109           14 
  499000   0.47513025   -8.0896592    76.449209  0.012767069   0.01146196           10 
  500000   0.46909743   -8.0917842    76.557134  0.012759522  0.011426021            7 
  501000   0.45846992   -8.0996659    76.432568  0.012713335  0.011390165            6 
  502000   0.46831326   -8.0859798    76.548639  0.012707277  0.011354482           15 
  503000   0.46447923   -8.0941115     76.33444  0.012646527  0.011318934           14 
  504000   0.45949938   -8.0971273     76.47189  0.012644162  0.011283579           15 
  505000    0.4471446   -8.1175399    76.461492  0.012617408  0.011248343           13 
  506000   0.46077467   -8.1120763    76.445065  0.012589767  0.011213249           13 
  507000   0.47169705   -8.1015414    76.383238  0.012554773  0.011178262           16 
  508000   0.46255709   -8.1113819    76.436498  0.012538796  0.011143456            8 
  509000   0.45620101   -8.1033112    76.406508  0.012509251   0.01110873           12 
  510000   0.45346561   -8.1297083    76.308923  0.012468778  0.011074164            8 
  511000   0.45375026   -8.1200029    76.363995  0.012453359   0.01103969           12 
  512000   0.44162795   -8.1194811    76.495421  0.012450427  0.011005366            8 
Loop time of 1129.76 on 48 procs for 500000 steps with 4000 atoms

Performance: 76476.272 tau/day, 442.571 timesteps/s
99.4% CPU use with 48 MPI tasks x no OpenMP threads

MPI task timing breakdown:
Section |  min time  |  avg time  |  max time  |%varavg| %total
---------------------------------------------------------------
Pair    | 69.898     | 75.082     | 78.761     |  24.3 |  6.65
Neigh   | 7.2053     | 7.4875     | 7.7969     |   4.6 |  0.66
Comm    | 66.79      | 72.34      | 78.295     |  28.0 |  6.40
Output  | 0.83149    | 0.832      | 0.84084    |   0.1 |  0.07
Modify  | 959.63     | 962.58     | 966.28     |   4.7 | 85.20
Other   |            | 11.44      |            |       |  1.01

Nlocal:        83.3333 ave          89 max          76 min
Histogram: 4 0 2 3 10 5 10 9 2 3
Nghost:        1904.81 ave        1924 max        1883 min
Histogram: 2 1 2 7 8 9 8 8 0 3
Neighs:        11981.3 ave       13004 max       10490 min
Histogram: 1 0 5 4 5 9 8 5 8 3
FullNghs:      23962.4 ave       25891 max       21754 min
Histogram: 3 2 2 7 7 7 6 9 2 3

Total # of neighbors = 1150196
Ave neighs/atom = 287.54900
Neighbor list builds = 26875
Dangerous builds = 0

#clear
#
#next RN
#
#jump SELF
Total wall time: 0:18:52
