
units lj                  # Use reduced LJ style units
atom_style atomic         # Uncharged point particles
atom_modify map hash      # Needed for indexing of clusters etc
                          # Used to be able to find where atoms are in relation to each other.

lattice fcc 1.0 spacing 1 1 1
Lattice spacing in x,y,z = 1.5874011 1.5874011 1.5874011
region box block 0 10 0 10 0 10 units lattice
create_box 2 box
Created orthogonal box = (0.0000000 0.0000000 0.0000000) to (15.874011 15.874011 15.874011)
  3 by 4 by 4 MPI processor grid
create_atoms 1 box
Created 4000 atoms
  using lattice units in orthogonal box = (0.0000000 0.0000000 0.0000000) to (15.874011 15.874011 15.874011)
  create_atoms CPU = 0.004 seconds
set type 1 type/fraction 2 0.55 78393
Setting atom values ...
  2215 settings made for type/fraction
mass 1 1.0
mass 2 1.0
pair_style lj/cut  3.5
pair_modify tail  yes
pair_coeff 1  1  1.0  1.0   # Intearaction between 1 and 1 set with epsilon = 1 and sigma = 1
pair_coeff 1  2  1.5  0.8
pair_coeff 2  2  0.5  0.88

write_data data.0
System init for write_data ...
Neighbor list info ...
  update every 1 steps, delay 10 steps, check yes
  max neighbors/atom: 2000, page size: 100000
  master list distance cutoff = 3.8
  ghost atom cutoff = 3.8
  binsize = 1.9, bins = 9 9 9
  1 neighbor lists, perpetual/occasional/extra = 1 0 0
  (1) pair lj/cut, perpetual
      attributes: half, newton on
      pair build: half/bin/atomonly/newton
      stencil: half/bin/3d
      bin: standard
WARNING: Not all mixed pair coeffs generated from mixing. Use write_data with 'pair ij' option to store all pair coeffs. (../write_data.cpp:312)


#############################
#   M E L T   S Y S T E M   #
#############################

velocity all create 2.4 2750902 mom yes dist gaussian # Assign velocities
                                                    # Temperature 2.4, random number seed, zero linear momentum
                                                                                # Gaussian distribution

timestep 0.002   # simulation timestep
thermo 1000       # output thermodynamic data every 1000 steps bf 100

# Define a fix  in this case with index 1 applied to all
# particles in the simulation. This fix is for simulations
# in the anisotropic NPT ensemble. Note that we use the MTK
# correction.
fix 1 all npt temp 2.4 2.4 0.1 iso 5.68 5.68 0.5 mtk yes tchain 5 pchain 5 # Use NPT ensemble
                                                                         # Set temperature and pressure and damping
                                                                         # Numbers of thermostats in chain and in barostat
run 10000          # run for 10000 steps
Per MPI rank memory allocation (min/avg/max) = 3.642 | 3.644 | 3.648 Mbytes
Step Temp E_pair E_mol TotEng Press Volume 
       0          2.4   -4.9973821            0   -1.3982821   -4.1559512         4000 
    1000    2.4143983   -4.6551094            0   -1.0344174    5.8488099    3647.7498 
    2000    2.4101461   -4.6880307            0   -1.0737154    5.4813227    3664.1824 
    3000    2.3991685   -4.7163977            0   -1.1185447    5.5980896    3644.6923 
    4000    2.3731887    -4.654084            0   -1.0951909    5.9200235    3646.0724 
    5000    2.3612887    -4.731916            0   -1.1908684    5.6725424     3632.744 
    6000    2.3724804   -4.7073862            0   -1.1495552    5.6582962    3648.5035 
    7000    2.3963781   -4.7186246            0   -1.1249562    5.6525886    3642.3978 
    8000     2.403706   -4.6474737            0   -1.0428161    6.0706565    3634.7239 
    9000    2.4332902    -4.766888            0   -1.1178652     5.708866    3608.8267 
   10000    2.3993236   -4.6667034            0   -1.0686178     5.536066    3673.4247 
Loop time of 2.61731 on 48 procs for 10000 steps with 4000 atoms

Performance: 660220.983 tau/day, 3820.723 timesteps/s
99.6% CPU use with 48 MPI tasks x no OpenMP threads

MPI task timing breakdown:
Section |  min time  |  avg time  |  max time  |%varavg| %total
---------------------------------------------------------------
Pair    | 1.2082     | 1.2671     | 1.3479     |   2.8 | 48.41
Neigh   | 0.21376    | 0.22308    | 0.22974    |   0.8 |  8.52
Comm    | 0.77994    | 0.87291    | 0.95549    |   3.6 | 33.35
Output  | 0.00025285 | 0.0002647  | 0.00033066 |   0.0 |  0.01
Modify  | 0.21495    | 0.23796    | 0.2642     |   2.7 |  9.09
Other   |            | 0.01594    |            |       |  0.61

Nlocal:        83.3333 ave          94 max          74 min
Histogram: 3 4 4 5 10 7 7 4 0 4
Nghost:        1743.83 ave        1776 max        1716 min
Histogram: 2 2 6 7 9 7 11 2 1 1
Neighs:        10416.4 ave       12161 max        8860 min
Histogram: 2 2 7 6 8 11 6 3 0 3

Total # of neighbors = 499985
Ave neighs/atom = 124.99625
Neighbor list builds = 901
Dangerous builds = 190

# Equilibrate just above the melting temperature to avoid step fn in T

fix 1 all npt temp 1.25 1.25 0.1 iso 5.68 5.68 0.5 mtk yes tchain 5 pchain 5
run 2000
Per MPI rank memory allocation (min/avg/max) = 3.644 | 3.646 | 3.650 Mbytes
Step Temp E_pair E_mol TotEng Press Volume 
   10000    2.3993236   -4.6667034            0   -1.0686178     5.536066    3673.4247 
   11000    1.2453977   -6.7905952            0   -4.9229657    5.5270217    2821.6382 
   12000    1.2304243   -6.9241964            0   -5.0790213    5.7785373    2780.2656 
Loop time of 0.658284 on 48 procs for 2000 steps with 4000 atoms

Performance: 525001.121 tau/day, 3038.201 timesteps/s
99.7% CPU use with 48 MPI tasks x no OpenMP threads

MPI task timing breakdown:
Section |  min time  |  avg time  |  max time  |%varavg| %total
---------------------------------------------------------------
Pair    | 0.28896    | 0.3247     | 0.36715    |   2.4 | 49.33
Neigh   | 0.040879   | 0.043848   | 0.046251   |   0.6 |  6.66
Comm    | 0.19965    | 0.23783    | 0.27376    |   3.0 | 36.13
Output  | 5.157e-05  | 5.334e-05  | 6.7694e-05 |   0.0 |  0.01
Modify  | 0.039335   | 0.046789   | 0.054025   |   1.9 |  7.11
Other   |            | 0.005063   |            |       |  0.77

Nlocal:        83.3333 ave          94 max          77 min
Histogram: 4 9 6 6 9 7 4 2 0 1
Nghost:        2096.10 ave        2117 max        2077 min
Histogram: 4 2 2 8 8 9 5 8 1 1
Neighs:        13699.9 ave       15607 max       11920 min
Histogram: 3 4 2 7 12 6 4 5 3 2

Total # of neighbors = 657593
Ave neighs/atom = 164.39825
Neighbor list builds = 142
Dangerous builds = 10

#############################
# L I N E A R  Q U E N C H  #
#############################

# Define solid atoms. This closely follows ten Wolde  Ruiz-Montero and Frenkel  Faraday Discuss  1996  104  93-110
# Compute components of the per-atom q6 vector
compute q6 all orientorder/atom degrees 1 6 components 6 nnn NULL cutoff 1.3 # compute the Q6 parameter.
                                                                             # Use all neighbours within 1.3 unit cell.

# get number of connections
compute coord_number all coord/atom orientorder q6 0.5

# An atom is solid if it has 8 or more connections (of a possible 14)
variable is_solid atom c_coord_number>=8
group solid dynamic all var is_solid    # Must be dynamic to update
dynamic group solid defined

# do clustering
compute cluster solid cluster/atom 1.3 # Create a cluster where all atoms within are solid and max 1.3 units from another member

# define chunks one chunk per cluster
compute clus_chunks solid chunk/atom c_cluster nchunk every compress yes  # Says which atoms are in which chunk

# count the size of each chunk
compute size_chunks solid property/chunk clus_chunks count


# Find the maximum entry in the vector of chunk sizes
variable max_n equal max(c_size_chunks)


# Thermo style which includes this variable
# thermo_style custom step temp pe vol v_max_n

thermo ${N}  # Print the thermo information every 100 steps
thermo 1000  

# Reset the npt fix at a lower temperature (below freezing)
fix 1  all npt temp  ${temp} ${temp}  0.1  iso  5.68  5.68  0.5  mtk yes tchain  5  pchain  5
fix 1  all npt temp  0.45 ${temp}  0.1  iso  5.68  5.68  0.5  mtk yes tchain  5  pchain  5
fix 1  all npt temp  0.45 0.45  0.1  iso  5.68  5.68  0.5  mtk yes tchain  5  pchain  5

dump dmp2 all dcd ${N} traj.dcd
dump dmp2 all dcd 1000 traj.dcd


compute msd all msd com yes
variable twopoint equal c_msd[4]/6/(step*dt+1.0e-6)
fix 9 all vector 10 c_msd[4]
variable fit equal slope(f_9)/6/(10*dt)
thermo_style custom step temp pe c_msd[4] v_twopoint v_fit v_max_n

fix 1 all npt temp 1.25 ${temp} 0.1 iso 5.68 5.68 0.5 mtk yes tchain 5 pchain 5
fix 1 all npt temp 1.25 0.45 0.1 iso 5.68 5.68 0.5 mtk yes tchain 5 pchain 5
run 5000000 # 5000000  # Run for this many steps
Neighbor list info ...
  update every 1 steps, delay 10 steps, check yes
  max neighbors/atom: 2000, page size: 100000
  master list distance cutoff = 3.8
  ghost atom cutoff = 3.8
  binsize = 1.9, bins = 8 8 8
  4 neighbor lists, perpetual/occasional/extra = 1 3 0
  (1) pair lj/cut, perpetual
      attributes: half, newton on
      pair build: half/bin/atomonly/newton
      stencil: half/bin/3d
      bin: standard
  (2) compute orientorder/atom, occasional
      attributes: full, newton on
      pair build: full/bin/atomonly
      stencil: full/bin/3d
      bin: standard
  (3) compute coord/atom, occasional
      attributes: full, newton on
      pair build: full/bin/atomonly
      stencil: full/bin/3d
      bin: standard
  (4) compute cluster/atom, occasional
      attributes: full, newton on
      pair build: full/bin/atomonly
      stencil: full/bin/3d
      bin: standard
Per MPI rank memory allocation (min/avg/max) = 9.843 | 9.849 | 9.855 Mbytes
Step Temp PotEng c_msd[4] v_twopoint v_fit v_max_n 
   12000    1.2304243   -6.9241964 2.0857482e-30 1.4484362e-32 8.3333333e+20            3 
   13000     1.268756   -6.9374143   0.45932508 0.0029443914  0.037579731            2 
   14000    1.2647027   -6.8843538   0.86428377 0.0051445461  0.035608478            4 
   15000    1.2561912   -6.8871554    1.2868041 0.0071489114  0.034394922            2 
   16000    1.2477578   -6.9637048    1.7148566 0.0089315448  0.034840835            2 
   17000    1.2468876   -6.9134896    2.1249674  0.010416506  0.034846195            1 
   18000    1.2375919   -6.8900434    2.5722411  0.011908523  0.035052315            1 
   19000    1.2309508   -6.9332528    3.0235388  0.013261135  0.035226794            1 
   20000    1.2457553   -6.9305478    3.3964995  0.014152081  0.035393173            3 
   21000    1.2714894   -6.9191556    3.8580144   0.01530958  0.035267007            2 
   22000    1.2220049   -6.9323414     4.273235  0.016186496  0.035310746            1 
   23000    1.2318411   -6.9005249    4.6535045  0.016860523  0.035202317            2 
   24000     1.259226   -6.9123593    4.9802276  0.017292457  0.034986638            5 
   25000    1.2353986   -6.9608054    5.4543721   0.01818124  0.034780887            3 
   26000    1.2375178    -6.936133    5.8763782  0.018834545  0.034721363            1 
   27000    1.2002289     -6.91638    6.2516032  0.019295071  0.034638281            2 
   28000    1.2449649   -6.9249916    6.6525909  0.019799377  0.034545564            2 
   29000    1.2526596   -6.9378572    7.0562357  0.020276539  0.034441605            4 
   30000    1.2276514   -6.9616387    7.4475451  0.020687625  0.034364907            1 
   31000    1.2264893   -6.8813983     7.859804  0.021128505  0.034279096            1 
   32000    1.2470649   -6.9751697    8.2118817  0.021385108  0.034211409            2 
   33000    1.2398688   -6.9426024    8.5876808  0.021686062  0.034125799            2 
   34000    1.2348591    -6.936315    8.9528848  0.021943345  0.034030048            2 
   35000    1.2400078   -6.9301675    9.3504403  0.022262953  0.033927378            1 
   36000    1.2563384   -6.9024188    9.7785348  0.022635497  0.033830361            3 
   37000    1.2474385   -6.9341965    10.222446  0.023023527  0.033770178            1 
   38000    1.2529757   -6.9754636    10.563275  0.023165077  0.033742762            4 
   39000    1.2378305    -6.946716    11.025835  0.023559476  0.033717991            2 
   40000    1.2584815    -6.942677    11.326158  0.023596162  0.033642715            1 
   41000    1.2288267   -6.9199481    11.783354  0.023949907  0.033585535            2 
   42000    1.2545205   -6.9238117    12.143105  0.024093462  0.033540452            1 
   43000     1.242401   -6.9612368    12.386502  0.024004849  0.033464691            1 
   44000    1.2406603    -6.935204    12.797388  0.024237477  0.033380628            3 
   45000    1.2355422    -6.921123    13.161677  0.024373475  0.033270319            2 
   46000    1.2591985   -6.9120711    13.497654  0.024452272  0.033180598            1 
   47000    1.2486863   -6.9346851    13.895145  0.024636781  0.033083841            2 
   48000     1.232111    -6.957495    14.220987  0.024689213   0.03299468            3 
   49000    1.2306597   -6.9517715    14.612869  0.024851817  0.032898901            2 
   50000    1.2362964   -6.9439729    15.048574  0.025080956  0.032827877            1 
   51000    1.2569812   -6.9199552    15.434534  0.025219826  0.032765146            1 
   52000    1.2600504   -6.9271035    15.887636  0.025460954  0.032725303            2 
   53000    1.2548564    -6.948995     16.11489  0.025337878  0.032677395            1 
   54000     1.252083   -6.9829056    16.436091  0.025364338  0.032599138            3 
   55000    1.2547404   -6.9603115    16.854095  0.025536507  0.032537601            1 
   56000    1.2544429    -6.923164    17.284926  0.025721615  0.032503715            4 
   57000    1.2230926   -6.9422191    17.729178  0.025919851  0.032477999            7 
   58000    1.2591058   -6.9550301    18.234308  0.026198718  0.032464571            2 
   59000    1.2573948   -7.0046772    18.558773  0.026212957  0.032463667            3 
   60000    1.2349573    -6.963572    19.013867  0.026408148  0.032450456            2 
   61000    1.2225752   -6.9381258    19.529236  0.026679284  0.032466444            2 
   62000    1.2636957   -6.9260748    20.007063  0.026891213  0.032502176            2 
   63000    1.2236381   -6.9784395    20.380412  0.026958217  0.032540533            1 
   64000    1.2139922   -6.9962971    20.771482  0.027046201  0.032580403            2 
   65000    1.2811171   -6.9456192    21.175095  0.027147558  0.032620359            3 
   66000    1.2115879   -6.9183095    21.582027  0.027250034  0.032645331            3 
   67000     1.223208   -6.9614896    21.918105  0.027261324  0.032667081            2 
   68000    1.2224049   -6.9849357    22.139233  0.027131413  0.032671568            1 
   69000    1.2323588   -6.9727833    22.586038  0.027277823  0.032667002            1 
   70000    1.2384674   -6.9714392    23.106157  0.027507329  0.032667218            2 
   71000    1.2324473   -6.9513056    23.519713  0.027605297  0.032678647            2 
   72000    1.2425026   -6.9558713    23.898852  0.027660708   0.03269115            4 
   73000    1.2816214   -6.9446409    24.113324  0.027526626  0.032694711            2 
   74000     1.214434   -6.9890974    24.582283  0.027682751  0.032691956            2 
   75000    1.2184081   -6.9410886    24.765744  0.027517494  0.032679723            1 
   76000    1.2642018   -6.9439198    25.275411  0.027714266  0.032661479            2 
   77000    1.2519611    -6.943529    25.743677  0.027861123  0.032655285            3 
   78000    1.2514204    -6.896581     26.11171  0.027897126  0.032645392            2 
   79000    1.2266904   -6.9472812    26.410074  0.027858728  0.032632465            3 
   80000    1.2387626   -6.9515253    26.806628  0.027923571  0.032616944            4 
   81000    1.2246117   -6.9487239    27.058383  0.027837843   0.03260148            3 
   82000    1.2562015   -6.9602057    27.429951  0.027875966  0.032577434            2 
   83000    1.2254425   -6.9787847     27.85688  0.027968755  0.032564435            2 
   84000    1.2252463   -6.9383508    28.284823   0.02806034   0.03254881            2 
   85000    1.2632036   -6.9481374    28.726992  0.028163717  0.032540336            1 
   86000    1.2333761   -6.9438281    29.142569  0.028238923   0.03253441            1 
   87000    1.2359854   -6.9961695    29.536523  0.028291689  0.032532852            2 
   88000     1.233686   -6.9270367    29.953342  0.028364907  0.032527501            2 
   89000    1.2156878   -6.9343423    30.309193  0.028379394  0.032523189            2 
   90000    1.2292857   -6.9376308    30.560946  0.028297172    0.0325068            3 
   91000    1.2396282   -6.9748681    30.910557   0.02830637  0.032496683            2 
   92000    1.2317676   -6.9638078    31.167132  0.028231097  0.032479252            3 
   93000    1.2161436   -6.9212786    31.826997  0.028518815  0.032461711            1 
   94000    1.2014413   -6.9655651    32.007848  0.028375752   0.03244864            3 
   95000    1.2389724   -6.9731406    32.290398   0.02832491  0.032424841            1 
   96000    1.2231636   -6.9840518    32.732311  0.028413464  0.032399228            6 
   97000    1.2321308   -6.9531605    32.997874  0.028348689  0.032372925            4 
   98000    1.2325995   -7.0168633    33.132518  0.028173909  0.032343954            1 
   99000    1.2509778   -6.9907912    33.596899  0.028280218  0.032312957            1 
  100000    1.2359654   -6.9847474    34.035825  0.028363187  0.032284148            1 
  101000    1.2384724   -6.9203895    34.548982   0.02850576  0.032259609            1 
  102000    1.2423767   -6.9510726     34.82434  0.028451258  0.032238255            6 
  103000    1.2261614    -7.021809    35.160455   0.02844697  0.032215575            2 
  104000    1.2450797   -6.9612597    35.738085  0.028636286  0.032194101            1 
  105000     1.222605   -7.0058923    36.071448  0.028628133  0.032178649            2 
  106000    1.1945229   -6.9322585     36.74777  0.028889756  0.032166925            4 
  107000    1.2445321   -6.9603694    37.054656  0.028858766  0.032154747            2 
  108000    1.2589076   -6.9504938    37.330523  0.028804416  0.032146877            5 
  109000    1.2146892   -6.9698578    37.725938   0.02884246  0.032144079            3 
  110000    1.2245522   -6.9670414    38.288276   0.02900627  0.032144298            1 
  111000    1.2393287   -7.0205457    38.640845  0.029009643  0.032145112            4 
  112000    1.2147547   -7.0064389    39.061604  0.029063693  0.032147553            5 
  113000    1.2295957   -6.9550389    39.653788  0.029243207  0.032153362            2 
  114000    1.2389958   -6.9754432    39.916832  0.029178971  0.032163395            1 
  115000    1.2368518   -6.9804233    40.445439  0.029308289  0.032175539            3 
  116000    1.2340303   -6.9714102    40.769171  0.029288198  0.032188449            3 
  117000    1.1941177   -6.9761905    41.192118  0.029339115  0.032204215            2 
  118000    1.2233313     -6.94199     41.92006  0.029604562  0.032223455            2 
  119000    1.2362584   -6.9667242    42.122831  0.029497781  0.032241908            2 
  120000    1.2463138   -6.9981516    42.601643  0.029584474  0.032265585            5 
  121000    1.2235315   -6.9592719    43.123745  0.029699549  0.032283404            2 
  122000    1.2002058   -6.9585677    43.731145  0.029871001   0.03230695            1 
  123000    1.2176687   -6.9287086    43.958223  0.029781994  0.032334723            1 
  124000    1.2266687   -6.9737885     44.03857  0.029595813  0.032352792            1 
  125000    1.2336383     -6.97308    44.690323  0.029793549  0.032364304            2 
  126000    1.2276509   -6.9686321    45.223434  0.029909679  0.032381887            3 
  127000    1.2401056   -7.0258566    45.512021  0.029863531  0.032400326            1 
  128000    1.2742502   -6.9695128    45.776579   0.02980246  0.032416139            2 
  129000    1.2076187   -6.9856529    46.176197  0.029829585  0.032431641            2 
  130000    1.2126306    -6.980456    46.551855  0.029840933  0.032448085            3 
  131000    1.2484159   -7.0013396    46.857709  0.029807703  0.032463239            1 
  132000    1.2152288   -6.9432348    47.546229  0.030016559   0.03247764            3 
  133000    1.2412763   -6.9724778    47.978799  0.030061904  0.032492626            2 
  134000    1.2196157    -6.969015    48.142479  0.029939352  0.032504565            2 
  135000    1.2461985   -7.0431017    48.544425  0.029965694   0.03251258            2 
  136000    1.2335837   -6.9659223    49.095765  0.030083189  0.032526687            1 
  137000    1.2471971   -6.9786277    49.667982  0.030211668  0.032540279            3 
  138000    1.2203194    -6.916305    50.141275  0.030278547  0.032556339            3 
  139000    1.2427605   -6.9861111     50.31003  0.030161888  0.032571894            2 
  140000     1.227139   -6.9974907     50.66814  0.030159607  0.032584842            4 
  141000    1.2265438    -6.982413    51.168477  0.030241416  0.032597242            2 
  142000    1.2513383   -6.9457385    51.741609  0.030364794  0.032611066            2 
  143000    1.2164842     -6.96067    51.913236  0.030252469  0.032622659            2 
  144000    1.2281773   -6.9685063    52.216206  0.030217712  0.032630154            2 
  145000    1.2527183   -6.9903651    52.382745  0.030105026  0.032636643            2 
  146000    1.2405662   -7.0006742    52.749304   0.03010805  0.032637363            1 
  147000    1.2343579   -6.9579471    53.276895  0.030202321  0.032639827            2 
  148000    1.2355813     -6.97294    53.676457   0.03022323  0.032642722            2 
  149000    1.2281622   -6.9906967    53.796537  0.030087549  0.032644933            2 
  150000    1.2469155   -6.9778256    54.409715  0.030227619  0.032648874            2 
  151000    1.2309175   -6.9856015    54.926479  0.030312626  0.032655864            2 
  152000    1.2351636    -6.961972    55.331962  0.030335505   0.03266065            1 
  153000    1.2193442   -6.9445166    55.696202  0.030335622  0.032668644            1 
  154000    1.2452291   -7.0163737    56.027075  0.030317681  0.032669245            2 
  155000    1.2212543   -6.9529855    56.639796  0.030451503  0.032673722            2 
  156000    1.2306878   -7.0312109    56.477246  0.030169469  0.032674297            2 
  157000    1.2172483   -7.0092234    56.815825  0.030157019  0.032671953            1 
  158000    1.2545613    -6.982338    57.344221  0.030244842  0.032666587            2 
  159000    1.2310786   -7.0051522    57.290157  0.030026288  0.032661538            3 
  160000    1.2096056   -6.9795326    57.846698  0.030128489  0.032651638            6 
  161000      1.22796   -6.9973961    57.938408  0.029988824  0.032640355            4 
  162000     1.234764   -7.0258308    58.246034  0.029961952  0.032628401            3 
  163000    1.2348577   -6.9860147    58.875412  0.030099904  0.032617288            4 
  164000    1.2038951   -6.9735952     59.30459  0.030134446  0.032608757            2 
  165000     1.211327   -7.0401721    59.184496  0.029891159  0.032596066            2 
  166000    1.2554725   -7.0038593    60.064859  0.030153042  0.032583416            2 
  167000    1.2111755   -7.0031862     60.27842  0.030079052  0.032573033            2 
  168000    1.2342912   -6.9749387    60.771534   0.03014461  0.032560423            5 
  169000    1.2082194   -7.0102764    60.924781  0.030041805  0.032549276            3 
  170000    1.2312162   -6.9826364    61.515208  0.030154514  0.032538391            3 
  171000    1.2455381   -6.9966236    61.929815  0.030180222  0.032528395            2 
  172000    1.2141364   -6.9909976     62.21525  0.030143047  0.032516589            3 
  173000    1.2305674   -6.9953399     62.61768  0.030162659  0.032506701            3 
  174000    1.2137444   -6.9564939      63.1915  0.030264128  0.032500975            2 
  175000    1.2380223   -6.9740993    63.715448  0.030340689    0.0324969            2 
  176000     1.215239     -7.02156    64.152306  0.030375145   0.03249363            1 
  177000    1.2387124    -6.971166    64.764374  0.030491701  0.032492414            1 
  178000    1.2267748   -6.9862869     64.97531  0.030419152   0.03249197            3 
  179000    1.2187863   -6.9667504    65.593015  0.030536786  0.032493578            2 
  180000    1.2151144   -6.9658061    65.910147  0.030513957  0.032496537            2 
  181000    1.2180089   -6.9654905    66.316087  0.030532269  0.032495864            3 
  182000      1.22832   -7.0202309    66.662313  0.030523037  0.032499216            1 
  183000    1.2067217   -6.9628685    67.283314  0.030639032  0.032504694            2 
  184000    1.2387417   -6.9978565    67.815385   0.03071349  0.032509443            2 
  185000    1.2117457   -7.0450318    68.063742  0.030659343  0.032515523            3 
  186000     1.230639   -6.9764284    68.717656   0.03078748  0.032522725            2 
  187000    1.2114711   -7.0111709    68.899635  0.030703937  0.032532376            4 
  188000    1.2160402   -7.0426406    69.078639  0.030619964  0.032536381            1 
  189000    1.2316873     -6.97409    69.528809  0.030656441  0.032539726            2 
  190000    1.2353604   -6.9626786    69.819218  0.030622464  0.032539366            3 
  191000    1.2365285   -6.9991944    70.138303  0.030601354   0.03253972            2 
  192000    1.2290264   -7.0471299    70.281246  0.030504013  0.032539107            1 
  193000    1.2085324   -6.9958211     70.92262  0.030622893  0.032539784            3 
  194000     1.201283   -7.0003829    71.478418  0.030703788  0.032541367            1 
  195000    1.2308934   -6.9914915    71.853195  0.030706494  0.032543856            4 
  196000     1.180645   -7.0573983    71.983891  0.030605396  0.032544526            3 
  197000    1.2388981   -7.0019923    72.602413  0.030711681  0.032543042            3 
  198000    1.2086474    -7.001218    73.123995  0.030776092  0.032544196            2 
  199000      1.23245   -6.9925953    73.432238  0.030750518  0.032546268            4 
  200000    1.2242909   -7.0024482    74.286316  0.030952631  0.032551202            1 
  201000    1.2376608   -7.0304538    74.223948  0.030772781  0.032556016            3 
  202000    1.2010993   -7.0235202    74.501569   0.03073497  0.032556566            2 
  203000    1.2076541   -7.0103208    74.801981  0.030706889  0.032555734            4 
  204000    1.2206647   -7.0210088    75.323483  0.030769397  0.032554386            2 
  205000    1.2370616   -7.0329137    75.337086  0.030624832   0.03255273            2 
  206000    1.2096724   -7.0072135    75.713601  0.030628479  0.032549529            4 
  207000    1.2271739    -7.027513    76.064562  0.030621804  0.032544844            2 
  208000    1.2165961   -6.9942075    76.448167  0.030628272   0.03253893            3 
  209000    1.2404377   -7.0598135    76.622128  0.030551088  0.032532803            3 
  210000    1.1990401   -7.0507792    77.284017  0.030668261  0.032529514            4 
  211000    1.2234675    -7.001904     77.43735  0.030583472   0.03252434            4 
  212000    1.1982579   -7.0513029    77.801926  0.030582518  0.032518176            3 
  213000    1.2157267   -7.0374984    77.904036  0.030478887  0.032511068            2 
  214000     1.217777   -7.0563255    78.303727  0.030492105  0.032503902            1 
  215000    1.2382893   -7.0145596    78.801677  0.030543285  0.032495579            2 
  216000    1.2093843   -7.0305955    79.025863  0.030488373  0.032486835            2 
  217000    1.2174701    -7.042117    79.381389  0.030484404   0.03247871            3 
  218000    1.2183733   -6.9965613    79.947605  0.030561011  0.032471477            4 
  219000    1.2150299   -6.9944361    80.076381  0.030470465   0.03246444            2 
  220000    1.2214364   -7.0271137    80.643793  0.030546891  0.032455915            4 
  221000    1.2004293   -6.9828483    80.761285  0.030452973  0.032445955            5 
  222000    1.1910314   -7.0345198    80.893267   0.03036534  0.032435514            2 
  223000    1.2042014   -7.0167182    81.757269  0.030552044  0.032425251            2 
  224000    1.2136929   -6.9842492    82.105142  0.030545068  0.032417167            1 
  225000    1.2206014   -7.0123269    82.541602  0.030570964  0.032410508            2 
  226000    1.2550511   -7.0545422    82.951645   0.03058689   0.03240369            3 
  227000    1.1965931   -6.9888562    83.520533  0.030660989  0.032398067            4 
  228000     1.194636   -6.9617666    84.047128   0.03071898  0.032392423            2 
  229000    1.2128388   -7.0184415    84.269342  0.030665699  0.032387755            3 
  230000    1.2206164   -7.0032953      84.8825  0.030754529   0.03238412            2 
  231000    1.1984129   -6.9904252    85.497564  0.030843277  0.032380832            2 
  232000    1.1979764   -7.0410279    85.473518  0.030701695  0.032379664            2 
  233000    1.2073736   -7.0644526    85.941261  0.030737218  0.032376391            2 
  234000    1.2176423   -7.0352531    86.105473  0.030664342  0.032373047            2 
  235000    1.2190428   -6.9848196    86.693258   0.03074229  0.032368485            2 
  236000     1.228113   -7.0040903    86.691262  0.030611321  0.032362327            1 
  237000    1.2365486   -7.0299261    87.084615  0.030620469   0.03235472            2 
  238000    1.1766764   -7.0036433    87.541629  0.030651831  0.032345179            3 
  239000    1.2178091   -7.0589118     87.52186  0.030516688  0.032336191            3 
  240000    1.2210308   -7.0320507    87.920893  0.030528088  0.032327368            1 
  241000    1.1978675   -7.0035978    88.274489  0.030523682  0.032317837            1 
  242000    1.2021182   -7.0192215    88.288886  0.030402509  0.032307039            2 
  243000    1.2106092   -7.0141516    88.564269  0.030371834  0.032295614            2 
  244000    1.1938635   -7.0443009    88.970596  0.030386132   0.03228447            5 
  245000    1.1822147   -7.0302827    89.560828  0.030462866  0.032272456            5 
  246000    1.2284903   -7.0489409    89.614207  0.030357116  0.032257642            4 
  247000    1.2006518   -7.0494825    89.797754  0.030296138  0.032242423            1 
  248000    1.1971257   -6.9974243    90.514522  0.030414826  0.032228924            2 
  249000    1.2167682   -7.0871334    90.269573    0.0302107  0.032215565            2 
  250000    1.2114456   -7.0232733    91.103313  0.030367771  0.032203197            1 
  251000     1.203615   -7.0745003    91.347811  0.030327958  0.032190143            2 
  252000    1.1850054     -7.07101    91.877341  0.030382719  0.032177762            2 
  253000    1.1944898   -7.0129466    92.444394  0.030449405  0.032165987            1 
  254000    1.2101901   -7.0303995    92.635659  0.030392277  0.032155099            3 
  255000    1.2233884    -7.055138    92.847922  0.030342458  0.032144972            4 
  256000    1.2007458   -7.0583789    93.564246  0.030457111  0.032135688            2 
  257000     1.184759    -7.021007    94.096275  0.030511114   0.03212764            4 
  258000      1.20672   -7.0124809    94.588213  0.030551748  0.032120416            1 
  259000    1.2102224   -7.0084394    94.921869  0.030541142  0.032113572            4 
  260000    1.2347625   -6.9874365    95.475865  0.030601239  0.032104463            2 
  261000    1.2042737   -6.9908268    95.664199  0.030544125  0.032096715            5 
  262000    1.2030213   -6.9905928    95.704957  0.030440508  0.032087625            3 
  263000    1.1853537    -6.967912    96.314403  0.030517872  0.032078525            2 
  264000    1.2274533   -7.0309281    96.643246  0.030506075  0.032070193            1 
  265000    1.2219594   -7.0521222     96.78328  0.030434994  0.032061749            2 
  266000    1.1884267   -7.0491886    97.514828  0.030549758  0.032053505            4 
  267000    1.2108259   -7.0744781    97.503828  0.030431906  0.032045657            2 
  268000    1.2382594   -7.0287386     98.81865  0.030727192  0.032039801            2 
  269000     1.241983   -7.0194716    99.219675  0.030737198  0.032035525            2 
  270000    1.1879302   -7.0256349    99.375474  0.030671443  0.032030109            2 
  271000    1.1818931   -7.0176843    100.04601  0.030764457  0.032025994            1 
  272000    1.2189232   -6.9984924    100.26337  0.030717943  0.032022881            4 
  273000      1.21764   -6.9895951    100.76245   0.03075777   0.03201944            1 
  274000    1.1871942   -6.9995534    101.31799  0.030814475  0.032016553            1 
  275000    1.2251469   -7.0432707    101.60754  0.030790164  0.032014792            1 
  276000    1.2001428   -7.0819028     101.6313   0.03068578  0.032012309            1 
  277000    1.1996459   -7.0546363    102.16296  0.030734946  0.032008667            3 
  278000    1.2048033   -7.0018956    102.21342  0.030639515  0.032004789            5 
  279000    1.2105542   -7.0417213    102.10515  0.030497356  0.031998625            2 
  280000    1.2008946   -7.0404856    102.57073  0.030527003  0.031990203            2 
  281000    1.2145961   -7.0800158    102.35871  0.030355489  0.031980055            2 
  282000    1.2287864   -7.0076014    102.39714  0.030259203  0.031967879            2 
  283000    1.2260946   -7.0398715    102.80737  0.030273076  0.031954902            5 
  284000    1.2230387   -7.0323402     103.3395  0.030322623   0.03194187            1 
  285000    1.2111562   -7.0749753    103.11745    0.0301513   0.03192817            2 
  286000    1.1997402   -7.0723415    104.08267  0.030327118  0.031915632            1 
  287000    1.2079545   -7.0141144    104.31446  0.030288751  0.031903348            1 
  288000    1.1957577   -7.0505514    105.09704  0.030410023  0.031891788            3 
  289000    1.1887577   -7.0115906    105.28884  0.030360103  0.031881063            3 
  290000    1.2109902   -7.0517288    105.31243  0.030262193  0.031869051            3 
  291000     1.203382    -7.070723    106.00202  0.030355675  0.031855898            1 
  292000    1.2232432   -7.0500438     105.9152   0.03022694  0.031844513            4 
  293000    1.2024093   -7.0262222    106.67689  0.030340414  0.031833641            3 
  294000    1.2200313   -7.0863049    106.58477  0.030211104  0.031822045            1 
  295000    1.1826006   -7.0215015    107.28566  0.030306684  0.031810549            5 
  296000    1.1912283   -7.1056694    107.08903  0.030148939  0.031797852            2 
  297000    1.2176613   -7.0185234    108.12991  0.030339481  0.031785598            3 
  298000    1.2044943   -7.0049939    108.65447   0.03038436  0.031775207            2 
  299000    1.2053379   -7.0638819    108.88488  0.030346957  0.031764567            3 
  300000    1.2081189   -7.0369975     109.0927  0.030303528  0.031753724            4 
  301000    1.2090086   -7.0707621    109.43743  0.030298291  0.031743548            1 
  302000    1.2019884   -7.1020561    109.80869   0.03030041  0.031733736            1 
  303000    1.2172662    -7.030439    110.24018  0.030319082  0.031722579            1 
  304000    1.1831227   -7.0324193    110.16195  0.030197904  0.031711776            1 
  305000    1.2053634   -7.0415033    110.86211  0.030290194  0.031700502            2 
  306000    1.1994152   -7.0160844    111.37708  0.030331449  0.031690519            1 
  307000    1.1918903   -7.0259937    111.33404  0.030220966  0.031679501            5 
  308000    1.1804534   -7.0110819    111.86741  0.030267155  0.031669753            1 
  309000    1.2024177   -7.0520387     112.1024  0.030232578  0.031660831            2 
  310000    1.2129005   -7.0383514     112.5149   0.03024594  0.031651339            2 
  311000        1.193     -7.02227    113.16173  0.030322008  0.031641956            1 
  312000    1.1898461   -7.0420531    113.48615  0.030311471  0.031632966            6 
  313000    1.1841006   -7.0618815    113.44746   0.03020433  0.031622937            1 
  314000     1.203564   -7.0521732    113.58188   0.03014381  0.031613121            3 
  315000    1.1913585   -7.0490986     114.2843  0.030233942   0.03160308            1 
  316000    1.1983954   -7.0896304     113.9579  0.030052188  0.031592072            2 
  317000    1.2008498   -7.0277401    115.23953  0.030294302  0.031582065            1 
  318000     1.180334   -7.0542925      115.532   0.03027568  0.031572105            1 
  319000    1.2090358   -7.0557135    115.50263  0.030173101  0.031561244            2 
  320000    1.1975801    -7.105578    115.64722  0.030116463  0.031550051            3 
  321000    1.2110386   -7.0762303     116.2812  0.030187227  0.031538895            3 
  322000    1.1900136   -7.0723414    116.38017  0.030119091  0.031528927            3 
  323000      1.18433   -7.1182877    116.88948  0.030157245  0.031517759            3 
  324000    1.2033451   -7.0406887    117.12443  0.030124595  0.031506758            2 
  325000    1.2205091   -7.0545651    117.41304  0.030105908  0.031495361            1 
  326000    1.2038626   -7.0429447    117.70027  0.030086981  0.031483957            2 
  327000    1.1880369   -7.0488488    118.04316  0.030082356  0.031472342            2 
  328000     1.217665    -7.045403    118.37241  0.030074292  0.031460502            5 
  329000    1.1918895   -7.0510957    119.10185  0.030167641  0.031449704            2 
  330000    1.1935164   -7.0686155    119.04564  0.030062031  0.031437876            6 
  331000    1.1913825    -7.065523    119.32135  0.030040622  0.031425878            3 
  332000    1.2136641    -7.029128    119.86896   0.03008759  0.031414706            2 
  333000    1.1888288   -7.1253531    119.93851  0.030014641  0.031402947            3 
  334000    1.1936412   -7.0273149    120.43427  0.030048471  0.031391859            3 
  335000    1.1853424   -7.0166086    120.77173  0.030042718   0.03138093            5 
  336000    1.1992373   -7.0843841    120.83298  0.029968496  0.031369032            6 
  337000    1.2404112   -7.0570363    121.60635  0.030070808  0.031357755            4 
  338000    1.2157236   -7.0859462    121.62684  0.029986893  0.031347128            1 
  339000    1.2045672   -7.0811775    121.98777  0.029987161  0.031336181            3 
  340000    1.1987727    -7.042325    122.61135  0.030051802  0.031325441            3 
  341000    1.1823391   -7.0482412    122.55324  0.029949471  0.031314793            1 
  342000    1.1820967   -7.0756075    123.05663   0.02998456  0.031303418            3 
  343000    1.1826914   -7.0613791    123.26314  0.029947314  0.031292205            3 
  344000    1.1600784   -7.0732677    123.55229  0.029930304  0.031280314            3 
  345000    1.1721821    -7.112515    123.75839  0.029893331  0.031268514            5 
  346000    1.2067998   -7.0717942    124.35201  0.029949907  0.031257057            3 
  347000    1.1863087   -7.0995994    124.45258  0.029887746  0.031244745            2 
  348000    1.2189782   -7.0169959    125.39094  0.030026566  0.031233595            6 
  349000    1.2243537   -7.0829961    124.68276  0.029771432  0.031220778            3 
  350000    1.2085844   -7.0645241    125.47484  0.029874962  0.031206567            4 
  351000    1.2022875   -7.0277451    125.43244  0.029779782  0.031193676            2 
  352000    1.1958334   -7.0829314    125.57873  0.029729813  0.031180072            2 
  353000    1.2168961   -7.0182104    126.48644  0.029859877  0.031167833            3 
  354000    1.1804733   -7.0498371    127.04969  0.029908118   0.03115513            1 
  355000    1.2015033   -7.0292263    128.00633  0.030048435  0.031143616            1 
  356000    1.2065545   -7.0757069    127.89464  0.029937884  0.031132591            3 
  357000    1.1948441   -7.0699472    128.20714  0.029926971  0.031121542            1 
  358000    1.2005562   -7.0781694    128.24104  0.029851267  0.031110096            6 
  359000    1.2160313   -7.0954937    127.66443  0.029634268  0.031097735            5 
  360000    1.1881805   -7.0899867    128.27364  0.029692972   0.03108506            2 
  361000    1.2209918   -7.0487353    128.79098  0.029730142  0.031072304            3 
  362000    1.1981785   -7.0326551    129.78053  0.029875813  0.031059938            3 
  363000    1.1903125   -7.0767247    130.23556   0.02989797  0.031048165            1 
  364000    1.1821494   -7.0796772    129.91064  0.029741447  0.031036549            6 
  365000    1.1881412   -7.0558441    130.59784  0.029816858  0.031024821            1 
  366000    1.1936832   -7.0691902    130.39003  0.029688077  0.031014191            2 
  367000    1.2036413   -7.0436878    131.46292  0.029850798  0.031003162            3 
  368000    1.1797796   -7.0797311    131.59491  0.029799572  0.030992643            2 
  369000    1.2221587    -7.084487    131.81556  0.029768644  0.030981439            7 
  370000    1.1826163   -7.0629095    132.62643  0.029870818  0.030971174            1 
  371000    1.2111494   -7.0866473    132.95652  0.029864447  0.030960987            2 
  372000    1.1883147   -7.0802616    133.05121  0.029805379  0.030950841            3 
  373000    1.1985904   -7.0232192    133.99766  0.029936922  0.030940455            3 
  374000    1.2162722   -7.0626305    133.32623  0.029707271  0.030930294            2 
  375000    1.1782463   -7.0902361    133.56583  0.029681294  0.030919721           11 
  376000    1.1981021   -7.1121037    133.64099  0.029619014  0.030907664            3 
  377000    1.2090925   -7.0991244    134.63872   0.02976099  0.030895837            3 
  378000    1.1787735   -7.0837456    134.28153  0.029603512  0.030884439            2 
  379000    1.1970092   -7.1066376    134.92786  0.029667516   0.03087285            2 
  380000    1.1936638   -7.0824219    135.60909  0.029738835  0.030861446            2 
  381000     1.200331   -7.0461218    136.39528  0.029832739  0.030852312            3 
  382000    1.1751436   -7.1085185    136.13062  0.029696906  0.030841786            3 
  383000    1.1840328   -7.0863267    136.27376  0.029650512  0.030830697            2 
  384000     1.166251   -7.0149023    137.06727    0.0297455  0.030819786            5 
  385000    1.2068834   -7.0832109    136.93771  0.029640197  0.030808972            2 
  386000    1.1963153   -7.1155325    137.50358  0.029685575  0.030797975            1 
  387000    1.2080075   -7.0872533    137.62883  0.029635838  0.030786874            8 
  388000    1.1911999   -7.1326621    137.60512  0.029554365  0.030775476            3 
  389000    1.1784582   -7.0785204    138.81532  0.029737643  0.030763784            1 
  390000    1.1961793   -7.1208714    138.83715  0.029666058  0.030752988            2 
  391000    1.1759391   -7.0662264     139.4016  0.029710485  0.030741845            3 
  392000    1.2198376   -7.0661172       139.87  0.029734269  0.030731936            2 
  393000    1.1606207   -7.1368224    139.64892  0.029611731   0.03072212            2 
  394000    1.2007248   -7.0875636    140.47984  0.029712319  0.030712649            6 
  395000    1.2057379   -7.0941574    140.73337  0.029690584  0.030703821            1 
  396000    1.1985614   -7.0582661    141.59361  0.029796636  0.030695284            4 
  397000     1.213928   -7.0947924     141.4555  0.029692591  0.030686748            3 
  398000    1.1892405   -7.0887984    142.38648  0.029812914  0.030679274            3 
  399000    1.1884464   -7.1379567    141.98227  0.029653774  0.030670795            3 
  400000    1.1915279   -7.1310784    142.26856  0.029639283  0.030660952            1 
  401000    1.1776464    -7.067623    142.86602   0.02968953  0.030652358            4 
  402000    1.1721062   -7.0611188    143.20868  0.029686709   0.03064366            3 
  403000    1.1858211    -7.097593    143.42989  0.029658785  0.030634847            4 
  404000    1.2015313   -7.1185124     143.8199  0.029665822  0.030625466            4 
  405000    1.1874535   -7.1180598    144.27618  0.029686458  0.030616856            2 
  406000    1.1689904   -7.0744345    144.95508  0.029752684  0.030608644            2 
  407000    1.1637588   -7.0722062    145.03233    0.0296954  0.030600423            3 
  408000    1.1980992   -7.1150695    145.29655  0.029676584  0.030592167            8 
  409000    1.1767008    -7.114012    145.25846  0.029596262  0.030583431            2 
  410000    1.1772882   -7.1320027    145.95733  0.029666123  0.030574896            2 
  411000     1.190586   -7.0846235    146.15712  0.029634452  0.030565767            2 
  412000    1.1992043   -7.1104844     146.5687  0.029645772  0.030556581            2 
  413000    1.1612434   -7.0556768    147.01907  0.029664864  0.030548019            6 
  414000    1.1978472   -7.0837968    147.15241  0.029620051  0.030538164            2 
  415000    1.1674821   -7.1018767     147.1571  0.029549619  0.030528146            4 
  416000    1.1592228   -7.1136734    147.35558  0.029518345  0.030517719            3 
  417000    1.2064601     -7.10715    147.42798  0.029462027   0.03050786            3 
  418000    1.1709324   -7.1148015    148.13216  0.029531929   0.03049811            3 
  419000    1.1691111   -7.0843828    147.87735   0.02941077   0.03048779            3 
  420000    1.1946542   -7.0852069    148.49028  0.029462357  0.030477117            2 
  421000    1.1698555   -7.0947752    148.73306  0.029440432  0.030465613            2 
  422000    1.1554658    -7.066158    148.88071  0.029399823  0.030454296            2 
  423000     1.172171   -7.1017384    149.32287   0.02941743  0.030442641            1 
  424000    1.1856119    -7.134128    149.21766  0.029327369  0.030430573            3 
  425000    1.1386731   -7.1114075    149.47739  0.029309293   0.03041912            2 
  426000    1.1864213   -7.0930037    149.77527  0.029298762  0.030407313            2 
  427000    1.1960968   -7.1110588    150.13787  0.029300911  0.030395072            2 
  428000     1.201885   -7.0967557    150.66773  0.029335617  0.030383631            1 
  429000    1.1870895   -7.0801355    150.71324  0.029276076   0.03037165            2 
  430000    1.2070402   -7.0897661    150.72325  0.029209933  0.030359185            2 
  431000    1.1724673   -7.0847939    151.69829  0.029330682  0.030347662            1 
  432000    1.1584488   -7.1532504    151.65204  0.029253865  0.030336368            2 
  433000    1.1838134   -7.0723453    152.23638  0.029298765  0.030324269            2 
  434000    1.1829386   -7.0765318    152.68111  0.029316649  0.030313668            2 
  435000    1.1698844   -7.1134072    152.90269  0.029291703   0.03030258            2 
  436000    1.1598103   -7.1157802    152.94248  0.029232126  0.030291609            3 
  437000    1.1764864    -7.163238    153.63051  0.029296436  0.030280329            2 
  438000    1.1931666   -7.1395587    154.14334  0.029327119  0.030269284            6 
  439000    1.1948103   -7.1188205    154.45801  0.029320047  0.030259511            2 
  440000    1.1856958   -7.1455717     154.4347  0.029248996  0.030249344            1 
  441000    1.1713881   -7.1045066    154.90582  0.029271697  0.030239216            6 
  442000    1.1590524   -7.0731102    155.62917   0.02934185  0.030228875            3 
  443000    1.2053601   -7.1518631    155.76343  0.029300871  0.030219081            2 
  444000    1.1576807   -7.1134019     155.6224  0.029208408   0.03020962            3 
  445000    1.1932275   -7.1672854    155.55999  0.029131084  0.030199246            1 
  446000    1.1949492   -7.1301892    156.48099  0.029237853  0.030188721            2 
  447000    1.1717752   -7.1327113    156.94637  0.029259204   0.03017773            3 
  448000    1.1684861   -7.1202136    157.43825  0.029285389  0.030168026            3 
  449000    1.1551477   -7.1190882    157.25346  0.029185869  0.030158255            1 
  450000    1.1874697   -7.1276066    157.87124  0.029235416  0.030147784            1 
  451000    1.1854682   -7.1226053    158.33853  0.029256935  0.030137828            4 
  452000    1.1832229   -7.1099213    158.57092  0.029235052  0.030127547            4 
  453000    1.1571822   -7.1790409    157.70975  0.029012095  0.030116516            2 
  454000    1.1707206   -7.1031049    158.87419  0.029161928  0.030105385            3 
  455000    1.1573808   -7.1256605    158.98861  0.029118792  0.030094253            2 
  456000     1.178943    -7.132291    159.01129  0.029059081  0.030082772            1 
  457000    1.1800456    -7.136054    159.28536   0.02904547  0.030071682            2 
  458000    1.1954871   -7.1289853    159.78009  0.029072068  0.030060403            2 
  459000    1.2067452   -7.0904734    161.04792  0.029238912  0.030050225            2 
  460000    1.1765564   -7.1196964    160.90591  0.029149621  0.030040417            2 
  461000     1.175525   -7.1279442    160.93988  0.029092531  0.030030348            3 
  462000    1.1869624   -7.1065283    161.81653  0.029187686  0.030020866            2 
  463000    1.1787515   -7.1099661     162.3343  0.029217836  0.030011257            5 
  464000      1.18479   -7.1394266    162.18483  0.029128023  0.030001151            3 
  465000    1.1654786   -7.1005768    162.32679  0.029090823  0.029991157            5 
  466000    1.1766897   -7.1035919    163.10077  0.029166805  0.029981544            6 
  467000    1.1920791   -7.1447256    163.23319  0.029127979  0.029970824            3 
  468000    1.1786805   -7.0644187    163.42425   0.02909976  0.029960119            3 
  469000    1.1912739   -7.0648907    163.78015  0.029100951  0.029949612            1 
  470000    1.1857573    -7.119808    163.85787  0.029052814  0.029938738            3 
  471000     1.173222   -7.1212467    164.25071  0.029060635  0.029927702            3 
  472000    1.1895135   -7.0981735    164.82304  0.029100112  0.029917336            3 
  473000    1.1741731   -7.1645665    164.57758  0.028995345  0.029906587            3 
  474000    1.1614262   -7.1171684    164.93113  0.028996331  0.029895557            2 
  475000    1.1353148   -7.1325995    165.22877  0.028987504  0.029885137            2 
  476000      1.18172   -7.1730879    165.53348  0.028979952  0.029874648            6 
  477000    1.1654697   -7.1108708    166.32669  0.029057773   0.02986399            1 
  478000    1.1691309   -7.1584961    165.91278  0.028924823  0.029854189            1 
  479000    1.1674121   -7.0786431    167.20231   0.02908878   0.02984454            2 
  480000    1.1655459   -7.1624207    166.99294  0.028991831  0.029834299            2 
  481000    1.1509895   -7.1433038    167.90854  0.029090184  0.029824497            2 
  482000    1.1700262   -7.1179056    168.66184  0.029160069  0.029815443            2 
  483000    1.1709144   -7.1353317    168.82406  0.029127684  0.029807734            2 
  484000    1.1800344   -7.1486061    169.33571  0.029155597  0.029800138            3 
  485000    1.1822761   -7.1159621    169.37087  0.029101523  0.029792483            4 
  486000    1.1961523   -7.1515413    169.59291  0.029079717   0.02978463            2 
  487000    1.1760423   -7.1126936    170.66846  0.029204048  0.029776481            3 
  488000    1.1776986   -7.1787708    169.89276  0.029011742   0.02976817            3 
  489000    1.2124151   -7.1249994     170.9081  0.029125444  0.029759994            5 
  490000    1.1914403   -7.1431115    170.62131  0.029017229  0.029751587            1 
  491000    1.1542274   -7.1219512    171.68615  0.029138858  0.029742807            5 
  492000    1.1797576   -7.1223444    171.37148  0.029026335  0.029733698            2 
  493000    1.1695959    -7.114181    171.86399  0.029050709  0.029724919            6 
  494000    1.1704433   -7.1362325    171.99483  0.029013973   0.02971667            1 
  495000    1.1600765   -7.1033133    172.69648  0.029073482  0.029708599            2 
  496000    1.1806328   -7.1488027     173.2671  0.029110736  0.029701369            3 
  497000    1.1724268   -7.1044075    173.51544  0.029093802  0.029693903            4 
  498000    1.1697442   -7.1787093    172.66451   0.02889299  0.029686208            3 
  499000     1.167006   -7.1030594    173.40909  0.028959433  0.029678285            2 
  500000    1.1942922   -7.0934406    174.21596  0.029035993  0.029670635            2 
  501000    1.1824688   -7.1234095    175.01306  0.029110622  0.029662816            2 
  502000    1.1586938   -7.1485598    175.59886  0.029149877   0.02965524            3 
  503000    1.1696091   -7.0930713    175.01064  0.028994473   0.02964774            2 
  504000    1.1798417   -7.1483053     175.4938  0.029016832   0.02963961            3 
  505000    1.1821341    -7.145174    175.77023  0.029004989  0.029631453            2 
  506000     1.178671   -7.1434316    176.09352  0.029000909  0.029622865            3 
  507000    1.1882811   -7.1237617    176.04748  0.028936141  0.029613961            2 
  508000    1.1708554   -7.1717089    175.94676  0.028862657  0.029604781            4 
  509000    1.1971212    -7.172485    176.14537  0.028838469   0.02959603            2 
  510000    1.1600086   -7.1187912    176.93199  0.028910456  0.029587743            4 
  511000    1.1537444   -7.1917473    176.98463  0.028862464  0.029578898            5 
  512000    1.1771545   -7.1669545    177.04905  0.028816577  0.029569833            2 
  513000    1.1525449   -7.1044164    177.66151  0.028859895  0.029561414            1 
  514000    1.1660759   -7.1346504    177.95755  0.028851743  0.029552991            4 
  515000    1.1768617   -7.1239044      179.082   0.02897767  0.029543953            6 
  516000    1.1722564    -7.118705    178.42325  0.028815125   0.02953537            2 
  517000    1.1772984   -7.1395448    178.84271  0.028827001  0.029527036            1 
  518000    1.1463574   -7.1614794    179.30629  0.028845929  0.029518089            3 
  519000     1.163967   -7.1256121    180.23049  0.028938743  0.029509621            5 
  520000    1.1505697   -7.0935188    180.46315  0.028920376  0.029501567            4 
  521000    1.1788211   -7.1646155    180.49019  0.028869192  0.029493015            6 
  522000    1.1627759   -7.1504781    180.77847  0.028859909  0.029484761            5 
  523000    1.2008477   -7.1676729     180.9989   0.02883985  0.029476533            4 
  524000     1.173096   -7.0910245    181.80242  0.028912599  0.029468608            7 
  525000    1.1467049   -7.1421443    182.02127  0.028892265   0.02946013            2 
  526000     1.146263   -7.1474674    182.00168  0.028834234  0.029451704            2 
  527000    1.1405476   -7.1749332    182.30181  0.028826979  0.029443577            5 
  528000    1.1592459   -7.1443822    182.80168  0.028851275  0.029435833            3 
  529000    1.1805168   -7.1647156    182.40999  0.028735033  0.029427586            4 
  530000    1.1746666   -7.1221805    183.63474  0.028873387   0.02941981            5 
  531000    1.1748707   -7.1546037    183.69731  0.028828832  0.029412372            1 
  532000    1.1787149   -7.1492721    183.73582  0.028780674  0.029404739            2 
  533000    1.1668723   -7.1359913    184.46138  0.028840116  0.029397254           10 
  534000    1.1622925   -7.1617225    184.77437  0.028834952   0.02938966            2 
  535000     1.166741   -7.1540624    185.83012  0.028945502  0.029382229            5 
  536000     1.165831   -7.1621652    184.94333  0.028753628  0.029374593            6 
  537000    1.1725071   -7.1087561    186.13072  0.028884345  0.029367418            6 
  538000    1.1604711    -7.140146    186.61156  0.028905136  0.029360198            4 
  539000    1.1771066   -7.1198712    187.25977  0.028951727  0.029353348            1 
  540000    1.1569678   -7.1414772    187.00109  0.028858193  0.029346138            6 
  541000    1.1505035   -7.1713839    186.62477  0.028746884  0.029338836           11 
  542000    1.1656217   -7.1844119    187.09845  0.028766675  0.029331321            2 
  543000    1.1602471   -7.1691237    187.37443  0.028756051  0.029323714            7 
  544000    1.1738105    -7.121798    188.50588  0.028876514  0.029315989            2 
  545000    1.1541402   -7.1910463    187.55004  0.028677376   0.02930845            4 
  546000    1.1604055   -7.1594624     187.9149   0.02868054  0.029300404            4 
  547000    1.1783579    -7.152162    188.82233  0.028766352  0.029293044            2 
  548000    1.1876306   -7.1461305    189.41711  0.028804305  0.029285816            4 
  549000    1.1718398   -7.1734215    189.10397  0.028704306  0.029278319            4 
  550000    1.1952618   -7.1740222    189.33011  0.028686381   0.02927055            2 
  551000    1.1615783   -7.1477679    189.98042  0.028732671  0.029262691            4 
  552000    1.1486008   -7.1142671    190.44955  0.028751441   0.02925507            1 
  553000    1.1566588   -7.1593118    190.41359  0.028694031  0.029247535            1 
  554000    1.1757221   -7.1676178    191.15812  0.028754229  0.029239556            2 
  555000    1.1400606   -7.1645945    191.00941  0.028680092   0.02923142            2 
  556000    1.1630955    -7.145252    191.71146  0.028733732  0.029223715            2 
  557000    1.1773222   -7.1831606    191.24301  0.028612061  0.029215385            3 
  558000    1.1728461   -7.1430961    192.14843  0.028696002  0.029207087            4 
  559000     1.164796   -7.1368969     192.4617  0.028691369  0.029199195            3 
  560000    1.1710296   -7.1658061    192.24098  0.028607289  0.029191328            2 
  561000    1.1622657   -7.1503758    192.68298  0.028621953   0.02918313            4 
  562000    1.1625273   -7.1652188    192.51951  0.028546784  0.029174645            5 
  563000    1.1927812   -7.1625529    193.44022  0.028632359  0.029166468            4 
  564000    1.1821599   -7.1524422    193.28725  0.028558991  0.029159004            3 
  565000    1.1749022   -7.1520437    194.04886  0.028620776  0.029150827            7 
  566000    1.1932489   -7.1459956    194.75571  0.028674279  0.029142993            2 
  567000    1.1445882   -7.1542054    194.81682   0.02863269  0.029135163            4 
  568000    1.1324627   -7.1661964    195.47646  0.028679058  0.029127131            2 
  569000    1.1611273   -7.1694341    194.98286  0.028556365  0.029118956            3 
  570000    1.1743503   -7.1782806    195.24776  0.028544994  0.029110722            5 
  571000    1.1569275   -7.1943511    196.15877  0.028627958  0.029102946            2 
  572000    1.1777612   -7.1422974    195.57339  0.028492627  0.029094617            3 
  573000    1.1546887    -7.199251    195.84942  0.028483045  0.029086222            3 
  574000     1.161907   -7.1001723    197.75939  0.028710712  0.029078496            2 
  575000    1.1554593   -7.1218773    197.55457  0.028631097  0.029070892            2 
  576000    1.1713936   -7.1242809    198.51874  0.028720883  0.029063701            1 
  577000    1.1455351   -7.1688176    197.94463  0.028588191  0.029056282            4 
  578000    1.1743766   -7.1880025    197.85111  0.028525246   0.02904842            2 
  579000    1.1433102   -7.1263406    198.59577  0.028583156  0.029041082            2 
  580000    1.1555091   -7.1919952    198.45425  0.028513542  0.029033584            3 
  581000    1.1582319   -7.1523172    199.23333  0.028576209  0.029025707            3 
  582000    1.1549627   -7.1328033     199.7932  0.028607273  0.029018139            2 
  583000    1.1877361   -7.1655642    199.54449  0.028522655  0.029010833            2 
  584000    1.1558009   -7.1630693    199.87265  0.028520641  0.029003455            2 
  585000    1.1546671   -7.1310334    200.33061  0.028537123  0.028995997            2 
  586000    1.1434158   -7.1538923    200.95465  0.028577169  0.028988452            2 
  587000    1.1520968   -7.1864542     200.1999  0.028421337  0.028981014            3 
  588000    1.1425013   -7.1657112    201.29996  0.028528905  0.028973925            2 
  589000    1.1593376   -7.1844867    200.79886  0.028409573  0.028966476            2 
  590000     1.161795   -7.1711867    201.12054  0.028406855  0.028958768            2 
  591000    1.1432862   -7.1918866    201.58778  0.028424673  0.028951164            2 
  592000    1.1338461   -7.1836055    202.29542   0.02847627  0.028943853            2 
  593000    1.1423783   -7.1971881    201.51024  0.028317908  0.028936033            3 
  594000    1.1638772   -7.2095432    202.29438  0.028380245  0.028928009            2 
  595000    1.1855697   -7.1940468    203.22098  0.028462322   0.02892065            2 
  596000    1.1648563   -7.1634244     203.6153    0.0284697  0.028913098            3 
  597000    1.1837143   -7.1776968    203.47794  0.028402839  0.028905905            3 
  598000    1.1396238   -7.1590662    204.23489  0.028460827  0.028898622            2 
  599000    1.1532846    -7.184001    204.25793  0.028416518   0.02889143            5 
  600000    1.1677192   -7.1427853    205.09563  0.028485505  0.028884302            2 
  601000    1.1505164   -7.1819909    205.08974   0.02843729  0.028877707            2 
  602000    1.1789529   -7.1302063    206.37513  0.028567985  0.028870858            3 
  603000    1.1440634   -7.2005272    205.90155  0.028455162  0.028863856            1 
  604000    1.1465386   -7.1962234    206.29732  0.028462655  0.028856929            3 
  605000    1.1397499    -7.179794    206.23403  0.028406891  0.028850233            3 
  606000    1.1482821   -7.1951765    206.72977  0.028428187  0.028843899            5 
  607000    1.1671076    -7.189692    207.35082  0.028466614  0.028837076            2 
  608000    1.1519301   -7.1836396    207.84411  0.028487406  0.028830701            2 
  609000    1.1536779   -7.2218506    207.20681  0.028353423  0.028824024            3 
  610000    1.1734241   -7.1982519    208.42289  0.028473072  0.028817621            3 
  611000    1.1450046   -7.2018304    207.65864  0.028322236  0.028811323            2 
  612000    1.1656697   -7.1859687     209.2445  0.028491898  0.028804964            1 
  613000    1.1731772   -7.1989875    208.82878  0.028388904   0.02879854            1 
  614000    1.1513292    -7.160617    210.40594  0.028556723  0.028792697            5 
  615000    1.1479789   -7.2042308    209.41289   0.02837573   0.02878679            6 
  616000    1.1585897   -7.1998625    210.49539  0.028476108   0.02878029            3 
  617000    1.1531294   -7.1879201    210.61085  0.028445549  0.028773945            4 
  618000    1.1608031    -7.230112    209.78753  0.028288502  0.028767592            3 
  619000     1.174158   -7.1836475    211.26377  0.028441541  0.028761759            3 
  620000      1.18264   -7.1648618      212.353  0.028542069  0.028756155            4 
  621000    1.1347074   -7.2026827    211.49626   0.02838114  0.028750495            4 
  622000     1.154358   -7.1705642    213.46142  0.028598797  0.028744603            2 
  623000    1.1692262   -7.1599159    213.54215   0.02856369  0.028739349            3 
  624000    1.1546756   -7.1963022    213.83857  0.028557502   0.02873471            4 
  625000    1.1598903   -7.2083331    214.42333  0.028589778  0.028730299            3 
  626000    1.1509912   -7.1469127    214.24822  0.028520796  0.028725851            3 
  627000    1.1740495   -7.1712077    214.48781  0.028507151  0.028721042            2 
  628000     1.140113   -7.1726864    214.72995  0.028493889  0.028716499            2 
  629000      1.13495   -7.1904109    215.50545  0.028551331  0.028711946            1 
  630000    1.1442256   -7.1718929    214.81996  0.028415339  0.028707043            4 
  631000    1.1371222   -7.2118251     214.6931  0.028353552  0.028701558            5 
  632000    1.1564034   -7.1369071    216.24319  0.028513079  0.028696155            3 
  633000    1.1706139   -7.1971522    216.61678  0.028517217  0.028690926            3 
  634000    1.1622735   -7.1248455    217.31869  0.028564496  0.028686247            2 
  635000    1.1464836   -7.2064748    216.78656   0.02844968  0.028681703            5 
  636000    1.1325538    -7.195173    217.55232  0.028505283  0.028676979            3 
  637000     1.140658   -7.1355589    217.67755  0.028476916   0.02867236            4 
  638000    1.1239557   -7.1818161     218.1016   0.02848767  0.028667262            2 
  639000    1.1446867   -7.2436874    217.63975  0.028382858  0.028661843            2 
  640000    1.1307313   -7.2216493    217.63286  0.028337612  0.028656442            2 
  641000    1.1489365   -7.1952131    218.62943  0.028422962  0.028650557            6 
  642000    1.1364975   -7.2486555    218.70223   0.02838814  0.028645119            5 
  643000    1.1572389   -7.1512868    219.86333   0.02849447  0.028639416            2 
  644000    1.1650193    -7.195491    219.82962  0.028445862  0.028634386            4 
  645000    1.1551428   -7.1973764    219.76443  0.028393337  0.028629161            2 
  646000    1.1787095   -7.1578078     219.9193  0.028369363  0.028623863            2 
  647000     1.141221   -7.1701388    220.72355  0.028429102  0.028619089            5 
  648000      1.14844   -7.2139057     220.9796  0.028418159  0.028613882            3 
  649000    1.1531827   -7.2072162    221.59779  0.028453748  0.028609066            4 
  650000    1.1393141   -7.1490749    222.45391  0.028519732  0.028604683            1 
  651000    1.1573569   -7.2616497    221.31956  0.028330716  0.028600496            5 
  652000    1.1415282   -7.1791151    222.98316  0.028499893  0.028595919            2 
  653000    1.1354284   -7.2378999    221.74784  0.028298601  0.028590808            5 
  654000    1.1119044   -7.2117946    223.28309  0.028450955  0.028585785            2 
  655000    1.1266161   -7.1927011    222.88585  0.028356978   0.02858102            2 
  656000    1.1713199   -7.1493163    223.91359  0.028444308  0.028576463            3 
  657000    1.1641134   -7.2065763    223.46159  0.028343682  0.028572244            3 
  658000    1.1682992    -7.184497    224.71953   0.02845992  0.028567207            3 
  659000    1.1645339   -7.1803508    225.32101  0.028492793  0.028562507            4 
  660000    1.1543622    -7.196564    224.65312  0.028365293  0.028557763            2 
  661000    1.1286558   -7.2270072    225.30663   0.02840477  0.028552954            3 
  662000    1.1555569   -7.1833497    224.56078  0.028267973  0.028547888            3 
  663000    1.1331228   -7.2144234    224.78846  0.028253954  0.028542612            6 
  664000    1.1377068   -7.2070354    225.41773  0.028290378  0.028537193            5 
  665000    1.1570685   -7.2056384    225.15945   0.02821547  0.028531556            3 
  666000    1.1419028   -7.2058748    225.72616  0.028244014  0.028525583            6 
  667000    1.1538847    -7.186277    226.98187  0.028358554   0.02851935            5 
  668000     1.131331   -7.2396635    225.89117  0.028180036   0.02851337            3 
  669000    1.1563573   -7.1515705    227.32349  0.028316329  0.028507774            2 
  670000    1.1353819   -7.1667119    226.44159  0.028164377  0.028502357            2 
  671000    1.1557675   -7.1791846    227.19519  0.028215994  0.028496654            6 
  672000    1.1279692   -7.1763952    228.09308  0.028285352  0.028490971            3 
  673000    1.1479558   -7.2252778    228.01349  0.028233468  0.028484763            5 
  674000    1.1421687   -7.1886437     227.7572  0.028159891  0.028478497            2 
  675000    1.1380905   -7.2058255    227.95633  0.028142756   0.02847197            4 
  676000    1.1215411   -7.2198614    228.51216  0.028169645  0.028465387            2 
  677000    1.1798169   -7.2784257    227.40796  0.027992118  0.028458783            5 
  678000    1.1277229   -7.1906833    228.51074  0.028086374  0.028451779            4 
  679000    1.1263309    -7.181055    229.03619  0.028109498  0.028445257            3 
  680000    1.1349602   -7.2046754    229.36735  0.028108744  0.028438735            3 
  681000    1.1425624   -7.2010053    230.18669   0.02816773  0.028432429            2 
  682000     1.145417   -7.2513133    229.34311  0.028023352  0.028425742            3 
  683000    1.1490812   -7.1982166    230.04903  0.028068452  0.028419492            2 
  684000    1.1524372   -7.2204352    230.45177  0.028076483   0.02841343            3 
  685000     1.152149   -7.1744817    231.26669  0.028134634  0.028407238            4 
  686000    1.1656596   -7.2194002    231.22883  0.028089023  0.028400858            3 
  687000     1.135635   -7.1713932    231.49371  0.028080265  0.028395017            1 
  688000    1.1415672   -7.2190167    231.97119  0.028097286  0.028388611            2 
  689000    1.1428639   -7.2037617    232.03252  0.028063924  0.028382774            3 
  690000    1.1588009   -7.1531115    233.54928  0.028206435   0.02837666            3 
  691000    1.1413882   -7.2473768    232.41758  0.028029134  0.028370494            4 
  692000    1.1269785   -7.1837468    233.02473  0.028061745  0.028364384            2 
  693000     1.146106   -7.2512327     232.6608   0.02797749  0.028357853            3 
  694000    1.1514125   -7.2514048    231.79342  0.027833024  0.028350825            3 
  695000    1.1601814   -7.2108264    233.23756  0.027966135  0.028343924            3 
  696000    1.1531094   -7.1924063    233.35028   0.02793945  0.028337049            2 
  697000    1.1208238   -7.2379592     232.9076  0.027846437  0.028330027            4 
  698000    1.1041813    -7.218403    234.55546  0.028003279  0.028322966            5 
  699000    1.1377977   -7.2478394    234.59403  0.027967815  0.028315319            2 
  700000    1.1330057   -7.2570992    233.79311  0.027832513   0.02830791            4 
  701000    1.1389406   -7.2178935     233.9522  0.027811721  0.028300275            5 
  702000     1.149925   -7.1776208     235.7109  0.027980876  0.028293437            4 
  703000     1.138218   -7.2483679    235.12123  0.027871175  0.028286656            3 
  704000    1.1395174   -7.2121091    235.95614  0.027930414  0.028279557            5 
  705000    1.1241736   -7.2116132    235.53267  0.027840741  0.028272295            8 
  706000    1.1463687     -7.18894      236.857  0.027957625  0.028265174            3 
  707000    1.1312406   -7.2022764    236.86235  0.027918712  0.028258122            4 
  708000    1.1583946   -7.1837213    236.72218   0.02786278   0.02825116            2 
  709000     1.138143   -7.2233615    236.87192  0.027841081   0.02824414            2 
  710000    1.1199276   -7.2273396    237.24354  0.027845486  0.028237403            2 
  711000    1.0994496   -7.2123299    238.27849  0.027927624  0.028230266            2 
  712000    1.1607361   -7.2382056    238.14286  0.027872526  0.028223384            3 
  713000    1.1497832   -7.2121789     238.4151  0.027865252   0.02821698            2 
  714000     1.133661   -7.1951059    239.02267  0.027897137  0.028210888            7 
  715000    1.1380928    -7.229467    238.89335  0.027843047  0.028204198            1 
  716000    1.1388449   -7.2054259    239.75003  0.027903868  0.028197322            2 
  717000    1.1259447   -7.2172685    238.73175  0.027746601  0.028190756            2 
  718000    1.1368836   -7.2294875     240.3209  0.027892398  0.028184016            4 
  719000      1.10958   -7.2447077    239.79863  0.027793073  0.028177125            3 
  720000    1.1211852   -7.2127067     240.2135  0.027802488  0.028170269            2 
  721000    1.1349516   -7.2636297    240.56022  0.027804002  0.028163343           11 
  722000    1.1182996   -7.2311848    241.13525  0.027831862  0.028156538            3 
  723000    1.1187705   -7.2307832    240.15078  0.027679896  0.028149777            2 
  724000    1.1393466   -7.2366081     242.1045   0.02786654  0.028143132            2 
  725000    1.1296807   -7.2423399    241.57623  0.027767382  0.028136705            4 
  726000    1.1359863   -7.2091155     242.7538  0.027864302   0.02813057            1 
  727000    1.1377901    -7.230835    243.77642  0.027943193  0.028124446            7 
  728000    1.1300637   -7.2378388    242.81688  0.027794973  0.028118517            2 
  729000    1.1133352   -7.1956294    243.38738   0.02782206  0.028112547            2 
  730000    1.1458412   -7.2207243    243.94846  0.027847998  0.028106731            2 
  731000    1.1450502   -7.2004524    244.30727  0.027850806  0.028100515            2 
  732000    1.1286084   -7.2222678    243.86731  0.027762672  0.028094519            1 
  733000    1.1022086   -7.2235899    243.98666  0.027738365    0.0280878            2 
  734000    1.1329713   -7.2495299    243.85578  0.027685716  0.028080953            8 
  735000    1.1099917   -7.2288933    244.99196  0.027776866  0.028073734            2 
  736000    1.1622385   -7.2523658    244.79163  0.027716444  0.028067019            3 
  737000    1.1494052   -7.2476479    245.09218   0.02771282  0.028059839            4 
  738000    1.1242931   -7.2557698    244.76374  0.027638182  0.028053063            4 
  739000    1.1506563   -7.1837078    246.13554  0.027755474  0.028046547            3 
  740000    1.1397602   -7.2121106    245.70062  0.027668989   0.02803996            1 
  741000    1.1329509   -7.1871685    246.65765  0.027739277  0.028033093            3 
  742000    1.1320659   -7.2828143    245.31612  0.027551226  0.028025843            2 
  743000    1.1398634   -7.2609934     245.9242  0.027582346   0.02801864            5 
  744000    1.1050911   -7.2074292    247.07497  0.027674167   0.02801155            2 
  745000    1.1324523   -7.2476946    247.19015  0.027649905  0.028004684            3 
  746000     1.158373   -7.2542716    246.61771  0.027548895  0.027997429            2 
  747000      1.10375   -7.2316558    247.22949  0.027580264  0.027990505            2 
  748000    1.1262679   -7.2264151    247.24089  0.027544662  0.027983255            6 
  749000    1.1408496   -7.2448466    247.68957  0.027557807  0.027976466            4 
  750000    1.1451542   -7.2593791    248.36534  0.027596149  0.027969164            4 
  751000     1.125638   -7.2759509    248.18118  0.027538968  0.027961414            3 
  752000    1.1272383   -7.2469399     248.3766  0.027524003  0.027953953            7 
  753000    1.1469261   -7.2737438    248.72938  0.027526492  0.027946547            4 
  754000    1.1355672   -7.2319338    249.32583  0.027555905  0.027939404            3 
  755000    1.1216842   -7.2437143    249.56981  0.027546337  0.027932178            3 
  756000    1.1529323    -7.228701     248.9839  0.027445315   0.02792489            4 
  757000    1.1360277   -7.2751302    248.93785  0.027403991  0.027917547            9 
  758000    1.1509917   -7.2260969    250.73656  0.027565584  0.027910328            2 
  759000     1.130472   -7.2704554    249.97745  0.027445921  0.027902989            2 
  760000     1.141586   -7.3086628    249.88958  0.027400173   0.02789504            3 
  761000    1.1167964   -7.2188702    250.74601  0.027457952  0.027886947            3 
  762000    1.1423105   -7.2482637    249.31666  0.027265601  0.027878503            4 
  763000    1.1287845   -7.2549197    250.22836  0.027329441  0.027869885            3 
  764000    1.1317154   -7.1919046    250.53803  0.027327446  0.027861399            1 
  765000    1.1483612   -7.2309802    250.80191  0.027320469  0.027852859            4 
  766000    1.1185701   -7.2932866    250.51444  0.027253529  0.027844339            2 
  767000    1.1235059   -7.2037916    252.31883  0.027414041  0.027835891            3 
  768000    1.1253297   -7.2408605    251.27379  0.027264951  0.027827014            3 
  769000    1.1202418   -7.2089027    253.21661  0.027440032  0.027818701            2 
  770000    1.1360945   -7.2344856    252.29337  0.027304478  0.027810432            1 
  771000    1.1416532    -7.236605    254.01655  0.027455312  0.027802334            3 
  772000    1.1151257   -7.2578915    252.72785   0.02728064  0.027794068            2 
  773000     1.132067   -7.2096662     252.7257  0.027245117  0.027785882            3 
  774000    1.1481397   -7.2655167    252.74361  0.027211845  0.027777668            9 
  775000     1.121429   -7.2662754     253.1517  0.027220613  0.027769436            2 
  776000    1.1204536    -7.194883    253.74463  0.027249208   0.02776134            5 
  777000    1.1099577   -7.2364002    254.10593  0.027252888  0.027753018            2 
  778000     1.133052   -7.2294645    254.59091  0.027269806  0.027744919            5 
  779000     1.108623   -7.2896751    254.11082  0.027183443  0.027736598            3 
  780000     1.142996   -7.2737107    254.28889  0.027167617   0.02772806            2 
  781000    1.1081643    -7.262995    255.94192  0.027309211  0.027719692            5 
  782000    1.1378466    -7.246441    255.11281  0.027185934  0.027711175            2 
  783000    1.1191574   -7.2414641    255.20896  0.027161448  0.027702616            4 
  784000    1.1320919   -7.2692673    255.31923  0.027138523  0.027694039            2 
  785000    1.1358827   -7.2713472    256.00356  0.027176599  0.027685348            3 
  786000     1.171015   -7.2191295    255.58273  0.027097406  0.027676811            2 
  787000    1.1319887   -7.2498325    256.72462  0.027183886  0.027668318            2 
  788000    1.1373364   -7.2892262    255.95828  0.027068346  0.027659684            3 
  789000    1.1420013   -7.1878014    257.48561  0.027195354  0.027650933            2 
  790000    1.1298652   -7.2506913    256.68817  0.027076811  0.027642546            3 
  791000    1.1036267   -7.2218956    257.68609  0.027147713  0.027634183            2 
  792000    1.1319033   -7.1880697    258.51217  0.027200354  0.027625874            2 
  793000    1.1094591    -7.257356    257.22722  0.027031024  0.027616795            3 
  794000    1.1415307   -7.2526324    257.86046   0.02706344  0.027608041            4 
  795000     1.141961   -7.2650085     257.8161  0.027024748  0.027599317            3 
  796000    1.1266279   -7.2428093    259.01879  0.027116708  0.027590504            6 
  797000     1.132483   -7.2428598    258.23821  0.027001067  0.027581527            3 
  798000    1.1601859   -7.2541946    258.63646   0.02700882  0.027572944            2 
  799000    1.1093591   -7.2792636     259.8983  0.027106622  0.027564095            3 
  800000    1.1416489   -7.1950048    260.18721  0.027102834  0.027555351            2 
  801000    1.1493068   -7.2938387     258.1286  0.026854827  0.027546298            3 
  802000    1.1164073   -7.2910742    259.89401  0.027004781  0.027537105            4 
  803000     1.122847   -7.2178255    260.55314  0.027039554  0.027527989            4 
  804000    1.1168267   -7.2283951    259.83142  0.026931118   0.02751887            3 
  805000    1.1178853    -7.273983    260.29634  0.026945791  0.027509664            4 
  806000    1.1184567    -7.305513    259.88183  0.026869503    0.0275003            2 
  807000    1.1168739   -7.2694541    260.20257  0.026869328  0.027491043            2 
  808000    1.1030988   -7.2753325    260.14055  0.026829677  0.027481581            5 
  809000     1.122686   -7.2991586    260.59501  0.026843326  0.027472053            2 
  810000    1.1211876   -7.2404025    260.41147  0.026791304  0.027462382            2 
  811000    1.1219456   -7.2346035    261.86304  0.026907423  0.027452975            1 
  812000    1.1026486   -7.2591801    261.53363  0.026840479  0.027443847            2 
  813000     1.120283   -7.2607288    262.32428  0.026888508  0.027434916            3 
  814000    1.1184335   -7.2636195    262.67636   0.02689152  0.027425891            3 
  815000    1.1101063   -7.2647475    262.29001   0.02681902  0.027417054            4 
  816000    1.1219519   -7.2515127    263.27221   0.02688646  0.027408087            3 
  817000    1.1291799   -7.2726798    264.09543  0.026937518  0.027399181            2 
  818000    1.1210263   -7.2481893    262.39255  0.026731107  0.027390619            4 
  819000    1.1078109   -7.2493474     263.6551  0.026826933  0.027381545            4 
  820000    1.1178658   -7.2763634     264.0365  0.026832977  0.027372378            2 
  821000    1.1393673   -7.2773911    263.88818   0.02678524  0.027363101            5 
  822000    1.1274376   -7.2728553    263.38359  0.026701499  0.027353873            3 
  823000    1.1107181   -7.2337488     264.7698  0.026809417  0.027344495            2 
  824000    1.0884523   -7.3073666    264.12905   0.02671208  0.027335084            2 
  825000    1.1176891   -7.2960056    264.01653  0.026668336  0.027325736            4 
  826000    1.1242951   -7.2757036    264.92534  0.026727739  0.027316128           15 
  827000    1.1196032   -7.2506643    264.64245  0.026666913  0.027306664            1 
  828000    1.1034156   -7.2935678    265.52771  0.026723803  0.027297129            2 
  829000    1.1140502   -7.2807509     265.2564  0.026664294  0.027287719           10 
  830000    1.1139297   -7.2737334    265.71601  0.026678315   0.02727821            1 
  831000    1.1157039    -7.258488    266.31398  0.026706176   0.02726862            5 
  832000    1.1246056   -7.2893746    265.64255  0.026606826  0.027259383            2 
  833000    1.1081548   -7.2949081    266.24361  0.026635015  0.027250178            4 
  834000    1.0997509   -7.2709491    266.18885  0.026597607  0.027240962            1 
  835000    1.1031191   -7.2290286    268.33278  0.026779718  0.027232158            3 
  836000    1.1372463   -7.2887858    268.36941  0.026751337  0.027223461            4 
  837000    1.1293159   -7.2745342     267.4953  0.026632348  0.027214812            2 
  838000     1.129321   -7.2491505    268.92582  0.026742822  0.027205919            3 
  839000    1.1152125   -7.2344495    268.96884   0.02671522  0.027196954            3 
  840000    1.1223421   -7.2951989    268.63913  0.026650707   0.02718794            2 
  841000    1.1084608   -7.2323756    269.07045  0.026661757  0.027178828            4 
  842000    1.1062495   -7.2603338    269.31633  0.026654427  0.027169733            4 
  843000    1.1314749   -7.2926387    269.49836  0.026640802  0.027160647            5 
  844000    1.1287018   -7.2491677    269.61409  0.026620665    0.0271516            2 
  845000    1.1180945   -7.3149938    269.92792   0.02662011   0.02714262            4 
  846000    1.1016922   -7.2873686    269.78716   0.02657478  0.027133541            3 
  847000     1.108932   -7.3059634    269.99774  0.026564122  0.027124352            3 
  848000    1.1168385   -7.2998066    270.34692  0.026567111  0.027115226            2 
  849000    1.1306773   -7.2756615    271.30707  0.026630061  0.027106212            3 
  850000    1.1091596   -7.2851428    271.08207  0.026576674  0.027097175            2 
  851000    1.1154025   -7.3108428    271.32581  0.026569311   0.02708827            3 
  852000     1.122124   -7.2969968    271.02306  0.026508515   0.02707939            3 
  853000    1.1095569   -7.2857511    271.36004   0.02651036   0.02707013            4 
  854000    1.0893957   -7.3144149    271.44839  0.026487938  0.027061047            2 
  855000     1.098631   -7.2992622     272.2241  0.026532563  0.027051704            4 
  856000     1.123217    -7.252735    272.60287  0.026538441  0.027042618            4 
  857000    1.1383065   -7.2651897    272.63976  0.026511062  0.027033546            3 
  858000    1.0942528   -7.3272729    272.14616  0.026432222  0.027024234            7 
  859000    1.1340654   -7.3093109    272.80699   0.02646556  0.027014767            2 
  860000     1.107395   -7.3124714    272.92665  0.026446381  0.027005336            1 
  861000    1.1010307   -7.3059273    273.38318  0.026459851   0.02699597            2 
  862000    1.1377042    -7.273717    273.98827  0.026487651  0.026986841            3 
  863000    1.1158598    -7.294009    273.50835  0.026410617   0.02697781            2 
  864000    1.1353076    -7.278763    274.02775  0.026430145  0.026968508            6 
  865000    1.0821843    -7.315594    273.99918  0.026396838  0.026959293            6 
  866000    1.1331991    -7.271105    274.46063  0.026410761  0.026950334            2 
  867000    1.1100726   -7.3278462     274.5366  0.026387601   0.02694134            5 
  868000    1.0911381   -7.2897488     274.0534   0.02631081  0.026932213            4 
  869000    1.1272255   -7.3452448    274.28586  0.026302825  0.026922917            2 
  870000    1.1179958   -7.2712474    274.97407  0.026338512  0.026913822            6 
  871000    1.0931038   -7.2928177    275.62136  0.026370203  0.026904716           10 
  872000     1.134932   -7.2738259    275.21579  0.026301203  0.026895628            6 
  873000    1.1124175   -7.3388912    275.03256  0.026253586  0.026886291            3 
  874000    1.1178764   -7.3007438    276.20641   0.02633547  0.026876828            2 
  875000    1.1258748   -7.3114909    276.30853  0.026315098  0.026867484            5 
  876000    1.1012355   -7.2781317    277.50938  0.026399294  0.026858307            3 
  877000    1.0870254   -7.3129519    276.65868  0.026288358  0.026848923            6 
  878000    1.1190797   -7.2716921    277.30207  0.026319483  0.026839821            4 
  879000    1.1254331   -7.3126259    277.04811  0.026265463  0.026830751            3 
  880000    1.0818862    -7.315427     276.7188  0.026204432  0.026821396            3 
  881000    1.1272415   -7.2577257    278.21465   0.02631618  0.026812077            3 
  882000    1.1195971   -7.2912782    277.97759  0.026263944  0.026803002            3 
  883000    1.0885059   -7.3474257    278.49323  0.026282864  0.026793996            3 
  884000    1.1082301   -7.3211854    278.63916  0.026266889  0.026785162            4 
  885000    1.1096677   -7.3179078    278.43001  0.026217515  0.026776105            4 
  886000    1.1178792   -7.3338497    278.88135  0.026230375  0.026766782            2 
  887000    1.1102692   -7.2938817    279.08237  0.026219689  0.026757378            5 
  888000    1.1331629   -7.3023139    279.61926  0.026240546  0.026748372            3 
  889000    1.1136648   -7.2728034    280.22749  0.026268044  0.026739529            2 
  890000    1.1112619   -7.2847585     280.8171  0.026293736  0.026730707            3 
  891000    1.1065723   -7.2856387     280.7785  0.026260615  0.026721782            1 
  892000    1.0984616    -7.289956    280.60676  0.026215131  0.026712762            6 
  893000    1.1105046   -7.3164068    281.41565  0.026261259  0.026703368            3 
  894000    1.1086954   -7.3404981    280.66069  0.026161511  0.026694019            1 
  895000    1.1023094   -7.2868395    281.07339  0.026170707  0.026684853            3 
  896000    1.1023202   -7.3106624    280.63612   0.02610083  0.026675546            4 
  897000    1.0761179   -7.2408946    282.26144  0.026222728  0.026666336            3 
  898000    1.1191912   -7.3214043    281.49806  0.026122685   0.02665721            3 
  899000    1.1076736   -7.2994417    282.14848  0.026153919  0.026647826            5 
  900000    1.1075849    -7.317486    280.65325  0.025986412  0.026638642            2 
  901000    1.1024424   -7.3504356    281.52288  0.026038002  0.026629224            3 
  902000    1.1120925   -7.3341903    282.09138  0.026061657  0.026619785            6 
  903000    1.1246706   -7.3142786    283.02755  0.026119191  0.026610423            5 
  904000    1.1573727   -7.3638409    283.15589  0.026102128  0.026601278            5 
  905000    1.1205449   -7.2901664    284.05851  0.026156401  0.026592386            5 
  906000    1.1081189   -7.3014184    283.28463  0.026056349  0.026583581            3 
  907000    1.1263962   -7.3407916    284.31226  0.026122038  0.026575014            4 
  908000    1.1215974   -7.3649554    283.14162  0.025985832  0.026566107            3 
  909000    1.1184437   -7.2955752    284.97153  0.026125003  0.026557051            1 
  910000    1.0834766   -7.3172421    285.51177  0.026145767  0.026548147            8 
  911000     1.106033   -7.3549713    283.67801  0.025949324  0.026539213            2 
  912000    1.1258262   -7.2923796    285.80012  0.026114777  0.026530223            2 
  913000    1.1093841   -7.2882075    286.48524  0.026148707  0.026521609            1 
  914000    1.0888513   -7.3498391    285.44602  0.026025348  0.026512918            6 
  915000    1.1086859   -7.3486389     285.8083    0.0260299  0.026503896            2 
  916000    1.0917081    -7.289865    286.52597  0.026066773  0.026495173            2 
  917000    1.1039714   -7.3181391     285.7812  0.025970665   0.02648676            4 
  918000    1.1100472   -7.2907877    286.91008  0.026044851  0.026477978            2 
  919000    1.1084368   -7.2974197    287.27788  0.026049863   0.02646915            3 
  920000    1.1060854   -7.3028061    287.51575  0.026043094  0.026460324            5 
  921000    1.0834115   -7.3258689    286.84525  0.025954148  0.026451459            2 
  922000    1.0995713   -7.3414753    287.59744  0.025993984  0.026442672            3 
  923000    1.0971716   -7.3206478    288.15338  0.026016015  0.026433886            2 
  924000    1.0967974   -7.3167814    287.47308  0.025926504  0.026424963            3 
  925000    1.1317353   -7.2978035    288.07247  0.025952475  0.026416285            2 
  926000      1.11998   -7.3178058    288.10177  0.025927085  0.026407532            5 
  927000    1.0933942   -7.2699743    289.41901   0.02601753  0.026399021            2 
  928000    1.0733315   -7.3306585    289.28118  0.025977117  0.026390559            4 
  929000    1.0866874   -7.2690134    290.74361  0.026080338  0.026382023            3 
  930000    1.0992181   -7.3076688    289.64003  0.025953408  0.026373414            1 
  931000     1.083475   -7.3849438     288.7079  0.025842096  0.026364895            2 
  932000     1.094476   -7.3289247    290.83914   0.02600493  0.026356597            1 
  933000    1.0909603    -7.301268    291.59005  0.026044127  0.026348432            2 
  934000    1.0673434   -7.3289462    290.77603  0.025943615  0.026340168            2 
  935000    1.1031821   -7.3483738    291.10102  0.025944832  0.026331661            2 
  936000    1.1169443   -7.2754306    292.64088   0.02605421  0.026323523            7 
  937000      1.09383    -7.287642    291.35413  0.025911964  0.026315261            4 
  938000     1.126997   -7.3301356    292.23067  0.025962213  0.026306736            3 
  939000     1.100615   -7.3435164    291.63668   0.02588185  0.026298348            1 
  940000    1.1321589   -7.3584279    291.96063  0.025883035  0.026289914            3 
  941000    1.1119735   -7.2873556    293.10607  0.025956967  0.026281522            2 
  942000    1.1196145   -7.2813881    293.45612  0.025960379  0.026273482            3 
  943000     1.093116   -7.2970977    294.18463  0.025997228  0.026265456            2 
  944000    1.0769631   -7.2783002    295.36157  0.026073585  0.026257703            2 
  945000    1.1215471   -7.3073861    294.20454  0.025943963  0.026249874            4 
  946000    1.0850713   -7.2819798     296.2179  0.026093895  0.026242182            2 
  947000    1.1047498   -7.2699364    296.17273  0.026062366  0.026234369            3 
  948000    1.1029585   -7.3239442    295.95609   0.02601583  0.026226622            6 
  949000    1.1035794   -7.3007107     295.9356  0.025986617  0.026218776            9 
  950000    1.1074137   -7.3439742    294.50992  0.025834204  0.026210841            3 
  951000    1.1021306   -7.2903696    296.60842  0.025990924  0.026203316            3 
  952000    1.0753217   -7.3056562    296.59968  0.025962857  0.026195926            6 
  953000    1.1005003   -7.3128466    297.50104  0.026014432  0.026188194            3 
  954000     1.103247   -7.3499472    296.29956  0.025882212  0.026180445            3 
  955000    1.0763681   -7.3266286    296.90321  0.025907785   0.02617269            4 
  956000    1.0964066   -7.3330519    296.24676  0.025823462  0.026164714            3 
  957000    1.0884045   -7.3819643    296.71343  0.025837115  0.026156815            4 
  958000     1.125457   -7.3272409    297.65739  0.025892257  0.026148674            2 
  959000    1.1004024   -7.3571259    296.62292  0.025775366  0.026140512            3 
  960000    1.1030731   -7.3080903    297.46991  0.025822041  0.026132683            2 
  961000    1.0910782   -7.3061419    298.26063  0.025863738  0.026124963            3 
  962000    1.1037749   -7.3470987    298.24565  0.025835555  0.026117121            5 
  963000    1.1000881    -7.337153    298.92116  0.025867182  0.026109324            3 
  964000    1.1099594   -7.3072201    299.17906  0.025862643  0.026101635            2 
  965000    1.0811974   -7.3208967    299.57756  0.025870255  0.026094007            3 
  966000    1.1077771   -7.3010598    299.82214  0.025864573  0.026086626            4 
  967000    1.0960291   -7.3231443    300.00914  0.025853942  0.026078949            3 
  968000    1.1025919   -7.3269777    299.43082  0.025777447  0.026071544            2 
  969000    1.0750273   -7.3112851    300.95788   0.02588217  0.026064029            2 
  970000    1.0752239   -7.2880389    301.59193  0.025909959  0.026056489            2 
  971000    1.0914112   -7.3373254    301.89521  0.025909304  0.026048964            2 
  972000    1.0866309   -7.3657362    301.81554  0.025875818  0.026041605            4 
  973000     1.094356   -7.3434748    301.19922  0.025796439  0.026034276            3 
  974000    1.0989014   -7.3352019    302.49635  0.025880934  0.026026954            2 
  975000    1.1021926   -7.3234812    300.94244  0.025721576   0.02601966            2 
  976000    1.1013015   -7.3275346    301.38355  0.025732885  0.026012348            3 
  977000    1.0793804    -7.329678    302.33718  0.025787886  0.026004965            4 
  978000    1.0986751   -7.2927339    302.92177   0.02581133  0.025997802            3 
  979000    1.0959195   -7.3058992    303.51067  0.025835093   0.02599046            4 
  980000    1.0942776   -7.3461965    302.53456  0.025725728  0.025983245            2 
  981000      1.10184   -7.3517111    302.74934  0.025717749  0.025975545            2 
  982000    1.0944648   -7.3670722    303.97901  0.025795911  0.025967999            2 
  983000    1.1096882    -7.295679    304.46698  0.025811036  0.025960598            3 
  984000    1.0944857    -7.331093    304.25448  0.025766809  0.025953312            2 
  985000    1.0862226   -7.3249296    304.26534  0.025741569  0.025945981            6 
  986000    1.0891005   -7.3598035    303.93282  0.025687358  0.025938567            2 
  987000     1.099267   -7.2805919    306.27233  0.025858859  0.025931368            6 
  988000    1.0907279   -7.3068093    305.01582  0.025726705  0.025924245            4 
  989000    1.0693042   -7.3523049    305.53518  0.025744454    0.0259171            4 
  990000    1.0890949   -7.3772463     305.2579  0.025695109  0.025909781            9 
  991000    1.0853987   -7.3632172    305.47795  0.025687685  0.025902645            2 
  992000    1.0920338   -7.3502844    306.20091  0.025722523  0.025895549            4 
  993000    1.1102488   -7.3339585     305.8613  0.025668119  0.025888438            7 
  994000     1.092953   -7.3648811    306.60315   0.02570449  0.025881193            3 
  995000    1.1177905   -7.3000961    307.01298   0.02571298  0.025874005            6 
  996000    1.1099906   -7.3080121    306.97611  0.025684078  0.025867009            2 
  997000    1.0834197   -7.3204501    308.21707  0.025762042  0.025860168            3 
  998000    1.1057232   -7.3938655    307.66405  0.025690051  0.025853181            7 
  999000    1.0776783   -7.3629646    307.76091  0.025672415  0.025845911            4 
 1000000    1.1109581   -7.3362198    308.19885  0.025683237  0.025838825            2 
 1001000    1.0836805   -7.3260321    308.24982  0.025661823  0.025831814            2 
 1002000    1.0960161   -7.3321592    308.68956  0.025672784  0.025824689            3 
 1003000    1.0824387    -7.334478    308.65475  0.025644296   0.02581782            3 
 1004000    1.0905088   -7.3226356     308.6223  0.025616061  0.025811015            2 
 1005000    1.1005113    -7.348605    309.79169  0.025687536  0.025803806            2 
 1006000    1.0850313   -7.3483961    307.90821  0.025505982  0.025796547            5 
 1007000    1.0932513   -7.3615086    310.10296  0.025662277  0.025789404            2 
 1008000    1.0874015   -7.3720083     309.8635  0.025617022  0.025782318            3 
 1009000    1.0795966   -7.3627809    310.76528  0.025666112  0.025775272            3 
 1010000    1.0874785   -7.3267614    311.29136  0.025684106  0.025768487            5 
 1011000    1.1065253   -7.3380331     310.9939  0.025634183    0.0257616            3 
 1012000    1.0841217   -7.3595711    311.29463  0.025633615  0.025754903            4 
 1013000    1.0962065   -7.3743221     311.3839  0.025615655  0.025748041            7 
 1014000    1.0709691   -7.3579039    311.23981  0.025578551  0.025741028            3 
 1015000    1.1220982   -7.3754264    310.64611  0.025504606  0.025734037            3 
 1016000    1.0702938    -7.338034    312.29523  0.025614766  0.025727183            4 
 1017000     1.084635   -7.3407933    312.71689  0.025624131  0.025720367            5 
 1018000    1.0993041   -7.3693816    311.63458  0.025510362  0.025713116            5 
 1019000    1.0937053   -7.3367219    312.29767  0.025539555  0.025705887            2 
 1020000     1.086389   -7.3936624    312.40711  0.025523456  0.025698622            8 
 1021000    1.0841221   -7.3068018    313.80804  0.025612801  0.025691638            5 
 1022000    1.0902412   -7.3542266    313.04949  0.025525888  0.025684796            9 
 1023000    1.0971086   -7.3310481    314.42633  0.025613093  0.025677483            2 
 1024000    1.0662349   -7.3746648    312.01797  0.025392088  0.025670245            6 
 1025000    1.0872313   -7.3633288    313.98018  0.025526844   0.02566291            3 
 1026000    1.1109819   -7.4103311    314.65147  0.025556487  0.025655754            5 
 1027000    1.0773342   -7.3765719    314.92768  0.025554015  0.025648656            3 
 1028000    1.0953057   -7.3497993    314.73971  0.025513919  0.025641659            3 
 1029000    1.1076261   -7.3279965    314.78601  0.025492874  0.025634665            3 
 1030000    1.1016354   -7.3421177    314.68967  0.025460329  0.025627582            5 
 1031000    1.1119682   -7.3763354    314.59066  0.025427632  0.025620564            3 
 1032000     1.087171   -7.3597537    315.10025  0.025444142  0.025613677            4 
 1033000    1.0758217   -7.3724737    316.22004  0.025509845  0.025606624            2 
 1034000    1.0623615   -7.4403644     314.2131  0.025323428  0.025599277            2 
 1035000    1.1044177   -7.3437766    314.26636  0.025303249  0.025591971            6 
 1036000    1.0918187   -7.4131009    315.63886  0.025389226  0.025584765            3 
 1037000    1.0805504   -7.3688587    316.21661  0.025411171  0.025577539            3 
 1038000    1.0678466   -7.3506032    316.55179  0.025413599  0.025570503            2 
 1039000    1.0948511   -7.3492754    316.96617  0.025422375  0.025563435            2 
 1040000    1.0854183   -7.3944216    316.14915  0.025332464   0.02555615            5 
 1041000    1.0822041   -7.4013505    316.11288  0.025305226  0.025548941            4 
 1042000    1.0622115   -7.3493583    318.09595  0.025439536   0.02554173            3 
 1043000    1.0663083   -7.3374465    318.49196  0.025446785   0.02553488            5 
 1044000    1.0700502    -7.319672    319.18718  0.025477904  0.025528176            3 
 1045000    1.0842879    -7.358642    318.87535  0.025428656  0.025521476            2 
 1046000    1.0707364   -7.3761054     319.3256  0.025440216  0.025514677            4 
 1047000    1.0831632   -7.3293427    319.20258  0.025406127  0.025507466            2 
 1048000    1.0885035   -7.3952891    318.97252  0.025363591  0.025500779            5 
 1049000    1.0950014   -7.3676825    320.35196  0.025448996  0.025494014            7 
 1050000    1.0987705   -7.3855882    320.64436  0.025447965  0.025487192            5 
 1051000    1.0970305   -7.3586921    320.57189  0.025418006  0.025480626            5 
 1052000    1.0574991   -7.3709062    320.77618  0.025410027  0.025474045            4 
 1053000    1.0757997   -7.3819091     320.6901  0.025379083  0.025467459            4 
 1054000    1.0934254   -7.3700713    320.68399  0.025354522  0.025460707            4 
 1055000    1.0859078   -7.4012348    321.87177   0.02542431  0.025453835            2 
 1056000    1.0659701   -7.3859457    321.97387  0.025408292  0.025447124            2 
 1057000    1.1019581   -7.3845129    321.65779  0.025359334  0.025440494            2 
 1058000    1.0839666   -7.3042709    323.55491  0.025484791  0.025434109            5 
 1059000    1.0565915   -7.4102027    321.85903  0.025327276  0.025427602            2 
 1060000    1.0874109   -7.3780467    322.69473  0.025369082  0.025420984            2 
 1061000    1.0755537   -7.3527163     323.4025  0.025400762  0.025414555            4 
 1062000    1.0683687   -7.4271247    321.91016  0.025259743  0.025407872            3 
 1063000    1.0929552   -7.4182006    322.53113   0.02528466  0.025400931            3 
 1064000    1.0845756   -7.3811529    322.97799  0.025295895  0.025394206            4 
 1065000    1.0777994   -7.3938887    322.89944  0.025265997  0.025387339            5 
 1066000    1.0651054   -7.3311038    324.13816  0.025339131   0.02538043            2 
 1067000    1.1330383   -7.3537087    325.19176  0.025397669  0.025373793            2 
 1068000    1.0851366    -7.370876    324.09435  0.025288261  0.025367253            6 
 1069000    1.0588975   -7.3736617    325.26245  0.025355664  0.025360581            2 
 1070000     1.071961   -7.3865162    324.83056   0.02529833  0.025353969            2 
 1071000    1.0929658   -7.3684679    324.88186  0.025278701  0.025347187            3 
 1072000    1.0522206   -7.4159994     324.9487  0.025260315  0.025340501            4 
 1073000    1.0824779   -7.3817573    325.09684  0.025248279  0.025333754            4 
 1074000    1.0951935   -7.3466607    325.59262  0.025263239  0.025327239            3 
 1075000    1.0753178   -7.4074506    324.74006  0.025173648  0.025320602            3 
 1076000    1.0573806   -7.3837167    326.11658  0.025256861  0.025313958            4 
 1077000    1.0983448   -7.3593089    326.59323   0.02527029  0.025307273            2 
 1078000      1.06377   -7.3898043    326.37182  0.025229733  0.025300565            4 
 1079000    1.0799329   -7.3986984    326.66257  0.025228805  0.025293661            6 
 1080000    1.1051954   -7.3923887    326.14058  0.025165168  0.025286786            5 
 1081000    1.0989308   -7.3913035    326.78333  0.025191438  0.025279836            2 
 1082000    1.0578886   -7.4041178    326.31542  0.025132118     0.025273            3 
 1083000    1.0605767   -7.4006624    327.41024  0.025193155  0.025266329            2 
 1084000    1.0613535   -7.4160328    327.52468  0.025178712  0.025259525            4 
 1085000    1.0852732   -7.3428295    327.05448  0.025119392  0.025252679            2 
 1086000    1.0837382   -7.4367491    326.63339  0.025063949  0.025245735            2 
 1087000    1.1067529   -7.3664496    328.81801  0.025208372  0.025238893            4 
 1088000    1.0840545   -7.3812652    327.52104  0.025085864  0.025232133            1 
 1089000    1.0767811   -7.4098475    327.51795  0.025062592  0.025225222            4 
 1090000    1.0783736    -7.380404    328.03349  0.025079013  0.025218372            2 
 1091000    1.0857326   -7.3893938    329.12155  0.025139134  0.025211409            2 
 1092000    1.0754748   -7.3773042    328.55511  0.025072887  0.025204564            6 
 1093000    1.0603528   -7.3884681    330.17303  0.025173302  0.025197831            2 
 1094000    1.0855429   -7.4015536    330.57378  0.025180818  0.025191174            2 
 1095000    1.0890959   -7.4055049    329.60912  0.025084408  0.025184347            2 
 1096000    1.0772087   -7.3817961    329.63296  0.025063334  0.025177418            2 
 1097000    1.0800005   -7.4061318    329.47393  0.025028406  0.025170518            3 
 1098000    1.0890933   -7.4048364    330.35291  0.025072321  0.025163721            4 
 1099000    1.0667012   -7.3721666    331.09506  0.025105783   0.02515691            3 
 1100000    1.0575052   -7.3924949    331.55336  0.025117679  0.025150056            2 
 1101000    1.0889918   -7.3951121    331.46326  0.025088046   0.02514328            4 
 1102000    1.0653384   -7.3750462    331.48507  0.025066929  0.025136517            3 
 1103000    1.0666132   -7.3999915    331.38885  0.025036933  0.025129638            4 
 1104000    1.0778285   -7.3831097    332.13573  0.025070632  0.025122978            4 
 1105000    1.0855708   -7.3917914    333.25845  0.025132613  0.025116231            2 
 1106000    1.0742705   -7.3880392    332.19453  0.025029727  0.025109449            2 
 1107000    1.0746798   -7.3474624    332.44672    0.0250261  0.025102727            3 
 1108000    1.0590689   -7.3474025    333.01919   0.02504657  0.025096164            2 
 1109000    1.0722557   -7.4181349    333.25557  0.025041747  0.025089479            3 
 1110000    1.0861939   -7.3739534    332.87105  0.024990319  0.025082605            4 
 1111000    1.0973512   -7.4002264    333.46018  0.025012015  0.025075795            2 
 1112000    1.0675637   -7.4251726    332.35714   0.02490686  0.025068655            4 
 1113000    1.0694612   -7.4349769    332.79191  0.024917034  0.025061626            6 
 1114000    1.0941779   -7.3679607    333.61813  0.024956473  0.025054612            3 
 1115000    1.0589879    -7.408034    332.14449  0.024823953  0.025047745            5 
 1116000    1.0810534   -7.3864786    333.31033  0.024888764  0.025040622            2 
 1117000    1.0789283   -7.4076777    333.59776  0.024887926  0.025033581            4 
 1118000    1.0586069   -7.3939662    334.02655  0.024897626  0.025026406            4 
 1119000    1.0926644   -7.3853514    334.03727  0.024876174  0.025019205            4 
 1120000    1.0923328   -7.3962162    333.49117  0.024813331  0.025012203            5 
 1121000    1.0781073     -7.44153    334.24059  0.024846907  0.025005082            3 
 1122000    1.0683133   -7.3884912    335.32451  0.024905266  0.024997924            5 
 1123000    1.0692425   -7.4159962    334.17109  0.024797498  0.024990837            3 
 1124000    1.0698648   -7.3941214    335.37763  0.024864889  0.024983804            3 
 1125000     1.082677   -7.3976028    335.27819  0.024835422  0.024976777            6 
 1126000    1.0680534   -7.3936564    335.24235  0.024810713  0.024969725            4 
 1127000    1.0840388   -7.4244744    335.94731  0.024840825  0.024962904            4 
 1128000    1.0399473   -7.3536465    337.14824  0.024907524  0.024955975            2 
 1129000    1.0813284   -7.3996309    337.00073  0.024874574  0.024949004            8 
 1130000    1.0733873   -7.4164381    337.68449  0.024902986  0.024942066            3 
 1131000    1.0641146   -7.3919159    337.36372  0.024857333  0.024935204            2 
 1132000     1.047228   -7.4390951     335.5133  0.024699154  0.024928271            5 
 1133000     1.065844   -7.3708761    338.16543  0.024872421  0.024921174            4 
 1134000    1.0562679   -7.4073166    337.06511  0.024769629  0.024914292            5 
 1135000    1.0748969   -7.3872941    337.61385  0.024788095  0.024907566            3 
 1136000    1.0680088   -7.4205779    338.02138  0.024796169  0.024900745            2 
 1137000    1.0715005   -7.4441115     338.0072  0.024773321  0.024893764            4 
 1138000    1.0915234   -7.3881869    337.93888  0.024746549  0.024886711            6 
 1139000    1.1069382   -7.4659574    337.42196  0.024687004  0.024879592            1 
 1140000    1.0691934   -7.4163881    338.36393  0.024734206  0.024872447            3 
 1141000    1.0303954   -7.4432967    339.07577  0.024764517   0.02486545            3 
 1142000    1.0532899   -7.3850394    339.55276  0.024777639   0.02485853            4 
 1143000    1.0792972   -7.4074577    339.57458  0.024757552  0.024851714            7 
 1144000    1.0822407   -7.4365802    340.35534  0.024792784  0.024844867            2 
 1145000    1.0802545   -7.4125172    340.65227  0.024792742  0.024837926            3 
 1146000    1.0713452   -7.4050952    339.44565  0.024683366  0.024831096            3 
 1147000    1.0739871   -7.4524719    340.27619  0.024722187  0.024824262            1 
 1148000    1.0688805   -7.4098239    341.55936  0.024793798   0.02481736            2 
 1149000    1.0585965   -7.3998996    341.22786  0.024748177  0.024810588            3 
 1150000    1.0856065    -7.402487    341.91524  0.024776467  0.024803843            6 
 1151000    1.0620815   -7.4030167     340.6713  0.024664879  0.024796997            3 
 1152000    1.0470637   -7.3960492    341.92109  0.024733875   0.02479023            3 
 1153000    1.0843814   -7.4120146    341.42633  0.024676664  0.024783407            5 
 1154000    1.0675081   -7.4594165    340.63565  0.024598184  0.024776414            2 
 1155000    1.0625796    -7.439782    341.64182  0.024649482  0.024769459            1 
 1156000    1.0744639    -7.419776    341.79274  0.024639039  0.024762562            2 
 1157000    1.0793883   -7.4351593     341.5223  0.024598264  0.024755603            6 
 1158000     1.067016   -7.4034444    341.26093  0.024558213  0.024748362            6 
 1159000    1.0412155   -7.4450398    341.96813  0.024587873  0.024741236            1 
 1160000    1.0490955   -7.3546777    343.74875  0.024694594  0.024734315            4 
 1161000    1.0805689   -7.4557055    341.09501  0.024482846  0.024727435            3 
 1162000    1.0540059   -7.3910597    343.82573  0.024657611  0.024720602            2 
 1163000    1.0596186    -7.426206    342.15404  0.024516626  0.024713573            3 
 1164000    1.0702282   -7.4095331    343.99943   0.02462768   0.02470655            3 
 1165000    1.0652763   -7.4218855    344.32279   0.02462967  0.024699589            3 
 1166000    1.0798559   -7.4377381    344.16885  0.024597545  0.024692498            3 
 1167000    1.0649791    -7.420631    344.02992  0.024566546  0.024685534            2 
 1168000    1.0822238   -7.4674259    343.58872  0.024514036  0.024678587            4 
 1169000     1.062964   -7.4302003    343.02155  0.024452634  0.024671538            5 
 1170000    1.0732887   -7.4537189    343.83147  0.024489421  0.024664284            2 
 1171000     1.050014   -7.4834148    344.75457    0.0245342  0.024657198            3 
 1172000    1.0586132   -7.4517457    343.54117  0.024426989  0.024649958            2 
 1173000    1.0519417   -7.4880203     343.8818  0.024430364  0.024642716            1 
 1174000    1.0836484   -7.4499049    345.11059  0.024496776  0.024635454            3 
 1175000    1.0695704    -7.408609    346.09739  0.024545914  0.024628276            1 
 1176000     1.068549   -7.4081118    346.40054  0.024546524  0.024621305            5 
 1177000    1.0812062   -7.4725979    344.54771  0.024394485  0.024614335            4 
 1178000     1.037864   -7.3883782    345.75235  0.024458995  0.024607185            7 
 1179000    1.0718593   -7.3708271    346.03756  0.024458408  0.024600182            3 
 1180000    1.0630713   -7.3934058    347.34027   0.02452968  0.024593282            2 
 1181000    1.0883609   -7.3962373    347.03746  0.024487543  0.024586352            3 
 1182000    1.0688464   -7.4353317    346.63375  0.024438363  0.024579171            3 
 1183000     1.050257   -7.4319575    347.19286  0.024457091  0.024572059            4 
 1184000    1.0616214   -7.4660492    347.39739   0.02445083  0.024564888           11 
 1185000    1.0731335   -7.4272268    348.34227  0.024496644  0.024557725            3 
 1186000    1.0399428   -7.4262141    347.98981  0.024451223  0.024550769            2 
 1187000    1.0746123   -7.4444584    348.04527  0.024434517  0.024543753            8 
 1188000    1.0896757   -7.4470187     347.9853  0.024409743   0.02453664            3 
 1189000    1.0756699   -7.4242198    349.40848   0.02448896  0.024529735            3 
 1190000    1.0465921   -7.4205289    348.66146  0.024416068  0.024522704            3 
 1191000    1.0679197   -7.4150229    349.16949  0.024431115  0.024515715            3 
 1192000    1.0462305   -7.4043783    349.14594  0.024408973  0.024508879            1 
 1193000    1.0466442   -7.4949506    349.20434  0.024392591  0.024501897            7 
 1194000    1.0632291   -7.4281432     349.4852  0.024391765  0.024494907            3 
 1195000    1.0554025   -7.4043294    349.24513  0.024354612  0.024487852            3 
 1196000    1.0708552   -7.4604232    349.37783  0.024343494  0.024480754            3 
 1197000    1.0674578   -7.3984291    350.76817  0.024419951  0.024473746            2 
 1198000    1.0417206   -7.4155696    349.36606  0.024302036  0.024466629           11 
 1199000    1.0500454   -7.4608361    349.29928  0.024277126  0.024459341            4 
 1200000    1.0833709   -7.4936045     349.0363  0.024238632  0.024452059            4 
 1201000     1.058965   -7.4992224    349.07837  0.024221369  0.024444681            4 
 1202000    1.0563866   -7.4120087    350.27024  0.024283849  0.024437278            4 
 1203000    1.0592192   -7.4189083    350.46353  0.024277052  0.024430028            3 
 1204000    1.0699058   -7.4327344    350.47041  0.024257365  0.024422865            2 
 1205000    1.0584976   -7.4169261    350.77542  0.024258328  0.024415439            3 
 1206000     1.082417   -7.4515446    350.16483  0.024196022  0.024408054            3 
 1207000    1.0457498   -7.4254232    351.30384  0.024254615  0.024400664            2 
 1208000    1.0490167   -7.4427817     352.0186  0.024283844  0.024393394            4 
 1209000    1.0398673   -7.4183221     350.5313  0.024161242  0.024386071            4 
 1210000    1.0269845   -7.4485278    351.52659   0.02420982  0.024378846            3 
 1211000    1.0468536   -7.4226709    351.62068  0.024196303  0.024371538            4 
 1212000     1.070789   -7.4465175    351.49292  0.024167555  0.024364266            2 
 1213000    1.0501221   -7.4231058    352.36288  0.024207398   0.02435691            3 
 1214000    1.0419209   -7.4233171    352.88849  0.024223537  0.024349674            2 
 1215000    1.0337405   -7.4610828    351.59001  0.024114541  0.024342279            2 
 1216000    1.0558905   -7.4531543    351.53895  0.024091211  0.024334922            2 
 1217000    1.0608532   -7.4614093    352.39087   0.02412975  0.024327364            2 
 1218000    1.0557571    -7.474979    352.48335  0.024116266  0.024319913            2 
 1219000    1.0587762   -7.4747242    352.54388  0.024100621  0.024312403            4 
 1220000    1.0518692   -7.4808356    352.84807  0.024101644  0.024304818            5 
 1221000    1.0556852    -7.432993    353.58081  0.024131915   0.02429741            5 
 1222000    1.0858443   -7.4769514    352.53168  0.024040622  0.024289945            2 
 1223000    1.0696879   -7.4530466    353.04761  0.024056119  0.024282516            6 
 1224000    1.0440619   -7.4455963    353.49435  0.024066881  0.024275061            3 
 1225000    1.0404089   -7.4613248     354.2529  0.024098837  0.024267797            4 
 1226000    1.0362947   -7.4112871    354.43357  0.024091461  0.024260452            4 
 1227000    1.0564917   -7.4351439    354.40947  0.024070189  0.024252845            5 
 1228000    1.0729986   -7.4357677    353.92311  0.024017584  0.024245518            5 
 1229000    1.0688428   -7.4296064    354.61222  0.024044767   0.02423791            3 
 1230000    1.0643508   -7.4290289    355.47045  0.024083364  0.024230554            6 
 1231000    1.0693438   -7.4272636    354.46078   0.02399545  0.024223028            7 
 1232000    1.0863124   -7.4068336    356.20543  0.024093982  0.024215479            3 
 1233000     1.051612   -7.4760374    354.12632  0.023933922    0.0242079            3 
 1234000    1.0585297   -7.4681762    353.96966  0.023903948   0.02420024            4 
 1235000    1.0665457   -7.4811705    355.35423  0.023978018  0.024192642            4 
 1236000    1.0682992   -7.4289188    355.53265  0.023970648  0.024185181            9 
 1237000    1.0530784   -7.4105806    356.62715  0.024025003   0.02417764            4 
 1238000    1.0434894   -7.4666346    355.40421  0.023923277  0.024170124            5 
 1239000    1.0361244   -7.4688376    356.95036  0.024007961  0.024162493            5 
 1240000    1.0633452   -7.4638933    355.20103  0.023871037  0.024154851            6 
 1241000    1.0463466   -7.4589004     356.2284   0.02392079  0.024147221            3 
 1242000    1.0494897   -7.4223297    357.47303   0.02398504  0.024139544            2 
 1243000    1.0645057   -7.4521079    356.79321  0.023920167  0.024132064            3 
 1244000    1.0917789   -7.4832812    357.16651  0.023925945  0.024124458            3 
 1245000    1.0595649    -7.486627    357.32133   0.02391709  0.024116945            2 
 1246000    1.0721345   -7.4346799    359.19975  0.024023525  0.024109576            3 
 1247000    1.0532396   -7.4239595    358.72498  0.023972533  0.024102281            3 
 1248000    1.0703996   -7.5046933    358.67991  0.023950314  0.024094947            5 
 1249000    1.0602103    -7.429393    359.22072  0.023967221  0.024087604            2 
 1250000    1.0641974   -7.4642039    358.47473  0.023898315  0.024080331            5 
 1251000    1.0388034   -7.4404687     359.3138  0.023935105   0.02407294            4 
 1252000    1.0624869   -7.5282896    357.29686   0.02378174  0.024065505            3 
 1253000    1.0450013   -7.4682402    359.43556  0.023904999  0.024058086            5 
 1254000    1.0602551   -7.4606144    359.51657  0.023891319  0.024050712            3 
 1255000    1.0470488   -7.4495027    359.15394  0.023848203  0.024043416            5 
 1256000    1.0501604   -7.4765867    360.46865  0.023916444  0.024036035            3 
 1257000     1.053375   -7.4354248    361.79173  0.023985132  0.024028722            2 
 1258000    1.0687327   -7.4658257    360.43945  0.023876487  0.024021324            4 
 1259000    1.0392663   -7.4700811    360.53349  0.023863747   0.02401405            3 
 1260000     1.054829   -7.4370554    361.78946  0.023927874  0.024006714            4 
 1261000    1.0737289   -7.3809745    361.92186  0.023917649  0.023999505            3 
 1262000    1.0656126   -7.4939498    360.25063  0.023788341  0.023992121            2 
 1263000    1.0607508    -7.476115    359.68247  0.023732019  0.023984695            4 
 1264000    1.0639606   -7.5220171    360.61015  0.023774403  0.023977285            3 
 1265000    1.0309615   -7.4915834    360.97062  0.023779355  0.023969834            5 
 1266000    1.0427041   -7.4967342    360.97011  0.023760539  0.023962299            5 
 1267000    1.0532083   -7.4779097    361.88731  0.023802112  0.023954729            3 
 1268000    1.0436638   -7.4890042    360.69859  0.023705217  0.023947117            3 
 1269000    1.0380943   -7.4550085    361.58031  0.023744439  0.023939504            4 
 1270000    1.0364024   -7.4871815    361.29419  0.023706968  0.023931755            5 
 1271000    1.0540781   -7.5230727     360.6872  0.023648518  0.023923952            6 
 1272000    1.0728172   -7.4522076    362.53236   0.02375081  0.023916181            8 
 1273000    1.0458297   -7.4395809      362.226  0.023712097  0.023908581            2 
 1274000    1.0771565   -7.4571899     362.9366  0.023739966  0.023900997            2 
 1275000    1.0475829   -7.4940178    362.05377  0.023663645  0.023893238            6 
 1276000    1.0155849   -7.4959761    361.97479  0.023639942  0.023885502            3 
 1277000    1.0473931   -7.4612384    362.60376  0.023662474   0.02387776            3 
 1278000    1.0425202   -7.4691216    362.07403  0.023609417  0.023869948            1 
 1279000    1.0543218   -7.4898953    361.79364   0.02357269  0.023862293            3 
 1280000    1.0374122   -7.4405561    362.27765  0.023585785  0.023854451            6 
 1281000    1.0262097   -7.4893172    362.41724  0.023576453   0.02384665            3 
 1282000    1.0671852   -7.5064773    363.40349  0.023622172  0.023838981            7 
 1283000    1.0397827   -7.4879084    363.41694  0.023604634  0.023831413            3 
 1284000    1.0335479   -7.4842598    363.78165   0.02360992  0.023823869            3 
 1285000    1.0282109   -7.4457038    364.99261  0.023670078  0.023816286            5 
 1286000    1.0590969   -7.4723236    363.50559  0.023555313  0.023808865            7 
 1287000    1.0578108   -7.4952182    364.22976    0.0235839  0.023801329            2 
 1288000    1.0598776   -7.5305979    364.50208  0.023583209  0.023793797            4 
 1289000    1.0551906   -7.5021094    364.40433  0.023558594  0.023786245            2 
 1290000    1.0113373   -7.4607057    366.29439  0.023662428  0.023778687            2 
 1291000    1.0380692   -7.4662214    365.55234    0.0235962  0.023771222            4 
 1292000      1.04958   -7.4488771    365.17736  0.023553751  0.023763758            3 
 1293000    1.0485639   -7.4949801    365.46615  0.023554147  0.023756261            2 
 1294000    1.0347597   -7.4525599    366.98597  0.023633821  0.023748891            3 
 1295000    1.0492025    -7.453154    366.00576  0.023552494  0.023741562            4 
 1296000    1.0461693   -7.4903784    366.15051  0.023543629   0.02373409            2 
 1297000    1.0161315    -7.458091    367.10307  0.023586679  0.023726628            2 
 1298000    1.0429064   -7.4524377    366.82173  0.023550445  0.023719241            2 
 1299000    1.0656772   -7.4762975    366.17436  0.023490785  0.023711829            4 
 1300000     1.055286   -7.4801016    366.49301  0.023493142  0.023704234            2 
 1301000    1.0445349   -7.4693308    366.61936  0.023483177  0.023696699            2 
 1302000    1.0733873   -7.4681063    367.22442  0.023503867  0.023689145            2 
 1303000    1.0380054   -7.4676859    367.78814  0.023521882  0.023681603            4 
 1304000    1.0463832   -7.4935868     367.0296  0.023455368  0.023673918            4 
 1305000    1.0372615   -7.4717775    368.00672   0.02349979  0.023666173            2 
 1306000    1.0239243   -7.4799972    366.52268  0.023387103   0.02365855            5 
 1307000    1.0514877   -7.4444524    368.11812  0.023470934  0.023650796            2 
 1308000    1.0429042    -7.491932    367.23834  0.023396938  0.023643051            4 
 1309000     1.040907   -7.4635854    368.07503  0.023432329  0.023635326            2 
 1310000    1.0456267   -7.4612129    367.66433  0.023388316  0.023627579            4 
 1311000    1.0573034   -7.5242825    367.59847   0.02336629  0.023619842            5 
 1312000    1.0374251   -7.4694141    368.03295  0.023376077  0.023612154            2 
 1313000    1.0352568   -7.5050869    367.52679  0.023326148  0.023604466            4 
 1314000    1.0285404   -7.4536091    368.30623  0.023357828  0.023596697           10 
 1315000     1.038186   -7.5299592    366.94351  0.023253708  0.023588901            4 
 1316000    1.0634835   -7.5038262    368.76258  0.023351227  0.023580954            3 
 1317000    1.0271475   -7.5063767     368.9639  0.023346235  0.023573089            6 
 1318000    1.0278589   -7.4928839    368.08624   0.02327303  0.023565208            5 
 1319000    1.0387397   -7.4788044    369.88375  0.023368951  0.023557376            2 
 1320000    1.0408214   -7.4497836    370.04582  0.023361479  0.023549606            3 
 1321000    1.0640208   -7.5011528     368.6182  0.023253735  0.023541921            4 
 1322000    1.0472714   -7.5211265    370.01738  0.023324343  0.023534124            4 
 1323000    1.0574641   -7.4703073    369.82984    0.0232949   0.02352638            2 
 1324000    1.0293012   -7.5217373     370.2326  0.023302656   0.02351868            7 
 1325000    1.0293133   -7.5129902    369.34053  0.023228964  0.023510948            4 
 1326000    1.0393555   -7.4688715    371.17149  0.023326514  0.023503311            7 
 1327000    1.0261086    -7.488994     369.9839  0.023234357  0.023495647            9 
 1328000    1.0559092   -7.4904173    371.15038  0.023290059  0.023487865            4 
 1329000    1.0471369    -7.474458    371.36886  0.023286234  0.023480138            9 
 1330000    1.0132728   -7.4924974    369.91211  0.023177451  0.023472359            5 
 1331000    1.0276215    -7.495921    371.03741  0.023230492  0.023464504            3 
 1332000    1.0333571   -7.5216271    372.12786  0.023281272  0.023456723            4 
 1333000     1.033876   -7.5018109    371.31914  0.023213249  0.023449011            2 
 1334000    1.0555862   -7.4665225    372.03213  0.023240388  0.023441348            5 
 1335000    1.0271428   -7.5180207    371.71028  0.023202889  0.023433557            4 
 1336000    1.0249779   -7.5073715     371.9257  0.023198958  0.023425823            3 
 1337000    1.0560907   -7.4853772    371.90213  0.023180138  0.023418091            4 
 1338000    1.0361329   -7.5099968    372.77479  0.023217164   0.02341024            5 
 1339000     1.030088   -7.5041385    372.16962  0.023162162  0.023402456            2 
 1340000    1.0416443   -7.4952752    372.87746  0.023188897  0.023394727            3 
 1341000    1.0562952   -7.5330989    371.33926  0.023076016  0.023386954            5 
 1342000    1.0398235   -7.4936166    372.69676  0.023143117  0.023379155            2 
 1343000    1.0254506     -7.50688    373.16831  0.023155145  0.023371444            2 
 1344000    1.0488704   -7.5183543    372.60048  0.023102709  0.023363781            6 
 1345000    1.0331253   -7.5123244    373.81277  0.023160642  0.023356013            2 
 1346000     1.046873   -7.4613852    374.05047  0.023158152  0.023348321            3 
 1347000    1.0426716   -7.4963881    373.59799  0.023112967  0.023340827            2 
 1348000    1.0262223   -7.5201522    373.97015  0.023118827  0.023333293            3 
 1349000    1.0433804   -7.4696092    375.59963  0.023202349  0.023325724            2 
 1350000     1.033595   -7.4561404    376.02849  0.023211635  0.023318334            3 
 1351000    1.0208354   -7.5081072    376.18196  0.023203921  0.023310959            4 
 1352000    1.0209349    -7.511526      375.372  0.023136835   0.02330355            2 
 1353000    1.0340856   -7.5240864    374.96939  0.023094936   0.02329613            4 
 1354000    1.0324498   -7.5042971    375.19208  0.023091586  0.023288617            2 
 1355000    1.0452486   -7.5128348    375.87539  0.023116568  0.023281146            4 
 1356000    1.0394006   -7.5100951    376.46426  0.023135709  0.023273816            7 
 1357000     1.041839   -7.5622184    375.06769  0.023032897  0.023266189            3 
 1358000     1.014697    -7.559711    375.64457  0.023051336  0.023258575            7 
 1359000     1.045736   -7.4926906    376.27096  0.023072784  0.023251065            5 
 1360000    1.0420862   -7.4864603    377.89472  0.023155314  0.023243688            3 
 1361000    1.0472392   -7.5477676    375.59504  0.022997492  0.023236403            3 
 1362000    1.0335508   -7.5453807    376.46619  0.023033908  0.023228876            3 
 1363000    1.0198369   -7.5031582    377.95469  0.023108015  0.023221289            5 
 1364000    1.0472816   -7.4879846    377.60627  0.023069787  0.023213775            5 
 1365000    1.0487419   -7.5034689    377.33365  0.023036243  0.023206181            5 
 1366000    1.0267391   -7.5416173    376.66998  0.022978891   0.02319859            6 
 1367000     1.051067   -7.5170048     377.9352   0.02303921  0.023191019            5 
 1368000    1.0204987   -7.5133991    376.28275  0.022921708  0.023183391            5 
 1369000     1.054491   -7.5148693    377.90963  0.023003995  0.023175757            2 
 1370000     1.028869   -7.5463135    377.50561  0.022962629  0.023168125            4 
 1371000     1.043173   -7.5402389    377.29045  0.022932801  0.023160364            3 
 1372000    1.0231318   -7.5638725    377.18129  0.022909456  0.023152711            3 
 1373000    1.0651658   -7.5882946    377.41219  0.022906785  0.023144881            7 
 1374000    1.0429106   -7.5895782    378.21438  0.022938766  0.023137097            4 
 1375000    1.0291881   -7.4793655    378.39944    0.0229333  0.023129303            7 
 1376000     1.022327   -7.5335047    378.99702  0.022952823  0.023121585            8 
 1377000    1.0260897   -7.4883933    378.42205  0.022901359  0.023113936            6 
 1378000    1.0050618   -7.5583085    378.59886  0.022895432  0.023106372            3 
 1379000     1.043932   -7.5258483    379.06937  0.022907262  0.023098858            3 
 1380000    1.0243053   -7.5241406    379.38121  0.022909494  0.023091451            3 
 1381000    1.0190177   -7.5146853    380.27923  0.022947093  0.023084039            4 
 1382000    1.0340067    -7.542223    380.43199    0.0229397  0.023076505            2 
 1383000    1.0224141    -7.529372     380.8443  0.022947957   0.02306902            3 
 1384000    1.0626876   -7.5348182    380.31554  0.022899538  0.023061644            8 
 1385000    1.0231557   -7.5221286    381.07067   0.02292844  0.023054192            2 
 1386000    1.0500402   -7.5063006    380.81212  0.022896352   0.02304674            3 
 1387000    1.0382737   -7.5133257    380.81063  0.022879754  0.023039344            3 
 1388000    1.0594352   -7.5256439    381.29572  0.022892394  0.023031817            4 
 1389000    0.9963529    -7.534278    380.32268  0.022817536  0.023024343           10 
 1390000    1.0034149   -7.5343656    380.27991  0.022798556  0.023016795            4 
 1391000    1.0472921   -7.5174627    382.10159  0.022891301  0.023009198            2 
 1392000    1.0506751   -7.4823525    382.12115  0.022876027  0.023001761            6 
 1393000    1.0272014   -7.4934331    382.77386  0.022898651  0.022994343            3 
 1394000    1.0250605   -7.5036807    382.97943  0.022894514  0.022986953            3 
 1395000    1.0243636   -7.5224579    381.89928  0.022813577  0.022979588            6 
 1396000    1.0332809   -7.5655464    381.66245  0.022783098  0.022972148            7 
 1397000    1.0320072   -7.5239685    381.53108  0.022758953  0.022964577            2 
 1398000    1.0441798   -7.5479233    382.32793  0.022790172  0.022957137            2 
 1399000    1.0078249   -7.5229455    382.44989  0.022781147  0.022949658            2 
 1400000    1.0249278   -7.5060386    382.88031  0.022790495  0.022942134            2 
 1401000    1.0144408   -7.5075438    382.13023  0.022729612  0.022934645            2 
 1402000    1.0369268   -7.4965772    384.11631   0.02283145  0.022927168            4 
 1403000    1.0094895   -7.5328662    383.26368  0.022764533  0.022919663            9 
 1404000    1.0378571   -7.4935292    383.68938  0.022773586  0.022912244            6 
 1405000    1.0239191   -7.5628918      382.562   0.02269051  0.022904645            6 
 1406000    1.0244613   -7.5482324    382.86272  0.022692195  0.022897005            4 
 1407000    1.0160289   -7.5543392    382.26193  0.022640484  0.022889414            6 
 1408000    1.0577091   -7.5620974    382.75589  0.022653639  0.022881791            4 
 1409000    1.0298073   -7.4792142    384.02342  0.022712528  0.022874131            5 
 1410000    1.0472721   -7.5154097    384.89618  0.022748001  0.022866544            3 
 1411000    1.0025275    -7.497228    384.15913  0.022688349  0.022858881            4 
 1412000    1.0229741   -7.5479752    383.61099  0.022639931  0.022851308            4 
 1413000    1.0258701   -7.5044689     384.7451  0.022690794  0.022843735            3 
 1414000    1.0187958   -7.5144072    383.75593  0.022616451  0.022836081            5 
 1415000    1.0208323   -7.5635184    384.21125  0.022627282   0.02282847            2 
 1416000    1.0090154   -7.5183606    385.38289  0.022680255  0.022820789            3 
 1417000    1.0151095   -7.5774686    384.75197  0.022627145  0.022813094            3 
 1418000    1.0163911   -7.5240695    385.53155  0.022657002  0.022805358            6 
 1419000    1.0194767   -7.5349431     385.5499  0.022642113  0.022797729            7 
 1420000      1.04464   -7.5078526     385.5358  0.022625341  0.022790092            3 
 1421000   0.99309307   -7.5450565    385.13035  0.022585641  0.022782489            6 
 1422000    1.0175877   -7.5771786    384.73518    0.0225466  0.022774942            3 
 1423000    1.0344619   -7.5435164    386.77924  0.022650459    0.0227674            4 
 1424000   0.99715592   -7.5268428    386.22781  0.022602283  0.022759844            5 
 1425000    1.0222975   -7.5740269    386.06272  0.022576767  0.022752384            6 
 1426000    1.0401401   -7.5963833    386.07566  0.022561691  0.022744825           15 
 1427000    1.0293493   -7.5774745    385.76855  0.022527946  0.022737251            9 
 1428000    1.0083052   -7.5752395    386.52423  0.022556269  0.022729761            3 
 1429000    1.0197952   -7.5670274    386.31922  0.022528529  0.022722208            4 
 1430000    1.0274144   -7.5878402    385.88271  0.022487337  0.022714638            4 
 1431000    1.0300798   -7.5280659    388.31998  0.022613556   0.02270713            5 
 1432000    1.0350193   -7.5561087    387.96443  0.022577073  0.022699686            3 
 1433000    1.0372196    -7.499552    386.80853  0.022494099  0.022692291            4 
 1434000   0.99747336   -7.5427406    387.98704  0.022546899  0.022684837            5 
 1435000    1.0388869   -7.5580172    387.69535  0.022514248  0.022677439            6 
 1436000    1.0350176    -7.511038    389.18385  0.022584949  0.022669986            3 
 1437000    1.0298296   -7.5423567    388.52717  0.022531151  0.022662628            5 
 1438000    1.0176701   -7.5721186    388.31432  0.022503148  0.022655231            2 
 1439000    1.0203774   -7.5493217    390.63219  0.022621739  0.022647896            7 
 1440000    1.0013668   -7.5462726    388.76868  0.022498187  0.022640459            2 
 1441000   0.99428814   -7.5958306    387.55696  0.022412501  0.022633033            3 
 1442000    1.0308772   -7.5807086    388.40786  0.022446131  0.022625501            1 
 1443000    1.0260208   -7.5413094    389.16437  0.022474265  0.022617964            2 
 1444000    1.0074991   -7.5908405    388.79136  0.022437174  0.022610437            3 
 1445000     1.009292   -7.5760879    389.37156  0.022455107  0.022602875            3 
 1446000    1.0379231   -7.5760922    389.48972  0.022446388  0.022595256            2 
 1447000    1.0031614   -7.5737769    389.33625  0.022422037  0.022587732            3 
 1448000    1.0081341   -7.5444614    390.13299  0.022452405  0.022580328            2 
 1449000    1.0348461   -7.5509013    390.96315  0.022484653  0.022572897            3 
 1450000    1.0263006   -7.5432466     389.7598  0.022399989  0.022565611            2 
 1451000    1.0174972   -7.5454824    390.79347  0.022443916  0.022558188            4 
 1452000    1.0305694   -7.5784043    389.94867  0.022379974  0.022550699            2 
 1453000    1.0273497   -7.5870307    389.93659  0.022363879  0.022543238            4 
 1454000    1.0054986   -7.5644447    390.58229  0.022385505  0.022535754            5 
 1455000   0.99702704   -7.5670528    391.68337  0.022433183  0.022528297            6 
 1456000     1.011847   -7.5230251    391.75996  0.022422159  0.022520788            1 
 1457000    1.0119896   -7.5820932      391.028  0.022364905  0.022513221            3 
 1458000    1.0136898   -7.5525925    391.34812  0.022367862  0.022505655            6 
 1459000    1.0045827   -7.5537697    391.52634  0.022362711  0.022498137            9 
 1460000    1.0126225   -7.5029804    393.07038  0.022435524  0.022490696            7 
 1461000    1.0150618   -7.5485381    391.66973  0.022340276  0.022483128            3 
 1462000    1.0086872   -7.5536052    391.33579  0.022305961  0.022475445            8 
 1463000    1.0117975    -7.519595    392.67979   0.02236727  0.022467925            3 
 1464000    1.0302395   -7.5504513    392.23444  0.022326642    0.0224604            5 
 1465000     1.025917   -7.5649519    392.33564  0.022317158  0.022452897            6 
 1466000    1.0215095   -7.5207853    392.42695  0.022307126  0.022445411            5 
 1467000    1.0185243   -7.5670046    391.33932  0.022230136  0.022437864            3 
 1468000    1.0032679   -7.5451348    394.27356   0.02238156  0.022430299            5 
 1469000    1.0245868   -7.5920767    392.38987  0.022259466  0.022422704            7 
 1470000    1.0288407   -7.5781691    392.12345  0.022229221  0.022415166            2 
 1471000    1.0293404   -7.5304823    393.16016  0.022272839  0.022407724            2 
 1472000    1.0082478   -7.5400303    393.94371  0.022302067   0.02240046            5 
 1473000     1.034104   -7.5153001    394.70622  0.022330064  0.022393244            5 
 1474000    1.0241953   -7.5510857    394.29658  0.022291756  0.022386119            7 
 1475000    1.0088041   -7.5435174    394.71014  0.022300008  0.022378837            4 
 1476000   0.99826342   -7.5672941    395.52976  0.022331175  0.022371548            2 
 1477000    1.0142423   -7.5084799    396.47698  0.022369498  0.022364402            2 
 1478000    1.0083849   -7.5483971    394.94311  0.022267879  0.022357237            4 
 1479000    1.0244596   -7.5196413    396.15407  0.022321054  0.022350165            2 
 1480000    1.0151726   -7.5873686    394.64977  0.022221271  0.022342971            4 
 1481000   0.99191615   -7.5738824    395.82246  0.022272252  0.022335721            6 
 1482000    1.0152928   -7.5972289    394.99142  0.022210494  0.022328494            4 
 1483000    1.0241952   -7.6038437    395.39678  0.022218295  0.022321195           13 
 1484000    1.0273593   -7.5830489    396.28712   0.02225332  0.022313928            4 
 1485000    1.0209515   -7.5723116    396.12617  0.022229303  0.022306726            6 
 1486000    1.0169967   -7.6085411    394.87829  0.022144364  0.022299564            5 
 1487000    1.0163677   -7.5312679    398.09569  0.022309779  0.022292317            4 
 1488000    1.0164746   -7.6395183     396.7219  0.022217848  0.022285193            3 
 1489000    1.0227898     -7.56716    398.03757   0.02227656  0.022278088            4 
 1490000   0.99914778   -7.5551866    396.93734  0.022200075  0.022270979            3 
 1491000    1.0003029   -7.5968971    397.27859  0.022204259  0.022263916            5 
 1492000    1.0179888   -7.5715502    398.18479   0.02223999  0.022256922            5 
 1493000    1.0045688   -7.5665132    397.65488  0.022195517  0.022249873            6 
 1494000   0.99881079   -7.5466875     398.6958  0.022238722  0.022242917            3 
 1495000    1.0057355   -7.5846034    397.17208  0.022138912  0.022235844            4 
 1496000    1.0059995    -7.583127    397.19403  0.022125336  0.022228799            7 
 1497000    1.0015209   -7.5355062    398.89127  0.022205036  0.022221841            3 
 1498000    1.0260842   -7.5278019     400.0378  0.022253994  0.022214763            2 
 1499000    1.0266296   -7.5569981    398.33828  0.022144668  0.022207811            4 
 1500000   0.99952118   -7.5445148    399.21327  0.022178515  0.022200897            3 
 1501000    1.0341386   -7.5490306     398.9992  0.022151854  0.022193907            8 
 1502000    1.0089031   -7.5533573    399.27286  0.022152289  0.022186849            8 
 1503000    1.0295929   -7.5956647    398.65402  0.022103239  0.022179772            4 
 1504000    1.0193641   -7.5357408    399.70941   0.02214702  0.022172537            6 
 1505000    1.0417726    -7.607765    398.46855  0.022063596  0.022165288            4 
 1506000    1.0215091    -7.564353    400.04287   0.02213606  0.022157986            2 
 1507000   0.98987335    -7.579968    399.01743  0.022064666  0.022150773            9 
 1508000    1.0126591   -7.5873858    398.80713  0.022038413   0.02214349            4 
 1509000    1.0242782   -7.6489882       398.66  0.022015684  0.022136173            5 
 1510000    1.0233012   -7.5798097    399.83674  0.022066045  0.022128948           11 
 1511000   0.97872207   -7.5893593    399.91254  0.022055622  0.022121679            7 
 1512000      1.01076   -7.5698635    401.10442  0.022106725  0.022114453            4 
 1513000    1.0224965   -7.5909539    400.40109  0.022053376  0.022107292            6 
 1514000    1.0095551   -7.5649748    399.62505  0.021996095  0.022100104            4 
 1515000   0.99887144   -7.5514807    399.18626   0.02195744  0.022092916            4 
 1516000    1.0105226   -7.5690203    401.03126  0.022044374  0.022085813            6 
 1517000    1.0151246   -7.6027408    401.05691  0.022031252  0.022078659            5 
 1518000    1.0076694   -7.5984539    402.13996  0.022076194  0.022071586            4 
 1519000    1.0177434   -7.5389569    401.78647  0.022042268   0.02206467            6 
 1520000    1.0015077   -7.5683501    402.08668  0.022044226  0.022057596            7 
 1521000    1.0147344   -7.6007452    402.63082  0.022059545  0.022050459            3 
 1522000    1.0151127   -7.5698106    402.63136  0.022045081  0.022043378            6 
 1523000   0.99955252   -7.6169073    401.08687  0.021946097  0.022036177            7 
 1524000    1.0267124   -7.5938217    400.99986  0.021926939  0.022028941            2 
 1525000    1.0089183   -7.5944589    401.65444   0.02194833  0.022021922            2 
 1526000    1.0027521   -7.5837157    402.64529  0.021988056  0.022014795           14 
 1527000     1.022135   -7.5958821    401.93535  0.021934913  0.022007564            5 
 1528000    1.0199887    -7.591786    402.40842  0.021946358  0.022000378            3 
 1529000    1.0178121   -7.6175092    401.62472  0.021889291   0.02199321            4 
 1530000    1.0020901   -7.5637871    403.84613  0.021995977  0.021985987            8 
 1531000    1.0023636   -7.6258869    401.67535  0.021863452  0.021978764            4 
 1532000    1.0030956    -7.591453    403.07073  0.021925083  0.021971553            6 
 1533000    1.0255151   -7.5800198    402.27746  0.021867659   0.02196446            3 
 1534000   0.99507844   -7.5936423    403.29473  0.021908666  0.021957321            2 
 1535000    1.0073792    -7.597852    405.25015  0.022000551   0.02195019            6 
 1536000    1.0080183   -7.5716841     403.7303   0.02190377  0.021943158            3 
 1537000   0.99223308   -7.5413808    403.80792  0.021893728  0.021936056            3 
 1538000    1.0205977   -7.5964902    403.67336  0.021872202  0.021928931            4 
 1539000    0.9928174   -7.6224943    402.71467  0.021806079  0.021921761            4 
 1540000    1.0057986    -7.595133    403.20373  0.021818384  0.021914669            3 
 1541000    1.0016914   -7.5711881    405.32394  0.021918881  0.021907711            4 
 1542000   0.98887232    -7.589255    403.50394  0.021806309  0.021900649            3 
 1543000    1.0005809   -7.5598149    405.68666  0.021910059  0.021893537            4 
 1544000    1.0052802   -7.5658306    405.08349  0.021863314   0.02188647            4 
 1545000   0.99736017   -7.5632842    405.63187  0.021878742  0.021879466            3 
 1546000    1.0148584    -7.583277    405.11704  0.021836839  0.021872355            3 
 1547000   0.98768056   -7.5870609     405.0657  0.021819958  0.021865172            3 
 1548000   0.98655806   -7.6225087    403.73397  0.021734172  0.021857969            6 
 1549000    1.0263158   -7.6218295    404.33288  0.021752361  0.021850695            8 
 1550000   0.99875202   -7.6018032    405.43515  0.021797589  0.021843541            7 
 1551000   0.97661971   -7.5629958    405.75357  0.021800643  0.021836441            7 
 1552000    1.0075542   -7.5839878    406.27159  0.021814411   0.02182934            5 
 1553000   0.99647913   -7.5902551    406.03627  0.021787737  0.021822305            5 
 1554000    1.0210208   -7.6074624     405.0573   0.02172122  0.021815218            4 
 1555000    1.0004628   -7.5679312    407.09093  0.021816234  0.021808083            3 
 1556000   0.99407797   -7.5808331    408.26176  0.021864919  0.021801073            3 
 1557000    1.0101709   -7.5870104    406.80685  0.021773006  0.021794028            6 
 1558000   0.99129537   -7.5922339     407.0927  0.021774321  0.021787051            4 
 1559000    1.0008442   -7.6282666    407.38768  0.021776122  0.021780126            4 
 1560000   0.97346184   -7.6590913    406.80987  0.021731296  0.021773165            6 
 1561000    0.9737006   -7.6620642    406.12857  0.021681004  0.021766073            6 
 1562000   0.99515533   -7.6453396    406.85913  0.021706099  0.021758973            5 
 1563000   0.99032018   -7.6649298    406.14559  0.021654169  0.021751877            7 
 1564000    0.9871727   -7.6268914    407.53567   0.02171439  0.021744713            4 
 1565000   0.99717309   -7.5920571    408.78558   0.02176707  0.021737754            6 
 1566000   0.98608286   -7.6354051    407.09963  0.021663454  0.021730767            2 
 1567000    1.0092974   -7.6122188    408.67392   0.02173335  0.021723771            7 
 1568000   0.98412725   -7.6142133    409.40693  0.021758447  0.021716846            7 
 1569000   0.98984536   -7.6235359    408.48675  0.021695706  0.021709891            4 
 1570000   0.99293718    -7.586543     410.0269  0.021763636   0.02170313            1 
 1571000    1.0044939   -7.5850627    410.09551  0.021753422    0.0216964            3 
 1572000   0.98923194   -7.5940427    409.37071  0.021701162  0.021689713            3 
 1573000   0.98068975   -7.6425802     409.3014  0.021683693  0.021682722            9 
 1574000    0.9955373    -7.616167    409.23592   0.02166645  0.021675848            6 
 1575000   0.99601669   -7.6093272    410.20782  0.021704117   0.02166901            5 
 1576000    1.0055863   -7.5982427     409.9548  0.021676967  0.021662258            3 
 1577000   0.99150219   -7.6033682      409.816  0.021655887  0.021655467            4 
 1578000    1.0021622   -7.6178321    410.65464  0.021686451  0.021648633            7 
 1579000   0.99213838   -7.6168708     410.1264  0.021644839  0.021641798            5 
 1580000   0.99512809   -7.6149293    409.69761  0.021608524  0.021635002            7 
 1581000   0.99479507   -7.5844452    412.68444   0.02175229  0.021628257            6 
 1582000   0.99185701   -7.6275114    410.05305  0.021599929  0.021621524            6 
 1583000   0.99042366   -7.5826906    411.03859  0.021638165  0.021614807            3 
 1584000   0.99661883   -7.6471796    412.55543  0.021704305  0.021608017            4 
 1585000    1.0213657   -7.6387152    411.12648  0.021615483  0.021601154            6 
 1586000   0.99971823    -7.626935    412.66864  0.021682884  0.021594256            2 
 1587000    1.0030854   -7.6156208    411.40278   0.02160275  0.021587508            2 
 1588000   0.99117647   -7.6149575    412.31191  0.021636855  0.021580659            8 
 1589000   0.99463646   -7.5985655    412.19869  0.021617301   0.02157396            2 
 1590000   0.98529477    -7.606602    411.95321  0.021590839  0.021567269            9 
 1591000    1.0208666   -7.6071388    412.67066  0.021614847  0.021560443            7 
 1592000   0.99085908   -7.6130593    412.57783  0.021596411  0.021553571            4 
 1593000   0.99441347   -7.6081405    411.97559  0.021551349  0.021546705            3 
 1594000    1.0040567   -7.6182539    412.82556  0.021582265  0.021539902            6 
 1595000   0.99652366   -7.6077892    412.42578  0.021547846  0.021533116            6 
 1596000   0.98944311   -7.6141524    412.92235  0.021560273  0.021526287           12 
 1597000    1.0024922   -7.6039821    412.95294  0.021548369  0.021519492           10 
 1598000   0.96749225   -7.6354706    413.46129  0.021561394  0.021512683            8 
 1599000   0.98089432   -7.5940544    414.36368  0.021594939  0.021505864            9 
 1600000   0.98388152   -7.6224772    412.50627  0.021484702  0.021499048            5 
 1601000   0.98280678   -7.6155454    413.80607  0.021538937  0.021492147            2 
 1602000    1.0026355   -7.6754884    412.05907  0.021434616  0.021485223            7 
 1603000     1.001179   -7.5951075    414.72842  0.021560014   0.02147833            7 
 1604000   0.98442455   -7.6498398    413.79497  0.021498076  0.021471455            6 
 1605000    1.0143388   -7.6356855    414.42264  0.021517271  0.021464675            4 
 1606000   0.98714085   -7.6211473    414.27294  0.021496105  0.021457865            8 
 1607000   0.97869615   -7.6081181    415.33447  0.021537776  0.021451082            6 
 1608000    0.9829289    -7.611736    415.95502  0.021556541  0.021444344            5 
 1609000    1.0018824   -7.6511281    414.50872  0.021468237  0.021437542            7 
 1610000   0.97824733   -7.6032598    415.55369   0.02150899  0.021430815            4 
 1611000   0.98122546   -7.6302716     416.7682  0.021558463  0.021424166            5 
 1612000   0.99133579   -7.6256939    415.11715  0.021459737   0.02141747            5 
 1613000    0.9757385   -7.6475698    415.47692   0.02146502  0.021410843            3 
 1614000   0.99476617   -7.6621595    415.13862  0.021434254  0.021404166            2 
 1615000    1.0048075   -7.6545778    415.75461  0.021452766  0.021397448            5 
 1616000   0.97449749   -7.6464973    414.90181  0.021395514  0.021390718            3 
 1617000    1.0082434    -7.701153    414.22157  0.021347226  0.021384055            5 
 1618000   0.98316342   -7.6352556    416.24627  0.021438312  0.021377283            8 
 1619000   0.98836526   -7.6541614    416.96768  0.021462203  0.021370559            5 
 1620000     0.982695   -7.6169548    417.37442  0.021469878  0.021363858            5 
 1621000    1.0055236   -7.6248233    416.06881  0.021389513  0.021357155            4 
 1622000    1.0010215   -7.6276092    417.09723  0.021429163  0.021350357            8 
 1623000   0.96045635   -7.6357791    416.30857  0.021375466  0.021343531            8 
 1624000   0.96105748   -7.6025231    416.63671  0.021379141  0.021336734            3 
 1625000    1.0007261   -7.6200655     416.1399  0.021340508  0.021329952            7 
 1626000    1.0034718   -7.6475009    416.46705   0.02134415   0.02132306            4 
 1627000   0.98187627   -7.6538112    416.32342  0.021323674  0.021316142            4 
 1628000   0.98568065   -7.6679283    415.68307  0.021277798  0.021309241            4 
 1629000   0.98283693    -7.594213    418.79974  0.021424174  0.021302425            3 
 1630000   0.98381369   -7.5775464    419.31225  0.021437232   0.02129579            4 
 1631000   0.96953074   -7.6169629    417.39317  0.021326035  0.021289115            3 
 1632000   0.98815991   -7.6414411    417.93824  0.021340801  0.021282478            3 
 1633000    0.9781812   -7.6418209    417.31817  0.021296089  0.021275745            7 
 1634000    0.9859139   -7.6519332    418.13534  0.021324732  0.021268973            5 
 1635000   0.95385751   -7.6150759    418.73721  0.021342365  0.021262272            3 
 1636000   0.98666677   -7.6044136    419.27064  0.021356492  0.021255693            3 
 1637000   0.97386002   -7.6510138    418.88202  0.021323662  0.021249093            4 
 1638000   0.97428143   -7.5933138    419.94355  0.021364649  0.021242398            2 
 1639000   0.97798127   -7.6383238    418.06182   0.02125594  0.021235745            4 
 1640000   0.98636544   -7.6498586    418.82251  0.021281632  0.021229051           17 
 1641000   0.98780989   -7.6032585    420.02898   0.02132993  0.021222343            4 
 1642000   0.97256677   -7.6675827    418.61801  0.021245331   0.02121561            6 
 1643000   0.97906133   -7.6150233    418.97006  0.021250257  0.021208931            3 
 1644000    0.9922143   -7.6661419    419.83098   0.02128097  0.021202248            5 
 1645000   0.99208876   -7.6034486    420.05007  0.021279132  0.021195542            8 
 1646000   0.97873567   -7.6080021    419.19982  0.021223158  0.021188863            6 
 1647000   0.98365885   -7.5897286    419.50249  0.021225587  0.021182171            3 
 1648000   0.99687915   -7.6048765    420.11245   0.02124355  0.021175476            2 
 1649000   0.99652021   -7.6359412    420.03433  0.021226719  0.021168795            4 
 1650000    1.0048562   -7.5851381    421.53883   0.02128984  0.021162196            4 
 1651000   0.97503508    -7.614598    420.99946   0.02124972  0.021155603           14 
 1652000   0.97826308   -7.5867038    421.66756  0.021270559  0.021148944            3 
 1653000   0.98654536   -7.6470382    420.17624  0.021182509  0.021142187            5 
 1654000   0.98393158   -7.6466607    420.14541  0.021168148  0.021135371            2 
 1655000   0.98909991    -7.670631    420.11878  0.021154017  0.021128571            5 
 1656000   0.97451452    -7.669169    420.36007  0.021153385  0.021121697            6 
 1657000   0.98959027   -7.6259077     421.5636  0.021201147  0.021114864            6 
 1658000   0.98575916     -7.68086    419.02349   0.02106069  0.021108001            7 
 1659000   0.98014127   -7.6487251    420.62013  0.021128196  0.021101082            4 
 1660000   0.96416523    -7.633107     420.9567  0.021132365  0.021094388            4 
 1661000   0.97282637   -7.6827955    419.96181  0.021069728  0.021087579           10 
 1662000   0.97096202    -7.674265    421.11923  0.021115084  0.021080643            4 
 1663000    1.0139538   -7.6938064    420.29961  0.021061315  0.021073761           10 
 1664000   0.97575944   -7.6908598      420.483  0.021057843  0.021066868            3 
 1665000   0.98944116   -7.6526674    421.63056  0.021102631  0.021060059            6 
 1666000   0.97778489   -7.6414578    422.44599  0.021130752  0.021053301            5 
 1667000   0.98442045   -7.6221759     423.3554  0.021163537  0.021046594            8 
 1668000   0.97659371   -7.6263543     422.6279  0.021114503  0.021040013            3 
 1669000   0.98605133   -7.6507287    422.80522  0.021110706  0.021033319            2 
 1670000   0.99138558   -7.6630344    421.88546  0.021052169  0.021026654            3 
 1671000   0.97919468   -7.6847155    423.30675   0.02111045  0.021019826            5 
 1672000   0.97368349   -7.6584317    422.99631  0.021082352   0.02101312            3 
 1673000   0.99977287   -7.7035723    422.42977   0.02104153  0.021006458            6 
 1674000   0.99711688   -7.6623365    423.02717    0.0210587  0.020999696            5 
 1675000    1.0023077   -7.6696759     423.6297  0.021076105  0.020993005           11 
 1676000    1.0033444   -7.6493577    423.23634  0.021043971   0.02098627            3 
 1677000    0.9810807   -7.6414653    423.72525  0.021055717  0.020979586            5 
 1678000   0.98523832   -7.6514312    421.21932  0.020918719  0.020972835           10 
 1679000   0.97742996   -7.7153345    422.79709  0.020984569  0.020966034            7 
 1680000   0.97488376   -7.7000322    423.08605  0.020986411  0.020959275            4 
 1681000   0.98114262   -7.7150574    423.01242  0.020970276  0.020952599            5 
 1682000   0.99615731    -7.644349    425.84402  0.021098099  0.020945927            2 
 1683000   0.97658092   -7.6432261    424.87369  0.021037517  0.020939273            3 
 1684000   0.99205094   -7.6068927    425.81909  0.021071808    0.0209328            9 
 1685000   0.96634789   -7.6457123    425.60682  0.021048804  0.020926299            3 
 1686000   0.95990904   -7.6614843    425.38971  0.021025588  0.020919815            3 
 1687000   0.97517022   -7.6443834    425.71083  0.021028988  0.020913292            7 
 1688000   0.98290752   -7.6336601     426.6815   0.02106445  0.020906827            4 
 1689000   0.98233991   -7.6953459    426.19003   0.02102773  0.020900308           14 
 1690000   0.99171075   -7.6631762    426.18297  0.021014939  0.020893718            6 
 1691000   0.95488818   -7.6758699     426.1858  0.021002651  0.020887153            4 
 1692000   0.98645099   -7.6222172    425.17902  0.020940653  0.020880578            5 
 1693000   0.96791343   -7.6854457    426.75773  0.021005992  0.020874043            5 
 1694000    0.9847185   -7.6595061    427.40473   0.02102542  0.020867536            3 
 1695000   0.99201055   -7.6577102    426.34956  0.020961138  0.020861049            6 
 1696000   0.97781074    -7.665202    427.90742  0.021025325  0.020854524            2 
 1697000   0.99615939    -7.692881    427.16893  0.020976671  0.020847966            5 
 1698000   0.98452522   -7.6754652    426.39931  0.020926547  0.020841352            5 
 1699000   0.99215414   -7.6653969    425.12541  0.020851747  0.020834752            6 
 1700000   0.96251126   -7.7019687    426.19986   0.02089215  0.020828079            3 
 1701000   0.97288665   -7.6587723    427.36464  0.020936931  0.020821481            5 
 1702000   0.95290697   -7.6608154    428.38976  0.020974822  0.020814869            3 
 1703000   0.96749895   -7.6370563    427.01109  0.020895042   0.02080827            2 
 1704000   0.98521932     -7.65457    426.41985  0.020853866   0.02080167            6 
 1705000   0.96575082   -7.7110743    425.41027  0.020792291  0.020794906            4 
 1706000   0.96869595   -7.7180887    425.98022  0.020807943  0.020788079            4 
 1707000   0.97749391   -7.6774124    426.92581  0.020841916  0.020781349            5 
 1708000   0.96474338   -7.6881984    426.47126  0.020807536  0.020774648            5 
 1709000   0.98000948   -7.6756145    426.83546   0.02081312  0.020767811            7 
 1710000   0.97201866   -7.6866744    426.88366  0.020803297  0.020761024            4 
 1711000   0.97047903    -7.670952    427.72334  0.020832035  0.020754299            7 
 1712000   0.97852993   -7.6739661    427.88804  0.020827884  0.020747548            9 
 1713000   0.95365555   -7.6755108    426.80334  0.020762957  0.020740844            4 
 1714000   0.98918452   -7.6502473    428.05758  0.020811823  0.020734123            6 
 1715000   0.96422685   -7.7324635    427.64574  0.020779676  0.020727446            5 
 1716000   0.98970291    -7.665799    427.60345  0.020765513  0.020720782            7 
 1717000   0.97421768   -7.7013609    428.52538  0.020798164  0.020714023           10 
 1718000    0.9957061   -7.7143913    427.17974  0.020720787  0.020707348            3 
 1719000   0.96784627   -7.6652669    429.10785  0.020802203  0.020700549            2 
 1720000   0.97787515   -7.6552947    430.42364  0.020853858  0.020693867            3 
 1721000   0.99881222   -7.6953618    427.53418   0.02070183  0.020687228            3 
 1722000   0.96764241    -7.651205    429.48647  0.020784285  0.020680509            8 
 1723000    0.9836118   -7.6353228    429.04909  0.020751068   0.02067388            9 
 1724000   0.97992825   -7.7154327    427.73296  0.020675414  0.020667192            4 
 1725000   0.97707266   -7.7221741    428.12313  0.020682277  0.020660415            5 
 1726000   0.96300139   -7.7065681    429.54517  0.020738952  0.020653633            4 
 1727000   0.97591555   -7.6558316    428.65165  0.020683828    0.0206469            7 
 1728000   0.96884547   -7.6652479    429.70424   0.02072262  0.020640254            7 
 1729000   0.98874685   -7.6902384    428.82174    0.0206681  0.020633545            3 
 1730000   0.98116599    -7.672333    429.19895  0.020674323   0.02062686            6 
 1731000   0.99199798    -7.662789    429.72114  0.020687519  0.020620218            6 
 1732000   0.97154475   -7.6590871    430.68396    0.0207219  0.020613601            4 
 1733000   0.97514462   -7.6661783     431.5986  0.020753924  0.020607101            2 
 1734000   0.97816932   -7.7008578    430.07159  0.020668569  0.020600559            3 
 1735000   0.98268687   -7.6797703    429.85197  0.020646108  0.020593989            2 
 1736000   0.96301913   -7.6785792    429.94475  0.020638669  0.020587374            6 
 1737000    0.9447555   -7.7142967    430.19035   0.02063857  0.020580778            3 
 1738000   0.97439174   -7.6619851    431.94467  0.020710811  0.020574222            6 
 1739000   0.95525032   -7.6415905    431.05364  0.020656203  0.020567739           10 
 1740000    0.9854621   -7.6632043    431.58919  0.020669981   0.02056128            3 
 1741000   0.98650711   -7.6875243    432.42254  0.020697996  0.020554836            7 
 1742000   0.99964701   -7.6614298    433.31823  0.020728962  0.020548338            2 
 1743000   0.96128171   -7.7099608    432.28828  0.020667828  0.020541748            6 
 1744000   0.95812314   -7.7235362    431.04106  0.020596381  0.020535113            3 
 1745000   0.95619221   -7.6821097    432.20349   0.02064009  0.020528528            6 
 1746000   0.95987427   -7.7232157    431.55697  0.020597412  0.020521978            2 
 1747000   0.97288957   -7.6950899    432.08152  0.020610643  0.020515451            6 
 1748000   0.97080026    -7.667058    432.79107  0.020632679   0.02050896            5 
 1749000   0.97334629   -7.6535899    433.21938  0.020641289  0.020502393            7 
 1750000   0.98460324   -7.7102452    431.88366  0.020565888  0.020495776            5 
 1751000    0.9666954   -7.7332472    432.92597  0.020603749  0.020489161            9 
 1752000   0.95616204   -7.6883537    432.63382  0.020578093  0.020482629            6 
 1753000   0.96198776   -7.6551738    433.90792  0.020626922  0.020476166            3 
 1754000   0.99044286   -7.6761739    433.06213  0.020574977  0.020469641            6 
 1755000    0.9838713   -7.7081924    433.42719  0.020580588  0.020463068            4 
 1756000   0.97536398   -7.7067157    433.30271  0.020562961  0.020456465            3 
 1757000   0.98285338   -7.7241831    432.96833  0.020535398  0.020449865           10 
 1758000   0.97077089   -7.6808463     434.6826  0.020604977  0.020443359            9 
 1759000   0.96030549   -7.6773033    433.80385  0.020551632  0.020436827           10 
 1760000   0.96423213   -7.7060052       433.53  0.020526989  0.020430281            5 
 1761000   0.97531697   -7.6551326    434.41124  0.020557034   0.02042379            6 
 1762000   0.96188098   -7.6820151    434.34457  0.020542214   0.02041721            3 
 1763000    0.9799534   -7.6760046    433.96893  0.020512807  0.020410666            4 
 1764000   0.97361329   -7.7042482      432.981  0.020454507  0.020404103            3 
 1765000   0.97432444   -7.7115139    433.01285  0.020444422  0.020397561            7 
 1766000   0.94531661    -7.689494    435.56587  0.020553316  0.020391039            7 
 1767000   0.95366651   -7.6894789     434.4234  0.020487804  0.020384573            9 
 1768000   0.95866048   -7.6573692    435.39706  0.020522109  0.020378098            5 
 1769000   0.97868113   -7.7345208    433.84415  0.020437354   0.02037158            4 
 1770000   0.95094106   -7.7090686    435.02071  0.020481201  0.020365037            5 
 1771000   0.96250166   -7.6831364    434.89337  0.020463644   0.02035851            4 
 1772000   0.95833177   -7.7191316    434.25365  0.020422011  0.020352035            7 
 1773000   0.96701037   -7.6892232    435.18968  0.020454488  0.020345516            7 
 1774000   0.94299004   -7.6772123    435.29088  0.020447712  0.020339082            6 
 1775000   0.97031205   -7.6991925    435.37734  0.020440251  0.020332605            5 
 1776000   0.96740458   -7.6556667    436.69564  0.020490599   0.02032613            4 
 1777000   0.95595037   -7.7203909    434.63548  0.020382456  0.020319626            2 
 1778000   0.95616401   -7.6908715     436.8731  0.020475867  0.020313062            4 
 1779000   0.95581348   -7.6814301    436.31597   0.02043826  0.020306528            9 
 1780000   0.94645472   -7.7011928    436.20626  0.020421642   0.02030003            9 
 1781000   0.94829554   -7.7116564    436.12172  0.020406219  0.020293471            3 
 1782000   0.97289587   -7.7393132    436.66394  0.020420124  0.020286964            6 
 1783000   0.95574879   -7.6745972    436.02579  0.020378846  0.020280457            4 
 1784000   0.95176173   -7.7144812    436.49915  0.020389534  0.020273934           11 
 1785000   0.95500938   -7.7182279     435.6007  0.020336167  0.020267368           16 
 1786000   0.95996225   -7.7289063     436.0374  0.020345157  0.020260704            6 
 1787000   0.96474797   -7.7174352    436.90183  0.020374083  0.020254152           10 
 1788000   0.97453159   -7.7490678    435.27345  0.020286794  0.020247625           19 
 1789000   0.96371025   -7.7137413    437.65401  0.020386343   0.02024104            8 
 1790000    0.9796327   -7.7210327    436.88139  0.020338985  0.020234472            8 
 1791000     0.955115   -7.6496573    438.34954   0.02039594  0.020227959            4 
 1792000   0.98021333   -7.7449923    436.88914  0.020316645  0.020221497            2 
 1793000   0.96654077   -7.6974392    437.28051  0.020323504  0.020214962            3 
 1794000   0.95954579   -7.7089764     437.6564  0.020329636  0.020208362           11 
 1795000   0.97246957   -7.7249423    437.20469  0.020297339  0.020201845            6 
 1796000   0.97629556   -7.7032112    437.16251  0.020284081  0.020195228            3 
 1797000   0.96999503    -7.689769    438.31779  0.020326368  0.020188664            6 
 1798000   0.95146406   -7.6954339      439.227  0.020357202  0.020182068            2 
 1799000   0.97804494    -7.674861    438.36937  0.020306159   0.02017557            8 
 1800000   0.96014587   -7.7577323    436.28943  0.020198585  0.020169036            4 
 1801000   0.98078373   -7.7197448     437.6317  0.020249477  0.020162344            3 
 1802000   0.95962896   -7.6622924    438.84994  0.020294577  0.020155739            5 
 1803000   0.96547947   -7.6987603    438.39424  0.020262259  0.020149187            5 
 1804000   0.98837299   -7.7179315    438.62383  0.020261633  0.020142625            5 
 1805000    0.9382203   -7.7519448    437.71381  0.020208394  0.020136046            2 
 1806000   0.96187637   -7.7534163    436.83192  0.020156512  0.020129439            7 
 1807000    0.9672002   -7.7199696    438.97966  0.020244404  0.020122897            3 
 1808000   0.97702884   -7.7353304    439.45622  0.020255173  0.020116332            8 
 1809000   0.97031014   -7.7157307    439.14055  0.020229434  0.020109773            8 
 1810000   0.95512328   -7.7556636    438.85158  0.020204953  0.020103249            9 
 1811000   0.97093362    -7.760666    438.77989  0.020190497  0.020096728            6 
 1812000   0.95989805   -7.7310645    439.15409  0.020196564   0.02009015           13 
 1813000   0.96798567   -7.7120977    440.31794   0.02023892  0.020083613            3 
 1814000   0.93994388   -7.7079014    440.90182  0.020254586  0.020077209            7 
 1815000    0.9218819   -7.6945346    440.06262  0.020204896  0.020070832            3 
 1816000    0.9397485   -7.7374539    441.05967  0.020239522  0.020064411            3 
 1817000   0.94338878   -7.7335979    440.96079  0.020223848   0.02005803            5 
 1818000   0.96041275   -7.7217035    440.13621  0.020174927  0.020051604            3 
 1819000   0.96890449   -7.7190709    441.48311  0.020225541  0.020045218           10 
 1820000   0.96677637   -7.7057971     441.4064  0.020210916  0.020038882            6 
 1821000   0.96975018   -7.7456614    440.77265  0.020170815  0.020032531            6 
 1822000   0.95805121   -7.7365399    441.84099  0.020208607  0.020026228            4 
 1823000   0.96465175   -7.7126322    442.09237  0.020209013  0.020019957            6 
 1824000   0.94283689   -7.7356047     442.1699  0.020201476  0.020013655            5 
 1825000   0.96421048   -7.7099295    441.45236  0.020157642  0.020007368            2 
 1826000   0.93504254   -7.7525374    441.30869  0.020140046  0.020001096            3 
 1827000   0.95682913   -7.7274956    443.05828  0.020208825   0.01999479            3 
 1828000   0.93825365   -7.7223614    442.45545  0.020170289  0.019988544            3 
 1829000   0.97214019   -7.7107466    441.94301  0.020135912   0.01998225            7 
 1830000   0.95059721   -7.7385956    441.78817  0.020117858  0.019975996            4 
 1831000   0.95669569   -7.7239669    443.63535  0.020190941  0.019969732            4 
 1832000   0.95165318   -7.7320891     443.0455  0.020153089  0.019963495            6 
 1833000   0.95830241   -7.7531093    442.98568  0.020139374   0.01995721            9 
 1834000   0.97151209   -7.6968136    444.37446  0.020191497   0.01995103            2 
 1835000   0.96005605   -7.7372586    443.32685  0.020132918  0.019944855            4 
 1836000   0.93895001   -7.7478913    442.69879  0.020093446  0.019938655            3 
 1837000    0.9472819   -7.7291774    443.39457  0.020114071  0.019932436            2 
 1838000   0.96391898   -7.7389703     445.0894  0.020179969  0.019926272            5 
 1839000   0.94179462   -7.7283167    444.97203  0.020163677  0.019920076            6 
 1840000   0.95577061   -7.7187017    445.14036  0.020160342  0.019913932            8 
 1841000   0.97735351   -7.7390386    444.84543  0.020136042  0.019907789            4 
 1842000   0.96558302   -7.7397176    445.71945  0.020164651  0.019901609            2 
 1843000   0.94265633   -7.7042292    445.87751  0.020160857  0.019895436            7 
 1844000   0.96673907   -7.7153994    444.84667  0.020103338  0.019889354            7 
 1845000   0.94356963   -7.7699205    445.08781  0.020103334   0.01988322            4 
 1846000   0.94697399   -7.7125922    446.02861  0.020134914   0.01987713            4 
 1847000   0.98234345   -7.7017109    447.23518  0.020178451  0.019871116           11 
 1848000   0.93527023   -7.7380319    445.84134  0.020104678  0.019865079            5 
 1849000    0.9297905   -7.7222447     445.9289  0.020097751  0.019859008            7 
 1850000   0.93991749   -7.7531609    446.71074  0.020122105  0.019852998           13 
 1851000   0.97870525   -7.7197078    447.04708  0.020126377  0.019846935            3 
 1852000   0.96913261   -7.7454065    446.55613  0.020093419  0.019840892            5 
 1853000   0.95120372   -7.7083845    446.62946  0.020085872  0.019834902            6 
 1854000    0.9422567   -7.7404217    446.49986  0.020069213  0.019828839            5 
 1855000    0.9546101   -7.7462539    446.79024   0.02007144  0.019822758            3 
 1856000   0.96664866    -7.749343    447.53244   0.02009395  0.019816676            4 
 1857000   0.94910988   -7.7276042    447.82841  0.020096411   0.01981066            2 
 1858000   0.97233283   -7.7275013    447.30512  0.020062124  0.019804592            4 
 1859000   0.97589508   -7.7112949    447.73305  0.020070515  0.019798521            5 
 1860000   0.96411806   -7.7116506     447.5602   0.02005198  0.019792515            5 
 1861000   0.96207371   -7.7542964    447.06348  0.020018963    0.0197865            3 
 1862000   0.97199744   -7.7231751    448.53365  0.020074009  0.019780463            5 
 1863000   0.95084272   -7.7302299    448.08692  0.020043251  0.019774501            2 
 1864000   0.95536156   -7.7609058    447.92099   0.02002508  0.019768492            5 
 1865000   0.94312929   -7.7151055    448.55205   0.02004254  0.019762544            3 
 1866000    0.9499605   -7.7481404    447.71437  0.019994389  0.019756507            3 
 1867000   0.95514053   -7.7525772    448.21696  0.020006113  0.019750421            3 
 1868000   0.95750583   -7.7668641    448.46967  0.020006677  0.019744356            4 
 1869000   0.96760854   -7.7635213    448.54591  0.019999372   0.01973826            4 
 1870000   0.95131963   -7.7950897    445.32846  0.019845297  0.019732181            7 
 1871000   0.95844721   -7.7512075    447.58671  0.019935271  0.019726067           10 
 1872000   0.95712074    -7.767961    447.80799  0.019934473   0.01971997            8 
 1873000   0.95966078   -7.7635408    448.46648  0.019953127  0.019713871           11 
 1874000   0.97644553    -7.728145    448.78915  0.019956828   0.01970768           10 
 1875000    0.9630843   -7.7714138    448.15584  0.019918038  0.019701595            8 
 1876000   0.98104583   -7.7504378    449.37845  0.019961729  0.019695461            6 
 1877000   0.96381994   -7.7500454    448.75447  0.019923392  0.019689392            4 
 1878000   0.96322852   -7.7629345    448.74111   0.01991219  0.019683273           10 
 1879000   0.97087512   -7.7796621    447.79508  0.019859636  0.019677066            6 
 1880000   0.94881226     -7.75573    448.02935  0.019859457  0.019670882            2 
 1881000   0.95993512   -7.7767037    448.17358  0.019855289  0.019664697            5 
 1882000   0.95850404   -7.7855432    448.19259  0.019845581  0.019658494            8 
 1883000   0.92644634   -7.7789759    449.83305  0.019907641  0.019652302            3 
 1884000   0.96224086   -7.8192381     448.0823  0.019819634  0.019646133            5 
 1885000   0.96483434   -7.8410816    446.53883  0.019740886  0.019639862            3 
 1886000   0.93548808   -7.7797546    447.80652  0.019786432  0.019633598            4 
 1887000   0.93786647   -7.7599207    449.28866    0.0198414  0.019627432            3 
 1888000     0.961432   -7.7759705    448.19662   0.01978269  0.019621296            4 
 1889000   0.95326414   -7.7451248    449.69673  0.019838395  0.019615192            3 
 1890000   0.96429541   -7.7799033    450.78282  0.019875786  0.019609123            9 
 1891000   0.93878858   -7.7521726    450.38755  0.019847856  0.019603101            7 
 1892000   0.92965114   -7.7782804    450.73039  0.019852466  0.019597128            8 
 1893000   0.96863807   -7.7561796    450.38581   0.01982681  0.019591112           11 
 1894000   0.95191671   -7.7869702    449.58827  0.019781251  0.019585055            7 
 1895000   0.96024113   -7.7411546    451.11845  0.019838102  0.019579084            9 
 1896000    0.9599273   -7.7646828    450.22605  0.019788416  0.019573061            7 
 1897000    0.9415557    -7.728466    451.64855  0.019840474  0.019567044           16 
 1898000   0.93303031   -7.7638698    450.93506  0.019798694  0.019561038           12 
 1899000   0.92915266   -7.7862505    450.31547  0.019761079  0.019554961            6 
 1900000    0.9367125   -7.8036146    449.99423  0.019736589  0.019548832           11 
 1901000   0.95960323   -7.7957429    449.90972  0.019722502  0.019542643           10 
 1902000   0.94929621   -7.8168239    451.57682  0.019785175   0.01953652            4 
 1903000   0.93996345   -7.7815351    452.03068  0.019794652  0.019530373            5 
 1904000   0.93736907   -7.7778531    451.92446  0.019779607  0.019524237            5 
 1905000   0.93069685   -7.7881516    451.14562  0.019735154  0.019518283            9 
 1906000   0.94680693   -7.7544024     453.5378   0.01982939  0.019512332            3 
 1907000   0.95181692   -7.7676151    453.16002  0.019802483  0.019506441            7 
 1908000   0.93134246   -7.7175813     454.0873  0.019832604  0.019500579            8 
 1909000   0.94472064   -7.7572659    453.46969  0.019795255   0.01949466            4 
 1910000   0.95037492   -7.8098198    452.49714  0.019742458  0.019488655           10 
 1911000    0.9550613   -7.7905296    451.95951  0.019708683  0.019482679            5 
 1912000   0.93719249   -7.7537401    451.90188  0.019695863  0.019476684            4 
 1913000   0.95644737    -7.765467    453.15478  0.019740146  0.019470725            3 
 1914000   0.95262114   -7.8068824    452.34701  0.019694663  0.019464771            9 
 1915000   0.96203389   -7.7846305    452.62595  0.019696517  0.019458694            6 
 1916000   0.94321649   -7.8000796    451.94263  0.019656517   0.01945263            5 
 1917000   0.95167073   -7.8187462    452.17148  0.019656211  0.019446593            3 
 1918000    0.9628837   -7.7598451    452.90911  0.019678011  0.019440529            3 
 1919000   0.95698889   -7.7748502    452.66538  0.019657173  0.019434478            9 
 1920000    0.9303666   -7.7886302     453.5421  0.019684987  0.019428437            5 
 1921000   0.92861117    -7.784331    451.90137  0.019603565  0.019422357           22 
 1922000   0.97554257   -7.7889213    452.53402  0.019620795  0.019416236            8 
 1923000   0.93439185   -7.7936746    452.50364  0.019609275  0.019410107            5 
 1924000    0.9540491   -7.7764611    453.70224  0.019650998  0.019403955            5 
 1925000   0.96260573   -7.8089428    452.42763  0.019585612  0.019397884            5 
 1926000   0.94386042   -7.7835076    453.42217  0.019618474  0.019391811            4 
 1927000   0.93921057   -7.7882605    453.69763  0.019620205  0.019385743            5 
 1928000   0.93306481    -7.802438    454.07739  0.019626443  0.019379658            8 
 1929000   0.95656093   -7.8169746    452.84969  0.019563232  0.019373537            8 
 1930000   0.93569714   -7.7741299    453.99813  0.019602683  0.019367475            5 
 1931000   0.93856832     -7.79844    454.04063  0.019594365  0.019361382            4 
 1932000   0.93277543   -7.7896408    453.95376  0.019580476   0.01935527           15 
 1933000   0.94097394   -7.8293153    453.95877  0.019570563   0.01934915            9 
 1934000   0.94543134   -7.8293103    452.98507  0.019518488  0.019342993            9 
 1935000   0.93080147    -7.807567    453.79168  0.019543139  0.019336826            4 
 1936000    0.9299438   -7.7709266    455.06509  0.019587857  0.019330723            6 
 1937000   0.94657293   -7.7423179    455.02302  0.019575934  0.019324686            5 
 1938000   0.97075128   -7.7788365    454.17454  0.019529349  0.019318618            6 
 1939000   0.96427898   -7.7859327    455.45073  0.019574125  0.019312568            3 
 1940000   0.95152874   -7.7502421    455.47274   0.01956498  0.019306506            6 
 1941000   0.93610236   -7.7837229    455.46118  0.019554404  0.019300461            4 
 1942000   0.92100131   -7.7720421    455.90969  0.019563581  0.019294345            5 
 1943000   0.95252656   -7.7652583    456.03961  0.019559084  0.019288276            4 
 1944000    0.9377139   -7.8440238    453.22991   0.01942858  0.019282161           10 
 1945000   0.93155062    -7.812438    455.43851  0.019513218     0.019276            5 
 1946000   0.93438394   -7.7712976    455.35299  0.019499529  0.019269861            6 
 1947000   0.95380069   -7.7881584    455.22573  0.019484067  0.019263779            6 
 1948000   0.92918981   -7.8113542    455.78697  0.019498074  0.019257702            7 
 1949000   0.95215536   -7.8275786    455.97233  0.019495995  0.019251658            7 
 1950000   0.94707985   -7.8057085    456.02989  0.019488457  0.019245577            7 
 1951000   0.93453952   -7.8085981    455.98716  0.019476643  0.019239566            4 
 1952000   0.95627736   -7.7781367    457.75537  0.019542152  0.019233574            6 
 1953000   0.94333587   -7.7634921    455.82876  0.019449939  0.019227614            3 
 1954000   0.95251113    -7.776271    458.60656  0.019558451  0.019221655            4 
 1955000   0.94366433   -7.8117219    456.42561  0.019455482  0.019215653            4 
 1956000   0.92805247   -7.8319699    455.86855  0.019421803  0.019209661            5 
 1957000   0.94471892   -7.7614586    457.31516  0.019473478  0.019203666            6 
 1958000   0.95882722   -7.7542086    458.51715   0.01951469  0.019197763            6 
 1959000   0.92891951   -7.7869503    457.60396  0.019465882  0.019191807            4 
 1960000   0.94114751   -7.7838117    457.37792   0.01944634  0.019185876            3 
 1961000   0.93474777   -7.7613597    458.34943  0.019477708  0.019179958            4 
 1962000   0.94139799    -7.790108    458.09756  0.019457083  0.019174044            3 
 1963000   0.94571387   -7.8090311     457.5452  0.019423722  0.019168141            3 
 1964000   0.93307781   -7.7571155    459.03291  0.019476957  0.019162244            3 
 1965000   0.92046634   -7.7669138    459.99614  0.019507894  0.019156406            7 
 1966000   0.95352295   -7.8047802    458.11857  0.019418387  0.019150518            6 
 1967000   0.93704196   -7.8134464     459.1023  0.019450191  0.019144646            8 
 1968000   0.95778203   -7.7994061    458.86759  0.019430369  0.019138773            5 
 1969000   0.93182803    -7.811196     458.9576   0.01942431   0.01913285            3 
 1970000    0.9273378   -7.7778771    458.20269  0.019382517  0.019126918            5 
 1971000   0.97030288    -7.810077     456.5488  0.019302757  0.019120912            5 
 1972000   0.95264744   -7.8191989    457.05829  0.019314498  0.019114904            6 
 1973000   0.92565722   -7.8025023    458.51248   0.01936613  0.019108953            4 
 1974000   0.96550371   -7.7842303    460.75908   0.01945116  0.019102993            5 
 1975000   0.95599854   -7.7581348    459.49416  0.019387939  0.019097038            3 
 1976000    0.9519654   -7.8329295     457.3889  0.019289343  0.019091043            3 
 1977000   0.91604426   -7.8153311    458.74283  0.019336656  0.019084994            5 
 1978000   0.94341786   -7.7806625    457.83733  0.019288732  0.019078905            8 
 1979000   0.94775613    -7.786108    459.00457  0.019328136  0.019072844            5 
 1980000   0.93589139   -7.8130382    458.63141  0.019302669  0.019066766            3 
 1981000   0.95266656   -7.8264984    458.20308  0.019274907  0.019060637           10 
 1982000   0.94504016   -7.7906328    459.95169  0.019338702  0.019054503            8 
 1983000   0.93169975   -7.8461712    457.74815  0.019236349  0.019048395            4 
 1984000   0.94579472   -7.7806509    459.57431  0.019303356  0.019042289            3 
 1985000   0.92157673   -7.8051422    458.52112  0.019249417  0.019036163           10 
 1986000   0.92636164   -7.7541897    459.75771  0.019291612  0.019030063            9 
 1987000   0.93933315   -7.7654671     459.7218  0.019280397  0.019024014            6 
 1988000   0.93101922   -7.7837379    459.15284  0.019246849  0.019017925            6 
 1989000   0.93247758   -7.7739605    459.64262  0.019257693  0.019011773            4 
 1990000   0.93749492   -7.7786901    458.69952  0.019208523  0.019005586            4 
 1991000   0.93440714    -7.825064    458.40842  0.019186691  0.018999472            2 
 1992000   0.92064271    -7.774477    459.17756  0.019209235   0.01899333            6 
 1993000   0.92773656   -7.8180101    458.80053  0.019183832  0.018987108            6 
 1994000   0.92766578   -7.8209862    458.29201  0.019152959  0.018980838            3 
 1995000   0.93067344    -7.820626     458.2707  0.019142469  0.018974545            6 
 1996000   0.94131075   -7.8415973    457.61465  0.019105488  0.018968303           11 
 1997000   0.91513548   -7.8320636    458.44849  0.019130717  0.018962051            8 
 1998000   0.92754831   -7.7865894    460.20947  0.019194589   0.01895587            8 
 1999000   0.93430191   -7.8638205    457.54108  0.019073748  0.018949625            4 
 2000000   0.91790724   -7.8243681    459.25373  0.019135572  0.018943405            6 
 2001000   0.94543657   -7.7880743    459.18449  0.019123126  0.018937187            7 
 2002000   0.92705131   -7.7943086    460.16349  0.019154325   0.01893101            4 
 2003000   0.95103588   -7.8199107    459.17149   0.01910349  0.018924844            6 
 2004000   0.94045201    -7.805919      459.495   0.01910741  0.018918634            2 
 2005000   0.91583386   -7.8542688    459.10988  0.019081874   0.01891241            6 
 2006000   0.93474496   -7.8461552    459.52277  0.019089514  0.018906176            5 
 2007000   0.91399714   -7.8183205    459.40731  0.019075208   0.01890001            5 
 2008000   0.93488399   -7.8003136    459.52097  0.019070425  0.018893827            4 
 2009000   0.93578064    -7.788511    461.66248  0.019149763  0.018887701            7 
 2010000   0.92955165   -7.7788188    460.68376  0.019099659  0.018881519            7 
 2011000   0.94151256   -7.8070695    458.15893  0.018985535  0.018875289            8 
 2012000   0.94063114   -7.8068635    461.13256  0.019099261  0.018869059            4 
 2013000   0.93289442   -7.7681089    461.44432  0.019102679  0.018862898            3 
 2014000    0.9377157   -7.8100422    461.04986  0.019076873   0.01885674            7 
 2015000   0.94112209   -7.7770553    460.33985  0.019038042  0.018850534            5 
 2016000   0.91084004   -7.8177854    461.03854  0.019057479  0.018844336            7 
 2017000   0.90841348   -7.7901952    461.27654  0.019057864  0.018838119           18 
 2018000   0.93224509   -7.8398528    458.56962  0.018936638  0.018831927            5 
 2019000   0.93111855   -7.8406059     460.2926  0.018998374   0.01882565            2 
 2020000   0.94913229   -7.8181106    459.68449  0.018963882   0.01881937            5 
 2021000   0.94068696   -7.8130699    460.87481   0.01900358  0.018813094            5 
 2022000   0.93857396   -7.8479973    460.03928  0.018959746  0.018806863            7 
 2023000   0.96308297   -7.8358254    461.10298  0.018994191  0.018800687            6 
 2024000   0.93502753   -7.8135553    460.54245  0.018961728  0.018794521            2 
 2025000   0.95521727   -7.7902924    461.55905    0.0189942  0.018788348            6 
 2026000   0.91453549   -7.8335376    461.88495  0.018998229  0.018782217           10 
 2027000   0.91418383   -7.7924688     461.9126  0.018989993  0.018775986            5 
 2028000   0.92673318   -7.8356692    460.82501  0.018935939  0.018769754            7 
 2029000    0.9223143   -7.8385314    460.24612  0.018902831  0.018763474           12 
 2030000   0.90915664   -7.8411996    461.46408  0.018943517  0.018757224            7 
 2031000   0.93703877    -7.831101    461.77959  0.018947136  0.018750933            4 
 2032000   0.92620241   -7.8333444    461.18666  0.018913495   0.01874467            7 
 2033000   0.91629508   -7.8464444    461.55579  0.018919322  0.018738467            6 
 2034000   0.93835874   -7.8316964    462.50475    0.0189489  0.018732248            4 
 2035000   0.91014006   -7.7929511    463.02328  0.018960822  0.018726081            4 
 2036000   0.91507306   -7.8258566    461.15523  0.018875051   0.01871991            7 
 2037000   0.91741304   -7.8205841    461.73187  0.018889375  0.018713727            5 
 2038000   0.91759197   -7.8092159    461.98213  0.018890339  0.018707557            3 
 2039000   0.94740888   -7.8471118    462.06697  0.018884542    0.0187013            3 
 2040000   0.92633921   -7.8308292    461.78706   0.01886385  0.018695068            4 
 2041000   0.92674559   -7.8276205    463.08398  0.018907561  0.018688859            7 
 2042000   0.92988788   -7.8117538    462.88216  0.018890065  0.018682667            7 
 2043000   0.93040971   -7.8454844     461.8209  0.018837531  0.018676419            5 
 2044000   0.92412117   -7.8399753    462.84068  0.018869891  0.018670126           10 
 2045000   0.91760976   -7.8883132    460.42215  0.018762109  0.018663833            4 
 2046000   0.90530828   -7.8590289    462.68805  0.018845228  0.018657558            7 
 2047000   0.91808087   -7.8200245    462.75597  0.018838787  0.018651364            6 
 2048000   0.92348174   -7.8646879    460.92063  0.018754908  0.018645094            2 
 2049000   0.90067375   -7.8735303    461.89985   0.01878558  0.018638794            8 
 2050000    0.9316271    -7.847963    462.04891  0.018782476  0.018632417           10 
 2051000   0.92383929   -7.8507081    462.47433  0.018790603  0.018626129            5 
 2052000   0.91603867   -7.8309552    462.65773  0.018788894  0.018619891            3 
 2053000   0.92526441   -7.8401219    463.57026  0.018816783   0.01861365            5 
 2054000    0.9170655   -7.8646232    462.86092  0.018778843  0.018607355            5 
 2055000   0.92378967   -7.8875331    461.05375  0.018696421  0.018601002            5 
 2056000     0.927974    -7.797551     463.3641   0.01878097   0.01859468            6 
 2057000   0.94291736   -7.8489181    462.78987  0.018748577  0.018588394            8 
 2058000   0.90619984   -7.8272004    463.98836  0.018787996  0.018582145            6 
 2059000   0.93808221   -7.8483555    462.54479  0.018720446  0.018575904            9 
 2060000   0.90862136   -7.8473739    464.19342  0.018778051  0.018569644            4 
 2061000   0.93057735    -7.832115    463.99013   0.01876072  0.018563422            4 
 2062000   0.91757744   -7.8476144     462.2451  0.018681099  0.018557204            6 
 2063000    0.9069633   -7.7978357    463.93763  0.018740412  0.018550923           21 
 2064000   0.93196016   -7.8402229    464.22381  0.018742887  0.018544678           10 
 2065000    0.9043559   -7.8305128    463.62772  0.018709755   0.01853849            7 
 2066000   0.92414522   -7.8169163    464.38061  0.018731067   0.01853227            4 
 2067000   0.93744315   -7.8551067    463.98967  0.018706244  0.018526039            9 
 2068000   0.92196448   -7.8583791    463.74505  0.018687341  0.018519797            7 
 2069000   0.91718057   -7.8516039    463.46992  0.018667227  0.018513571            7 
 2070000   0.91025191   -7.8496387    463.00978  0.018639685  0.018507358            3 
 2071000   0.91536583   -7.8140374    464.93468   0.01870814  0.018501118            2 
 2072000   0.92583955   -7.8929392    463.90713  0.018657784   0.01849485            5 
 2073000   0.90148078   -7.8519587    464.22121  0.018661409  0.018488567            5 
 2074000   0.90298628   -7.8900539    463.11824  0.018608094  0.018482225           15 
 2075000   0.91668523   -7.8780478    463.82208  0.018627393  0.018475895            5 
 2076000   0.93353671   -7.8903512     463.1956  0.018593272  0.018469544            9 
 2077000   0.91077933   -7.8540422     464.1782  0.018623744   0.01846321            9 
 2078000   0.90198535   -7.8474798    465.33567    0.0186612    0.0184569            4 
 2079000   0.90857967   -7.8118245    465.24191  0.018648465  0.018450714            3 
 2080000   0.91936694   -7.8245776    465.62221  0.018654736   0.01844453           12 
 2081000   0.91920029   -7.8579351    464.87087  0.018615685  0.018438328            6 
 2082000   0.93361979   -7.8338557     465.1125  0.018616414  0.018432079            6 
 2083000   0.91345864   -7.8555041    464.59556  0.018586796  0.018425799            6 
 2084000   0.90260639   -7.8609409    464.70863  0.018582399  0.018419502            5 
 2085000   0.93155528    -7.861342    465.29414  0.018596888  0.018413224           18 
 2086000   0.93259163   -7.8539018    465.08467  0.018579605  0.018406956           13 
 2087000   0.91271633    -7.847709    465.78578  0.018598697  0.018400736            6 
 2088000   0.90536096   -7.8231077    465.79422  0.018590127   0.01839456            3 
 2089000   0.89134097   -7.8207258    465.05147  0.018551599   0.01838833            5 
 2090000   0.93848879   -7.8423223    465.99646  0.018580401  0.018382113            6 
 2091000   0.89785727   -7.8516753    465.42104  0.018548583  0.018375837           10 
 2092000   0.92012623   -7.8560726    464.50196  0.018503105  0.018369581            4 
 2093000   0.93320625   -7.8407432     466.0257  0.018554933  0.018363334            9 
 2094000    0.9163815   -7.8796234    464.27285  0.018476315   0.01835708            8 
 2095000   0.89970232   -7.8704752    464.26025  0.018466995  0.018350777           12 
 2096000   0.89970323   -7.8447861    466.19642  0.018535163    0.0183445            5 
 2097000   0.92366262   -7.8492729    466.12483  0.018523479  0.018338205           10 
 2098000   0.92569028   -7.8886757    466.18766  0.018517146  0.018331928            3 
 2099000   0.91236736   -7.8756653    464.62775  0.018446393  0.018325661            6 
 2100000   0.92422747   -7.8400598    466.00882  0.018492414  0.018319353            7 
 2101000   0.92935558   -7.8820957     464.0876  0.018407409  0.018313008            5 
 2102000   0.92684616   -7.8894122    464.38805  0.018410563  0.018306683            3 
 2103000   0.91606672   -7.8795092    465.61714  0.018450513  0.018300328            9 
 2104000   0.90485376   -7.8474912     465.9402  0.018454539  0.018293985            5 
 2105000   0.92966637    -7.875815    465.10779  0.018412818  0.018287657            4 
 2106000    0.9365914    -7.883686    465.69468  0.018427298  0.018281292            8 
 2107000   0.92304453   -7.9087508    466.18705  0.018438026   0.01827495            5 
 2108000     0.919644   -7.8647879    465.44066  0.018399773  0.018268599            9 
 2109000   0.89890518   -7.8879638    465.56616  0.018396008   0.01826232            6 
 2110000    0.9084848   -7.8797118    466.43641  0.018421659  0.018256032           10 
 2111000   0.93933217   -7.8600466    466.73021  0.018424531    0.0182498            7 
 2112000   0.90886641   -7.8679004    465.95778  0.018385329  0.018243538            3 
 2113000   0.93838038   -7.8837152    466.07225  0.018381143  0.018237266            6 
 2114000   0.90523248   -7.8205982    467.56095  0.018431132  0.018231039            6 
 2115000    0.9037558   -7.8405528    466.41129  0.018377119  0.018224818            4 
 2116000   0.90585788     -7.86705    466.91391  0.018388229    0.0182186            9 
 2117000   0.92399176   -7.8705632    466.79236  0.018374758  0.018212337           14 
 2118000   0.89822935   -7.8897053    466.43209  0.018351908   0.01820605            7 
 2119000   0.90870894   -7.8817136    466.88222  0.018360949  0.018199779           17 
 2120000   0.90230125   -7.8928549    466.40555  0.018333552  0.018193512            9 
 2121000   0.92923452   -7.8920926    467.54207  0.018369561  0.018187227           12 
 2122000   0.90944477   -7.8776312    468.03951   0.01838044  0.018180969           13 
 2123000   0.91260207   -7.8688278    467.08158  0.018334181  0.018174721            6 
 2124000   0.91575374   -7.8607729    468.49453  0.018380984  0.018168482            8 
 2125000   0.93246594    -7.897139     466.7165  0.018302608  0.018162249           11 
 2126000   0.92329885   -7.9024922    467.18622  0.018312411  0.018156001            3 
 2127000   0.91089936   -7.8533054    468.50078  0.018355304  0.018149796           10 
 2128000   0.91408499   -7.8914216    467.52047  0.018308289  0.018143535           19 
 2129000   0.90625292   -7.8775585    467.26335  0.018289626  0.018137316            9 
 2130000    0.9096065   -7.8993953    467.83423  0.018303374  0.018131046            7 
 2131000   0.90519727   -7.8575217     468.0382  0.018302761  0.018124799            8 
 2132000   0.92980981   -7.8505125    468.87456  0.018326867  0.018118604            5 
 2133000    0.9081728   -7.8576067    470.00101  0.018362284  0.018112433           20 
 2134000   0.92000314   -7.8827354      467.353  0.018250273  0.018106206            4 
 2135000   0.91753371   -7.8697942    469.12282  0.018310805  0.018099995            4 
 2136000   0.93339539   -7.9212027     468.2253  0.018267217  0.018093803           11 
 2137000   0.89573238   -7.9024435    468.13366  0.018255095  0.018087573            5 
 2138000   0.90778502    -7.908066    468.19626  0.018248997  0.018081291           13 
 2139000   0.91278367   -7.9055211    468.55016  0.018254253  0.018075018            5 
 2140000   0.90162837   -7.8980159    466.88127  0.018180735  0.018068723            4 
 2141000   0.90555633   -7.9242563    468.03551  0.018217169  0.018062443            5 
 2142000   0.90972473   -7.9474609    467.39426  0.018183717  0.018056178            4 
 2143000   0.90983833   -7.9482622    467.91735  0.018195573  0.018049861            4 
 2144000   0.90545724   -7.9423831    467.99351  0.018190046  0.018043478            5 
 2145000   0.89635002   -7.9147937    467.13189  0.018148092  0.018037149           13 
 2146000   0.92453585    -7.908511     468.1592  0.018179528  0.018030823            7 
 2147000   0.90136375   -7.9361635    468.77585  0.018194995  0.018024576            4 
 2148000   0.91954385   -7.9293713    468.66304  0.018182148  0.018018297            6 
 2149000   0.90487656   -7.8811514    468.16839  0.018154506  0.018012038            7 
 2150000   0.90045145   -7.9082068    467.22038  0.018109317    0.0180057           14 
 2151000   0.91313003   -7.8608668    468.18298  0.018138191  0.017999447           11 
 2152000   0.90133093   -7.8813536    469.20443  0.018169316   0.01799318            4 
 2153000   0.89234339   -7.8946707    469.43098  0.018169646  0.017986903           15 
 2154000    0.9007094   -7.8889758    468.79279  0.018136521  0.017980555            6 
 2155000   0.88023292   -7.8919697    468.70372  0.018124661  0.017974268            6 
 2156000   0.90572827    -7.832718    470.40206  0.018181898  0.017967958            5 
 2157000    0.8910182   -7.8899308     469.5999  0.018142478  0.017961667            8 
 2158000   0.89739731   -7.9057699    468.82112  0.018103998  0.017955334            9 
 2159000   0.92565117    -7.914863    468.87752  0.018097789  0.017949004            5 
 2160000   0.89470513   -7.9299484    467.95713  0.018053902  0.017942687            4 
 2161000   0.91688468   -7.9168536    468.87943  0.018081113  0.017936333            4 
 2162000   0.90292258   -7.8711285    470.01593  0.018116556  0.017930067            6 
 2163000   0.91691072    -7.930517    467.81711  0.018023467  0.017923791            5 
 2164000   0.92922035   -7.8806602    469.35844  0.018074493  0.017917519            8 
 2165000   0.92536485    -7.876559    469.66794  0.018078058  0.017911255            5 
 2166000   0.90624842   -7.8866357    469.91012  0.018079029  0.017905027            3 
 2167000   0.90955441    -7.848406    469.64523  0.018060499  0.017898834            6 
 2168000   0.90330374   -7.8993842     469.5402  0.018048132  0.017892595           12 
 2169000   0.90312043   -7.8519752    470.08145  0.018060606  0.017886351            6 
 2170000   0.92967704   -7.8997524     469.4565  0.018028283  0.017880094            4 
 2171000   0.91063526   -7.8960457    470.06801  0.018043452  0.017873853            3 
 2172000   0.89580098   -7.8748049    470.14398  0.018038059  0.017867604           11 
 2173000   0.89804075    -7.876559    469.71553  0.018013328  0.017861369            7 
 2174000   0.91360092    -7.864041    471.64836  0.018079131  0.017855143            5 
 2175000   0.90161775   -7.8725987     470.6098  0.018031027  0.017848968            6 
 2176000   0.90901196   -7.8940676    471.42541  0.018053976  0.017842743            7 
 2177000   0.90341674   -7.9085869    469.40322  0.017968275  0.017836472            5 
 2178000   0.90837607    -7.890145    469.91616  0.017979651  0.017830188            6 
 2179000   0.88325946   -7.9077529    470.10018  0.017978437  0.017823895            7 
 2180000   0.88518399   -7.9136909     470.7822  0.017996261  0.017817579           12 
 2181000   0.87839029    -7.941562    469.36697  0.017933936  0.017811264            5 
 2182000   0.89510119   -7.9425404    468.83145  0.017905265  0.017804906            4 
 2183000   0.91669931   -7.9420586    469.70921   0.01793057  0.017798525            9 
 2184000   0.89883028   -7.9647292    469.54971  0.017916274  0.017792188           11 
 2185000   0.91375932   -7.9494293    468.90038   0.01788331  0.017785845           11 
 2186000   0.89798186   -7.9014093    471.03443  0.017956482  0.017779511            6 
 2187000   0.91346249   -7.9034413    470.17118  0.017915378  0.017773154            4 
 2188000   0.89446574   -7.9017955    471.11844  0.017943268  0.017766832           10 
 2189000   0.90965392   -7.9323875    470.25713  0.017902281  0.017760543            6 
 2190000   0.90337537   -7.9113967    470.10453    0.0178883  0.017754223           11 
 2191000   0.90828227   -7.9139252    469.44759   0.01785515  0.017747927            9 
 2192000   0.90879241   -7.9145372    470.62206  0.017891654   0.01774165            9 
 2193000   0.90519738   -7.9216945    470.87764  0.017893207  0.017735378            9 
 2194000   0.91434059   -7.9064308    470.64892  0.017876364  0.017729067            7 
 2195000   0.90122565    -7.909708    471.87832  0.017914894  0.017722779            6 
 2196000   0.89669824   -7.9046066    471.31738   0.01788545  0.017716533            6 
 2197000   0.89976689   -7.9137692    470.52558  0.017847276  0.017710285            4 
 2198000   0.89819459   -7.9031157    471.08227  0.017860262  0.017704019            8 
 2199000   0.90290644   -7.9242888    470.84777  0.017843253  0.017697772            9 
 2200000   0.91345362   -7.9010536    470.95056  0.017839036  0.017691527            2 
 2201000   0.88468619   -7.9310808    471.22821  0.017841444  0.017685272            6 
 2202000   0.89070072   -7.9178582    471.00089  0.017824738  0.017678984            8 
 2203000   0.89977048    -7.911715    472.25231  0.017863985  0.017672674            5 
 2204000   0.90143792   -7.9254936    470.69383  0.017796953  0.017666382           17 
 2205000   0.89172821   -7.9485412    470.42541  0.017778738  0.017660019           17 
 2206000   0.88597978   -7.9265418    470.15048  0.017760293  0.017653681           14 
 2207000   0.89627801   -7.9037607    470.43144  0.017762855   0.01764736            9 
 2208000   0.90942723    -7.934591    470.86605  0.017771213  0.017641005            7 
 2209000   0.91908501   -7.9221778    471.43039  0.017784457  0.017634679            6 
 2210000   0.87473527   -7.9470428    470.63478  0.017746409  0.017628297            7 
 2211000   0.89777032   -7.9763802    469.56962  0.017698237  0.017621864           10 
 2212000   0.88672379    -7.930402    470.71116  0.017733241  0.017615489           13 
 2213000   0.90633287   -7.9283664    472.51804  0.017793268  0.017609116           22 
 2214000   0.90653375   -7.9289645    471.56683  0.017749429  0.017602769           19 
 2215000   0.89755749   -7.9098943    470.92828  0.017717392   0.01759643            9 
 2216000   0.88619039   -7.8971652    471.96077  0.017748224  0.017590127            4 
 2217000   0.88387155   -7.8951469    471.80998   0.01773455  0.017583814            6 
 2218000   0.89108316   -7.9568331    470.92109  0.017693158  0.017577507           11 
 2219000   0.89582117   -7.9388724     471.2572  0.017697807    0.0175712            3 
 2220000   0.90127648   -7.9269076    471.21392   0.01768821  0.017564919           10 
 2221000   0.88756399   -7.9673233    470.15108  0.017640368  0.017558619            7 
 2222000   0.90146664   -7.8891813    473.29689  0.017750408  0.017552351            3 
 2223000   0.90188474   -7.9472661    472.31963  0.017705789  0.017546056            8 
 2224000   0.92008679   -7.9787344     470.5073   0.01762992  0.017539718            3 
 2225000   0.90337619   -7.9368542    471.07837  0.017643385  0.017533371            9 
 2226000   0.89170059   -7.9691246    470.90354  0.017628914   0.01752703            7 
 2227000    0.8965457   -7.9512087    472.16378  0.017668155  0.017520672            8 
 2228000   0.88733649   -7.9276928    471.79005  0.017646247  0.017514324            8 
 2229000   0.88552368   -7.9234577    471.91326  0.017642936   0.01750798            7 
 2230000   0.87562962   -7.9683886    471.65675  0.017625439  0.017501636            6 
 2231000    0.9097988   -7.9166215     470.5562  0.017576431  0.017495273            9 
 2232000   0.91338575   -7.9274471    472.37881  0.017636604  0.017488948            9 
 2233000   0.87751895   -7.9375241    470.83168  0.017570969  0.017482626            4 
 2234000   0.90621263   -7.9460389    472.01181  0.017607125  0.017476315           20 
 2235000   0.91343402   -7.9189609    472.89549  0.017632196  0.017470038           10 
 2236000   0.87756862    -7.903561     473.1345  0.017633218  0.017463807            7 
 2237000   0.87709662   -7.9267165    472.56411  0.017604087  0.017457515            5 
 2238000   0.88618884   -7.9566396    473.16745  0.017618687   0.01745127            4 
 2239000    0.8898703   -7.8967242    474.12467  0.017646445  0.017445008           14 
 2240000   0.89043009   -7.9617383    471.64739  0.017546406  0.017438701           15 
 2241000   0.88151573   -7.9807784    472.42178  0.017567372  0.017432354           13 
 2242000   0.87032919   -7.9765518    472.37972  0.017557974  0.017426026            9 
 2243000   0.90870819   -7.9573908    472.86525  0.017568184  0.017419722           11 
 2244000   0.88367818   -7.9262504    472.94646  0.017563371  0.017413438           15 
 2245000   0.88666425   -7.9482711    472.27666  0.017530685  0.017407143           23 
 2246000   0.90145273   -7.9063893    474.51628  0.017605977  0.017400868           13 
 2247000   0.88106797   -7.9658364    475.15835  0.017621953  0.017394598            5 
 2248000   0.91000088   -7.9106675    473.95526  0.017569516  0.017388313           15 
 2249000   0.89760783   -7.9754921    472.23514  0.017497967  0.017382026           13 
 2250000    0.8837998   -7.9321048    474.56946  0.017576647  0.017375744            8 
 2251000   0.88127531   -7.9604136    473.44331  0.017527148  0.017369509            3 
 2252000   0.89457062     -7.94565    474.49061  0.017558119  0.017363236            7 
 2253000    0.8860906   -7.9537567    472.29249  0.017469023   0.01735692            5 
 2254000   0.89525613   -7.9709494    472.49294  0.017468683  0.017350586            7 
 2255000   0.88952233   -7.9117727     474.1811  0.017523322  0.017344264            7 
 2256000   0.88599862   -7.9355611     473.8045  0.017501644  0.017337972            7 
 2257000    0.9068485   -7.9349384    473.76325  0.017492366  0.017331683            5 
 2258000    0.9079624   -7.9174532    474.38858  0.017507698   0.01732545            4 
 2259000   0.89772119   -7.9027259    474.18902  0.017492586  0.017319202            8 
 2260000    0.8896961   -7.8911188    474.50676  0.017496562  0.017312995            8 
 2261000    0.8957791   -7.9476053    473.68461  0.017458522  0.017306784            8 
 2262000   0.88356674   -7.9233153    474.19395  0.017469568   0.01730051            6 
 2263000   0.88273573   -7.9340639    475.10408  0.017495363  0.017294244           24 
 2264000   0.88075303   -7.9162417    474.53407  0.017466654  0.017288048           11 
 2265000   0.87107534   -7.8859619    476.15622  0.017518625  0.017281879            3 
 2266000   0.90138267   -7.8907294    475.22335  0.017476587  0.017275694            5 
 2267000   0.88229615   -7.9545621    474.88093  0.017456291   0.01726948            6 
 2268000   0.90199443   -7.9129078    475.47312  0.017470353  0.017263275            6 
 2269000   0.87887812   -7.9296225    474.57946  0.017429832   0.01725706            4 
 2270000   0.89491909   -7.9745739    474.39791  0.017415489  0.017250828            5 
 2271000   0.89169335   -7.9705325    473.51454  0.017375405  0.017244572            3 
 2272000   0.88733036   -7.9883784    474.02997  0.017386663  0.017238289            7 
 2273000   0.90618852   -7.9889913    473.87931   0.01737349  0.017232043            6 
 2274000   0.89735742   -7.9720758    474.69014  0.017395564  0.017225805            8 
 2275000   0.87082103   -8.0017995    473.67844  0.017350859  0.017219519            3 
 2276000   0.90725232   -7.9677809    474.89093  0.017387629  0.017213235            6 
 2277000   0.90163024   -7.9596944    474.05416  0.017349369  0.017206985            8 
 2278000   0.90697508   -7.9837693    474.86623   0.01737146  0.017200765            3 
 2279000   0.88685106    -7.933835    475.76088  0.017396551  0.017194511            7 
 2280000   0.88048684    -7.958912    475.82702  0.017391339   0.01718829            4 
 2281000   0.90220422   -7.9551133    475.23172  0.017361965  0.017182013           11 
 2282000   0.89656449   -7.9630766    475.00679  0.017346144  0.017175775            9 
 2283000   0.88402139   -7.9693891    475.41054  0.017353283  0.017169534           18 
 2284000   0.89728705   -7.9786333    475.17855  0.017337221  0.017163301           11 
 2285000   0.89295242   -7.9865891    474.67461  0.017311255  0.017157031            9 
 2286000   0.89117752   -7.9461228    476.15822  0.017357765  0.017150815            6 
 2287000   0.88342935   -7.9879704    476.13702  0.017349403  0.017144569           15 
 2288000   0.89255479    -7.952001    475.19002  0.017307329  0.017138349           21 
 2289000   0.88445509   -7.9863735    475.23979   0.01730158  0.017132139           19 
 2290000   0.87807202   -7.9524246    476.59849  0.017343468  0.017125963           15 
 2291000   0.88981513   -7.9478494    476.34823  0.017326794  0.017119779           16 
 2292000   0.90191012   -7.9789991    475.27462    0.0172802  0.017113585            7 
 2293000   0.88157479   -7.9714006    475.92608   0.01729634  0.017107377           13 
 2294000   0.89910418   -7.9617844    475.87496  0.017286943  0.017101213            7 
 2295000   0.88481868   -7.9879305    475.07577  0.017250391  0.017094987            6 
 2296000   0.87588093   -7.9593041    477.47255  0.017329869  0.017088777            7 
 2297000   0.88647472   -7.9544307    474.88086    0.0172283  0.017082607           13 
 2298000   0.89015406   -7.9382062    478.14564  0.017339195  0.017076431            5 
 2299000   0.88269557   -7.9575531    475.92956  0.017251325  0.017070288            6 
 2300000   0.88703048    -7.963029    476.95339   0.01728092  0.017064109           15 
 2301000   0.90067011   -7.9435332    476.81315  0.017268331  0.017057917           17 
 2302000   0.90075306   -7.9662187    477.09999  0.017271213  0.017051769           15 
 2303000   0.88355144   -7.9345549     475.6549  0.017211423  0.017045628           10 
 2304000   0.88329506   -7.9540751    476.46938  0.017233412    0.0170395           18 
 2305000   0.88571047   -7.9358133     477.1611  0.017250944   0.01703333           21 
 2306000    0.8750091   -7.9684901     476.9103    0.0172344  0.017027148           16 
 2307000   0.88199212    -7.956064    477.40661  0.017244857  0.017020976           21 
 2308000   0.87638497   -7.9498124    477.41827  0.017237806  0.017014837           16 
 2309000   0.86742959   -7.9467646    478.23207  0.017259711  0.017008683           16 
 2310000   0.87958168   -8.0026427    475.96842  0.017170578  0.017002559            8 
 2311000    0.8697374   -7.9682921    477.69527  0.017225417  0.016996399           16 
 2312000   0.87944503   -7.9787911    477.37011  0.017206247  0.016990261            8 
 2313000   0.88301677   -7.9771822    476.92419  0.017182742  0.016984154            8 
 2314000   0.89323718   -7.9682452    477.06539  0.017180401  0.016978083           13 
 2315000   0.86537445   -7.9815109     476.8225  0.017164237  0.016971924           20 
 2316000   0.88389123   -7.9890509    475.28359  0.017101453  0.016965763           17 
 2317000   0.87218261   -8.0058243    476.33867  0.017132019  0.016959602           14 
 2318000   0.88808245   -7.9760193    477.03083  0.017149512  0.016953421           13 
 2319000   0.88838294   -7.9893626    477.27902  0.017151036  0.016947273            9 
 2320000   0.88793802   -7.9756655    477.79771  0.017162274  0.016941132           10 
 2321000   0.86954338    -7.972202    478.48561  0.017179578  0.016934999           24 
 2322000   0.87869807   -7.9799508    477.84212  0.017149085  0.016928897           28 
 2323000   0.90513938   -7.9701421    476.52433   0.01709443  0.016922781            7 
 2324000   0.89325278   -7.9609485    478.27882  0.017149986    0.0169167           24 
 2325000   0.87554696   -7.9807404    478.68094  0.017157023   0.01691062            6 
 2326000   0.87999104   -8.0048325    477.06443  0.017091732    0.0169045           15 
 2327000   0.86808132   -7.9549504    477.57188   0.01710256  0.016898368            7 
 2328000   0.86860433   -7.9888434     475.6787  0.017027445  0.016892237           14 
 2329000   0.87794508   -7.9606153    478.73814  0.017129603  0.016886109           49 
 2330000   0.87914339   -7.9492707     477.8678  0.017091123  0.016879989           25 
 2331000   0.87980373   -7.9942781    478.25903  0.017097777  0.016873823           21 
 2332000   0.89034338   -8.0040174    476.63065  0.017032256  0.016867654           10 
 2333000   0.86504936   -8.0177955    476.91574  0.017035139  0.016861496           16 
 2334000   0.89170063   -7.9933586    478.51954  0.017085102  0.016855316           17 
 2335000   0.86834452   -7.9745373    478.58784  0.017080223  0.016849199           16 
 2336000   0.89763427   -7.9770394    477.24796  0.017025113  0.016843105           15 
 2337000    0.8931599   -7.9935703    478.21091  0.017052165  0.016836981           15 
 2338000   0.85473076   -7.9801857    477.47267  0.017018558  0.016830852           27 
 2339000   0.88132002   -8.0085555    478.04861  0.017031802  0.016824709           14 
 2340000   0.89043289    -8.013322    478.29816   0.01703341  0.016818567            7 
 2341000   0.88090194   -7.9476939     479.5867  0.017072003  0.016812488           21 
 2342000   0.87845544   -8.0219805    478.37001  0.017021421  0.016806389           17 
 2343000   0.84111242    -7.952751    480.21749  0.017079865  0.016800307           20 
 2344000    0.8527667   -7.9816875    478.51323  0.017011989   0.01679427            9 
 2345000   0.89920874   -7.9962105    477.59091  0.016971959  0.016788217            9 
 2346000   0.86935819   -7.9933175    480.11255  0.017054296  0.016782143            8 
 2347000   0.88200433   -7.9899727    478.81059  0.017000802  0.016776082           23 
 2348000   0.87842472   -7.9860984    478.91345  0.016997212  0.016769991           15 
 2349000    0.8753714   -7.9881535    479.53115   0.01701189  0.016763944           20 
 2350000   0.85922937   -7.9913453    477.87762  0.016946015  0.016757867           26 
 2351000   0.88491372   -7.9827405    478.95601  0.016977031  0.016751814           13 
 2352000   0.90246388   -7.9617529    481.07781  0.017044991  0.016745805           16 
 2353000   0.89250873   -7.9884864    478.45295  0.016944785  0.016739815           11 
 2354000   0.88421327   -8.0065654    479.55705  0.016976673  0.016733785           14 
 2355000   0.88041607   -7.9535771    481.05772  0.017022566  0.016727726           11 
 2356000   0.89684767   -7.9886279     479.1197  0.016946792  0.016721641           15 
 2357000   0.87073691   -7.9868838    479.45962   0.01695162  0.016715554           32 
 2358000    0.8664052   -7.9666595    480.34969  0.016975887  0.016709509            8 
 2359000   0.88689614    -8.024296    478.41175  0.016900232  0.016703451            5 
 2360000   0.88523592   -8.0014784    480.09086  0.016952361  0.016697354           16 
 2361000   0.89547712   -7.9992244    479.34123  0.016918722  0.016691266            8 
 2362000   0.87414593   -7.9988381    479.55167  0.016918984  0.016685155            6 
 2363000   0.86709577   -7.9833617    479.73356  0.016918238  0.016679077            9 
 2364000   0.86174594   -7.9930661    479.40242  0.016899409  0.016673033           15 
 2365000   0.86952525   -8.0073069     479.0685  0.016880497  0.016666994           12 
 2366000   0.87057098   -7.9795936    480.56774  0.016926167     0.016661            5 
 2367000   0.86948842   -7.9901102    479.97771  0.016898244  0.016654948           10 
 2368000    0.8769441   -7.9957491    479.26768   0.01686612  0.016648877            7 
 2369000   0.87968829   -8.0220784    479.58103  0.016870024  0.016642791           12 
 2370000   0.86623897    -8.032401     478.0996  0.016810816  0.016636707           11 
 2371000   0.86771844    -8.042928     479.0321    0.0168365  0.016630581           15 
 2372000   0.88792645   -8.0119614    479.62603  0.016850268  0.016624455            7 
 2373000   0.87678032   -8.0322471    479.66701  0.016844606  0.016618337           14 
 2374000   0.87023735   -8.0208773    480.32856  0.016860733  0.016612221            8 
 2375000   0.87497363   -7.9959047    480.44729    0.0168578  0.016606146            7 
 2376000   0.87738149   -8.0122477    480.41958  0.016849733  0.016600025            3 
 2377000   0.87688371   -7.9960144    478.61634  0.016779426  0.016593901            7 
 2378000   0.86937448   -8.0504098    479.09162  0.016789025  0.016587792            7 
 2379000   0.84879516   -8.0123355    479.18684  0.016785303   0.01658163            8 
 2380000   0.89139929   -7.9978135    478.82307  0.016765514  0.016575532            6 
 2381000   0.85725898    -8.045724    478.94585   0.01676277  0.016569404           10 
 2382000    0.8599964   -8.0152978     479.4755  0.016774262  0.016563308           10 
 2383000   0.87117801   -8.0216814    480.43527  0.016800786  0.016557221            9 
 2384000   0.86448282   -8.0194019    480.05677  0.016780508  0.016551137           14 
 2385000   0.86841219   -8.0441412    479.64087   0.01675894   0.01654498            7 
 2386000   0.86924946   -8.0441509    478.89701  0.016725936  0.016538832            9 
 2387000   0.87747941   -8.0195171    478.96986  0.016721473   0.01653273           22 
 2388000   0.86222037   -8.0169857    480.11453  0.016754415  0.016526629            9 
 2389000   0.86239998   -8.0304482    479.80184  0.016736495  0.016520537            6 
 2390000   0.88798487   -8.0168448     479.9868  0.016735942  0.016514421           10 
 2391000   0.86191869    -8.008388    481.08295  0.016767146  0.016508324            4 
 2392000   0.87269732   -8.0102411    480.92595  0.016754667  0.016502289            9 
 2393000    0.8660317   -8.0331492    480.66018   0.01673841  0.016496268            5 
 2394000    0.8697344   -8.0235636    479.17435  0.016679698  0.016490195           11 
 2395000   0.87170883   -8.0241257    479.06684  0.016668992  0.016484079            7 
 2396000   0.85470296   -8.0448813    479.74444  0.016685602     0.016478           12 
 2397000   0.87466455   -8.0239576    480.57549  0.016707533  0.016471942            9 
 2398000   0.86104187   -8.0242086    481.06775  0.016717673  0.016465927           17 
 2399000   0.87109233   -8.0042669    481.17949  0.016714586  0.016459906           14 
 2400000   0.87672777   -8.0280531    480.85984  0.016696522  0.016453905           10 
 2401000   0.86288631   -8.0217234    480.26306  0.016668855  0.016447885            3 
 2402000   0.86084828   -8.0249473    480.53864  0.016671476   0.01644185            6 
 2403000   0.86780204    -8.050889    480.68455  0.016669599  0.016435821           10 
 2404000   0.88966356    -7.973845    481.60674  0.016694632  0.016429829            7 
 2405000   0.85158728   -8.0222918    480.23184   0.01664005  0.016423834           13 
 2406000   0.87030021   -7.9712205    481.73252  0.016685111  0.016417839            8 
 2407000   0.86361506   -7.9610243    483.12856  0.016726511  0.016411839            6 
 2408000    0.8888609   -7.9529981    481.98459  0.016679976  0.016405898            9 
 2409000   0.87519939   -8.0161808    481.49188  0.016656008  0.016399935            7 
 2410000   0.87264646   -8.0202362    480.86466  0.016627409   0.01639394            6 
 2411000   0.87481111   -8.0069275    481.47351  0.016641556  0.016387939            8 
 2412000   0.85129817   -8.0121521    481.69691  0.016642375  0.016381969           28 
 2413000   0.87614525   -8.0200617     481.0061  0.016611621  0.016375963           16 
 2414000   0.86073069   -8.0037431    481.98536  0.016638545  0.016369967           15 
 2415000   0.86383129   -8.0134202    482.15577  0.016637535  0.016364002           28 
 2416000    0.8770687   -8.0408746    481.28596  0.016600647  0.016358007           18 
 2417000   0.85445458   -7.9854053    482.94081  0.016650835  0.016352001            9 
 2418000   0.86129545   -8.0247536    481.47858  0.016593555  0.016346017            8 
 2419000   0.86422856   -8.0252691    481.60923  0.016591196   0.01634002           11 
 2420000    0.8831825    -7.989253    481.92982   0.01659538  0.016334062            8 
 2421000   0.87678395   -8.0025407    481.80453  0.016584212  0.016328078           14 
 2422000   0.83077842   -8.0287307    482.42641  0.016598762  0.016322127           29 
 2423000   0.85933626   -8.0526943    480.45691  0.016524175   0.01631614           29 
 2424000   0.86646266   -8.0652804    481.40663  0.016550008   0.01631013           13 
 2425000   0.86182223   -8.0185104    481.84429  0.016558223  0.016304122           12 
 2426000   0.86315082   -8.0413475    482.30866  0.016567349  0.016298146            6 
 2427000    0.8740167   -8.0618721    482.37161  0.016562684  0.016292138           10 
 2428000   0.86373611   -8.0551488    481.12996  0.016513247  0.016286122           14 
 2429000   0.86378044   -8.0565686    482.03242   0.01653741  0.016280073           12 
 2430000   0.85943123   -8.0051373    482.64189  0.016551505  0.016274113            7 
 2431000   0.88093758   -8.0661645    481.81564  0.016516373   0.01626815           27 
 2432000   0.84059271    -8.048471    481.62199  0.016502946  0.016262185           32 
 2433000   0.86290604   -8.0395733    481.02333  0.016475659  0.016256203           16 
 2434000   0.85107332   -8.0515131    483.47081  0.016552685  0.016250264           19 
 2435000   0.85492464   -8.0672321    483.34149  0.016541461  0.016244363           10 
 2436000   0.86347426   -7.9974541    483.00081  0.016523016  0.016238428           32 
 2437000   0.85023936   -8.0300787     482.6106  0.016502893  0.016232475           45 
 2438000   0.85162865   -8.0809195    481.75187  0.016466772  0.016226477           32 
 2439000   0.89618451   -8.0779275    482.22395   0.01647615  0.016220512           25 
 2440000   0.87783714   -8.0398295    483.14849  0.016500973  0.016214513           30 
 2441000   0.85760449   -8.0631429    482.03479  0.016456192  0.016208524           33 
 2442000   0.85393336   -8.0089337    482.89462  0.016478795  0.016202531           17 
 2443000   0.85523517   -8.0359593    483.02686  0.016476561  0.016196579           32 
 2444000   0.83586781   -8.0581362    483.19473  0.016475543  0.016190644           15 
 2445000   0.88664095   -8.0123207     483.7282  0.016486987   0.01618472           14 
 2446000   0.87211637     -8.06035    482.36957  0.016433959  0.016178811           17 
 2447000   0.87854691   -8.0440458    482.50386  0.016431817  0.016172865           14 
 2448000   0.84780863    -8.039425    483.06324  0.016444146  0.016166932            8 
 2449000   0.86093021    -8.015885    483.15839  0.016440669  0.016161041            9 
 2450000   0.86533219   -8.0415476    482.72431  0.016419194  0.016155128           37 
 2451000    0.8699342   -8.0209317    484.82247  0.016483832  0.016149231           33 
 2452000   0.87412497   -8.0581674    482.09655  0.016384467  0.016143325           47 
 2453000    0.8465929   -8.0760935    483.05292  0.016410277  0.016137395           76 
 2454000   0.85109902   -8.0808186    482.44932  0.016383093   0.01613144           36 
 2455000   0.85288275   -8.0783278    482.99698  0.016395009  0.016125423           58 
 2456000   0.85997755   -8.0806797    482.10192  0.016357964  0.016119424           67 
 2457000   0.85219637   -8.0789675    483.16082  0.016387221   0.01611346           95 
 2458000   0.87995283   -8.0856487    483.12143  0.016379219  0.016107505           40 
 2459000   0.85709344   -8.0781377    482.73257  0.016359379  0.016101521           72 
 2460000   0.85743161   -8.0902293    483.67553  0.016384672  0.016095534           91 
 2461000   0.84306725   -8.0926107    482.25282   0.01632984  0.016089528           45 
 2462000   0.86030232   -8.0906853    483.05973  0.016350519  0.016083557           84 
 2463000   0.86708582   -8.0749902    482.17915  0.016314087   0.01607758           88 
 2464000   0.85673791   -8.0721708    483.18132  0.016341359  0.016071593          110 
 2465000   0.84527444   -8.0476479    483.51398  0.016345976  0.016065628           89 
 2466000   0.87550728     -8.07971    483.71667  0.016346197  0.016059666          105 
 2467000   0.86091117    -8.111813    482.22434  0.016289162  0.016053687          113 
 2468000    0.8286744    -8.073144    483.33279  0.016319989  0.016047699          139 
 2469000   0.86266378   -8.0750563    482.19045  0.016274823  0.016041719          122 
 2470000    0.8495253   -8.0709246     482.8303  0.016289821   0.01603571          105 
 2471000   0.85136728   -8.0812247    482.10005  0.016258601   0.01602968          114 
 2472000   0.85416743   -8.0795503    483.30442  0.016292625  0.016023688          114 
 2473000   0.86009865   -8.0671621    483.93082  0.016307144  0.016017687          119 
 2474000   0.84843602   -8.0722537    483.45527  0.016284535  0.016011731          121 
 2475000   0.85329654   -8.0729017    483.63175  0.016283897  0.016005779          125 
 2476000   0.86650114   -8.0472631    483.93526  0.016287536  0.015999859          106 
 2477000   0.85601321   -8.0378717    482.41187  0.016229709  0.015993866           60 
 2478000   0.85578088   -8.0410709    484.13517  0.016281113  0.015987925          100 
 2479000   0.86171598   -8.0636034    482.90108  0.016233061  0.015981992           79 
 2480000   0.86966534   -8.0746484    483.04433  0.016231328  0.015976045          102 
 2481000   0.87051726   -8.0792299    484.14959   0.01626191  0.015970106          104 
 2482000   0.85613234    -8.057682     483.5087   0.01623384  0.015964171           92 
 2483000   0.85734502   -8.0880715    483.96353  0.016242567  0.015958234           96 
 2484000   0.85195074   -8.0683223     484.5593  0.016256015  0.015952319          134 
 2485000   0.84339641   -8.1004618    483.75698  0.016222568  0.015946389          141 
 2486000   0.82568499   -8.0863919    483.82331  0.016218266  0.015940442          148 
 2487000   0.83808311     -8.08024     484.5846  0.016237254  0.015934509          141 
 2488000   0.86666337   -8.1090682    482.97608  0.016176852  0.015928561          175 
 2489000   0.85819529   -8.0540195    484.15158  0.016209709  0.015922631          150 
 2490000   0.85873558     -8.10172    483.27055  0.016173713  0.015916674          184 
 2491000   0.85646769   -8.1183331    482.52746  0.016142361  0.015910707          259 
 2492000   0.83080687   -8.1236219     482.6851  0.016141155  0.015904726          239 
 2493000   0.85038171   -8.0978488     483.4987  0.016161876  0.015898766          281 
 2494000   0.84562972    -8.102527    483.31208  0.016149161  0.015892837          334 
 2495000   0.85746867   -8.1141945    483.71019  0.016155985  0.015886872          314 
 2496000   0.85886255    -8.076281    483.42492  0.016139988  0.015880914          346 
 2497000   0.86017894   -8.1188051    484.05078  0.016154411  0.015874958          354 
 2498000   0.84561811   -8.1222865    482.20504  0.016086371   0.01586898          343 
 2499000   0.84816809   -8.1361981    482.72712  0.016097343  0.015863004          365 
 2500000   0.84972376   -8.1254405    482.14427  0.016071476   0.01585703          383 
 2501000   0.85063761   -8.1277416    483.63596  0.016114753  0.015851011          398 
 2502000   0.83361193   -8.1475246    482.16114  0.016059191  0.015844978          486 
 2503000   0.85042842   -8.1546383     482.4562  0.016062598   0.01583891          507 
 2504000   0.83175556   -8.1846421    482.37135   0.01605336  0.015832831          556 
 2505000   0.85969067   -8.1407336    482.16589  0.016040116  0.015826748          527 
 2506000   0.84412256   -8.1469614    482.42075  0.016042191  0.015820632          630 
 2507000   0.84379279   -8.1992216    482.63087  0.016042776  0.015814536          656 
 2508000   0.85726151    -8.222251    480.62652  0.015969781  0.015808385          713 
 2509000     0.844531   -8.2261642     480.2863  0.015952116  0.015802196          719 
 2510000   0.86346901   -8.2520776    481.03797  0.015970716  0.015796009          767 
 2511000   0.84328235   -8.2382809     480.3158  0.015940389  0.015789804          770 
 2512000   0.85327269   -8.1923488     480.7929  0.015949871  0.015783627          739 
 2513000   0.85340081   -8.2517523    478.82636  0.015878312  0.015777403          795 
 2514000   0.84585342   -8.2169589    480.37309  0.015923266    0.0157712          802 
 2515000   0.84991261   -8.2810845    480.45775   0.01591974  0.015764969          850 
 2516000   0.84188621   -8.2143919    480.93864   0.01592934  0.015758766          992 
 2517000   0.83345119   -8.2084852    480.02221   0.01589267  0.015752556          974 
 2518000   0.85388968    -8.239666    479.78179  0.015878402  0.015746342          962 
 2519000   0.83290184   -8.2339764    480.86788  0.015908028  0.015740114          992 
 2520000   0.84865753   -8.2682016    479.87991  0.015869045  0.015733875          971 
 2521000   0.83993823   -8.2884935    479.54651  0.015851729  0.015727632         1014 
 2522000   0.85046779   -8.2922478    480.14077   0.01586508  0.015721362         1065 
 2523000   0.83140514   -8.2907895    479.84517  0.015849028  0.015715086         1095 
 2524000   0.85204817    -8.277539    479.45625  0.015829908  0.015708842         1094 
 2525000   0.82605121   -8.3059456    479.80053  0.015835001   0.01570255         1285 
 2526000   0.84667115   -8.3550143    479.08963   0.01580528  0.015696215         1377 
 2527000   0.86693747   -8.3361157     478.9421   0.01579416  0.015689842         1414 
 2528000   0.83169314   -8.3589399    477.71331  0.015747406  0.015683447         1475 
 2529000    0.8522281   -8.3629267    477.58011   0.01573679  0.015677003         1556 
 2530000   0.84507277   -8.4300942    476.48713  0.015694569  0.015670526         1784 
 2531000   0.84453585   -8.4789481    476.16194  0.015677662  0.015663996         1900 
 2532000     0.847101   -8.4619893    475.97654  0.015665368  0.015657411         2001 
 2533000   0.83431203   -8.4940184    474.74971  0.015618822  0.015650816         2145 
 2534000   0.83759461   -8.5021265    474.81444  0.015614787  0.015644188         2094 
 2535000   0.83324856   -8.5085142    473.95046  0.015580225  0.015637539         2224 
 2536000   0.83367271     -8.54882    474.17408   0.01558143   0.01563086         2357 
 2537000   0.84222779   -8.5968551    472.40828  0.015517287  0.015624123         2481 
 2538000   0.84496128   -8.5703556    472.74475  0.015522221   0.01561735         2452 
 2539000   0.85338282   -8.5835446    473.48771  0.015540492  0.015610549         2568 
 2540000   0.84246691   -8.6164757    472.01659  0.015486108  0.015603714         2566 
 2541000   0.85156633   -8.6379533    471.37757  0.015459057  0.015596854         2718 
 2542000    0.8385477   -8.6233894     471.9455  0.015471594  0.015589968         2698 
 2543000    0.8468842   -8.6361802    470.75807  0.015426598  0.015583064         2723 
 2544000    0.8395098   -8.6624452    471.15232  0.015433449  0.015576147         2832 
 2545000   0.83751726   -8.6900792    471.11707   0.01542623  0.015569211         2918 
 2546000   0.85388321   -8.6718942    471.02226  0.015417068  0.015562259         2917 
 2547000   0.81539744   -8.6966483    470.41092  0.015391013  0.015555302         2923 
 2548000   0.83851037   -8.6970967    469.93126  0.015369285  0.015548325         2971 
 2549000   0.84467612   -8.6996277    471.31228  0.015408405  0.015541343         2946 
 2550000   0.85502904   -8.7255235    470.10043  0.015362759  0.015534354         2979 
 2551000    0.8441291   -8.7349571     470.3539  0.015365017   0.01552735         3022 
 2552000   0.82838594   -8.7385615    469.01055   0.01531513  0.015520336         3104 
 2553000   0.84054791    -8.753991    469.29257  0.015318337  0.015513299         3127 
 2554000   0.84041714   -8.7545523    468.75909  0.015294933  0.015506255         3151 
 2555000   0.84237581   -8.7689058     469.7058  0.015319824  0.015499211         3201 
 2556000   0.81997463   -8.7553919    469.49936    0.0153071  0.015492135         3323 
 2557000    0.8379654   -8.7713573    469.22826  0.015292278  0.015485076         3267 
 2558000   0.84735482   -8.7961116    468.43153  0.015260344  0.015478019         3269 
 2559000   0.85434449    -8.769152    469.24475  0.015280863  0.015470946         3166 
 2560000   0.84126792    -8.781922    469.39643  0.015279832  0.015463872         3272 
 2561000   0.82399537   -8.7941695     468.2746  0.015237362  0.015456778         3270 
 2562000   0.84659338   -8.7929567     468.8142  0.015248966  0.015449697         3249 
 2563000   0.83257217    -8.808234    467.45133  0.015198704  0.015442598         3325 
 2564000   0.83033138   -8.7697863    468.36149  0.015222357  0.015435512         3293 
 2565000   0.84786641    -8.823967    467.93911    0.0152027  0.015428405         3346 
 2566000   0.84121392   -8.7897524    468.55286  0.015216708  0.015421304         3337 
 2567000   0.82351973   -8.7842829    469.25825  0.015233679  0.015414205         3349 
 2568000   0.84160222     -8.79284    467.83628  0.015181603  0.015407095         3341 
 2569000   0.82722985   -8.8086402    467.45803  0.015163424  0.015400006         3358 
 2570000    0.8448808   -8.8183554    468.09989  0.015178336  0.015392903         3324 
 2571000   0.84632329   -8.8477302    468.11338   0.01517287  0.015385801         3418 
 2572000   0.86091201   -8.8108025    468.05389  0.015165043  0.015378694         3377 
 2573000   0.83270453   -8.8198828    467.90949  0.015154472  0.015371589         3418 
 2574000   0.83120277   -8.8378165    467.16407  0.015124452  0.015364489         3438 
 2575000   0.86599162   -8.8152199    467.28445  0.015122474  0.015357374         3452 
 2576000   0.84629998   -8.8106109    467.18727   0.01511346  0.015350266         3471 
 2577000   0.84135232    -8.869877    467.00805    0.0151018  0.015343145         3591 
 2578000   0.84532033   -8.8340406    467.41654  0.015109146  0.015336018         3580 
 2579000   0.82201514   -8.8567246    467.20198  0.015096354  0.015328881         3529 
 2580000    0.8202418   -8.8429251    467.44058   0.01509821   0.01532175         3583 
 2581000   0.84952283   -8.8593044     467.1079  0.015081619  0.015314616         3592 
 2582000   0.84552996   -8.8602382    466.83063  0.015066829  0.015307473         3588 
 2583000   0.83135569   -8.8597509    466.41905  0.015047718  0.015300351         3634 
 2584000   0.81750316    -8.867302    467.51195   0.01507714  0.015293199         3686 
 2585000      0.84821   -8.8745107    467.19598  0.015061121  0.015286051         3638 
 2586000   0.84689297   -8.8552738    466.68423  0.015038806  0.015278913         3604 
 2587000   0.83953992   -8.8617447    467.74341  0.015067112  0.015271771         3613 
 2588000   0.84648597   -8.8835459    466.50635  0.015021456  0.015264639         3647 
 2589000   0.86685907   -8.8860387    466.09073  0.015002277  0.015257499         3574 
 2590000   0.87325065   -8.8442962    467.57928  0.015044378  0.015250372         3625 
 2591000   0.83444912   -8.8725902    466.90647  0.015016933  0.015243253         3629 
 2592000   0.83315345   -8.8635842    467.65164  0.015035096  0.015236129         3616 
 2593000   0.84663105   -8.8905412    467.06322  0.015010388  0.015229005         3597 
 2594000   0.82613438   -8.8669142    466.86066  0.014998094  0.015221874         3637 
 2595000   0.83617825   -8.8675672    466.70371  0.014987274  0.015214745         3551 
 2596000   0.83914483   -8.8772563     467.1875  0.014997031  0.015207597         3642 
 2597000   0.82059794   -8.8598135    467.46334  0.015000107   0.01520044         3657 
 2598000   0.83053254   -8.8838205    465.43409  0.014929243  0.015193298         3604 
 2599000   0.83438278   -8.8791802    466.84436  0.014968718   0.01518615         3594 
 2600000   0.83247496   -8.9397531    464.75866  0.014896111  0.015179003         3628 
 2601000   0.84221374   -8.8881383    465.90851  0.014927224  0.015171837         3713 
 2602000   0.84251806   -8.8999497    467.14651  0.014961136  0.015164694         3674 
 2603000   0.83411094    -8.897074    467.46588  0.014965613  0.015157546         3656 
 2604000   0.83950022   -8.8958183    466.80601  0.014938748  0.015150413         3682 
 2605000   0.83642058   -8.8991595    466.14592  0.014911898  0.015143275         3725 
 2606000   0.83449278   -8.9127468    465.73302  0.014892972  0.015136145         3653 
 2607000   0.82862644   -8.9183373    466.45471  0.014910328  0.015129017         3704 
 2608000   0.82182097    -8.929706    465.88671  0.014886462   0.01512187         3760 
 2609000   0.83804431   -8.9213698     466.1864  0.014890328  0.015114732         3734 
 2610000   0.84980532   -8.8822462    466.81419  0.014904668  0.015107604         3751 
 2611000   0.83411478    -8.883821    466.17894  0.014878684   0.01510046         3735 
 2612000   0.82797279   -8.9132157    465.67548  0.014856926   0.01509331         3665 
 2613000   0.82881132   -8.9320767    465.94181  0.014859734  0.015086147         3743 
 2614000   0.83395781   -8.9197983    465.18547  0.014829937  0.015078992         3680 
 2615000   0.84139566   -8.9479717    464.68543  0.014808331  0.015071842         3733 
 2616000   0.83904624   -8.9265686     465.3926  0.014825198  0.015064688         3754 
 2617000   0.83568613   -8.9347852     465.0514  0.014808668  0.015057537         3752 
 2618000   0.82825238   -8.9382946    464.37285  0.014781412  0.015050385         3744 
 2619000     0.837217   -8.9387176     464.8983  0.014792488  0.015043226         3766 
 2620000   0.82468265   -8.9527472    464.36807  0.014769977  0.015036045         3771 
 2621000   0.85583561   -8.9492925    464.81966    0.0147787  0.015028872         3774 
 2622000    0.8384159   -8.9554098    465.25223  0.014786811  0.015021698         3839 
 2623000   0.83473133   -8.9822278    464.67061  0.014762696  0.015014509         3813 
 2624000    0.8508682   -8.9516649    464.30822  0.014745561  0.015007339         3818 
 2625000   0.82584769    -8.944511    465.65781  0.014782788  0.015000176         3794 
 2626000   0.82069402   -8.9538165    467.24942  0.014827666  0.014993013         3791 
 2627000   0.82900112   -8.9774469    465.08783  0.014753452  0.014985847         3784 
 2628000   0.83445815   -8.9561803    464.83645  0.014739867  0.014978673         3798 
 2629000   0.83704033   -8.9549832    463.56973  0.014694108  0.014971509         3770 
 2630000   0.83460216   -8.9307743    465.59108  0.014752569  0.014964349         3753 
 2631000   0.83625162   -8.9622159    463.72019  0.014687704  0.014957194         3815 
 2632000   0.83173564    -8.949401    465.77967   0.01474733  0.014950041         3776 
 2633000    0.8364717   -8.9379565    464.67067   0.01470663  0.014942883         3747 
 2634000   0.83817583   -8.9585461    464.39784  0.014692415  0.014935734         3723 
 2635000   0.83431609   -8.9516915    465.10618   0.01470924  0.014928583         3782 
 2636000    0.8171063   -8.9411241    465.95304  0.014730432  0.014921421         3780 
 2637000   0.85204706   -8.9532089    464.26588  0.014671529  0.014914262         3775 
 2638000   0.82968587   -8.9600731    465.60248  0.014708191  0.014907107         3758 
 2639000   0.84658434   -8.9547899    464.87678  0.014679701  0.014899956         3789 
 2640000   0.82513591   -8.9461165    465.08994  0.014680869  0.014892801         3753 
 2641000   0.84731425   -8.9410773    464.44367  0.014654918  0.014885671         3718 
 2642000    0.8213153   -8.9528956     464.9509   0.01466537  0.014878528         3762 
 2643000   0.82537776   -8.9735707    464.70201  0.014651974  0.014871398         3719 
 2644000   0.82874378   -8.9916158    463.95564  0.014622908  0.014864257         3779 
 2645000   0.83016661   -8.9644933    465.27157   0.01465884  0.014857134         3824 
 2646000   0.84030563   -8.9657485    464.62637   0.01463298  0.014850026         3743 
 2647000    0.8288588   -8.9568787    465.18562  0.014645058  0.014842924         3745 
 2648000    0.8332574   -8.9345468    466.13972  0.014669553  0.014835809         3749 
 2649000   0.84645646   -8.9834206    464.53047  0.014613391  0.014828688         3759 
 2650000   0.84164135   -8.9738736    464.27747   0.01459992  0.014821577         3794 
 2651000   0.82683596   -8.9335518     464.9722  0.014616252  0.014814458         3774 
 2652000   0.82516169    -9.005223    463.39581  0.014561206  0.014807342         3788 
 2653000   0.81862947   -8.9307555    465.50008  0.014621814   0.01480022         3763 
 2654000   0.85125377   -8.9892601    463.67871  0.014559116  0.014793106         3795 
 2655000   0.84314822   -8.9198527    464.83602  0.014589957  0.014786004         3776 
 2656000   0.83416177   -8.9532466    464.11434   0.01456182  0.014778905         3762 
 2657000   0.81844774   -8.9909427    464.90567  0.014581159    0.0147718         3826 
 2658000    0.7987878   -8.9530527    464.12767  0.014551281  0.014764708         3767 
 2659000   0.81792128    -8.983796    464.08119  0.014544352   0.01475761         3791 
 2660000   0.84312677   -8.9958277    464.65891  0.014556983  0.014750514         3774 
 2661000   0.83483458   -8.9692127    464.79398  0.014555743  0.014743424         3786 
 2662000   0.82079896   -8.9718173    464.00765  0.014525659  0.014736324         3832 
 2663000   0.81382081   -8.9536616    465.76146  0.014575086  0.014729244         3764 
 2664000   0.79986567   -8.9572291    465.48651  0.014561014  0.014722162         3793 
 2665000   0.83711138   -8.9436257    464.61234  0.014528216  0.014715073         3799 
 2666000   0.82139246   -8.9827272    463.44913  0.014486407  0.014707991         3820 
 2667000   0.82633889   -8.9783442    464.71026   0.01452038  0.014700908         3816 
 2668000   0.82705163   -8.9647259     464.5889  0.014511148  0.014693848         3810 
 2669000     0.826032   -8.9885579    463.60433   0.01447497  0.014686768         3791 
 2670000   0.81267275   -8.9892049    464.63996  0.014501871   0.01467969         3804 
 2671000   0.82113362   -8.9791235    463.44051   0.01445902  0.014672625         3864 
 2672000    0.8211019    -8.993498     464.2816   0.01447984  0.014665552         3850 
 2673000   0.82424186   -8.9798706    464.25377  0.014473556  0.014658479         3833 
 2674000   0.82849085   -8.9848772    463.54095  0.014445928  0.014651425         3843 
 2675000   0.82654282   -8.9981072    463.51151  0.014439611  0.014644357         3801 
 2676000   0.82822456   -8.9913743    465.14662  0.014485134  0.014637301         3767 
 2677000   0.82363635   -8.9883542    464.35942  0.014455218   0.01463024         3818 
 2678000   0.82483619   -8.9963275    464.35599  0.014449713  0.014623179         3817 
 2679000   0.81392098   -8.9649102    464.62732   0.01445276  0.014616128         3818 
 2680000   0.80943583    -8.994147    463.58475  0.014414949  0.014609064         3799 
 2681000   0.83640685   -9.0173209    463.85195  0.014417877  0.014602016         3821 
 2682000   0.82058602   -8.9810512    464.90508  0.014445224  0.014594959         3812 
 2683000   0.81106203   -8.9707078     464.1201  0.014415458  0.014587911         3794 
 2684000   0.83684207   -8.9913061    462.71479  0.014366455  0.014580862         3793 
 2685000   0.82132579   -9.0070322    463.90918  0.014398174   0.01457381         3809 
 2686000   0.80768063    -8.985924    464.06342  0.014397599   0.01456677         3839 
 2687000   0.81514902   -8.9883301    463.74633  0.014382407  0.014559735         3845 
 2688000   0.81755469   -8.9933898    463.47638  0.014368687  0.014552695         3804 
 2689000   0.83292862   -9.0053906    462.98547   0.01434813  0.014545655         3833 
 2690000   0.82670677   -9.0321292    463.94849   0.01437263  0.014538626         3861 
 2691000    0.8344392   -8.9925487    464.38487  0.014380803  0.014531601         3860 
 2692000    0.8192206   -8.9934724    464.72777  0.014386075  0.014524559         3859 
 2693000    0.8091797   -8.9842114    463.88323  0.014354599  0.014517531         3830 
 2694000   0.81093472   -9.0145297    464.27567   0.01436141  0.014510501         3889 
 2695000   0.81379318   -8.9689476    463.49346  0.014331894  0.014503477         3857 
 2696000   0.82524045   -8.9855213    464.29667  0.014351405  0.014496451         3852 
 2697000     0.816022    -9.015256    463.58666  0.014324146  0.014489433         3883 
 2698000   0.79825045   -9.0145782    463.89809  0.014328456  0.014482418         3903 
 2699000   0.83496196    -9.015985    462.27179  0.014272934    0.0144754         3842 
 2700000   0.84116541   -9.0010134    463.64076    0.0143099  0.014468393         3852 
 2701000   0.82505387   -9.0080144    463.86771  0.014311604   0.01446138         3830 
 2702000   0.81348534   -9.0066104    463.22186  0.014286389  0.014454376         3868 
 2703000   0.81446635   -8.9863663     464.0931  0.014307963  0.014447375         3829 
 2704000   0.80146978   -9.0136399    463.71265  0.014290947   0.01444038         3889 
 2705000   0.81150142   -8.9847691    463.46102  0.014277912  0.014433376         3820 
 2706000   0.80671547   -8.9931759     463.7836   0.01428257  0.014426384         3863 
 2707000   0.81606883   -9.0310846    462.51475  0.014238233  0.014419386         3846 
 2708000   0.81559452   -9.0110649    463.50808  0.014263543  0.014412386         3853 
 2709000    0.8354013   -9.0147481    463.98092  0.014272823  0.014405397         3860 
 2710000   0.83489132    -8.995166    462.49383  0.014221827  0.014398409         3853 
 2711000   0.82085446   -9.0148315    463.46613  0.014246469  0.014391431         3817 
 2712000   0.80720505   -8.9987685    462.58845  0.014214247  0.014384452         3842 
 2713000   0.83114844   -8.9908568    463.82929  0.014247122  0.014377471         3872 
 2714000   0.83358397   -9.0102107    464.07845  0.014249523  0.014370503         3849 
 2715000   0.82644257   -8.9641576    464.11491  0.014245393  0.014363544         3878 
 2716000    0.8187617   -9.0035344    464.15954  0.014241518  0.014356591         3883 
 2717000   0.81388046    -9.002715    463.72822  0.014223047  0.014349634         3833 
 2718000   0.81322183   -9.0041132    463.38371  0.014207251  0.014342683         3824 
 2719000   0.82759151   -8.9942431    463.23267  0.014197397  0.014335726         3881 
 2720000   0.82367389   -9.0260359    464.04818  0.014217162  0.014328773         3839 
 2721000   0.79316725   -8.9775732    463.86093  0.014206203  0.014321832         3866 
 2722000   0.81115616   -9.0231759    463.36223  0.014185716  0.014314874         3884 
 2723000   0.81316247   -9.0196303    463.58357   0.01418728  0.014307927         3900 
 2724000   0.82374268   -8.9963803    463.92809  0.014192612  0.014300981         3855 
 2725000   0.84929709   -8.9929391    463.52928  0.014175207   0.01429405         3835 
 2726000   0.81249525   -8.9874814    463.93472  0.014182402   0.01428712         3852 
 2727000   0.82976416    -9.030966    463.76342  0.014171966  0.014280183         3837 
 2728000   0.81310835   -9.0437322    462.85079  0.014138893  0.014273243         3869 
 2729000   0.84439068   -8.9895373    463.70438  0.014159777  0.014266318         3857 
 2730000   0.82884384   -8.9908729    463.14998  0.014137667  0.014259398         3821 
 2731000   0.80983779    -9.016451    462.53072  0.014113594  0.014252479         3859 
 2732000   0.82195911   -8.9800976    464.00884  0.014153515  0.014245564         3846 
 2733000   0.81691277   -9.0203857    462.14452  0.014091491  0.014238663         3897 
 2734000   0.79603586   -9.0282248    463.14844  0.014116936  0.014231765         3857 
 2735000   0.80248188   -8.9757959    464.56806  0.014155029  0.014224863         3843 
 2736000   0.80547182   -9.0138213      463.307  0.014111446  0.014217974         3869 
 2737000   0.79878782   -8.9886125    463.44063  0.014110359  0.014211079         3862 
 2738000   0.80788162   -9.0125116    463.47918  0.014106379  0.014204187         3852 
 2739000   0.80705818   -9.0084453    463.64792  0.014106362  0.014197306         3839 
 2740000   0.80320886   -9.0184983     463.6129  0.014100149  0.014190421         3868 
 2741000   0.79337536   -9.0188581    463.72518  0.014098419  0.014183543         3856 
 2742000   0.82196087   -9.0560592    462.13471   0.01404494  0.014176663         3881 
 2743000   0.81763004   -8.9995107    465.19001  0.014132641   0.01416979         3847 
 2744000   0.81923708   -9.0273167    463.72271   0.01408293  0.014162923         3848 
 2745000   0.80561945   -9.0292913     463.2558  0.014063625  0.014156056         3857 
 2746000   0.79236349   -9.0295408    462.54403  0.014036903  0.014149199         3890 
 2747000   0.80359772   -9.0103207    463.33842  0.014055892   0.01414234         3840 
 2748000   0.81615407   -9.0371721    463.13523  0.014044615  0.014135476         3852 
 2749000   0.82589108   -9.0087215    462.91463  0.014032819  0.014128624         3867 
 2750000   0.82912567   -9.0139144    462.72868  0.014022081  0.014121767         3884 
 2751000   0.80139378   -9.0114821    462.93828  0.014023333  0.014114922         3887 
 2752000   0.81253387   -9.0342796    462.97908  0.014019473  0.014108079         3854 
 2753000   0.82801361   -9.0201209    463.51899  0.014030724  0.014101241         3900 
 2754000   0.82490359   -9.0255428    463.07891  0.014012313  0.014094404         3847 
 2755000   0.80636569   -9.0003588    463.90404  0.014032185  0.014087579         3859 
 2756000   0.81963763   -9.0244416    464.52352  0.014045825   0.01408075         3801 
 2757000   0.80895239   -9.0504207    463.42463  0.014007515  0.014073927         3863 
 2758000   0.80995027   -9.0108501    463.13926  0.013993814  0.014067095         3879 
 2759000   0.81831084   -9.0376902    463.94962  0.014013218  0.014060272         3858 
 2760000   0.80498722   -9.0085771     463.5706  0.013996697  0.014053455         3881 
 2761000   0.80973054   -8.9980643    463.18438   0.01397997  0.014046633         3860 
 2762000   0.81369488   -8.9909339    464.27649  0.014007859  0.014039826         3848 
 2763000   0.82236163   -9.0235084    462.83697  0.013959373  0.014033019         3868 
 2764000   0.80166367   -9.0169036    463.02074  0.013959863   0.01402621         3873 
 2765000   0.80809595   -9.0293952     462.7268  0.013945955  0.014019408         3872 
 2766000   0.80859281    -9.003809    463.15703  0.013953875  0.014012595         3850 
 2767000   0.79574459    -9.025248    462.58351   0.01393156  0.014005785         3826 
 2768000   0.82643393   -9.0200684    463.47193  0.013953273  0.013998992         3852 
 2769000   0.81709372   -8.9956869    464.63883  0.013983352  0.013992214         3844 
 2770000   0.80554244   -9.0252049    463.05045  0.013930519  0.013985425         3854 
 2771000   0.81782396   -9.0314124    464.03502  0.013955101   0.01397864         3846 
 2772000    0.8122713   -9.0348358    463.47219  0.013933147  0.013971858         3835 
 2773000   0.79568667   -9.0248057    463.63101  0.013932895  0.013965091         3852 
 2774000   0.82168691   -9.0188537    463.35356  0.013919537  0.013958331         3865 
 2775000   0.80826623   -9.0014648    462.84696  0.013899308  0.013951562         3868 
 2776000   0.82049791    -9.033672    463.08481  0.013901441  0.013944788         3844 
 2777000    0.8178398   -9.0526183    462.14083  0.013868108  0.013938017         3889 
 2778000   0.80140874   -9.0388201    463.74045  0.013911101  0.013931255         3870 
 2779000   0.80525492   -9.0255451    462.76797  0.013876933  0.013924503         3891 
 2780000   0.81086336   -9.0266981    463.58881  0.013896547   0.01391775         3875 
 2781000   0.81537042   -9.0163402      463.388  0.013885533  0.013910997         3875 
 2782000   0.79353359   -9.0546401    462.81058  0.013863245  0.013904246         3867 
 2783000   0.81281887   -9.0082263    462.80915  0.013858221  0.013897504         3863 
 2784000   0.80528777   -9.0062956    463.67986  0.013879306  0.013890764         3837 
 2785000    0.7930816   -9.0559901     462.2384  0.013831191  0.013884027         3874 
 2786000   0.81245296   -9.0213539    463.22877   0.01385585  0.013877282         3861 
 2787000   0.80556727   -9.0142026    462.65575  0.013833745  0.013870541         3849 
 2788000   0.79655652   -9.0296758    463.69478  0.013859839  0.013863809         3836 
 2789000   0.81084573   -9.0199216    463.65975  0.013853823  0.013857081         3866 
 2790000   0.80532274   -9.0301823    463.57583  0.013846351  0.013850354         3865 
 2791000   0.78421446   -9.0266464    462.37123  0.013805423   0.01384363         3858 
 2792000   0.79612077   -9.0165802    462.53178   0.01380527  0.013836914         3863 
 2793000   0.80639634   -9.0276872    463.47739  0.013828541  0.013830216         3851 
 2794000   0.80510787   -9.0299555    463.20882  0.013815582  0.013823504         3883 
 2795000    0.7981999   -9.0323792    463.64548  0.013823658  0.013816806         3837 
 2796000     0.811951   -9.0257814    462.87254  0.013795677  0.013810111         3841 
 2797000   0.79470821   -9.0293777    462.93919   0.01379273  0.013803417         3852 
 2798000   0.79599848   -9.0267698    463.39395  0.013801345  0.013796721         3855 
 2799000   0.80248518   -9.0419078    462.83334  0.013779723  0.013790034         3854 
 2800000   0.79788001   -9.0384797    462.91793  0.013777319  0.013783345         3865 
 2801000   0.81187445   -9.0530323    462.90712  0.013772079   0.01377666         3869 
 2802000    0.8113629   -9.0432128    463.58793  0.013787412  0.013769972         3877 
 2803000   0.78581165   -9.0082666    463.15251  0.013769548  0.013763299         3879 
 2804000   0.80241365   -9.0411192    462.46758  0.013744281  0.013756622         3896 
 2805000   0.81896111   -9.0432101    463.23146  0.013762076  0.013749942         3859 
 2806000   0.80239604   -9.0230167    463.76217  0.013772932   0.01374327         3870 
 2807000   0.81803017   -9.0258379    462.38667   0.01372719  0.013736601         3855 
 2808000   0.80441869   -9.0324626    463.03699  0.013741601  0.013729935         3863 
 2809000    0.7972103   -9.0315327    463.04171  0.013736849   0.01372328         3848 
 2810000   0.81947476    -9.038375    462.97823  0.013730078  0.013716626         3847 
 2811000   0.80691521   -9.0421377    462.28825  0.013704739  0.013709963         3844 
 2812000   0.80044537   -9.0377978    462.19939  0.013697232  0.013703315         3845 
 2813000   0.79211927   -9.0472666     461.6901  0.013677275  0.013696662         3869 
 2814000   0.78943873   -9.0343839    462.18518  0.013687076  0.013690027         3868 
 2815000   0.79083791   -9.0616466    462.81415  0.013700833  0.013683382         3883 
 2816000    0.7996786   -9.0221603    462.63735  0.013690736  0.013676748         3867 
 2817000   0.80879972   -9.0575633     462.8227  0.013691359  0.013670113         3869 
 2818000    0.8098898   -9.0422282    463.11149   0.01369504  0.013663481         3874 
 2819000   0.80679795   -9.0366842    462.12175  0.013660924  0.013656863         3840 
 2820000   0.78980456   -9.0509303    462.76766  0.013675167  0.013650239         3837 
 2821000   0.81441258   -9.0666064    462.57239  0.013664551  0.013643627         3866 
 2822000   0.81132204   -9.0347254    462.25917   0.01365046  0.013637012         3794 
 2823000   0.79345549   -9.0290009    462.68268  0.013658126  0.013630409         3875 
 2824000   0.80040486   -9.0374842    462.71735  0.013654313  0.013623795         3795 
 2825000   0.79760973    -9.017122     464.2642  0.013695109  0.013617196         3858 
 2826000   0.80459439   -9.0322215    462.39994   0.01363529  0.013610596         3860 
 2827000   0.79483835   -9.0158721    463.55882  0.013664627  0.013604008         3817 
 2828000   0.78756166   -9.0235619    463.30193  0.013652226  0.013597422         3849 
 2829000   0.80662231   -9.0637869     462.2402  0.013616125  0.013590839         3866 
 2830000   0.79201218   -9.0399779    462.86524  0.013629719  0.013584259         3856 
 2831000   0.81274071    -9.063373    462.87224   0.01362511  0.013577666         3888 
 2832000   0.78590187   -9.0542106    462.83805  0.013619293  0.013571089         3854 
 2833000   0.79595433   -9.0365755    463.23816  0.013626255  0.013564518         3853 
 2834000   0.80858209   -9.0363861    462.52397  0.013600446  0.013557942         3870 
 2835000   0.79944158    -9.032346    462.96234  0.013608534  0.013551374         3874 
 2836000   0.79823002    -9.018293    462.79762  0.013598896  0.013544809         3842 
 2837000   0.79409543   -9.0449401    462.80069  0.013594193  0.013538246         3860 
 2838000   0.80323977    -9.057891    463.42854  0.013607838  0.013531691         3849 
 2839000   0.80192376   -9.0549728    462.90368  0.013587639  0.013525122         3871 
 2840000   0.79673755   -9.0553008    462.65221  0.013575476  0.013518562         3852 
 2841000   0.79175113   -9.0333976    463.07609  0.013583131  0.013512015         3858 
 2842000    0.7920754   -9.0517936    462.77991  0.013569667   0.01350546         3873 
 2843000   0.81367917   -9.0379721    462.30533  0.013550983  0.013498925         3845 
 2844000   0.80362642   -9.0233354    462.75046  0.013559261  0.013492397         3858 
 2845000   0.80186236   -9.0780338    461.67263  0.013522924  0.013485862         3818 
 2846000   0.80237862   -9.0084419    462.79575  0.013551058  0.013479331         3849 
 2847000   0.81007239   -9.0684779    462.30555   0.01353195  0.013472808         3860 
 2848000   0.79478337   -9.0611829    462.45995  0.013531717  0.013466281         3892 
 2849000   0.81679667    -9.039988    464.23114  0.013578775  0.013459768         3847 
 2850000   0.80937659   -9.0804726    462.07831  0.013511062  0.013453255         3865 
 2851000   0.79341956   -9.0655533    463.12156  0.013536816  0.013446733         3836 
 2852000   0.80597997   -9.0480272    462.01698  0.013499795  0.013440215         3864 
 2853000   0.79956618   -9.0312316    462.91152  0.013521192  0.013433707         3874 
 2854000   0.80966197    -9.043746    461.91587  0.013487382  0.013427204         3879 
 2855000   0.79349202   -9.0368902    462.61815  0.013503157  0.013420696         3871 
 2856000   0.77833368   -9.0593986    461.64661  0.013470081  0.013414194         3854 
 2857000   0.79542082   -9.0238484    462.90796  0.013502157  0.013407693         3864 
 2858000   0.82050613   -9.0512767    462.32469  0.013480426  0.013401198         3836 
 2859000   0.77970925   -9.0673864    462.33514  0.013476015  0.013394704         3876 
 2860000   0.80520924   -9.0640824     463.0734  0.013492815  0.013388219         3867 
 2861000   0.78846557   -9.0789356    462.13601  0.013460795  0.013381736         3870 
 2862000   0.80195592   -9.0692295    462.09512  0.013454901  0.013375255         3837 
 2863000   0.81623528   -9.0599129    463.25447  0.013483947  0.013368782         3864 
 2864000   0.79334844   -9.0572703    461.12476  0.013417271  0.013362308         3829 
 2865000   0.79084995   -9.0564497    463.90809  0.013493545  0.013355846         3817 
 2866000   0.80569653   -9.0709973    462.46198  0.013446789  0.013349378         3839 
 2867000   0.78865569   -9.0505828    462.60568  0.013446276   0.01334291         3868 
 2868000   0.78633412   -9.0695144    461.63395  0.013413353  0.013336455         3819 
 2869000   0.79918256   -9.0270128    462.57283  0.013435948  0.013329993         3845 
 2870000   0.77654767   -9.0708909     463.0918  0.013446336  0.013323543         3830 
 2871000   0.80032057    -9.069502     462.6692  0.013429386  0.013317092         3846 
 2872000    0.8152838   -9.0541409    462.85179  0.013430008  0.013310637         3846 
 2873000   0.80224497    -9.067579    462.05111  0.013402109  0.013304191         3854 
 2874000   0.77285526   -9.0782767    461.58684  0.013383984   0.01329775         3852 
 2875000   0.79948176   -9.0805692     462.6018  0.013408748    0.0132913         3868 
 2876000   0.80575207   -9.0301593    462.98381  0.013415155  0.013284862         3894 
 2877000   0.79329521   -9.0408322    462.55507  0.013398073  0.013278439         3858 
 2878000   0.78460929   -9.0774482    462.70688  0.013397813  0.013272006         3839 
 2879000   0.79318419   -9.0679869    463.28437  0.013409875  0.013265577         3850 
 2880000   0.77584143   -9.0418402     462.8017  0.013391253  0.013259156         3880 
 2881000   0.78384808    -9.073854     461.2666  0.013342202  0.013252731         3890 
 2882000   0.78818627   -9.0600079    460.71834  0.013321719  0.013246306         3862 
 2883000   0.80579265   -9.0571241    461.95526  0.013352852  0.013239886         3878 
 2884000    0.7690786   -9.0700142    463.51845   0.01339339  0.013233476         3900 
 2885000   0.78494161   -9.0489468    462.55035  0.013360784  0.013227066         3875 
 2886000   0.77810031   -9.0902805    463.32637  0.013378562  0.013220658         3899 
 2887000   0.79203566   -9.0631015     462.7779  0.013358097  0.013214253         3887 
 2888000   0.79261355   -9.0852982    461.66107  0.013321245  0.013207859         3882 
 2889000   0.80437764   -9.0640597    462.64481   0.01334501  0.013201463         3893 
 2890000   0.78807432   -9.0617784    462.28337   0.01332997  0.013195083         3880 
 2891000    0.7750221   -9.0497022    462.82257  0.013340902  0.013188698         3879 
 2892000    0.7886912   -9.0693989    462.96973  0.013340529  0.013182319         3915 
 2893000   0.79903581    -9.058967    462.15702  0.013312508  0.013175939         3874 
 2894000   0.79452725   -9.0651836    462.64878  0.013322068  0.013169555         3882 
 2895000   0.78696313   -9.0888113    462.05943  0.013300502  0.013163178         3857 
 2896000   0.80817598   -9.0573882    461.83805  0.013289539  0.013156808         3866 
 2897000   0.80395057    -9.053718    462.12194  0.013293118  0.013150434         3900 
 2898000    0.7822134    -9.063153    462.73274  0.013306095  0.013144062         3876 
 2899000   0.80359438   -9.0758037    462.21969  0.013286757  0.013137696         3883 
 2900000   0.77449684   -9.0570242    462.05157  0.013277344  0.013131332         3860 
 2901000   0.78593109   -9.0611015    462.37961   0.01328219  0.013124972         3899 
 2902000    0.7870798   -9.0710074    461.62982  0.013256082  0.013118622         3864 
 2903000   0.78599972   -9.0821556    462.88248  0.013287475  0.013112282         3874 
 2904000   0.77407944   -9.0241721    463.41564  0.013298199  0.013105941         3846 
 2905000   0.78883347   -9.0857747    461.96127  0.013251901  0.013099601         3871 
 2906000   0.79356251   -9.0324946    463.00812  0.013277361  0.013093261         3888 
 2907000   0.77776898   -9.0827564    462.22976  0.013250481  0.013086931         3875 
 2908000    0.7794019   -9.0672409    462.74252  0.013260618  0.013080605         3862 
 2909000   0.79695635   -9.0654867    462.64831  0.013253361  0.013074274         3881 
 2910000   0.79090723   -9.0658231    462.58011  0.013246853  0.013067954         3849 
 2911000   0.80233207   -9.0631544    462.33343  0.013235241  0.013061632         3875 
 2912000   0.79545639   -9.0558326    462.67776  0.013240549  0.013055309         3838 
 2913000   0.79754954    -9.048905    462.28902  0.013224883  0.013048996         3831 
 2914000   0.80054581   -9.0674444    462.14571  0.013216247  0.013042682         3872 
 2915000   0.80097641   -9.0643453     462.0145  0.013207962  0.013036382         3888 
 2916000   0.79587987   -9.0572966      461.818  0.013197817  0.013030076         3862 
 2917000   0.77281543   -9.0821373    460.53244  0.013156566  0.013023756         3902 
 2918000   0.77811581    -9.089008    461.78502  0.013187829   0.01301745         3908 
 2919000   0.77550421   -9.0670211    462.42133  0.013201477  0.013011151         3866 
 2920000   0.79241153   -9.0644403    461.65681  0.013175137   0.01300485         3902 
 2921000   0.78582148   -9.0685469    462.23145  0.013187021  0.012998553         3883 
 2922000   0.77092124   -9.0536498    461.92983  0.013173906  0.012992268         3870 
 2923000   0.79998729   -9.0808167    461.89883  0.013168515  0.012985984         3910 
 2924000   0.77100546   -9.0794279    462.02735  0.013167674  0.012979699         3881 
 2925000   0.78877059   -9.0685318     461.9982  0.013162342  0.012973421         3883 
 2926000   0.80362906   -9.0712664    461.59875  0.013146467  0.012967145         3895 
 2927000    0.7787913   -9.0582938    462.42354  0.013165458  0.012960878         3900 
 2928000   0.76493541    -9.071115    462.36508  0.013159297  0.012954608         3905 
 2929000   0.78983796   -9.0758246    461.87345  0.013140818   0.01294834         3874 
 2930000   0.79528688   -9.0737987    461.09667   0.01311424  0.012942079         3938 
 2931000    0.7846142   -9.0834561    463.07085  0.013165895  0.012935816         3895 
 2932000   0.77905388   -9.0586693    462.07589  0.013133126  0.012929553         3886 
 2933000   0.77898817   -9.0508875    463.20647   0.01316077    0.0129233         3901 
 2934000   0.78470429    -9.064212    461.29023  0.013101858  0.012917047         3903 
 2935000   0.78115542   -9.1045286    462.69792  0.013137363  0.012910808         3912 
 2936000   0.79024193   -9.0699109    461.64669  0.013103051  0.012904565         3911 
 2937000   0.78826321   -9.0734159      461.403  0.013091675  0.012898323         3890 
 2938000   0.78053427   -9.0852557    460.90871  0.013073199  0.012892087         3903 
 2939000   0.78521097   -9.0927356    460.10394  0.013045932  0.012885853         3901 
 2940000   0.78332668   -9.1047113    461.40776  0.013078451  0.012879616         3896 
 2941000   0.77585461   -9.0769579    462.12152  0.013094229  0.012873385         3892 
 2942000   0.78335285   -9.0865118    462.24828  0.013093368  0.012867162         3905 
 2943000      0.78795   -9.0889248    461.55444  0.013069273  0.012860945         3899 
 2944000   0.78920164   -9.0801155    461.56005  0.013064992  0.012854729         3876 
 2945000   0.78806632   -9.0867716    462.76011  0.013094513  0.012848521         3898 
 2946000   0.78325497   -9.0783179    462.18295  0.013073743  0.012842317         3866 
 2947000    0.7777578   -9.0828291    462.17563  0.013069099  0.012836111         3901 
 2948000   0.76945803   -9.1043777    462.08473  0.013062097  0.012829901         3909 
 2949000   0.77277782   -9.0771179    461.16385  0.013031645  0.012823696         3882 
 2950000   0.77835923    -9.065641    462.05009  0.013052262  0.012817504         3895 
 2951000   0.78867483   -9.0707842    461.45686  0.013031087  0.012811312         3866 
 2952000   0.76746198   -9.0819738    461.45249   0.01302655  0.012805119         3903 
 2953000   0.77711967   -9.0932842    461.28221  0.013017333  0.012798928         3912 
 2954000   0.78204703   -9.0924761    461.83483  0.013028516  0.012792742         3893 
 2955000   0.76509419   -9.0909479    461.42384  0.013012517  0.012786557         3855 
 2956000   0.78480369   -9.0760163     462.2272  0.013030762  0.012780376         3878 
 2957000   0.77315273   -9.1233061    461.18512  0.012996988    0.0127742         3887 
 2958000   0.78530008   -9.0674167    461.47091  0.013000645  0.012768029         3896 
 2959000   0.77513072   -9.0650509    462.89102  0.013036246  0.012761857         3873 
 2960000   0.78396387    -9.087859    462.84524  0.013030553  0.012755695         3878 
 2961000   0.79906992   -9.0782305    462.22733  0.013008762  0.012749533         3862 
 2962000   0.77551161   -9.1053748    461.90704  0.012995359  0.012743369         3882 
 2963000   0.77497623   -9.1005662    461.26626  0.012972951  0.012737203         3879 
 2964000     0.764936   -9.0934611    461.11031   0.01296419  0.012731044         3868 
 2965000   0.78268791   -9.1064989     460.3876  0.012939505  0.012724894         3897 
 2966000   0.78156716   -9.0861927    461.91926  0.012978176  0.012718743         3883 
 2967000   0.78310845   -9.1104354    460.69398  0.012939388   0.01271259         3889 
 2968000   0.78834562   -9.0885277    462.04749  0.012973032  0.012706441         3899 
 2969000   0.75984868   -9.0955886     462.3252  0.012976457  0.012700299         3878 
 2970000   0.78115975   -9.1041659    460.52822  0.012921667  0.012694159         3901 
 2971000   0.79981067   -9.0836665    460.98925  0.012930249  0.012688026         3854 
 2972000   0.78538785    -9.096306    461.54225  0.012941404  0.012681901         3856 
 2973000   0.78966428   -9.0849453    461.34454   0.01293151  0.012675765         3882 
 2974000   0.76924059   -9.0829958    460.75081  0.012910525  0.012669637         3912 
 2975000   0.78298856   -9.1137123    462.20506   0.01294692  0.012663517         3870 
 2976000   0.77471667    -9.104669    460.74713  0.012901745  0.012657393         3905 
 2977000   0.77909816   -9.0834176     462.0146  0.012932891  0.012651288         3867 
 2978000   0.77576839   -9.1167117     461.6501  0.012918349  0.012645182         3862 
 2979000   0.77565399   -9.0681741    461.87646  0.012920344  0.012639078         3838 
 2980000    0.7813769    -9.098778    461.20439  0.012897214  0.012632986         3871 
 2981000   0.79490024   -9.1002789    461.29701  0.012895477  0.012626886         3882 
 2982000   0.76728621   -9.1063346    461.38011  0.012893475  0.012620787         3880 
 2983000    0.7746907   -9.0870414    461.99179  0.012906241  0.012614702         3846 
 2984000   0.77343319   -9.1190788    461.41883  0.012885914  0.012608615         3884 
 2985000   0.77098152   -9.0826059    462.04795  0.012899161  0.012602524         3856 
 2986000   0.77779316   -9.0897056     460.3976  0.012848783  0.012596442         3864 
 2987000   0.77864216   -9.0944793    461.61765  0.012878519  0.012590358         3888 
 2988000   0.76911931   -9.1052059    462.42957  0.012896853  0.012584278         3886 
 2989000      0.76214   -9.1099766    461.08251  0.012854982  0.012578201         3886 
 2990000   0.76427645   -9.0894825    461.22834  0.012854748  0.012572125         3856 
 2991000   0.78012574   -9.0912773    461.64798  0.012862142  0.012566062         3900 
 2992000   0.77285189   -9.0915489    462.19933  0.012873199  0.012559995         3862 
 2993000   0.76516572   -9.1229876     461.7733  0.012857036  0.012553932         3848 
 2994000   0.77962936     -9.08483    461.03363  0.012832154   0.01254787         3839 
 2995000   0.76911606   -9.1050336    462.12447  0.012858221  0.012541817         3882 
 2996000   0.78899986   -9.1106566    460.66611  0.012813365  0.012535764         3896 
 2997000   0.76999188   -9.1063764    461.19168  0.012823704  0.012529726         3864 
 2998000   0.77159799   -9.1120305    461.81324  0.012836703  0.012523679         3865 
 2999000   0.76598585   -9.0784836    460.91771  0.012807539  0.012517634         3880 
 3000000   0.76763034   -9.1143754     461.4965  0.012819347  0.012511589         3873 
 3001000   0.76244566    -9.120566    460.88494  0.012798094  0.012505552         3898 
 3002000   0.76518627    -9.114559    461.32222  0.012805969  0.012499523         3869 
 3003000   0.75627481    -9.146487    461.13033  0.012796379  0.012493495         3885 
 3004000   0.76296795     -9.08275    461.09135  0.012791038  0.012487463         3893 
 3005000   0.78537229   -9.1064461    461.82806  0.012807212  0.012481439         3849 
 3006000   0.77413668   -9.1289351    461.38154  0.012790573   0.01247542         3890 
 3007000   0.76478985   -9.0929025    461.20104  0.012781317    0.0124694         3859 
 3008000   0.77882616   -9.1207358    460.92699  0.012769476  0.012463384         3919 
 3009000   0.78732799    -9.107116     460.5255  0.012754113  0.012457367         3884 
 3010000   0.76853532   -9.1169566    461.93707  0.012788955  0.012451351         3858 
 3011000     0.766789   -9.1136324    461.67599  0.012777482  0.012445347         3879 
 3012000   0.76324968   -9.0995026    460.86348   0.01275076  0.012439348         3877 
 3013000   0.76400088   -9.0961078    460.72366  0.012742661  0.012433349         3861 
 3014000   0.77266721   -9.1209704    460.95133  0.012744728  0.012427356         3897 
 3015000   0.77425437    -9.105296    461.21163  0.012747696  0.012421368         3878 
 3016000   0.76392875   -9.1235951    461.52483  0.012752123  0.012415384         3880 
 3017000   0.77196932   -9.1074299    461.79384  0.012755327  0.012409393         3864 
 3018000   0.78561098   -9.1114976    461.02341  0.012729827  0.012403416         3883 
 3019000   0.76787307   -9.0837182    461.40073  0.012736025  0.012397433         3887 
 3020000   0.78195986   -9.1329541    460.58349  0.012709257  0.012391457         3875 
 3021000   0.75636082   -9.1151309    461.12796   0.01272007  0.012385482         3879 
 3022000   0.75363035   -9.1192034    460.55287  0.012700002  0.012379512         3882 
 3023000   0.77076485   -9.1284157    461.16058  0.012712553  0.012373548         3879 
 3024000   0.77106721   -9.1150673    461.19536  0.012709308  0.012367583         3878 
 3025000   0.76945022   -9.1268934    461.45625  0.012712293  0.012361623         3893 
 3026000   0.77659123   -9.1246131    461.33413  0.012704729  0.012355666         3889 
 3027000   0.77026588    -9.107503    460.58986  0.012680042  0.012349715         3888 
 3028000   0.77693933   -9.1157817    461.32852  0.012696184   0.01234376         3868 
 3029000    0.7550921   -9.1121641     460.9652  0.012681996  0.012337817         3863 
 3030000   0.76261124   -9.1146436    461.23946  0.012685354  0.012331882         3874 
 3031000   0.76556397    -9.103619    462.38383  0.012712631  0.012325948         3896 
 3032000   0.76411602   -9.1214365    461.08072  0.012672623  0.012320012         3874 
 3033000   0.76283887   -9.0990889    461.69933  0.012685442  0.012314082         3856 
 3034000   0.76205997   -9.1270736    461.35579  0.012671825  0.012308158         3891 
 3035000   0.75902985   -9.1376049    460.87441  0.012654432  0.012302228         3911 
 3036000    0.7604611    -9.124642    461.03459   0.01265466  0.012296301         3905 
 3037000   0.77030964   -9.1321575    461.15006  0.012653662  0.012290379         3888 
 3038000   0.76430938   -9.1056761    461.71239  0.012664922  0.012284465         3879 
 3039000   0.77105912   -9.1440661    461.01201  0.012641549  0.012278552         3905 
 3040000   0.75087587   -9.1125396    461.34542   0.01264653  0.012272646         3881 
 3041000   0.77246158   -9.1031077    461.20277  0.012638462  0.012266744         3881 
 3042000   0.76638401   -9.1541107    460.74161  0.012621674  0.012260841         3896 
 3043000   0.78003438   -9.1383995    460.15844  0.012601557  0.012254941         3872 
 3044000    0.7703189   -9.1091847    460.81772  0.012615465  0.012249045         3879 
 3045000   0.77817426   -9.1072066    461.25532  0.012623298   0.01224315         3895 
 3046000    0.7579469   -9.1378354     461.1386  0.012615961  0.012237261         3865 
 3047000    0.7820091   -9.1107191    460.50478  0.012594486  0.012231378         3917 
 3048000   0.76876833    -9.116641    461.00303  0.012603976  0.012225495         3918 
 3049000   0.75487006   -9.1231026    461.27152  0.012607181  0.012219612         3902 
 3050000   0.77576585   -9.1204326    460.19322  0.012573585  0.012213732         3885 
 3051000   0.77055121   -9.1337292    460.76809  0.012585166   0.01220786         3911 
 3052000   0.75185467   -9.1361422    461.07614  0.012589453  0.012201999         3913 
 3053000   0.75884151   -9.1121193    461.37779  0.012593563  0.012196131         3903 
 3054000     0.765091   -9.1216664    460.65775  0.012569792  0.012190273         3888 
 3055000   0.77247134   -9.1466229    460.41894  0.012559164  0.012184416         3893 
 3056000   0.77023444    -9.118495    460.84499  0.012566672  0.012178558         3899 
 3057000   0.76068137     -9.13173    460.84282  0.012562502  0.012172711         3911 
 3058000   0.75551121   -9.1283896    460.46117  0.012547994  0.012166859         3898 
 3059000   0.75835412   -9.1191041    461.17848  0.012563432  0.012161009         3885 
 3060000   0.76656258   -9.1378466    461.07881  0.012556613  0.012155171         3902 
 3061000   0.76195776   -9.1358143     460.1105  0.012526149   0.01214933         3902 
 3062000   0.76857048    -9.144228     461.0607  0.012547918  0.012143501         3895 
 3063000   0.77344226   -9.1371365    460.95044  0.012540822   0.01213767         3898 
 3064000   0.76550625    -9.117972    460.95538  0.012536863  0.012131841         3904 
 3065000   0.76619458   -9.1208569    461.02619  0.012534698  0.012126014         3899 
 3066000   0.76671574   -9.1196551    460.76138  0.012523412   0.01212019         3887 
 3067000   0.76362315   -9.1348201     460.6699  0.012516843  0.012114364         3876 
 3068000    0.7413184   -9.1249219    461.13644  0.012525436  0.012108556         3889 
 3069000    0.7632979   -9.1388219     459.9579  0.012489353  0.012102749         3903 
 3070000   0.77215689   -9.1209613    461.57484  0.012529176  0.012096937         3877 
 3071000   0.75443284   -9.1169028    461.11496  0.012512617  0.012091137         3886 
 3072000   0.75574521   -9.1068484    460.70513  0.012497426  0.012085333         3878 
 3073000   0.76937677    -9.136631    461.02706   0.01250209  0.012079533         3892 
 3074000   0.74479073   -9.1326216    460.74035   0.01249025  0.012073741         3901 
 3075000   0.76126521   -9.1280952       461.41  0.012504336  0.012067952         3925 
 3076000   0.78047962   -9.0968879    461.51065  0.012502998  0.012062167         3894 
 3077000   0.77253401   -9.1389801    460.84562  0.012480923  0.012056386         3883 
 3078000   0.76794611   -9.1382862    461.21747  0.012486936  0.012050602         3878 
 3079000   0.75219265   -9.1519832    460.71248  0.012469213  0.012044831         3912 
 3080000   0.77314729   -9.1311373    460.57299   0.01246139  0.012039058         3920 
 3081000   0.75945867   -9.1264291    460.46096  0.012454316  0.012033285         3884 
 3082000   0.77268135   -9.1250363    462.59787  0.012508054  0.012027518         3861 
 3083000   0.75837848   -9.1306836    461.46736  0.012473439  0.012021756         3883 
 3084000   0.74535388   -9.1388208     460.9945  0.012456617  0.012015997         3942 
 3085000   0.75359636   -9.1426331    460.16902  0.012430282  0.012010234         3934 
 3086000   0.74512489   -9.1296411    460.88976  0.012445716  0.012004477         3909 
 3087000   0.74978265   -9.1623088    460.28977  0.012425488  0.011998725         3917 
 3088000   0.74732654   -9.1418605    460.38498  0.012424033  0.011992973         3929 
 3089000   0.74809734   -9.1291966    461.12159  0.012439883  0.011987229         3921 
 3090000   0.73279264   -9.1343862    460.46348  0.012418109  0.011981494         3905 
 3091000   0.75511542   -9.1417846    461.28669  0.012436285  0.011975765         3891 
 3092000   0.74471439   -9.1320833    461.56321  0.012439716  0.011970028         3905 
 3093000   0.75657954   -9.1391269    460.59423  0.012409587  0.011964297         3935 
 3094000   0.74724131   -9.1336963     461.4433  0.012428445  0.011958568         3898 
 3095000   0.74934312   -9.1348389    460.19568  0.012390837  0.011952845         3921 
 3096000   0.76103044   -9.1487832    460.87391   0.01240509  0.011947128         3915 
 3097000   0.75682563   -9.1176202    461.02559  0.012405166  0.011941411         3900 
 3098000   0.76195408   -9.1301999    460.73193  0.012393263  0.011935697         3876 
 3099000   0.75840677    -9.147377    461.11954  0.012399686  0.011929989         3900 
 3100000   0.76361627   -9.1484207    461.37378  0.012402521  0.011924282         3907 
 3101000   0.74261048    -9.134203    460.15103  0.012365662   0.01191858         3879 
 3102000   0.74474171   -9.1453669    461.08221  0.012386692   0.01191288         3900 
 3103000   0.75977914   -9.1519726    459.87617  0.012350311  0.011907174         3903 
 3104000    0.7507764   -9.1369659    461.24891  0.012383186  0.011901475         3880 
 3105000   0.76111438   -9.1684999    459.87344  0.012342282  0.011895778         3913 
 3106000   0.76905615   -9.1426915    459.55867  0.012329863  0.011890086         3900 
 3107000   0.75753992   -9.1574128    460.19205  0.012342883  0.011884395         3884 
 3108000   0.74274063   -9.1776088    459.92522  0.012331757  0.011878703         3931 
 3109000   0.76232077    -9.125643    460.18114   0.01233465  0.011873027         3897 
 3110000   0.76654118   -9.1351938    460.79682  0.012347182  0.011867351         3884 
 3111000     0.752931   -9.1429311    459.90755  0.012319392  0.011861684         3909 
 3112000   0.75349197   -9.1572476    459.27133  0.012298397  0.011856013         3897 
 3113000   0.77367763   -9.1628615    460.26233  0.012320975  0.011850344         3882 
 3114000   0.75365504   -9.1611704    459.68837  0.012301658  0.011844686         3900 
 3115000   0.74960725   -9.1518396    460.04401  0.012307223  0.011839028         3883 
 3116000    0.7582444   -9.1508593    460.17773   0.01230685  0.011833374         3920 
 3117000   0.75281863   -9.1493031    459.78939  0.012292519  0.011827718         3880 
 3118000   0.76407952   -9.1519957    460.34295  0.012303371  0.011822068         3872 
 3119000   0.75639814   -9.1328255    460.37766  0.012300354  0.011816429         3897 
 3120000   0.72516704   -9.1539054    460.96886  0.012312203  0.011810777         3903 
 3121000   0.74965223   -9.1247252    461.02579  0.012309778   0.01180514         3903 
 3122000   0.74300492   -9.1484787    460.58624  0.012294102  0.011799501         3876 
 3123000   0.74558563   -9.1293225    460.85103  0.012297231  0.011793866         3920 
 3124000   0.74986644   -9.1439422     460.0252  0.012271266  0.011788234         3911 
 3125000   0.74556886   -9.1435333    459.75201  0.012260054  0.011782602         3902 
 3126000   0.74355099   -9.1541794    460.84256  0.012285204  0.011776974         3914 
 3127000   0.74827109    -9.148038    460.64259  0.012275946  0.011771351         3892 
 3128000   0.75468753   -9.1641781     460.6312  0.012271718  0.011765735         3891 
 3129000    0.7547657   -9.1345695    460.73418  0.012270539  0.011760121         3880 
 3130000   0.76049697   -9.1240794    459.54004  0.012234825  0.011754508         3890 
 3131000    0.7366598    -9.091402    460.61035  0.012259404  0.011748901         3881 
 3132000   0.76750684   -9.1465391    460.15656  0.012243416  0.011743302         3885 
 3133000   0.73959912   -9.1564935    460.02488  0.012236006  0.011737699         3907 
 3134000   0.75229802    -9.148155     460.4541  0.012243515    0.0117321         3894 
 3135000   0.75223438   -9.1020713    459.64569   0.01221812  0.011726504         3878 
 3136000   0.75250898   -9.1326406     460.0243  0.012224285  0.011720911         3907 
 3137000   0.75130846   -9.1306713    460.63476  0.012236605  0.011715318         3918 
 3138000   0.74719675   -9.1519796    460.09789  0.012218448  0.011709732         3913 
 3139000   0.74478078   -9.1552691    460.43005  0.012223374  0.011704143         3897 
 3140000   0.74171443   -9.1512849    460.22068  0.012213925  0.011698561         3897 
 3141000   0.76532169   -9.1345008    460.61316  0.012220449  0.011692985         3892 
 3142000   0.73853725    -9.128658     460.3026  0.012208323  0.011687411         3896 
 3143000   0.74582754   -9.1520988    460.40807  0.012207235  0.011681837         3897 
 3144000   0.73077173   -9.1601616     461.1729  0.012223624  0.011676265         3915 
 3145000   0.74334145   -9.1487737    460.85923  0.012211426    0.0116707         3884 
 3146000   0.76392257   -9.1762271    460.07662  0.012186815  0.011665133         3914 
 3147000   0.77268517   -9.1937441    460.18101  0.012185706  0.011659572         3925 
 3148000   0.73112249   -9.1547441    460.48551  0.012189896  0.011654014         3900 
 3149000   0.75111792   -9.1610924    459.50951  0.012160197  0.011648468         3896 
 3150000   0.75738697   -9.1424821      460.151  0.012173307  0.011642924         3879 
 3151000   0.74103332   -9.1583556    459.94609  0.012164024  0.011637373         3910 
 3152000   0.75136209   -9.1579713    459.13703  0.012138775  0.011631831         3895 
 3153000   0.75601261   -9.1503339    460.29704  0.012165584  0.011626287         3896 
 3154000   0.74838722    -9.165208    459.82144  0.012149161  0.011620749         3902 
 3155000    0.7398713   -9.1494537    459.79508  0.012144614  0.011615215         3892 
 3156000   0.73940832   -9.1583416    460.19623  0.012151358  0.011609687         3913 
 3157000   0.74387255   -9.1461798    460.75076  0.012162146  0.011604159         3900 
 3158000   0.73221735   -9.1416077     460.2592  0.012145324  0.011598633         3919 
 3159000   0.75433312   -9.1492805    460.26846  0.012141724  0.011593104         3901 
 3160000   0.75756909   -9.1577503    460.10881  0.012133671  0.011587584         3897 
 3161000   0.74689249   -9.1722725    459.86447  0.012123391  0.011582066         3889 
 3162000   0.73699228   -9.1454002     459.9919  0.012122915   0.01157655         3894 
 3163000   0.75268236   -9.1601551    459.92281  0.012117262   0.01157104         3902 
 3164000   0.76840825   -9.1836154    460.14888  0.012119387  0.011565533         3891 
 3165000   0.74469557   -9.1462461    460.18065  0.012116394   0.01156003         3905 
 3166000   0.75218043   -9.1532341     460.2225  0.012113669  0.011554533         3881 
 3167000   0.75022174   -9.1682717    460.64206  0.012120884  0.011549032         3899 
 3168000   0.74193341   -9.1558931    459.97718  0.012099568  0.011543537         3878 
 3169000   0.73793855   -9.1479558     460.0762  0.012098354  0.011538053         3879 
 3170000   0.73129807   -9.1320061    460.90177   0.01211624  0.011532558         3901 
 3171000   0.73149374   -9.1384835    460.44298  0.012100362  0.011527078         3892 
 3172000   0.73295748   -9.1670925    460.47841  0.012097478  0.011521596         3881 
 3173000   0.75941363   -9.1777724    460.44683  0.012092836  0.011516124         3914 
 3174000   0.74725634   -9.1463388    460.90017  0.012100929  0.011510651         3904 
 3175000   0.74782043   -9.1348155    460.03804  0.012074489  0.011505188         3862 
 3176000   0.75109964   -9.1610476    460.21525  0.012075337  0.011499725         3885 
 3177000   0.73543761   -9.1430305    460.26947  0.012072958   0.01149426         3884 
 3178000   0.75398579    -9.158826    459.51206  0.012049299  0.011488802         3874 
 3179000   0.74353508   -9.1736518     459.2575  0.012038836  0.011483343         3881 
 3180000   0.73713082   -9.1669172    459.66401  0.012045703  0.011477887         3889 
 3181000   0.73522281   -9.1591363    459.83661  0.012046437  0.011472443         3872 
 3182000   0.73442985   -9.1524416    459.90164  0.012044355  0.011466995         3884 
 3183000   0.74263919       -9.167    460.32323  0.012051608   0.01146155         3878 
 3184000   0.74254351   -9.1729048    459.80674  0.012034305  0.011456104         3897 
 3185000   0.74424117   -9.1709548    460.58879  0.012050989  0.011450655         3887 
 3186000   0.74713152   -9.1845531    459.63756  0.012022326  0.011445222         3893 
 3187000   0.73204495    -9.150729    459.53512  0.012015875  0.011439793         3868 
 3188000   0.74406251   -9.1553126    459.65824  0.012015324  0.011434368         3905 
 3189000   0.75066544   -9.1580306     459.3886   0.01200451  0.011428936         3876 
 3190000   0.72195196    -9.166543    459.20769  0.011996021  0.011423517         3884 
 3191000   0.74384625   -9.1450959    460.40278  0.012023472  0.011418091         3904 
 3192000   0.76940861   -9.1639143    460.16321  0.012013451  0.011412675         3910 
 3193000   0.74270266   -9.1763538    460.71395  0.012024062  0.011407265         3895 
 3194000   0.74672209   -9.1862399    460.27279  0.012008787   0.01140186         3906 
 3195000   0.75002837   -9.1755739      460.189  0.012002843  0.011396454         3894 
 3196000   0.74032464   -9.1670433    460.27059  0.012001215  0.011391055         3893 
 3197000   0.74251138     -9.17832    460.47712  0.012002844   0.01138565         3887 
 3198000   0.73832799   -9.1590877    460.83651  0.012008456   0.01138025         3909 
 3199000   0.73829002   -9.1926756    460.19372  0.011987958  0.011374852         3894 
 3200000   0.73222999   -9.1609708    460.20536  0.011984515  0.011369463         3884 
 3201000   0.75155997   -9.1459538    459.62143  0.011965569   0.01136407         3900 
 3202000   0.74967097    -9.151169    460.03631  0.011972629  0.011358685         3894 
 3203000   0.75028449   -9.1729688    459.79641   0.01196265  0.011353303         3899 
 3204000   0.72797867   -9.1870669    460.41629  0.011975039  0.011347924         3899 
 3205000   0.73091857   -9.1423936    460.58385  0.011975659  0.011342548         3883 
 3206000   0.74738552   -9.1602799    460.29004  0.011964287  0.011337175         3897 
 3207000   0.73564345   -9.1727335    459.80385  0.011947922  0.011331812         3902 
 3208000   0.73414085   -9.1639239    458.86119  0.011919711  0.011326447         3882 
 3209000   0.74497874   -9.1477454    459.85223  0.011941732  0.011321084         3913 
 3210000   0.74004087   -9.1846377    460.29623  0.011949539  0.011315725         3903 
 3211000   0.73870364   -9.1692366    459.34285  0.011921075  0.011310368         3884 
 3212000   0.72064696   -9.1530033    460.06418  0.011936078  0.011305015         3893 
 3213000   0.75604823     -9.15776    459.42406   0.01191576  0.011299657         3899 
 3214000   0.74562137   -9.1522163    460.20082  0.011932193  0.011294308         3933 
 3215000   0.74454082   -9.1597639    459.67428  0.011914834  0.011288964         3893 
 3216000   0.74290372   -9.1556255     460.0271  0.011920271   0.01128362         3916 
 3217000   0.75031495   -9.1608382    460.22174  0.011921608  0.011278285         3898 
 3218000   0.73596257   -9.1749737    459.53046  0.011900001  0.011272956         3907 
 3219000   0.74336173   -9.1772627    460.61802  0.011924459  0.011267621         3915 
 3220000   0.72631671    -9.168746    459.99945  0.011904748  0.011262294         3923 
 3221000    0.7541471   -9.1716364    459.58552  0.011890342   0.01125697         3892 
 3222000   0.73953258   -9.1721357    459.35844  0.011880779  0.011251647         3894 
 3223000   0.76950062   -9.1601084    459.70173  0.011885969  0.011246328         3914 
 3224000   0.74581254   -9.1640306    459.67234  0.011881522   0.01124101         3897 
 3225000   0.73716075    -9.157474    459.97921  0.011885768  0.011235695         3907 
 3226000    0.7446176   -9.1653337    460.20936  0.011888029  0.011230383         3891 
 3227000   0.73879373   -9.1681687    460.46783  0.011891019  0.011225075         3923 
 3228000   0.74526229   -9.1816673    460.51883  0.011888652  0.011219773         3905 
 3229000   0.73864828   -9.1742897    459.82052  0.011866948  0.011214474         3895 
 3230000   0.73865669   -9.1663444    460.55007  0.011882097  0.011209175         3901 
 3231000   0.72423546   -9.1466825    459.69041  0.011856247  0.011203878         3866 
 3232000    0.7346111   -9.1544675    460.63997  0.011877062  0.011198586         3879 
 3233000   0.72563264   -9.1558624    459.89485  0.011854182  0.011193294         3876 
 3234000   0.71836097   -9.1968083    459.37455   0.01183711  0.011188003         3919 
 3235000   0.72744051   -9.1986345    459.68222  0.011841376  0.011182719         3919 
 3236000    0.7331321   -9.1535516    459.73729  0.011839135  0.011177438         3889 
 3237000   0.72561726   -9.1658317    459.55026  0.011830663   0.01117216         3902 
 3238000   0.73558914   -9.1575331    459.75693  0.011832328  0.011166889         3898 
 3239000   0.73432572    -9.181227    459.74055  0.011828253  0.011161617         3906 
 3240000   0.72408866   -9.1879378    459.00256  0.011805621  0.011156346         3914 
 3241000   0.73806094   -9.1727438    458.94267  0.011800439  0.011151087         3911 
 3242000   0.73176012   -9.1943024    459.60957  0.011813941  0.011145826         3909 
 3243000    0.7372841   -9.1483428    460.49153  0.011832961  0.011140576         3884 
 3244000   0.73204913   -9.1812356     459.8228  0.011812135  0.011135322         3890 
 3245000   0.73224884   -9.1919391    460.37679  0.011822722  0.011130072         3893 
 3246000     0.727048   -9.1811488    459.60347  0.011799227  0.011124821         3891 
 3247000   0.71598673   -9.1650979    459.75054  0.011799367  0.011119573         3914 
 3248000   0.73254801    -9.171837    458.90268  0.011773981   0.01111433         3894 
 3249000   0.74716704   -9.1887168    459.13449  0.011776303  0.011109084         3918 
 3250000   0.72629356   -9.1700104    460.14567  0.011798607   0.01110385         3901 
 3251000   0.73994512   -9.1904817    459.78849  0.011785822  0.011098615         3920 
 3252000   0.73082489   -9.1672509    458.74865  0.011755552  0.011093385         3884 
 3253000   0.73034643   -9.1696312     460.0966  0.011786469  0.011088162         3887 
 3254000   0.74025569   -9.1748282    459.53653  0.011768504  0.011082941         3913 
 3255000   0.72006492   -9.1770636    458.65091  0.011742215  0.011077715         3909 
 3256000    0.7333909   -9.1567514     459.8426  0.011769108  0.011072495         3887 
 3257000   0.72373034   -9.1865453    459.21231  0.011749368   0.01106728         3892 
 3258000   0.72248257   -9.1527586    459.71643  0.011758656  0.011062061         3890 
 3259000   0.73417334   -9.1920061    458.13281  0.011714555  0.011056847         3906 
 3260000   0.72433877   -9.1892701    459.11808  0.011736147  0.011051636         3883 
 3261000   0.73023033   -9.1596109    460.56726  0.011769581  0.011046434         3902 
 3262000   0.73273231   -9.1960214    459.37157  0.011735427   0.01104124         3905 
 3263000    0.7117849   -9.1876461    458.67409  0.011714018  0.011036035         3907 
 3264000   0.72728621   -9.1552443    459.75946   0.01173814  0.011030838         3888 
 3265000    0.7139688   -9.1549678    459.66516  0.011732138  0.011025647         3897 
 3266000   0.73693642   -9.1868592    459.75997  0.011730965  0.011020454         3900 
 3267000   0.72762004   -9.1738091    459.68963   0.01172558  0.011015268         3929 
 3268000   0.74343868   -9.1703653    459.54951  0.011718419  0.011010084         3906 
 3269000   0.72612658   -9.2009697    459.12224  0.011703942  0.011004903         3902 
 3270000   0.70296839   -9.2057261    459.17269  0.011701649  0.010999724         3892 
 3271000   0.72292184   -9.1621542    459.60433  0.011709068   0.01099455         3897 
 3272000   0.74301763   -9.1886887    460.47091   0.01172756  0.010989376         3889 
 3273000   0.72111926   -9.1946322     459.9469  0.011710635  0.010984209         3903 
 3274000   0.72858518   -9.1777044    459.29243    0.0116904  0.010979044         3889 
 3275000   0.72305003   -9.1870202    459.22228  0.011685045  0.010973883         3912 
 3276000   0.72473716    -9.176039    459.87751  0.011698146  0.010968726         3902 
 3277000   0.72886876   -9.1603108    460.58858  0.011712659  0.010963571         3930 
 3278000   0.72834405   -9.1976372    459.87173  0.011690862   0.01095842         3895 
 3279000   0.72140831   -9.1616145    460.03327  0.011691402  0.010953267         3887 
 3280000   0.73634024    -9.179736     460.1273  0.011690226  0.010948124         3919 
 3281000   0.71627521   -9.1904997    458.22398  0.011638321  0.010942981         3912 
 3282000   0.72158442   -9.1887146    458.99682  0.011654398  0.010937839         3895 
 3283000   0.72545295    -9.198626    458.67875  0.011642775    0.0109327         3910 
 3284000   0.70783088   -9.1972205    460.23707  0.011678773  0.010927572         3902 
 3285000    0.7124301   -9.1864742    459.91702  0.011667099   0.01092244         3890 
 3286000   0.71828794   -9.1869438    459.78756  0.011660265  0.010917312         3892 
 3287000    0.7341318   -9.1746655    458.86961  0.011633445   0.01091219         3899 
 3288000   0.72023505    -9.161336    460.06765  0.011660271  0.010907072         3896 
 3289000    0.7304058   -9.2102495    459.61611  0.011645285  0.010901953         3895 
 3290000    0.7195059   -9.2165192    459.66797  0.011643059  0.010896837         3900 
 3291000   0.72887866   -9.1651786    459.71563  0.011640728  0.010891718         3917 
 3292000   0.72490497   -9.2062563    459.33321  0.011627511  0.010886604         3902 
 3293000   0.73357134   -9.2093316    459.66368  0.011632343  0.010881497         3911 
 3294000   0.73007689   -9.1971862    459.86799  0.011633981  0.010876391         3894 
 3295000   0.72241679   -9.1841825    459.38309  0.011618186  0.010871288         3906 
 3296000    0.7410131    -9.198658     458.5576  0.011593791  0.010866192         3903 
 3297000   0.71496853   -9.1765259    457.97381  0.011575518  0.010861098         3895 
 3298000    0.7204467   -9.1843901    458.92713  0.011596097  0.010856002         3897 
 3299000    0.7296026   -9.1691437     459.4414  0.011605572  0.010850918         3914 
 3300000   0.72142215   -9.2047334    458.81071  0.011586129  0.010845829         3922 
 3301000   0.71380549    -9.182075    459.54827  0.011601239  0.010840742         3923 
 3302000   0.72359687   -9.1906704    459.46777  0.011595694  0.010835664         3925 
 3303000   0.71855608   -9.1720672    459.44929  0.011591717  0.010830581         3919 
 3304000   0.74113605   -9.1881433    459.25901  0.011583409  0.010825508         3924 
 3305000   0.72878932   -9.2189867    458.53773  0.011561718  0.010820434         3893 
 3306000   0.72507493   -9.1975504    459.18624  0.011574567  0.010815367         3896 
 3307000   0.73109268    -9.209039    459.80187  0.011586581  0.010810302         3911 
 3308000   0.72947232    -9.210475    459.36067  0.011571964   0.01080524         3904 
 3309000   0.72499343   -9.2203443    459.09733  0.011561835  0.010800178         3892 
 3310000   0.73018318    -9.198432    459.45746  0.011567408  0.010795117         3910 
 3311000   0.72900979   -9.1739785    460.04379  0.011578672  0.010790065         3904 
 3312000   0.73103284   -9.1921129    460.14509  0.011577725  0.010785014         3905 
 3313000   0.72962304   -9.2082119    459.31858  0.011553441  0.010779968         3882 
 3314000   0.71782641   -9.1880951    459.15539  0.011545851  0.010774924         3919 
 3315000     0.717754   -9.1880464    459.08211  0.011540526  0.010769885         3887 
 3316000   0.71258513   -9.1926609    459.10589  0.011537643  0.010764845         3886 
 3317000   0.70971108   -9.2056897    459.03596  0.011532408  0.010759806         3923 
 3318000   0.71884809   -9.2274089    458.99909  0.011528006   0.01075477         3909 
 3319000   0.73217215   -9.1734307    460.25468  0.011556058  0.010749741         3924 
 3320000   0.71256047   -9.1901438      459.176  0.011525502  0.010744711         3890 
 3321000   0.72226323   -9.1863309    459.79131  0.011537471  0.010739685         3898 
 3322000    0.7239431   -9.2059058    459.06574  0.011515797  0.010734664         3914 
 3323000   0.72035917   -9.2211929    458.36762  0.011494825  0.010729642         3915 
 3324000   0.72941884   -9.2128896    458.93809  0.011505668  0.010724626         3903 
 3325000   0.72585136   -9.2124087    458.58099  0.011493258  0.010719609         3916 
 3326000   0.73003942   -9.1954669     458.9082  0.011498001  0.010714604         3926 
 3327000   0.72503857   -9.1827792    459.41646  0.011507275  0.010709598         3917 
 3328000   0.70707871   -9.2156125    458.70961  0.011486118  0.010704597         3900 
 3329000   0.71928428   -9.2043214    459.02112  0.011490466  0.010699597         3891 
 3330000   0.69872542   -9.1865612    459.32767  0.011494686  0.010694601         3894 
 3331000   0.71450778   -9.1896917    459.15805  0.011486992  0.010689606         3903 
 3332000   0.72106425   -9.1904542    457.83989  0.011450577   0.01068461         3886 
 3333000    0.7275616   -9.2296678    458.36764  0.011460337  0.010679628         3870 
 3334000   0.71921334   -9.2072307    459.02675  0.011473374  0.010674637         3901 
 3335000   0.71211728   -9.2023974    459.43394  0.011480108   0.01066966         3894 
 3336000   0.71930247   -9.1824478    458.87554  0.011462718  0.010664677         3917 
 3337000   0.71854724   -9.2113981    459.28235  0.011469442  0.010659702         3895 
 3338000   0.72007954    -9.201728    459.16505  0.011463078   0.01065473         3929 
 3339000   0.70679373   -9.2224442    459.25257  0.011461829  0.010649758         3901 
 3340000   0.72368728   -9.1816391    459.32506  0.011460206  0.010644791         3911 
 3341000   0.70109232   -9.2076229    458.28117  0.011430739  0.010639822         3876 
 3342000    0.7024551   -9.1792226    459.70671  0.011462864  0.010634857         3903 
 3343000   0.71784944   -9.2076072    458.73168   0.01143513  0.010629899         3906 
 3344000    0.7105662   -9.2051448    460.41956  0.011473773  0.010624945         3902 
 3345000   0.71894756   -9.1883975    459.35233  0.011443755   0.01061999         3889 
 3346000   0.70866757   -9.2051353    458.31265  0.011414441  0.010615038         3890 
 3347000   0.70857575    -9.185459    459.48858  0.011440309  0.010610085         3889 
 3348000   0.72368492    -9.222028    459.20224  0.011429765  0.010605137         3905 
 3349000    0.7232761   -9.2162624    459.15112   0.01142508  0.010600202         3880 
 3350000   0.71183195     -9.19423    459.29024   0.01142513  0.010595263         3908 
 3351000   0.72441995   -9.1939794    458.41891  0.011400052  0.010590325         3896 
 3352000    0.7036977   -9.2026011    459.32194  0.011419101  0.010585393         3918 
 3353000   0.71510388   -9.1955555    458.28968  0.011390041  0.010580466         3899 
 3354000   0.71257074   -9.2080131    459.48906  0.011416445  0.010575533         3903 
 3355000   0.71213312   -9.2010469    459.05379   0.01140223   0.01057061         3904 
 3356000    0.7110938   -9.2045642    457.90731  0.011370364  0.010565687         3898 
 3357000   0.69498497   -9.1871206    458.91689  0.011392039  0.010560771         3889 
 3358000   0.71898334   -9.2143118    459.55942  0.011404592  0.010555853         3912 
 3359000   0.72302774   -9.2077409    459.98197  0.011411679   0.01055094         3872 
 3360000   0.70045544   -9.1997999    459.74629  0.011402438  0.010546032         3910 
 3361000   0.70775258   -9.2104645    458.62067  0.011371136  0.010541125         3904 
 3362000   0.71309812   -9.2127376     459.7293  0.011395233  0.010536223         3894 
 3363000   0.71829233   -9.1989617    459.55779  0.011387595   0.01053132         3887 
 3364000   0.73570805   -9.2092308     459.5757  0.011384654   0.01052642         3914 
 3365000   0.71425896   -9.2110198    459.25381  0.011373299  0.010521528         3872 
 3366000   0.70149575   -9.1965694    458.38019  0.011348292  0.010516639         3908 
 3367000   0.69940721   -9.2008082    458.06386  0.011337092  0.010511753         3912 
 3368000   0.71178593   -9.1918528     459.1193   0.01135984  0.010506864         3894 
 3369000   0.72439983   -9.1873849    459.52254  0.011366443  0.010501982         3907 
 3370000   0.71209569   -9.1990649    459.69259  0.011367275  0.010497105         3903 
 3371000   0.70064494   -9.1975267    458.90694  0.011344481  0.010492224         3884 
 3372000   0.72042795   -9.2063841    458.80998   0.01133872  0.010487355         3898 
 3373000    0.7008636   -9.1826039    459.66602  0.011356508  0.010482488         3893 
 3374000   0.71183514   -9.2035096    459.07159  0.011338461   0.01047762         3919 
 3375000   0.70494315   -9.2039003    459.50543  0.011345813  0.010472755         3922 
 3376000   0.70886301   -9.2150206    458.56283  0.011319185  0.010467895         3889 
 3377000   0.70935746    -9.211983    459.18244  0.011331123  0.010463034         3916 
 3378000   0.71439573   -9.2066838    459.47049  0.011334875  0.010458174         3902 
 3379000   0.70835628   -9.2160729    459.42192  0.011330323  0.010453319         3903 
 3380000   0.70294783    -9.211942    459.25756  0.011322918  0.010448464         3914 
 3381000   0.70632713   -9.1890537    460.06537   0.01133948   0.01044361         3878 
 3382000   0.70463062   -9.2033154    459.14621  0.011313479  0.010438766         3902 
 3383000   0.70993214    -9.214326    459.07547  0.011308392   0.01043392         3909 
 3384000   0.71592571    -9.214092    459.64931  0.011319181  0.010429074         3902 
 3385000    0.7010912   -9.2106301    458.23179   0.01128094  0.010424233         3888 
 3386000   0.71643545   -9.2047625    458.52122  0.011284732  0.010419397         3902 
 3387000   0.70332551   -9.1942626    458.57773   0.01128279  0.010414564         3892 
 3388000   0.71240188   -9.2287718    458.68487  0.011282095  0.010409736         3884 
 3389000    0.7043512   -9.1896246    460.44682  0.011322092  0.010404915         3918 
 3390000   0.71466248    -9.203591    459.08253  0.011285215  0.010400092         3888 
 3391000   0.69322414   -9.2108105    459.36622  0.011288858  0.010395274         3886 
 3392000   0.71271991   -9.1945897    459.75978  0.011295199  0.010390456         3884 
 3393000   0.70944385     -9.18149    458.38492  0.011258103  0.010385637         3907 
 3394000   0.71187398   -9.2108964    458.45262  0.011256448  0.010380824         3900 
 3395000   0.70986165   -9.2179554     458.7083  0.011259408  0.010376012         3910 
 3396000   0.70587674   -9.1930473    459.41321  0.011273391  0.010371205         3909 
 3397000   0.71599338   -9.2088131    458.09509  0.011237736  0.010366401         3917 
 3398000   0.69749173   -9.1921963    459.69639    0.0112737  0.010361597         3918 
 3399000   0.71337788    -9.240694    458.79961  0.011248397  0.010356796         3922 
 3400000   0.71104583    -9.230292    458.49102  0.011237525  0.010351998         3927 
 3401000   0.71067969   -9.2042517    458.80142  0.011241826  0.010347203         3904 
 3402000   0.71370631   -9.2276478    458.35106   0.01122749  0.010342416         3909 
 3403000   0.71547268   -9.2137164    458.48086   0.01122737  0.010337626         3925 
 3404000   0.69526561   -9.2084141    458.14102  0.011215751  0.010332837         3873 
 3405000   0.70420408   -9.2489527     457.8894    0.0112063  0.010328053         3894 
 3406000   0.71072335   -9.2052051    458.73996   0.01122382  0.010323272         3921 
 3407000   0.70727068   -9.2067913    458.73384  0.011220376  0.010318492         3912 
 3408000   0.69859877   -9.2393223    459.38706  0.011233056  0.010313719         3936 
 3409000   0.71308675   -9.2333659    458.97841  0.011219771  0.010308949         3922 
 3410000   0.69411695   -9.2055919    459.18636  0.011221563  0.010304184         3911 
 3411000   0.70023025   -9.2133998    459.33525  0.011221911  0.010299421         3898 
 3412000   0.69393607   -9.2064792    459.16533  0.011214472  0.010294657         3891 
 3413000   0.70571765   -9.1887854    458.10889  0.011185391  0.010289905         3910 
 3414000   0.70464666   -9.2021052    459.16145  0.011207807  0.010285155         3929 
 3415000   0.70874576    -9.210633    458.51585  0.011188771  0.010280403         3927 
 3416000    0.7062981   -9.2248417    458.80095  0.011192451  0.010275657         3902 
 3417000   0.70690707   -9.2054889    458.71471  0.011187072  0.010270913         3888 
 3418000   0.71150447   -9.2301387    458.61032  0.011181254   0.01026617         3908 
 3419000   0.69853026   -9.2361887    459.22281  0.011192913  0.010261426         3932 
 3420000   0.69613023   -9.2110123     458.2407  0.011165709  0.010256691         3902 
 3421000   0.69924381   -9.2283286    459.14289  0.011184422  0.010251955         3927 
 3422000   0.70281667   -9.2220837    458.96994  0.011176942  0.010247224         3907 
 3423000   0.70333826   -9.1919732    458.73144   0.01116787  0.010242492         3910 
 3424000   0.70740482   -9.2437284    459.10551  0.011173713  0.010237767         3898 
 3425000   0.70929046   -9.2203397    458.28644  0.011150522  0.010233042         3903 
 3426000   0.70818107   -9.2241447    458.39971  0.011150022  0.010228324         3915 
 3427000    0.6988342   -9.2494206    458.04346  0.011138106  0.010223614         3901 
 3428000   0.70378868   -9.2215621    459.36438  0.011166968  0.010218896         3906 
 3429000   0.67928313   -9.2267595    458.56159  0.011144201   0.01021418         3920 
 3430000   0.70181528   -9.2127933    457.96304   0.01112641  0.010209469         3906 
 3431000   0.70850979   -9.2154326    458.61609  0.011139029  0.010204756         3904 
 3432000   0.69670482   -9.2197658    458.95329  0.011143971  0.010200053         3914 
 3433000    0.7130333   -9.2267845    459.38617  0.011151232   0.01019535         3911 
 3434000   0.72024681   -9.2091216    459.03411  0.011139442  0.010190651         3899 
 3435000   0.69811686   -9.2312472    457.71927  0.011104301  0.010185957         3906 
 3436000   0.69977513   -9.2221711    457.91816  0.011105892  0.010181265         3912 
 3437000   0.70241911   -9.2377045    458.25232  0.011110763   0.01017657         3897 
 3438000   0.68782832   -9.2165098    459.58999  0.011139955  0.010171885         3881 
 3439000    0.6791939   -9.2207892    458.24162  0.011104042  0.010167199         3921 
 3440000   0.70357993   -9.2323593    458.58721  0.011109186  0.010162511         3909 
 3441000   0.71568059   -9.2170814    459.26845  0.011122456  0.010157832         3907 
 3442000   0.69173505   -9.2250011    458.27061  0.011095066  0.010153157         3901 
 3443000   0.70935597   -9.2195064    458.60023  0.011099822  0.010148482         3896 
 3444000   0.69022599   -9.2358325     458.4458  0.011092862  0.010143807         3916 
 3445000   0.70564409   -9.2269489    458.78038  0.011097735  0.010139139         3919 
 3446000   0.68470319   -9.2146225    459.04432  0.011100898   0.01013447         3906 
 3447000   0.70795977   -9.2226293    457.89656  0.011069929  0.010129804         3912 
 3448000   0.71011486   -9.2244947    458.40063  0.011078902  0.010125141         3896 
 3449000   0.70103797   -9.2332631    458.76446   0.01108448  0.010120485         3896 
 3450000   0.71274288   -9.2346241    458.51145  0.011075156  0.010115824         3909 
 3451000   0.69242066   -9.2325618    458.46715  0.011070877  0.010111167         3913 
 3452000   0.69376127   -9.2089689    459.03597  0.011081401  0.010106515         3910 
 3453000   0.70107323   -9.2098655    458.33279  0.011061222  0.010101867         3891 
 3454000   0.69618189   -9.2271336    457.74524  0.011043844  0.010097223         3919 
 3455000   0.70819195   -9.2415381    458.45952  0.011057875   0.01009258         3909 
 3456000   0.68939794   -9.2334347    459.48208  0.011079332  0.010087935         3910 
 3457000   0.68142567   -9.2148302    457.92881  0.011038685  0.010083293         3904 
 3458000    0.6865208    -9.210431    457.96222  0.011036298  0.010078656         3904 
 3459000   0.70549391   -9.2367592    458.13161  0.011037188  0.010074023         3899 
 3460000   0.69855381   -9.2251019    458.66483  0.011046841  0.010069393         3905 
 3461000   0.69341656   -9.2027741    458.80497  0.011047023  0.010064762         3889 
 3462000    0.7012341   -9.2344838    458.60079  0.011038918  0.010060142         3922 
 3463000   0.70172146    -9.234366    458.87889  0.011042422  0.010055522         3922 
 3464000   0.70142076   -9.2395019     458.9154  0.011040113  0.010050902         3915 
 3465000   0.70321782   -9.2272647    457.79732  0.011010036  0.010046285         3912 
 3466000   0.69042431   -9.2278357    458.66489  0.011027719  0.010041673         3921 
 3467000   0.69039126   -9.2090691    458.37443  0.011017557  0.010037058         3919 
 3468000   0.68812874   -9.2399166    458.23641  0.011011063  0.010032446         3931 
 3469000   0.68895377   -9.2278884    458.29935  0.011009401  0.010027839         3928 
 3470000   0.69983197    -9.231682    458.79694  0.011018178  0.010023239         3913 
 3471000   0.68679766   -9.2512211    457.79951  0.010991057  0.010018636         3922 
 3472000   0.70167886   -9.2486235    458.63767  0.011008008   0.01001404         3929 
 3473000   0.69162354   -9.2287248     459.1709  0.011017634  0.010009441         3932 
 3474000   0.68691978   -9.2144153    457.91514  0.010984339  0.010004847         3918 
 3475000   0.69582121   -9.2360561    458.39659  0.010992724  0.010000252         3913 
 3476000   0.69444929   -9.2600913    458.54719  0.010993172  0.009995667         3928 
 3477000   0.71073931   -9.2244161    458.57415  0.010990657 0.0099910836         3906 
 3478000   0.69060728   -9.2567912    457.53829  0.010962677 0.0099864962         3919 
 3479000   0.69428651   -9.2536284    458.27206  0.010977102 0.0099819139         3892 
 3480000    0.6932421   -9.1983146    458.64324  0.010982836 0.0099773353         3900 
 3481000   0.70662617   -9.2406612    458.64175  0.010979646 0.0099727639         3912 
 3482000   0.69638269   -9.2435827    458.34929  0.010969493 0.0099681896         3913 
 3483000   0.68311555    -9.260903    457.28134  0.010940792 0.0099636207         3888 
 3484000   0.68304317    -9.227613    458.34329  0.010963052  0.009959049         3907 
 3485000   0.68270571   -9.2277646    457.96005  0.010950743 0.0099544879         3909 
 3486000   0.68686642   -9.2178065    458.79903  0.010967657 0.0099499281         3898 
 3487000   0.69568964   -9.2421317    458.27216   0.01095192 0.0099453677         3911 
 3488000   0.72114048   -9.2478977    457.88426  0.010939513 0.0099408152         3906 
 3489000   0.69742784   -9.2472581    458.14957  0.010942714 0.0099362629         3905 
 3490000   0.69622184   -9.2375589    458.65033  0.010951536 0.0099317173         3887 
 3491000   0.68476249   -9.2527428    458.19396  0.010937505 0.0099271708         3908 
 3492000   0.69969914   -9.2290714    458.29033  0.010936673 0.0099226263         3899 
 3493000   0.69639651   -9.2197276    457.83249  0.010922619 0.0099180835         3911 
 3494000   0.69357884   -9.2325261     457.4847  0.010911198 0.0099135421         3906 
 3495000    0.6963793   -9.2368162    458.12676  0.010923385  0.009909007         3911 
 3496000   0.68268056    -9.262601    457.33092   0.01090129 0.0099044705         3919 
 3497000   0.69094788   -9.2272161    458.31855  0.010921708 0.0098999336         3898 
 3498000   0.70693877   -9.2501653    457.25737  0.010893305 0.0098954095         3894 
 3499000   0.69191847    -9.265828    458.24251  0.010913654 0.0098908852         3926 
 3500000   0.68574202   -9.2528081    457.58937  0.010894985 0.0098863582         3920 
 3501000   0.68959844   -9.2506502    458.02497  0.010902242  0.009881836         3912 
 3502000   0.69328017   -9.2503299    458.30498  0.010905791 0.0098773208         3909 
 3503000   0.69350718    -9.226431    457.81168  0.010890943 0.0098728091         3908 
 3504000   0.69118474   -9.2686186     458.0181  0.010892744  0.009868299         3913 
 3505000   0.68037765   -9.2544854    458.51204   0.01090138 0.0098637904         3926 
 3506000   0.69840327   -9.2634359     457.3761  0.010871271 0.0098592845         3926 
 3507000   0.68570463    -9.250005    457.53949  0.010872053 0.0098547776         3908 
 3508000   0.69229153   -9.2587008     458.1125  0.010882566 0.0098502773         3899 
 3509000   0.69457904   -9.2428469    457.78388   0.01087166 0.0098457824         3914 
 3510000   0.67915854   -9.2289114     458.9331  0.010895848 0.0098412872         3911 
 3511000   0.69815532    -9.250988    457.84208  0.010866849 0.0098367938         3891 
 3512000   0.67943327   -9.2611929    458.04372  0.010868539 0.0098323055         3902 
 3513000   0.69665703   -9.2390469    458.90331  0.010885836 0.0098278187         3902 
 3514000     0.710673   -9.2451586    458.60515  0.010875668 0.0098233393         3899 
 3515000    0.7109248   -9.2657111    457.36606  0.010843197 0.0098188561         3924 
 3516000   0.69221512   -9.2416459    457.85264  0.010851646 0.0098143794         3900 
 3517000   0.70243902   -9.2644476    457.36397  0.010836982 0.0098099022         3916 
 3518000   0.68838587   -9.2522506    458.21405  0.010854037 0.0098054322         3894 
 3519000   0.67683927   -9.2195397    458.26265  0.010852104 0.0098009616         3899 
 3520000   0.70706868   -9.2479211    458.65698  0.010858357 0.0097964968         3913 
 3521000   0.68157179    -9.247019    457.77844   0.01083448 0.0097920329         3931 
 3522000   0.70069509   -9.2410395    457.43459  0.010823268  0.009787571         3904 
 3523000   0.68177182   -9.2622915    456.97462  0.010809316 0.0097831101         3936 
 3524000   0.70293063   -9.2466046    457.31279  0.010814245 0.0097786486         3927 
 3525000    0.6985435   -9.2616816    458.32566  0.010835122 0.0097741918         3906 
 3526000   0.69459541   -9.2479519    458.95832  0.010847001 0.0097697394         3911 
 3527000    0.7053655    -9.263867    457.54872  0.010810621  0.009765293         3886 
 3528000   0.69250896   -9.2557249    457.86473  0.010815021 0.0097608469         3907 
 3529000    0.6842341   -9.2451514    458.08229  0.010817094 0.0097564019         3909 
 3530000   0.69110963   -9.2373138     457.4593  0.010799322 0.0097519579         3911 
 3531000   0.68957038   -9.2361877    457.54388   0.01079826  0.009747517         3903 
 3532000   0.69896213   -9.2407519      458.601  0.010820144 0.0097430777         3903 
 3533000   0.69478429   -9.2461465    458.02797  0.010803566  0.009738645         3915 
 3534000    0.6892946   -9.2635122    457.93071  0.010798215 0.0097342126         3908 
 3535000   0.67636684   -9.2573431    458.56819  0.010810188 0.0097297879         3916 
 3536000   0.68752714   -9.2661821     457.9005  0.010791396 0.0097253639         3889 
 3537000   0.68910062   -9.2560154    458.11329  0.010793358 0.0097209437         3909 
 3538000    0.6899085   -9.2600744    458.05226   0.01078887 0.0097165235         3926 
 3539000   0.69904006   -9.2607942    456.94481  0.010759744 0.0097121029         3907 
 3540000   0.69863227   -9.2503475    457.39482  0.010767298 0.0097076879         3909 
 3541000   0.68944333   -9.2765913    457.65247  0.010770321 0.0097032733         3912 
 3542000    0.6829906   -9.2460043    457.50319  0.010763768  0.009698862         3941 
 3543000   0.69721077   -9.2657196    458.04359   0.01077344 0.0096944581         3903 
 3544000   0.66848533   -9.2520649    456.93658   0.01074437 0.0096900513         3903 
 3545000   0.67374982   -9.2445523    457.40877  0.010752439 0.0096856508         3923 
 3546000   0.69268116   -9.2199338    457.92555  0.010761552 0.0096812511         3917 
 3547000   0.69013847   -9.2634195     458.1523  0.010763845 0.0096768545         3898 
 3548000   0.68241781   -9.2579087    458.27037  0.010763584 0.0096724592         3901 
 3549000   0.68100173   -9.2601726    458.15666  0.010757882  0.009668063         3923 
 3550000   0.69549968   -9.2649754    457.03329  0.010728481 0.0096636713         3906 
 3551000   0.68719253   -9.2530735    457.85725  0.010744796 0.0096592801         3892 
 3552000   0.68662259   -9.2551009    458.14453  0.010748511 0.0096548992         3901 
 3553000   0.69594865   -9.2486334    457.51103  0.010730627 0.0096505181         3916 
 3554000   0.69300327   -9.2517931    458.16621  0.010742971 0.0096461362         3914 
 3555000   0.67654884   -9.2642212    457.44855  0.010723126 0.0096417595         3889 
 3556000   0.69259596    -9.264208    457.86157  0.010729789 0.0096373848         3907 
 3557000   0.66806751   -9.2381716    456.97057  0.010705899 0.0096330065         3888 
 3558000   0.69136184   -9.2507769    458.56331  0.010740194 0.0096286387         3895 
 3559000   0.69687414   -9.2516908    457.84557   0.01072037 0.0096242714         3910 
 3560000   0.68952522   -9.2729799    457.26874  0.010703856  0.009619906         3921 
 3561000   0.69016395   -9.2894077    457.31646  0.010701967 0.0096155477         3920 
 3562000   0.68236227   -9.2509067    457.31749  0.010698987 0.0096111875         3924 
 3563000   0.67950311   -9.2541815    457.65107  0.010703786 0.0096068243         3890 
 3564000   0.69489875   -9.2554105    458.05075  0.010710128 0.0096024702         3883 
 3565000   0.67829382   -9.2742815    456.90896  0.010680434 0.0095981186         3926 
 3566000    0.6924958   -9.2631498    458.06198  0.010704384 0.0095937697         3903 
 3567000   0.68856402   -9.2668564    457.66333  0.010692069 0.0095894232         3897 
 3568000   0.66412741   -9.2493138    458.48989  0.010708378 0.0095850766         3890 
 3569000   0.70101835   -9.2539268    457.23717  0.010676127 0.0095807329         3912 
 3570000   0.69339133   -9.2702829    457.77838   0.01068577 0.0095763946         3928 
 3571000   0.68930125   -9.2639188    458.61553  0.010702313 0.0095720547         3919 
 3572000   0.68383827   -9.2457928    457.46508  0.010672478  0.009567719         3900 
 3573000   0.66443417   -9.2542649    457.19806  0.010663263 0.0095633832         3914 
 3574000   0.68628862   -9.2860829    456.50748  0.010644177 0.0095590482         3919 
 3575000   0.68413914   -9.2692547    457.68558  0.010668661 0.0095547187         3891 
 3576000   0.67677339   -9.2533119    457.36881  0.010658296 0.0095503891         3898 
 3577000   0.68691291   -9.2737465    457.55969  0.010659764 0.0095460696         3899 
 3578000   0.67869672   -9.2435501    458.22738  0.010672335 0.0095417497         3905 
 3579000   0.68836184     -9.26133    457.91964  0.010662188 0.0095374357         3901 
 3580000   0.68162201   -9.2735675    456.58868  0.010628228 0.0095331167         3913 
 3581000   0.68517796   -9.2560038    457.84265  0.010654441 0.0095287997         3908 
 3582000   0.66858342   -9.2499973    458.16104  0.010658874 0.0095244851         3901 
 3583000   0.67356321   -9.2553857    458.44276  0.010662451 0.0095201757         3899 
 3584000   0.68208419   -9.2669356    457.14357  0.010629268 0.0095158674         3928 
 3585000   0.68704075   -9.2896164    457.34686  0.010631029 0.0095115648         3910 
 3586000   0.66926159   -9.2585231     456.8837  0.010617301 0.0095072649         3922 
 3587000   0.66906833   -9.2705152    457.81075  0.010635878 0.0095029669         3892 
 3588000   0.69342778   -9.2676584    458.02097  0.010637797 0.0094986742         3900 
 3589000   0.68065358   -9.2452333    457.84747  0.010630804 0.0094943807         3913 
 3590000   0.67757846   -9.2605446    457.70104  0.010624444 0.0094900865         3919 
 3591000   0.66817332   -9.2753539    456.93608  0.010603733 0.0094857959         3900 
 3592000   0.67105225   -9.2609449    457.30519  0.010609345 0.0094815134         3919 
 3593000   0.66100174   -9.2796445    457.81163  0.010618138 0.0094772321         3895 
 3594000   0.67099247   -9.2531167    458.17954  0.010623714 0.0094729517         3908 
 3595000   0.66442316   -9.2859676    456.66572  0.010585668 0.0094686699         3903 
 3596000   0.66548998    -9.279022    457.90044  0.010611338 0.0094643918         3877 
 3597000   0.69434669   -9.2525011    458.41165  0.010620231 0.0094601173         3906 
 3598000   0.68072176   -9.2693412     457.7909  0.010602902 0.0094558458         3921 
 3599000   0.67718437   -9.2561601    457.19801  0.010586228 0.0094515744         3907 
 3600000    0.6633476   -9.2608891    456.62662  0.010570061 0.0094473098         3898 
 3601000   0.67652976   -9.2851341     456.9725   0.01057513  0.009443049         3933 
 3602000   0.68682131   -9.2919365    457.74517   0.01059007 0.0094387868         3925 
 3603000   0.66909516   -9.2740205    457.11853  0.010572637 0.0094345272         3897 
 3604000   0.67987178   -9.2666138    457.84805  0.010586572 0.0094302722         3903 
 3605000   0.67042288   -9.2939308    456.09608  0.010543136 0.0094260187         3919 
 3606000   0.66818288   -9.2799227    456.95887  0.010560151 0.0094217675         3890 
 3607000   0.67704057   -9.2764417    457.28008  0.010564645 0.0094175161         3908 
 3608000   0.67890842   -9.2890396    457.52296  0.010567326 0.0094132697         3916 
 3609000   0.67998492   -9.2981131     457.6256  0.010566768 0.0094090271         3934 
 3610000   0.66998715   -9.2592943    457.84801  0.010568975 0.0094047884         3888 
 3611000   0.66083079   -9.2593522    458.44895  0.010579917 0.0094005498         3921 
 3612000   0.68092208   -9.2851632    457.04519  0.010544601 0.0093963117         3939 
 3613000   0.67265381   -9.2748171    458.28719  0.010570329 0.0093920808         3908 
 3614000   0.67607302   -9.2892206     457.5138  0.010549571 0.0093878504         3911 
 3615000   0.65674996   -9.2778281    457.24555  0.010540469 0.0093836207         3898 
 3616000   0.66467956   -9.2901811    457.32821  0.010539459 0.0093793903         3917 
 3617000   0.67009223   -9.2601129     458.3241   0.01055949 0.0093751656         3922 
 3618000   0.66325014   -9.2683295     457.4113  0.010535547 0.0093709437         3911 
 3619000   0.69569742   -9.2819165    457.19679  0.010527696 0.0093667247         3920 
 3620000   0.67710745   -9.2703903    457.53764  0.010532634 0.0093625094         3908 
 3621000   0.66055432   -9.2732696    456.66886  0.010509732 0.0093582945         3918 
 3622000   0.67534769   -9.2677747    457.24773  0.010520148 0.0093540841         3905 
 3623000    0.6774296   -9.2862249    456.29084  0.010495235 0.0093498746         3903 
 3624000   0.67204898   -9.2997114    457.01932   0.01050909   0.00934567         3923 
 3625000   0.67523494   -9.2585767    456.83307   0.01050191 0.0093414632         3908 
 3626000    0.6768421   -9.2956294    457.17738  0.010506926 0.0093372597         3922 
 3627000   0.66193495   -9.2663408    457.52589  0.010512037  0.009333059         3912 
 3628000   0.66986423   -9.2705712    457.16467  0.010500842  0.009328862         3929 
 3629000   0.67032885   -9.2828988    457.15919  0.010497823 0.0093246612         3891 
 3630000   0.67549482   -9.2776729    458.34061  0.010522053 0.0093204705         3924 
 3631000   0.67859997   -9.2520408     457.8462  0.010507808 0.0093162817         3918 
 3632000   0.66764159   -9.2790702    456.85388  0.010482147  0.009312093         3919 
 3633000   0.67340999   -9.2695932    457.08232  0.010484501  0.009307906         3896 
 3634000   0.66360173   -9.2792056    457.01425  0.010480055 0.0093037222         3922 
 3635000   0.66871982   -9.2985629     456.9405  0.010475481 0.0092995394         3907 
 3636000   0.67178796   -9.2844086    457.14241  0.010477228 0.0092953637         3911 
 3637000   0.67675536   -9.2789318    457.25659  0.010476963 0.0092911857         3904 
 3638000    0.6707103   -9.2596947    458.70085  0.010507166 0.0092870134         3910 
 3639000   0.65876668   -9.2838685    457.49833  0.010476741 0.0092828409         3923 
 3640000   0.66963313   -9.2799321    457.29708  0.010469256 0.0092786765         3902 
 3641000   0.66376747   -9.2635033    457.58975  0.010473078   0.00927451         3912 
 3642000   0.66459273   -9.2742063    458.12179  0.010482377 0.0092703447         3931 
 3643000   0.65718247   -9.2765077    457.76316  0.010471296 0.0092661844         3885 
 3644000   0.66747499   -9.2647687     457.5236  0.010462944 0.0092620229         3893 
 3645000   0.67079052   -9.2945298    457.45095  0.010458412 0.0092578623         3893 
 3646000   0.66328341    -9.289958    457.38498  0.010454036 0.0092537079         3913 
 3647000   0.66116353   -9.2809779    457.70478  0.010458477 0.0092495544         3910 
 3648000   0.65518458   -9.2987997    457.04644  0.010440571 0.0092454067         3916 
 3649000   0.65131886   -9.2845151    456.74762  0.010430886 0.0092412579         3920 
 3650000   0.66427716   -9.2825114    457.67371  0.010449172 0.0092371115         3901 
 3651000   0.66583364   -9.2662925    456.97973   0.01043047 0.0092329693         3926 
 3652000   0.65822664   -9.2618399    457.89546  0.010448509  0.009228829         3891 
 3653000   0.67145467   -9.2733211     457.2873  0.010431775 0.0092246908         3909 
 3654000   0.66371778    -9.278382    457.18566  0.010426602 0.0092205572         3906 
 3655000   0.67795021   -9.2837405    457.13983  0.010422705 0.0092164235         3888 
 3656000   0.65856414   -9.2920224    456.83992  0.010413018 0.0092122924         3909 
 3657000   0.66988365   -9.2927061    457.35034  0.010421802 0.0092081688         3902 
 3658000   0.64550593   -9.2899015    456.17803  0.010392246 0.0092040395         3901 
 3659000   0.67138264   -9.2882579    456.97067  0.010407458 0.0091999162         3900 
 3660000   0.68734408   -9.2728051    457.16089  0.010408946 0.0091958004         3898 
 3661000   0.68175608   -9.2964403     456.7556  0.010396877 0.0091916838         3924 
 3662000   0.66817012   -9.2827612    456.80882  0.010395249 0.0091875684         3903 
 3663000   0.66480074   -9.2877946    458.39345  0.010428461 0.0091834562         3892 
 3664000   0.66524438   -9.2838638    456.46691  0.010381798  0.009179349         3914 
 3665000   0.67313946   -9.2896411    457.56857  0.010404015 0.0091752436         3900 
 3666000    0.6819924   -9.2894587    457.34741   0.01039615 0.0091711414         3908 
 3667000   0.65905483   -9.2606142    457.27408  0.010391648 0.0091670416         3882 
 3668000   0.66207719   -9.2680279    457.75965  0.010399847 0.0091629448         3913 
 3669000   0.66330876   -9.2853437    457.75922  0.010397002 0.0091588467         3908 
 3670000   0.68319309   -9.2951364    457.50662  0.010388434  0.009154749         3909 
 3671000   0.65235945   -9.2870741    457.28475  0.010380567 0.0091506605         3900 
 3672000   0.66445694   -9.2908823    456.76971  0.010366052 0.0091465729         3906 
 3673000   0.66604463   -9.2852779    456.75176  0.010362822 0.0091424823         3905 
 3674000   0.67351164   -9.2941138    457.27975  0.010371978 0.0091383961         3895 
 3675000   0.66547416   -9.2738452    457.31986  0.010370065 0.0091343074         3910 
 3676000   0.66013253   -9.3229733     456.6314  0.010351637 0.0091302223         3914 
 3677000   0.66049893   -9.2918986    456.66864  0.010349666 0.0091261452         3909 
 3678000   0.66844662   -9.2999491    457.09967  0.010356617 0.0091220718         3903 
 3679000   0.66380316   -9.2908731    456.81426  0.010347338 0.0091179954         3899 
 3680000   0.65732009   -9.2858625    457.41467  0.010358122 0.0091139308         3884 
 3681000   0.66552941   -9.2875129    457.09855  0.010348152 0.0091098591         3890 
 3682000   0.65907252   -9.3011127    457.08891  0.010345123 0.0091057937         3903 
 3683000   0.64896433    -9.301983    456.63502  0.010332044 0.0091017277         3916 
 3684000   0.65516384   -9.2884404    456.26721  0.010320919 0.0090976677         3905 
 3685000   0.67251141   -9.2746176    458.06089  0.010358681 0.0090936106         3888 
 3686000    0.6661544   -9.2739059    457.35839  0.010339989 0.0090895546         3897 
 3687000    0.6541145   -9.2838275    456.97618  0.010328546 0.0090854976         3898 
 3688000   0.66080291   -9.2857034    457.70093  0.010342121 0.0090814468         3903 
 3689000   0.65823603   -9.2977542    456.69309  0.010316551 0.0090773961         3936 
 3690000   0.67535883   -9.3048852    456.48015  0.010308946  0.009073348         3910 
 3691000   0.66862041   -9.2955073    456.68122  0.010310693 0.0090693049         3911 
 3692000   0.66746264   -9.2803809    457.35374   0.01032308 0.0090652621         3895 
 3693000   0.65950723   -9.2932709    457.66154   0.01032723 0.0090612191         3885 
 3694000   0.66190063   -9.2947988    456.52065  0.010298697 0.0090571769         3927 
 3695000   0.65507168   -9.2751181     457.0144  0.010307045 0.0090531394         3900 
 3696000   0.65560732   -9.2945519    456.97359  0.010303337 0.0090491085         3919 
 3697000   0.67408775   -9.3125593    456.49721  0.010289812 0.0090450787         3886 
 3698000   0.67613138   -9.2996713    457.44367  0.010308358 0.0090410519         3922 
 3699000   0.65297603   -9.2987684    456.18917  0.010277308 0.0090370252         3905 
 3700000   0.66195084   -9.2736775    457.22089  0.010297768 0.0090330017         3915 
 3701000   0.66773965    -9.274671     457.1672  0.010293777 0.0090289793         3923 
 3702000   0.66530575   -9.2960058    455.97306  0.010264115 0.0090249578         3924 
 3703000   0.65879227   -9.2854798    456.44035  0.010271859 0.0090209393         3930 
 3704000   0.66781749   -9.3037253    456.13945  0.010262317 0.0090169242         3905 
 3705000   0.64642024   -9.2932337    456.57744  0.010269398 0.0090129111         3916 
 3706000   0.66394315    -9.277961    457.79154  0.010293927 0.0090089033         3914 
 3707000   0.66400899   -9.3091931    457.58602   0.01028653 0.0090048958         3909 
 3708000   0.65897863   -9.2971891    457.15919  0.010274164 0.0090008908         3923 
 3709000   0.65486144   -9.3124081    457.44719  0.010277864 0.0089968889         3924 
 3710000   0.67170061   -9.3026695    456.12409  0.010245375 0.0089928905         3894 
 3711000   0.66891669    -9.301623    457.26821  0.010268306 0.0089888933         3891 
 3712000   0.64840184   -9.2861974    457.89624  0.010279639 0.0089848955         3905 
 3713000   0.65600302   -9.2981777    457.11626  0.010259365 0.0089809015         3904 
 3714000   0.65735617   -9.3122395    456.80347  0.010249584 0.0089769127         3899 
 3715000   0.65039139   -9.2901561    457.07234  0.010252857 0.0089729224         3906 
 3716000   0.66804194   -9.2864938    456.98142  0.010248058 0.0089689355         3893 
 3717000   0.66018508    -9.316273    457.33234  0.010253169  0.008964953         3906 
 3718000   0.66521593   -9.3086136    456.17114  0.010224385 0.0089609728         3889 
 3719000   0.65450527   -9.2993101    456.56945   0.01023056  0.008956994         3905 
 3720000   0.65778114   -9.2844243    456.77076   0.01023232 0.0089530108         3921 
 3721000   0.66418942   -9.2987161    456.40897  0.010221468 0.0089490334         3904 
 3722000   0.66571323   -9.3080851    457.07687  0.010233675 0.0089450583         3910 
 3723000   0.64833084   -9.3119417    456.34696  0.010214589 0.0089410876         3920 
 3724000   0.65388594   -9.2828889    457.15209  0.010229862 0.0089371181         3914 
 3725000   0.65870042   -9.2967105    456.69491  0.010216888 0.0089331544         3917 
 3726000   0.63467501   -9.2881497    457.51175  0.010232415 0.0089291897         3909 
 3727000   0.64086956   -9.2976677    456.68651  0.010211218  0.008925228         3905 
 3728000   0.66487708   -9.3029147    456.80066   0.01021103 0.0089212689         3919 
 3729000   0.66782097   -9.2956772    456.83237  0.010209001 0.0089173153         3896 
 3730000   0.65140493   -9.2915776    457.18626   0.01021417 0.0089133605         3930 
 3731000   0.65107958   -9.2974903    456.45983  0.010195207 0.0089094071         3922 
 3732000   0.65488459   -9.3144755    456.28976  0.010188678 0.0089054583         3915 
 3733000   0.65146028   -9.2929466    457.13473  0.010204811 0.0089015086         3918 
 3734000   0.64789089   -9.3145125    456.87843  0.010196358 0.0088975642         3900 
 3735000   0.64482558   -9.2942274    456.26853  0.010180021 0.0088936219         3914 
 3736000   0.64572227   -9.2984989    456.30461  0.010178101 0.0088896809         3908 
 3737000   0.65905176   -9.2975355    456.27927  0.010174812 0.0088857466         3922 
 3738000   0.64173376   -9.3148727     455.9066  0.010163782 0.0088818087         3888 
 3739000    0.6715438    -9.291869    456.38351  0.010171693 0.0088778788         3904 
 3740000   0.65885918   -9.3250082    456.67732   0.01017552 0.0088739472         3910 
 3741000     0.633159   -9.2967098    456.68812   0.01017304 0.0088700197         3914 
 3742000   0.64774899    -9.288786    456.95666  0.010176302 0.0088660939         3914 
 3743000   0.66207407   -9.3143305    456.04807  0.010153355 0.0088621667         3891 
 3744000   0.66116145   -9.3102238    457.26677  0.010177768 0.0088582474         3906 
 3745000   0.66105557   -9.2884095    457.81306  0.010187206 0.0088543269         3912 
 3746000   0.63225755   -9.2961712    456.28587  0.010150513 0.0088504139         3928 
 3747000     0.669847   -9.2942329    457.09991  0.010165909 0.0088465034         3897 
 3748000   0.64633402    -9.310834    457.23959  0.010166302  0.008842594         3909 
 3749000   0.66326843   -9.2957211    456.72077  0.010152058 0.0088386864         3915 
 3750000    0.6422051   -9.3046889    456.78292  0.010150732 0.0088347761         3895 
 3751000   0.64880834    -9.317171    456.70676  0.010146333 0.0088308723         3915 
 3752000   0.66576838   -9.3093422    456.59366  0.010141117 0.0088269704         3909 
 3753000   0.64948101   -9.3268787    456.52491  0.010136889 0.0088230687         3922 
 3754000   0.64819906   -9.2853812    456.81273  0.010140577 0.0088191683         3902 
 3755000   0.65503026   -9.3129521    456.62701  0.010133755  0.008815273         3931 
 3756000   0.64397587   -9.3131929    455.88287  0.010114547  0.008811383         3901 
 3757000   0.64035718   -9.2992831    456.57677  0.010127246  0.008807493         3905 
 3758000    0.6555061   -9.3122295    455.83106  0.010108015  0.008803605         3905 
 3759000   0.65896153   -9.2946811    456.43241  0.010118658 0.0087997148         3907 
 3760000   0.63977803   -9.3094805    456.38071  0.010114821 0.0087958349         3913 
 3761000   0.64883289   -9.3331166    456.87928  0.010123178 0.0087919535         3910 
 3762000   0.66263123   -9.3062185    456.65624  0.010115547 0.0087880704         3911 
 3763000   0.65026646   -9.3110071    456.59233  0.010111443 0.0087841936         3922 
 3764000   0.65217133   -9.2865785    456.90263  0.010115627 0.0087803184         3922 
 3765000   0.65901015   -9.3247374    456.51438  0.010104347 0.0087764483         3932 
 3766000   0.66721903   -9.2963324     456.4376  0.010099965 0.0087725818         3896 
 3767000   0.65297508   -9.3044309     456.1279  0.010090432 0.0087687132         3914 
 3768000   0.63858264   -9.2965403    456.68503  0.010100076 0.0087648485         3913 
 3769000   0.65349628   -9.3023965    457.10266   0.01010663 0.0087609835         3908 
 3770000   0.66133872   -9.3025216    456.66711  0.010094322 0.0087571208         3893 
 3771000   0.65761043   -9.3160359     456.2481  0.010082385 0.0087532627         3934 
 3772000   0.64379666   -9.2954802    456.05387  0.010075421 0.0087494091         3909 
 3773000   0.65944635   -9.3266598    457.08003  0.010095415 0.0087455544         3917 
 3774000   0.64837063   -9.3014516    457.24024  0.010096278 0.0087417017         3894 
 3775000    0.6481889   -9.2910169     456.4447  0.010076042 0.0087378476         3897 
 3776000   0.65546795   -9.3069177     456.1852  0.010067647 0.0087339949         3902 
 3777000   0.64229837   -9.3069921     456.3803  0.010069286 0.0087301472         3913 
 3778000    0.6420014   -9.3165694    455.88029  0.010055591 0.0087263048         3912 
 3779000   0.66254822   -9.3181109    456.39421  0.010064263 0.0087224661         3935 
 3780000   0.64448754   -9.3145017    455.69975  0.010046291 0.0087186278         3901 
 3781000    0.6416908   -9.3045949    456.70937  0.010065886 0.0087147901         3917 
 3782000    0.6336215   -9.3223548     455.4836  0.010036215 0.0087109505         3921 
 3783000   0.65548823   -9.3298094    456.02978  0.010045594  0.008707118         3918 
 3784000   0.63926833   -9.3301113    456.45657  0.010052338 0.0087032855         3910 
 3785000   0.65091946   -9.3375073    456.29115   0.01004604 0.0086994562         3938 
 3786000     0.655189   -9.3185057    456.18222  0.010040989 0.0086956324         3911 
 3787000   0.64173605   -9.3210258    456.55256  0.010046487 0.0086918079         3918 
 3788000   0.65462317    -9.324502    456.69556  0.010046981 0.0086879817         3926 
 3789000   0.65102135   -9.3208104    456.07312   0.01003064 0.0086841607         3916 
 3790000   0.63088312   -9.3189616    456.12994  0.010029242  0.008680339         3916 
 3791000   0.65764756   -9.3153345     457.2212  0.010050585  0.008676526         3902 
 3792000   0.63931714   -9.3084597    456.16111  0.010024638  0.008672718         3920 
 3793000   0.63921207   -9.3091954    455.13895 0.0099995375 0.0086689066         3912 
 3794000   0.65885288   -9.3175953    456.26019  0.010021529 0.0086650988         3893 
 3795000   0.64610877   -9.3341068    456.49721  0.010024093 0.0086612924         3917 
 3796000   0.63600147   -9.3446196    455.94543  0.010009339 0.0086574848         3920 
 3797000   0.65905027   -9.3290941    456.23066  0.010012963 0.0086536822         3918 
 3798000   0.65051806   -9.3212429    456.16729  0.010008936 0.0086498801         3936 
 3799000   0.63433957   -9.3282377    456.82016  0.010020623 0.0086460812         3924 
 3800000   0.64030207   -9.3192582    456.55334  0.010012135  0.008642285         3927 
 3801000   0.64698874   -9.3127833    456.18715  0.010001472 0.0086384934         3913 
 3802000   0.65288855   -9.3214034    456.05518 0.0099959492 0.0086347017         3920 
 3803000   0.63809563    -9.291348    456.80339  0.010009716 0.0086309128         3933 
 3804000   0.65295641   -9.3134234     455.0082 0.0099677577 0.0086271281         3908 
 3805000   0.65368228   -9.3232366    456.20547 0.0099913594 0.0086233435         3910 
 3806000   0.63838389   -9.3092133    456.07716 0.0099859249 0.0086195572         3921 
 3807000   0.64325777     -9.32188    456.69758 0.0099968824 0.0086157773         3903 
 3808000   0.63878372   -9.3175164    456.14477 0.0099821597 0.0086119975         3929 
 3809000   0.63859666   -9.3116427     455.7284 0.0099704298 0.0086082186         3938 
 3810000   0.66304015   -9.3136302       456.71 0.0099892826  0.008604446         3902 
 3811000   0.65738552   -9.3139612    455.80217 0.0099668102 0.0086006758         3911 
 3812000   0.63397956    -9.318584    456.03647 0.0099693177  0.008596908         3914 
 3813000   0.64900704   -9.3222501    456.01955 0.0099663333 0.0085931417         3915 
 3814000   0.65020201   -9.3204201    455.84312 0.0099598653 0.0085893764         3902 
 3815000   0.64753486   -9.3308505    456.09203 0.0099626918 0.0085856152         3910 
 3816000    0.6539669   -9.3231655    456.12225 0.0099607409 0.0085818496         3921 
 3817000   0.64689498   -9.3319199    456.47781 0.0099658941  0.008578091         3901 
 3818000   0.65643701   -9.3221552    456.07012 0.0099543854 0.0085743331         3923 
 3819000   0.63878643   -9.3031323    456.43419  0.009959723 0.0085705784         3913 
 3820000   0.64487475   -9.3133139    455.86763 0.0099447564 0.0085668248         3914 
 3821000    0.6385432   -9.3260206    456.53428 0.0099566928 0.0085630773         3916 
 3822000   0.64431006    -9.317956    456.12753 0.0099452192 0.0085593288         3912 
 3823000   0.63737359   -9.3319842    456.47799  0.009950257  0.008555583         3927 
 3824000    0.6403265   -9.3314379    456.37419 0.0099453929 0.0085518394         3923 
 3825000   0.64021779   -9.3421995    456.79959 0.0099520608 0.0085480986         3885 
 3826000   0.64184131   -9.3246229     456.3975 0.0099407018 0.0085443565         3931 
 3827000   0.64763458   -9.3310235    455.64169 0.0099216464 0.0085406211         3914 
 3828000   0.64910337   -9.3168179    456.66781 0.0099413927 0.0085368866         3883 
 3829000   0.65089096   -9.3204444    456.30566 0.0099309145  0.008533154         3909 
 3830000   0.64431167   -9.3281838    455.98656 0.0099213785 0.0085294216         3908 
 3831000   0.64786049   -9.3193561    456.22095 0.0099238873 0.0085256936         3899 
 3832000   0.64678391   -9.3251395    455.64317 0.0099087329  0.008521966         3931 
 3833000   0.62678264   -9.3240288    456.00033 0.0099139128 0.0085182404         3925 
 3834000   0.64319108   -9.3439767    455.65838 0.0099038945 0.0085145176         3911 
 3835000   0.63535231   -9.3196941    455.52203 0.0098983492 0.0085108003         3931 
 3836000   0.65032787   -9.3359241    455.92262 0.0099044712 0.0085070837         3925 
 3837000   0.63115306   -9.3299071    456.32459   0.00991062 0.0085033645         3908 
 3838000   0.63418855   -9.3289895    455.83871  0.009897488 0.0084996511         3915 
 3839000   0.64551212    -9.344507    456.80509 0.0099158872 0.0084959367         3917 
 3840000    0.6344703   -9.3428868    455.84602 0.0098924917  0.008492225         3908 
 3841000   0.64720282   -9.3147202    456.09325   0.00989528 0.0084885188         3928 
 3842000   0.65126683   -9.3280937    455.81396 0.0098866467 0.0084848164         3911 
 3843000   0.63662367   -9.3296069     455.8251 0.0098843157 0.0084811128         3901 
 3844000   0.64312808   -9.3239858    455.59674 0.0098767937 0.0084774119         3909 
 3845000   0.64194861   -9.3210632    455.57261  0.009873702 0.0084737115         3893 
 3846000   0.64744065   -9.3221047    456.73911 0.0098964098 0.0084700123         3901 
 3847000   0.63298997   -9.3161782    455.60624 0.0098692974 0.0084663176         3911 
 3848000   0.62600093   -9.3459638    456.01953 0.0098756828 0.0084626221         3894 
 3849000   0.64705169   -9.3319242     456.3764 0.0098808435 0.0084589321         3912 
 3850000   0.63820285   -9.3227447    455.69222  0.009863468 0.0084552433         3912 
 3851000    0.6339564   -9.3498128    455.77741 0.0098627501 0.0084515518         3910 
 3852000   0.63210487   -9.3464581    456.39046 0.0098734524  0.008447867         3925 
 3853000   0.63914744   -9.3680798     455.8632 0.0098594862 0.0084441838         3917 
 3854000   0.61668675   -9.3383785    456.27719 0.0098658795 0.0084405006         3920 
 3855000   0.62469005   -9.3150576    456.01531 0.0098576591 0.0084368182         3918 
 3856000   0.62944977   -9.3205766    456.67169 0.0098692879 0.0084331386         3898 
 3857000   0.62930066   -9.3385066    455.44524 0.0098402308 0.0084294627         3933 
 3858000   0.63708754   -9.3285884    456.77014 0.0098662981 0.0084257916         3920 
 3859000   0.62033764   -9.3246926    455.45418  0.009835324 0.0084221198         3898 
 3860000   0.62729692   -9.3475626    455.31402 0.0098297499 0.0084184526         3924 
 3861000   0.63167007   -9.3217746    456.27541  0.009847954 0.0084147844         3919 
 3862000   0.63956927   -9.3341924    456.87115 0.0098582588 0.0084111187         3922 
 3863000   0.65438577     -9.31231    455.76079  0.009831754  0.008407458         3938 
 3864000   0.64924553    -9.335537    456.06235 0.0098357131 0.0084037997         3911 
 3865000   0.63686753   -9.3290667    456.83307  0.009849786 0.0084001421         3928 
 3866000   0.63204554   -9.3511644     455.7814 0.0098245688 0.0083964879         3917 
 3867000    0.6373132   -9.3359537    455.72393 0.0098207898 0.0083928338         3924 
 3868000   0.62223722   -9.3103103    455.42483  0.009811807 0.0083891818         3900 
 3869000    0.6253547   -9.3313326    455.86577 0.0098187683 0.0083855274         3930 
 3870000   0.62930293   -9.3279374    455.47464 0.0098078089 0.0083818822         3926 
 3871000   0.63972927   -9.3422951    455.38889 0.0098034292 0.0083782395         3907 
 3872000   0.63713222   -9.3505312    455.57977 0.0098050054  0.008374595         3917 
 3873000   0.63330204   -9.3222123    455.74733  0.009806079 0.0083709576         3907 
 3874000   0.63355372   -9.3423541     455.6251 0.0098009186 0.0083673183         3903 
 3875000    0.6349693   -9.3451229     455.9912 0.0098062624 0.0083636841         3923 
 3876000   0.62269218   -9.3542489    455.29591 0.0097887837 0.0083600498         3907 
 3877000   0.61976484   -9.3411328    456.35625 0.0098090501 0.0083564191         3900 
 3878000   0.64405367   -9.3409876    455.73629 0.0097931986 0.0083527879         3927 
 3879000   0.62708324   -9.3287117    456.06917 0.0097978253 0.0083491631         3905 
 3880000   0.62593412   -9.3325019    456.75976 0.0098101324 0.0083455339         3908 
 3881000   0.62002224   -9.3622018    455.28041 0.0097758398 0.0083419058         3914 
 3882000   0.63317227   -9.3486335     455.9508 0.0097877125 0.0083382842         3903 
 3883000   0.64021602   -9.3459924    456.01048 0.0097864727 0.0083346654         3904 
 3884000   0.62137044   -9.3500951    455.86895 0.0097809163  0.008331046         3913 
 3885000   0.63806516   -9.3242495     456.0185 0.0097816066 0.0083274339         3918 
 3886000    0.6289185   -9.3502707    455.90223 0.0097765962 0.0083238214         3890 
 3887000   0.63818454   -9.3194068    456.43511 0.0097855054 0.0083202112         3921 
 3888000   0.63603053   -9.3455239     455.8284 0.0097699846 0.0083166033         3919 
 3889000   0.61772381   -9.3303294    456.30794  0.009777748  0.008312998         3917 
 3890000   0.64462343   -9.3336031    456.04429 0.0097695862  0.008309393         3907 
 3891000   0.64027645   -9.3372923    455.83201 0.0097625291 0.0083057903         3923 
 3892000   0.63870551    -9.327999    455.85019 0.0097604101 0.0083021882         3911 
 3893000   0.61581017   -9.3414846    455.12338 0.0097423448 0.0082985886         3917 
 3894000   0.63143981   -9.3485725    455.11019 0.0097395606 0.0082949934         3911 
 3895000   0.63906084   -9.3349449     456.3231 0.0097630102 0.0082913965         3898 
 3896000   0.62452969    -9.362395    455.88203 0.0097510701 0.0082878043         3919 
 3897000   0.62583721   -9.3314028    456.35683  0.009758721 0.0082842144         3925 
 3898000   0.63834647   -9.3411902    456.00853 0.0097487714 0.0082806278         3927 
 3899000   0.61641197   -9.3493972    455.44686 0.0097342664   0.00827704         3905 
 3900000   0.61928881   -9.3648585    455.27646 0.0097281295 0.0082734561         3929 
 3901000   0.62676987   -9.3376596     455.8762 0.0097384473 0.0082698714         3900 
 3902000   0.62538313   -9.3486864    455.78417 0.0097339863 0.0082662936         3930 
 3903000    0.6376301   -9.3507272    456.12572 0.0097387846 0.0082627192         3914 
 3904000   0.62488872   -9.3313616    456.21335 0.0097381607 0.0082591426         3910 
 3905000   0.62605255    -9.342686      455.955 0.0097301537  0.008255566         3909 
 3906000   0.62917476   -9.3603109    455.39727 0.0097157636 0.0082519903         3894 
 3907000   0.62875494   -9.3343264    456.12419 0.0097287816 0.0082484201         3894 
 3908000   0.62881885   -9.3662201    455.28241 0.0097083421 0.0082448509         3917 
 3909000   0.63596995   -9.3536786    455.07492 0.0097014351 0.0082412895         3920 
 3910000   0.62305823   -9.3547095    455.49152  0.009707833  0.008237728         3898 
 3911000   0.63034973   -9.3483297    455.81864 0.0097123207 0.0082341675         3898 
 3912000   0.61865467   -9.3414528    455.36908 0.0097002615 0.0082306087         3913 
 3913000   0.62773261   -9.3702196    455.70595 0.0097049567 0.0082270511         3949 
 3914000   0.62158118    -9.323754    456.42338 0.0097177521 0.0082234965         3910 
 3915000    0.6184926   -9.3590499    456.05049 0.0097073327 0.0082199452         3911 
 3916000   0.63428859   -9.3420541    456.98861 0.0097248172 0.0082163958         3929 
 3917000   0.61509799    -9.350855    455.04679 0.0096810227 0.0082128466         3918 
 3918000   0.62963729   -9.3538098    455.48521 0.0096878767 0.0082093014         3933 
 3919000   0.63748389    -9.330955    454.91396 0.0096732576 0.0082057554         3926 
 3920000   0.62273346   -9.3481744    455.40365    0.0096812 0.0082022145         3928 
 3921000   0.62894942   -9.3343372    455.81555 0.0096874851  0.008198675         3911 
 3922000   0.63368042   -9.3437459    455.75435 0.0096837148 0.0081951372         3916 
 3923000   0.62156729   -9.3477311    456.09866 0.0096885602 0.0081916001         3919 
 3924000   0.63167552   -9.3627989    456.35641  0.009691565 0.0081880644         3919 
 3925000   0.61947588   -9.3616621    455.61888 0.0096734369 0.0081845304         3906 
 3926000   0.62622727   -9.3576761    456.01967 0.0096794802 0.0081809992         3922 
 3927000   0.60980979   -9.3522996    455.98505 0.0096762806 0.0081774718         3916 
 3928000   0.61529498   -9.3581393    455.70341 0.0096678422 0.0081739461         3912 
 3929000   0.61838911   -9.3578437     455.7462 0.0096662891 0.0081704233         3924 
 3930000   0.62863302   -9.3578537    454.70525 0.0096417569 0.0081669023         3940 
 3931000      0.63442   -9.3272956    456.38401  0.009674892 0.0081633821         3904 
 3932000   0.61868854   -9.3560257    455.70217 0.0096579808 0.0081598641         3925 
 3933000   0.62900892   -9.3213415    455.19235 0.0096447232 0.0081563465         3894 
 3934000   0.63308678   -9.3470471    455.97086 0.0096587625 0.0081528297         3915 
 3935000   0.61348582   -9.3478705    455.48879 0.0096460988 0.0081493207         3936 
 3936000   0.62940839   -9.3637628    455.43554 0.0096425207 0.0081458103         3915 
 3937000   0.63084877   -9.3411953    455.73606 0.0096464326 0.0081423039         3896 
 3938000   0.62506969    -9.359895    455.52536 0.0096395242 0.0081387991         3921 
 3939000   0.62734639    -9.347553    455.71766 0.0096411454 0.0081352942         3925 
 3940000   0.61612332   -9.3583271    456.06914 0.0096461324 0.0081317904         3888 
 3941000   0.60557838   -9.3473848    455.84972 0.0096390452   0.00812829         3924 
 3942000   0.61735977   -9.3596893    455.80518 0.0096356582 0.0081247939         3911 
 3943000   0.62338854   -9.3600617    456.13223 0.0096401265 0.0081213001         3906 
 3944000    0.6197073   -9.3552453    455.78364 0.0096303169  0.008117802         3896 
 3945000   0.62192993   -9.3598902    456.40708 0.0096410452 0.0081143118         3912 
 3946000   0.60785485   -9.3788759    455.39734 0.0096172779 0.0081108235         3934 
 3947000    0.6278122   -9.3657219    455.18148 0.0096102838 0.0081073355         3913 
 3948000   0.61405495    -9.339593    455.35864  0.009611589 0.0081038485         3927 
 3949000   0.61618817   -9.3617367    455.81876 0.0096188646 0.0081003665         3927 
 3950000   0.62744847   -9.3456843    455.48199 0.0096093246 0.0080968841         3905 
 3951000   0.62544079   -9.3727024    456.23193 0.0096227101 0.0080934022         3927 
 3952000   0.62547443   -9.3568703    456.06578 0.0096167716 0.0080899262         3915 
 3953000   0.62235505    -9.352051    456.25974 0.0096184279 0.0080864523         3913 
 3954000    0.6248473   -9.3666886    455.34623 0.0095967423 0.0080829786         3931 
 3955000   0.62413352   -9.3715341    455.33952 0.0095941744 0.0080795075         3915 
 3956000    0.6172604   -9.3689803    455.92293 0.0096040387 0.0080760376         3910 
 3957000   0.61898851   -9.3596316       455.38 0.0095901777 0.0080725719         3913 
 3958000   0.62230332   -9.3625489    456.36827 0.0096085623 0.0080691045         3897 
 3959000   0.62039748   -9.3710242    454.84928 0.0095741619 0.0080656386         3916 
 3960000   0.60880242   -9.3456909    455.36761 0.0095826517 0.0080621787         3914 
 3961000    0.6141927   -9.3657025    455.60667 0.0095852618 0.0080587151         3930 
 3962000   0.62785812   -9.3560292    455.23533 0.0095750321  0.008055259         3919 
 3963000   0.61420543   -9.3525708    455.55482 0.0095793342 0.0080518065         3914 
 3964000   0.60641512   -9.3456978    455.39732 0.0095736067 0.0080483517         3919 
 3965000   0.61243577   -9.3538628    455.32346 0.0095696397 0.0080448994         3916 
 3966000    0.6219203   -9.3891076    455.33589 0.0095674881 0.0080414478         3912 
 3967000   0.60996371   -9.3612269    455.54493 0.0095694675 0.0080379997         3917 
 3968000   0.62040099   -9.3460252    455.28211 0.0095615363 0.0080345572         3904 
 3969000   0.62002263   -9.3488173    455.07064 0.0095546871 0.0080311115         3906 
 3970000   0.61496526   -9.3727871    456.28908 0.0095778564 0.0080276718         3904 
 3971000   0.62548317   -9.3573058    455.67732 0.0095626063  0.008024229         3918 
 3972000   0.61157984    -9.346518    455.34187 0.0095531611 0.0080207898         3910 
 3973000    0.6172432   -9.3644431     455.4326 0.0095526596 0.0080173531         3907 
 3974000    0.6103738   -9.3696063    455.80337 0.0095580306 0.0080139211         3917 
 3975000   0.62917567   -9.3426362    455.54713 0.0095502544  0.008010489         3928 
 3976000   0.61813264   -9.3592337    455.24616 0.0095415442 0.0080070588         3907 
 3977000   0.62448715   -9.3626624    455.87781 0.0095523807 0.0080036291         3919 
 3978000   0.61533635   -9.3614287    455.09376 0.0095335546 0.0080002035         3907 
 3979000   0.62264139   -9.3428797    455.32311 0.0095359619 0.0079967785         3922 
 3980000   0.61223052   -9.3775137    455.60886  0.009539549 0.0079933554         3924 
 3981000   0.61336944   -9.3681102    454.87339 0.0095217573 0.0079899327         3915 
 3982000   0.60962917   -9.3792366    455.36829 0.0095297231  0.007986511         3916 
 3983000   0.62020633   -9.3753755    455.60793 0.0095323444  0.007983093         3922 
 3984000   0.60525707   -9.3545121    456.12575  0.009540783 0.0079796792         3916 
 3985000   0.61745147   -9.3608329    455.65855 0.0095286187 0.0079762681         3920 
 3986000   0.60488015   -9.3753297    454.49977 0.0095020023 0.0079728567         3927 
 3987000   0.61164606   -9.3970332    455.18863  0.009514017 0.0079694445         3912 
 3988000   0.61251627   -9.3478838    455.44141 0.0095169135 0.0079660371         3925 
 3989000   0.60321675   -9.3719371     455.3603 0.0095128333 0.0079626334         3911 
 3990000   0.59910475   -9.3478519    455.57333 0.0095148984 0.0079592282         3908 
 3991000   0.61062825   -9.3712135    455.81441 0.0095175479 0.0079558259         3902 
 3992000   0.61667718   -9.3696833    454.14716 0.0094803599 0.0079524264         3920 
 3993000   0.61273238   -9.3618463    455.19595 0.0094998738  0.007949026         3929 
 3994000   0.62168477   -9.3706182    455.38686 0.0095014784 0.0079456329         3946 
 3995000   0.61952499   -9.3700571    454.96118 0.0094902206 0.0079422362         3903 
 3996000   0.61428062   -9.3730517    455.37131 0.0094963987 0.0079388436         3920 
 3997000   0.60944361   -9.3640847    455.31504 0.0094928497 0.0079354523         3928 
 3998000     0.608202   -9.3612299    455.76494 0.0094998527 0.0079320652         3930 
 3999000   0.61521463   -9.3665233     454.8446 0.0094782988 0.0079286798         3918 
 4000000    0.6025864   -9.3790773    454.70017 0.0094729202  0.007925294         3902 
 4001000   0.62056173   -9.3920369    454.86257 0.0094739351 0.0079219108         3938 
 4002000   0.63719696   -9.3627019    455.77942 0.0094906593  0.007918532         3917 
 4003000   0.61809429   -9.3568501    455.06141  0.009473341 0.0079151532         3934 
 4004000   0.61032219   -9.3588665    455.36077 0.0094772056 0.0079117783         3902 
 4005000   0.61842691   -9.3696799    455.18955 0.0094712766  0.007908402         3901 
 4006000   0.62252737   -9.3800142    454.93019 0.0094635169 0.0079050283         3918 
 4007000   0.60776055   -9.4015009    454.84434 0.0094593699 0.0079016552         3932 
 4008000    0.6097763   -9.3728954    455.89181 0.0094787885 0.0078982849         3934 
 4009000    0.5977057   -9.3831775    455.83293 0.0094752003 0.0078949199         3900 
 4010000   0.60360205   -9.3685534    454.71601  0.009449626 0.0078915546         3914 
 4011000    0.6048244   -9.3671297    454.91056 0.0094513122 0.0078881902         3920 
 4012000   0.59771852   -9.3737345    454.71924 0.0094449826 0.0078848284         3940 
 4013000   0.61162039   -9.3904144    454.65292 0.0094412518 0.0078814679         3920 
 4014000   0.59606617   -9.3746048    454.94694 0.0094450038 0.0078781082         3928 
 4015000   0.60807799   -9.3613361     455.0789 0.0094453902 0.0078747527         3924 
 4016000   0.61128457   -9.3663545    455.04944  0.009442427 0.0078714015         3910 
 4017000   0.60222086   -9.3789029    455.02498 0.0094395689  0.007868051         3924 
 4018000   0.60527058    -9.382603    454.91577 0.0094349546 0.0078647009         3935 
 4019000   0.61718004    -9.382522    455.66107 0.0094480607 0.0078613514         3923 
 4020000   0.60211948   -9.3554469    455.76283 0.0094478198 0.0078580041         3924 
 4021000   0.60804294   -9.3846501    455.29764 0.0094358294 0.0078546596         3948 
 4022000    0.6027392   -9.3796429    455.42761 0.0094361763 0.0078513179         3927 
 4023000   0.61226586   -9.3848433    454.95247 0.0094239886 0.0078479791         3918 
 4024000   0.61961576   -9.3769615    454.28959 0.0094079189 0.0078446429         3932 
 4025000   0.61175826   -9.3722526    455.45767 0.0094297654 0.0078413091         3909 
 4026000   0.61454533   -9.3470588    455.91129 0.0094368126 0.0078379805         3920 
 4027000   0.60278851   -9.3876848    455.08022 0.0094172712 0.0078346483         3915 
 4028000   0.59951909   -9.3871398    455.22783 0.0094179871  0.007831317         3915 
 4029000   0.61242699   -9.3790923    454.77959 0.0094063785 0.0078279889         3916 
 4030000   0.60707374   -9.3487138    454.86258 0.0094057606 0.0078246628         3934 
 4031000   0.60540093   -9.3934098    455.26154  0.009411675 0.0078213392         3932 
 4032000   0.62172443   -9.3849381    455.66092 0.0094175951 0.0078180148         3924 
 4033000   0.61443929   -9.3702162    454.31731 0.0093874971 0.0078146943         3887 
 4034000   0.61581194    -9.368578    455.61202 0.0094119157 0.0078113748         3918 
 4035000   0.60302809   -9.3815399    456.02978  0.009418211 0.0078080565         3914 
 4036000   0.60251002   -9.3721047      455.081 0.0093962875  0.007804742         3928 
 4037000   0.61788918   -9.3766711    455.30718  0.009398629 0.0078014284         3929 
 4038000   0.60018376     -9.37006    456.03841 0.0094113919 0.0077981165         3905 
 4039000   0.59152666   -9.3935508    454.23305 0.0093718133 0.0077948045         3925 
 4040000   0.61208042   -9.3849616    455.80345 0.0094018864 0.0077914975         3912 
 4041000   0.60874655   -9.3710995    455.76321 0.0093987299 0.0077881944         3912 
 4042000   0.58258646   -9.3896988    455.00361  0.009380744  0.007784889         3929 
 4043000   0.59851355   -9.3715583    456.14449 0.0094019393 0.0077815869         3900 
 4044000   0.61031568   -9.3830697    454.60116 0.0093678116 0.0077782863         3914 
 4045000   0.60264475   -9.3818301    454.62437 0.0093659739 0.0077749901         3932 
 4046000   0.60227299   -9.3746123     455.0613 0.0093726581 0.0077716959         3936 
 4047000   0.60123123    -9.384338    455.17764 0.0093727378 0.0077684033         3920 
 4048000   0.59862727   -9.3787425    454.49874 0.0093564464 0.0077651111         3917 
 4049000   0.59809584   -9.3981672    454.66431 0.0093575432  0.007761817         3912 
 4050000   0.61844585   -9.3571133    454.84252 0.0093588995 0.0077585305         3933 
 4051000    0.5905076   -9.3979351    453.87187 0.0093366219 0.0077552437         3929 
 4052000   0.61202231   -9.3789633    454.46682 0.0093465536 0.0077519568         3907 
 4053000   0.60125084   -9.3783782    455.06622 0.0093565718 0.0077486737         3937 
 4054000   0.60503715   -9.3758621    455.16319 0.0093562569 0.0077453915         3923 
 4055000   0.60262927   -9.3755411    455.27848  0.009356319 0.0077421107         3915 
 4056000   0.60180293   -9.3855159    454.49425 0.0093378996 0.0077388335         3933 
 4057000   0.59574087    -9.383122    455.29313 0.0093520075 0.0077355547         3918 
 4058000   0.59746118   -9.3864781    454.87952 0.0093412092 0.0077322792         3920 
 4059000   0.60861805   -9.3857374    455.62464 0.0093542054 0.0077290066         3921 
 4060000   0.60100766   -9.3725317    454.81917 0.0093353689 0.0077257368         3910 
 4061000   0.59567606   -9.3779173    454.38997 0.0093242627 0.0077224679         3917 
 4062000   0.59762901   -9.3850526    454.91342  0.009332706 0.0077192005         3912 
 4063000   0.60397171   -9.3749156    454.90547 0.0093302459 0.0077159349         3922 
 4064000    0.5966248   -9.3919046    455.89871 0.0093483166 0.0077126684         3896 
 4065000   0.60238231   -9.3959965     455.3777 0.0093353361 0.0077094053         3923 
 4066000   0.59833065   -9.3937463    454.65254 0.0093181781 0.0077061483         3936 
 4067000   0.60017741   -9.3765448    455.29977 0.0093291487 0.0077028913         3905 
 4068000   0.61270757   -9.3580706    454.65455 0.0093136379  0.007699634         3922 
 4069000   0.59571066    -9.369018    454.88554 0.0093160797 0.0076963802         3912 
 4070000   0.59500836   -9.4023843    455.14385 0.0093190796 0.0076931273         3906 
 4071000   0.59558327   -9.3830359    454.37464 0.0093010447 0.0076898755         3931 
 4072000   0.58612618   -9.3668455    454.48662 0.0093010524 0.0076866295         3913 
 4073000    0.6184833   -9.3978369     454.3179 0.0092953167  0.007683379         3939 
 4074000   0.59976164   -9.3767766    454.59022 0.0092986055 0.0076801333         3920 
 4075000   0.60760379   -9.3934022    454.32254 0.0092908494 0.0076768904         3927 
 4076000   0.60153534   -9.3888695    454.39062 0.0092899619  0.007673651         3935 
 4077000   0.59567923   -9.4041307     454.9409 0.0092989309 0.0076704096         3926 
 4078000    0.6057208   -9.3781949    454.64015 0.0092905049 0.0076671693         3912 
 4079000   0.60162932   -9.3735556    454.29164 0.0092811073 0.0076639311         3915 
 4080000   0.61237545   -9.4034579    454.65396 0.0092862329 0.0076606967         3908 
 4081000   0.59866073   -9.3955842    453.92233 0.0092690176 0.0076574624         3923 
 4082000    0.5840898   -9.4058046    455.09727 0.0092907331 0.0076542322         3922 
 4083000   0.57840456     -9.41321    454.51576  0.009276589 0.0076510021         3909 
 4084000   0.59211937   -9.3785969     454.6711 0.0092774874 0.0076477732         3935 
 4085000   0.59555595   -9.4047083    454.65772 0.0092749432 0.0076445471         3933 
 4086000    0.5860077   -9.3830298    455.00922 0.0092798422  0.007641326         3933 
 4087000   0.59678806   -9.3728086     455.0422 0.0092782439 0.0076381043         3918 
 4088000   0.60178651   -9.4055924     455.0362  0.009275852 0.0076348853         3916 
 4089000   0.59177926   -9.3887256    455.23881 0.0092777129 0.0076316716         3927 
 4090000   0.59773171    -9.389499    454.95242 0.0092696093 0.0076284559         3920 
 4091000   0.60189992   -9.3972891    454.44797 0.0092570677  0.007625241         3901 
 4092000   0.59864693   -9.4014368    454.53057 0.0092564877 0.0076220301         3917 
 4093000   0.61594738   -9.3848887    454.99873 0.0092637578 0.0076188166         3911 
 4094000   0.59044622   -9.3953018     454.3028 0.0092473294 0.0076156108         3895 
 4095000   0.59770171   -9.3982051    454.10727 0.0092410921 0.0076124027         3930 
 4096000   0.58779654   -9.4106307    454.36499 0.0092440795 0.0076091971         3914 
 4097000   0.59041357   -9.3789812    455.19049 0.0092586139 0.0076059951         3919 
 4098000   0.61050627   -9.3883699    455.00235 0.0092525288 0.0076027934         3912 
 4099000   0.60204157    -9.402531    454.54136 0.0092408995 0.0075995964         3926 
 4100000   0.59106754   -9.3963886    453.51193 0.0092177221 0.0075963976         3949 
 4101000   0.60332755   -9.3942616    454.12873  0.009228008 0.0075932033         3926 
 4102000   0.59330278   -9.4009288    454.22737 0.0092277622 0.0075900101         3922 
 4103000   0.59019482   -9.4065072    454.24622 0.0092258961 0.0075868156         3917 
 4104000   0.59371133    -9.397459    454.59888 0.0092308089 0.0075836287         3940 
 4105000    0.6098737   -9.3817094    455.32063 0.0092432121 0.0075804434         3917 
 4106000   0.58889689   -9.3915298    454.72231 0.0092288178 0.0075772603         3915 
 4107000   0.58430365   -9.3966102    454.81135 0.0092283773 0.0075740762         3915 
 4108000   0.58853602   -9.3926922    454.63018 0.0092224558 0.0075708945         3928 
 4109000   0.59582626   -9.3844884     454.2471 0.0092124422  0.007567715         3920 
 4110000    0.6046947   -9.3926486     453.9313 0.0092037976 0.0075645373         3929 
 4111000   0.59897601   -9.3771521    454.30831  0.009209201 0.0075613597         3916 
 4112000   0.60138949    -9.404352    453.84463 0.0091975646 0.0075581845         3926 
 4113000   0.59807969   -9.3989036    455.12134 0.0092211958 0.0075550122         3916 
 4114000   0.59480537   -9.4015748    454.94823 0.0092154479 0.0075518421         3914 
 4115000   0.59018201   -9.4131013    454.44112 0.0092029388 0.0075486737         3945 
 4116000   0.59773057   -9.3920973    455.12031 0.0092144539 0.0075455048         3915 
 4117000   0.58432687   -9.4020519    454.08302 0.0091912198 0.0075423379         3923 
 4118000   0.58287765   -9.3979194    454.41267 0.0091956586 0.0075391728         3913 
 4119000   0.59151643   -9.3904838    454.06682 0.0091864292  0.007536008         3905 
 4120000   0.58785879   -9.4030892    454.30434 0.0091890037 0.0075328459         3934 
 4121000   0.58090751   -9.3876368    454.39052 0.0091885166 0.0075296897         3925 
 4122000   0.59941228   -9.3865543    454.19776 0.0091823904 0.0075265291         3932 
 4123000    0.5942923   -9.3938786    454.53895 0.0091870594 0.0075233731         3932 
 4124000   0.58474108   -9.4072998    454.97386 0.0091936199 0.0075202194         3905 
 4125000   0.59734871   -9.4164248    454.91375 0.0091901767 0.0075170692         3925 
 4126000   0.58608424   -9.3954581    454.53989 0.0091803985 0.0075139193         3920 
 4127000   0.59692149   -9.3792055    454.75577 0.0091825331 0.0075107694         3907 
 4128000   0.58342977   -9.3995123    454.86939 0.0091826023 0.0075076241         3921 
 4129000   0.60099452   -9.4010615     454.7208 0.0091773796 0.0075044782         3942 
 4130000   0.57892817   -9.3775458    454.58681 0.0091724538  0.007501335         3921 
 4131000   0.59471089    -9.401813     453.5935 0.0091501957 0.0074981912         3909 
 4132000   0.59312392   -9.3829357    454.84997 0.0091733214 0.0074950511         3940 
 4133000   0.57782207   -9.3844504    454.54133 0.0091648789  0.007491914         3942 
 4134000   0.60157051   -9.3930541    455.79939 0.0091880219 0.0074887773         3919 
 4135000   0.58135066   -9.3899774    454.72598 0.0091641673   0.00748564         3918 
 4136000   0.59411371   -9.4012653    454.87124 0.0091648783 0.0074825053         3908 
 4137000   0.59018592   -9.4099912    454.08707 0.0091468672 0.0074793747         3924 
 4138000   0.59656043   -9.3986434    455.02603 0.0091635659 0.0074762461         3898 
 4139000   0.59874129   -9.3937409    454.61058 0.0091529873 0.0074731176         3914 
 4140000   0.58215194   -9.4135226    455.36221  0.009165906   0.00746999         3924 
 4141000   0.59650672   -9.4009513    454.87537 0.0091538953 0.0074668659         3913 
 4142000   0.58882511   -9.3865671    454.17203 0.0091375349 0.0074637443         3938 
 4143000   0.59238443   -9.4106881    454.08969 0.0091336731 0.0074606218         3909 
 4144000   0.58591374   -9.4155451    454.80764 0.0091459066 0.0074575036         3911 
 4145000   0.60772305    -9.417498    454.54323 0.0091383842 0.0074543861         3917 
 4146000    0.5924902   -9.4097408    453.34942 0.0091121849 0.0074512693         3919 
 4147000   0.58386477    -9.411628     454.1615 0.0091263061  0.007448156         3938 
 4148000   0.59280891   -9.4251703     453.7711 0.0091162629 0.0074450442         3931 
 4149000   0.58618927     -9.39148    454.22194 0.0091231209 0.0074419348         3926 
 4150000   0.59713046   -9.3984149     454.7554 0.0091316346 0.0074388257         3938 
 4151000   0.57593417    -9.412097    454.35985 0.0091214939 0.0074357169         3947 
 4152000   0.57573394   -9.4153595    453.72111 0.0091064769  0.007432611         3940 
 4153000   0.58056457    -9.405646    454.11548 0.0091121976 0.0074295048         3947 
 4154000   0.58616224   -9.3878487    453.63965 0.0091004584 0.0074264057         3902 
 4155000   0.60448596   -9.4021353    454.89611  0.009123468 0.0074233075         3919 
 4156000   0.58256724   -9.4047008    454.23923 0.0091081013  0.007420211         3907 
 4157000   0.58726501   -9.4105007    453.63033  0.009093704  0.007417115         3928 
 4158000   0.58968882   -9.3768984    455.10853 0.0091211427 0.0074140235         3921 
 4159000   0.60165887   -9.4005113    454.28812  0.009102511 0.0074109319         3926 
 4160000   0.58511613   -9.4101747    454.36364 0.0091018357 0.0074078411         3935 
 4161000   0.59449487   -9.4001795    454.13877 0.0090951448 0.0074047528         3904 
 4162000   0.57863831   -9.4196828    454.45593 0.0090993099 0.0074016651         3925 
 4163000   0.57211186   -9.4273206    454.69725 0.0091019546 0.0073985793         3922 
 4164000   0.57776144   -9.4112239       454.67 0.0090992235  0.007395495         3908 
 4165000   0.58579704   -9.4078671    454.38857  0.009091408 0.0073924111         3934 
 4166000   0.59786287   -9.4058486     453.9598 0.0090806488 0.0073893296         3918 
 4167000   0.58962128   -9.4200763    453.99949 0.0090792635 0.0073862511         3922 
 4168000   0.58272161   -9.4062517    454.57418 0.0090885753 0.0073831736         3928 
 4169000   0.58684819    -9.409048     454.7376 0.0090896618 0.0073800992         3935 
 4170000   0.59101181   -9.4127177     454.6771 0.0090862731 0.0073770233         3934 
 4171000   0.58063063   -9.4063833    455.01548  0.009090855 0.0073739499         3918 
 4172000   0.58755238    -9.402899    454.50678 0.0090785151 0.0073708802         3942 
 4173000   0.57968255    -9.383663    454.48626 0.0090759298 0.0073678095         3936 
 4174000    0.5910005   -9.4343906    454.20915 0.0090682229  0.007364741         3921 
 4175000   0.59178671   -9.4115308    454.92273 0.0090802941 0.0073616767         3925 
 4176000   0.57615672   -9.4184463    454.91107  0.009077887 0.0073586117         3927 
 4177000   0.56999377   -9.4232041    454.55365 0.0090685829 0.0073555487         3927 
 4178000   0.58452544   -9.4111063    454.30052 0.0090613634 0.0073524862         3925 
 4179000   0.58725043   -9.3971743    454.17514 0.0090566951 0.0073494288         3933 
 4180000   0.59168514   -9.4167542    454.55926 0.0090621862  0.007346371         3935 
 4181000   0.58918794    -9.406419    454.43226 0.0090574874 0.0073433136         3928 
 4182000   0.57910466   -9.4029327    454.11894 0.0090490782 0.0073402581         3917 
 4183000   0.57211201   -9.4367866    453.33139 0.0090312254 0.0073372038         3915 
 4184000   0.59262415   -9.4104195     455.2343 0.0090669675 0.0073341549         3919 
 4185000   0.58064828   -9.4092902    454.13931  0.009042997 0.0073311074         3897 
 4186000   0.59676574   -9.4122213    454.41513 0.0090463276 0.0073280599         3916 
 4187000   0.58763919   -9.4213629    454.37769 0.0090434219  0.007325014         3930 
 4188000   0.57594694   -9.4197949    453.97207 0.0090331915 0.0073219712         3919 
 4189000   0.58408844    -9.413343    455.00674 0.0090516181 0.0073189319         3936 
 4190000   0.58045295   -9.3958164    454.85967 0.0090465328 0.0073158896         3929 
 4191000   0.58189105   -9.4150012     453.6036 0.0090193988 0.0073128519         3922 
 4192000   0.58320269    -9.428347    453.99063 0.0090249409 0.0073098148         3925 
 4193000   0.58054064   -9.4127237    453.75418 0.0090180893 0.0073067788         3940 
 4194000   0.58952398   -9.4236538    453.61309 0.0090131357 0.0073037439         3938 
 4195000   0.57592178   -9.4160911     453.8345 0.0090153854 0.0073007107         3946 
 4196000    0.5899893   -9.4363967     454.5394 0.0090272363 0.0072976848         3923 
 4197000   0.58886205   -9.4246903    453.70998 0.0090086169 0.0072946552         3912 
 4198000   0.59249835   -9.4030706    454.48242 0.0090218043 0.0072916302         3920 
 4199000   0.58441646   -9.4175887    454.49783 0.0090199616  0.007288606         3945 
 4200000   0.58212576   -9.4003341    454.50568 0.0090179699 0.0072855832         3922 
 4201000   0.57470371   -9.4118504    453.59841 0.0089978261 0.0072825618         3927 
 4202000   0.58584987   -9.4110559    454.70779 0.0090176858 0.0072795405         3922 
 4203000   0.58306404   -9.4460095    453.73615 0.0089962756 0.0072765217         3940 
 4204000   0.57252639   -9.4108737    454.31083 0.0090055272 0.0072735054         3941 
 4205000   0.57000345   -9.4008558    455.17588 0.0090205288  0.007270492         3922 
 4206000   0.56902782   -9.4107392    454.13268 0.0089977153 0.0072674785         3934 
 4207000   0.58122248   -9.4111053    454.16884 0.0089962926 0.0072644641         3944 
 4208000   0.58076967    -9.407473    453.87704 0.0089883761 0.0072614544         3934 
 4209000   0.58088161   -9.4170962    454.42683 0.0089971259 0.0072584471         3923 
 4210000   0.57864805   -9.4189166    453.81044 0.0089827879  0.007255441         3911 
 4211000   0.58055337   -9.3973266    454.55845 0.0089954574 0.0072524348         3929 
 4212000   0.58507869   -9.4266315    454.01925 0.0089826536 0.0072494304         3922 
 4213000   0.58555996   -9.4254175    453.84305 0.0089770364 0.0072464319         3937 
 4214000   0.58282369   -9.4257697    454.19477 0.0089818615 0.0072434315         3931 
 4215000   0.59121677   -9.4250759    454.17057 0.0089792521 0.0072404331         3911 
 4216000   0.58432898   -9.4205413    453.69003 0.0089676239 0.0072374347         3899 
 4217000   0.58409282   -9.4064432    454.63306 0.0089841328 0.0072344383         3932 
 4218000   0.57686703   -9.3961794    453.81358 0.0089658127 0.0072314466         3935 
 4219000    0.5856965   -9.4088866    453.99996  0.008967369 0.0072284543         3925 
 4220000      0.56904   -9.4252804    453.80026 0.0089613006  0.007225465         3918 
 4221000    0.5762789    -9.402878    454.32923 0.0089696208 0.0072224741         3925 
 4222000   0.57502862   -9.4393126    453.52983 0.0089517178 0.0072194881         3931 
 4223000   0.57516946   -9.4235172    454.74843  0.008973645 0.0072165039         3913 
 4224000   0.57865129   -9.4100961    453.81018 0.0089530103 0.0072135206         3931 
 4225000   0.57985341   -9.4136543    454.60051 0.0089664794  0.007210538         3939 
 4226000   0.58221339   -9.4145132    455.08579  0.008973927 0.0072075592         3913 
 4227000   0.57342963   -9.4269867      453.798  0.008946416 0.0072045825         3933 
 4228000   0.58240534   -9.4255291    454.20223 0.0089522673 0.0072016042         3916 
 4229000   0.57918942   -9.4202406    454.00883 0.0089463394 0.0071986278         3945 
 4230000   0.57723444   -9.4082308    453.78412 0.0089397975 0.0071956516         3935 
 4231000   0.57071309   -9.4099606    453.19868 0.0089261538 0.0071926793         3916 
 4232000   0.57751725   -9.4139972    453.97352 0.0089393022 0.0071897089         3933 
 4233000   0.57190651   -9.4357525    454.10098 0.0089396996 0.0071867403         3929 
 4234000   0.56822156   -9.4284455    453.80615 0.0089317853 0.0071837714         3933 
 4235000   0.57212254   -9.4158593    453.01906 0.0089141886 0.0071808062         3923 
 4236000   0.57202213   -9.4363366    454.21391 0.0089355899 0.0071778421         3929 
 4237000   0.58348545   -9.4251106    453.86998 0.0089267167 0.0071748804         3922 
 4238000    0.5709394    -9.431549    454.47074 0.0089364232 0.0071719193         3916 
 4239000   0.56575972   -9.4234924    453.54231 0.0089160633 0.0071689639         3920 
 4240000   0.57266151   -9.4342201    453.50031 0.0089131351  0.007166005         3932 
 4241000   0.57458504   -9.4501691    453.37281  0.008908528 0.0071630487         3929 
 4242000   0.57771494    -9.414733    454.31646 0.0089249658 0.0071600955         3932 
 4243000   0.58439248   -9.4173347    453.92876 0.0089152478 0.0071571452         3927 
 4244000   0.58241815   -9.4422377    453.95412 0.0089136451 0.0071541953         3936 
 4245000   0.58031812   -9.4251387    453.53912 0.0089033986 0.0071512461         3934 
 4246000   0.57487467   -9.4209445    455.00205 0.0089300136    0.0071483         3933 
 4247000    0.5635128   -9.4376041     454.3904 0.0089159093 0.0071453535         3923 
 4248000   0.56009196   -9.4358772    454.12696 0.0089086424 0.0071424107         3923 
 4249000   0.56941389    -9.427313    453.83325 0.0089007855 0.0071394642         3943 
 4250000   0.57349335   -9.4077066    453.54474 0.0088930341 0.0071365197         3917 
 4251000   0.56892432   -9.4224137    454.22981 0.0089043717 0.0071335787         3917 
 4252000   0.56601011   -9.4341158    454.34693 0.0089045729 0.0071306411         3942 
 4253000   0.58204898   -9.4448446    453.22533 0.0088805025 0.0071277052         3922 
 4254000   0.57811164   -9.4121534    453.81581 0.0088899822 0.0071247693         3927 
 4255000   0.57666994   -9.4253625    454.13663 0.0088941761 0.0071218356         3913 
 4256000   0.55438579   -9.4204191    453.22122 0.0088741623 0.0071189027         3935 
 4257000   0.56838159   -9.4353397    453.66053 0.0088806776 0.0071159724         3941 
 4258000   0.57321474   -9.4218647    454.32816 0.0088916581 0.0071130461         3916 
 4259000   0.57031578   -9.4488648    454.16886 0.0088864534 0.0071101174         3913 
 4260000   0.57887914   -9.4456444    453.54688 0.0088722002 0.0071071928         3922 
 4261000   0.58505972   -9.4012645    454.45612 0.0088879003 0.0071042696         3941 
 4262000   0.56893872   -9.4417143    453.12999 0.0088598856 0.0071013478         3923 
 4263000   0.56618462   -9.4302966    454.34181 0.0088814961 0.0070984299         3903 
 4264000   0.56330961     -9.43791    453.58698 0.0088646612 0.0070955092         3936 
 4265000   0.57594478    -9.447125    453.35334 0.0088580175  0.007092591         3918 
 4266000    0.5626295   -9.4348451    454.49706  0.008878283 0.0070896752         3924 
 4267000   0.56261992   -9.4372756    453.56839 0.0088580656 0.0070867635         3936 
 4268000   0.57329699   -9.4174137     453.9191 0.0088628378 0.0070838527         3924 
 4269000   0.58028568   -9.4488237     453.1456 0.0088456626 0.0070809434         3930 
 4270000   0.57577169   -9.4208412    453.67137 0.0088538519  0.007078036         3936 
 4271000   0.55811942   -9.4128603    453.47951 0.0088480354 0.0070751294         3924 
 4272000   0.56879865   -9.4363339    453.71958 0.0088506473 0.0070722235         3935 
 4273000   0.57587624   -9.4363811    454.50728 0.0088639379 0.0070693207         3922 
 4274000   0.57845437   -9.4486639    454.48707   0.00886147  0.007066419         3929 
 4275000   0.56773721   -9.4437615    453.64019 0.0088428888 0.0070635178         3912 
 4276000   0.57014826   -9.4220333    454.13829  0.008850528 0.0070606187         3903 
 4277000   0.57067177   -9.4270128     453.6029 0.0088380271 0.0070577211         3913 
 4278000   0.56284784   -9.4263278    454.18082 0.0088472187 0.0070548236         3925 
 4279000   0.57337141   -9.4218701    453.84549 0.0088386206 0.0070519285         3928 
 4280000   0.57672041   -9.4387615    453.17039  0.008823411 0.0070490361         3914 
 4281000   0.56005025   -9.4399195    453.66363 0.0088309514 0.0070461464         3934 
 4282000   0.57497326    -9.438647    454.05528 0.0088365109  0.007043255         3926 
 4283000   0.57115085   -9.4380773    452.86692 0.0088113262 0.0070403662         3921 
 4284000   0.56778267   -9.4377715    453.50468 0.0088216752 0.0070374794         3935 
 4285000     0.561832   -9.4406256    453.86682 0.0088266594 0.0070345947         3936 
 4286000   0.57075627   -9.4577906    453.86254 0.0088245166 0.0070317095         3939 
 4287000   0.54538303   -9.4251748    453.62476 0.0088178361 0.0070288297         3922 
 4288000   0.57294326   -9.4459426    453.70528 0.0088173444 0.0070259503         3920 
 4289000   0.56924212   -9.4261214    453.28686  0.008807159 0.0070230723         3938 
 4290000     0.576071    -9.436854    453.52713 0.0088097734 0.0070201971         3907 
 4291000   0.57719791   -9.4419459    453.50884 0.0088073651 0.0070173207         3932 
 4292000   0.56398711   -9.4415322    453.20245 0.0087993641 0.0070144466         3911 
 4293000   0.57049585   -9.4396746    453.53084  0.008803689 0.0070115747         3940 
 4294000   0.57110427   -9.4372997    453.33576 0.0087978528 0.0070087051         3926 
 4295000    0.5672323   -9.4354837    453.07237  0.008790694 0.0070058353         3915 
 4296000   0.56633062   -9.4299581    454.17794 0.0088100934 0.0070029688         3924 
 4297000   0.57685903   -9.4365351    453.37572 0.0087924854 0.0070001036         3937 
 4298000   0.55792159    -9.431995    453.42728 0.0087914394 0.0069972413         3926 
 4299000   0.56725202   -9.4207334    453.88203 0.0087982095 0.0069943801         3935 
 4300000   0.56551104   -9.4608822    453.12201 0.0087814343 0.0069915201         3938 
 4301000   0.56981078   -9.4352901    453.49066 0.0087865354 0.0069886596         3931 
 4302000   0.56949907   -9.4383282    453.33939 0.0087815627 0.0069858012         3922 
 4303000   0.56909695   -9.4562037    453.48412 0.0087823247 0.0069829462         3921 
 4304000   0.56041489   -9.4298114    453.14014 0.0087736242 0.0069800898         3914 
 4305000   0.56107839   -9.4393524    453.68544 0.0087821417 0.0069772387         3910 
 4306000   0.55133246   -9.4313712    454.31661 0.0087923171 0.0069743871         3942 
 4307000   0.55677597   -9.4408346     454.1395 0.0087868489 0.0069715356         3932 
 4308000   0.56585471    -9.443534    453.79204  0.008778088 0.0069686887         3919 
 4309000   0.55878806   -9.4550077    453.63467 0.0087730075 0.0069658436         3937 
 4310000   0.57021521    -9.448525    453.88509 0.0087758138 0.0069630005         3943 
 4311000   0.56083636   -9.4384914    453.51966 0.0087667142 0.0069601567         3931 
 4312000   0.55600555   -9.4439214    453.60923 0.0087664121 0.0069573153         3921 
 4313000   0.57330806   -9.4263936    454.34282 0.0087785535 0.0069544757         3919 
 4314000   0.57061738   -9.4358775    453.79972 0.0087660277 0.0069516383         3928 
 4315000   0.55797361   -9.4604809    453.19815 0.0087523784 0.0069487997         3935 
 4316000    0.5514732    -9.452831    454.16174 0.0087689555 0.0069459629         3900 
 4317000   0.55798107   -9.4354503    453.86162 0.0087611308 0.0069431293         3922 
 4318000   0.56934686   -9.4431127    453.98507 0.0087614843 0.0069402961         3916 
 4319000   0.56671728   -9.4336463    453.82253 0.0087563196  0.006937466         3922 
 4320000   0.56678883    -9.439993    452.75531 0.0087337058 0.0069346378         3911 
 4321000   0.55670545   -9.4247268    453.89592  0.008753682 0.0069318093         3929 
 4322000   0.55246175   -9.4362878    453.82077 0.0087502076  0.006928982         3912 
 4323000   0.56548456   -9.4456691    453.84749 0.0087486986 0.0069261569         3923 
 4324000   0.58139863   -9.4551409     453.2889   0.00873591 0.0069233325         3931 
 4325000   0.55908444   -9.4606816    453.46501 0.0087372834 0.0069205118         3944 
 4326000   0.56003957   -9.4285042     453.4593 0.0087351537 0.0069176928         3920 
 4327000   0.56206574   -9.4438529    453.50024 0.0087339235 0.0069148724         3931 
 4328000   0.54784242   -9.4732095    453.45594 0.0087310524 0.0069120545         3940 
 4329000   0.57063803   -9.4301527    453.63226 0.0087324298 0.0069092399         3917 
 4330000   0.57143096   -9.4443733    453.61212 0.0087300255 0.0069064278         3921 
 4331000   0.56595734   -9.4402954    453.36126 0.0087231829 0.0069036168         3926 
 4332000   0.56187597   -9.4363487    453.67332 0.0087271722 0.0069008066         3915 
 4333000   0.56195955   -9.4509157    453.69738 0.0087256207 0.0068979981         3926 
 4334000   0.55589578   -9.4549634    453.08876  0.008711905 0.0068951897         3930 
 4335000   0.56271979   -9.4433636    453.62866 0.0087202742  0.006892385         3931 
 4336000    0.5694958     -9.44296    453.23756 0.0087107464 0.0068895816         3943 
 4337000   0.54474483   -9.4539284    453.04411  0.008705021 0.0068867774         3936 
 4338000   0.55625134   -9.4396983    454.11967 0.0087236759 0.0068839758         3929 
 4339000   0.56479548   -9.4490095      453.745 0.0087144696 0.0068811761         3918 
 4340000   0.56399718   -9.4436546    452.98616 0.0086978909 0.0068783778         3938 
 4341000   0.55060199    -9.436762    453.21182 0.0087002193 0.0068755806         3936 
 4342000   0.55847526   -9.4454669    453.33824 0.0087006418 0.0068727857         3936 
 4343000     0.555829   -9.4527428    452.90289 0.0086902849 0.0068699934         3932 
 4344000   0.55230976   -9.4503221    453.59808 0.0087016207 0.0068672026         3920 
 4345000    0.5602401   -9.4593949    453.56325 0.0086989499 0.0068644099         3923 
 4346000   0.55889316   -9.4522329    453.41316 0.0086940704 0.0068616211         3919 
 4347000   0.56265126   -9.4437934    452.91199 0.0086824628 0.0068588335         3929 
 4348000   0.54514994    -9.463842    453.33859 0.0086886421 0.0068560469         3932 
 4349000   0.55419746   -9.4655801    452.43358  0.008669303 0.0068532619         3948 
 4350000   0.55734545   -9.4423579    453.75357  0.008692597 0.0068504783         3919 
 4351000   0.55001659   -9.4649957    453.35475 0.0086829608 0.0068476986         3931 
 4352000   0.56544622   -9.4478973    452.64883 0.0086674485 0.0068449176         3926 
 4353000   0.54805836   -9.4605245    453.26006 0.0086771587  0.006842139         3929 
 4354000   0.54199901   -9.4587645    452.88843 0.0086680529 0.0068393606         3950 
 4355000   0.53952109   -9.4481214    453.86441 0.0086847381  0.006836584         3937 
 4356000   0.56273321   -9.4521201    452.98544 0.0086659289 0.0068338091         3930 
 4357000   0.55341445   -9.4592483    452.59875  0.008656544  0.006831036         3919 
 4358000   0.55092376   -9.4591517    453.20025 0.0086660595  0.006828266         3909 
 4359000    0.5540277   -9.4547936    453.47409 0.0086693066 0.0068254956         3925 
 4360000   0.53264237   -9.4539322    452.73315 0.0086531565 0.0068227266         3916 
 4361000   0.54418066   -9.4454422      453.712 0.0086698769 0.0068199602         3926 
 4362000   0.55566526   -9.4527386    453.33261 0.0086606413 0.0068171959         3941 
 4363000   0.55112517   -9.4478791     454.3956 0.0086789595 0.0068144318         3919 
 4364000   0.55390144   -9.4500989    452.65441 0.0086437215 0.0068116691         3930 
 4365000   0.54640467   -9.4624831    453.42691 0.0086564894 0.0068089087         3937 
 4366000   0.55389392   -9.4792683    453.37078 0.0086534352  0.006806149         3931 
 4367000   0.54392722   -9.4601915    452.81931 0.0086409303 0.0068033894         3925 
 4368000   0.54743356   -9.4772619     453.7513 0.0086567327 0.0068006331         3945 
 4369000   0.55322214    -9.437691    453.38474 0.0086477595 0.0067978777         3932 
 4370000   0.54720848    -9.451329    453.08089 0.0086399865 0.0067951256         3918 
 4371000   0.54666694   -9.4467606    454.20021 0.0086593497 0.0067923734         3915 
 4372000   0.53638964   -9.4576824    453.32569 0.0086407001 0.0067896244         3916 
 4373000   0.54880238   -9.4701638     453.5783 0.0086435381 0.0067868753         3917 
 4374000   0.55341061   -9.4745761    452.94196 0.0086294383 0.0067841273         3922 
 4375000   0.55369197   -9.4571936    453.08581 0.0086302059 0.0067813797         3913 
 4376000   0.55396462   -9.4715184    452.87009 0.0086241258 0.0067786373         3928 
 4377000   0.54592078    -9.466649    453.18823 0.0086282125  0.006775895         3936 
 4378000   0.53718693   -9.4591683    453.48075 0.0086318096 0.0067731545         3932 
 4379000   0.54408297   -9.4645006    452.84528 0.0086177452 0.0067704165         3921 
 4380000   0.53668474   -9.4568028    453.55119 0.0086292084 0.0067676792         3947 
 4381000    0.5419402   -9.4705446    452.46654 0.0086066069  0.006764943         3934 
 4382000   0.55336006   -9.4617351    452.64977 0.0086081273 0.0067622071         3932 
 4383000   0.55527686   -9.4517489    453.67426 0.0086256418 0.0067594743         3923 
 4384000   0.54812795   -9.4631345    452.80615 0.0086071728 0.0067567428         3927 
 4385000    0.5495205   -9.4710012    452.46518 0.0085987301 0.0067540118         3914 
 4386000   0.54356249   -9.4478259    453.00995 0.0086071201 0.0067512833         3926 
 4387000   0.55585316    -9.461662    453.60508 0.0086164631 0.0067485539         3926 
 4388000   0.53877073   -9.4530368    452.84785 0.0086001187 0.0067458313         3939 
 4389000     0.540825   -9.4514492    453.60958  0.008612622  0.006743108         3928 
 4390000   0.56144811   -9.4418967    453.73932  0.008613123 0.0067403866         3923 
 4391000   0.55705552   -9.4422357    453.31496 0.0086031079 0.0067376669         3928 
 4392000   0.54660622   -9.4671329    453.30781 0.0086010135 0.0067349478         3923 
 4393000   0.54510006   -9.4474788     453.1946  0.008596908 0.0067322308         3918 
 4394000    0.5526687   -9.4608103    453.05938  0.008592387 0.0067295131         3924 
 4395000   0.53914238   -9.4857693    453.10694 0.0085913337 0.0067267974         3925 
 4396000   0.54035374   -9.4643646    452.63581 0.0085804484 0.0067240836         3917 
 4397000   0.55635042   -9.4771135    453.20497 0.0085892839 0.0067213719         3926 
 4398000    0.5432551   -9.4488293    452.71866 0.0085781162 0.0067186613         3927 
 4399000   0.54524261   -9.4810384    453.30487 0.0085872711 0.0067159507         3931 
 4400000   0.54873333    -9.442224    453.44604 0.0085879932 0.0067132417         3922 
 4401000   0.55195151   -9.4591442    452.67047 0.0085713564 0.0067105365         3939 
 4402000    0.5426443   -9.4591827     453.7991  0.008590775  0.006707832         3929 
 4403000   0.54549624   -9.4656775    453.10442 0.0085756761 0.0067051273         3946 
 4404000   0.55957971   -9.4633819    453.28032 0.0085770571 0.0067024244         3902 
 4405000   0.54175611   -9.4633295    453.50153 0.0085792949  0.006699725         3922 
 4406000   0.54369582    -9.459495    453.91941 0.0085852514 0.0066970246         3927 
 4407000   0.54605154   -9.4579831    452.71455 0.0085605201 0.0066943293         3935 
 4408000   0.55750373   -9.4717393     453.5038  0.008573499 0.0066916313         3934 
 4409000   0.54083921    -9.460375    453.33764 0.0085684138 0.0066889369         3923 
 4410000   0.54573766   -9.4730334    453.41071 0.0085678516 0.0066862441         3912 
 4411000   0.54927643   -9.4883254    452.94102 0.0085570358 0.0066835521         3912 
 4412000    0.5386157   -9.4635525    453.41897 0.0085641238 0.0066808608         3905 
 4413000   0.55596748   -9.4541368    453.34717 0.0085608273 0.0066781729         3919 
 4414000   0.54234188   -9.4610661    453.17066 0.0085555555  0.006675485         3926 
 4415000   0.53991338   -9.4631641    453.14708 0.0085531725 0.0066727978         3906 
 4416000   0.54350283   -9.4656372    453.16753 0.0085516215 0.0066701136         3908 
 4417000   0.52849201   -9.4734202    452.71055 0.0085410639 0.0066674312         3913 
 4418000   0.53809764   -9.4573514    453.18993 0.0085481728 0.0066647491         3910 
 4419000   0.53410466   -9.4822343    452.58595 0.0085348486   0.00666207         3922 
 4420000   0.54498251   -9.4717989    452.71948 0.0085354352 0.0066593885         3935 
 4421000   0.53376736   -9.4650606    453.11433 0.0085409472 0.0066567119         3926 
 4422000   0.54619839   -9.4615289    453.42117 0.0085447981 0.0066540346         3935 
 4423000   0.55056064   -9.4675365    453.51626 0.0085446579 0.0066513601         3918 
 4424000   0.53866136   -9.4659867    452.69021 0.0085271665 0.0066486868         3919 
 4425000    0.5428348   -9.4665535    452.73979  0.008526173 0.0066460157         3921 
 4426000    0.5546606   -9.4765998    453.00649 0.0085292682 0.0066433443         3927 
 4427000   0.53398531   -9.4462997    453.52859 0.0085371694 0.0066406753         3931 
 4428000     0.549635   -9.4727953    453.08156 0.0085268285 0.0066380065         3920 
 4429000   0.54055516   -9.4528257    452.25266 0.0085093072 0.0066353402         3929 
 4430000   0.54102696   -9.4650167     452.9086 0.0085197253 0.0066326784         3933 
 4431000   0.55268135   -9.4637809    452.76225 0.0085150502  0.006630015         3929 
 4432000   0.53507477   -9.4495389    453.06768 0.0085188718 0.0066273516         3924 
 4433000   0.54684136   -9.4678019    453.08492 0.0085172743 0.0066246918         3924 
 4434000   0.54215515   -9.4824343     452.4846 0.0085040707 0.0066220325         3942 
 4435000   0.53778868    -9.471828    453.45467 0.0085203808 0.0066193753         3921 
 4436000   0.54784991    -9.471016    453.10312 0.0085118561 0.0066167215         3945 
 4437000   0.54724664   -9.4899212    452.50604 0.0084987235 0.0066140686         3922 
 4438000   0.55117854    -9.489038    453.25953 0.0085109572  0.006611416         3939 
 4439000    0.5298902   -9.4747841    452.81291 0.0085006554  0.006608764         3941 
 4440000   0.53277143   -9.4756995    452.72528 0.0084970961 0.0066061134         3933 
 4441000   0.54475087    -9.468048    452.99787 0.0085002979 0.0066034646         3921 
 4442000   0.55178396   -9.4742167    452.68538 0.0084925218 0.0066008174         3926 
 4443000   0.54047424   -9.4728363    452.36295 0.0084845627 0.0065981716         3933 
 4444000     0.538995   -9.4792462    453.12157 0.0084968791  0.006595528         3927 
 4445000   0.53203316   -9.4741616    451.81452 0.0084704635 0.0065928827         3927 
 4446000   0.53362755   -9.4684616    452.67601 0.0084847054  0.006590241         3935 
 4447000   0.52307649   -9.4758036    452.87251 0.0084864798 0.0065876016         3929 
 4448000   0.53404259   -9.4856403    452.82825 0.0084837427 0.0065849625         3912 
 4449000   0.52333869   -9.4782518    451.96132 0.0084655975 0.0065823239         3944 
 4450000   0.53446432   -9.4774351    452.39792 0.0084718711 0.0065796869         3927 
 4451000   0.53833278   -9.4696864    452.83297 0.0084781129 0.0065770541         3939 
 4452000    0.5323865   -9.4667639    452.64824 0.0084727508 0.0065744214         3918 
 4453000   0.54260525   -9.4772323    452.58848 0.0084697298 0.0065717919         3923 
 4454000    0.5363404   -9.4730746    453.08368 0.0084770933 0.0065691637         3920 
 4455000   0.53342827   -9.4618536    452.02345 0.0084553583 0.0065665355         3924 
 4456000   0.53375042   -9.4790453     452.8655 0.0084692082 0.0065639075         3905 
 4457000   0.53173541   -9.4731516    452.61751 0.0084626713 0.0065612806         3920 
 4458000   0.55158081   -9.4681693     453.3032 0.0084735905 0.0065586563         3927 
 4459000     0.542691   -9.4799096    452.74258 0.0084612129 0.0065560335         3934 
 4460000   0.53860436   -9.4934805    453.36911 0.0084710222 0.0065534111         3919 
 4461000   0.53225646   -9.4833692    453.27271 0.0084673226 0.0065507919         3930 
 4462000    0.5468645     -9.48387    452.61388 0.0084531204 0.0065481736         3925 
 4463000    0.5368641   -9.4785396    451.85339 0.0084370264 0.0065455564         3918 
 4464000    0.5384751   -9.4796503    452.19373 0.0084414899 0.0065429412         3930 
 4465000   0.53232103   -9.4700383    452.80867 0.0084510763  0.006540326         3911 
 4466000   0.54003636   -9.4802872    452.20022 0.0084378307 0.0065377123         3927 
 4467000   0.53257438   -9.4856144     453.3554  0.008457492 0.0065351001         3935 
 4468000   0.54337075   -9.4893953    452.17264 0.0084335392 0.0065324899         3925 
 4469000    0.5455026   -9.4782668      452.647 0.0084404975 0.0065298808         3917 
 4470000   0.53689104   -9.4824727    453.36776 0.0084520462 0.0065272714         3930 
 4471000   0.52781709    -9.489425    453.25738 0.0084480984 0.0065246654         3922 
 4472000   0.52252047   -9.4927418    452.18154 0.0084261616 0.0065220601         3933 
 4473000   0.53687206   -9.4644783    453.25153 0.0084442122 0.0065194568         3927 
 4474000   0.54351487   -9.4821119    453.49076 0.0084467807 0.0065168557         3929 
 4475000   0.52577333   -9.4699909    452.59201 0.0084281566 0.0065142548         3937 
 4476000   0.53167717   -9.4754469    452.52469 0.0084250204 0.0065116533         3929 
 4477000   0.52150763   -9.4854925    452.92311 0.0084305546 0.0065090545         3919 
 4478000   0.52843662   -9.4835069    452.60247 0.0084227049 0.0065064579         3939 
 4479000   0.53402209   -9.4999177    452.56258 0.0084200822 0.0065038625         3925 
 4480000   0.53452518   -9.4805494    452.90724 0.0084246138 0.0065012695         3921 
 4481000   0.54097371   -9.4799493    453.29393 0.0084299251 0.0064986765         3940 
 4482000   0.54068064   -9.4735203    452.96561 0.0084219398 0.0064960839         3917 
 4483000   0.53585829   -9.4841083    452.74867 0.0084160286 0.0064934937         3911 
 4484000   0.53712383   -9.4689715    452.22286 0.0084043796 0.0064909046         3941 
 4485000   0.54396396   -9.4752278    453.50333 0.0084262974 0.0064883177         3928 
 4486000   0.52139489   -9.4839787    452.34798 0.0084029571 0.0064857307         3929 
 4487000   0.53435135   -9.4861573     452.9353  0.008411992 0.0064831469         3915 
 4488000   0.53758324   -9.4758948    452.23579 0.0083971293 0.0064805645         3916 
 4489000   0.52737023   -9.4786332    453.66697 0.0084218269 0.0064779837         3940 
 4490000   0.52626143   -9.4909069    452.78674 0.0084036143 0.0064754031         3929 
 4491000   0.53941052   -9.4945423    452.33493 0.0083933594 0.0064728225         3946 
 4492000   0.52974268   -9.4876292    451.84104 0.0083823286 0.0064702447         3936 
 4493000   0.52581384   -9.4885684    452.67083 0.0083958533 0.0064676696         3918 
 4494000   0.53011327   -9.4926701     452.7908 0.0083962098 0.0064650951         3920 
 4495000   0.53378989   -9.4885326    452.57922 0.0083904193 0.0064625229         3918 
 4496000   0.53128038   -9.4835857    451.55329 0.0083695375 0.0064599509         3929 
 4497000   0.54398932   -9.4734705    453.11481 0.0083966128 0.0064573814         3915 
 4498000   0.52230093    -9.504137    451.57855 0.0083662842  0.006454812         3923 
 4499000     0.533322   -9.4872598    452.50367 0.0083815601 0.0064522441         3926 
 4500000   0.53132698   -9.4890684     452.3586 0.0083770111 0.0064496787         3934 
 4501000   0.52780886   -9.4856101    451.57034 0.0083605558 0.0064471141         3933 
 4502000   0.53542238   -9.4710414    452.61732 0.0083780787 0.0064445503         3939 
 4503000   0.52688917   -9.4792851    452.46506 0.0083734003 0.0064419876         3936 
 4504000   0.53209472   -9.4842422    452.85057 0.0083786739 0.0064394275         3908 
 4505000   0.54475725   -9.4704235    452.48727 0.0083700938 0.0064368686         3928 
 4506000   0.53553256   -9.4819109    452.49616 0.0083684007 0.0064343103         3929 
 4507000   0.52308382   -9.4798564    453.26056 0.0083806774 0.0064317542         3928 
 4508000   0.52674422   -9.4796055    452.03308 0.0083561277 0.0064291979         3905 
 4509000   0.53106586   -9.5034868    452.17893   0.00835697 0.0064266446         3930 
 4510000   0.54500527   -9.4804683    452.56817 0.0083623091 0.0064240918         3928 
 4511000   0.52742845   -9.4904163    452.36236 0.0083566535 0.0064215433         3918 
 4512000   0.52308458   -9.4873759    452.56323 0.0083585113 0.0064189935         3931 
 4513000   0.52305982   -9.4866164    452.63481 0.0083579809 0.0064164462         3932 
 4514000   0.53908051   -9.5081091     451.7368  0.008339551 0.0064139001         3926 
 4515000   0.53125748   -9.4856022    452.87169 0.0083586506 0.0064113539         3929 
 4516000   0.52687156   -9.4826868    452.50123 0.0083499637 0.0064088072         3926 
 4517000   0.52473291   -9.4777327    452.37847 0.0083458503 0.0064062635         3911 
 4518000    0.5199438   -9.4836514    452.28718 0.0083423193 0.0064037233         3943 
 4519000   0.53236386   -9.4957602    452.11627 0.0083373215 0.0064011825         3928 
 4520000    0.5285509   -9.5011364    452.29799 0.0083388272 0.0063986416         3930 
 4521000   0.51945192   -9.5055227    452.61055  0.008342744 0.0063961054         3938 
 4522000   0.51460979    -9.476965    452.73239 0.0083431445 0.0063935679         3930 
 4523000   0.51544319   -9.4916537    452.33221 0.0083339268 0.0063910328         3937 
 4524000   0.52276764    -9.477068    452.27021 0.0083309426 0.0063885011         3912 
 4525000   0.52918852    -9.501543    452.35123 0.0083305936 0.0063859698         3937 
 4526000    0.5269083   -9.4945283    452.19142 0.0083258105 0.0063834396         3930 
 4527000   0.53464015   -9.4949431    452.01094 0.0083206491 0.0063809098         3930 
 4528000   0.52117467   -9.4948553    452.21049 0.0083224839 0.0063783823         3918 
 4529000   0.53540303   -9.4894436    453.10594 0.0083371226 0.0063758574         3935 
 4530000   0.51942741   -9.4840014    452.16006  0.008317882 0.0063733329         3919 
 4531000   0.52457845   -9.4946577    452.32341 0.0083190504 0.0063708066         3925 
 4532000   0.53149286   -9.4702253    453.70824 0.0083426788 0.0063682849         3931 
 4533000   0.52226669   -9.4838924    451.69055 0.0083037457 0.0063657637         3943 
 4534000   0.52186179   -9.4896988    452.58866 0.0083184212 0.0063632464         3937 
 4535000   0.51901015   -9.5096619    452.31284 0.0083115186 0.0063607268         3935 
 4536000   0.52600308   -9.5002766    452.29804 0.0083094144 0.0063582081         3933 
 4537000   0.52333973   -9.5228765    452.50147 0.0083113194 0.0063556909         3935 
 4538000   0.52184744   -9.5158466    452.11775 0.0083024415 0.0063531756         3939 
 4539000   0.53703647   -9.4855412    452.99634 0.0083167427 0.0063506633         3941 
 4540000   0.52872979   -9.4895402    452.52543 0.0083062671 0.0063481526         3929 
 4541000   0.53556502   -9.4922604    452.35386 0.0083012894 0.0063456423         3941 
 4542000   0.52333675   -9.5070105    452.33334 0.0082990852 0.0063431319         3933 
 4543000   0.52284615   -9.4917929    452.66393 0.0083033226 0.0063406245         3930 
 4544000   0.51820112   -9.4679513    452.91267 0.0083060569   0.00633812         3931 
 4545000   0.52507829   -9.4898735    452.76654   0.00830155 0.0063356163         3911 
 4546000   0.52143707   -9.5081222    452.50713 0.0082949686  0.006333115         3929 
 4547000   0.52755333    -9.493934    451.93296 0.0082826215 0.0063306116         3921 
 4548000   0.52677617   -9.4946801    452.10643 0.0082839788 0.0063281118         3935 
 4549000   0.52645532   -9.4949131    451.82723 0.0082770432 0.0063256115         3921 
 4550000   0.52319994   -9.5012825    451.68072 0.0082725406  0.006323114         3919 
 4551000   0.51990062   -9.4936081    451.84217 0.0082736792 0.0063206191         3933 
 4552000   0.50650507   -9.4947625    452.80698 0.0082895243 0.0063181247         3930 
 4553000   0.53219237   -9.4927521     452.2705 0.0082778845 0.0063156315         3920 
 4554000   0.52459753    -9.510069    451.66656 0.0082650154 0.0063131402         3926 
 4555000   0.53233388   -9.5150781    451.92347  0.008267901 0.0063106495         3916 
 4556000   0.52666743   -9.4924438    452.92647  0.008284432 0.0063081599         3933 
 4557000    0.5196943   -9.5198459    452.02107 0.0082660571 0.0063056709         3923 
 4558000   0.52068171   -9.4916335    452.55616 0.0082740265 0.0063031839         3927 
 4559000   0.52693443   -9.4964678    451.80073 0.0082584033 0.0063006981         3935 
 4560000   0.52746609   -9.5051968    452.90411 0.0082767563  0.006298214         3939 
 4561000   0.52121266   -9.5208216    451.82347 0.0082551974 0.0062957292         3922 
 4562000   0.52717473    -9.501235     451.8802 0.0082544242 0.0062932482         3945 
 4563000   0.51712371   -9.5006806    452.55773 0.0082649889 0.0062907667         3929 
 4564000   0.53099765   -9.5064535    451.73296 0.0082481187 0.0062882881         3934 
 4565000    0.5185953   -9.4861045    452.67123 0.0082634398 0.0062858101         3929 
 4566000   0.53159919   -9.5022748    451.38808 0.0082382115 0.0062833307         3941 
 4567000   0.50169273    -9.521953    452.28757 0.0082528205 0.0062808553         3936 
 4568000   0.52566308   -9.4909279    452.71406 0.0082587941 0.0062783811         3906 
 4569000   0.52046763   -9.5014921    452.25632 0.0082486379 0.0062759094         3919 
 4570000   0.51221017    -9.509067    451.51316 0.0082332816  0.006273439         3925 
 4571000   0.52303095   -9.5088488    452.68894 0.0082529159 0.0062709689         3903 
 4572000    0.5118615   -9.5032253    452.14589 0.0082412126 0.0062684986         3943 
 4573000   0.52187348   -9.5036842    452.18803 0.0082401784 0.0062660302         3929 
 4574000   0.51898185     -9.49193    451.69785 0.0082294463 0.0062635641         3927 
 4575000   0.51966764     -9.50247    451.69955 0.0082276786 0.0062610996         3930 
 4576000   0.50957023   -9.5134513    451.94629 0.0082303739 0.0062586355         3938 
 4577000   0.52234292   -9.4867149    452.43345 0.0082374454 0.0062561721         3927 
 4578000   0.52493523   -9.5070679    451.88967 0.0082257475 0.0062537115         3933 
 4579000   0.52582632   -9.5020935    452.24513 0.0082304201 0.0062512524         3926 
 4580000   0.50771916   -9.5110901    451.47903  0.008214684 0.0062487929         3930 
 4581000   0.51354717   -9.5048879    451.94774 0.0082214171 0.0062463366         3932 
 4582000    0.5169037   -9.5084437    451.40888 0.0082098225 0.0062438811         3930 
 4583000   0.52938669   -9.5176429     451.4182 0.0082082005 0.0062414269         3925 
 4584000   0.52647463    -9.508607    452.69634 0.0082296455 0.0062389726         3915 
 4585000   0.52116273   -9.5107314    451.42818 0.0082048015 0.0062365213         3929 
 4586000   0.52443102   -9.5121452     451.9065  0.008211704 0.0062340716         3921 
 4587000   0.51197294   -9.5086027    452.03736 0.0082122913 0.0062316229         3931 
 4588000   0.51674637   -9.5033773     452.1802 0.0082130958 0.0062291738         3923 
 4589000    0.5225314   -9.5366634    451.87109 0.0082056927  0.006226726         3932 
 4590000   0.51179979   -9.5133461    452.53528 0.0082159637 0.0062242785         3929 
 4591000   0.50301084   -9.5148783    452.47574 0.0082130934 0.0062218341         3932 
 4592000   0.50816153   -9.4991576    452.22957 0.0082068375   0.00621939         3920 
 4593000   0.51757858   -9.5128111     452.4332 0.0082087452 0.0062169473         3932 
 4594000   0.51634264   -9.5111634    452.02555 0.0081995638 0.0062145084         3936 
 4595000   0.51106891   -9.5193099    451.62462 0.0081905082 0.0062120711         3912 
 4596000   0.51744935   -9.5150518    452.36827 0.0082022097 0.0062096328         3940 
 4597000    0.5252344   -9.5054805    452.27561 0.0081987457 0.0062071953         3921 
 4598000   0.52291026   -9.5251494    452.13279 0.0081943741 0.0062047599         3933 
 4599000   0.50583901   -9.5155448    452.07604 0.0081915642 0.0062023272         3926 
 4600000   0.52779471    -9.498138    451.86388 0.0081859398  0.006199895         3928 
 4601000   0.51130159   -9.5071822    452.72686  0.008199791 0.0061974645         3923 
 4602000   0.50765759   -9.5058012    451.67684 0.0081789954 0.0061950336         3933 
 4603000   0.51861047   -9.5134909    452.17238 0.0081861897 0.0061926035         3935 
 4604000   0.51600506   -9.5079085    451.61446 0.0081743133 0.0061901768         3930 
 4605000   0.51672464   -9.5131012    451.73006 0.0081746301 0.0061877517         3919 
 4606000   0.52160751   -9.5001133    451.35344 0.0081660414 0.0061853275         3938 
 4607000   0.52457777    -9.512944    451.84871 0.0081732276 0.0061829026         3938 
 4608000   0.51303326   -9.5044204    452.59926 0.0081850271 0.0061804807         3925 
 4609000   0.50392219   -9.5104879    451.42613 0.0081620404   0.00617806         3930 
 4610000   0.51084356   -9.5171912    451.91386 0.0081690864 0.0061756385         3930 
 4611000   0.50759699     -9.50282    451.73129 0.0081640152 0.0061732204         3930 
 4612000   0.50497795   -9.5259096    452.08847 0.0081686988 0.0061708031         3935 
 4613000    0.5288495   -9.5140486    452.03218 0.0081659112 0.0061683878         3935 
 4614000   0.50617505    -9.517675     451.4845 0.0081542498 0.0061659726         3925 
 4615000   0.51500372   -9.5300754    451.99238 0.0081616537 0.0061635606         3928 
 4616000      0.51962   -9.5166322    451.59367 0.0081526876  0.006161151         3934 
 4617000   0.52250866     -9.51548    452.38568  0.008165217 0.0061587394         3923 
 4618000   0.49556423   -9.5387257    451.69088 0.0081509109  0.006156329         3927 
 4619000   0.51344684   -9.5186618    451.76905 0.0081505566 0.0061539205         3920 
 4620000   0.51373761   -9.5078023    451.94397 0.0081519476 0.0061515128         3918 
 4621000   0.51488146   -9.5170657    451.89494 0.0081492992 0.0061491079         3923 
 4622000   0.50756589   -9.5075853    451.80187 0.0081458581 0.0061467038         3939 
 4623000   0.50438279   -9.5198603    452.48629 0.0081564332 0.0061443009         3924 
 4624000   0.50289637   -9.5148148    451.43671 0.0081357538  0.006141898         3910 
 4625000   0.52028449   -9.5125615     451.8891  0.008142146 0.0061394978         3920 
 4626000   0.51186713   -9.5179653    452.07569 0.0081437472 0.0061370988         3921 
 4627000    0.5123647    -9.509138    451.78589 0.0081367677 0.0061346997         3933 
 4628000   0.51282257   -9.5170626    451.94883 0.0081379435 0.0061323042         3928 
 4629000   0.51296482   -9.5057966    452.46761 0.0081455247 0.0061299111         3936 
 4630000   0.50818764   -9.5073116    452.32471 0.0081411935 0.0061275178         3924 
 4631000   0.51318137   -9.5268889    452.44847 0.0081416625 0.0061251253         3924 
 4632000    0.5159231   -9.5173561    452.01561 0.0081321173 0.0061227341         3930 
 4633000   0.52209875   -9.5346153    451.67033 0.0081241515 0.0061203443         3943 
 4634000   0.50569893    -9.505213    451.07261 0.0081116496 0.0061179557         3933 
 4635000   0.50796546   -9.5233262     451.7102 0.0081213628 0.0061155691         3933 
 4636000   0.49638518   -9.5317385    451.77008 0.0081206875 0.0061131815         3932 
 4637000   0.51272165   -9.5237771    451.33598 0.0081111346 0.0061107967         3938 
 4638000   0.50069923   -9.5438377    451.81676 0.0081180243 0.0061084102         3928 
 4639000    0.5183595   -9.5232478    451.69572 0.0081141001 0.0061060281         3931 
 4640000   0.50612185   -9.5394182    451.67124 0.0081119116 0.0061036479         3934 
 4641000   0.52180221   -9.5215482    452.06726 0.0081172746 0.0061012684         3926 
 4642000   0.50279923   -9.5225454    451.56722 0.0081065492 0.0060988903         3942 
 4643000   0.51300886   -9.5006968    452.01912  0.008112914 0.0060965136         3932 
 4644000   0.50496316    -9.523116    451.97781 0.0081104259 0.0060941385         3929 
 4645000   0.50210795   -9.5179733    451.22251 0.0080951293 0.0060917651         3915 
 4646000   0.50274756   -9.5302925     452.0054 0.0081074294 0.0060893922         3928 
 4647000   0.50909017   -9.5216161    452.29794 0.0081109308   0.00608702         3921 
 4648000   0.51189976   -9.5181126    451.55443 0.0080958553 0.0060846508         3936 
 4649000   0.50395179   -9.5138945    451.88047 0.0080999582 0.0060822813         3933 
 4650000   0.49111372   -9.5234063    452.03955 0.0081010672 0.0060799125         3925 
 4651000   0.50715438   -9.5295097    451.81677 0.0080953337 0.0060775453         3940 
 4652000   0.51632782   -9.5276909    452.05784  0.008097912 0.0060751788         3926 
 4653000   0.50744399   -9.5256184    452.04732 0.0080959832  0.006072813         3920 
 4654000   0.49942193   -9.5165246    451.67549 0.0080875858 0.0060704499         3927 
 4655000   0.49906884   -9.5237877    452.03982 0.0080923706 0.0060680878         3933 
 4656000   0.50455834   -9.5285682    451.75794 0.0080855875 0.0060657255         3931 
 4657000   0.51536877   -9.5328742    451.33316 0.0080762501 0.0060633656         3927 
 4658000   0.50466645    -9.537857     450.8532 0.0080659296 0.0060610063         3920 
 4659000   0.50945034   -9.5150482    452.07549 0.0080860609 0.0060586489         3928 
 4660000     0.503202    -9.533892    451.14178 0.0080676284  0.006056293         3935 
 4661000   0.50947837   -9.5160586    451.54655 0.0080731344 0.0060539367         3917 
 4662000   0.50713608   -9.5217709    451.74912 0.0080750236 0.0060515827         3927 
 4663000   0.50165553   -9.5252291    451.61438 0.0080708839 0.0060492303         3934 
 4664000   0.50542101   -9.5126495    452.06192 0.0080771498 0.0060468782         3945 
 4665000   0.50765454   -9.5238391    451.56767 0.0080665892 0.0060445272         3931 
 4666000   0.50609204   -9.5089544    452.06742  0.008073786 0.0060421781         3924 
 4667000   0.50739475     -9.50448    452.09006 0.0080724602 0.0060398316         3939 
 4668000   0.49782575    -9.524858     452.4045 0.0080763442 0.0060374857         3936 
 4669000   0.51079639   -9.5248925    451.63355 0.0080608544 0.0060351416         3927 
 4670000   0.50228143   -9.5008966    451.33048 0.0080537201  0.006032797         3910 
 4671000   0.51087785   -9.5072859    452.13456 0.0080663413 0.0060304557         3923 
 4672000   0.51160063   -9.5510634    451.31422 0.0080499826  0.006028115         3927 
 4673000     0.506921   -9.5253731     451.6993 0.0080551269 0.0060257745         3929 
 4674000   0.49306783   -9.5303513    451.82801 0.0080556984 0.0060234349         3935 
 4675000   0.50836101   -9.5410405    451.65915 0.0080509652 0.0060210987         3934 
 4676000    0.5023541   -9.5351764    452.23983 0.0080595921 0.0060187618         3939 
 4677000   0.49332305   -9.5249047    451.77147 0.0080495238 0.0060164262         3926 
 4678000   0.50650844   -9.5315307    451.37161 0.0080406799 0.0060140918         3930 
 4679000   0.49695768   -9.5172448    451.57185 0.0080425278 0.0060117592         3920 
 4680000   0.51342213   -9.5375759    451.06285  0.008031746  0.006009427         3928 
 4681000   0.49458298   -9.5209042    451.93789  0.008045608 0.0060070965         3942 
 4682000   0.50614825   -9.5351952    451.47789 0.0080357021 0.0060047668         3919 
 4683000   0.48767968   -9.5325194    452.20357 0.0080468995 0.0060024394         3914 
 4684000   0.50341815   -9.5326418    451.54116 0.0080333966 0.0060001124         3931 
 4685000   0.50430504   -9.5297474    451.99297 0.0080397184 0.0059977866         3932 
 4686000   0.49305882   -9.5338915    450.67838 0.0080146248 0.0059954621         3936 
 4687000   0.49165537   -9.5372251    451.87544 0.0080341982 0.0059931387         3934 
 4688000    0.5083667   -9.5265108    451.58207 0.0080272694 0.0059908165         3922 
 4689000   0.50192097   -9.5339357    451.42474 0.0080227614 0.0059884957         3951 
 4690000   0.49750521   -9.5268532    451.33453 0.0080194479 0.0059861777         3916 
 4691000   0.50927574    -9.533639    452.28877   0.00803469 0.0059838591         3935 
 4692000   0.49917349   -9.5378111    451.10407 0.0080119365 0.0059815437         3918 
 4693000   0.49110052   -9.5426319    451.86586 0.0080237564 0.0059792265         3926 
 4694000    0.5015349   -9.5266969    451.52487 0.0080159933 0.0059769118         3934 
 4695000   0.48911224   -9.5222934    452.41044 0.0080300042 0.0059745968         3917 
 4696000   0.50507586   -9.5343876    451.41667 0.0080106593 0.0059722854         3942 
 4697000   0.49587036   -9.5314292    451.42215 0.0080090509 0.0059699755         3924 
 4698000   0.50138418   -9.5285265    451.99543 0.0080175151 0.0059676657         3926 
 4699000   0.50203031   -9.5291269    451.42019 0.0080056073 0.0059653572         3940 
 4700000   0.48860675   -9.5213982    451.70068 0.0080088774  0.005963051         3916 
 4701000   0.49902946   -9.5348762    451.32851 0.0080005763 0.0059607444         3937 
 4702000   0.50190139   -9.5249617    451.44541 0.0080009465 0.0059584384         3922 
 4703000   0.49636497   -9.5193081    451.13151 0.0079936832 0.0059561352         3929 
 4704000   0.50734613   -9.5278514    451.66596  0.008001452 0.0059538331         3920 
 4705000   0.50181207   -9.5148037    451.48553 0.0079965557 0.0059515338         3924 
 4706000    0.5002102     -9.50876    451.85246  0.008001354 0.0059492329         3919 
 4707000   0.50647959   -9.5049946    451.36707 0.0079910607  0.005946936         3938 
 4708000   0.49524103   -9.5225466    451.45886 0.0079909881 0.0059446385         3936 
 4709000   0.49522143   -9.5314713    451.47389  0.007989557 0.0059423421         3925 
 4710000   0.51537736   -9.5382844    450.85354  0.007976885 0.0059400475         3931 
 4711000   0.50698574   -9.5323601    451.71356 0.0079904047 0.0059377534         3938 
 4712000   0.49491879   -9.5299784    451.87043 0.0079914833 0.0059354598         3934 
 4713000   0.49932274   -9.5179549    451.38721 0.0079812435 0.0059331684         3920 
 4714000   0.49743409   -9.5496325    450.93573 0.0079715692 0.0059308783         3928 
 4715000    0.4984133   -9.5274519    452.14708 0.0079912882 0.0059285886         3919 
 4716000   0.48870902   -9.5342543    451.37127 0.0079758847 0.0059262994         3931 
 4717000   0.49942006   -9.5467093    452.03719 0.0079859584 0.0059240132         3916 
 4718000   0.50179312   -9.5352266    451.52556 0.0079752289 0.0059217263         3943 
 4719000   0.49324055   -9.5215323    451.84157 0.0079791194 0.0059194406         3931 
 4720000   0.49118045   -9.5426414    451.37199 0.0079691382 0.0059171585         3929 
 4721000   0.49104677   -9.5308061    450.93672 0.0079597669 0.0059148762         3938 
 4722000   0.49764825   -9.5236863     451.6591 0.0079708299 0.0059125948         3921 
 4723000   0.49296061   -9.5279308    451.48455 0.0079660624 0.0059103156         3922 
 4724000   0.49811632    -9.530202    452.06331 0.0079745857  0.005908038         3931 
 4725000    0.4991623   -9.5426712    451.11668 0.0079562025   0.00590576         3932 
 4726000   0.49250958   -9.5501007    450.76028 0.0079482346 0.0059034833         3936 
 4727000   0.49491071   -9.5357123    451.27312 0.0079555942 0.0059012078         3921 
 4728000   0.47825711   -9.5311409    451.52891 0.0079584199 0.0058989334         3919 
 4729000   0.49996518   -9.5386143    450.55595 0.0079395917 0.0058966598         3930 
 4730000   0.48880704    -9.542278    451.54807 0.0079553923 0.0058943881         3920 
 4731000   0.50132378   -9.5424662    451.77118 0.0079576407 0.0058921181         3931 
 4732000   0.49152072   -9.5290487    451.44245 0.0079501699 0.0058898488         3934 
 4733000   0.49473383   -9.5284248    451.36686 0.0079471593 0.0058875812         3937 
 4734000   0.50393195   -9.5273096    452.16402 0.0079595131 0.0058853159         3921 
 4735000   0.49278046   -9.5237498    451.63578 0.0079485354 0.0058830511         3931 
 4736000   0.49663431   -9.5447295     451.7152 0.0079482546  0.005880786         3931 
 4737000   0.49682144   -9.5313962    451.96649 0.0079509973  0.005878521         3923 
 4738000   0.48998662   -9.5478663    450.97891 0.0079319493 0.0058762601         3926 
 4739000   0.50378895   -9.5284301    451.08088 0.0079320686 0.0058740006         3946 
 4740000   0.48772723   -9.5491154    451.18025 0.0079321422 0.0058717411         3922 
 4741000   0.48435816   -9.5238011    451.88676 0.0079428876 0.0058694825         3927 
 4742000   0.49730967     -9.53828    451.10281 0.0079274358 0.0058672265         3947 
 4743000   0.50823025   -9.5505944    450.52968 0.0079156947   0.00586497         3940 
 4744000   0.49950813   -9.5496841    450.77754 0.0079183801 0.0058627141         3935 
 4745000   0.49641784   -9.5454766    450.97334   0.00792015 0.0058604603         3923 
 4746000   0.48561917    -9.524442    451.37445 0.0079255241  0.005858208         3925 
 4747000   0.48253788   -9.5403061    451.56768 0.0079272467 0.0058559562         3930 
 4748000   0.49514079   -9.5360929    451.29299 0.0079207558 0.0058537074         3933 
 4749000   0.49605995   -9.5546735    451.28867 0.0079190122 0.0058514569         3940 
 4750000   0.50260135   -9.5382277     450.9343 0.0079111281 0.0058492098         3931 
 4751000   0.48658449   -9.5431379    451.02227 0.0079110059 0.0058469641         3931 
 4752000   0.49084367   -9.5473061    451.43458 0.0079165715 0.0058447192         3943 
 4753000   0.49342504   -9.5322523     451.3338  0.007913139 0.0058424756         3935 
 4754000    0.4889688   -9.5413686    451.36038 0.0079119405 0.0058402316         3920 
 4755000   0.48955642   -9.5488078    451.57696 0.0079140722 0.0058379898         3937 
 4756000   0.48599661   -9.5517948    451.80347  0.007916377 0.0058357501         3946 
 4757000   0.49480448   -9.5461157    451.21113 0.0079043362 0.0058335095         3917 
 4758000   0.49329985   -9.5534803    451.34059 0.0079049424 0.0058312715         3934 
 4759000   0.48741369   -9.5418588    451.15829 0.0079000891 0.0058290349         3931 
 4760000   0.49212243   -9.5449988    451.18471 0.0078988919 0.0058267988         3912 
 4761000   0.48890552   -9.5501079    451.32887 0.0078997563 0.0058245639         3934 
 4762000   0.48840556   -9.5466317    451.87029  0.007907572 0.0058223305         3931 
 4763000   0.49107458   -9.5422518    451.10408 0.0078925061 0.0058200986         3938 
 4764000   0.50619364   -9.5492288    450.87916  0.007886915 0.0058178676         3920 
 4765000   0.49383014   -9.5535772    451.46848 0.0078955662  0.005815638         3923 
 4766000   0.49286326   -9.5406111    451.57361 0.0078957479 0.0058134083         3936 
 4767000   0.48971458   -9.5510153    450.60058 0.0078770817 0.0058111812         3922 
 4768000   0.49266639   -9.5622534    451.39317 0.0078892822 0.0058089552         3944 
 4769000   0.49923227   -9.5537908    450.99169 0.0078806125 0.0058067296         3935 
 4770000   0.48781306   -9.5531722    451.27216 0.0078838602 0.0058045045         3933 
 4771000    0.4937978   -9.5501036    451.53282 0.0078867607 0.0058022812         3927 
 4772000   0.49667236   -9.5525033    451.07753 0.0078771573 0.0058000589         3943 
 4773000   0.49320603   -9.5464891    451.40571 0.0078812366 0.0057978381         3918 
 4774000   0.48649123   -9.5486474    450.97734 0.0078721083  0.005795618         3927 
 4775000   0.48891937   -9.5532562    451.70571 0.0078831712 0.0057933993         3936 
 4776000    0.4752975   -9.5505728    450.86633 0.0078668748 0.0057911819         3928 
 4777000   0.49115454   -9.5659893    451.20747 0.0078711791 0.0057889642         3939 
 4778000   0.49227796   -9.5449079    451.13172 0.0078682106 0.0057867484         3919 
 4779000    0.5004817   -9.5553861    451.11194 0.0078662192 0.0057845343         3935 
 4780000   0.48092388   -9.5560505    451.73593 0.0078754521 0.0057823212         3942 
 4781000   0.48215508   -9.5395399    451.13092 0.0078632594 0.0057801088         3942 
 4782000   0.48292232   -9.5555627    451.24284 0.0078635654 0.0057779005         3939 
 4783000   0.48709064   -9.5581744    450.92595 0.0078564002 0.0057756906         3925 
 4784000   0.47880574   -9.5289412    451.66292 0.0078675955 0.0057734834         3931 
 4785000   0.48619931   -9.5518825    450.83899 0.0078516021 0.0057712764         3950 
 4786000   0.48654193   -9.5520997    450.78286 0.0078489842 0.0057690702         3917 
 4787000   0.48760116   -9.5500333    451.04195 0.0078518548 0.0057668657         3928 
 4788000   0.49043284   -9.5505501    450.65954 0.0078435593 0.0057646612         3922 
 4789000   0.48740882   -9.5548887    451.13628 0.0078502171 0.0057624583         3916 
 4790000   0.48541412   -9.5350033    450.95134 0.0078453609  0.005760257         3948 
 4791000   0.49076006   -9.5423314     450.9214 0.0078432026 0.0057580562         3946 
 4792000   0.50034542   -9.5477918    451.08012  0.007844326 0.0057558566         3927 
 4793000   0.49454144   -9.5541412    450.70327 0.0078361373 0.0057536582         3940 
 4794000   0.49606775   -9.5526674    450.93878 0.0078385966 0.0057514611         3949 
 4795000   0.50007848   -9.5619408    451.60966 0.0078486211 0.0057492651         3931 
 4796000    0.4930509   -9.5490054    451.29505 0.0078415181 0.0057470707         3935 
 4797000   0.49156718   -9.5422808    450.83457 0.0078318839 0.0057448776         3933 
 4798000   0.48752633    -9.568069    451.11934 0.0078351977 0.0057426862         3928 
 4799000   0.47812887   -9.5549885    450.19342 0.0078174866 0.0057404939         3939 
 4800000   0.48668721   -9.5658905    450.98241 0.0078295558 0.0057383051         3926 
 4801000   0.47337836   -9.5482751    451.47378 0.0078364538 0.0057361157         3931 
 4802000   0.49134863   -9.5555404    451.02388 0.0078270145 0.0057339286         3920 
 4803000   0.48418283   -9.5545582    450.65753 0.0078190286  0.005731741         3938 
 4804000   0.48568167     -9.55079     450.6924 0.0078180058 0.0057295542         3930 
 4805000   0.48354597    -9.555055    451.05498  0.007822667 0.0057273698         3941 
 4806000   0.49168102   -9.5567906       451.22 0.0078239006 0.0057251857         3938 
 4807000   0.49357138   -9.5688396    450.66206 0.0078126007 0.0057230042         3918 
 4808000   0.47607325   -9.5577868    451.27306 0.0078215658 0.0057208244         3950 
 4809000   0.48435853   -9.5794781    451.38051 0.0078218014 0.0057186435         3932 
 4810000   0.48598741   -9.5622606    450.43413 0.0078037792 0.0057164645         3929 
 4811000   0.47023774   -9.5600671    451.80914 0.0078259742 0.0057142853         3931 
 4812000   0.48679985   -9.5664949    451.31395 0.0078157722 0.0057121086         3936 
 4813000   0.48277572   -9.5565901    450.92752 0.0078074576 0.0057099323         3924 
 4814000   0.48295095   -9.5530067    450.59912  0.007800151 0.0057077579         3925 
 4815000   0.47183767   -9.5643443    450.61094 0.0077987355 0.0057055835         3928 
 4816000   0.48587207   -9.5611049    451.04772 0.0078046741 0.0057034114         3909 
 4817000   0.48326405   -9.5736485    450.85557 0.0077997296  0.005701239         3929 
 4818000   0.48267831   -9.5586419     450.7121 0.0077956293 0.0056990689         3926 
 4819000   0.48599037    -9.580927    451.07015 0.0078002031 0.0056969009         3953 
 4820000    0.4834888   -9.5664222    451.12824 0.0077995893 0.0056947326         3932 
 4821000   0.47793944   -9.5756281    451.86523 0.0078107106  0.005692567         3946 
 4822000   0.48621814   -9.5561492    450.79029 0.0077905138 0.0056904004         3941 
 4823000   0.47002416   -9.5584108    450.73788 0.0077879929 0.0056882369         3930 
 4824000   0.47987753   -9.5542093    451.41419 0.0077980616  0.005686074         3935 
 4825000   0.48542119   -9.5676369    450.61441 0.0077826322 0.0056839127         3922 
 4826000   0.47550596   -9.5666897    451.31899  0.007793186 0.0056817513         3939 
 4827000   0.48884331   -9.5597431     450.6204 0.0077795111 0.0056795919         3938 
 4828000   0.46670725   -9.5524176    450.74104 0.0077799821 0.0056774329         3932 
 4829000   0.47344831   -9.5583789    450.39612 0.0077724188 0.0056752738         3934 
 4830000    0.4855998   -9.5589471    450.68526 0.0077757981 0.0056731179         3936 
 4831000    0.4831073   -9.5569404    451.16062 0.0077823883 0.0056709619         3936 
 4832000   0.48871088   -9.5579067    450.69231 0.0077727013 0.0056688072         3936 
 4833000   0.48153602   -9.5616448    450.69279 0.0077711013 0.0056666538         3928 
 4834000   0.47124148   -9.5664662    451.26437 0.0077793471 0.0056645013         3913 
 4835000   0.48398837   -9.5542314    450.75006 0.0077688738 0.0056623509         3935 
 4836000   0.47666493   -9.5537031    450.47281 0.0077624898 0.0056601997         3931 
 4837000   0.48214979   -9.5610459    451.68858 0.0077818307 0.0056580497         3935 
 4838000   0.47279891   -9.5722087     450.8662  0.007766057 0.0056559031         3929 
 4839000   0.46746741   -9.5721388    450.47806 0.0077577678 0.0056537554         3938 
 4840000   0.47719724    -9.557543    451.68729  0.007776985 0.0056516104         3940 
 4841000   0.48288649   -9.5616366    450.73281 0.0077589481 0.0056494664         3933 
 4842000   0.46829117   -9.5525706    450.23551 0.0077487869 0.0056473247         3947 
 4843000   0.47389005    -9.563932    451.11978 0.0077624024 0.0056451831         3939 
 4844000   0.47395922    -9.573704    450.23884 0.0077456448 0.0056430421         3929 
 4845000   0.47890373   -9.5673599    450.74416 0.0077527376 0.0056409023         3925 
 4846000   0.47603605   -9.5689727    451.16224 0.0077583272 0.0056387619         3936 
 4847000   0.47839339   -9.5645889    450.42536 0.0077440574  0.005636625         3941 
 4848000    0.4819406   -9.5559442    451.06445 0.0077534455   0.00563449         3919 
 4849000   0.47214095   -9.5640751    450.80773 0.0077474347 0.0056323541         3936 
 4850000   0.47878734   -9.5723482    450.57923 0.0077419112 0.0056302199         3930 
 4851000   0.48682904   -9.5613181     450.2243 0.0077342181 0.0056280869         3914 
 4852000   0.47692005   -9.5631247    451.44166 0.0077535322 0.0056259547         3927 
 4853000   0.47486907   -9.5710691    450.92529 0.0077430676 0.0056238239         3922 
 4854000   0.47725955   -9.5692926    451.10124 0.0077444932 0.0056216935         3941 
 4855000   0.47062445   -9.5559889    450.93153 0.0077399851 0.0056195652         3940 
 4856000   0.46576145   -9.5638758    450.87341 0.0077373938 0.0056174373         3924 
 4857000   0.47812858   -9.5608322    450.50928 0.0077295532  0.005615309         3932 
 4858000   0.46965002   -9.5578348    450.73234 0.0077317885 0.0056131831         3932 
 4859000   0.47437078   -9.5592587    450.81898 0.0077316831 0.0056110588         3938 
 4860000   0.47477619   -9.5718387    451.16646 0.0077360503 0.0056089351         3932 
 4861000   0.46995966   -9.5630152    450.53433 0.0077236222 0.0056068119         3921 
 4862000   0.48386877   -9.5569946     450.9282 0.0077287845 0.0056046905         3935 
 4863000    0.4801015   -9.5759985    450.84762 0.0077258143 0.0056025704         3932 
 4864000   0.46851473   -9.5767705    450.73933 0.0077223707 0.0056004528         3919 
 4865000   0.47602353   -9.5589987    450.65857 0.0077193999 0.0055983357         3924 
 4866000   0.47420319   -9.5643099    450.94737 0.0077227595 0.0055962183         3932 
 4867000   0.47280265   -9.5674399    450.69235 0.0077168063 0.0055941034         3934 
 4868000   0.45798124   -9.5744516    450.89422 0.0077186768   0.00559199         3939 
 4869000   0.47844597   -9.5538988    450.54325 0.0077110845 0.0055898755         3919 
 4870000   0.47269705   -9.5747319    451.11271 0.0077192455 0.0055877622         3930 
 4871000   0.47669529   -9.5716553    450.94515 0.0077147942 0.0055856498         3928 
 4872000   0.48534551   -9.5706586    450.37159 0.0077034003  0.005583538         3933 
 4873000   0.46808395   -9.5861108    450.84257 0.0077098736 0.0055814287         3940 
 4874000   0.47500379   -9.5797896    450.21009  0.007697478 0.0055793203         3926 
 4875000   0.45874047   -9.5768247    451.41696 0.0077165292 0.0055772126         3939 
 4876000   0.47107194    -9.568655    450.77623 0.0077039963 0.0055751067         3932 
 4877000   0.47237983   -9.5845252    449.99382 0.0076890476 0.0055729991         3938 
 4878000   0.46592066   -9.5808006    450.63522 0.0076984287 0.0055708954         3942 
 4879000   0.47892405   -9.5797161    449.95969 0.0076853128 0.0055687926         3931 
 4880000   0.46933043   -9.5776608     450.3961 0.0076911902 0.0055666907         3936 
 4881000   0.46517177   -9.5778858    450.13557 0.0076851664 0.0055645902         3937 
 4882000   0.48303759   -9.5582788    450.95426  0.007697567 0.0055624914         3933 
 4883000   0.46309063   -9.6053299    449.90625 0.0076781052 0.0055603919         3929 
 4884000   0.47613692   -9.5856191    450.78704 0.0076915616 0.0055582927         3946 
 4885000   0.47303667   -9.5600225    450.42045 0.0076837334 0.0055561977         3947 
 4886000   0.47107989   -9.5858821    450.79146 0.0076884886 0.0055541008         3935 
 4887000   0.46488682   -9.5754065    450.78136  0.007686743 0.0055520065         3943 
 4888000   0.47741355   -9.5770272    450.00792 0.0076719844 0.0055499137         3924 
 4889000   0.47874512   -9.5782894    450.49973 0.0076787982 0.0055478234         3922 
 4890000   0.46470801   -9.5816286    450.37943 0.0076751778 0.0055457312         3942 
 4891000   0.47250537   -9.5611342     451.0951 0.0076858022 0.0055436411         3943 
 4892000   0.46504544   -9.5868824    450.06424 0.0076666708 0.0055415506         3948 
 4893000   0.47258336   -9.5772446    451.03523 0.0076816409 0.0055394624         3933 
 4894000   0.46363231   -9.5804913    451.01959  0.007679805 0.0055373753         3929 
 4895000   0.47194855   -9.5878675    450.02038 0.0076612254 0.0055352892         3942 
 4896000   0.46584107   -9.5824681    450.16685 0.0076621536 0.0055332049         3937 
 4897000   0.47287399   -9.5853089    450.84408 0.0076721135 0.0055311208         3924 
 4898000   0.45998323   -9.5824918    450.38564 0.0076627474 0.0055290386         3920 
 4899000   0.47598383   -9.5726946    450.45883 0.0076624282 0.0055269571         3932 
 4900000   0.46114987   -9.5888111    450.82903 0.0076671603 0.0055248772         3948 
 4901000    0.4704372   -9.5690964    450.14486 0.0076539628 0.0055227985         3933 
 4902000    0.4691467   -9.5807104    450.61956 0.0076604713 0.0055207203         3928 
 4903000   0.47710339   -9.5825616    450.67476 0.0076598471 0.0055186432         3932 
 4904000   0.47364418   -9.6022082    450.48376 0.0076550394 0.0055165662         3933 
 4905000   0.46240053   -9.5850738     450.0871 0.0076467398 0.0055144902         3929 
 4906000   0.45575646   -9.5788205    450.38255 0.0076501995 0.0055124149         3946 
 4907000   0.46719276    -9.571955    450.82655 0.0076561808 0.0055103425         3926 
 4908000   0.46768298   -9.5768648    451.36436 0.0076637523 0.0055082697         3939 
 4909000   0.46772587   -9.5858414    450.11738 0.0076410229  0.005506197         3939 
 4910000   0.46839474   -9.5854395     450.3904 0.0076441005 0.0055041287         3931 
 4911000   0.46163762   -9.5859518    450.13116  0.007638145 0.0055020602         3928 
 4912000   0.46574331   -9.5789907    450.77354 0.0076474881 0.0054999921         3937 
 4913000    0.4653576   -9.5822633    450.49613 0.0076412261 0.0054979263         3928 
 4914000   0.46670085   -9.5839081    450.77966 0.0076444794   0.00549586         3936 
 4915000     0.466672   -9.5857355    450.44198 0.0076371986 0.0054937949         3935 
 4916000   0.46600107   -9.5713698    450.61401 0.0076385613 0.0054917324         3939 
 4917000   0.46373164   -9.5825978    450.96181 0.0076429024 0.0054896702         3919 
 4918000   0.45874279   -9.5714911    450.55933 0.0076345285 0.0054876085         3926 
 4919000   0.46251688   -9.5816523    450.56504 0.0076330731 0.0054855495         3934 
 4920000   0.46435266   -9.6015327    451.45917 0.0076466662 0.0054834909         3935 
 4921000   0.46340642    -9.570159    450.11891  0.007622416 0.0054814315         3930 
 4922000   0.46844234   -9.5825624     450.6587 0.0076300064 0.0054793738         3936 
 4923000   0.46681039   -9.5994322    450.82928 0.0076313441 0.0054773169         3930 
 4924000   0.46505093   -9.5886222    449.92471 0.0076144854 0.0054752616         3919 
 4925000     0.455585   -9.5898395    449.83635 0.0076114441 0.0054732063         3937 
 4926000   0.45851907    -9.587036    450.43439 0.0076200161 0.0054711538         3945 
 4927000   0.46012849   -9.5918571    450.61079 0.0076214531 0.0054691019         3916 
 4928000   0.45818601   -9.5829807    449.84912 0.0076070264 0.0054670495         3940 
 4929000   0.46887418   -9.5684597    450.16499 0.0076108236 0.0054650002         3936 
 4930000   0.45828361   -9.5991765    450.38808 0.0076130507 0.0054629514         3944 
 4931000   0.45321808   -9.5842552    450.48826 0.0076131999 0.0054609037         3925 
 4932000   0.46499023   -9.5847509    450.52904 0.0076123453 0.0054588568         3935 
 4933000   0.46041959   -9.5946697     450.6726 0.0076132272 0.0054568111         3934 
 4934000   0.47180392   -9.5782834    450.10938 0.0076021717 0.0054547673         3924 
 4935000   0.45760196   -9.5895971    449.65749 0.0075930005 0.0054527238         3932 
 4936000   0.46233969    -9.581751    449.86192 0.0075949136 0.0054506816         3943 
 4937000   0.45415055   -9.5896392    450.23095 0.0075996043  0.005448639         3929 
 4938000   0.46271036   -9.5860227    450.51057 0.0076027841 0.0054465993         3935 
 4939000    0.4674848     -9.57991    450.51021 0.0076012386 0.0054445603         3935 
 4940000   0.46444071   -9.5836205    450.66249 0.0076022688 0.0054425207         3940 
 4941000   0.46990473   -9.5904373    449.90855 0.0075880143 0.0054404825         3934 
 4942000   0.45535485   -9.5934461    450.32438 0.0075934909 0.0054384459         3946 
 4943000   0.45897754   -9.5854948    450.14829  0.007588986 0.0054364093         3930 
 4944000   0.46555867   -9.6064788    450.22341 0.0075887171 0.0054343751         3937 
 4945000   0.45947654   -9.5804394    450.56616 0.0075929585 0.0054323424         3934 
 4946000   0.46732375   -9.5870984      450.331 0.0075874612  0.005430309         3928 
 4947000   0.45447866   -9.5968713    450.67516  0.007591725 0.0054282776         3924 
 4948000   0.47544888   -9.5907935    451.08407 0.0075970774 0.0054262481         3946 
 4949000   0.45624581   -9.5849759    450.41404 0.0075842601 0.0054242201         3932 
 4950000   0.46619081   -9.5949255    450.43602  0.007583098 0.0054221928         3906 
 4951000   0.45222405   -9.5808437    450.65354 0.0075852275 0.0054201644         3935 
 4952000   0.45335353   -9.5984535    449.41824 0.0075629079 0.0054181381         3926 
 4953000   0.44657305   -9.5815897    450.00527 0.0075712577 0.0054161118         3937 
 4954000   0.45608495   -9.5872932    450.46819 0.0075775162 0.0054140877         3946 
 4955000   0.45669524   -9.5866712    450.23695  0.007572098 0.0054120638         3935 
 4956000   0.45820275   -9.5825885    450.46716 0.0075744411 0.0054100409         3935 
 4957000    0.4511474   -9.5969267    450.15981 0.0075677461 0.0054080205         3944 
 4958000   0.45742472   -9.5824888    449.97394 0.0075630956  0.005406001         3925 
 4959000   0.44730058   -9.6029421    449.88894 0.0075601421  0.005403981         3944 
 4960000   0.45591851   -9.5893265    449.91693 0.0075590882 0.0054019608         3934 
 4961000   0.45596833   -9.5782952    449.99946 0.0075589509 0.0053999432         3930 
 4962000   0.46265956   -9.5916595    449.55789 0.0075500117  0.005397927         3927 
 4963000    0.4468564    -9.589577    450.76915 0.0075688285 0.0053959133         3931 
 4964000   0.46341669   -9.5778821    450.26907 0.0075589086 0.0053939002         3935 
 4965000   0.45066032   -9.5900834    451.19901 0.0075729945 0.0053918873         3935 
 4966000   0.45721166   -9.5913607    450.36421 0.0075574608 0.0053898755         3926 
 4967000   0.45891664   -9.6014864    450.54753  0.007559015 0.0053878654         3946 
 4968000   0.45112723   -9.5822477    449.84159 0.0075456521 0.0053858551         3944 
 4969000   0.44784375   -9.5895524    449.94145 0.0075458082 0.0053838458         3931 
 4970000   0.44324798   -9.5959156    449.92585 0.0075440283  0.005381838         3939 
 4971000   0.44766746   -9.6047882    450.41133 0.0075506492 0.0053798303         3936 
 4972000   0.46006699   -9.5945474    449.55298 0.0075347443 0.0053778251         3934 
 4973000   0.45785169   -9.5966342    450.44646 0.0075482012 0.0053758199         3931 
 4974000   0.46142588   -9.5796741    450.41637 0.0075461796 0.0053738173         3929 
 4975000   0.45468876   -9.5896172    450.15663 0.0075403121 0.0053718142         3940 
 4976000   0.45471479   -9.5931514    450.36155 0.0075422286  0.005369813         3936 
 4977000   0.46023121    -9.596559    450.40224 0.0075413944 0.0053678115         3944 
 4978000   0.46313135    -9.586451    450.38362 0.0075395678 0.0053658124         3931 
 4979000   0.47515037   -9.6000589    449.58712 0.0075247224 0.0053638143         3939 
 4980000   0.46054038   -9.5969089    450.99018 0.0075466898 0.0053618173         3927 
 4981000   0.45506145   -9.5955361    450.28772 0.0075334224 0.0053598198         3933 
 4982000   0.44188288   -9.6036361    449.69204 0.0075219464  0.005357823         3940 
 4983000   0.45014988   -9.5948389    450.04611 0.0075263581 0.0053558279         3935 
 4984000   0.45622539    -9.599958    449.96182 0.0075234387 0.0053538347         3934 
 4985000   0.45517041   -9.6019509    450.28308 0.0075272999 0.0053518416         3939 
 4986000   0.44893261   -9.5969181    449.85059 0.0075185618 0.0053498497         3934 
 4987000   0.45107085   -9.5958826    450.46353 0.0075272965 0.0053478587         3942 
 4988000   0.45658444   -9.6133117    450.10628 0.0075198189 0.0053458702         3934 
 4989000   0.44971444   -9.6003408    450.54663 0.0075256669 0.0053438807         3929 
 4990000   0.44585059   -9.5929329    450.11115 0.0075168862 0.0053418918         3941 
 4991000   0.45390453   -9.5888491    450.23594 0.0075174638 0.0053399058         3948 
 4992000   0.45244222   -9.5990721    449.53994 0.0075043393  0.005337922         3927 
 4993000   0.45322552    -9.597745    449.58315 0.0075035575 0.0053359374         3922 
 4994000   0.43838951   -9.6165904    450.39259 0.0075155619 0.0053339532         3923 
 4995000   0.44366221   -9.6029227    450.36679 0.0075136267 0.0053319702         3929 
 4996000   0.45017719   -9.6102101    450.12645  0.007508114 0.0053299895         3927 
 4997000   0.44439395   -9.6055863     450.0249  0.007504918 0.0053280087         3940 
 4998000   0.46235058   -9.5987843    450.66525 0.0075140932 0.0053260295         3925 
 4999000    0.4615239   -9.6042412    450.52521 0.0075102556 0.0053240515         3938 
 5000000   0.44581725   -9.6113252    449.82575 0.0074970959 0.0053220737         3928 
 5001000   0.44672162    -9.601918    450.01516 0.0074987529 0.0053200972         3931 
 5002000   0.44986519   -9.6082953    449.77334 0.0074932251  0.005318122         3935 
 5003000   0.44785216   -9.5995748    450.14405 0.0074979021 0.0053161475         3933 
 5004000   0.45032676   -9.6070783    449.88849 0.0074921478 0.0053141729         3940 
 5005000   0.44688255   -9.5947527    450.22064 0.0074961812 0.0053122011         3932 
 5006000   0.44171219   -9.6008321    450.14829 0.0074934793 0.0053102284         3938 
 5007000    0.4482973   -9.6039568    449.99076 0.0074893608 0.0053082576         3947 
 5008000   0.45245965   -9.6021632    449.99274 0.0074878983  0.005306288         3934 
 5009000   0.45311891   -9.6028721    450.28161 0.0074912093 0.0053043191         3943 
 5010000   0.45239795   -9.6089742    449.84601 0.0074824685 0.0053023517         3940 
 5011000   0.44706355   -9.6058635    449.84019 0.0074808786 0.0053003854         3941 
 5012000   0.43804255   -9.6027668    450.15824 0.0074846742 0.0052984188         3943 
Loop time of 13256.4 on 48 procs for 5000000 steps with 4000 atoms

Performance: 65175.963 tau/day, 377.176 timesteps/s
99.4% CPU use with 48 MPI tasks x no OpenMP threads

MPI task timing breakdown:
Section |  min time  |  avg time  |  max time  |%varavg| %total
---------------------------------------------------------------
Pair    | 1002       | 1107.7     | 1214.5     | 182.0 |  8.36
Neigh   | 92.953     | 98.165     | 101.88     |  22.7 |  0.74
Comm    | 856.05     | 965.61     | 1099.2     | 206.0 |  7.28
Output  | 18.853     | 18.859     | 18.951     |   0.3 |  0.14
Modify  | 10873      | 10942      | 10988      |  25.8 | 82.54
Other   |            | 124.6      |            |       |  0.94

Nlocal:        83.3333 ave          91 max          73 min
Histogram: 1 1 3 5 3 14 6 7 7 1
Nghost:        2444.81 ave        2477 max        2423 min
Histogram: 3 9 10 8 5 2 3 2 2 4
Neighs:        16951.8 ave       20320 max       14780 min
Histogram: 7 8 5 3 6 10 3 2 3 1
FullNghs:      33902.5 ave       37038 max       28634 min
Histogram: 1 0 4 2 3 12 6 7 7 6

Total # of neighbors = 1627319
Ave neighs/atom = 406.82975
Neighbor list builds = 265956
Dangerous builds = 0

#clear
#
#next RN
#
#jump SELF
Total wall time: 3:40:59
