
units lj                  # Use reduced LJ style units
atom_style atomic         # Uncharged point particles
atom_modify map hash      # Needed for indexing of clusters etc
                          # Used to be able to find where atoms are in relation to each other.

lattice fcc 1.0 spacing 1 1 1
Lattice spacing in x,y,z = 1.5874011 1.5874011 1.5874011
region box block 0 10 0 10 0 10 units lattice
create_box 2 box
Created orthogonal box = (0.0000000 0.0000000 0.0000000) to (15.874011 15.874011 15.874011)
  3 by 4 by 4 MPI processor grid
create_atoms 1 box
Created 4000 atoms
  using lattice units in orthogonal box = (0.0000000 0.0000000 0.0000000) to (15.874011 15.874011 15.874011)
  create_atoms CPU = 0.027 seconds
set type 1 type/fraction 2 0.09 78393
Setting atom values ...
  390 settings made for type/fraction
mass 1 1.0
mass 2 1.0
pair_style lj/cut  3.5
pair_modify tail  yes
pair_coeff 1  1  1.0  1.0   # Intearaction between 1 and 1 set with epsilon = 1 and sigma = 1
pair_coeff 1  2  1.5  0.8
pair_coeff 2  2  0.5  0.88

write_data data.0
System init for write_data ...
Neighbor list info ...
  update every 1 steps, delay 10 steps, check yes
  max neighbors/atom: 2000, page size: 100000
  master list distance cutoff = 3.8
  ghost atom cutoff = 3.8
  binsize = 1.9, bins = 9 9 9
  1 neighbor lists, perpetual/occasional/extra = 1 0 0
  (1) pair lj/cut, perpetual
      attributes: half, newton on
      pair build: half/bin/atomonly/newton
      stencil: half/bin/3d
      bin: standard
WARNING: Not all mixed pair coeffs generated from mixing. Use write_data with 'pair ij' option to store all pair coeffs. (../write_data.cpp:312)


#############################
#   M E L T   S Y S T E M   #
#############################

velocity all create 2.4 8172548 mom yes dist gaussian # Assign velocities
                                                    # Temperature 2.4, random number seed, zero linear momentum
                                                                                # Gaussian distribution

timestep 0.002   # simulation timestep
thermo 1000       # output thermodynamic data every 1000 steps bf 100

# Define a fix  in this case with index 1 applied to all
# particles in the simulation. This fix is for simulations
# in the anisotropic NPT ensemble. Note that we use the MTK
# correction.
fix 1 all npt temp 2.4 2.4 0.1 iso 5.68 5.68 0.5 mtk yes tchain 5 pchain 5 # Use NPT ensemble
                                                                         # Set temperature and pressure and damping
                                                                         # Numbers of thermostats in chain and in barostat
run 10000          # run for 10000 steps
Per MPI rank memory allocation (min/avg/max) = 3.642 | 3.644 | 3.648 Mbytes
Step Temp E_pair E_mol TotEng Press Volume 
       0          2.4   -7.7460071            0   -4.1469071   -2.9736732         4000 
    1000    2.3952089   -4.6176422            0    -1.025727     5.618203    4854.5796 
    2000    2.4181349    -4.618704            0  -0.99240845    5.7901373     4837.834 
    3000    2.4149848   -4.5807938            0   -0.9592223    5.7882283    4864.8055 
    4000    2.4207191   -4.6124822            0   -0.9823114    5.7180249    4852.8773 
    5000    2.4117329   -4.5761135            0  -0.95941853     5.631417     4884.363 
    6000     2.464252   -4.6316845            0  -0.93623055    5.5731246    4862.7086 
    7000    2.3828663   -4.5514915            0  -0.97808558    5.9319412    4856.2342 
    8000    2.3329301   -4.5424413            0    -1.043921    5.7503642     4872.588 
    9000    2.3991921   -4.5763595            0  -0.97847108    5.8637976    4852.1051 
   10000    2.3781394   -4.6507304            0   -1.0844131    5.6697479    4831.7904 
Loop time of 2.20026 on 48 procs for 10000 steps with 4000 atoms

Performance: 785362.382 tau/day, 4544.921 timesteps/s
99.6% CPU use with 48 MPI tasks x no OpenMP threads

MPI task timing breakdown:
Section |  min time  |  avg time  |  max time  |%varavg| %total
---------------------------------------------------------------
Pair    | 0.91807    | 0.96703    | 1.0189     |   2.6 | 43.95
Neigh   | 0.19274    | 0.19915    | 0.20914    |   0.7 |  9.05
Comm    | 0.7123     | 0.76734    | 0.84715    |   3.3 | 34.88
Output  | 0.00024455 | 0.00025202 | 0.00031493 |   0.0 |  0.01
Modify  | 0.22488    | 0.25193    | 0.2774     |   2.9 | 11.45
Other   |            | 0.01456    |            |       |  0.66

Nlocal:        83.3333 ave          97 max          77 min
Histogram: 1 8 13 14 4 5 2 0 0 1
Nghost:        1451.25 ave        1464 max        1427 min
Histogram: 2 2 0 0 5 9 4 14 4 8
Neighs:        7886.04 ave        9537 max        7195 min
Histogram: 5 10 15 8 4 3 1 1 0 1

Total # of neighbors = 378530
Ave neighs/atom = 94.632500
Neighbor list builds = 905
Dangerous builds = 203

# Equilibrate just above the melting temperature to avoid step fn in T

fix 1 all npt temp 1.25 1.25 0.1 iso 5.68 5.68 0.5 mtk yes tchain 5 pchain 5
run 2000
Per MPI rank memory allocation (min/avg/max) = 3.642 | 3.644 | 3.648 Mbytes
Step Temp E_pair E_mol TotEng Press Volume 
   10000    2.3781394   -4.6507304            0   -1.0844131    5.6697479    4831.7904 
   11000    1.2300126   -6.1876191            0   -4.3430615    5.6826039    4006.5749 
   12000    1.2396722     -6.19516            0   -4.3361165     5.690281    4001.4641 
Loop time of 0.479957 on 48 procs for 2000 steps with 4000 atoms

Performance: 720064.496 tau/day, 4167.040 timesteps/s
99.6% CPU use with 48 MPI tasks x no OpenMP threads

MPI task timing breakdown:
Section |  min time  |  avg time  |  max time  |%varavg| %total
---------------------------------------------------------------
Pair    | 0.20889    | 0.22796    | 0.24946    |   1.7 | 47.50
Neigh   | 0.031596   | 0.033589   | 0.036656   |   0.5 |  7.00
Comm    | 0.14414    | 0.1641     | 0.18573    |   2.2 | 34.19
Output  | 5.2372e-05 | 5.3849e-05 | 6.8097e-05 |   0.0 |  0.01
Modify  | 0.045341   | 0.049703   | 0.057894   |   1.3 | 10.36
Other   |            | 0.004549   |            |       |  0.95

Nlocal:        83.3333 ave          89 max          75 min
Histogram: 1 0 5 3 6 7 8 10 2 6
Nghost:        1642.92 ave        1665 max        1620 min
Histogram: 2 5 5 4 7 6 5 6 7 1
Neighs:        9561.69 ave       10453 max        8737 min
Histogram: 2 6 5 4 9 6 5 5 5 1

Total # of neighbors = 458961
Ave neighs/atom = 114.74025
Neighbor list builds = 142
Dangerous builds = 6

#############################
# L I N E A R  Q U E N C H  #
#############################

# Define solid atoms. This closely follows ten Wolde  Ruiz-Montero and Frenkel  Faraday Discuss  1996  104  93-110
# Compute components of the per-atom q6 vector
compute q6 all orientorder/atom degrees 1 6 components 6 nnn NULL cutoff 1.3 # compute the Q6 parameter.
                                                                             # Use all neighbours within 1.3 unit cell.

# get number of connections
compute coord_number all coord/atom orientorder q6 0.5

# An atom is solid if it has 8 or more connections (of a possible 14)
variable is_solid atom c_coord_number>=8
group solid dynamic all var is_solid    # Must be dynamic to update
dynamic group solid defined

# do clustering
compute cluster solid cluster/atom 1.3 # Create a cluster where all atoms within are solid and max 1.3 units from another member

# define chunks one chunk per cluster
compute clus_chunks solid chunk/atom c_cluster nchunk every compress yes  # Says which atoms are in which chunk

# count the size of each chunk
compute size_chunks solid property/chunk clus_chunks count


# Find the maximum entry in the vector of chunk sizes
variable max_n equal max(c_size_chunks)


# Thermo style which includes this variable
# thermo_style custom step temp pe vol v_max_n

thermo ${N}  # Print the thermo information every 100 steps
thermo 1000  

# Reset the npt fix at a lower temperature (below freezing)
fix 1  all npt temp  ${temp} ${temp}  0.1  iso  5.68  5.68  0.5  mtk yes tchain  5  pchain  5
fix 1  all npt temp  0.45 ${temp}  0.1  iso  5.68  5.68  0.5  mtk yes tchain  5  pchain  5
fix 1  all npt temp  0.45 0.45  0.1  iso  5.68  5.68  0.5  mtk yes tchain  5  pchain  5

dump dmp2 all dcd ${N} traj.dcd
dump dmp2 all dcd 1000 traj.dcd


compute msd all msd com yes
variable twopoint equal c_msd[4]/6/(step*dt+1.0e-6)
fix 9 all vector 10 c_msd[4]
variable fit equal slope(f_9)/6/(10*dt)
thermo_style custom step temp pe c_msd[4] v_twopoint v_fit v_max_n

fix 1 all npt temp 1.25 ${temp} 0.1 iso 5.68 5.68 0.5 mtk yes tchain 5 pchain 5
fix 1 all npt temp 1.25 0.45 0.1 iso 5.68 5.68 0.5 mtk yes tchain 5 pchain 5
run 500000 # 5000000  # Run for this many steps
Neighbor list info ...
  update every 1 steps, delay 10 steps, check yes
  max neighbors/atom: 2000, page size: 100000
  master list distance cutoff = 3.8
  ghost atom cutoff = 3.8
  binsize = 1.9, bins = 9 9 9
  4 neighbor lists, perpetual/occasional/extra = 1 3 0
  (1) pair lj/cut, perpetual
      attributes: half, newton on
      pair build: half/bin/atomonly/newton
      stencil: half/bin/3d
      bin: standard
  (2) compute orientorder/atom, occasional
      attributes: full, newton on
      pair build: full/bin/atomonly
      stencil: full/bin/3d
      bin: standard
  (3) compute coord/atom, occasional
      attributes: full, newton on
      pair build: full/bin/atomonly
      stencil: full/bin/3d
      bin: standard
  (4) compute cluster/atom, occasional
      attributes: full, newton on
      pair build: full/bin/atomonly
      stencil: full/bin/3d
      bin: standard
Per MPI rank memory allocation (min/avg/max) = 9.748 | 9.754 | 9.759 Mbytes
Step Temp PotEng c_msd[4] v_twopoint v_fit v_max_n 
   12000    1.2396722     -6.19516 4.6598014e-30 3.235973e-32 8.3333333e+20            3 
   13000    1.2415684   -6.1802246   0.55513698 0.0035585702  0.044954527            2 
   14000    1.2548978   -6.1935276    1.1021818 0.0065606058  0.046010385            2 
   15000    1.2412032   -6.2272931    1.6756186 0.0093089917  0.046597591            2 
   16000    1.2565098   -6.1863864    2.2399084  0.011666189  0.046425091            3 
   17000    1.2289654   -6.1637999    2.7908263  0.013680521  0.046625891            3 
   18000    1.2248314   -6.1957611    3.3165439   0.01535437  0.046461861            2 
   19000    1.2287688   -6.2066302    3.8070182  0.016697448  0.045878277            3 
   20000    1.2383142   -6.1978488    4.3348371  0.018061821  0.045261112            3 
   21000    1.2192396   -6.2123279    4.8997668  0.019443519  0.045117776            3 
   22000    1.2318423   -6.2177353     5.515573  0.020892321  0.045339802            2 
   23000    1.2311527   -6.2140772    6.0735346   0.02200556  0.045538783            4 
   24000    1.2599993   -6.1915429    6.5913152  0.022886511  0.045616123            3 
   25000    1.1845221   -6.2403385    7.2242672   0.02408089  0.045731267            1 
   26000    1.2198918    -6.206033    7.6930874  0.024657331  0.045792053            5 
   27000    1.2143777    -6.193261    8.2113911  0.025343799  0.045723415            2 
   28000    1.2141352   -6.1724633    8.7031841  0.025902333  0.045565929            4 
   29000    1.2084523    -6.254802    9.2350586  0.026537524  0.045451234            4 
   30000    1.2074089   -6.2165253    9.6925822  0.026923839  0.045234755            3 
   31000    1.2115672   -6.2052346    10.154223  0.027296299  0.044997656            2 
   32000    1.2253744   -6.2257024    10.716075  0.027906444  0.044810552            7 
   33000    1.2085999   -6.2682772    11.201737  0.028287213  0.044648174            2 
   34000     1.209469   -6.2686796    11.675205  0.028615697  0.044468797            6 
   35000    1.2291457   -6.2208115    12.184387  0.029010445  0.044308266            2 
   36000    1.1987849   -6.2658228    12.615963  0.029203617  0.044130508            2 
   37000    1.1967221   -6.2477577    12.987548  0.029251233  0.043908438            3 
   38000    1.1880658   -6.2156832    13.523305  0.029656369    0.0436633            3 
   39000    1.2133702   -6.2309953    14.146659  0.030227903  0.043533016            2 
   40000    1.2060093   -6.2926173    14.606221  0.030429627  0.043429799            3 
   41000    1.2183595   -6.2558043    15.018493  0.030525392  0.043306587            2 
   42000    1.1891677   -6.2803021     15.49728  0.030748572  0.043136878            3 
   43000    1.2125348   -6.2927273    16.033483  0.031072641  0.043024348            6 
   44000    1.1836808     -6.25343    16.667363  0.031566974  0.042956209            5 
   45000     1.177118   -6.2632795    16.968937  0.031423956  0.042866596            2 
   46000    1.1875286   -6.2419409    17.496653  0.031696835  0.042754786            4 
   47000    1.1829347    -6.273813    18.155768  0.032191077  0.042682048            3 
   48000    1.1592674   -6.2899443    18.675543  0.032422817  0.042661224            7 
   49000    1.1868214    -6.276873    19.322939  0.032862141  0.042668198            3 
   50000    1.1917443   -6.2365224    19.748863  0.032914772  0.042694847            1 
   51000    1.1855863   -6.3156479    20.200238  0.033006924  0.042683366            3 
   52000    1.1866817   -6.2782778    20.781052  0.033302968  0.042667005            6 
   53000     1.180111   -6.2654579    21.405998  0.033657229  0.042684558            2 
   54000    1.1865956     -6.24001    21.888312  0.033778259  0.042717213            1 
   55000    1.1865778   -6.2966375    22.425178  0.033977542  0.042738869            2 
   56000    1.1740935   -6.2689515     22.79184  0.033916428  0.042733469            3 
   57000    1.1625568   -6.3551162    23.277095  0.034030841  0.042724621            2 
   58000    1.2044956   -6.3206999    23.775354  0.034159992  0.042710675            2 
   59000    1.1786502    -6.282852     24.31589  0.034344476  0.042690495            3 
   60000    1.1913452   -6.3403642    24.858937  0.034526302  0.042682807            2 
   61000    1.1753265   -6.3306937    25.228379  0.034464998   0.04267907            5 
   62000    1.1734912   -6.2953128    25.739709  0.034596383   0.04265143            4 
   63000    1.1572645   -6.3387776    26.143409  0.034581229  0.042609009            6 
   64000    1.1797829   -6.3136069     26.55775  0.034580404  0.042550133            4 
   65000    1.1670941   -6.3294573    26.985835  0.034597224    0.0424839            3 
   66000    1.1796934   -6.3504417    27.399701  0.034595582   0.04241526            4 
   67000    1.1568016   -6.3457081     27.81696  0.034598208  0.042338752            2 
   68000    1.1603616   -6.3348417    28.252683  0.034623386  0.042253035            2 
   69000    1.1540169   -6.3678858    28.526616  0.034452435  0.042154144            2 
   70000    1.1311327   -6.3207408    29.084174  0.034624016   0.04205926            2 
   71000    1.1727799   -6.3371068    29.549257  0.034682226  0.041968184            3 
   72000    1.1600299   -6.3550036     29.93931  0.034651978   0.04187606            3 
   73000    1.1506982   -6.3167277    30.428905  0.034736193  0.041790061            3 
   74000    1.1342601   -6.3667511    30.915189  0.034814402  0.041697486            3 
   75000    1.1602641   -6.3697047    31.189504  0.034655004   0.04160888            4 
   76000    1.1552168   -6.3399465    31.493614  0.034532471  0.041504176            5 
   77000    1.1538152   -6.3447766    31.927429  0.034553494  0.041389777            4 
   78000    1.1482424   -6.3629777    32.158608  0.034357487  0.041257764            2 
   79000    1.1309456   -6.3759476    32.566286  0.034352622  0.041124507            3 
   80000    1.1367746   -6.3522091    32.994247  0.034369007  0.040992817            2 
   81000    1.1642083   -6.3469266     33.39939  0.034361512  0.040863712            5 
   82000    1.1254578   -6.3656709    33.942179  0.034494084  0.040744308            2 
   83000    1.1305748   -6.3665867    34.265648  0.034403261  0.040624151            2 
   84000    1.1069603     -6.36879     34.74348  0.034467738  0.040503997            2 
   85000    1.1542637   -6.3597408    35.022446  0.034335731  0.040396306            4 
   86000     1.114786    -6.423795    35.508698  0.034407653  0.040281574            2 
   87000    1.1262566   -6.3746516    35.871815  0.034359976  0.040175148            5 
   88000    1.1208164   -6.4193162    36.524115  0.034587229  0.040076036            2 
   89000    1.1492525   -6.4019584    36.606628  0.034275869  0.039974934            1 
   90000    1.1416619   -6.3633628    37.231569  0.034473675  0.039869394            2 
   91000     1.129263   -6.4077438    37.439747  0.034285482  0.039762688            5 
   92000    1.1299768   -6.4273469    37.725841  0.034171957  0.039647711            1 
   93000    1.1320027   -6.4017754    38.185083  0.034216024   0.03953745            3 
   94000    1.1349352   -6.3944071    38.329406   0.03397997  0.039422179            6 
   95000    1.1197382   -6.4233136    38.603061  0.033862334  0.039300187            5 
   96000    1.1242611   -6.3818419    38.969577  0.033827758  0.039178131            2 
   97000    1.1176104    -6.420412    39.308518  0.033770205  0.039055117            3 
   98000    1.0987871   -6.4002704    39.796685  0.033840718   0.03893341            3 
   99000    1.1143684   -6.4151817    39.989679  0.033661346  0.038804889            3 
  100000    1.0791263   -6.4252825    40.192901  0.033494084  0.038677452            4 
  101000    1.1122334     -6.41098    40.672759  0.033558382  0.038547155            4 
  102000    1.1086609   -6.4154857    40.830651  0.033358375  0.038412839            2 
  103000    1.1168874   -6.4177016    41.255186  0.033377982   0.03827602            2 
  104000    1.0956082   -6.4501738     41.63635   0.03336246  0.038147837            4 
  105000    1.0875971    -6.422659    42.036859  0.033362586   0.03802218            2 
  106000    1.1033327   -6.4668271    42.311216  0.033263534  0.037895906            1 
  107000    1.1041722   -6.4634127    42.615034  0.033189278  0.037769077            3 
  108000    1.0699212   -6.4402458    42.892363  0.033095959  0.037647119            3 
  109000    1.1125323    -6.450931    43.228783  0.033049528  0.037529028            2 
  110000    1.0998796   -6.4578101    43.635362  0.033057092  0.037410322            3 
  111000    1.0963011   -6.4512176    44.177958  0.033166635  0.037296789            5 
  112000    1.0891426   -6.4885287    44.392611  0.033030216  0.037186703            3 
  113000    1.0942387   -6.5021839    44.739898  0.032994025  0.037078507            2 
  114000    1.0815428    -6.432558    45.422039  0.033203245  0.036981374            2 
  115000    1.0861003   -6.4885774    45.766362   0.03316403  0.036886358           11 
  116000    1.0917314   -6.4787749    46.093429  0.033113096  0.036796053            6 
  117000    1.0691575    -6.451172    46.617731  0.033203512  0.036710692            4 
  118000    1.0762671   -6.4868705    46.713641   0.03298986   0.03662325            2 
  119000    1.1053977   -6.4840353    47.268036  0.033100865  0.036534768            4 
  120000    1.0798597   -6.5402569     47.36551  0.032892715  0.036449318            3 
  121000    1.0893014   -6.5266733    47.802585   0.03292189  0.036362664            6 
  122000     1.061945   -6.4864192    48.183491  0.032912221  0.036275619            4 
  123000    1.0947544   -6.5345023    48.601946  0.032928148  0.036192091            3 
  124000    1.0694805   -6.5239981    48.755856  0.032766032  0.036106286            5 
  125000    1.0741443   -6.4715448    49.394923  0.032929949  0.036024248            2 
  126000    1.0787564   -6.4992243    49.541645  0.032765638  0.035940346            2 
  127000      1.05459   -6.5019108    49.916077  0.032753331  0.035859697            7 
  128000    1.0497588   -6.5358781    50.161403  0.032657163  0.035776147            5 
  129000     1.060158   -6.5311384    50.427419  0.032575852  0.035692752            3 
  130000    1.0520701   -6.5016432    50.812975  0.032572419  0.035612282            3 
  131000    1.0677419   -6.5228632    51.197229  0.032568212  0.035529099            3 
  132000    1.0788412   -6.5297624    51.040102  0.032222286  0.035442913            4 
  133000    1.0698596   -6.5221338    51.577684  0.032316844  0.035355342            4 
  134000    1.0364195   -6.5319719    51.760243  0.032189205  0.035265199            4 
  135000    1.0595898    -6.507085    51.995861  0.032096211  0.035173008            3 
  136000    1.0691888   -6.5580935    52.350042  0.032077232  0.035084277            4 
  137000    1.0378269    -6.559834    52.688551  0.032048997  0.034991036            4 
  138000    1.0566181   -6.5499448    52.890016  0.031938415  0.034897839            2 
  139000      1.04747   -6.5398699    53.198635  0.031893666  0.034802148            6 
  140000    1.0316688   -6.5199624    53.566937  0.031885081  0.034712137            7 
  141000    1.0228145   -6.5441208    53.880767  0.031844425  0.034621661            2 
  142000    1.0692653   -6.5594595    54.026904  0.031705929  0.034530813            3 
  143000     1.031062   -6.5307468    54.476435  0.031746174  0.034442573           10 
  144000    1.0338947    -6.575274    54.437751  0.031503328  0.034353674            5 
  145000    1.0192916   -6.6293543    54.907029  0.031555764  0.034264618            3 
  146000    1.0189528   -6.5516752    55.346507  0.031590472  0.034178117            5 
  147000    1.0347596   -6.5364025    55.626537  0.031534318  0.034093183            4 
  148000    1.0157166   -6.5607235    55.813094  0.031426292  0.034007604            3 
  149000    1.0140543   -6.5313992    56.252961  0.031461387  0.033920789            3 
  150000    1.0360242   -6.5609878    56.568204   0.03142678  0.033838628            4 
  151000    1.0323639    -6.558099    56.572938  0.031221268  0.033754794            3 
  152000    1.0366328   -6.5929052    56.880818  0.031184659  0.033667928            8 
  153000    1.0387507   -6.5768834    57.510955  0.031324049  0.033583932            3 
  154000    1.0323755    -6.575432    57.694624  0.031220035  0.033501752            2 
  155000    1.0261614   -6.6039113    57.910079  0.031134451  0.033419641            2 
  156000    1.0205782   -6.5670521    58.286204  0.031135793  0.033340256            3 
  157000    1.0166787   -6.5949534    58.358758  0.030975986  0.033260843            4 
  158000    1.0107378   -6.6221917     58.96193  0.031098064   0.03318421            3 
  159000    1.0268305   -6.5934441     59.04674  0.030946929  0.033108621            3 
  160000    1.0223737    -6.621264    59.388125  0.030931315  0.033031489            3 
  161000     1.030137   -6.5957891    59.418734  0.030755038  0.032950689            6 
  162000    1.0014393   -6.6089536    59.604906   0.03066096  0.032867354            4 
  163000    1.0206153    -6.590581    59.681989  0.030512264  0.032783513            4 
  164000    1.0151996   -6.6400925    60.021378  0.030498667  0.032697549            4 
  165000    1.0071261   -6.6289857    60.266437  0.030437594  0.032612398            6 
  166000    1.0010946   -6.6227435    60.539034  0.030391081  0.032528548            2 
  167000    1.0181317   -6.6566679    60.626931   0.03025296  0.032443602            7 
  168000   0.97676076   -6.6187013    60.929217  0.030222826  0.032357694            2 
  169000    1.0277107   -6.6402867    61.123387  0.030139737  0.032273806            2 
  170000    1.0066212   -6.6726263    61.372668  0.030084641  0.032188812            4 
  171000    1.0072654   -6.6497972     61.68117   0.03005905   0.03210508            6 
  172000   0.99825837   -6.6811364    61.674612   0.02988111  0.032021304            9 
  173000   0.97764204   -6.6453803    61.974019   0.02985261   0.03193473            3 
  174000   0.98747652   -6.6338901    62.251462  0.029813918  0.031848478            2 
  175000   0.99203033   -6.6557688    62.581796  0.029800855  0.031764128            7 
  176000   0.98641135   -6.6546878    62.527085  0.029605627  0.031679265            3 
  177000   0.97427091   -6.6666822    62.865467  0.029597678   0.03159207           17 
  178000   0.97756767   -6.6334438    62.991136  0.029490232  0.031506748            4 
  179000   0.98230375   -6.6648249    63.205837  0.029425436  0.031420437            6 
  180000   0.97602007   -6.6595025    63.404171  0.029353783  0.031334145            5 
  181000   0.98296517   -6.7384613    63.556847    0.0292619   0.03124772            6 
  182000   0.96988626   -6.7155183    64.032839  0.029319065  0.031162153            4 
  183000    0.9651063   -6.6836569    64.003389  0.029145441  0.031075453            4 
  184000   0.95862915    -6.715602    64.170092  0.029062542  0.030988028            3 
  185000   0.97841829   -6.6869707    64.290481  0.028959676  0.030899876            4 
  186000   0.98889003   -6.6826954    64.313973  0.028814504  0.030809861            3 
  187000   0.96473721   -6.6989066    64.649228  0.028809816  0.030720791            5 
  188000   0.94855069   -6.6697079    64.795373  0.028721353  0.030632437            5 
  189000   0.96561458    -6.678094    65.065385  0.028688441  0.030547182            4 
  190000   0.96265733   -6.7024166    65.213291   0.02860232  0.030460555            4 
  191000   0.96732994   -6.6972509    65.439119  0.028551099  0.030374576            5 
  192000   0.97066283   -6.7362668    65.677063   0.02850567  0.030290838            5 
  193000   0.95906838   -6.7166752     66.18813   0.02857864   0.03020803            4 
  194000   0.95064482   -6.7159587    66.141124  0.028411136  0.030125441            6 
  195000   0.94737842   -6.7402433    66.505439  0.028421128  0.030042331            4 
  196000   0.94180756   -6.7250387    66.346487   0.02820854  0.029957846            3 
  197000   0.93830608   -6.7552774    66.646364  0.028192201   0.02987332            9 
  198000   0.94601837   -6.7271673    66.973923  0.028187678  0.029790012            6 
  199000   0.96261447   -6.7363861     67.25539  0.028163898  0.029708615            5 
  200000   0.95268811   -6.7317546    67.395265   0.02808136  0.029626799            4 
  201000    0.9399335   -6.7403852    67.688458  0.028063208  0.029545596            9 
  202000   0.93974451    -6.737707    67.664516  0.027914404   0.02946378            6 
  203000   0.93213671   -6.7425618    67.988166  0.027909756  0.029381382            7 
  204000   0.93647799   -6.7311336    68.096499  0.027817197  0.029299357            8 
  205000   0.95235525   -6.7877087    68.213218   0.02772895   0.02921784            2 
  206000   0.93779245   -6.7583865    68.365956  0.027656131   0.02913686            3 
  207000   0.94012106   -6.7323268    68.793325  0.027694575  0.029057135            7 
  208000   0.94432221   -6.7709817    69.365217  0.027790551   0.02898018            5 
  209000   0.94356525   -6.7624599    69.317018  0.027638364  0.028903791            3 
  210000   0.93561055   -6.7823427    69.460191  0.027563568  0.028827189            6 
  211000   0.92383007     -6.76717    69.595443  0.027486352  0.028749827            8 
  212000   0.93641665   -6.7747676    69.772057  0.027426123  0.028672307            6 
  213000   0.93400278   -6.7852145    69.684194  0.027262987  0.028595784            5 
  214000   0.94651196   -6.7510735     70.08981   0.02729354    0.0285193            8 
  215000   0.92928541   -6.7869338    70.223116  0.027218262   0.02844466            5 
  216000   0.91635251   -6.7631967    70.272731  0.027111393  0.028368777           15 
  217000   0.90325986   -6.7847531    70.742656  0.027166919  0.028292651            6 
  218000   0.91577288     -6.78653    70.852065  0.027084122  0.028216991            6 
  219000    0.9266509   -6.7772349    71.154063  0.027075367  0.028143225           19 
  220000   0.90213759    -6.767207    71.185491  0.026964201  0.028069103            6 
  221000   0.92917704   -6.8076388    71.445446  0.026940213  0.027995964            5 
  222000   0.92260362   -6.7923136    71.665119  0.026901321  0.027923568            5 
  223000   0.91066325   -6.8392816    71.888947   0.02686433  0.027851605            7 
  224000   0.92032723   -6.8017914    72.088307  0.026818567  0.027780183           10 
  225000   0.90946012   -6.8376535     72.10486  0.026705503  0.027709462            4 
  226000   0.88533102   -6.7897725    72.212475  0.026627019  0.027636947           11 
  227000   0.88777019   -6.8098136    72.323522  0.026550485  0.027564567            9 
  228000   0.90180654   -6.8462892     72.27575  0.026416575    0.0274909            6 
  229000   0.91261673   -6.8229216    72.544717  0.026399096  0.027417251            7 
  230000   0.88087951   -6.8459741    72.782494  0.026370469  0.027344253            7 
  231000   0.89079417   -6.8456156    72.803127  0.026263754   0.02727191            6 
  232000   0.88929863   -6.8275455    73.058678  0.026242341  0.027199125           12 
  233000   0.91440933    -6.820116    73.521673  0.026295305  0.027126487            2 
  234000   0.90229438   -6.8438181    73.432899  0.026151317  0.027053728            4 
  235000   0.89123455   -6.8332214    73.475083  0.026054994  0.026980557            5 
  236000   0.89212097   -6.8381104    73.704549  0.026025617  0.026909191            6 
  237000   0.88757452   -6.8550248    73.860264  0.025970557  0.026837753            3 
  238000   0.89868248   -6.8407287    74.103906  0.025946746  0.026767119            2 
  239000   0.89123946   -6.8634334    74.163262  0.025858878  0.026696163            6 
  240000    0.8993283   -6.8720505    74.034104  0.025706286  0.026624284            5 
  241000   0.88661223   -6.8740056    74.293508  0.025689318  0.026551501            5 
  242000   0.86792867    -6.863003    74.198068  0.025550299  0.026478812            6 
  243000   0.88005161   -6.9099766    74.323794   0.02548827  0.026405825            4 
  244000   0.88010185   -6.8532125    74.744168   0.02552738  0.026333224            8 
  245000   0.86957658   -6.8574372    74.371718  0.025296503  0.026259314            7 
  246000   0.88102877   -6.8609738    74.712595  0.025309145  0.026185705            4 
  247000   0.87574386   -6.8297989    74.862039  0.025257098  0.026112688            3 
  248000   0.88688187   -6.9026188    74.772267   0.02512509  0.026039253            4 
  249000   0.86827566   -6.8780881    74.853741  0.025051453   0.02596532            6 
  250000   0.87415604   -6.9240308     75.14049   0.02504683  0.025892229           12 
  251000   0.88735673   -6.9205353    75.311582  0.025003845  0.025819066           10 
  252000   0.88056425   -6.9097048    75.199835   0.02486767  0.025745165           21 
  253000   0.85592922   -6.8977975    75.471766  0.024858948   0.02567086           29 
  254000    0.8676189   -6.9150097    75.460192  0.024757281  0.025597428            5 
  255000   0.86328559   -6.9033234    75.405528  0.024642329   0.02552311            5 
  256000   0.85262694   -6.9147967    75.709123  0.024644897  0.025449261            9 
  257000   0.85544795   -6.9239566    76.027643  0.024652284  0.025376427           10 
  258000   0.85966246   -6.9167691    75.926711  0.024524131  0.025304357            8 
  259000   0.85521852   -6.9097154    76.038172  0.024465306    0.0252323           18 
  260000   0.85023977   -6.9522775    76.190549  0.024420048  0.025159714            7 
  261000   0.85709663   -6.9603679    76.282382  0.024355805  0.025088008           10 
  262000   0.85837435   -6.9691616    76.377584  0.024293125  0.025015679           11 
  263000   0.85593134   -6.9437528    76.648731   0.02428667  0.024943788            6 
  264000    0.8482256   -6.9375288    76.459575  0.024134967  0.024872522            5 
  265000   0.84188943   -6.9294688     76.77324  0.024142528  0.024801495           10 
  266000   0.81369823   -6.9505302    76.767365  0.024049926  0.024730339            6 
  267000   0.86150026   -6.9491684    76.991484  0.024029801  0.024659331            4 
  268000   0.85551249   -6.9679196    77.032272  0.023952821  0.024588896            5 
  269000   0.84276078   -6.9410011    77.575526  0.024032071  0.024519605            4 
  270000   0.83699247   -6.9632172    77.371028  0.023879947  0.024451349            6 
  271000   0.83522424   -6.9581726    77.903153  0.023955459  0.024384193            7 
  272000   0.83130836   -6.9815821    77.750668   0.02382067  0.024317005            5 
  273000   0.83386883   -6.9534069    77.897249  0.023778159  0.024249454           20 
  274000    0.8194403   -6.9557819    78.144863  0.023766686  0.024182446           11 
  275000   0.82733428   -6.9891659    78.229533  0.023705919  0.024116627           16 
  276000   0.81970868    -7.009735    78.432985  0.023681457  0.024050481            8 
  277000   0.82565974   -6.9898777    78.259603  0.023543804  0.023984624           10 
  278000   0.83457978   -7.0127363    78.633827  0.023571291  0.023919201            8 
  279000   0.82029751   -6.9765407    78.916261  0.023571165  0.023854798            4 
  280000   0.82287383    -6.975465    78.950222   0.02349709  0.023790637            8 
  281000   0.84515343   -7.0030537     78.77355  0.023361076  0.023725755           15 
  282000   0.83035938   -7.0083647    78.862422  0.023304498  0.023660465            8 
  283000   0.80453115   -6.9957385    79.103587  0.023293164   0.02359559            7 
  284000   0.81338693    -7.012319    79.135389  0.023220478   0.02353134            5 
  285000   0.79623078   -7.0347787    79.250464   0.02317265  0.023466402            7 
  286000   0.81291431   -7.0377126    79.480813  0.023158745   0.02340224            8 
  287000   0.82283002   -7.0047254    79.340492  0.023037309  0.023338501            8 
  288000   0.78798316   -7.0184818    79.670598  0.023052835   0.02327484            9 
  289000   0.81039359   -7.0089996    79.647717   0.02296647  0.023211393            6 
  290000    0.8279157   -7.0515122    79.533907  0.022854571  0.023147848            5 
  291000   0.80648204   -7.0202353    80.061273  0.022927054  0.023084749           17 
  292000   0.80917392   -7.0405337    80.050676  0.022845513  0.023022113            9 
  293000   0.81474396   -6.9929013     80.04405  0.022765657  0.022959357           29 
  294000   0.80237807   -7.0369839    80.116089  0.022708642  0.022896349           10 
  295000   0.81589048   -7.0447347    79.976026  0.022592098  0.022833339            5 
  296000    0.7965898   -7.0570161    80.276868   0.02260047   0.02276962            9 
  297000   0.79717484   -7.0774842    80.140111  0.022486002  0.022705343            8 
  298000   0.80192955   -7.0451597    80.086781  0.022395632  0.022641489            8 
  299000    0.8046835   -7.0541327    80.139712  0.022335483  0.022577191            9 
  300000   0.80371683   -7.0523235    80.114708  0.022254085  0.022512889            9 
  301000   0.79814048     -7.07823    80.259974  0.022220369  0.022448473            9 
  302000    0.7822723   -7.0717966    80.225545  0.022137292  0.022384304            8 
  303000     0.775476   -7.0961961    80.379907  0.022106685  0.022320456            4 
  304000   0.78299672   -7.0473367    80.789348  0.022146203  0.022257015            3 
  305000    0.7883367   -7.0971601    80.489279  0.021991606  0.022193662            9 
  306000   0.78201574   -7.0841276    80.795483  0.022003127  0.022130676            7 
  307000   0.78464417   -7.0967274    80.825944  0.021939724  0.022067532            7 
  308000   0.76721229   -7.0912035    80.735376  0.021843987  0.022004199           14 
  309000   0.78164803   -7.0941542    80.972268  0.021837181  0.021940942            7 
  310000   0.75873604   -7.0905947    80.853391  0.021734782  0.021877663           15 
  311000    0.7662925   -7.1034491    81.000077  0.021704201  0.021814667            7 
  312000   0.77278594   -7.1088321    81.176217  0.021681682  0.021752395            4 
  313000   0.77860262   -7.0958731     81.04622  0.021577801  0.021690693            6 
  314000   0.75715819   -7.1183731    81.169553  0.021541813  0.021629042           13 
  315000   0.76337215   -7.1127067     81.41228   0.02153764  0.021567739           17 
  316000   0.77071929   -7.1252811    81.450101  0.021479457  0.021506792            9 
  317000    0.7417986   -7.1086401    81.588271  0.021448021  0.021446054            7 
  318000   0.75325893   -7.1390197    81.779392  0.021430658  0.021385381            9 
  319000   0.75311249    -7.106535    81.695932  0.021341675  0.021325118           20 
  320000   0.76003606   -7.1168276    81.929209  0.021335732  0.021265504           14 
  321000   0.74988047   -7.1418798    82.071786  0.021306279  0.021206357           12 
  322000   0.74605663   -7.1473442    82.131447   0.02125555  0.021147586           11 
  323000   0.74790206   -7.1331171    82.053536  0.021169643  0.021089002            8 
  324000   0.74721823   -7.1704718    81.998655  0.021090189  0.021030378            8 
  325000   0.74008747   -7.1319149    82.263019  0.021093082  0.020971701           13 
  326000   0.74214625    -7.158385    82.240204  0.021022547  0.020912919           34 
  327000   0.75454534   -7.1509441    82.310222  0.020976101  0.020854464            9 
  328000   0.74522969   -7.1591093    82.331369  0.020917523  0.020795773           30 
  329000   0.75393497   -7.1351641    82.222623  0.020826399  0.020736922           13 
  330000   0.74222983   -7.1468353    82.543953  0.020844433  0.020678973           11 
  331000     0.743174    -7.163198    82.714415  0.020824374  0.020621484           12 
  332000   0.74691996   -7.1540679    82.718794  0.020762749  0.020564106           32 
  333000   0.74943365   -7.1704204    82.661204  0.020685987  0.020506347           20 
  334000    0.7148006   -7.1727229     82.80475  0.020659868  0.020449299            8 
  335000    0.7449708   -7.1857069    82.702687  0.020572808  0.020391977           20 
  336000   0.73344146   -7.2102346    82.742543  0.020521464  0.020334792           31 
  337000   0.72869522   -7.1857799    82.882693  0.020495226  0.020277689           12 
  338000   0.73887948   -7.1661895    82.656956  0.020378934  0.020220577           15 
  339000   0.73146384   -7.1815752    83.097929  0.020427219   0.02016352           12 
  340000   0.72658747   -7.1961629    82.973562  0.020336657  0.020106957            5 
  341000   0.73503662   -7.1819798    82.858849  0.020248986  0.020050444           14 
  342000    0.7272775   -7.2028073    83.017299  0.020228387  0.019993504            9 
  343000   0.73865734    -7.185023    83.232982  0.020221813  0.019937348           18 
  344000   0.71129782   -7.1895592    83.332048  0.020187027  0.019881381           11 
  345000   0.70150303   -7.1760067    83.074627  0.020066335  0.019825688           19 
  346000   0.70689632   -7.2245993    83.232161  0.020046281  0.019769786           10 
  347000    0.7047205   -7.1918371    83.127658  0.019963414   0.01971387           12 
  348000   0.71600144   -7.1879423    83.400656  0.019971421  0.019658162           37 
  349000   0.71644561   -7.1993908    83.229484  0.019873325  0.019602669           12 
  350000   0.70316972   -7.2249958    83.489779  0.019878519  0.019547312           33 
  351000   0.70825717   -7.2051393    83.446681  0.019811653   0.01949178           10 
  352000   0.71899862   -7.2326899    83.290056   0.01971829  0.019436258           10 
  353000   0.71861829   -7.2079127    83.394701  0.019687134   0.01938064           18 
  354000   0.71197551   -7.2346569    83.478696  0.019651294   0.01932559           23 
  355000   0.70521647   -7.2332308    83.592388  0.019622626  0.019270579           25 
  356000   0.70730524   -7.2295944    83.714696  0.019596137  0.019215971           28 
  357000   0.71418726   -7.2516439    83.512682   0.01949409  0.019161278           18 
  358000   0.69097447   -7.2656799    83.457719  0.019426843  0.019106454           33 
  359000   0.69289011   -7.2548005    83.548342  0.019393766  0.019051787           20 
  360000    0.6919624    -7.244865    83.559131  0.019342391  0.018997118           12 
  361000    0.6862517   -7.2637038    83.567666  0.019290782  0.018942198           14 
  362000   0.69856245    -7.274418    83.546042  0.019232514  0.018887811           12 
  363000   0.68111361    -7.241329    83.530144  0.019175883  0.018833493           10 
  364000   0.70286798   -7.2588262    83.744164  0.019172199  0.018779442            8 
  365000   0.68638459   -7.2867731    83.894082    0.0191539  0.018725879            9 
  366000   0.68448454   -7.2891754    83.929504  0.019109632  0.018672505            9 
  367000   0.66827172   -7.2865233    83.899212  0.019050684  0.018619114            6 
  368000   0.67042412   -7.2666441    84.107182   0.01904601  0.018566233           11 
  369000   0.67669155   -7.2910911    84.085441  0.018989485   0.01851348           24 
  370000   0.67623136   -7.2977355    84.073233  0.018935413  0.018460739           15 
  371000   0.68042785   -7.3018832     84.32795  0.018941588  0.018408159           24 
  372000   0.67026097   -7.3178618    84.001397  0.018817517  0.018355536           20 
  373000   0.65328789   -7.3053135    83.954131  0.018756508  0.018302886           27 
  374000   0.67064442   -7.3245813     84.27518  0.018777892  0.018250569           27 
  375000   0.66962529    -7.315606    84.079665   0.01868437    0.0181982           28 
  376000   0.65744064   -7.3065952    84.097277  0.018638581  0.018146099           23 
  377000   0.66362681   -7.3127299      84.2002  0.018611892  0.018093985           29 
  378000     0.669263   -7.3179726    84.227514  0.018568676  0.018042005           22 
  379000   0.66127471   -7.3172215    84.281742  0.018531606   0.01799013           11 
  380000   0.66858742   -7.3323917     84.23186  0.018471899  0.017938276           47 
  381000   0.67405609    -7.362958    84.182988  0.018412727  0.017886422           40 
  382000   0.66186175   -7.3525399    84.119789  0.018350739  0.017834497           43 
  383000   0.65482187   -7.3405699    84.221474  0.018324951  0.017782803           43 
  384000   0.65224502   -7.3709838    84.130357  0.018257456  0.017731187           44 
  385000   0.65763927   -7.3627908    84.319551  0.018250985  0.017679509           42 
  386000   0.63699461   -7.3557518    84.200699  0.018178044  0.017628233           52 
  387000   0.64287518    -7.362193    84.232665  0.018137955  0.017576673           38 
  388000   0.63654314   -7.3695326    84.285032  0.018102455  0.017525492           26 
  389000   0.64741992   -7.3719421    84.407653  0.018082188  0.017474353           33 
  390000   0.65204119   -7.3865209    84.157352   0.01798234  0.017423388           17 
  391000   0.64400565    -7.399711    84.156958  0.017936266  0.017372324           18 
  392000   0.65372858   -7.3790931    84.294596   0.01791977  0.017321158           24 
  393000   0.64347246    -7.402898    84.451108   0.01790736  0.017270416           40 
  394000   0.63230331   -7.3904977    84.377854  0.017846416  0.017219777           30 
  395000   0.62130773   -7.3770279    84.188796  0.017761349   0.01716915           45 
  396000   0.64770951    -7.393819    84.417257  0.017764574  0.017118961           56 
  397000   0.65076037   -7.3782707    84.314589  0.017698276  0.017069111           18 
  398000   0.62733533   -7.3787211    84.430274  0.017678031  0.017019263           30 
  399000   0.63213337    -7.379953    84.467967  0.017641597  0.016969635           38 
  400000   0.64025448   -7.3990841    84.320315  0.017566732  0.016919932           28 
  401000   0.64409555   -7.3920868    84.413593  0.017542309  0.016870238           26 
  402000   0.62982332    -7.402664    84.550819  0.017527118   0.01682098           36 
  403000   0.62440183   -7.3974897    84.614263  0.017496746  0.016771789           30 
  404000   0.62275507    -7.404185    84.680862  0.017467174  0.016722847           22 
  405000   0.63079479   -7.4051618    84.482577  0.017383246  0.016673837           25 
  406000   0.63209256   -7.4166249    84.370479  0.017317422  0.016625129           42 
  407000   0.61777424   -7.4136475    84.521215  0.017305736  0.016576752           36 
  408000   0.61784342   -7.4375508    84.582287  0.017275794  0.016528371           51 
  409000   0.63724924   -7.4146509    84.698991  0.017257333  0.016480038           58 
  410000   0.60683754   -7.4202488     84.64149  0.017203555  0.016431691           34 
  411000   0.60782736   -7.4295082    84.501281  0.017133269  0.016383547           43 
  412000    0.6057718   -7.4187592    84.605132  0.017112688   0.01633535           25 
  413000   0.62043362   -7.4346514    84.438804  0.017037692   0.01628733           35 
  414000   0.60263476   -7.4514103    84.425884  0.016993938  0.016239362           27 
  415000   0.60475155   -7.4360831    84.576954  0.016983324  0.016191698           32 
  416000   0.57752553   -7.4363954     84.42853  0.016912766   0.01614395           40 
  417000   0.60097582    -7.460636    84.376599   0.01686183  0.016096214           31 
  418000   0.61424923   -7.4557285    84.295164  0.016805256  0.016048535           28 
  419000   0.59665959   -7.4766121    84.472224  0.016800363  0.016000961           42 
  420000   0.58350646   -7.4517467    84.436644  0.016753302  0.015953507           36 
  421000   0.59449614    -7.469481    84.413595  0.016708946  0.015906013           24 
  422000   0.58943766   -7.4583317    84.261318  0.016639281  0.015858579           45 
  423000   0.59484293   -7.4782666    84.399456  0.016627158    0.0158114           39 
  424000   0.59200733   -7.4637686    84.195116  0.016547782  0.015764205           39 
  425000   0.57918957   -7.4753398    84.299592  0.016529332  0.015717236           76 
  426000    0.5938434   -7.4729013    84.326069   0.01649571  0.015670445           63 
  427000   0.58161664   -7.4584515     84.26434  0.016445031  0.015623838           72 
  428000   0.58608356   -7.4641151    84.427477  0.016438372  0.015577293           61 
  429000   0.57242056   -7.4835695    84.496889  0.016413537  0.015530997           51 
  430000   0.59241438   -7.4556852    84.401367  0.016356854  0.015484974           45 
  431000   0.59730444   -7.4792002    84.539912  0.016345691  0.015438941           42 
  432000   0.59143467   -7.4947528    84.539033  0.016307684  0.015393091           52 
  433000   0.56949327   -7.5138513    84.405671  0.016244356  0.015347387           48 
  434000   0.57014041     -7.51304    84.446934  0.016214849  0.015301719           44 
  435000   0.57090079   -7.5150511    84.391362  0.016166928  0.015256309           28 
  436000   0.56802248   -7.4999048    84.411108  0.016133622  0.015210916           55 
  437000   0.56805646   -7.5104265    84.466653  0.016107295  0.015165622           38 
  438000   0.56461232   -7.5060065    84.309258  0.016040574  0.015120385           51 
  439000   0.57485363   -7.5063106     84.53254   0.01604642  0.015075303           26 
  440000   0.57950749   -7.5101974    84.517815  0.016007162  0.015030385           53 
  441000   0.55515774   -7.5354048    84.477269  0.015963203  0.014985496           43 
  442000   0.55952216   -7.5518444    84.435462  0.015919205  0.014940701           38 
  443000   0.56131482   -7.5338015    84.258847  0.015850047  0.014895973           43 
  444000   0.55534207   -7.5320327    84.292049   0.01582058  0.014851446           35 
  445000   0.56177843   -7.5441564    84.230543   0.01577351  0.014807014           44 
  446000    0.5544902   -7.5352299    84.343224  0.015759197  0.014762699           51 
  447000   0.56153429   -7.5623116    84.308408  0.015717451  0.014718562           67 
  448000   0.54484586   -7.5420481    84.346601  0.015689472  0.014674513           43 
  449000   0.54863233   -7.5498178    84.156571   0.01561926  0.014630534           44 
  450000   0.56313235   -7.5446099    84.310014  0.015612966  0.014586803           41 
  451000   0.55277384   -7.5600976    84.322897  0.015580727  0.014543033           76 
  452000   0.54966491   -7.5563171    84.169025  0.015517888  0.014499434           56 
  453000   0.54394401   -7.5591709    84.085052  0.015468185   0.01445583           77 
  454000   0.53997982   -7.5718017    84.193331  0.015453989  0.014412409           66 
  455000   0.54253825   -7.5689442    84.149615  0.015412017  0.014369036           46 
  456000   0.54046242   -7.5637385    84.227501  0.015392453  0.014325862           60 
  457000   0.54442096   -7.5640639    84.088849  0.015333488  0.014282868           56 
  458000   0.53830486   -7.5806109    84.046537   0.01529231  0.014239936           93 
  459000   0.52257056   -7.5738152    84.127135  0.015273626  0.014197088           62 
  460000   0.53389101   -7.5781509    84.190851  0.015251966    0.0141544           72 
  461000   0.52970548   -7.5936025    84.132302  0.015208297  0.014111791           59 
  462000   0.53845864   -7.5807584    84.031441  0.015157186  0.014069274           63 
  463000   0.53912481   -7.5748991    84.045034  0.015126896  0.014026909           89 
  464000   0.53162279   -7.5870952      84.0539  0.015095887  0.013984608           60 
  465000   0.53249655   -7.5980403     84.11096  0.015073649  0.013942601           63 
  466000   0.52829588    -7.575639    84.197456   0.01505677  0.013900567           91 
  467000   0.52639624   -7.5969932    84.144685  0.015015111  0.013858817           72 
  468000   0.52142368   -7.6121358     83.91468  0.014942073   0.01381714           97 
  469000   0.53225842   -7.6032785    84.032006   0.01493106  0.013775638           98 
  470000   0.50529438   -7.6055818    84.120575  0.014914996  0.013734238          139 
  471000   0.51271856    -7.601447    84.031533  0.014867575  0.013692921          138 
  472000   0.51681478   -7.6222561    84.048436   0.01483906   0.01365179          125 
  473000   0.51088483    -7.600735    84.096911  0.014816228  0.013610745          110 
  474000   0.50858861   -7.6269348    83.993048   0.01476671  0.013569864          116 
  475000   0.50885579   -7.6207904    84.176188  0.014767752  0.013529131          127 
  476000   0.50826384   -7.6252499    84.121204  0.014727101  0.013488619          114 
  477000   0.50004548   -7.6103461    84.170049  0.014704761  0.013448231          112 
  478000   0.50460007   -7.6422811    84.069231  0.014656421  0.013407864          163 
  479000   0.49416899   -7.6268008    84.100819  0.014631319  0.013367649          138 
  480000   0.50139817   -7.6319495    84.072236  0.014595874  0.013327533           91 
  481000   0.50060617   -7.6515276    84.028707  0.014557988   0.01328762           60 
  482000   0.50111642   -7.6325381    84.150799  0.014548893  0.013247767          102 
  483000   0.49093489   -7.6285222    83.972449     0.014488  0.013208151           42 
  484000   0.49266889   -7.6422464    84.022197  0.014466632   0.01316868          106 
  485000   0.50072037   -7.6471215    84.136421   0.01445643  0.013129301          126 
  486000   0.48376794   -7.6523214    83.895131  0.014385311  0.013090122           39 
  487000    0.4898103   -7.6442568     83.84392  0.014347009  0.013050959           44 
  488000   0.48376196   -7.6316433    83.935482  0.014333245  0.013011897           79 
  489000   0.48255321   -7.6593306    83.924432   0.01430205  0.012973028           53 
  490000   0.48488169   -7.6405231    83.854367  0.014260947  0.012934187           80 
  491000   0.47908804    -7.646468    84.020662  0.014260126  0.012895561          103 
  492000   0.47763869   -7.6614762    83.909785  0.014212362    0.0128571          154 
  493000   0.48476247   -7.6488902     83.87855  0.014178254  0.012818734           55 
  494000   0.48755067   -7.6452876    83.882817  0.014150273  0.012780452           92 
  495000   0.48055237   -7.6790832    83.983439  0.014138626  0.012742364           89 
  496000   0.47698546   -7.6800524    83.898805  0.014095901  0.012704351          161 
  497000   0.48454869   -7.6760812    83.854928  0.014060182  0.012666458          105 
  498000   0.46391837   -7.6796877    83.823871  0.014026752  0.012628615          157 
  499000   0.47732978   -7.6782213    83.800894  0.013994805    0.0125909           75 
  500000   0.47419387   -7.6729757     83.84723  0.013974538  0.012553342          138 
  501000   0.46160613   -7.6847474    83.848991  0.013946938    0.0125159           81 
  502000   0.46586305   -7.6687892    83.780076  0.013907715  0.012478626          115 
  503000   0.45828126    -7.679135    83.712424  0.013868858  0.012441454           78 
  504000   0.45108482   -7.6868226    83.639063   0.01382921  0.012404315          111 
  505000   0.46877413   -7.6950258    83.864216   0.01383898  0.012367414          126 
  506000   0.45759423   -7.7038847    83.779568  0.013797689  0.012330655           58 
  507000   0.45134547   -7.7035643    83.842164  0.013780763  0.012294047           94 
  508000    0.4541297   -7.6951605    83.773289  0.013742337   0.01225758           85 
  509000   0.44727035   -7.7027299    83.738617  0.013709662  0.012221236          133 
  510000   0.45198179   -7.7133882     83.75341  0.013685198  0.012185011           65 
  511000   0.45419416   -7.7000346    83.912484  0.013684358  0.012148872           88 
  512000   0.44425043   -7.6994519    83.592752  0.013605591  0.012112889           50 
Loop time of 1102.64 on 48 procs for 500000 steps with 4000 atoms

Performance: 78357.618 tau/day, 453.458 timesteps/s
99.4% CPU use with 48 MPI tasks x no OpenMP threads

MPI task timing breakdown:
Section |  min time  |  avg time  |  max time  |%varavg| %total
---------------------------------------------------------------
Pair    | 66.545     | 71.044     | 77.554     |  29.9 |  6.44
Neigh   | 6.5775     | 6.814      | 7.0954     |   5.4 |  0.62
Comm    | 58.3       | 65.009     | 71.989     |  41.3 |  5.90
Output  | 0.83028    | 0.83083    | 0.84046    |   0.2 |  0.08
Modify  | 937.93     | 945.59     | 952.88     |  11.8 | 85.76
Other   |            | 13.35      |            |       |  1.21

Nlocal:        83.3333 ave          94 max          78 min
Histogram: 5 10 5 13 4 6 4 0 0 1
Nghost:        1805.73 ave        1831 max        1784 min
Histogram: 1 3 5 7 13 10 5 3 0 1
Neighs:        11075.3 ave       12216 max       10104 min
Histogram: 3 2 11 7 7 6 2 2 4 4
FullNghs:      22149.5 ave       25187 max       20399 min
Histogram: 4 7 8 10 7 7 2 2 0 1

Total # of neighbors = 1063174
Ave neighs/atom = 265.79350
Neighbor list builds = 26967
Dangerous builds = 0

#clear
#
#next RN
#
#jump SELF
Total wall time: 0:18:25
