
units lj                  # Use reduced LJ style units
atom_style atomic         # Uncharged point particles
atom_modify map hash      # Needed for indexing of clusters etc
                          # Used to be able to find where atoms are in relation to each other.

lattice fcc 1.0 spacing 1 1 1
Lattice spacing in x,y,z = 1.5874011 1.5874011 1.5874011
region box block 0 10 0 10 0 10 units lattice
create_box 2 box
Created orthogonal box = (0.0000000 0.0000000 0.0000000) to (15.874011 15.874011 15.874011)
  3 by 4 by 4 MPI processor grid
create_atoms 1 box
Created 4000 atoms
  using lattice units in orthogonal box = (0.0000000 0.0000000 0.0000000) to (15.874011 15.874011 15.874011)
  create_atoms CPU = 0.003 seconds
set type 1 type/fraction 2 0.27 78393
Setting atom values ...
  1113 settings made for type/fraction
mass 1 1.0
mass 2 1.0
pair_style lj/cut  3.5
pair_modify tail  yes
pair_coeff 1  1  1.0  1.0   # Intearaction between 1 and 1 set with epsilon = 1 and sigma = 1
pair_coeff 1  2  1.5  0.8
pair_coeff 2  2  0.5  0.88

write_data data.0
System init for write_data ...
Neighbor list info ...
  update every 1 steps, delay 10 steps, check yes
  max neighbors/atom: 2000, page size: 100000
  master list distance cutoff = 3.8
  ghost atom cutoff = 3.8
  binsize = 1.9, bins = 9 9 9
  1 neighbor lists, perpetual/occasional/extra = 1 0 0
  (1) pair lj/cut, perpetual
      attributes: half, newton on
      pair build: half/bin/atomonly/newton
      stencil: half/bin/3d
      bin: standard
WARNING: Not all mixed pair coeffs generated from mixing. Use write_data with 'pair ij' option to store all pair coeffs. (../write_data.cpp:312)


#############################
#   M E L T   S Y S T E M   #
#############################

velocity all create 2.4 9580093 mom yes dist gaussian # Assign velocities
                                                    # Temperature 2.4, random number seed, zero linear momentum
                                                                                # Gaussian distribution

timestep 0.002   # simulation timestep
thermo 1000       # output thermodynamic data every 1000 steps bf 100

# Define a fix  in this case with index 1 applied to all
# particles in the simulation. This fix is for simulations
# in the anisotropic NPT ensemble. Note that we use the MTK
# correction.
fix 1 all npt temp 2.4 2.4 0.1 iso 5.68 5.68 0.5 mtk yes tchain 5 pchain 5 # Use NPT ensemble
                                                                         # Set temperature and pressure and damping
                                                                         # Numbers of thermostats in chain and in barostat
run 10000          # run for 10000 steps
Per MPI rank memory allocation (min/avg/max) = 3.642 | 3.644 | 3.648 Mbytes
Step Temp E_pair E_mol TotEng Press Volume 
       0          2.4   -6.6079615            0   -3.0088615   -3.8965289         4000 
    1000     2.383398   -4.9595322            0   -1.3853289     5.661107    4232.1385 
    2000    2.3803956   -4.9728234            0   -1.4031227    5.3837391    4261.7323 
    3000    2.3494887   -4.9613485            0   -1.4379964    5.6971117    4233.3129 
    4000    2.4063338   -4.9768893            0    -1.368291    5.2974947    4276.2126 
    5000    2.4003562   -4.9347706            0   -1.3351364    5.6173706     4256.281 
    6000    2.4294271   -4.9489271            0   -1.3056976    5.7039366    4250.4949 
    7000    2.4145193   -4.9298279            0   -1.3089544    5.5714478    4268.9801 
    8000    2.4200611    -4.975084            0   -1.3458999    5.7370306     4227.081 
    9000    2.3798373   -4.9447988            0   -1.3759353    5.6004483    4244.3577 
   10000    2.4158091   -4.9897675            0   -1.3669598     5.840969    4215.6459 
Loop time of 2.36097 on 48 procs for 10000 steps with 4000 atoms

Performance: 731902.548 tau/day, 4235.547 timesteps/s
99.6% CPU use with 48 MPI tasks x no OpenMP threads

MPI task timing breakdown:
Section |  min time  |  avg time  |  max time  |%varavg| %total
---------------------------------------------------------------
Pair    | 1.0216     | 1.0899     | 1.1784     |   3.4 | 46.16
Neigh   | 0.19851    | 0.20798    | 0.21672    |   1.0 |  8.81
Comm    | 0.7222     | 0.81311    | 0.88495    |   3.8 | 34.44
Output  | 0.00024414 | 0.00024827 | 0.00031008 |   0.0 |  0.01
Modify  | 0.19812    | 0.23486    | 0.26735    |   3.7 |  9.95
Other   |            | 0.0149     |            |       |  0.63

Nlocal:        83.3333 ave          94 max          70 min
Histogram: 1 0 6 2 8 12 8 5 3 3
Nghost:        1578.60 ave        1614 max        1550 min
Histogram: 3 5 8 8 4 3 7 6 3 1
Neighs:        9037.46 ave       10791 max        7290 min
Histogram: 1 0 6 7 15 5 6 5 2 1

Total # of neighbors = 433798
Ave neighs/atom = 108.44950
Neighbor list builds = 902
Dangerous builds = 184

# Equilibrate just above the melting temperature to avoid step fn in T

fix 1 all npt temp 1.25 1.25 0.1 iso 5.68 5.68 0.5 mtk yes tchain 5 pchain 5
run 2000
Per MPI rank memory allocation (min/avg/max) = 3.643 | 3.645 | 3.649 Mbytes
Step Temp E_pair E_mol TotEng Press Volume 
   10000    2.4158091   -4.9897675            0   -1.3669598     5.840969    4215.6459 
   11000    1.2218705   -6.7708636            0   -4.9385161    5.5506328    3431.8055 
   12000     1.251156   -6.7320706            0   -4.8558057    5.6349305    3440.4168 
Loop time of 0.553283 on 48 procs for 2000 steps with 4000 atoms

Performance: 624634.670 tau/day, 3614.784 timesteps/s
99.7% CPU use with 48 MPI tasks x no OpenMP threads

MPI task timing breakdown:
Section |  min time  |  avg time  |  max time  |%varavg| %total
---------------------------------------------------------------
Pair    | 0.2377     | 0.26341    | 0.29729    |   2.4 | 47.61
Neigh   | 0.035855   | 0.038634   | 0.041803   |   0.7 |  6.98
Comm    | 0.16914    | 0.20298    | 0.23331    |   2.9 | 36.69
Output  | 5.1295e-05 | 5.2372e-05 | 6.6842e-05 |   0.0 |  0.01
Modify  | 0.038369   | 0.043641   | 0.050018   |   1.5 |  7.89
Other   |            | 0.004566   |            |       |  0.83

Nlocal:        83.3333 ave          93 max          76 min
Histogram: 3 4 6 5 15 5 4 4 1 1
Nghost:        1818.40 ave        1844 max        1787 min
Histogram: 1 1 3 7 7 11 6 5 5 2
Neighs:        11104.1 ave       13220 max        9856 min
Histogram: 3 3 11 13 7 6 3 1 0 1

Total # of neighbors = 532995
Ave neighs/atom = 133.24875
Neighbor list builds = 143
Dangerous builds = 9

#############################
# L I N E A R  Q U E N C H  #
#############################

# Define solid atoms. This closely follows ten Wolde  Ruiz-Montero and Frenkel  Faraday Discuss  1996  104  93-110
# Compute components of the per-atom q6 vector
compute q6 all orientorder/atom degrees 1 6 components 6 nnn NULL cutoff 1.3 # compute the Q6 parameter.
                                                                             # Use all neighbours within 1.3 unit cell.

# get number of connections
compute coord_number all coord/atom orientorder q6 0.5

# An atom is solid if it has 8 or more connections (of a possible 14)
variable is_solid atom c_coord_number>=8
group solid dynamic all var is_solid    # Must be dynamic to update
dynamic group solid defined

# do clustering
compute cluster solid cluster/atom 1.3 # Create a cluster where all atoms within are solid and max 1.3 units from another member

# define chunks one chunk per cluster
compute clus_chunks solid chunk/atom c_cluster nchunk every compress yes  # Says which atoms are in which chunk

# count the size of each chunk
compute size_chunks solid property/chunk clus_chunks count


# Find the maximum entry in the vector of chunk sizes
variable max_n equal max(c_size_chunks)


# Thermo style which includes this variable
# thermo_style custom step temp pe vol v_max_n

thermo ${N}  # Print the thermo information every 100 steps
thermo 1000  

# Reset the npt fix at a lower temperature (below freezing)
fix 1  all npt temp  ${temp} ${temp}  0.1  iso  5.68  5.68  0.5  mtk yes tchain  5  pchain  5
fix 1  all npt temp  0.45 ${temp}  0.1  iso  5.68  5.68  0.5  mtk yes tchain  5  pchain  5
fix 1  all npt temp  0.45 0.45  0.1  iso  5.68  5.68  0.5  mtk yes tchain  5  pchain  5

dump dmp2 all dcd ${N} traj.dcd
dump dmp2 all dcd 1000 traj.dcd


compute msd all msd com yes
variable twopoint equal c_msd[4]/6/(step*dt+1.0e-6)
fix 9 all vector 10 c_msd[4]
variable fit equal slope(f_9)/6/(10*dt)
thermo_style custom step temp pe c_msd[4] v_twopoint v_fit v_max_n

fix 1 all npt temp 1.25 ${temp} 0.1 iso 5.68 5.68 0.5 mtk yes tchain 5 pchain 5
fix 1 all npt temp 1.25 0.45 0.1 iso 5.68 5.68 0.5 mtk yes tchain 5 pchain 5
run 500000 # 5000000  # Run for this many steps
Neighbor list info ...
  update every 1 steps, delay 10 steps, check yes
  max neighbors/atom: 2000, page size: 100000
  master list distance cutoff = 3.8
  ghost atom cutoff = 3.8
  binsize = 1.9, bins = 8 8 8
  4 neighbor lists, perpetual/occasional/extra = 1 3 0
  (1) pair lj/cut, perpetual
      attributes: half, newton on
      pair build: half/bin/atomonly/newton
      stencil: half/bin/3d
      bin: standard
  (2) compute orientorder/atom, occasional
      attributes: full, newton on
      pair build: full/bin/atomonly
      stencil: full/bin/3d
      bin: standard
  (3) compute coord/atom, occasional
      attributes: full, newton on
      pair build: full/bin/atomonly
      stencil: full/bin/3d
      bin: standard
  (4) compute cluster/atom, occasional
      attributes: full, newton on
      pair build: full/bin/atomonly
      stencil: full/bin/3d
      bin: standard
Per MPI rank memory allocation (min/avg/max) = 9.802 | 9.811 | 9.819 Mbytes
Step Temp PotEng c_msd[4] v_twopoint v_fit v_max_n 
   12000     1.251156   -6.7320706 8.4666469e-30 5.8796156e-32 8.3333333e+20            1 
   13000    1.2591323   -6.8167181    0.5019212 0.0032174435  0.040917643            2 
   14000    1.2377182    -6.787483   0.95971175 0.0057125698  0.039375844            2 
   15000    1.2270259   -6.8196874    1.4359073 0.0079772623  0.039011534            1 
   16000    1.2364189   -6.8068305     1.906976 0.0099321661  0.038825467            3 
   17000    1.2088043   -6.8203772    2.4028856  0.011778851  0.039347464            1 
   18000    1.2152386   -6.7873085    2.9011371   0.01343119  0.039778162            3 
   19000    1.2503635   -6.8316839    3.3535381    0.0147085  0.039944941            3 
   20000    1.2397066   -6.8398793    3.8378052  0.015990854  0.039872767            4 
   21000    1.2514247   -6.8363239    4.3227492  0.017153766  0.039915671            3 
   22000    1.2597458   -6.8094535    4.8163977   0.01824393  0.040086572            2 
   23000    1.2617742   -6.7953443    5.3878707   0.01952127  0.040269182            1 
   24000    1.2432176   -6.8435773    5.8757867  0.020402037  0.040546251            1 
   25000    1.2327361   -6.7713285    6.2914028  0.020971342  0.040600477            1 
   26000    1.2163304   -6.8771792    6.6054588  0.021171342  0.040330043            2 
   27000    1.2350493   -6.8342329    7.0121437  0.021642419  0.039954771            1 
   28000     1.217328   -6.8522153    7.4521627  0.022179055  0.039561809            2 
   29000    1.2172923    -6.875201    7.8494711  0.022555951  0.039202283            1 
   30000    1.2376031   -6.9016483    8.3316263  0.023143406  0.038917445            2 
   31000    1.2106036   -6.8779538     8.718973  0.023438099  0.038685457            1 
   32000    1.2312444   -6.8076239    9.3330319   0.02430477  0.038544024            1 
   33000    1.2128072   -6.8753474    9.8112994  0.024776008  0.038540547            2 
   34000    1.2130309   -6.8592469    10.209685  0.025023737  0.038485731            4 
   35000    1.2183792   -6.8774675    10.567278  0.025160186  0.038393643            2 
   36000    1.1984062   -6.8557314     11.00419  0.025472662  0.038298029            2 
   37000    1.1960664   -6.8349517    11.584602  0.026091445  0.038227367            2 
   38000    1.2250488   -6.8653309    12.067598  0.026464029  0.038216232            1 
   39000    1.1929352   -6.9163066    12.438018  0.026576961  0.038177492            1 
   40000    1.1856419   -6.8856153    12.892541  0.026859459  0.038145341            3 
   41000    1.1982425   -6.8953292    13.313216  0.027059382  0.038121789            1 
   42000    1.1933927   -6.9080211    13.699529  0.027181604  0.038060962            2 
   43000     1.226075   -6.8510713     14.01798  0.027166628  0.037926196            2 
   44000    1.2120959    -6.879313    14.419117  0.027308934  0.037775707            2 
   45000    1.1963903   -6.9004152    14.701436  0.027224882  0.037600287            1 
   46000     1.189364   -6.8789886    15.101672  0.027358101  0.037410979            1 
   47000    1.1901477   -6.9179749    15.566949  0.027600973  0.037244487            1 
   48000    1.1941471   -6.8906522    15.975451  0.027735157  0.037106949            1 
   49000    1.1903354   -6.9087069    16.427941  0.027938675   0.03699646            3 
   50000    1.1762851   -6.8916107    16.820501  0.028034168  0.036874155            3 
   51000    1.1660977   -6.9238571    17.180756  0.028073131   0.03676709            1 
   52000    1.1733849   -6.9255776    17.772917  0.028482238  0.036670924            2 
   53000    1.1751627   -6.9191744    18.176344  0.028579156  0.036614405            4 
   54000     1.169185   -6.9487725    18.480055  0.028518603  0.036543306            3 
   55000    1.1703465   -6.9494437    19.017971  0.028815107  0.036473418            1 
   56000    1.2007748   -6.9090081    19.448411  0.028941088  0.036416515            2 
   57000    1.1875684   -6.9354473    19.782466  0.028921734  0.036357305            5 
   58000     1.171696   -6.9133326    20.241932  0.029083235  0.036295299            2 
   59000    1.1651568   -6.9676515    20.524666  0.028989641  0.036240611            2 
   60000    1.1657006   -6.9390433    21.003944  0.029172145  0.036175061            2 
   61000    1.1827631    -6.919132    21.502953  0.029375619  0.036122997            1 
   62000    1.1573545   -6.9623519    21.897632  0.029432301  0.036081411            1 
   63000    1.1886385   -6.9270267    22.416972  0.029652079   0.03603868            1 
   64000    1.2042951   -6.9704428    22.693542  0.029548883  0.036014662            1 
   65000    1.1647486   -6.9628576    23.082241  0.029592616  0.035975393            3 
   66000    1.1427772   -6.9751026     23.35052   0.02948298  0.035908749            3 
   67000    1.1814515   -6.9528063    23.794975  0.029595739  0.035836418            3 
   68000    1.1524365   -6.9841186    24.307582  0.029788703  0.035777704            2 
   69000    1.1785422    -6.961704    24.719376  0.029854318  0.035741871            2 
   70000    1.1568141   -6.9450605    25.017516  0.029782757  0.035695079            1 
   71000    1.1556301   -7.0101575    25.386485  0.029796344  0.035637413            1 
   72000    1.1531592    -7.009494    25.545004  0.029565977  0.035562929            1 
   73000    1.1548402   -7.0183444    26.054525  0.029742608  0.035485255            1 
   74000    1.1423686   -7.0238174    26.333767  0.029655143  0.035414855            2 
   75000     1.169548   -7.0021793    26.755915  0.029728794  0.035337015            2 
   76000    1.1541864   -6.9764517    27.068456  0.029680325  0.035260844            3 
   77000    1.1528957   -6.9842472    27.351065  0.029600719  0.035178525            2 
   78000     1.122081   -7.0024037    27.640216  0.029530145  0.035086862            1 
   79000    1.1362945    -7.059617    28.063191  0.029602522  0.034988741            2 
   80000    1.1273144   -6.9963562    28.461806  0.029647714  0.034897116            2 
   81000    1.1278937   -7.0316759     28.68637  0.029512726   0.03480378            2 
   82000    1.1229197   -7.0553184    28.987016  0.029458349  0.034711205            3 
   83000    1.1531527   -7.0247644    29.293453  0.029411098  0.034607417            1 
   84000    1.1229262    -7.043938    29.440523  0.029206868  0.034495585            2 
   85000    1.1455686   -7.0112757    29.935056  0.029348094  0.034387548            2 
   86000    1.1113187   -7.0321043    30.249213  0.029311253  0.034282302            1 
   87000     1.122026   -7.0490625    30.684669  0.029391445  0.034178714            2 
   88000    1.1322957   -7.0183137    31.229825  0.029573698  0.034089753            2 
   89000    1.1417839   -7.0384372    31.554624  0.029545528  0.034020521            2 
   90000    1.1397931   -7.0625839    31.983243  0.029614114  0.033949499            2 
   91000    1.1042576   -7.0624766    32.249221  0.029532253  0.033877655            2 
   92000    1.0961199   -7.0001043    32.703552  0.029622783  0.033807425            2 
   93000    1.1303044   -7.0485181    32.738828  0.029335867  0.033726783            1 
   94000    1.1112171   -7.0734946    32.998066  0.029253604  0.033637136            1 
   95000     1.116561   -7.0746188    33.317122  0.029225546  0.033547104            2 
   96000    1.1311997    -7.058148     33.77372  0.029317465  0.033459169            2 
   97000    1.1275338   -7.0932612    33.993343  0.029203903  0.033375189            1 
   98000    1.1104966   -7.0383734    34.390248  0.029243408  0.033288575            2 
   99000    1.1242703   -7.0417846     34.76842  0.029266347  0.033205031            2 
  100000    1.0970824   -7.0697095     34.87151  0.029059592   0.03311647            2 
  101000    1.0980239   -7.1114355    35.201254  0.029043938  0.033025795            1 
  102000     1.101868   -7.1486859    35.286205  0.028828599  0.032930712            2 
  103000    1.0886679   -7.0991137    35.663336  0.028853831  0.032830656            1 
  104000    1.0958385     -7.08897    35.878126  0.028748499  0.032730371            1 
  105000    1.1087609   -7.0969956    36.227805  0.028752226  0.032634786            2 
  106000    1.1017953   -7.1779264    36.395844  0.028613085  0.032539647            1 
  107000    1.1204073   -7.1097203    36.912094  0.028747737  0.032444087            3 
  108000    1.1189296   -7.1031407    37.118389  0.028640732  0.032345714            1 
  109000     1.100278   -7.1128351    37.341797  0.028548774  0.032245905            1 
  110000    1.1032723   -7.1528977    37.638483  0.028514002   0.03215182            2 
  111000    1.1093671    -7.064978    38.006271  0.028533236  0.032057997            2 
  112000     1.099107   -7.1213222    38.157642  0.028391102  0.031959224            1 
  113000    1.0992344   -7.1156208    38.392395  0.028312975  0.031862532            2 
  114000    1.0800183   -7.0964553    38.700483  0.028289826  0.031765065            1 
  115000    1.0835241   -7.1335667     39.01559  0.028272167   0.03167229            1 
  116000    1.1041242   -7.1464393    39.314737  0.028243345   0.03158225            3 
  117000    1.0860307   -7.1294861    39.549588  0.028169222  0.031490656            3 
  118000    1.0911028   -7.1392734    39.903081  0.028180142  0.031401657            1 
  119000    1.0936488   -7.1766968    40.066431  0.028057724  0.031312352            1 
  120000    1.0717787   -7.1602789    40.433067  0.028078519  0.031221816            2 
  121000    1.0792813   -7.1643481    40.650069  0.027995915  0.031134136            2 
  122000     1.082717    -7.125796    41.079592   0.02805983   0.03104543            3 
  123000    1.0744059   -7.1462101    41.181516  0.027900756  0.030960679            1 
  124000    1.0702433   -7.1291305    41.444449  0.027852452  0.030872125            2 
  125000    1.0621764   -7.1331829    41.693331  0.027795554  0.030784165            1 
  126000    1.0625663   -7.2010912    41.938448  0.027737069  0.030695994            2 
  127000     1.059514    -7.175404     42.25542  0.027726654  0.030607082            2 
  128000    1.0591661   -7.1699936    42.600013  0.027734384  0.030521128            1 
  129000    1.0709457   -7.1774578     42.89444  0.027709586  0.030436659            4 
  130000    1.0703002   -7.1597089     42.96521  0.027541801  0.030353972            2 
  131000    1.0718458   -7.2046561    43.270633  0.027525848  0.030272287            1 
  132000    1.0579726     -7.18549      43.6983  0.027587311  0.030192953            2 
  133000    1.0579842   -7.1792921    44.105839  0.027635237   0.03011748            2 
  134000    1.0298099   -7.1703149    44.572163  0.027719007  0.030046403            3 
  135000    1.0525988   -7.2453306    44.894955  0.027712935  0.029980837            1 
  136000    1.0529659   -7.2081078    45.299345  0.027756952  0.029918764            1 
  137000    1.0401029   -7.2141321    45.685524  0.027789248  0.029859338            2 
  138000    1.0488577   -7.2253349     45.70438  0.027599263  0.029798876            2 
  139000    1.0755444   -7.2094575    46.004291   0.02758051   0.02973596            3 
  140000    1.0489798   -7.1986472     46.23157  0.027518791  0.029671722            2 
  141000     1.053958   -7.2163599    46.564695  0.027520505  0.029605977            2 
  142000    1.0444931   -7.2186884    46.809528   0.02747038  0.029541643            2 
  143000    1.0192534   -7.2739006    47.166543   0.02748633   0.02948059            3 
  144000     1.015596   -7.2307395    47.376705  0.027417075  0.029419438            1 
  145000    1.0481761   -7.2507244    47.469531   0.02728134  0.029357136            3 
  146000    1.0361067   -7.2725626    47.823565  0.027296555  0.029293745            1 
  147000    1.0615565   -7.2426902    48.111072   0.02727385  0.029233332            2 
  148000    1.0348294   -7.2287455    48.357083  0.027228087   0.02917346            5 
  149000    1.0302047   -7.2377774    48.763813  0.027272826  0.029112962            1 
  150000    1.0198707   -7.2534782    48.862872   0.02714604   0.02905446            1 
  151000    1.0057759   -7.2627962    49.045083  0.027066822  0.028992194            3 
  152000    1.0268489   -7.2764526    49.309169  0.027033536  0.028929157            4 
  153000    1.0217939   -7.2527489    49.562708  0.026994939  0.028868047            2 
  154000    1.0260761   -7.2544146    50.184899   0.02715633  0.028809527            1 
  155000    1.0162688   -7.2756077    50.196145  0.026987175  0.028750675            5 
  156000    1.0220241   -7.2462855     50.51843  0.026986341  0.028692289            2 
  157000    1.0013142   -7.3019487    50.549388  0.026830885  0.028631216            3 
  158000    1.0176654   -7.2686972    50.700276  0.026740652  0.028569617            1 
  159000      1.00435   -7.2655981    50.870342  0.026661605  0.028505032            3 
  160000    1.0142801   -7.2711132    50.868481  0.026494001  0.028437315            4 
  161000   0.99862053   -7.2973774    51.293377  0.026549367  0.028370804            1 
  162000    1.0015378   -7.3396727    51.312807  0.026395477  0.028302338            2 
  163000    1.0140002   -7.2913913    51.590704  0.026375615    0.0282345            1 
  164000    1.0150486   -7.2743791    51.970338  0.026407692  0.028167454            2 
  165000   0.99416992    -7.287564    52.097666  0.026311952   0.02809945            1 
  166000   0.99885392   -7.3542423    52.345508  0.026277865  0.028032693            1 
  167000    1.0021209   -7.2826138    52.760403  0.026327546  0.027967215            1 
  168000   0.99714603   -7.3187735     52.89586  0.026238026  0.027902182            2 
  169000   0.99801643   -7.2919316    53.208697   0.02623703  0.027839568            2 
  170000   0.98263678   -7.3490552    53.359148  0.026156445  0.027776474            1 
  171000    1.0054566   -7.3382074    53.486176  0.026065388  0.027711021            1 
  172000   0.98826571   -7.3415935    53.732466  0.026033171  0.027646157            3 
  173000   0.99143639   -7.3329315    53.665018  0.025850201  0.027580156            3 
  174000   0.98909719   -7.3238523    53.901365   0.02581483  0.027513352            2 
  175000   0.94769552   -7.3242859    54.200699  0.025809857   0.02744631            2 
  176000   0.98871311   -7.3283002    54.361292  0.025739248   0.02737881            2 
  177000   0.97993919   -7.3496322    54.567893  0.025691099  0.027310699            4 
  178000   0.97892257   -7.3569772    54.695885  0.025606688  0.027242479            2 
  179000   0.97022593   -7.3930674    54.919253  0.025567622  0.027175218            3 
  180000   0.98811895   -7.3448524    55.016914  0.025470793  0.027108228            2 
  181000    1.0029164    -7.365036    55.218303  0.025422791  0.027039513            2 
  182000   0.99889062   -7.3546423    55.586764  0.025451815  0.026972211            3 
  183000   0.97470615   -7.3313198    55.966196  0.025485517  0.026906339            1 
  184000   0.96501098   -7.4094001    55.770097  0.025258196  0.026840663            3 
  185000   0.97028371   -7.3921749    56.013906  0.025231489  0.026775008            2 
  186000   0.96712973   -7.3769345    56.347966  0.025245505  0.026708971            2 
  187000   0.97287076   -7.3655544    56.542337   0.02519712  0.026643985            1 
  188000   0.96539734   -7.3807318    56.611655  0.025093819  0.026577062            1 
  189000   0.96914123   -7.4063119    56.723133    0.0250102  0.026509398            2 
  190000   0.95962096   -7.4079463    56.722718  0.024878385  0.026439583            1 
  191000   0.96113601   -7.3884163    57.312002  0.025005236  0.026369534            4 
  192000   0.98777514   -7.3989133    57.221747  0.024835827  0.026299946            3 
  193000   0.96577557   -7.3745877    57.201334  0.024698331  0.026228621            2 
  194000   0.96221878   -7.4111217    57.235069  0.024585511  0.026157298            1 
  195000   0.96706258   -7.4373457    57.538342  0.024589035   0.02608505            1 
  196000   0.94844777   -7.4220938    57.588357  0.024484846  0.026012638            2 
  197000   0.93940321   -7.4198507    57.598548  0.024364868  0.025939385            2 
  198000   0.94438118   -7.4627671    57.875652  0.024358439   0.02586719            2 
  199000   0.94104256   -7.4379819    58.089425  0.024325555  0.025795984            2 
  200000   0.94410247   -7.4083091    58.439734  0.024349889  0.025725631            1 
  201000   0.93930818   -7.4242539    58.304011  0.024172476  0.025655188            3 
  202000   0.94432888     -7.44597    58.585312  0.024168858   0.02558356            1 
  203000    0.9684967   -7.4376166    58.750152  0.024117468  0.025511684            4 
  204000   0.94556973   -7.4472766    58.838147  0.024035191  0.025438687            2 
  205000   0.95453245   -7.4312231    58.903546  0.023944531  0.025366663            1 
  206000    0.9265125    -7.436662    59.041539  0.023884118  0.025294373            2 
  207000   0.92088024   -7.4823471    59.253788  0.023854182  0.025222347            2 
  208000   0.93865001   -7.4879144    59.245232  0.023736071  0.025151187            2 
  209000   0.91817471   -7.4576637    59.598664  0.023763423  0.025080465            6 
  210000   0.91552779   -7.4642502     59.84126  0.023746532  0.025010654            2 
  211000   0.94237951    -7.492958    59.981602  0.023689416  0.024941145            1 
  212000   0.92020645    -7.509254    59.943911  0.023562858  0.024871403            1 
  213000   0.91843543   -7.4764336    60.176163    0.0235431   0.02480167            4 
  214000   0.91678008   -7.4724556    60.281569  0.023474131  0.024731411            2 
  215000    0.9231001   -7.4580695     60.52159   0.02345798  0.024660844            2 
  216000   0.92036298   -7.5164653    60.642157  0.023395894   0.02459149            2 
  217000   0.91821172   -7.5123757    60.797978  0.023347918  0.024522763            2 
  218000   0.93000363   -7.5037654     60.79794  0.023240803  0.024453673            5 
  219000   0.90911605   -7.5409596    60.960445  0.023196516  0.024384939            1 
  220000   0.94998613   -7.4950942    61.123352  0.023152785  0.024317546            4 
  221000    0.9182739   -7.5113367    61.386525  0.023147257  0.024249688            2 
  222000   0.91779946   -7.5352645    61.473486  0.023075633  0.024181712            2 
  223000   0.89626842   -7.5028379    61.713717  0.023061927  0.024114585            1 
  224000   0.91289716   -7.5146981     61.79565  0.022989453  0.024047505            2 
  225000   0.94681775   -7.5109963     61.94665  0.022943203  0.023981016            2 
  226000   0.90571528   -7.4923944     62.20316  0.022936268  0.023914996            3 
  227000   0.91002848   -7.5405253    62.151623  0.022816308  0.023849508            3 
  228000   0.91326082   -7.5248193    62.449431  0.022825084  0.023784528            1 
  229000   0.89017127   -7.5495263    62.467357  0.022731935  0.023719367            2 
  230000   0.91173583   -7.5304162    62.549485  0.022662857  0.023653504            3 
  231000   0.87444794   -7.5309049    62.620327  0.022590305  0.023587754            3 
  232000   0.92330401   -7.5584369    62.774727  0.022548393  0.023521616            2 
  233000   0.91104444      -7.5901    62.820549  0.022468008  0.023455224            2 
  234000   0.90797107   -7.5709283    62.872113  0.022390354  0.023387851            1 
  235000   0.88642558    -7.570557    63.110876  0.022379743  0.023321483            2 
  236000   0.88517438   -7.5914449    63.251422  0.022334542  0.023256337            4 
  237000   0.90062358   -7.5817214    63.298147  0.022256732  0.023190799            3 
  238000   0.89254919   -7.5543944    63.825347  0.022347811  0.023126667            3 
  239000   0.89449726   -7.5903703    63.564782  0.022163452  0.023062088            1 
  240000   0.90016241   -7.6147833    63.647726  0.022099905  0.022996744            2 
  241000   0.87659341   -7.5447153    64.052426  0.022148142   0.02293233            4 
  242000   0.89911601   -7.5728114    63.902577   0.02200502  0.022867792            3 
  243000   0.87320052   -7.5984473    63.854813  0.021898084  0.022802909            2 
  244000    0.8753011   -7.6023505    63.992486  0.021855357  0.022738247            2 
  245000    0.8668955   -7.5930528      63.9235  0.021742687  0.022672023            2 
  246000   0.89031418   -7.5984235    64.223361  0.021755881  0.022605784            2 
  247000   0.88876085   -7.6237992    64.005774  0.021594391  0.022538656            4 
  248000   0.86181294   -7.5777484    64.379754  0.021632982  0.022471322            2 
  249000   0.87761602   -7.6442236    64.210488  0.021489454  0.022403942            3 
  250000   0.85483673   -7.5835498    64.366088  0.021455363  0.022335889            4 
  251000   0.87232717   -7.6369641    64.442933  0.021395396  0.022268767            2 
  252000   0.88036782    -7.607522    64.508415  0.021332148  0.022200906            1 
  253000   0.88189669    -7.639124    64.590165  0.021274758  0.022134136            3 
  254000   0.87450215   -7.6160398    64.831861  0.021270296   0.02206795            2 
  255000   0.87379193   -7.6304465    64.903852  0.021210409  0.022002329            2 
  256000    0.8515853   -7.6341035    64.903732  0.021127517  0.021937211            3 
  257000   0.85569819    -7.659915      65.1526  0.021126005   0.02187204            6 
  258000   0.85946739   -7.6492258    65.268221  0.021081467  0.021806629            6 
  259000   0.84456602   -7.6200417     65.04329  0.020927699  0.021740195            3 
  260000   0.86168932   -7.6823186    65.300314  0.020929588  0.021674433            1 
  261000   0.85035343   -7.6560834    65.487289  0.020909096  0.021608937            3 
  262000   0.84074539   -7.6508645    65.422177   0.02080858  0.021543663            4 
  263000   0.85959851    -7.684657    65.505235  0.020755778  0.021478291            1 
  264000   0.85560281   -7.7105129    65.449965  0.020659711  0.021412686            1 
  265000   0.83418427   -7.6579077    65.680728  0.020654317   0.02134755            2 
  266000   0.84234908   -7.6551755    65.634119  0.020562067   0.02128285            9 
  267000   0.84532537   -7.6789969    65.973399  0.020590948  0.021218478            2 
  268000   0.83187087   -7.7059293    65.775494  0.020452579  0.021153571            2 
  269000   0.83541955   -7.6939386     65.73197  0.020363064   0.02108863            2 
  270000   0.85132652   -7.6419094    66.070587  0.020392156  0.021023985            3 
  271000   0.84317071   -7.6899407     65.98284  0.020289926  0.020959593            1 
  272000   0.81526374   -7.7036321    65.993781  0.020218683  0.020894307            2 
  273000   0.83300689    -7.692618    66.352249  0.020254044  0.020829989            3 
  274000   0.84793035   -7.7137519    66.133221   0.02011351  0.020766012            3 
  275000   0.84089868   -7.7215869    66.422076  0.020127902  0.020702776            3 
  276000   0.82077472   -7.7134453     66.47436  0.020070761  0.020639971            4 
  277000   0.82225496   -7.7032761    66.622616  0.020042905  0.020577429            2 
  278000   0.83496179   -7.7161849    66.558942  0.019951721  0.020514945            3 
  279000   0.80737922   -7.7290237    66.763009  0.019941161  0.020452914            2 
  280000   0.81051233   -7.7551046    66.831075  0.019890201  0.020390861            2 
  281000   0.79906758   -7.7345335    66.701308  0.019780934  0.020328615            1 
  282000   0.82500649   -7.7471925    66.974194  0.019791428  0.020266966            2 
  283000   0.79107654   -7.7373366    67.070153   0.01974975  0.020205765            3 
  284000   0.81325788   -7.7611514    67.213312  0.019722216  0.020144987            2 
  285000   0.80830102   -7.7278262    67.231865   0.01965844  0.020084348            3 
  286000   0.80467776   -7.7551054    67.359713  0.019626956   0.02002339            4 
  287000   0.81375444   -7.7698249    67.321201  0.019547387  0.019962467            3 
  288000   0.79515875   -7.7642387    67.343442   0.01948595  0.019901749            1 
  289000   0.80828023   -7.7679163    67.427641  0.019442803  0.019841775            3 
  290000    0.7916546   -7.7683638    67.477225  0.019390007  0.019781902            2 
  291000    0.8102083   -7.7543224    67.735269  0.019397271  0.019722478            3 
  292000   0.80481128   -7.7774136    67.662929  0.019310197  0.019663759            4 
  293000   0.77546359   -7.7637718    67.866316  0.019302138  0.019604933            3 
  294000   0.80701397   -7.7997206    67.841153  0.019229352  0.019546359            4 
  295000   0.81291786   -7.8231652    67.916316    0.0191854  0.019487614            2 
  296000   0.79818875   -7.8293207    67.821514  0.019093895  0.019428893            2 
  297000   0.79392981   -7.8347314    67.818612  0.019028791  0.019370213            2 
  298000   0.78509918   -7.8228566    68.007062  0.019017635  0.019311592            3 
  299000   0.77907271   -7.8183317    68.073329    0.0189725  0.019253148            5 
  300000   0.79618071    -7.809936    68.212481  0.018947911  0.019195352            2 
  301000   0.81402599   -7.8061676    68.435243  0.018946634  0.019137889            2 
  302000    0.7872439   -7.8212971    68.231247  0.018827607  0.019080691            4 
  303000   0.77708628   -7.8305932    68.586394  0.018863145  0.019023717            3 
  304000   0.77454529   -7.8359244    68.346555   0.01873535  0.018966993            2 
  305000   0.78396856   -7.8400961    68.528127  0.018723532  0.018909651            5 
  306000   0.80399941   -7.8087747    68.597559  0.018681253  0.018852546            2 
  307000   0.78410259   -7.7952898    68.765628  0.018666023  0.018796084            2 
  308000   0.78569115   -7.8505276    68.600937  0.018560859   0.01873977            3 
  309000   0.77125805    -7.864648    68.576721  0.018494261  0.018683197            3 
  310000   0.76338268   -7.8711594     68.67079   0.01845989  0.018626473            2 
  311000   0.77947863   -7.8567229    68.709501  0.018410906  0.018569942            1 
  312000   0.75518368   -7.8477286    68.819201  0.018381197  0.018513344            2 
  313000   0.78332282   -7.8754775    68.675815  0.018284296  0.018456561            1 
  314000    0.7660575   -7.8692319    68.884592  0.018281473  0.018399752            4 
  315000   0.76207176   -7.8908736    68.887238  0.018224137  0.018343508            3 
  316000   0.78051326   -7.8945753    68.976927  0.018190118  0.018287431            2 
  317000   0.75673311   -7.8981949    68.941811  0.018123504  0.018231558            2 
  318000   0.77306701   -7.9103501    68.825009  0.018035904  0.018175766            2 
  319000   0.75367752   -7.8798468    69.036786  0.018034688  0.018119792            2 
  320000   0.76893117   -7.8896021    68.992743   0.01796686   0.01806414            2 
  321000   0.74715739   -7.8981281    69.045359  0.017924548  0.018008504            3 
  322000    0.7376179   -7.8955029    68.986026  0.017853526  0.017952801            4 
  323000   0.74184307   -7.8937274    69.074828  0.017821163  0.017897359            3 
  324000   0.76697815   -7.9250834    69.066197   0.01776394  0.017841432            5 
  325000   0.75307635   -7.9256177    68.956642   0.01768119  0.017785873            5 
  326000   0.73209274   -7.9260176    68.928078  0.017619652  0.017729912            1 
  327000   0.74032015   -7.9263416    68.898827  0.017558315  0.017673601            2 
  328000   0.73682788   -7.9152658    69.081824  0.017551276  0.017617989            5 
  329000   0.73943116   -7.9286741    69.176451  0.017521897   0.01756279            3 
  330000   0.75237989   -7.9113397    69.308789  0.017502219  0.017507521            8 
  331000   0.73357393   -7.9285598    69.300046  0.017447141  0.017452584            9 
  332000   0.74314659   -7.9317932    69.094695  0.017343046  0.017397606            1 
  333000   0.73595245   -7.9346894    69.216429  0.017321429  0.017342922            3 
  334000   0.72235724   -7.9508605    69.225679  0.017271876  0.017288446            2 
  335000   0.74817812   -7.9577694    69.246638  0.017225532  0.017233963            4 
  336000   0.72357005   -7.9886824    69.347816  0.017199359  0.017179436            3 
  337000   0.72981944    -7.982749    69.273217  0.017129875  0.017124797            5 
  338000   0.71124623   -7.9501565    69.269947  0.017078389  0.017070247            2 
  339000    0.7376835   -7.9749524    69.228905  0.017017921  0.017016002            3 
  340000   0.71303276   -7.9646272     69.34821   0.01699711   0.01696215            2 
  341000    0.7242484   -7.9717013    69.436817  0.016968919  0.016908549            4 
  342000   0.71416851   -7.9726087    69.278863  0.016880815  0.016855034            3 
  343000   0.73137439   -7.9709127    69.540643    0.0168952  0.016801471            4 
  344000   0.70522544   -7.9865466    69.422182  0.016817389  0.016748027            2 
  345000   0.71155374   -8.0013477    69.322505  0.016744566  0.016694251            1 
  346000   0.71644863   -8.0238881    69.437348  0.016723832  0.016640738            4 
  347000   0.71411316   -8.0302378    69.308308  0.016644646  0.016587126            8 
  348000   0.70675282   -8.0214363    69.448906  0.016630485  0.016533766            3 
  349000    0.7065438   -7.9796843    69.580117  0.016614164  0.016480544            5 
  350000   0.72291425   -8.0145473    69.461161  0.016538372   0.01642771            3 
  351000   0.69614358   -7.9996506      69.4969  0.016499739   0.01637548            4 
  352000   0.71765295   -8.0453107    69.436348  0.016438529  0.016323029            3 
  353000    0.7063576   -8.0470167    69.536037  0.016415495  0.016270781            4 
  354000   0.70051702   -8.0651189    69.496522  0.016359821  0.016218528            2 
  355000   0.70084955   -8.0491482    69.697415  0.016360895  0.016166575            4 
  356000   0.70055726   -8.0504331    69.645808  0.016302858  0.016114729            3 
  357000   0.68669568   -8.0590123    69.620972  0.016251394  0.016062837            3 
  358000   0.69207119   -8.0537704    69.573033   0.01619484  0.016011208            3 
  359000   0.69464863   -8.0736859    69.378785  0.016104639  0.015959315            3 
  360000   0.69188775   -8.0799889    69.576657  0.016105708   0.01590755            3 
  361000   0.69207228   -8.0756044    69.566512  0.016058752  0.015855804            2 
  362000   0.68138092   -8.0565857    69.610724  0.016024568  0.015804556            3 
  363000   0.67063822   -8.0389588    69.642767  0.015987779  0.015753539            2 
  364000   0.68761735   -8.0845503    69.500314  0.015911244  0.015702676            2 
  365000    0.7015684   -8.0742676    69.561844  0.015881699  0.015651848            1 
  366000    0.6907503   -8.0728528    69.736403  0.015878052  0.015601264            2 
  367000   0.68996269   -8.0860926    69.843357  0.015859073  0.015550779            1 
  368000   0.68169919   -8.1250988    69.528123  0.015744593  0.015500305            2 
  369000   0.67122137   -8.0861292    69.812249   0.01576609  0.015450066            3 
  370000   0.66649175   -8.1035949    69.667687   0.01569092  0.015400226            2 
  371000   0.68458839   -8.0792961    69.736241  0.015664025  0.015350446            4 
  372000   0.67793953   -8.1086385    69.692096  0.015612029  0.015300742            5 
  373000   0.67577181   -8.1164319    69.571625  0.015543259  0.015250906            2 
  374000   0.67392601   -8.1029777     69.60361  0.015508826   0.01520116            3 
  375000   0.67961575   -8.1209657    69.677037  0.015483786   0.01515139            2 
  376000   0.67000944   -8.1202951    69.725256  0.015453293   0.01510184            2 
  377000   0.65402131   -8.1178287    69.698244  0.015406331  0.015052448            2 
  378000   0.65760088   -8.0995583    69.778324  0.015383228  0.015003307            2 
  379000    0.6564589   -8.1091172    69.746039  0.015335541  0.014954427            3 
  380000   0.66876138   -8.1362677    69.687578  0.015282364  0.014905538            1 
  381000   0.64935574   -8.1322988    69.761057  0.015258324  0.014856748            2 
  382000   0.66745746   -8.1339553    69.675477  0.015199711  0.014808155            3 
  383000   0.64961065   -8.1483252    69.638357  0.015151949  0.014759782            2 
  384000    0.6660079   -8.1597712    69.647035  0.015114374  0.014711503            2 
  385000   0.64288997   -8.1444589     69.63006  0.015071441  0.014663397            2 
  386000   0.65253987   -8.1370365    69.742015  0.015056566   0.01461557           12 
  387000   0.64542164   -8.1288618    69.706691  0.015010054  0.014567821            2 
  388000   0.63305934   -8.1511183    69.672367  0.014963996  0.014520271            4 
  389000   0.65062458   -8.1735762     69.61528  0.014913299  0.014472743            3 
  390000   0.65221219   -8.1771831    69.728315  0.014899213  0.014425336            6 
  391000   0.64658082   -8.1960876    69.642923  0.014842908  0.014378149            3 
  392000   0.64845834   -8.1691922    69.731352  0.014823842  0.014331004            2 
  393000   0.65024619   -8.1577841    69.670767  0.014773276  0.014284175            2 
  394000   0.64598739   -8.1691121    69.691549  0.014740175   0.01423729            5 
  395000   0.63522773   -8.1773189    69.770616  0.014719539  0.014190561            4 
  396000   0.61778173    -8.186103    69.689144  0.014665224  0.014144067            5 
  397000   0.63959926    -8.162632    69.697136  0.014629961  0.014097744            3 
  398000   0.62746619   -8.1785651    69.752866  0.014604872  0.014051623            2 
  399000   0.62651683   -8.1911632    69.886046  0.014596083   0.01400586            4 
  400000   0.62655051   -8.2062549    69.850013  0.014552086  0.013959996            2 
  401000   0.62799503   -8.2076149    69.588614  0.014461474  0.013914335            6 
  402000   0.62186116   -8.1995358    69.651169  0.014438468  0.013868647            1 
  403000   0.63513897   -8.2017011    69.719726  0.014416817  0.013823001            2 
  404000   0.61870165   -8.2218035    69.753381  0.014388074  0.013777614            2 
  405000   0.62668691   -8.2277207    69.671748  0.014335751   0.01373253            4 
  406000   0.62634567   -8.2474295    69.706312  0.014307535  0.013687468            3 
  407000   0.60774767   -8.2471395    69.553365  0.014241066  0.013642425            4 
  408000   0.63229273   -8.2322335    69.702586  0.014236639  0.013597553            2 
  409000   0.62061233   -8.2187523     69.61667  0.014184326  0.013552847            1 
  410000   0.60818869   -8.2544935    69.590901  0.014144492  0.013508205            4 
  411000   0.60104202   -8.2377066     69.64504  0.014121054  0.013463774            2 
  412000   0.61234009   -8.2643523     69.58134  0.014073896  0.013419444            3 
  413000   0.59544735   -8.2190545    69.497378  0.014022877   0.01337521            3 
  414000   0.60939079    -8.246781    69.621706  0.014014031    0.0133313            2 
  415000   0.60183788   -8.2593752    69.510638  0.013957959  0.013287423            3 
  416000    0.6007079   -8.2623736    69.592796  0.013940865  0.013243693            2 
  417000   0.61089055   -8.2533215    69.531154  0.013895115  0.013200106            3 
  418000   0.59566891   -8.2679603    69.522912   0.01386023  0.013156631            3 
  419000   0.59797985   -8.2711726    69.616931  0.013845849  0.013113342            3 
  420000   0.59445921   -8.2801026    69.596021  0.013808734  0.013070161            3 
  421000   0.59229312   -8.2908561    69.525027  0.013761882  0.013027208            3 
  422000   0.59028662   -8.2602079    69.503304  0.013724981  0.012984347            2 
  423000   0.59732389   -8.2742875    69.594295   0.01371046  0.012941594            3 
  424000   0.58314876   -8.2912131    69.634788  0.013686083  0.012898955            2 
  425000   0.59139845   -8.2986693    69.397535   0.01360736  0.012856354            4 
  426000   0.58399636   -8.2903376    69.551864  0.013605607  0.012813946            5 
  427000   0.58588034   -8.2742647    69.413395   0.01354672  0.012771694            2 
  428000    0.5834163    -8.284994    69.341944  0.013501157  0.012729606            1 
  429000   0.59926961   -8.2895237    69.507223  0.013501792  0.012687689            2 
  430000   0.58528693   -8.3001478    69.361048  0.013442063  0.012645991            2 
  431000   0.59101607   -8.3143799    69.444265  0.013426965   0.01260429            5 
  432000   0.55732667    -8.290754     69.55288  0.013416836  0.012562812            3 
  433000   0.58485131   -8.3047227    69.470233  0.013369945  0.012521476            2 
  434000   0.57674535   -8.3159914    69.430331  0.013331477  0.012480336            5 
  435000   0.55974355   -8.3312067    69.292912  0.013274504  0.012439295            3 
  436000   0.58120188   -8.3229365    69.407667  0.013265991  0.012398306            3 
  437000   0.56312257   -8.3181851    69.245855  0.013204778    0.0123575            4 
  438000    0.5759064   -8.3340563    69.465349  0.013216391  0.012316816            3 
  439000   0.57946429   -8.3395967    69.442471  0.013181942  0.012276272            1 
  440000   0.56273547   -8.3365967    69.332174  0.013131094  0.012235815            4 
  441000   0.55883386   -8.3127218    69.520193  0.013136847  0.012195571            3 
  442000    0.5703304   -8.3438741    69.342685  0.013073659  0.012155472            4 
  443000   0.55306795    -8.328217    69.393265  0.013053662  0.012115539            3 
  444000   0.55275575    -8.335537    69.321066   0.01301071  0.012075784            3 
  445000   0.55250643   -8.3642697      69.3779  0.012992116  0.012036152            2 
  446000   0.55287407   -8.3378502    69.338042  0.012955538  0.011996587            3 
  447000   0.56647699   -8.3391597    69.350934  0.012928959  0.011957331            4 
  448000   0.55073559    -8.330482    69.423121  0.012913527  0.011918132            4 
  449000   0.55663413   -8.3577047    69.212763  0.012845724  0.011879107            3 
  450000   0.55287265    -8.377681    69.406666  0.012853086  0.011840121            5 
  451000   0.54270332   -8.3399433     69.32494  0.012809486  0.011801325            4 
  452000   0.54580538   -8.3747678    69.261954  0.012769534  0.011762714            5 
  453000   0.54686716   -8.3722927    69.325843  0.012753098  0.011724222            2 
  454000   0.53174896     -8.36547    69.407608  0.012740016  0.011685835            2 
  455000   0.55274587   -8.3620746    69.245982  0.012682414  0.011647591            2 
  456000   0.53885291   -8.3775769    69.269844  0.012658963  0.011609498            2 
  457000   0.53266216    -8.368837    69.223027  0.012622726  0.011571569            4 
  458000   0.53161295   -8.3592018    69.250851  0.012600228  0.011533778            1 
  459000   0.53401348   -8.3824527    69.246902  0.012572059  0.011496139            4 
  460000   0.54631187   -8.4018451    69.299635  0.012554282  0.011458605            5 
  461000   0.52478637   -8.3858616    69.117545  0.012494133  0.011421159            2 
  462000   0.53152103   -8.4158748    69.201433  0.012482221  0.011383869            2 
  463000   0.51565251   -8.3871541    69.150829  0.012446153  0.011346781            2 
  464000   0.53553085   -8.3856259    69.245291  0.012436295  0.011309775            1 
  465000   0.52374023   -8.4008998    69.184127  0.012398589  0.011273015            3 
  466000   0.51714151   -8.4152308    69.286423  0.012390276  0.011236328            2 
  467000   0.52357671   -8.4035369    69.179778  0.012344714  0.011199738            2 
  468000   0.51081139   -8.4079431    69.224151  0.012326238   0.01116331            2 
  469000   0.51806552   -8.3998762    69.177266  0.012291625  0.011127012            3 
  470000   0.52523944   -8.4130403    69.159969  0.012262406  0.011090924            2 
  471000   0.51496428   -8.4053442    69.187197  0.012241188  0.011054933            2 
  472000   0.51889993    -8.413213    69.114838  0.012202478  0.011019121            3 
  473000   0.51052925   -8.4279765    69.241082  0.012198922  0.010983478            2 
  474000   0.51682457   -8.4048412    69.157431  0.012158479  0.010947978            2 
  475000    0.5068994   -8.4211453    69.149244  0.012131446  0.010912587            5 
  476000   0.50843294   -8.4353254    69.142125  0.012104714   0.01087732            3 
  477000   0.49324272   -8.4306883    69.108906  0.012073534  0.010842096            4 
  478000   0.49558266   -8.4215898    69.099458  0.012046628  0.010806959            5 
  479000   0.49232478   -8.4360968    69.022714  0.012008127  0.010772001            3 
  480000   0.50342963   -8.4424273    69.056195  0.011988923   0.01073713            4 
  481000   0.50751689    -8.460032     69.10657  0.011972725  0.010702413            3 
  482000   0.50201394   -8.4310272    69.096636  0.011946168  0.010667808            3 
  483000   0.49428834    -8.444334     69.01456  0.011907274  0.010633355            3 
  484000   0.49920128   -8.4432436    68.987553  0.011878022  0.010599033            6 
  485000   0.49708462   -8.4418771    69.092717  0.011871601  0.010564849            2 
  486000   0.48735547   -8.4502393    68.895442  0.011813347   0.01053079            9 
  487000   0.47900699   -8.4638841     68.97828  0.011803265  0.010496913            3 
  488000    0.4997822   -8.4451324    68.955998  0.011775273  0.010463129            2 
  489000   0.48514415    -8.478734    69.046316  0.011766584  0.010429444            5 
  490000   0.48485318    -8.449088    69.049353  0.011743087  0.010395952            5 
  491000   0.49378023   -8.4675768    68.890178  0.011692155   0.01036256            3 
  492000   0.47296888    -8.476879    69.057961  0.011696809  0.010329239            2 
  493000   0.48943207   -8.4634539    68.841304  0.011636461  0.010296082            3 
  494000    0.4826503   -8.4871519    68.941287  0.011629772  0.010263032            3 
  495000   0.48009713   -8.4763654    68.951298  0.011607963  0.010230128            3 
  496000   0.48050499   -8.4729317    68.950405  0.011584409  0.010197344            2 
  497000   0.47393326   -8.4788715    68.860616  0.011546046  0.010164739            4 
  498000   0.48108877   -8.4807131    68.854552  0.011521846  0.010132201            2 
  499000   0.47607479   -8.4821022    68.932239   0.01151173  0.010099757            2 
  500000   0.47947045   -8.4758707    68.881029  0.011480172  0.010067455            2 
  501000   0.46308141   -8.4786219     68.85112  0.011452282  0.010035258            3 
  502000   0.45974621   -8.5025079    68.913066  0.011439752  0.010003222            2 
  503000   0.47006665   -8.5032394    68.782072  0.011395307 0.0099712864            3 
  504000   0.46219274   -8.5012712    68.872296  0.011387615 0.0099394642            2 
  505000   0.45669247   -8.4974451     68.84226  0.011360109 0.0099077679            2 
  506000   0.46479585   -8.5101962    68.869858  0.011342203 0.0098762499            2 
  507000   0.45883507   -8.4993932    68.736238  0.011297869 0.0098449045            3 
  508000   0.45182892   -8.5060771    68.820086  0.011289384 0.0098136196            1 
  509000   0.45110595   -8.4977605    68.825679   0.01126812 0.0097825073            4 
  510000   0.45251332    -8.522905    68.787267  0.011239749 0.0097514819            5 
  511000   0.45140426   -8.5076568    68.676269  0.011199652  0.009720603            3 
  512000   0.44967939   -8.5229646    68.844227  0.011205115  0.009689804            2 
Loop time of 1178.72 on 48 procs for 500000 steps with 4000 atoms

Performance: 73299.551 tau/day, 424.187 timesteps/s
99.4% CPU use with 48 MPI tasks x no OpenMP threads

MPI task timing breakdown:
Section |  min time  |  avg time  |  max time  |%varavg| %total
---------------------------------------------------------------
Pair    | 71.644     | 77.715     | 82.342     |  31.2 |  6.59
Neigh   | 7.6456     | 8.0717     | 8.5166     |   6.9 |  0.68
Comm    | 76.208     | 81.04      | 88.281     |  35.7 |  6.88
Output  | 4.4278     | 4.4283     | 4.4362     |   0.1 |  0.38
Modify  | 993.72     | 996.41     | 999.13     |   3.8 | 84.53
Other   |            | 11.06      |            |       |  0.94

Nlocal:        83.3333 ave          89 max          76 min
Histogram: 4 1 1 6 5 7 11 3 7 3
Nghost:        2023.79 ave        2046 max        2002 min
Histogram: 4 5 6 0 8 6 8 5 3 3
Neighs:        12985.0 ave       14265 max       11283 min
Histogram: 1 4 3 3 8 6 6 6 6 5
FullNghs:      25970.4 ave       27854 max       23403 min
Histogram: 3 3 1 3 8 6 10 2 6 6

Total # of neighbors = 1246578
Ave neighs/atom = 311.64450
Neighbor list builds = 26802
Dangerous builds = 0

#clear
#
#next RN
#
#jump SELF
Total wall time: 0:19:41
