
units lj                  # Use reduced LJ style units
atom_style atomic         # Uncharged point particles
atom_modify map hash      # Needed for indexing of clusters etc
                          # Used to be able to find where atoms are in relation to each other.

lattice fcc 1.0 spacing 1 1 1
Lattice spacing in x,y,z = 1.5874011 1.5874011 1.5874011
region box block 0 10 0 10 0 10 units lattice
create_box 2 box
Created orthogonal box = (0.0000000 0.0000000 0.0000000) to (15.874011 15.874011 15.874011)
  3 by 4 by 4 MPI processor grid
create_atoms 1 box
Created 4000 atoms
  using lattice units in orthogonal box = (0.0000000 0.0000000 0.0000000) to (15.874011 15.874011 15.874011)
  create_atoms CPU = 0.026 seconds
set type 1 type/fraction 2 0.84 78393
Setting atom values ...
  3354 settings made for type/fraction
mass 1 1.0
mass 2 1.0
pair_style lj/cut  3.5
pair_modify tail  yes
pair_coeff 1  1  1.0  1.0   # Intearaction between 1 and 1 set with epsilon = 1 and sigma = 1
pair_coeff 1  2  1.5  0.8
pair_coeff 2  2  0.5  0.88

write_data data.0
System init for write_data ...
Neighbor list info ...
  update every 1 steps, delay 10 steps, check yes
  max neighbors/atom: 2000, page size: 100000
  master list distance cutoff = 3.8
  ghost atom cutoff = 3.8
  binsize = 1.9, bins = 9 9 9
  1 neighbor lists, perpetual/occasional/extra = 1 0 0
  (1) pair lj/cut, perpetual
      attributes: half, newton on
      pair build: half/bin/atomonly/newton
      stencil: half/bin/3d
      bin: standard
WARNING: Not all mixed pair coeffs generated from mixing. Use write_data with 'pair ij' option to store all pair coeffs. (../write_data.cpp:312)


#############################
#   M E L T   S Y S T E M   #
#############################

velocity all create 2.4 5833274 mom yes dist gaussian # Assign velocities
                                                    # Temperature 2.4, random number seed, zero linear momentum
                                                                                # Gaussian distribution

timestep 0.002   # simulation timestep
thermo 1000       # output thermodynamic data every 1000 steps bf 100

# Define a fix  in this case with index 1 applied to all
# particles in the simulation. This fix is for simulations
# in the anisotropic NPT ensemble. Note that we use the MTK
# correction.
fix 1 all npt temp 2.4 2.4 0.1 iso 5.68 5.68 0.5 mtk yes tchain 5 pchain 5 # Use NPT ensemble
                                                                         # Set temperature and pressure and damping
                                                                         # Numbers of thermostats in chain and in barostat
run 10000          # run for 10000 steps
Per MPI rank memory allocation (min/avg/max) = 3.642 | 3.644 | 3.648 Mbytes
Step Temp E_pair E_mol TotEng Press Volume 
       0          2.4   -3.4880302            0   0.11106983   -3.0192302         4000 
    1000    2.3952445   -2.7475367            0   0.84443177    5.5619416    3871.2557 
    2000    2.3965633    -2.719197            0   0.87474921    5.7518943    3866.0824 
    3000    2.3925682   -2.7837143            0   0.80424076    5.3798656    3874.7243 
    4000    2.3970906    -2.748593            0   0.84614396    5.6686748     3851.937 
    5000    2.4156669   -2.6972619            0   0.92533265    6.0034626    3844.9862 
    6000    2.4099162   -2.7035468            0   0.91042386    5.7349918    3880.6491 
    7000    2.3853814   -2.7065277            0   0.87064997    5.5345546    3892.7111 
    8000    2.3997154   -2.6889948            0   0.90967838    5.6678433    3887.1591 
    9000    2.4351906   -2.6933139            0   0.95855885    5.7009274    3894.3634 
   10000    2.4019725    -2.696483            0   0.90557492    5.8209763    3866.0109 
Loop time of 2.59659 on 48 procs for 10000 steps with 4000 atoms

Performance: 665487.347 tau/day, 3851.200 timesteps/s
99.6% CPU use with 48 MPI tasks x no OpenMP threads

MPI task timing breakdown:
Section |  min time  |  avg time  |  max time  |%varavg| %total
---------------------------------------------------------------
Pair    | 1.1179     | 1.2109     | 1.3548     |   3.5 | 46.63
Neigh   | 0.21277    | 0.22075    | 0.24838    |   1.3 |  8.50
Comm    | 0.75061    | 0.89004    | 0.98797    |   5.0 | 34.28
Output  | 0.00025175 | 0.00025786 | 0.00032706 |   0.0 |  0.01
Modify  | 0.21212    | 0.25905    | 0.30555    |   5.3 |  9.98
Other   |            | 0.0156     |            |       |  0.60

Nlocal:        83.3333 ave         100 max          75 min
Histogram: 5 5 8 13 11 3 2 0 0 1
Nghost:        1675.62 ave        1697 max        1653 min
Histogram: 2 2 5 5 7 12 4 6 1 4
Neighs:        9856.67 ave       12028 max        8648 min
Histogram: 3 5 7 16 10 3 2 1 0 1

Total # of neighbors = 473120
Ave neighs/atom = 118.28000
Neighbor list builds = 906
Dangerous builds = 219

# Equilibrate just above the melting temperature to avoid step fn in T

fix 1 all npt temp 1.25 1.25 0.1 iso 5.68 5.68 0.5 mtk yes tchain 5 pchain 5
run 2000
Per MPI rank memory allocation (min/avg/max) = 3.643 | 3.645 | 3.649 Mbytes
Step Temp E_pair E_mol TotEng Press Volume 
   10000    2.4019725    -2.696483            0   0.90557492    5.8209763    3866.0109 
   11000     1.248946   -4.0411967            0    -2.168246    5.6086519    2985.1833 
   12000    1.2682107   -4.0027229            0   -2.1008825    5.7579848    2990.9608 
Loop time of 0.639616 on 48 procs for 2000 steps with 4000 atoms

Performance: 540323.907 tau/day, 3126.874 timesteps/s
99.6% CPU use with 48 MPI tasks x no OpenMP threads

MPI task timing breakdown:
Section |  min time  |  avg time  |  max time  |%varavg| %total
---------------------------------------------------------------
Pair    | 0.28483    | 0.30957    | 0.33597    |   2.0 | 48.40
Neigh   | 0.041007   | 0.043014   | 0.044966   |   0.5 |  6.72
Comm    | 0.21033    | 0.23461    | 0.26777    |   2.5 | 36.68
Output  | 5.3467e-05 | 5.5299e-05 | 7.3486e-05 |   0.0 |  0.01
Modify  | 0.04047    | 0.047407   | 0.053589   |   1.9 |  7.41
Other   |            | 0.004958   |            |       |  0.78

Nlocal:        83.3333 ave          91 max          76 min
Histogram: 2 1 8 3 12 7 7 2 4 2
Nghost:        1995.46 ave        2015 max        1978 min
Histogram: 2 0 10 7 7 9 8 2 1 2
Neighs:        12770.9 ave       14059 max       11059 min
Histogram: 2 0 3 1 12 8 9 8 3 2

Total # of neighbors = 613005
Ave neighs/atom = 153.25125
Neighbor list builds = 143
Dangerous builds = 22

#############################
# L I N E A R  Q U E N C H  #
#############################

# Define solid atoms. This closely follows ten Wolde  Ruiz-Montero and Frenkel  Faraday Discuss  1996  104  93-110
# Compute components of the per-atom q6 vector
compute q6 all orientorder/atom degrees 1 6 components 6 nnn NULL cutoff 1.3 # compute the Q6 parameter.
                                                                             # Use all neighbours within 1.3 unit cell.

# get number of connections
compute coord_number all coord/atom orientorder q6 0.5

# An atom is solid if it has 8 or more connections (of a possible 14)
variable is_solid atom c_coord_number>=8
group solid dynamic all var is_solid    # Must be dynamic to update
dynamic group solid defined

# do clustering
compute cluster solid cluster/atom 1.3 # Create a cluster where all atoms within are solid and max 1.3 units from another member

# define chunks one chunk per cluster
compute clus_chunks solid chunk/atom c_cluster nchunk every compress yes  # Says which atoms are in which chunk

# count the size of each chunk
compute size_chunks solid property/chunk clus_chunks count


# Find the maximum entry in the vector of chunk sizes
variable max_n equal max(c_size_chunks)


# Thermo style which includes this variable
# thermo_style custom step temp pe vol v_max_n

thermo ${N}  # Print the thermo information every 100 steps
thermo 1000  

# Reset the npt fix at a lower temperature (below freezing)
fix 1  all npt temp  ${temp} ${temp}  0.1  iso  5.68  5.68  0.5  mtk yes tchain  5  pchain  5
fix 1  all npt temp  0.45 ${temp}  0.1  iso  5.68  5.68  0.5  mtk yes tchain  5  pchain  5
fix 1  all npt temp  0.45 0.45  0.1  iso  5.68  5.68  0.5  mtk yes tchain  5  pchain  5

dump dmp2 all dcd ${N} traj.dcd
dump dmp2 all dcd 1000 traj.dcd


compute msd all msd com yes
variable twopoint equal c_msd[4]/6/(step*dt+1.0e-6)
fix 9 all vector 10 c_msd[4]
variable fit equal slope(f_9)/6/(10*dt)
thermo_style custom step temp pe c_msd[4] v_twopoint v_fit v_max_n

fix 1 all npt temp 1.25 ${temp} 0.1 iso 5.68 5.68 0.5 mtk yes tchain 5 pchain 5
fix 1 all npt temp 1.25 0.45 0.1 iso 5.68 5.68 0.5 mtk yes tchain 5 pchain 5
run 500000 # 5000000  # Run for this many steps
Neighbor list info ...
  update every 1 steps, delay 10 steps, check yes
  max neighbors/atom: 2000, page size: 100000
  master list distance cutoff = 3.8
  ghost atom cutoff = 3.8
  binsize = 1.9, bins = 8 8 8
  4 neighbor lists, perpetual/occasional/extra = 1 3 0
  (1) pair lj/cut, perpetual
      attributes: half, newton on
      pair build: half/bin/atomonly/newton
      stencil: half/bin/3d
      bin: standard
  (2) compute orientorder/atom, occasional
      attributes: full, newton on
      pair build: full/bin/atomonly
      stencil: full/bin/3d
      bin: standard
  (3) compute coord/atom, occasional
      attributes: full, newton on
      pair build: full/bin/atomonly
      stencil: full/bin/3d
      bin: standard
  (4) compute cluster/atom, occasional
      attributes: full, newton on
      pair build: full/bin/atomonly
      stencil: full/bin/3d
      bin: standard
Per MPI rank memory allocation (min/avg/max) = 9.827 | 9.835 | 9.841 Mbytes
Step Temp PotEng c_msd[4] v_twopoint v_fit v_max_n 
   12000    1.2682107   -4.0027229            0            0 8.3333333e+20            2 
   13000    1.2516464   -3.9978235   0.87868174 0.0056325751  0.073516912            2 
   14000    1.2488891   -4.0084579    1.7723288  0.010549576  0.073482265            1 
   15000    1.2513685   -4.0296599    2.7156101  0.015086723  0.076173646            2 
   16000    1.2307166   -4.0400513    3.5775066  0.018632846  0.076152539            2 
   17000    1.2454509   -4.0445151    4.4689566  0.021906649   0.07568965            1 
   18000     1.256345   -4.0640306    5.3544708  0.024789216  0.075282515            2 
   19000    1.2233352   -4.0244163    6.3646948  0.027915327  0.075470555            2 
   20000    1.2308326   -4.0318592    7.2184042  0.030076684  0.075713502            2 
   21000    1.2530028   -4.1035408    8.1128717  0.032193934  0.075830947            2 
   22000    1.2378748   -4.0704205    8.9872578  0.034042642  0.075915767            2 
   23000    1.2418834    -4.081631    9.8830205  0.035808044  0.075718849            1 
   24000    1.2576085   -4.0520163    10.798995  0.037496509  0.075592902            2 
   25000    1.2433249   -4.0379324    11.762521  0.039208404  0.075515618            1 
   26000    1.2361833   -4.0833338    12.718373  0.040764015  0.075485298            3 
   27000    1.2242067   -4.0345991    13.620441  0.042038398  0.075649538            1 
   28000    1.2211309   -4.0615075    14.539032  0.043270928  0.075735331            3 
   29000    1.2127849   -4.0768485     15.51846  0.044593274  0.075814307            1 
   30000    1.2270267   -4.0775611    16.356285  0.045434124  0.075862596            2 
   31000    1.2622647   -4.1008021    17.246626  0.046361898  0.075873491            1 
   32000    1.2245244    -4.088926    18.094134  0.047120139  0.075902204            5 
   33000    1.1864122   -4.0832027     18.94337  0.047836793  0.075829557            1 
   34000    1.2085487   -4.0746181    19.787264  0.048498194  0.075622841            3 
   35000    1.2098584   -4.0983283    20.480255  0.048762512  0.075359456            2 
   36000    1.1925667   -4.1104018    21.454503  0.049663201  0.075097394            5 
   37000    1.1813457   -4.0663626    22.245857  0.050103281  0.074883522            2 
   38000    1.1984627   -4.0937172    23.071929  0.050596336  0.074616328            2 
   39000    1.1892044   -4.0948091    23.941868  0.051157836  0.074456897            2 
   40000    1.1768468   -4.0970137    24.681671  0.051420146  0.074264778            2 
   41000    1.1749828   -4.0918452    25.565436  0.051962267  0.074039055            2 
   42000    1.2023003   -4.1188291    26.429278  0.052439042  0.073829425            2 
   43000    1.2169817   -4.0934569    27.201036  0.052715186  0.073594819            1 
   44000    1.1753687   -4.0720626     27.92444  0.052887197  0.073369019            2 
   45000    1.1924327   -4.0611021    28.819562  0.053369559  0.073145899            2 
   46000    1.1817852   -4.1087634    29.556992  0.053545275  0.072946473            3 
   47000    1.2189682   -4.1205878    30.323528   0.05376512  0.072741042            1 
   48000    1.2067803   -4.1345045    31.247909  0.054249841  0.072579261            4 
   49000    1.1827512   -4.1236395    32.289896  0.054914789  0.072453474            2 
   50000    1.1932572   -4.1068519    33.229777  0.055382961  0.072387367            2 
   51000    1.2194704   -4.1432865    33.824804  0.055269286  0.072301146            3 
   52000     1.197345   -4.1349747    34.814403  0.055792313  0.072250363            3 
   53000    1.1551482   -4.1183197    35.708036  0.056144711  0.072206726            3 
   54000    1.1830316   -4.1277969    36.219768  0.055894703  0.072124098            3 
   55000    1.1794408    -4.150865    36.943128  0.055974436  0.072000947            3 
   56000    1.1830854    -4.109346    38.008697   0.05656056  0.071888342            3 
   57000     1.165802    -4.154625    38.653141   0.05651044  0.071746338            1 
   58000    1.1929489   -4.1344498    39.601947  0.056899349  0.071630431            2 
   59000    1.1822253   -4.1515982    40.341383  0.056979354  0.071536681            2 
   60000    1.1779385   -4.1535908    41.260838  0.057306719     0.071445            1 
   61000    1.1892891   -4.1586396    41.981892  0.057352311  0.071350696            4 
   62000    1.1543395   -4.1701933    43.030044   0.05783608  0.071267093            1 
   63000    1.1797883   -4.1786811     43.99638  0.058196269  0.071204205            1 
   64000    1.1771498   -4.1675079    44.890556  0.058451244  0.071172429            2 
   65000    1.1759394   -4.1739445    45.724368  0.058620985  0.071130779            1 
   66000     1.184168   -4.1623893    46.395498  0.058580174  0.071079614            5 
   67000    1.1615216   -4.1597613    47.392808  0.058946278  0.071040183            2 
   68000    1.1699629   -4.1873162    47.868519  0.058662401  0.070993158            2 
   69000     1.122773   -4.1791171     48.58668  0.058679564  0.070914385            1 
   70000    1.1762548   -4.1431961     49.67917  0.059141869  0.070855665            3 
   71000    1.1675218   -4.2239135    50.226596  0.058951404  0.070789302            7 
   72000    1.1723566   -4.1573297    51.295188   0.05936943  0.070729639            6 
   73000    1.1546789    -4.218279    51.729738  0.059052212  0.070648252            4 
   74000    1.1738308   -4.2017012    52.933822   0.05961016  0.070594238            3 
   75000    1.1611743   -4.2077423    53.555675  0.059506305  0.070561893            2 
   76000    1.1242607   -4.2068978    54.249575  0.059484183  0.070523191            2 
   77000    1.1762945   -4.1854826    55.175934  0.059714214  0.070463954            1 
   78000    1.1296999   -4.1789921    55.690348  0.059498235  0.070397126            1 
   79000    1.1616686   -4.2084938    56.641881  0.059748819  0.070305997            2 
   80000    1.1619182   -4.2160877    57.247876  0.059633204  0.070228063            4 
   81000    1.1462279   -4.2284022     58.24369  0.059921491  0.070135582            1 
   82000    1.1346517   -4.2114231    58.915784  0.059873764  0.070051567            8 
   83000    1.1574032   -4.2466399    59.517994  0.059757022  0.069970495            2 
   84000    1.1517009   -4.2050161    60.333587  0.059854749  0.069884139            1 
   85000    1.1130472   -4.2273573    60.814982  0.059622531    0.0697768            5 
   86000    1.1682898   -4.1833319    62.054678  0.060130502  0.069669339            2 
   87000     1.138349   -4.2151813    62.441383  0.059809753  0.069577474            2 
   88000    1.1336907    -4.243061    63.097464  0.059751386  0.069469683            1 
   89000    1.1304332   -4.2354205    63.638214  0.059586342  0.069347286            2 
   90000    1.1348732   -4.2376894    64.248601  0.059489445  0.069221435            1 
   91000    1.1363506   -4.2760982    64.891452  0.059424407  0.069105098            3 
   92000    1.1315048   -4.2469171    65.882816  0.059676464  0.068989138            2 
   93000    1.1339326   -4.2351792    66.469358  0.059560357  0.068860355            2 
   94000    1.1100276   -4.2356923    67.069777  0.059459022  0.068729619            3 
   95000    1.1005292   -4.2310331    67.696313  0.059382731  0.068594579            3 
   96000    1.1265193   -4.2118758    68.687234  0.059624335  0.068459829            7 
   97000    1.1241956   -4.2643221    69.050586  0.059321809  0.068318252            3 
   98000    1.1153803   -4.2536854    69.223129  0.058863204  0.068157353            2 
   99000    1.1106495   -4.2645498    69.967027  0.058894804  0.067994284            1 
  100000    1.0975428    -4.244426    70.582884   0.05881907  0.067823397            2 
  101000    1.1104003   -4.2169792    71.890312  0.059315439   0.06767471            2 
  102000    1.1235273   -4.2673353    72.353693  0.059112494  0.067523925            2 
  103000    1.1029393   -4.2821678    72.429059  0.058599562  0.067369878            1 
  104000    1.0848768   -4.2716993    73.135665  0.058602296  0.067210493            2 
  105000    1.1066759   -4.2846119    74.257731  0.058934707  0.067056825            1 
  106000    1.0828775   -4.2844192     74.44341  0.058524693  0.066904303            3 
  107000    1.1061396   -4.2913123    74.874637   0.05831358  0.066732559            2 
  108000     1.103963   -4.2537302    76.054651  0.058684144  0.066565849            4 
  109000    1.0813927   -4.2806969    76.499614  0.058485943  0.066409736            3 
  110000     1.102528   -4.2724375    77.473549  0.058692082  0.066258564            2 
  111000     1.072598    -4.307631    77.689989  0.058325818  0.066116655            5 
  112000    1.1023884   -4.2857505    78.613107  0.058491895  0.065977717            1 
  113000     1.085606   -4.2913382     79.39338   0.05854969  0.065838334            1 
  114000    1.1019603    -4.309341    79.926493  0.058425799  0.065706785            3 
  115000     1.095355   -4.3113134    80.983651  0.058683804  0.065583773            3 
  116000    1.0809916   -4.3018761    81.737599  0.058719539  0.065467184            1 
  117000    1.0881217   -4.2863976    82.554447  0.058799463  0.065357274            1 
  118000    1.0873808   -4.2799213    83.068512  0.058664203  0.065248316            1 
  119000    1.0894811   -4.3076433    83.277347  0.058317469  0.065131022            3 
  120000    1.0552381    -4.305765    83.869812  0.058242925  0.065015249            2 
  121000    1.0632948   -4.2798086    84.879702  0.058457095  0.064900858            1 
  122000    1.0863221   -4.3384682    85.691341  0.058532336  0.064793057            3 
  123000    1.1011475   -4.3113158    86.286465  0.058459664  0.064689663            3 
  124000    1.0846807   -4.3143487    86.907797  0.058405777  0.064587091            3 
  125000     1.077274   -4.3372133    87.642759  0.058428505  0.064476908            3 
  126000    1.0492457    -4.325429    88.267354  0.058377879  0.064374188            1 
  127000    1.0676123   -4.3307377    88.736214  0.058225862   0.06426684            3 
  128000    1.0524371   -4.3334355    89.160875  0.058047445   0.06414843            2 
  129000    1.0754709   -4.3800341    89.101986  0.057559422  0.064022461            4 
  130000    1.0640793   -4.3457401    90.023862  0.057707603  0.063896167            2 
  131000    1.0624346   -4.3496638     90.89392  0.057820559  0.063774242            7 
  132000    1.0463706    -4.343489    91.348357  0.057669417  0.063655996            1 
  133000    1.0511622   -4.3337555    91.923592  0.057596235  0.063527374            2 
  134000    1.0325859   -4.3041393    92.825853   0.05772752  0.063401527            3 
  135000    1.0753767   -4.3221563    93.148521  0.057499087  0.063271009            3 
  136000    1.0309902   -4.3479379    93.353987  0.057202198  0.063134639            5 
  137000     1.056825   -4.3240094     94.11484  0.057247469  0.062992589            5 
  138000    1.0385759   -4.3160474    93.737971  0.056605055  0.062850035            3 
  139000    1.0547162   -4.3266825    95.206998  0.057078536  0.062705935            3 
  140000    1.0608542   -4.3708056    95.188341  0.056659727  0.062564132            2 
  141000    1.0408441   -4.3610096    96.047902  0.056765899  0.062417288            3 
  142000    1.0394712   -4.3371118    96.668607  0.056730403  0.062276334            4 
  143000    1.0458749   -4.3674444     96.74993  0.056381078  0.062139766            3 
  144000    1.0309117   -4.4158231    97.514742  0.056432142  0.062002232            2 
  145000    1.0457618   -4.3786862    98.081907  0.056368912  0.061857422            3 
  146000    1.0427866   -4.4104939    98.484659  0.056212705  0.061715813            3 
  147000    1.0350776     -4.39253    99.289576  0.056286608  0.061579889            6 
  148000    1.0261061   -4.3963991    99.522877  0.056037655  0.061444301            5 
  149000    1.0266245   -4.3703671    100.52376   0.05622134  0.061309472            3 
  150000    1.0383367   -4.4035529    101.09811  0.056165615  0.061180351            4 
  151000    1.0267423   -4.4011411    101.36692  0.055942008  0.061055707            3 
  152000    1.0345963    -4.396867    102.22623  0.056045083   0.06092713            3 
  153000    1.0456876   -4.4205086    102.62526  0.055896113  0.060804593            3 
  154000    1.0304891   -4.3824528    103.28802  0.055891787  0.060677622            3 
  155000     1.013114   -4.4027073    103.91703  0.055869369   0.06054932            2 
  156000    1.0237475   -4.4107837    104.26902  0.055699265  0.060422037            3 
  157000    1.0271082   -4.4129261    104.39138  0.055409439  0.060295408            6 
  158000    1.0165209   -4.4020229    105.18177  0.055475617  0.060167354            2 
  159000    1.0009971    -4.443498    105.36244  0.055221402  0.060037036            3 
  160000    1.0184955   -4.4042532    106.50369   0.05547067  0.059910959            3 
  161000    1.0214065   -4.4409126    106.87622  0.055318955  0.059797147            3 
  162000    1.0266503   -4.4156901    107.27367  0.055181929  0.059679812            6 
  163000   0.99326917   -4.4030523    108.03333  0.055231765   0.05956007            6 
  164000    1.0083299   -4.4494541    108.22554   0.05499265  0.059440854            5 
  165000    1.0203319   -4.4336885    108.68043  0.054889105  0.059316744            4 
  166000    0.9892197   -4.4122178    109.80864  0.055124818  0.059201708            2 
  167000    1.0046156   -4.4226326    110.24433  0.055012141  0.059087075            3 
  168000   0.98753922   -4.4575247    110.25081  0.054687902  0.058967672            2 
  169000    1.0250793   -4.4787418    110.69298  0.054582336  0.058850407            5 
  170000    1.0019355    -4.446779    111.38838  0.054602147  0.058730065            7 
  171000   0.97803773   -4.4505113    111.55316  0.054363139  0.058608682            1 
  172000    1.0094798   -4.4483215    112.32745  0.054422216   0.05848887            6 
  173000    1.0003854   -4.4767763     112.6965  0.054285406  0.058369865            3 
  174000   0.99411422   -4.4622121    113.20908  0.054218909  0.058251768            4 
  175000    1.0027446   -4.4568766      113.727  0.054155712  0.058132481            3 
  176000    1.0034098   -4.4687978    114.34735  0.054141739  0.058016834            2 
  177000    0.9747235   -4.4902609    114.44368  0.053881204  0.057900358            4 
  178000   0.98104019   -4.4646421    115.59343  0.054116775  0.057785829            2 
  179000   0.97725723    -4.469793    116.53934  0.054254814  0.057674329            3 
  180000    0.9856233   -4.4900967    116.40015   0.05388896  0.057563709            5 
  181000    0.9834865   -4.4570667    117.36689  0.054036323  0.057453972            7 
  182000   0.96957977   -4.4834762    116.96454  0.053555194  0.057342012            6 
  183000   0.96904782   -4.4989879     117.3457  0.053436111  0.057229544            3 
  184000   0.97994345   -4.4884445    118.14349  0.053507015  0.057115179            3 
  185000   0.99137329   -4.4899105    118.64073  0.053441769  0.056998844            5 
  186000   0.97505785   -4.5060966    119.11489  0.053366887  0.056885537            3 
  187000   0.96018365   -4.4750129    119.46863  0.053239138  0.056773201            3 
  188000    0.9621037   -4.5307015    119.72372  0.053069023   0.05665657            5 
  189000   0.96873229   -4.5075762     120.1314   0.05296799  0.056543486            4 
  190000   0.95075605   -4.5170609    120.96097  0.053053055  0.056430323            3 
  191000   0.96430341    -4.502779    121.30387  0.052924901  0.056320584            2 
  192000   0.95140664   -4.5094501    122.49735  0.053167251   0.05621246            5 
  193000    0.9662074   -4.4937925    122.80624  0.053025146  0.056105328            2 
  194000   0.98713063   -4.5361978    122.78796   0.05274397  0.055995207            3 
  195000   0.96041123    -4.512073    123.73836  0.052879642  0.055887399            3 
  196000   0.93556684   -4.5243579    123.47296  0.052497005  0.055781191            5 
  197000   0.93601284   -4.5427835    123.80458  0.052370802    0.0556719            3 
  198000   0.93241589   -4.5188428    124.95656  0.052591143  0.055563623            6 
  199000   0.95183608   -4.5243983    125.25227  0.052450699  0.055457111           10 
  200000   0.97171849   -4.5305504    125.94396  0.052476651  0.055350838            6 
  201000   0.93889721    -4.526417     126.5942  0.052485159  0.055247222            7 
  202000   0.94905059    -4.558004    126.85351  0.052332308  0.055147171            3 
  203000   0.94985356   -4.5591875    127.18785  0.052211761  0.055044205            4 
  204000   0.96107483   -4.5857461    127.52723  0.052094458  0.054941841            3 
  205000    0.9420136   -4.5552375    128.29022  0.052150497  0.054838626            5 
  206000   0.91288801   -4.5775853    128.73307  0.052076484  0.054736438            6 
  207000   0.95515879    -4.549008    129.39855  0.052092813   0.05463721            4 
  208000   0.92058825   -4.5587855    129.23571  0.051777126  0.054535396            4 
  209000   0.93716212     -4.52076    130.61534  0.052079482  0.054436142            4 
  210000   0.95251991   -4.5667851    130.63711  0.051840125  0.054336913            5 
  211000   0.94427831    -4.562464    130.59635  0.051578338  0.054238326            4 
  212000   0.94126774   -4.5877619    131.25844  0.051595298  0.054137611            3 
  213000   0.92249478    -4.546511    132.23893  0.051736671  0.054042285            3 
  214000   0.91498203   -4.5844744    132.26024  0.051503208  0.053944483            2 
  215000   0.93539101   -4.5769707    132.18373  0.051234004  0.053843316            4 
  216000   0.92428539   -4.5917636     132.9633  0.051297567  0.053741524            7 
  217000   0.92696438   -4.5874708    132.83233  0.051010881  0.053640813            4 
  218000   0.91420662   -4.5908574     133.4098   0.05099763  0.053540876            4 
  219000   0.93687615   -4.5863607    134.65857  0.051239944  0.053442275            3 
  220000   0.90591548   -4.5705724     135.0738  0.051164317  0.053347812            3 
  221000   0.92016728   -4.5960506    135.06597  0.050929851  0.053254027            2 
  222000   0.92852452   -4.5932219    136.06596  0.051075811  0.053160518            4 
  223000   0.88311613   -4.5838389    136.65017  0.051065085  0.053069149            8 
  224000   0.92092177   -4.5744483    136.81959  0.050900144  0.052980329            7 
  225000   0.88889722   -4.5971277    137.96703  0.051098898  0.052893836            5 
  226000   0.90976488   -4.6174642    137.78965  0.050807392  0.052807161            5 
  227000   0.88149619   -4.5961183    138.19748   0.05073329   0.05271799            5 
  228000      0.91869   -4.6227934     138.1442  0.050491301  0.052625418            4 
  229000   0.89218806   -4.6246069    137.67041  0.050098401   0.05252956            4 
  230000   0.89791194   -4.6186801     138.3311  0.050119965  0.052432402            3 
  231000   0.90819723   -4.5926903    140.05151  0.050523632  0.052338764           10 
  232000   0.89123133   -4.6184166    139.48058  0.050100781  0.052244002            5 
  233000   0.89744402   -4.6172763    140.25301   0.05016202  0.052148377            8 
  234000   0.88557417   -4.6030352    140.44992  0.050017779  0.052056954            3 
  235000     0.884404    -4.639528    141.28692  0.050101745  0.051964519            4 
  236000   0.89223963   -4.6322371     141.4368  0.049942373   0.05187154           14 
  237000   0.86144879   -4.6240696    141.86639  0.049882698  0.051778128            7 
  238000   0.90474045   -4.6248088    142.23197  0.049801108  0.051687483            4 
  239000   0.86921401   -4.6539274    142.47865  0.049678749    0.0515978            4 
  240000   0.88284799   -4.6397058     142.9964  0.049651527  0.051505893            2 
  241000    0.8918642   -4.6773369    142.44465   0.04925472  0.051412195            4 
  242000   0.89282883   -4.6845146    143.24911  0.049328207  0.051316608            4 
  243000   0.87506979   -4.6577087    143.47892  0.049204018  0.051221395            6 
  244000   0.89684935   -4.6414674    143.66202  0.049064897  0.051125139            4 
  245000   0.87866436   -4.6737626    144.38684  0.049111171  0.051028564            2 
  246000   0.88035373    -4.659411    144.51592  0.048955257  0.050932631            5 
  247000   0.87559666   -4.6467334    144.93385  0.048898059     0.050836            4 
  248000   0.87492162    -4.663429    145.18355  0.048784795  0.050738879            6 
  249000   0.86708796   -4.6638691     145.0234  0.048535276  0.050640696            6 
  250000   0.88596886   -4.6919074    145.48439  0.048494796  0.050539839            6 
  251000   0.87137966   -4.6858166    145.41812  0.048279588  0.050437668            5 
  252000    0.8604132   -4.6590364    146.25938  0.048366198  0.050336572            5 
  253000   0.86897534   -4.6820207    145.65148  0.047974794  0.050234202            4 
  254000   0.85151014   -4.6983168    146.01538  0.047905308  0.050130533            6 
  255000   0.87414019   -4.7177853    146.08396  0.047739856   0.05002474            5 
  256000   0.85599582    -4.707886    146.86455  0.047807472  0.049918981            4 
  257000   0.86465072     -4.71048     146.7703  0.047590888  0.049813288            5 
  258000   0.85444628    -4.726192    146.84886  0.047431802  0.049707231            6 
  259000   0.85652236   -4.6796974    147.40587  0.047427887  0.049599639            7 
  260000   0.86422554   -4.7090613      147.521  0.047282373  0.049491944            3 
  261000   0.84225069   -4.6882636    147.81825  0.047196121  0.049386278            6 
  262000    0.8703385   -4.7087034    148.43577  0.047212396  0.049278321            5 
  263000   0.84784686   -4.7081458    148.10138  0.046926928  0.049171609            4 
  264000   0.83241949   -4.7142378    148.73984  0.046950708  0.049063918            4 
  265000   0.84605753   -4.7178834      148.842  0.046805659  0.048955672            7 
  266000   0.83340356   -4.7433595     148.4329  0.046501534  0.048847648            7 
  267000   0.83690144   -4.7644466    149.04137  0.046517283  0.048738155           12 
  268000   0.83406119    -4.762166    149.56339  0.046506028  0.048631879            2 
  269000   0.84183053   -4.7350088    150.21081  0.046533709  0.048524213            3 
  270000   0.83184765   -4.7519705    150.10227  0.046327862  0.048416947            5 
  271000   0.85925838   -4.7419075    150.44627  0.046262691  0.048309105            7 
  272000   0.83984108   -4.7130382    150.78203  0.046195475  0.048203539           11 
  273000    0.8387682   -4.7574438    151.07361  0.046115266  0.048096748           10 
  274000   0.82733888   -4.7504435    151.34773  0.046030332  0.047990913           11 
  275000   0.84017344   -4.7476176    152.42574  0.046189617  0.047885613            4 
  276000   0.82744375   -4.7362684    152.17801  0.045947465   0.04778031            7 
  277000   0.83228094    -4.758496    152.61878  0.045914195  0.047676722            4 
  278000   0.83281403   -4.7730083    152.35366  0.045669561  0.047572344           12 
  279000   0.80129476   -4.7847349    152.28685  0.045485917  0.047467347            4 
  280000   0.82128805   -4.7602041    153.05356  0.045551654  0.047363169            6 
  281000   0.81710866   -4.7968664    153.46681  0.045512102  0.047258963            8 
  282000   0.82346632    -4.790397    153.38184  0.045325604  0.047154476            7 
  283000   0.79561729   -4.7432001    154.42421  0.045472383  0.047052599            8 
  284000   0.81974178   -4.7873509    153.98146  0.045182354  0.046950678            6 
  285000   0.78763705   -4.7400612    154.53386  0.045185338  0.046848951            7 
  286000   0.80321882    -4.795573    154.91104  0.045137248  0.046748012            5 
  287000   0.81852346   -4.7875618    154.76546  0.044937706  0.046645575            5 
  288000   0.80771122   -4.7977879    155.34174  0.044948419  0.046543811            4 
  289000   0.80036886   -4.8072267    155.60019  0.044867412  0.046442719            3 
  290000   0.80065512   -4.7758791    156.05074  0.044842167  0.046342372            7 
  291000   0.81003649   -4.8299391    155.64408  0.044571616  0.046242299            3 
  292000    0.8117962   -4.8187775    156.03073  0.044529318  0.046141092            7 
  293000   0.80427815   -4.7939397    156.23211  0.044434615  0.046038826            6 
  294000   0.80870101   -4.8082679     156.7764  0.044437756  0.045937918            6 
  295000   0.80042569   -4.8224046    156.96743  0.044341081  0.045836173            3 
  296000   0.81633255   -4.8427683    156.71211  0.044119401  0.045736398            3 
  297000   0.77091682   -4.8413681    157.21601  0.044112237  0.045635236            5 
  298000   0.80519722   -4.8398271    157.25095   0.04397398  0.045534709            5 
  299000   0.77243892   -4.8222155    157.75812   0.04396826  0.045434544            9 
  300000   0.78146725   -4.8329937    158.00522  0.043890338  0.045334391            7 
  301000   0.78709539   -4.8666642    157.90436  0.043716599  0.045235643            4 
  302000   0.81395773   -4.8329355    159.38528  0.043980487  0.045137877            5 
  303000   0.77755369    -4.849628    158.71555  0.043651141   0.04504079            4 
  304000   0.79371752   -4.8623734     159.0175  0.043590322  0.044943986           11 
  305000   0.77903117   -4.8720651    158.96233  0.043432332  0.044845398            6 
  306000   0.78023921   -4.8690556    159.39218  0.043407458  0.044747465            4 
  307000   0.76110406   -4.8721233    159.82799  0.043384361  0.044650119            5 
  308000   0.77090138   -4.8538714    160.41967  0.043403589   0.04455528            8 
  309000   0.79516708   -4.8830616    160.33944  0.043241488  0.044460897            2 
  310000   0.76355752   -4.8889926    160.39795  0.043117728  0.044365397            3 
  311000   0.77108009   -4.9136761    160.83691  0.043096706  0.044268491            7 
  312000   0.76881458   -4.8760588    160.89805  0.042974906  0.044172291            6 
  313000   0.76337285   -4.8967832    160.88337  0.042833699  0.044076184            3 
  314000   0.76617176   -4.8994366    161.43848  0.042844608  0.043979472            6 
  315000   0.76834831   -4.8623748    162.25276   0.04292401  0.043883236            3 
  316000   0.77740733   -4.9084813    161.73769  0.042652346  0.043788126            5 
  317000    0.7739324   -4.8894785    162.29324  0.042663838  0.043693298            5 
  318000   0.76615459   -4.9230782    162.27824  0.042525745    0.0435991           11 
  319000   0.76152066   -4.8964871    162.55654  0.042465135  0.043503651            4 
  320000   0.76238999   -4.9014073    162.49533  0.042316492  0.043407753            5 
  321000   0.74322939   -4.9060879    162.57122  0.042204366  0.043312255            4 
  322000   0.75313415   -4.8931927    163.52519  0.042320183  0.043217814            4 
  323000    0.7490085   -4.8935812    163.35529  0.042145328  0.043123722            3 
  324000   0.76100213   -4.9138139    163.30952  0.042003478  0.043029467            2 
  325000   0.75169928   -4.9234813    163.55292  0.041936647  0.042935621           11 
  326000   0.74021086   -4.9272493    163.46554  0.041785669  0.042841641            6 
  327000   0.74373069   -4.9254503    163.83679  0.041752495  0.042746661            6 
  328000   0.74262922   -4.9301134    164.08441  0.041688112  0.042651921           12 
  329000   0.74700689     -4.89053    164.21212  0.041593749  0.042558075            6 
  330000   0.72525002   -4.9329938    164.04301  0.041425002  0.042463434            3 
  331000   0.73566222    -4.915538    164.34502  0.041375887  0.042368181           13 
  332000   0.74634501   -4.9631718    163.96512  0.041155903   0.04227217            6 
  333000   0.73798645   -4.9605469    164.29051  0.041113741  0.042174933            5 
  334000    0.7407488   -4.9509952     164.5762  0.041061927  0.042077811           10 
  335000   0.74268881    -4.944613     164.9444  0.041030946   0.04198071           11 
  336000   0.73460838   -4.9444407    164.77172  0.040866002  0.041883601            6 
  337000   0.73272484   -4.9236331    164.60332  0.040703096  0.041787652            7 
  338000   0.71927483   -4.9896394    164.95836  0.040670207  0.041690711           11 
  339000   0.72524861   -4.9705711     165.3134  0.040637513  0.041595025            6 
  340000   0.71632243   -4.9537077    165.54697  0.040575237  0.041498686            9 
  341000   0.72550352   -4.9657617    165.44615  0.040431611  0.041403069            5 
  342000   0.71685871   -4.9687004    165.53189  0.040334282  0.041308124           15 
  343000   0.71350192   -4.9718522    165.80997  0.040284249  0.041212002            2 
  344000   0.70793822   -4.9813044    165.39809  0.040067366  0.041114846            8 
  345000   0.71555579   -5.0064869    165.79431  0.040046936  0.041018817            4 
  346000   0.71367214   -4.9593788     166.2024  0.040029479  0.040923501            3 
  347000   0.71201605   -4.9734448    165.78188  0.039813131   0.04082775            8 
  348000   0.72411838   -4.9989345     166.2926  0.039821025  0.040731452            9 
  349000    0.7000378   -4.9837628     166.1797  0.039679968   0.04063481            9 
  350000    0.7049214   -4.9809429    166.24698  0.039582615  0.040538524            9 
  351000   0.69908623   -5.0028171    166.64014  0.039563187  0.040442005            5 
  352000   0.69738949   -4.9924944    166.57773  0.039436015  0.040345874            6 
  353000   0.70329482    -5.012464    166.56971  0.039322405  0.040249703            6 
  354000   0.68456329   -5.0015358    166.56454  0.039210108  0.040153042            5 
  355000   0.69413961   -5.0367865    166.17891  0.039009133  0.040055964            8 
  356000   0.71285339   -5.0240379    166.69179  0.039019614  0.039958514            6 
  357000   0.70619327   -5.0437059    166.65474  0.038901668  0.039860782            9 
  358000   0.68115071   -5.0393842    166.73087  0.038810725  0.039763618            9 
  359000   0.69936286   -5.0471612    166.88327  0.038737992  0.039665852            7 
  360000   0.68074883   -5.0236114    167.21259  0.038706618  0.039568983           10 
  361000   0.68712063   -5.0158548    166.87835  0.038522241   0.03947335            7 
  362000   0.68237441   -5.0593446    167.05531  0.038456564  0.039376906           22 
  363000   0.69758189   -5.0387067    167.54126  0.038462181  0.039280595            7 
  364000   0.70479246   -5.0507644     167.5384  0.038355861  0.039185197           10 
  365000   0.68117923   -5.0632606    167.66492  0.038279661  0.039089823           13 
  366000   0.67755633   -5.0657635    167.99576    0.0382504  0.038994795            7 
  367000   0.67976542   -5.0691223    167.82065  0.038106415   0.03889957           19 
  368000   0.68802305    -5.068568    168.15869  0.038079414   0.03880469           15 
  369000   0.66769721   -5.0603437    168.58728  0.038073008  0.038711027            6 
  370000   0.67377479   -5.0632274    168.20216  0.037883369    0.0386179            9 
  371000   0.67171033   -5.0600866    168.72079  0.037897752  0.038524702            9 
  372000   0.67446269   -5.0858118    168.42633  0.037729913  0.038430248            7 
  373000   0.65710353   -5.0817476     168.5628  0.037659249  0.038335645            8 
  374000   0.67349529   -5.0880726      168.674  0.037583334  0.038241732            5 
  375000   0.67539243   -5.1106389    168.83268  0.037518374  0.038147649            6 
  376000   0.67138579   -5.0856085    169.18146   0.03749589  0.038052969           10 
  377000   0.65015884   -5.0685697    168.48065  0.037241523  0.037959661           14 
  378000   0.67906696   -5.0875148    168.81449  0.037216599  0.037865778            5 
  379000   0.64708913    -5.094843    168.60903  0.037073226  0.037771579           15 
  380000   0.66971248   -5.0983129    168.41485  0.036933082  0.037677609            9 
  381000   0.65505251   -5.1125736    168.87042  0.036935788  0.037583119           11 
  382000   0.66171067   -5.1232987    169.27611  0.036927599  0.037489065            5 
  383000    0.6408995   -5.1222948    168.96041  0.036762491  0.037395187            8 
  384000   0.65231945   -5.1092011    169.48595  0.036780804  0.037301996            9 
  385000    0.6473657   -5.1106384    169.76909  0.036746557   0.03720945            7 
  386000   0.63499146   -5.1117141    169.98773   0.03669856  0.037116898            7 
  387000   0.65355131   -5.1145833    169.83289   0.03657039  0.037024606            8 
  388000   0.65417435   -5.1400614    169.77575  0.036463864  0.036932753            6 
  389000   0.64858518   -5.1061229    170.08575  0.036436535  0.036840805           11 
  390000   0.64026702   -5.1344159    169.75537  0.036272515  0.036749065           11 
  391000   0.65696391   -5.1191494    170.22474  0.036279782  0.036657283           10 
  392000   0.62900865   -5.1575615     169.9936  0.036138095  0.036566158           17 
  393000   0.64041344   -5.1194053    169.82087  0.036009515  0.036475214            9 
  394000   0.64560463   -5.1539392    169.85398  0.035925123  0.036384664            6 
  395000   0.64418399   -5.1461236     170.3921    0.0359477  0.036293643           15 
  396000   0.62993502    -5.156716    169.85485  0.035743866  0.036202804            7 
  397000   0.63937494   -5.1591654    170.15514  0.035716864  0.036111989           13 
  398000   0.63634774   -5.1538751    170.13117  0.035622104  0.036021165           20 
  399000   0.63857465   -5.1576035    170.48693  0.035607129  0.035930359           23 
  400000   0.62057947   -5.1623019    170.25537  0.035469869  0.035839977           14 
  401000   0.61332874   -5.1861823    170.31055  0.035392881  0.035749593           23 
  402000   0.62534081   -5.1599161    170.38082  0.035319407   0.03565916           14 
  403000   0.62037571   -5.1869363    170.32379  0.035219973  0.035569292           11 
  404000   0.61782571   -5.1766878     170.6363  0.035197257  0.035479369           14 
  405000   0.60935786   -5.2099668    170.71685  0.035126924  0.035389795           11 
  406000   0.61275792   -5.1849198    170.51441  0.034998852  0.035299691            6 
  407000   0.61719319   -5.1935646    170.82972   0.03497742  0.035210038           16 
  408000   0.60466908   -5.1797017    170.67618  0.034860332  0.035120523           14 
  409000   0.61468831   -5.2065975    170.43554  0.034726068  0.035031065           10 
  410000   0.62057961   -5.2049223    170.50622  0.034655735  0.034941345            9 
  411000   0.61453901   -5.2076182    170.53778  0.034577814  0.034851749            9 
  412000   0.61656933   -5.2331859    170.71303  0.034529334  0.034761751           13 
  413000   0.61693588   -5.2330833    170.36657  0.034375821  0.034671955           10 
  414000   0.59927484   -5.2272886     170.3771  0.034294907   0.03458209           21 
  415000   0.60484788   -5.2489306    170.60883  0.034258802  0.034492694           25 
  416000   0.62105819   -5.2158131    170.44276   0.03414318   0.03440362           26 
  417000   0.60072004   -5.2309774    170.64834  0.034102386  0.034314528            8 
  418000   0.60196449   -5.2471529    170.66534   0.03402419  0.034225288           18 
  419000   0.60259849   -5.2375821     170.7266  0.033955172  0.034135891           16 
  420000    0.5907652    -5.244054     170.7756  0.033884047  0.034047187           17 
  421000   0.60446383   -5.2378113    170.59631  0.033768074  0.033958735           19 
  422000   0.58809378   -5.2536654    170.99016   0.03376583    0.0338703            5 
  423000   0.59542571   -5.2556157    170.92545  0.033673257  0.033782183            9 
  424000   0.59620698   -5.2415914    171.29768  0.033666996  0.033694726           17 
  425000   0.59121094   -5.2620684    171.23779  0.033576037  0.033607471            6 
  426000   0.59204751   -5.2773383     171.1094  0.033472105  0.033520205           38 
  427000   0.59185995   -5.2542404    171.12019  0.033395822  0.033433087           31 
  428000   0.58456438   -5.2893859    170.57507  0.033211656  0.033345734           13 
  429000   0.57958396   -5.2606914    171.10959  0.033238072  0.033258789           12 
  430000   0.57440681   -5.2792931    171.52702  0.033241671  0.033171798           13 
  431000    0.5935531   -5.2737076     171.1495  0.033091551  0.033085184           45 
  432000   0.58222585   -5.2530729    171.48613  0.033079885  0.032998614           26 
  433000   0.57672171   -5.2670465    170.96457  0.032903112  0.032912212           15 
  434000   0.56259693   -5.2824012    171.37935  0.032906941  0.032826253           11 
  435000   0.57113263   -5.2976601    171.00533  0.032759642  0.032740035           13 
  436000   0.59136641   -5.2617428    171.23766  0.032728911  0.032654361            5 
  437000   0.57596193   -5.2941282    171.32309  0.032670307  0.032569044            8 
  438000   0.56956547   -5.2786877    171.07327  0.032548187  0.032483693           16 
  439000   0.56231174   -5.3031508    171.21711   0.03250135  0.032398346           16 
  440000   0.56419342   -5.3310434    171.01885  0.032389934  0.032312874           16 
  441000   0.55887362   -5.3054718    170.93773  0.032301159  0.032227383            8 
  442000   0.54111122   -5.3177768    171.05352   0.03224991  0.032142018            7 
  443000   0.56350783   -5.3137982    171.22526  0.032209418  0.032057051            8 
  444000   0.55911893   -5.3360674    171.03151  0.032100508  0.031972363           12 
  445000   0.55172033   -5.3525658    171.54224  0.032124014  0.031887479           20 
  446000   0.54700071   -5.3300974    171.30569   0.03200779  0.031802777           20 
  447000   0.55671385   -5.3491899    170.95394  0.031870608  0.031718279           40 
  448000    0.5620868   -5.3276237    171.16903  0.031839478   0.03163376           23 
  449000   0.55935209   -5.3448364    171.29786  0.031792476  0.031549679           20 
  450000   0.54563324   -5.3539065     171.1503  0.031694499  0.031466272           33 
  451000   0.54858113   -5.3399459    171.28759  0.031649591   0.03138258           14 
  452000   0.53350013    -5.353066    171.32973   0.03158734  0.031299129           26 
  453000   0.55073968   -5.3435045    171.15426   0.03148533  0.031215787           11 
  454000   0.53495108   -5.3421221    171.25646   0.03143474  0.031132935           29 
  455000   0.54688816   -5.3533023    171.16032  0.031348043  0.031049939           16 
  456000   0.53828866   -5.3556222     171.3777  0.031319024  0.030966678           14 
  457000   0.52751149   -5.3671613    171.02226  0.031185678  0.030883964           18 
  458000   0.53214895   -5.3731024    170.91319  0.031097741  0.030801189           15 
  459000   0.54652304   -5.3732629    171.54271  0.031144283  0.030719125           15 
  460000   0.52745587   -5.3801376    171.32726  0.031037546  0.030637316           19 
  461000   0.53325717   -5.3769716    171.50805  0.031002901  0.030555657            8 
  462000   0.53405837   -5.3631971    171.25564  0.030890267    0.0304743           13 
  463000   0.53539861   -5.3981141    171.13476  0.030801793  0.030392846           10 
  464000   0.53468273   -5.3758569     170.9616  0.030704311  0.030311133           22 
  465000   0.51905074   -5.3942001    170.92064   0.03063094  0.030229484           25 
  466000   0.52710476   -5.4073018    171.04903  0.030588167  0.030147599           34 
  467000   0.51495632   -5.3985892    170.62284  0.030446616  0.030065636           14 
  468000   0.51737652   -5.4016587    170.49973  0.030359639  0.029984291           15 
  469000   0.50680193   -5.4004937    170.90282  0.030366529  0.029903094           13 
  470000    0.5152613   -5.4173798    171.00487  0.030320012  0.029822094           13 
  471000   0.52023461   -5.4146578    170.67417  0.030197128  0.029741423           17 
  472000   0.52038606   -5.4038362    170.96587  0.030184651  0.029660882           11 
  473000   0.51051054   -5.4381799    170.84359  0.030099294  0.029580466            8 
  474000   0.51249492   -5.4229959     170.8644  0.030039452  0.029500262           10 
  475000   0.51208448   -5.4064061    171.13152  0.030023074  0.029420484           13 
  476000   0.50492564   -5.4345828    170.76199  0.029895306  0.029340778           15 
  477000   0.52063882   -5.4347228    170.72769   0.02982664   0.02926118           18 
  478000   0.51043602   -5.4227444    171.04633  0.029819792  0.029181786           38 
  479000    0.5029428   -5.4455212     170.7136  0.029699651  0.029102655           12 
  480000   0.50716615    -5.458037    170.68595  0.029632978  0.029023519           11 
  481000   0.49722307   -5.4290386    170.87387  0.029603928  0.028944518           19 
  482000   0.51053723   -5.4438943    170.74641  0.029520472  0.028865676           38 
  483000   0.49922794   -5.4642501    170.75109   0.02946016   0.02878713           43 
  484000   0.49285521   -5.4402361    170.77703  0.029403758  0.028708844           21 
  485000    0.4865148   -5.4668457    170.78933  0.029345246  0.028630772           24 
  486000   0.49688318   -5.4653383     170.7829  0.029283762  0.028552672           19 
  487000   0.48374449   -5.4641274    170.72052  0.029212957  0.028474947           30 
  488000   0.48651843   -5.4770073     170.5795  0.029129013  0.028397186           34 
  489000   0.49331074   -5.4932202    170.53847  0.029062453  0.028319409           30 
  490000   0.47422638   -5.4870475    170.24681  0.028953539  0.028241728           12 
  491000   0.47882906   -5.4884572    170.63035  0.028959666  0.028164087           28 
  492000   0.47927471   -5.4993794    169.96793  0.028788606  0.028086657           27 
  493000   0.48535966   -5.5024866     169.8845  0.028716109  0.028009103           42 
  494000   0.47976848   -5.5160553    170.03182  0.028682831  0.027931634           37 
  495000   0.48040029   -5.5272384    170.05798  0.028629289  0.027854371           65 
  496000   0.48043288   -5.5297822    169.81211   0.02853026   0.02777729           30 
  497000   0.48328327   -5.5128518    169.86555  0.028481817  0.027700351          133 
  498000   0.47800735   -5.5180548    169.60441  0.028380926  0.027623377          135 
  499000   0.46941737   -5.5333856    169.56778  0.028317933  0.027546609           70 
  500000   0.46992282   -5.5161159    169.81952  0.028303254  0.027470202          102 
  501000    0.4738921   -5.5477794    169.67577   0.02822285  0.027394111           51 
  502000   0.48193871    -5.525973     169.9756  0.028216401  0.027317982           70 
  503000   0.46322795   -5.5197933    169.79743  0.028130786  0.027242051           49 
  504000   0.46729377   -5.5261226    169.94309  0.028099056  0.027166442           38 
  505000   0.45329744   -5.5460672      169.863  0.028030199  0.027091166           72 
  506000   0.46533822   -5.5371698    169.95794  0.027990438  0.027015972           80 
  507000   0.46069142   -5.5485833    169.36767  0.027838211  0.026940966           36 
  508000   0.44835314   -5.5568186     169.6875  0.027835877  0.026866091           44 
  509000   0.45169011   -5.5680225    169.62614  0.027771143   0.02679137           43 
  510000   0.44957447   -5.5590175    169.81436  0.027747444  0.026716992           35 
  511000   0.45470493   -5.5497336    169.72922  0.027679259  0.026642828           35 
  512000   0.45190934    -5.561555    169.46224  0.027581745  0.026568968           30 
Loop time of 1270.28 on 48 procs for 500000 steps with 4000 atoms

Performance: 68016.297 tau/day, 393.613 timesteps/s
99.4% CPU use with 48 MPI tasks x no OpenMP threads

MPI task timing breakdown:
Section |  min time  |  avg time  |  max time  |%varavg| %total
---------------------------------------------------------------
Pair    | 86.213     | 92.084     | 99.747     |  34.5 |  7.25
Neigh   | 8.5195     | 8.901      | 9.2851     |   7.3 |  0.70
Comm    | 80.137     | 88.987     | 95.096     |  36.6 |  7.01
Output  | 0.9553     | 0.95629    | 0.98671    |   0.5 |  0.08
Modify  | 1063.2     | 1066.3     | 1068.5     |   4.1 | 83.94
Other   |            | 13.1       |            |       |  1.03

Nlocal:        83.3333 ave          89 max          77 min
Histogram: 2 3 6 3 3 15 3 6 4 3
Nghost:        2322.62 ave        2339 max        2299 min
Histogram: 1 1 0 5 9 9 8 5 4 6
Neighs:        15771.2 ave       17464 max       14628 min
Histogram: 5 7 10 2 8 3 6 3 2 2
FullNghs:      31542.0 ave       33967 max       28811 min
Histogram: 1 4 5 5 4 10 7 6 4 2

Total # of neighbors = 1514015
Ave neighs/atom = 378.50375
Neighbor list builds = 26967
Dangerous builds = 0

#clear
#
#next RN
#
#jump SELF
Total wall time: 0:21:13
