
units lj                  # Use reduced LJ style units
atom_style atomic         # Uncharged point particles
atom_modify map hash      # Needed for indexing of clusters etc
                          # Used to be able to find where atoms are in relation to each other.

lattice fcc 1.0 spacing 1 1 1
Lattice spacing in x,y,z = 1.5874011 1.5874011 1.5874011
region box block 0 10 0 10 0 10 units lattice
create_box 2 box
Created orthogonal box = (0.0000000 0.0000000 0.0000000) to (15.874011 15.874011 15.874011)
  3 by 4 by 4 MPI processor grid
create_atoms 1 box
Created 4000 atoms
  using lattice units in orthogonal box = (0.0000000 0.0000000 0.0000000) to (15.874011 15.874011 15.874011)
  create_atoms CPU = 0.030 seconds
set type 1 type/fraction 2 0.56 78393
Setting atom values ...
  2252 settings made for type/fraction
mass 1 1.0
mass 2 1.0
pair_style lj/cut  3.5
pair_modify tail  yes
pair_coeff 1  1  1.0  1.0   # Intearaction between 1 and 1 set with epsilon = 1 and sigma = 1
pair_coeff 1  2  1.5  0.8
pair_coeff 2  2  0.5  0.88

write_data data.0
System init for write_data ...
Neighbor list info ...
  update every 1 steps, delay 10 steps, check yes
  max neighbors/atom: 2000, page size: 100000
  master list distance cutoff = 3.8
  ghost atom cutoff = 3.8
  binsize = 1.9, bins = 9 9 9
  1 neighbor lists, perpetual/occasional/extra = 1 0 0
  (1) pair lj/cut, perpetual
      attributes: half, newton on
      pair build: half/bin/atomonly/newton
      stencil: half/bin/3d
      bin: standard
WARNING: Not all mixed pair coeffs generated from mixing. Use write_data with 'pair ij' option to store all pair coeffs. (../write_data.cpp:312)


#############################
#   M E L T   S Y S T E M   #
#############################

velocity all create 2.4 1741580 mom yes dist gaussian # Assign velocities
                                                    # Temperature 2.4, random number seed, zero linear momentum
                                                                                # Gaussian distribution

timestep 0.002   # simulation timestep
thermo 1000       # output thermodynamic data every 1000 steps bf 100

# Define a fix  in this case with index 1 applied to all
# particles in the simulation. This fix is for simulations
# in the anisotropic NPT ensemble. Note that we use the MTK
# correction.
fix 1 all npt temp 2.4 2.4 0.1 iso 5.68 5.68 0.5 mtk yes tchain 5 pchain 5 # Use NPT ensemble
                                                                         # Set temperature and pressure and damping
                                                                         # Numbers of thermostats in chain and in barostat
run 10000          # run for 10000 steps
Per MPI rank memory allocation (min/avg/max) = 3.642 | 3.644 | 3.648 Mbytes
Step Temp E_pair E_mol TotEng Press Volume 
       0          2.4   -4.9459583            0   -1.3468583   -4.1435722         4000 
    1000    2.4241229   -4.7248856            0   -1.0896103     5.705433    3605.2035 
    2000    2.4430058   -4.6866134            0   -1.0230208    5.7134704     3628.244 
    3000    2.3669954    -4.685941            0   -1.1363356     5.583663     3628.333 
    4000    2.4379925   -4.6074761            0  -0.95140153    5.4224361    3678.7273 
    5000    2.4098588   -4.6833166            0    -1.069432    5.5963391    3635.2802 
    6000    2.3982975   -4.7014671            0   -1.1049202    5.4256419    3637.9426 
    7000    2.4259506   -4.6557993            0   -1.0177831    5.9281559    3625.7911 
    8000    2.4084927   -4.7398192            0   -1.1279833    5.7436425    3592.2797 
    9000    2.4523413    -4.680797            0   -1.0032047    5.9969337    3601.6107 
   10000    2.4503669   -4.7080056            0   -1.0333742    5.9263396    3597.5238 
Loop time of 2.88259 on 48 procs for 10000 steps with 4000 atoms

Performance: 599461.338 tau/day, 3469.105 timesteps/s
99.4% CPU use with 48 MPI tasks x no OpenMP threads

MPI task timing breakdown:
Section |  min time  |  avg time  |  max time  |%varavg| %total
---------------------------------------------------------------
Pair    | 1.1833     | 1.2649     | 1.3892     |   3.1 | 43.88
Neigh   | 0.21876    | 0.22496    | 0.24093    |   0.9 |  7.80
Comm    | 0.83718    | 0.94311    | 1.042      |   4.9 | 32.72
Output  | 0.00024735 | 0.00025403 | 0.00032884 |   0.0 |  0.01
Modify  | 0.37371    | 0.43402    | 0.50035    |   5.7 | 15.06
Other   |            | 0.01538    |            |       |  0.53

Nlocal:        83.3333 ave          92 max          71 min
Histogram: 1 0 3 6 7 10 5 7 4 5
Nghost:        1761.98 ave        1787 max        1740 min
Histogram: 4 1 2 7 13 9 6 5 0 1
Neighs:        10613.6 ave       12342 max        8955 min
Histogram: 1 2 7 6 10 9 8 1 2 2

Total # of neighbors = 509452
Ave neighs/atom = 127.36300
Neighbor list builds = 911
Dangerous builds = 226

# Equilibrate just above the melting temperature to avoid step fn in T

fix 1 all npt temp 1.25 1.25 0.1 iso 5.68 5.68 0.5 mtk yes tchain 5 pchain 5
run 2000
Per MPI rank memory allocation (min/avg/max) = 3.644 | 3.646 | 3.650 Mbytes
Step Temp E_pair E_mol TotEng Press Volume 
   10000    2.4503669   -4.7080056            0   -1.0333742    5.9263396    3597.5238 
   11000    1.2495702   -6.8034386            0   -4.9295519    5.4957595    2799.8019 
   12000     1.250466   -6.8526272            0   -4.9773971    5.3940093    2791.0089 
Loop time of 0.79086 on 48 procs for 2000 steps with 4000 atoms

Performance: 436992.480 tau/day, 2528.892 timesteps/s
99.3% CPU use with 48 MPI tasks x no OpenMP threads

MPI task timing breakdown:
Section |  min time  |  avg time  |  max time  |%varavg| %total
---------------------------------------------------------------
Pair    | 0.30017    | 0.32099    | 0.35908    |   2.0 | 40.59
Neigh   | 0.040964   | 0.043296   | 0.048398   |   0.7 |  5.47
Comm    | 0.22202    | 0.26629    | 0.31299    |   3.4 | 33.67
Output  | 5.3461e-05 | 5.5346e-05 | 7.3277e-05 |   0.0 |  0.01
Modify  | 0.098229   | 0.15506    | 0.1655     |   3.0 | 19.61
Other   |            | 0.005173   |            |       |  0.65

Nlocal:        83.3333 ave          97 max          74 min
Histogram: 2 3 4 16 14 4 4 0 0 1
Nghost:        2100.65 ave        2121 max        2074 min
Histogram: 1 1 2 7 7 13 3 5 7 2
Neighs:        13678.5 ave       15997 max       11357 min
Histogram: 1 1 5 11 2 13 10 4 0 1

Total # of neighbors = 656566
Ave neighs/atom = 164.14150
Neighbor list builds = 142
Dangerous builds = 10

#############################
# L I N E A R  Q U E N C H  #
#############################

# Define solid atoms. This closely follows ten Wolde  Ruiz-Montero and Frenkel  Faraday Discuss  1996  104  93-110
# Compute components of the per-atom q6 vector
compute q6 all orientorder/atom degrees 1 6 components 6 nnn NULL cutoff 1.3 # compute the Q6 parameter.
                                                                             # Use all neighbours within 1.3 unit cell.

# get number of connections
compute coord_number all coord/atom orientorder q6 0.5

# An atom is solid if it has 8 or more connections (of a possible 14)
variable is_solid atom c_coord_number>=8
group solid dynamic all var is_solid    # Must be dynamic to update
dynamic group solid defined

# do clustering
compute cluster solid cluster/atom 1.3 # Create a cluster where all atoms within are solid and max 1.3 units from another member

# define chunks one chunk per cluster
compute clus_chunks solid chunk/atom c_cluster nchunk every compress yes  # Says which atoms are in which chunk

# count the size of each chunk
compute size_chunks solid property/chunk clus_chunks count


# Find the maximum entry in the vector of chunk sizes
variable max_n equal max(c_size_chunks)


# Thermo style which includes this variable
# thermo_style custom step temp pe vol v_max_n

thermo ${N}  # Print the thermo information every 100 steps
thermo 1000  

# Reset the npt fix at a lower temperature (below freezing)
fix 1  all npt temp  ${temp} ${temp}  0.1  iso  5.68  5.68  0.5  mtk yes tchain  5  pchain  5
fix 1  all npt temp  0.45 ${temp}  0.1  iso  5.68  5.68  0.5  mtk yes tchain  5  pchain  5
fix 1  all npt temp  0.45 0.45  0.1  iso  5.68  5.68  0.5  mtk yes tchain  5  pchain  5

dump dmp2 all dcd ${N} traj.dcd
dump dmp2 all dcd 1000 traj.dcd


compute msd all msd com yes
variable twopoint equal c_msd[4]/6/(step*dt+1.0e-6)
fix 9 all vector 10 c_msd[4]
variable fit equal slope(f_9)/6/(10*dt)
thermo_style custom step temp pe c_msd[4] v_twopoint v_fit v_max_n

fix 1 all npt temp 1.25 ${temp} 0.1 iso 5.68 5.68 0.5 mtk yes tchain 5 pchain 5
fix 1 all npt temp 1.25 0.45 0.1 iso 5.68 5.68 0.5 mtk yes tchain 5 pchain 5
run 5000000 # 5000000  # Run for this many steps
Neighbor list info ...
  update every 1 steps, delay 10 steps, check yes
  max neighbors/atom: 2000, page size: 100000
  master list distance cutoff = 3.8
  ghost atom cutoff = 3.8
  binsize = 1.9, bins = 8 8 8
  4 neighbor lists, perpetual/occasional/extra = 1 3 0
  (1) pair lj/cut, perpetual
      attributes: half, newton on
      pair build: half/bin/atomonly/newton
      stencil: half/bin/3d
      bin: standard
  (2) compute orientorder/atom, occasional
      attributes: full, newton on
      pair build: full/bin/atomonly
      stencil: full/bin/3d
      bin: standard
  (3) compute coord/atom, occasional
      attributes: full, newton on
      pair build: full/bin/atomonly
      stencil: full/bin/3d
      bin: standard
  (4) compute cluster/atom, occasional
      attributes: full, newton on
      pair build: full/bin/atomonly
      stencil: full/bin/3d
      bin: standard
Per MPI rank memory allocation (min/avg/max) = 9.844 | 9.849 | 9.853 Mbytes
Step Temp PotEng c_msd[4] v_twopoint v_fit v_max_n 
   12000     1.250466   -6.8526272 1.5226988e-30 1.0574297e-32 8.3333333e+20            2 
   13000    1.2406216   -6.9039601   0.45213119 0.0028982767  0.037094703            2 
   14000    1.2553355   -6.8736969   0.87562419 0.0052120486  0.035628083            2 
   15000    1.2525167   -6.8964819    1.3081308 0.0072673929    0.0355164            3 
   16000    1.2524758    -6.896038    1.7160185 0.0089375959   0.03538382            2 
   17000    1.2517361   -6.8548939    2.1077988  0.010332347  0.034834365            4 
   18000    1.2468789   -6.8848409    2.5667025  0.011882881  0.034674583            2 
   19000    1.2587774   -6.8600536    2.9633483  0.012997141  0.034794786            2 
   20000    1.2539073    -6.874268    3.4334686  0.014306119  0.034860541            2 
   21000    1.2493922   -6.9103768    3.8350988  0.015218646    0.0352469            2 
   22000    1.2586781   -6.9386219     4.203413  0.015922019  0.035132303            1 
   23000    1.2568644   -6.8686737    4.5984608  0.016661089  0.034964289            2 
   24000    1.2579141   -6.8669311    5.0655216  0.017588616  0.034838094            5 
   25000    1.2535817   -6.8401999    5.4491519  0.018163839  0.034777303            2 
   26000    1.2528241   -6.8388106    5.8523945  0.018757674  0.034708657            1 
   27000    1.2457077   -6.8816953    6.3037306  0.019455958  0.034723529            3 
   28000    1.2630254   -6.8573038    6.7467604  0.020079644  0.034713154            2 
   29000     1.232291    -6.873227    7.2108947  0.020720962  0.034793433            3 
   30000    1.2671241   -6.8971926    7.5889012  0.021080281  0.034883916            3 
   31000    1.2577054   -6.8866125    7.9529471   0.02137889   0.03489132            2 
   32000    1.2523418   -6.9085157    8.3077544  0.021634777  0.034819833            3 
   33000    1.2375715   -6.8793176    8.6064653  0.021733498  0.034645271            3 
   34000    1.2312909   -6.8913883    9.0249616  0.022120004  0.034500988            2 
   35000    1.2609918   -6.8728151    9.4488372  0.022497231  0.034363447            1 
   36000    1.2437298   -6.8669723    9.8174611  0.022725604  0.034250013            2 
   37000     1.250851   -6.8916479     10.31896    0.0232409  0.034179701            3 
   38000    1.2746017     -6.88441    10.754755  0.023584989  0.034180602            2 
   39000    1.2400158   -6.9180284    11.185279  0.023900168  0.034193364            4 
   40000    1.2283404   -6.9022338    11.513887  0.023987263  0.034183607            1 
   41000    1.2169641   -6.9114868     11.87194  0.024129958  0.034131157            4 
   42000    1.2397856   -6.9152037    12.208751  0.024223713  0.034057017            4 
   43000    1.2560674   -6.8835838    12.667195  0.024548827  0.033993188            4 
   44000    1.2638105    -6.874204    13.064612  0.024743583  0.033940879            3 
   45000    1.2355463   -6.9313705    13.449312  0.024906134  0.033892948            3 
   46000    1.2547594   -6.8822199    13.853759   0.02509739  0.033844839            3 
   47000    1.2370054   -6.8697336    14.285205  0.025328378  0.033817073            2 
   48000    1.2456302   -6.8987465     14.61919  0.025380538  0.033777742            1 
   49000    1.2504574   -6.8763877     14.98042  0.025476905  0.033726983            2 
   50000     1.255902   -6.9241032    15.416712   0.02569452  0.033682195            3 
   51000    1.2548755   -6.8740616    15.753465  0.025740955  0.033640444            2 
   52000    1.2648307   -6.8912923    16.209835    0.0259773  0.033582441            2 
   53000    1.2390538   -6.8897808    16.606619  0.026111035  0.033544797            5 
   54000     1.246185   -6.8767456    17.070996  0.026344129  0.033518234            2 
   55000    1.2439375   -6.8918983    17.378269   0.02633071  0.033511447            1 
   56000       1.2276   -6.9414837    17.745601  0.026407144  0.033483225            2 
   57000    1.2351787      -6.8928    18.173022  0.026568746  0.033461333            3 
   58000    1.2431495   -6.9197856    18.505078  0.026587756  0.033434696            2 
   59000    1.2498117   -6.8782907    18.896087  0.026689388  0.033401573            1 
   60000    1.2723791   -6.8699165      19.3095   0.02681875  0.033382131            3 
   61000    1.2443259   -6.9074895     19.67384   0.02687683  0.033355764            3 
   62000    1.2458579   -6.9002944    20.019047  0.026907321  0.033329955            2 
   63000    1.2682402   -6.8639469    20.404202  0.026989685  0.033292277            2 
   64000    1.2682416    -6.919553    20.753457   0.02702273  0.033255233            2 
   65000    1.2492976   -6.9334586    21.125338  0.027083767  0.033212885            5 
   66000    1.2098791   -6.9059281    21.374102  0.026987503  0.033175809            2 
   67000    1.2318886   -6.8918922    21.922462  0.027266744  0.033126268            2 
   68000    1.2600635   -6.8898127    22.212801  0.027221569  0.033087712            2 
   69000      1.26539   -6.9275732    22.546563  0.027230148  0.033050414            4 
   70000    1.2389441   -6.8955099    22.873187  0.027229984  0.032996768            3 
   71000    1.2431639   -6.9380567    23.053317  0.027057883  0.032921677            5 
   72000    1.2125568   -6.9107298    23.368255  0.027046591  0.032835137            1 
   73000    1.2458242   -6.9098494    23.839721  0.027214293  0.032764222            6 
   74000    1.2676675    -6.919331    24.125998  0.027168916  0.032699915            3 
   75000    1.2397337   -6.9314473    24.603262  0.027336957  0.032646022            1 
   76000    1.2731086   -6.8988465    24.987407  0.027398473  0.032597764            4 
   77000    1.2509118   -6.8756377    25.470748  0.027565745  0.032550084            5 
   78000    1.2487883   -6.9172628    25.557055  0.027304546  0.032500306            2 
   79000    1.2643453   -6.9222459    26.120014  0.027552757  0.032451908            5 
   80000    1.2586121   -6.9409178    26.394727  0.027494507  0.032402035            3 
   81000    1.2253627   -6.8773335    27.019589  0.027797931   0.03235653            4 
   82000    1.2294337   -6.8503689    27.365981  0.027810956  0.032323008            3 
   83000    1.2734094   -6.9360606    27.711312  0.027822602  0.032293653            3 
   84000    1.2533756   -6.9308469    28.153421  0.027929981  0.032273406            4 
   85000    1.2530964   -6.9309783    28.463047  0.027904948   0.03225176            2 
   86000    1.2462657   -6.8842432    29.006022   0.02810661  0.032236744            2 
   87000    1.2354999   -6.8961935    29.350843  0.028113834  0.032221779            2 
   88000    1.2269291   -6.9133476    29.758706  0.028180593  0.032210187            2 
   89000    1.2163635    -6.869151    30.518142  0.028575039  0.032215322            1 
   90000    1.2473765    -6.928303    30.891128  0.028602896  0.032231502            1 
   91000     1.234035    -6.900713    31.206983  0.028577823  0.032250294            5 
   92000    1.2305744   -6.9530132    31.594238  0.028617969  0.032266565            2 
   93000    1.2138095   -6.8911432    32.172002  0.028827959  0.032281487            1 
   94000    1.2329979   -6.9763704    32.570362  0.028874435  0.032306591            2 
   95000    1.2322159   -6.9134832    33.091019   0.02902721  0.032342866            1 
   96000    1.2528265   -6.9450783    33.530045  0.029105942  0.032374154            2 
   97000    1.2368488   -6.9236996    33.840845  0.029072891  0.032400592            2 
   98000    1.2279091   -6.9332056    34.063959  0.028965952  0.032419367            1 
   99000    1.2419435   -6.9739932    34.486696  0.029029205  0.032429223            2 
  100000    1.2357486   -6.9411925    34.887244  0.029072703  0.032445713            3 
  101000     1.217272   -6.8990265    35.302115  0.029127158  0.032453538            1 
  102000    1.2509166   -6.9089221     35.54523   0.02904022  0.032459859            7 
  103000    1.2254146   -6.9394726    36.203536  0.029290886  0.032473575            5 
  104000    1.2596065   -6.8544356    36.708611  0.029413951  0.032492843            3 
  105000    1.2243421   -6.9160086    36.926613  0.029306836  0.032510496            3 
  106000    1.2671702   -6.8736414    37.369628  0.029378638  0.032525915            1 
  107000     1.259045   -6.9222531     37.73572   0.02938919  0.032546546            2 
  108000    1.2496661    -6.943693    38.260401  0.029521915  0.032567477            5 
  109000    1.2383599   -6.9103045    38.619637  0.029525716  0.032589692            1 
  110000    1.2363606   -6.9587485    38.949571   0.02950725  0.032603478            3 
  111000    1.2311019    -6.928389    39.383694  0.029567338  0.032614815            3 
  112000    1.2198687   -6.9701949    39.755744  0.029580167  0.032623098            4 
  113000    1.2379969   -6.9695862    40.046347  0.029532704  0.032634596            6 
  114000    1.2531204   -6.9437008    40.489476   0.02959757  0.032647099            2 
  115000    1.2195009   -6.9410531    40.994578  0.029706216  0.032656807            2 
  116000    1.2346448   -6.8659885    41.456517  0.029781981  0.032672575            4 
  117000    1.2321187   -6.9222881    41.875585  0.029825915  0.032686687            2 
  118000    1.2320117   -6.8896615    42.284776   0.02986213  0.032700768            4 
  119000    1.2240848   -6.8909688    42.631316  0.029853862  0.032710932            1 
  120000    1.2257871   -6.9461342    42.851404  0.029757919  0.032717999            3 
  121000    1.2633335   -6.9214388    43.360948  0.029862912  0.032726451            2 
  122000    1.2102486    -6.950854    43.786424  0.029908759  0.032732398            1 
  123000    1.2487085   -6.9373308    44.252332  0.029981255  0.032744008            4 
  124000    1.2478015   -6.9583142    44.381427  0.029826228  0.032753378            3 
  125000    1.2246364    -6.933396    45.009974  0.030006649  0.032763924            2 
  126000    1.2377959   -6.9053371    45.317135   0.02997165  0.032771553            1 
  127000    1.2374702   -6.9180235     45.53723  0.029880072  0.032774428            3 
  128000     1.201559    -6.915167    46.009089  0.029953834  0.032778504            1 
  129000    1.2265287   -6.9550098    46.336623  0.029933219  0.032779576            4 
  130000    1.2339331   -6.9195473    46.908266  0.030069401  0.032783714            4 
  131000    1.2637118   -6.9803457    47.102191  0.029963226  0.032785925            5 
  132000     1.251104   -6.9680057    47.528902   0.03000562  0.032785202            3 
  133000    1.2402456    -6.910813    47.711324  0.029894313  0.032785849            3 
  134000    1.2050939   -6.9380529    47.984452  0.029841077  0.032783567            5 
  135000    1.2205724   -6.9134067    48.639769  0.030024549  0.032777952            2 
  136000    1.2439668   -6.9459178    48.861717  0.029939777  0.032774638            2 
  137000    1.2211873   -6.9902955    49.189049  0.029920346  0.032771081            3 
  138000    1.2162782   -6.9445862    49.862285  0.030110075  0.032767899            3 
  139000    1.2253535   -6.9434732    50.200063  0.030095961  0.032765984            3 
  140000    1.2588764   -6.9292063    50.605261  0.030122179  0.032767617            2 
  141000    1.2294473   -6.9067975     51.03649   0.03016341  0.032765697            1 
  142000    1.2276122   -6.9729161    51.392254  0.030159774  0.032763714            4 
  143000     1.253266   -6.9631615    51.908273  0.030249576  0.032764592            2 
  144000     1.215285   -6.9396445    52.246071  0.030234995  0.032765265            2 
  145000    1.2360227   -6.9034968    52.809833  0.030350479   0.03276602            3 
  146000    1.2551265   -6.9270434    52.913639  0.030201848  0.032764095            1 
  147000    1.2119987   -6.8808566    53.405625  0.030275297  0.032759484            1 
  148000    1.2279486   -6.9514277    53.756669  0.030268395  0.032756843            2 
  149000    1.2242475    -6.952604    53.958214  0.030177972  0.032752744            3 
  150000    1.2488986   -6.9277637    54.282182  0.030156768  0.032744964            3 
  151000    1.2253893   -6.9490067    54.505697  0.030080407  0.032734512            2 
  152000    1.2350292   -6.9919351    55.054939  0.030183629  0.032728557            1 
  153000     1.231016   -6.9049306     55.77692  0.030379586  0.032727092            3 
  154000    1.2250293   -6.9496124    55.834378  0.030213408  0.032724947            2 
  155000    1.2096035   -6.9515786     56.39327  0.030318962  0.032719318            2 
  156000    1.2272102   -6.9422152    56.955747  0.030425079  0.032718215            1 
  157000     1.226418   -6.9433608    57.570087  0.030557371  0.032720205            2 
  158000    1.2347472   -6.9341746    57.555904  0.030356489  0.032721928            3 
  159000    1.2496913   -6.9590082    58.012934  0.030405102  0.032721578            3 
  160000    1.2155329   -6.9329062    58.286154  0.030357372  0.032720396            4 
  161000    1.2521348   -6.8653254    58.958907  0.030517032  0.032720129            7 
  162000    1.2277201   -6.9202353    59.374769  0.030542576  0.032721725            8 
  163000    1.2357633   -6.9255958    59.676984  0.030509706  0.032723169            4 
  164000    1.2217724   -6.9748346    59.861674  0.030417517  0.032719866            3 
  165000    1.2362256   -6.9114964    60.324383   0.03046686  0.032715208            2 
  166000    1.2290984   -6.9486574    60.713985  0.030478908  0.032712342            3 
  167000    1.2221155   -6.9697532    61.136035  0.030507003  0.032710196            1 
  168000    1.2484997   -6.9740007    61.539816  0.030525702   0.03270727            3 
  169000    1.2022002   -6.9117082    62.099599  0.030621104  0.032708164            2 
  170000    1.2341808   -6.9632747    62.074961  0.030428903  0.032706474            4 
  171000     1.221391   -6.9531998    62.317292   0.03036905  0.032700452            2 
  172000    1.2181061   -6.9239288    62.972585  0.030509973  0.032697442            1 
  173000    1.2225765   -6.9540033    63.292447  0.030487691  0.032697307            2 
  174000    1.2375903    -6.939157    63.874008     0.030591  0.032698844            2 
  175000    1.2015406   -6.9785553    64.321709  0.030629385  0.032699638            3 
  176000    1.2281607    -6.963275    64.670341  0.030620426  0.032702508            3 
  177000    1.2332969   -6.9347561    65.333731   0.03075976  0.032706232            2 
  178000    1.2350334   -6.9363568    65.817237  0.030813313  0.032713212            4 
  179000    1.2468433   -6.9773416     66.04994  0.030749506  0.032717453            4 
  180000     1.226075   -6.9893013    66.453778  0.030765638  0.032724028            2 
  181000    1.2130896    -6.926189    67.124046  0.030904257  0.032728473            4 
  182000    1.2398695   -6.9273579    67.465629  0.030890856  0.032733916            6 
  183000    1.2279813   -6.9598936    67.635708  0.030799503  0.032738975            2 
  184000    1.2117472   -6.9540012     67.96856  0.030782862  0.032743814            4 
  185000    1.2054563   -6.9559235    68.529914  0.030869331  0.032748446            2 
  186000    1.2544055   -6.9270947    68.878577  0.030859578  0.032750902            3 
  187000    1.2097091   -6.9802072    69.142953  0.030812367  0.032753969            5 
  188000    1.2134523   -6.9498295     69.61629  0.030858284  0.032755391            3 
  189000     1.219085   -6.9314482    70.008159  0.030867795  0.032755928            2 
  190000    1.2376115   -6.9589724    70.608402  0.030968598     0.032758            5 
  191000    1.2060787   -6.9425457    70.743471  0.030865389   0.03276017            3 
  192000     1.236965   -6.9693635    71.437807  0.031005993  0.032764878            3 
  193000    1.2282136   -6.9374248    72.155804  0.031155356   0.03277387            5 
  194000    1.1958022   -6.9525485    72.232424  0.031027674  0.032778005            4 
  195000    1.2119369   -6.9730133    72.601581  0.031026316  0.032782079            4 
  196000    1.2129422   -6.9869057    72.924391  0.031005268  0.032787228            2 
  197000    1.1983683   -6.9856077     73.36769  0.031035402  0.032790868            3 
  198000     1.216163   -6.9231158    73.704449  0.031020391  0.032795312            2 
  199000    1.2093619   -6.9535867    73.906842  0.030949264  0.032798363            4 
  200000    1.2285868   -6.8960399    74.533252  0.031055522  0.032799341            2 
  201000      1.21519   -6.9883525    74.443309  0.030863727  0.032800747            2 
  202000     1.236451    -6.969787    75.336569  0.031079443  0.032802698            2 
  203000      1.19155    -6.926582    75.721243  0.031084254  0.032805976            2 
  204000     1.201191   -7.0079293    76.060309  0.031070388  0.032808093            5 
  205000    1.2536829   -6.9400386    76.620429  0.031146516  0.032810735            4 
  206000    1.2240307   -6.9411436    76.801655  0.031068631   0.03281278            1 
  207000    1.2257596   -6.9356806    77.350838  0.031139629  0.032813357            2 
  208000    1.2083156   -6.9644382    77.725908  0.031140187  0.032817011            2 
  209000    1.2167945   -6.9841805    78.165243  0.031166365   0.03281939            2 
  210000    1.2410754   -6.9570368    78.385975  0.031105546   0.03282266            3 
  211000     1.220661   -6.9759605     78.70279   0.03108325  0.032825168            2 
  212000     1.226304   -6.9559507    79.101323  0.031093287  0.032827543            3 
  213000    1.2353436   -6.9771818    79.544082  0.031120533  0.032829834            2 
  214000    1.2066585   -6.9882275    79.728445  0.031046902  0.032829536            3 
  215000    1.2203415   -6.9692959    80.426767  0.031173165  0.032828133            3 
  216000    1.2087668   -6.9814628    80.481769  0.031050065  0.032828283            3 
  217000     1.208971   -6.9368818    81.170186  0.031171346  0.032827742            1 
  218000    1.1828968   -7.0108357     81.32389  0.031087114  0.032827733            2 
  219000    1.2275599   -6.9210722    81.983035   0.03119598  0.032830239            6 
  220000    1.1996535   -6.9547314    82.449822  0.031230993  0.032834121            4 
  221000    1.2005151   -6.9836153    82.677929   0.03117569  0.032837861            2 
  222000    1.2064497   -6.9950955    83.124816  0.031203009  0.032841257            1 
  223000     1.215121   -6.9917226    83.399277  0.031165649  0.032843111            4 
  224000     1.195063   -6.9932387     84.03578  0.031263311  0.032844896            2 
  225000    1.2226714   -6.9569187    84.508113  0.031299301  0.032846886            2 
  226000     1.225392   -6.9391082    84.532921  0.031169956  0.032847029            6 
  227000    1.2107562   -6.9674317    84.558841  0.031042159  0.032844852            2 
  228000    1.2170583   -6.9548189    85.271697  0.031166556  0.032841874            1 
  229000    1.2168447   -6.9423102    86.120887  0.031339478  0.032842413            2 
  230000     1.222642   -6.9216042    86.738943  0.031427153  0.032845933            7 
  231000    1.2257443   -6.9744907    86.580735  0.031234031   0.03284864            4 
  232000     1.208764   -6.9714191    86.877587   0.03120603  0.032848858            3 
  233000    1.2179082   -6.9153243    87.702305  0.031367062  0.032850182            2 
  234000    1.2140051   -6.9615188    87.587763  0.031192223  0.032850695            1 
  235000    1.1921561   -6.9701688    88.217786  0.031282903  0.032850726            2 
  236000    1.2099836    -6.959725    88.531785  0.031261224  0.032849032            3 
  237000    1.2122496     -6.95114    88.761549  0.031210109  0.032849118            4 
  238000    1.2374928   -6.9946514    89.140954  0.031211819  0.032848324            8 
  239000    1.2288828   -6.9479126    89.838746  0.031324528  0.032848923            9 
  240000    1.1971206   -6.9705171    90.286723  0.031349556  0.032849034            2 
  241000    1.1954802   -6.9438672    90.444068  0.031273882  0.032849384            1 
  242000    1.2002709   -6.9997645    90.459127  0.031149837  0.032848076            2 
  243000    1.2338604   -6.9897329    90.870788  0.031162822  0.032844867            1 
  244000     1.222599   -6.9893336    91.161488  0.031134388  0.032841829            2 
  245000    1.2275024    -6.976988    91.758519   0.03121038  0.032837944            2 
  246000    1.2080652   -6.9691381    91.998792  0.031164902  0.032833867            3 
  247000    1.1993147   -6.9711555    92.210075  0.031110012  0.032829549            1 
  248000    1.2086618   -6.9832181    93.000286  0.031250096  0.032826003            3 
  249000    1.2202959   -7.0145223    93.002174  0.031125226  0.032820538            2 
  250000    1.2273434   -6.9569897    93.441546  0.031147182  0.032814172            2 
  251000    1.2103041   -6.9568578    93.741516  0.031122681  0.032807668            3 
  252000    1.1838347   -6.9874787    93.692859  0.030983088  0.032800947            4 
  253000     1.183523   -6.9729025    94.429821  0.031103367  0.032793387            3 
  254000    1.2227837   -6.9583157    94.542099  0.031017749  0.032784869            2 
  255000    1.2195507   -6.9691426    95.227802  0.031120197  0.032776602            4 
  256000     1.217206   -6.9834802    95.529089  0.031096709  0.032770307            2 
  257000    1.2203297   -7.0194229    95.419389  0.030940139  0.032761654            3 
  258000    1.2183845   -6.9967185     95.50499  0.030847865  0.032751332            1 
  259000    1.1923198    -6.970355     96.67392  0.031104865  0.032743068            2 
  260000    1.2172832   -6.9566785    96.931696  0.031067851   0.03273462            2 
  261000     1.218848    -6.975536    97.436348  0.031109945  0.032728121            1 
  262000    1.2203501   -7.0125684    97.542396  0.031024935  0.032719877            1 
  263000    1.1977853   -7.0098045    97.632087  0.030935389  0.032711273            2 
  264000    1.2246735   -7.0099677    97.832844  0.030881579  0.032702775            2 
  265000    1.1934381   -7.0158907    98.372828  0.030934852  0.032693483            2 
  266000    1.2140455   -6.9859336    98.385611   0.03082256  0.032683777            2 
  267000    1.1954094   -7.0129881    98.590174  0.030770966  0.032672238            2 
  268000    1.2653543   -6.9324676    99.541707  0.030952023  0.032661773            1 
  269000    1.2045398    -7.026905    99.289458  0.030758816  0.032649844            5 
  270000    1.2358692   -6.9975935    99.747558  0.030786283  0.032638127            2 
  271000    1.1884117   -6.9486822    100.69835  0.030965052  0.032627863            2 
  272000    1.2016948   -6.9499745    100.76591  0.030871908   0.03261824            2 
  273000    1.1978694   -6.9994727    101.27325  0.030913692   0.03261006            3 
  274000     1.223937   -6.9759033    101.55898  0.030887768   0.03259899            2 
  275000    1.1826072   -6.9713903    101.67413  0.030810343  0.032586804            2 
  276000    1.2107827     -6.96332    101.82838  0.030745282  0.032572614            5 
  277000    1.1865038   -7.0170484    102.25875  0.030763764  0.032559296            3 
  278000     1.213982   -6.9444567    102.33741  0.030676682  0.032545082            2 
  279000     1.209393   -6.9896228    102.43606  0.030596195  0.032531893            2 
  280000    1.1934831    -6.951674    103.24488  0.030727642  0.032519033            4 
  281000     1.173888   -6.9722251    103.77688  0.030776062  0.032505534            1 
  282000    1.2139236   -6.9947558    104.06517   0.03075212   0.03249332            1 
  283000     1.206613   -7.0108839    104.53886  0.030782938  0.032481529            3 
  284000    1.1807332   -6.9696711     104.4666  0.030653346  0.032468874            3 
  285000    1.2160513   -7.0515164    104.25302  0.030483339  0.032454345            9 
  286000    1.2182666   -7.0445598    104.55549  0.030464888  0.032438514            2 
  287000    1.1911662   -7.0213187    105.25137  0.030560794  0.032422922            2 
  288000    1.2218046    -7.026649    105.47494   0.03051937  0.032407776            2 
  289000    1.1910356   -7.0085609     106.0622  0.030583103  0.032392554            2 
  290000    1.1941103   -6.9920066    106.42005  0.030580474  0.032377418            2 
  291000    1.2035091   -7.0366669    106.57122  0.030518677   0.03236314            2 
  292000    1.2143972   -6.9879084    107.13016  0.030573675  0.032348895            4 
  293000    1.2080892   -6.9608824    107.94737  0.030701756  0.032335952            3 
  294000     1.198722   -7.0142237    107.94571  0.030596856  0.032323254            3 
  295000    1.2364293   -6.9999159    108.37864  0.030615435   0.03230975            2 
  296000    1.2240793   -6.9862951    108.82694  0.030638214  0.032296048            3 
  297000    1.1932455    -6.983246    109.11036  0.030614579  0.032283512            3 
  298000    1.2017543   -6.9695287    109.59138   0.03064636  0.032271042            2 
  299000    1.1926011   -7.0249186     109.6115  0.030549472  0.032256591            1 
  300000    1.1986322   -6.9859037    109.87369   0.03052047  0.032241126            4 
  301000     1.198479   -7.0549566    110.06965  0.030473325   0.03222709            2 
  302000    1.2205037   -7.0781548    110.26951   0.03042757  0.032211125            4 
  303000     1.178819   -7.0126239    110.66493  0.030435899  0.032195413            3 
  304000    1.2287358   -7.0196339    111.05843  0.030443648  0.032180784            3 
  305000    1.1949111   -7.0172323    111.57235  0.030484248   0.03216456            6 
  306000     1.198159   -6.9831183    111.93274  0.030482772   0.03214923            1 
  307000    1.1872469   -7.0160756    112.13479  0.030438325  0.032133558            2 
  308000      1.23155   -7.0332427    111.78267  0.030244229  0.032116578            1 
  309000    1.2071979   -6.9800048    113.02198  0.030480577   0.03210085            3 
  310000    1.2344317   -6.9751773    112.84669   0.03033513  0.032084898            2 
  311000    1.1780892   -6.9954562    113.54563  0.030424875  0.032069039            3 
  312000    1.2363006   -7.0309523    113.61116  0.030344861  0.032052991            3 
  313000    1.2037016   -6.9877822    114.07084  0.030370298  0.032036654            4 
  314000    1.2066952   -6.9939827    114.43823  0.030371081  0.032019768            2 
  315000    1.2141893    -6.978869    115.05427  0.030437637  0.032004057            1 
  316000    1.1960593   -7.0113734    115.31871  0.030411052  0.031989061            2 
  317000    1.1794023   -6.9879062    115.27953  0.030304818  0.031974878            2 
  318000    1.1888738   -7.0365163    115.78296  0.030341446  0.031960786            3 
  319000    1.1864195   -7.0249276    116.40542  0.030408939  0.031947719            7 
  320000    1.1937367   -6.9937702     117.0123  0.030471953  0.031935127            3 
  321000    1.2028362   -6.9985185    117.10073  0.030399982  0.031922333            3 
  322000    1.1916593   -6.9562898    117.80891  0.030488848  0.031910228            1 
  323000    1.1855192   -7.0304216    118.10035  0.030469647   0.03189736            1 
  324000     1.192215   -7.0052003    118.20886  0.030403514  0.031884422            1 
  325000    1.1749284   -7.0080158    118.80421  0.030462619  0.031871359            3 
  326000    1.2128811    -7.065028    118.43437  0.030274634  0.031857648            2 
  327000    1.1865259   -7.0462045    118.85489  0.030289218   0.03184286            2 
  328000    1.2136144   -7.0162413    119.02421  0.030239891  0.031829391            2 
  329000    1.1956182    -7.049815    119.19037  0.030190063   0.03181497            2 
  330000    1.2198999   -7.0147776    119.62854  0.030209227  0.031800577            2 
  331000    1.1982538   -7.0071168    120.66392   0.03037863  0.031787176            2 
  332000    1.1786517   -7.0516298     120.2387  0.030180397  0.031773943            2 
  333000    1.1900496   -7.0121353    121.56036   0.03042051  0.031761821            2 
  334000    1.1787044   -6.9927867    121.65627  0.030353361   0.03175043            2 
  335000    1.1991274   -6.9928632    122.28633  0.030419485  0.031740425            5 
  336000    1.1944582   -7.0124237    122.71919  0.030436307  0.031729498            3 
  337000    1.2013067   -7.0357706    122.40791  0.030269018  0.031717863            2 
  338000    1.2176005   -6.9905299    123.06727   0.03034203  0.031704987            2 
  339000    1.1926539    -7.001723    123.13862  0.030270063  0.031693555            5 
  340000    1.1814899   -6.9920447    123.79994  0.030343124   0.03168116            1 
  341000    1.1896586   -7.0313839    124.06331  0.030318502  0.031669851            3 
  342000    1.2099657   -7.0226112    123.78749  0.030162645   0.03165703            3 
  343000    1.2029752   -6.9775798    124.66995  0.030289104   0.03164431            3 
  344000    1.1979666   -7.0384881    125.08956  0.030302704  0.031631918            2 
  345000     1.176738   -6.9991721    125.56237  0.030329075   0.03161927            2 
  346000    1.1573562   -6.9937999    125.37421    0.0301961  0.031606775            1 
  347000     1.170568    -7.020652    125.87224  0.030228684  0.031594042            2 
  348000    1.2016078   -6.9800736    126.16556  0.030212059  0.031581313            2 
  349000    1.1746253   -7.0713867    125.90947  0.030064343  0.031568384            4 
  350000    1.1813108   -7.0328758    126.77664  0.030184915  0.031554958            3 
  351000    1.1656817   -7.0513495     126.9162  0.030132051  0.031541743            1 
  352000    1.2006681   -7.0628381    127.12611  0.030096144  0.031528313            2 
  353000    1.1935102   -7.0480911    127.28622  0.030048682  0.031514919            2 
  354000    1.1956708   -7.0156754    127.68479  0.030057625  0.031500573            2 
  355000    1.1977453   -6.9955687     128.2782  0.030112252  0.031486788            3 
  356000    1.2242828   -6.9912958    128.81483  0.030153284  0.031472906            3 
  357000    1.1969851   -7.0604616    128.31568  0.029952307  0.031459698            2 
  358000    1.1909248   -7.0666473    128.88549  0.030001277   0.03144582            4 
  359000    1.1864383   -7.0546274    129.00562  0.029945595  0.031432186            4 
  360000    1.2438681   -7.0280949    129.96527  0.030084553  0.031418185            1 
  361000    1.1948075   -7.0425887    130.04637  0.030019938  0.031405011            2 
  362000    1.2160274   -7.0134308    130.83286  0.030118062  0.031392038            4 
  363000    1.1835575    -7.076979    130.67315  0.029998428  0.031378998            2 
  364000    1.2021837   -7.0118196    131.06352  0.030005384  0.031365791            2 
  365000    1.2077415   -7.0518293    131.47188   0.03001641  0.031351353            2 
  366000    1.1976534   -7.0854964    131.30634  0.029896707  0.031337784            3 
  367000      1.18831   -7.0519107    131.89794  0.029949577  0.031324232            3 
  368000    1.1971598    -7.026673    132.11834  0.029918103  0.031310601            1 
  369000    1.1841709   -7.0689516    132.40579   0.02990194  0.031296994            4 
  370000    1.1859981   -7.0178117    133.07551  0.029971962  0.031282481            3 
  371000    1.1996318   -7.0160273    133.18456   0.02991567  0.031268942            2 
  372000    1.1692241   -7.0306394    133.12952  0.029822922  0.031255979            3 
  373000    1.2040306   -7.0642731    133.93961  0.029923953   0.03124255            2 
  374000    1.1909176   -7.0832773    134.33899  0.029932931   0.03122959            3 
  375000    1.1790293   -7.0488673    135.25082  0.030055737  0.031217277            2 
  376000    1.1601114   -7.0345984    135.59408   0.03005188  0.031205249            2 
  377000    1.1960008     -6.98593    136.06234  0.030075672  0.031194761            3 
  378000    1.2077583   -7.0238233     136.4432  0.030080071  0.031183763            3 
  379000    1.1584169   -6.9739517    136.68508  0.030053887  0.031173091            3 
  380000    1.1928652   -7.0767136    136.48732   0.02993143  0.031161999            3 
  381000    1.1839876    -7.045129    136.91584  0.029946597  0.031150137            2 
  382000    1.1823022   -7.0289003    137.10455   0.02990937  0.031138849            4 
  383000    1.2275363   -7.0946388    136.99978  0.029808482  0.031126264            3 
  384000    1.1841277    -7.045675    137.63551  0.029868816  0.031113396            2 
  385000    1.1779407    -7.000825     138.6193  0.030004177  0.031101626            2 
  386000    1.2030708    -7.043177    138.12435  0.029819592  0.031089447            2 
  387000    1.2052845   -7.0664724    138.57002  0.029838506  0.031076516            3 
  388000     1.167811   -7.0471179    138.90999   0.02983462  0.031063249            7 
  389000    1.1812756     -7.04151     138.5966  0.029690788  0.031048617            2 
  390000    1.2197779   -7.0123881    139.28889  0.029762583  0.031034478            2 
  391000    1.2082328   -7.0421487    139.02883  0.029631039  0.031020512            6 
  392000    1.1711621   -7.0214134    139.86127  0.029732413  0.031005847            2 
  393000        1.186   -7.0848081    139.67105  0.029616423  0.030990842            3 
  394000    1.1726067   -7.0377918    140.50169  0.029716939  0.030975677            3 
  395000    1.1720016   -6.9924656    141.24808  0.029799173  0.030961259            2 
  396000    1.1839822   -7.0601727    140.32006  0.029528633  0.030946329            5 
  397000    1.1881445   -7.0566963    140.45745  0.029483092  0.030930759            3 
  398000    1.1761152   -7.0800712    140.78294  0.029477164  0.030914557            4 
  399000    1.2132605   -7.0205204      141.383  0.029528612  0.030897244            2 
  400000    1.1840739   -7.0576709    141.34457  0.029446785  0.030880244            1 
  401000    1.1937521   -7.0878356    141.05728  0.029313649  0.030863209            1 
  402000    1.1697879   -7.0853031    141.49536  0.029331541   0.03084572            3 
  403000    1.1647113   -7.0653294    141.90618  0.029343709  0.030828116            3 
  404000    1.1880396   -7.0664225    142.42584  0.029378268   0.03081134            1 
  405000    1.1934927   -7.0136202    143.36563  0.029499102   0.03079462            2 
  406000    1.2268366   -7.1047129    143.01266  0.029353994  0.030777273            2 
  407000    1.2023253   -7.1230506    143.35758  0.029352495  0.030760766            7 
  408000    1.1975194    -7.085428    144.01296  0.029414411  0.030744138            2 
  409000    1.1983017    -7.054243    144.79102  0.029501022  0.030728457            4 
  410000    1.1999158   -7.0369192    144.92729  0.029456766  0.030713243            2 
  411000    1.1967651      -7.0386    145.47245  0.029495631   0.03069807            2 
  412000     1.210084   -7.0442609    145.29258  0.029387657  0.030683001            2 
  413000    1.1979974   -7.0478925    145.75424  0.029409652  0.030667675            4 
  414000    1.2013327   -7.0870231    146.00258  0.029388603  0.030651992            1 
  415000    1.2065039   -7.0353068    146.04312  0.029325928  0.030635692            1 
  416000    1.2185508   -7.0732721    146.46418   0.02933978  0.030619614            2 
  417000     1.155491    -7.070783    147.22078   0.02942062  0.030603684            3 
  418000    1.1639411   -7.0630863    147.13171  0.029332479  0.030587577            2 
  419000    1.1769368   -7.0178752    147.81325  0.029398021  0.030573404            1 
  420000    1.1884846   -7.0407499    148.01025  0.029367113  0.030559311            5 
  421000    1.2058827   -7.0229375    148.73272  0.029440363  0.030545698            2 
  422000    1.1922824   -7.1060226    148.53571  0.029331696  0.030531231            3 
  423000    1.1581958   -7.0509037    148.74744  0.029304066  0.030516722            3 
  424000    1.1874057    -7.070177    149.03664  0.029291792  0.030502587            1 
  425000    1.1470568   -7.0696091    149.97223  0.029406319  0.030488066            3 
  426000    1.1974023   -7.0820767    149.57677  0.029259931  0.030474175            3 
  427000     1.189428    -7.088496    150.44097  0.029360064  0.030460481            3 
  428000    1.2037215   -7.0985905    150.38243  0.029280068  0.030446667            2 
  429000    1.1880501   -7.0482061     151.2868   0.02938749  0.030433685            4 
  430000     1.146276    -7.124135    150.21635  0.029111696  0.030419303            3 
  431000    1.1870697   -7.1029038    151.12932  0.029220673   0.03040491            9 
  432000    1.1690437   -7.0215549     151.6529  0.029254031   0.03039056            5 
  433000     1.189233   -7.0917024    152.17366  0.029286693   0.03037639            5 
  434000    1.1837159   -7.0549336    152.50567  0.029282963  0.030362685            3 
  435000    1.1980442     -7.03227    153.51061  0.029408164  0.030349666            3 
  436000    1.1661978   -7.0565301    153.00831  0.029244707    0.0303364            3 
  437000    1.2000244   -7.0435355    153.75048  0.029319314  0.030323509            3 
  438000    1.2002172   -7.0725349    154.06884  0.029312945  0.030310962            3 
  439000    1.1989176   -7.0379234    154.32046  0.029293937  0.030298712            3 
  440000    1.1787576   -7.0643781     154.7514  0.029308978  0.030285896            3 
  441000    1.1772914   -7.0885723    154.40297  0.029176676  0.030272439            4 
  442000    1.1679429   -7.0641373    154.56219  0.029140684  0.030259353            3 
  443000    1.1640408   -7.1025939    155.58449   0.02926721  0.030246984            3 
  444000    1.1618073   -7.0605921    156.08527  0.029295283  0.030234997            3 
  445000     1.178446   -7.0787974    156.15235  0.029242013  0.030221894            1 
  446000    1.1719724   -7.0407804    156.24948  0.029194596  0.030209025            2 
  447000    1.1602337   -7.0762375    155.95528  0.029074437  0.030195254            4 
  448000     1.193677   -7.0572185    156.74175  0.029155831  0.030181521            2 
  449000    1.1968685   -7.0254926    157.52728   0.02923669  0.030168382            2 
  450000     1.177364   -7.0531329    156.95412  0.029065577  0.030155897            4 
  451000    1.1972525   -7.0759777    157.50424  0.029102779  0.030142328            4 
  452000    1.1868497   -7.0650693    157.22264  0.028986475  0.030128582            2 
  453000    1.1951867   -7.0790729    157.96322  0.029058723  0.030115422            3 
  454000    1.1660329   -7.0188664    158.17888  0.029034303  0.030101725            3 
  455000    1.1653496   -7.1022786    158.27115  0.028987389  0.030087268            1 
  456000    1.1607905   -7.0966439    158.43766   0.02895425  0.030072546            2 
  457000    1.1726823   -7.0911835    158.92108  0.028979044  0.030057517            2 
  458000    1.1858008   -7.0705366    159.18198  0.028963243  0.030042109            4 
  459000     1.171196   -7.0580848    158.93455  0.028855219  0.030027246            4 
  460000    1.1858619   -7.1043479    159.41599  0.028879709   0.03001196            2 
  461000    1.1917431   -7.0214908    159.89794  0.028904183  0.029996763            4 
  462000     1.188336   -7.0797321    160.29332  0.028912937  0.029982708            2 
  463000    1.1762395   -7.0395123     161.2614   0.02902473  0.029969046            2 
  464000    1.1742506   -7.0565941    161.14611   0.02894147  0.029955671            3 
  465000    1.1397354   -7.0770806    161.29661  0.028906203  0.029942479            2 
  466000    1.1610566   -7.1082453    162.01344  0.028972361  0.029929822            5 
  467000    1.2051768   -7.0774398      162.535  0.029003391  0.029917462            1 
  468000    1.1665751   -7.0526699    163.45344  0.029104958  0.029904965            3 
  469000    1.1614166   -7.0740578    163.48484  0.029048479  0.029893503            1 
  470000    1.1915518   -7.0315114    164.20647  0.029114622  0.029881975            4 
  471000    1.1813355    -7.103855    163.46146  0.028920995  0.029870481            3 
  472000    1.1733941   -7.1203989    164.40939  0.029027082  0.029859048            2 
  473000    1.1945669   -7.0704159    164.68053  0.029013483  0.029847834            2 
  474000    1.1855832   -7.1193958    164.06902  0.028844764  0.029836616            3 
  475000     1.184194   -7.0756927    165.19183  0.028981023   0.02982503            3 
  476000     1.177278   -7.0445916    165.80017  0.029026641  0.029813728            2 
  477000    1.1831782   -7.1234704     165.8728  0.028978476  0.029802956            5 
  478000    1.1816391   -7.1123125    166.19393  0.028973838  0.029791924            2 
  479000    1.1907545   -7.0548241    166.65391  0.028993373  0.029781421            2 
  480000    1.1808311   -7.0836191    166.42714  0.028893601  0.029770386            2 
  481000    1.1492475   -7.0430903    167.68237     0.029051  0.029759785            2 
  482000    1.1943256   -7.1096186    167.53216  0.028964758  0.029748818            6 
  483000    1.1813118   -7.1026471    167.53986  0.028906119  0.029737885            3 
  484000    1.2083881   -7.0473756    168.94118  0.029087668  0.029727724            2 
  485000    1.1444738   -7.0578106    169.49109   0.02912218  0.029717674            2 
  486000    1.1533782   -7.0765973    169.55124  0.029072572  0.029707558            5 
  487000    1.1698036   -7.0565473    169.87703  0.029068622  0.029698157            4 
  488000    1.1402468   -7.0897671    170.52274  0.029119321  0.029688801            3 
  489000    1.1833592   -7.0831612    170.65451  0.029082228  0.029680739            1 
  490000    1.1656907   -7.1394032    170.79605  0.029046948  0.029672344            2 
  491000     1.161675   -7.0915641    171.09899  0.029039204  0.029663935            1 
  492000    1.1673365   -7.1210345    171.16542  0.028991433  0.029655357            3 
  493000    1.1632284   -7.0595119    172.45881  0.029151253  0.029647169            5 
  494000    1.1567118   -7.1004062    172.64422   0.02912352  0.029639087            2 
  495000     1.220131   -7.0584947     173.1098  0.029143064  0.029631236            3 
  496000    1.1699615   -7.0540466    174.00297   0.02923437  0.029624335            4 
  497000    1.1670825   -7.0592366    174.63852  0.029282113    0.0296174            3 
  498000     1.152615    -7.053868    174.79629  0.029249714  0.029611451            3 
  499000    1.1743431   -7.0500825    174.36878  0.029119702  0.029605235            3 
  500000    1.1870779   -7.0305244     175.4724    0.0292454  0.029599128            6 
  501000    1.1667796    -7.137449    174.84402  0.029082505  0.029592502            6 
  502000    1.1835705   -7.0551175    175.54748  0.029141348   0.02958553            6 
  503000    1.1742753   -7.0729857    175.69046  0.029107101  0.029579014            3 
  504000    1.1887631   -7.0951129     175.9213  0.029087516  0.029571861            5 
  505000    1.1687538   -7.0842868    176.28449  0.029089851  0.029564493            3 
  506000    1.1725913   -7.1367181    176.12539  0.029006158  0.029557523            2 
  507000    1.1552889   -7.1048542    176.72097  0.029046839  0.029550239            1 
  508000    1.1369697   -7.0892066    177.48308  0.029114678  0.029543486            2 
  509000    1.1713953   -7.0708557    178.04894  0.029150121  0.029536877            2 
  510000     1.146826   -7.1267372    178.04327  0.029092037  0.029530234            2 
  511000    1.1809955   -7.0967593     178.9924  0.029189889  0.029523368            2 
  512000    1.1680349   -7.1072202    178.86449   0.02911206  0.029516646            2 
  513000    1.1608459   -7.0870259    179.55433   0.02916737  0.029510502            1 
  514000    1.1539249   -7.0982645    179.72877  0.029138906  0.029503686            4 
  515000    1.1520163    -7.070287    180.54468  0.029214349  0.029497503            3 
  516000    1.1419226   -7.0968409    180.06189  0.029079762  0.029491345            2 
  517000    1.1453127   -7.0956668    180.23041  0.029050679  0.029484667            2 
  518000    1.1669973   -7.0975399    180.48522  0.029035589  0.029478426            2 
  519000     1.165198    -7.067733    180.75696  0.029023276  0.029471776            5 
  520000    1.1466038   -7.0532188    181.59204  0.029101288  0.029465188            3 
  521000    1.1601616   -7.1486646    180.76048  0.028912424  0.029458201            3 
  522000    1.1606869   -7.0968773    181.66921  0.029002109  0.029451418            2 
  523000    1.1576277   -7.1095743    181.94437  0.028990499  0.029444461            5 
  524000    1.1864592    -7.119527     183.0106  0.029104739  0.029437394            1 
  525000    1.1708315   -7.0686156    183.06572  0.029058051  0.029430395            2 
  526000    1.1675263   -7.1259864    183.16104  0.029017909  0.029423948            2 
  527000    1.1678873   -7.1245977    183.28156  0.028981904  0.029417145            5 
  528000    1.1613899   -7.1050357    183.55205  0.028969704  0.029409801            5 
  529000    1.1564231   -7.1013489    184.29605  0.029032143  0.029402662            9 
  530000    1.1594007   -7.0897696    184.01302  0.028932865  0.029395616            3 
  531000    1.1832553   -7.0416853    184.81516  0.029004262  0.029388455            3 
  532000     1.179744   -7.1206591    184.65953  0.028925365  0.029381198            3 
  533000    1.1586459   -7.1040483    185.55703  0.029011418   0.02937376            3 
  534000    1.1641358   -7.0719466    185.51324  0.028950256   0.02936737            2 
  535000    1.1452951   -7.1007358    185.74377  0.028932051  0.029360349            4 
  536000    1.1650294    -7.111174    186.31305   0.02896658  0.029353818            1 
  537000    1.1666375      -7.1098    186.65992  0.028966469  0.029347678            3 
  538000    1.1721189   -7.0429407    187.75427  0.029082136  0.029341273            3 
  539000     1.183452   -7.1082679    187.12422   0.02893077  0.029334916            3 
  540000    1.1563043   -7.1217746     187.3208   0.02890753  0.029327879            2 
  541000     1.137932   -7.0842283    187.84019  0.028934101  0.029321021            4 
  542000    1.1957346   -7.1000638    188.17768  0.028932607  0.029314395            5 
  543000    1.1977066   -7.1022013     188.8601  0.028984055   0.02930773            3 
  544000    1.1595966   -7.1150945    189.43072  0.029018186  0.029301717            4 
  545000    1.1681016   -7.0888821    189.69554  0.029005435   0.02929678            2 
  546000    1.1725787   -7.0723081     190.3731  0.029055723  0.029291193            3 
  547000    1.1818366   -7.1439105    189.33146  0.028843915  0.029284758            2 
  548000    1.1749705   -7.0937079    190.68832  0.028997615  0.029279001            2 
  549000    1.1636067   -7.1136817    190.50065   0.02891631  0.029272844            2 
  550000    1.1769902   -7.1442624    190.75449  0.028902196  0.029266358            4 
  551000    1.1415928   -7.1020202    191.63002  0.028982157  0.029260025            1 
  552000    1.1878504   -7.1186949    191.07653  0.028846094  0.029253429            1 
  553000    1.1876889     -7.09736      192.251  0.028970916  0.029246905            3 
  554000    1.1438129   -7.1416614    192.20615  0.028911876  0.029240567            2 
  555000     1.171319   -7.0896946    192.92927  0.028968359  0.029234452            2 
  556000    1.1551116   -7.1034898    192.98208  0.028924172  0.029227993            2 
  557000    1.1936975   -7.1618853    192.77965  0.028841959  0.029221907            4 
  558000    1.1706814   -7.0642583    194.22754  0.029006502  0.029216208            3 
  559000    1.1985836   -7.0761773    194.56607  0.029005079  0.029210929            3 
  560000    1.1684821   -7.1150642    195.02291  0.029021267  0.029205579            4 
  561000    1.1488889   -7.1010394    194.76028  0.028930523  0.029199949            3 
  562000    1.1888466    -7.095193    195.20285   0.02894467  0.029194034            5 
  563000    1.1510389   -7.0886379    195.84047  0.028987636  0.029188354            3 
  564000    1.1665766   -7.1017793    196.52332  0.029037134  0.029182621            3 
  565000    1.1695765   -7.1041653    196.08464  0.028921038  0.029177097            2 
  566000    1.1416241   -7.1103679    195.55035  0.028791277  0.029170915            6 
  567000    1.1611486   -7.1385573     197.1107  0.028969826  0.029165138            2 
  568000    1.1429095   -7.0864933    197.51863  0.028978673   0.02915958            1 
  569000    1.1688366    -7.108527    196.44454  0.028770436  0.029153986            3 
  570000    1.1726459   -7.1019914    197.48716  0.028872392  0.029148737            9 
  571000    1.1588941   -7.1290531    198.16356  0.028920542  0.029143503            3 
  572000    1.1726771   -7.1369227    198.58821  0.028931849  0.029138138            2 
  573000    1.1901999   -7.1632843    198.55999  0.028877252  0.029132778            2 
  574000    1.1671793   -7.1350648    199.02866  0.028894986  0.029127136            2 
  575000    1.1549071   -7.1449787    199.32696  0.028887965  0.029122388            2 
  576000    1.1555737   -7.0927575    200.14803  0.028956601  0.029117501            3 
  577000    1.1591769   -7.1252007    200.56387  0.028966475  0.029112285            3 
  578000    1.1746349   -7.1578104    200.39414  0.028891889  0.029107163            1 
  579000    1.1522323   -7.1088826    200.47018  0.028852934  0.029102244            3 
  580000     1.158764   -7.1238777     201.2872  0.028920574  0.029097592            3 
  581000    1.1435343   -7.1485201    202.00904  0.028974332  0.029092826            3 
  582000    1.1834287   -7.1062146    201.34218  0.028829064  0.029087972            8 
  583000     1.138605   -7.0636295    202.78569  0.028985948  0.029083419            5 
  584000    1.1519612   -7.1057712    202.90536   0.02895339  0.029078602            4 
  585000    1.1507706   -7.1277156    202.59283  0.028859378  0.029073554            4 
  586000    1.1494278   -7.1478972    201.98786  0.028724098  0.029068261            1 
  587000    1.1434138    -7.130984    202.96018    0.0288132  0.029062741            3 
  588000    1.1538787   -7.1297949    203.25527   0.02880602  0.029056842            3 
  589000    1.1425298   -7.1445054    202.95076  0.028714029   0.02905138            3 
  590000    1.1521423   -7.1646979    203.17805  0.028697464  0.029045067            7 
  591000    1.1423019   -7.1315828    203.89247  0.028749643  0.029038942            4 
  592000    1.1704045   -7.1331893    204.02846  0.028720223  0.029033215            2 
  593000    1.1450024    -7.137478    204.46418  0.028733022  0.029027121            2 
  594000    1.1470952   -7.1468774    204.90327   0.02874625  0.029021058            1 
  595000    1.1343279   -7.0835909    204.88352   0.02869517  0.029014909            2 
  596000    1.1833306   -7.1163993      205.409  0.028720498  0.029008561            2 
  597000    1.1731083   -7.1511102    204.35364  0.028525075  0.029002271            3 
  598000    1.1587896   -7.1464475    205.14757  0.028588012  0.028995825            3 
  599000     1.161712   -7.1502326    205.78118  0.028628434  0.028989269            3 
  600000     1.160511   -7.1535202     206.3948  0.028665944  0.028983225            3 
  601000    1.1763861   -7.1218953    206.96318  0.028697058  0.028977285            3 
  602000    1.1558231   -7.1309085    207.08933   0.02866685  0.028971207            2 
  603000    1.1395657   -7.1152116    207.95148  0.028738458    0.0289653            4 
  604000    1.1818294   -7.0840943    207.73387  0.028660854  0.028959712            3 
  605000    1.1420295   -7.1192864    208.56319  0.028727713  0.028953897            4 
  606000    1.1504923   -7.1091559    208.32839  0.028648018  0.028948112            3 
  607000    1.1573858   -7.1122862    208.71762  0.028654259   0.02894147            3 
  608000    1.1611196   -7.1475406    208.25079  0.028543145  0.028934552            5 
  609000    1.1699548   -7.1342161     208.9049  0.028585782    0.0289279            1 
  610000    1.1467866   -7.1904866    208.64985  0.028504078  0.028921039            3 
  611000    1.1705722   -7.1213344    209.99567  0.028640981  0.028914469            2 
  612000    1.1612001   -7.1256187    210.17359  0.028618409  0.028908238            1 
  613000    1.1356883   -7.1494337    210.19524  0.028574666  0.028901813            1 
  614000    1.1572046   -7.1769344     210.4399  0.028561333  0.028895657            3 
  615000    1.1684709   -7.1266402    210.99142  0.028589623  0.028889729            1 
  616000    1.1840816   -7.1236509    212.01212  0.028681293  0.028884182            2 
  617000    1.1448111   -7.0998974    212.51571  0.028702824  0.028878873            2 
  618000    1.1458522   -7.0875553    212.77111  0.028690819   0.02887363            2 
  619000    1.1387916   -7.1335591    212.55514  0.028615393  0.028868509            3 
  620000    1.1344092   -7.1062206    212.61386  0.028577132  0.028863456            4 
  621000    1.1568024   -7.1507039    212.80897  0.028557296  0.028858131            2 
  622000    1.1700481   -7.1107314    213.35667  0.028584762  0.028852715            4 
  623000     1.144133   -7.1311178    214.39905  0.028678311  0.028847657            4 
  624000    1.1510882   -7.1585866    213.52089  0.028515076  0.028842093            2 
  625000    1.1854085   -7.1395223    213.92584  0.028523446  0.028836175            7 
  626000    1.1652074   -7.1570756    213.88526  0.028472479  0.028830603            2 
  627000     1.126453   -7.1682664    214.81659   0.02855085  0.028824432            2 
  628000    1.1412915   -7.1215871    215.06517  0.028538371  0.028818693            2 
  629000    1.1575845   -7.1355127    215.79849  0.028590155  0.028812886            2 
  630000    1.1410951   -7.1687759    215.02601  0.028442594   0.02880687            4 
  631000    1.1695077   -7.0940256    216.46309  0.028587307  0.028801432            3 
  632000    1.1608716   -7.1442334    216.38969  0.028532396  0.028795721            3 
  633000    1.1117052   -7.1807606    215.82869  0.028413466  0.028788955            5 
  634000    1.1599042   -7.1361861    216.79282  0.028495376  0.028782052            2 
  635000      1.16468   -7.1679457    215.98267  0.028344183  0.028775512            2 
  636000    1.1443109   -7.1583112    216.39666   0.02835386  0.028769286            3 
  637000    1.1409589   -7.1077527    218.05326  0.028526068  0.028763585            2 
  638000    1.1761137   -7.1133261    218.88174  0.028589569  0.028757745            2 
  639000      1.17007    -7.168624    217.36723  0.028347318  0.028751498            2 
  640000    1.1485828   -7.1221847    218.39031  0.028436238  0.028745041            3 
  641000    1.1476131   -7.1292578    218.45769  0.028400635  0.028738624            2 
  642000    1.1300868   -7.1680999     218.3413  0.028341291   0.02873199            2 
  643000    1.1234389   -7.1527713    218.73058  0.028347665  0.028725234            5 
  644000    1.1753243   -7.1460239    219.99433  0.028467175  0.028718365            3 
  645000     1.143091   -7.1322693    219.72086  0.028387709  0.028712033            2 
  646000     1.132052    -7.130572    220.64956  0.028463566  0.028706029            2 
  647000    1.1585902   -7.1689064    220.11258   0.02835041  0.028699755            2 
  648000    1.1439394   -7.1569734    220.71697  0.028384384  0.028692865            2 
  649000    1.1409868    -7.149401    221.21211  0.028404225  0.028686031            4 
  650000    1.1434236   -7.1839051    220.36595  0.028252045  0.028679091            6 
  651000    1.1598996   -7.0929956    222.19917  0.028443314  0.028672331            4 
  652000    1.1585502   -7.1783738    221.32102  0.028287452  0.028665914            3 
  653000    1.1297404   -7.1575883    222.29945  0.028368996  0.028659532            2 
  654000    1.1657574   -7.1845816    222.29876   0.02832553  0.028653154            4 
  655000    1.1462152   -7.1724568      222.997   0.02837112  0.028646743            4 
  656000    1.1394647   -7.1551378    223.13484  0.028345381  0.028640305            1 
  657000    1.1773849   -7.1658416    223.40942  0.028337065  0.028633658            5 
  658000    1.1316781   -7.1478858    223.64962   0.02832442  0.028627217            2 
  659000    1.1584614   -7.1198532    224.63153  0.028405605  0.028620742            2 
  660000     1.149494   -7.1400975    224.72948  0.028374935  0.028614015            3 
  661000    1.1275251   -7.1182275    224.37416  0.028287212  0.028607497            2 
  662000    1.1393809   -7.1229196    224.95869  0.028318062  0.028601053            2 
  663000    1.1415863   -7.1788402    225.58134  0.028353613   0.02859445            3 
  664000    1.1550944   -7.1603298    225.02027  0.028240496  0.028587484            2 
  665000    1.1530686   -7.1815808    226.11984   0.02833582  0.028580806            2 
  666000    1.1498947   -7.2052364    224.88316  0.028138534  0.028573784            5 
  667000    1.1434314   -7.1070783     226.8153  0.028337744  0.028567046            2 
  668000    1.1691367   -7.1714845    227.50163  0.028380941  0.028560664            4 
  669000    1.1165004   -7.1698925     226.3614  0.028196487  0.028554073            2 
  670000    1.1548262   -7.1392193     226.8923  0.028220435   0.02854724            2 
  671000    1.1319243   -7.1253343    227.98319  0.028313859  0.028541033            5 
  672000    1.1389911   -7.1385061    228.34066  0.028316055  0.028534332            1 
  673000    1.1412929   -7.1452709    228.43801  0.028286033   0.02852766            3 
  674000    1.1388417   -7.1388764    227.93617  0.028182018  0.028520863            3 
  675000    1.1463345    -7.154694    228.11705  0.028162598  0.028514087            3 
  676000    1.1545818     -7.16306    228.51812  0.028170379  0.028507261            2 
  677000    1.1300478   -7.1376768    229.30534  0.028225669  0.028500895            2 
  678000    1.1298749   -7.1340891    229.35065  0.028189608  0.028494672            3 
  679000     1.155326   -7.1727043    229.20463  0.028130171  0.028488375            3 
  680000    1.1314773   -7.1883932    228.98325  0.028061672   0.02848175            2 
  681000    1.1430341   -7.1721644    230.28224  0.028179422  0.028475224            1 
  682000    1.1333871   -7.1394164    231.06197  0.028233379  0.028468621            4 
  683000     1.127349   -7.1848142    229.56034  0.028008827  0.028462036            6 
  684000    1.1387533   -7.1363331    231.29314  0.028178989  0.028455489            2 
  685000    1.1600737   -7.1623198    231.27558  0.028135716  0.028449474            3 
  686000    1.1189593   -7.1849855    231.10705  0.028074228  0.028442977            3 
  687000    1.1319944   -7.1324045    233.08185  0.028272907  0.028436683            3 
  688000    1.1365051   -7.1448878     233.2175  0.028248243  0.028430735            3 
  689000    1.1615578   -7.1603065     233.0103  0.028182184  0.028424756            2 
  690000    1.1384715   -7.1472998    234.40642  0.028309954  0.028418914            2 
  691000    1.1419489   -7.1379921    233.97233  0.028216634  0.028413012            2 
  692000    1.1477507   -7.1573407    234.20278   0.02820361  0.028406764            4 
  693000    1.1268211   -7.1775351    234.05994  0.028145735  0.028400633            3 
  694000    1.1310026   -7.1798926    233.64868  0.028055797  0.028393728            4 
  695000    1.1445027   -7.1572545    234.44511  0.028110924  0.028386905            3 
  696000    1.1212947   -7.1831233    234.35116  0.028059286  0.028380157            3 
  697000    1.1259182   -7.1579911    235.13273  0.028112473  0.028373485            3 
  698000    1.1465304   -7.2093124    235.16233  0.028075731  0.028366966            1 
  699000    1.1588226   -7.1988893    234.93335  0.028008268   0.02836048            8 
  700000    1.1415855   -7.1915837    235.55663  0.028042456  0.028353644            3 
  701000    1.0969008   -7.1966375    235.63038   0.02801122  0.028346745            2 
  702000    1.1494541   -7.2055972    235.57899  0.027965217  0.028339831            1 
  703000    1.1270163   -7.2023755    235.37303  0.027901023  0.028332801            2 
  704000    1.1408468   -7.2002068    237.17689  0.028074916  0.028326093            2 
  705000    1.1434453   -7.1626986    237.19879  0.028037682  0.028319918            2 
  706000    1.1473306   -7.1551752    237.97672  0.028089792   0.02831371            2 
  707000    1.1404525   -7.1901834    237.73088  0.028021085  0.028306977            7 
  708000    1.1323277   -7.1555986    237.51434   0.02795602  0.028300162            2 
  709000    1.1472461   -7.1690279    237.68869  0.027937082  0.028293897            2 
  710000    1.1640196    -7.196823    238.63291  0.028008558  0.028287433            9 
  711000    1.1329802   -7.1976186    237.90074   0.02788335   0.02828052            3 
  712000    1.1125572   -7.1293838     240.1813  0.028111108  0.028273864            4 
  713000    1.1500837   -7.1943252    238.94738  0.027927464  0.028267231            2 
  714000    1.1453223   -7.1726559    238.71385  0.027861094  0.028260505            2 
  715000    1.1465091   -7.1815358     239.7197  0.027939358  0.028253598            1 
  716000    1.1290213   -7.1728254    239.91708   0.02792331  0.028246479            2 
  717000    1.1335934   -7.1617398    240.31498  0.027930612  0.028239884            4 
  718000    1.1457673   -7.1361354    241.12747  0.027986011   0.02823305            3 
  719000    1.1505625   -7.1116258    241.84547  0.028030305  0.028226661            6 
  720000    1.1477136   -7.1931501    239.80979  0.027755763  0.028219911            3 
  721000     1.119971   -7.1673545    241.41601  0.027902914  0.028212581            3 
  722000    1.1288994   -7.1775863    241.05431  0.027822519  0.028205455            1 
  723000     1.119076   -7.1415287    241.85851   0.02787673  0.028198759            2 
  724000    1.1398858   -7.1472545    243.04731  0.027975058  0.028192245            5 
  725000    1.1269076   -7.1950832    242.37076  0.027858708  0.028185478            4 
  726000    1.1384935   -7.1633004    243.24667  0.027920876  0.028178822            2 
  727000    1.1397846   -7.1890016    242.86099  0.027838261  0.028172627            6 
  728000     1.131295   -7.1360865    245.31083  0.028080452  0.028166549            1 
  729000    1.1184373   -7.1854722    244.05757  0.027898671  0.028160753            2 
  730000    1.1306552   -7.1848709    244.88755  0.027955199  0.028154822            1 
  731000    1.1057954   -7.2310063    244.29824  0.027849777  0.028148787            1 
  732000     1.135598    -7.209357    244.32607  0.027814898   0.02814255            3 
  733000    1.1488376   -7.1728225    245.53099  0.027913937  0.028136193            1 
  734000     1.138563   -7.2181481    245.99063  0.027928092  0.028129941            3 
  735000    1.1261374   -7.1905729    246.19923  0.027913745  0.028124057            4 
  736000    1.1268559   -7.1828287     246.0846   0.02786284  0.028118222            2 
  737000    1.1239224   -7.1591994    247.26475  0.027958475  0.028112032            2 
  738000    1.1334629   -7.1640417    247.10386  0.027902423  0.028105725            2 
  739000    1.1295366   -7.1873514    247.15875  0.027870856  0.028099794            3 
  740000    1.1361343   -7.2108594    247.35342  0.027855114   0.02809351            2 
  741000    1.1448466   -7.2092324    247.41058  0.027823952  0.028087086            5 
  742000    1.1247618   -7.2012386    247.77683  0.027827586  0.028080828            3 
  743000    1.1149204   -7.1999656    248.83943  0.027909313  0.028074479            2 
  744000    1.1341737   -7.2631755    247.89885  0.027766448  0.028067848            4 
  745000    1.1326971    -7.175036    248.77711  0.027827417    0.0280612            3 
  746000    1.1264432   -7.1977162    249.22347  0.027839977  0.028055035            3 
  747000    1.1287537   -7.1946852    249.93726  0.027882336  0.028048769            4 
  748000     1.146547   -7.2197953    249.65724  0.027813864  0.028042615            1 
  749000    1.1390492   -7.1692071    250.26835  0.027844721  0.028036586            2 
  750000    1.1522404    -7.180221    250.24413  0.027804903  0.028030535            3 
  751000    1.1760471   -7.2270026    249.29841   0.02766294  0.028024137            2 
  752000    1.1106727   -7.1804735    251.56609  0.027877448   0.02801765            3 
  753000    1.1298669   -7.2140131    250.73466  0.027748413  0.028011815            4 
  754000    1.1289115    -7.265555    250.77445  0.027716009  0.028005643            6 
  755000    1.1384006   -7.2036043    251.44342  0.027753137  0.027999221            3 
  756000    1.1378112   -7.2053173    251.66831  0.027741216  0.027992837            2 
  757000     1.127583   -7.2269161    252.48636  0.027794624  0.027986535            5 
  758000    1.1323068    -7.187999    252.56905  0.027767046  0.027980937            2 
  759000    1.1314259   -7.2146759     252.5191  0.027724978  0.027975042            4 
  760000    1.0934927   -7.1650995    253.51397  0.027797585  0.027969292            2 
  761000     1.127097   -7.1896118    253.16608  0.027722961  0.027963532            2 
  762000    1.1276977   -7.2155976    253.44853  0.027717469  0.027957607            3 
  763000    1.1509637   -7.1802401     254.5064   0.02779668  0.027951519            2 
  764000    1.1286997   -7.1908634    254.63393  0.027774208  0.027945695            4 
  765000    1.1190309    -7.198668    255.10593  0.027789317  0.027939838            5 
  766000    1.1439663   -7.2440266    254.99941   0.02774145  0.027934065            2 
  767000    1.1137914   -7.1847282    256.32225  0.027849006  0.027927883            5 
  768000    1.1443696   -7.1313662    256.81947  0.027866696  0.027922209            4 
  769000    1.1323232   -7.2567357     255.6067  0.027699036  0.027916605            2 
  770000    1.1372378   -7.2105976    256.80282  0.027792513  0.027910773            4 
  771000    1.1301664   -7.1912605    256.99272  0.027776991  0.027904886            4 
  772000    1.1246003   -7.1886873    256.95765  0.027737225  0.027899574            4 
  773000    1.1124302   -7.1921328     257.5645  0.027766763  0.027894513            1 
  774000    1.1154806   -7.2153847    258.04716  0.027782855  0.027889165            2 
  775000    1.1284883   -7.2242002    257.85939  0.027726816  0.027883356            4 
  776000    1.1079447   -7.2167525    258.03068   0.02770948    0.0278778            2 
  777000    1.1201119   -7.2240775    258.74046  0.027749942  0.027871984            7 
  778000    1.1244308   -7.1658281    259.21539  0.027765145  0.027866631            4 
  779000    1.1411366    -7.220072    259.24011  0.027732147  0.027861334            1 
  780000    1.1024507   -7.1901125    259.70341   0.02774609  0.027856042            3 
  781000    1.1459358   -7.1753755    260.13654   0.02775678  0.027850729            2 
  782000     1.122321   -7.1777584    260.82566  0.027794721  0.027845773            1 
  783000    1.1241213   -7.2265147    260.44099  0.027718283  0.027840579            4 
  784000    1.1498046   -7.2057639    260.61916  0.027701866  0.027835144            3 
  785000    1.1297735   -7.1981103     261.7381  0.027785361  0.027829926            3 
  786000    1.1301922   -7.2108126    261.98054  0.027775714  0.027824766            2 
  787000    1.1195132   -7.2226975    261.17683  0.027655319  0.027819469            3 
  788000    1.1293208   -7.2059749    262.01804  0.027709184  0.027814248            2 
  789000     1.121576   -7.2208823     261.5355  0.027623099  0.027808751            2 
  790000    1.1009404   -7.2187492    262.85323  0.027727134  0.027803189            4 
  791000    1.0949832   -7.2100563    262.53602  0.027658662  0.027797543            2 
  792000    1.1023898   -7.1412332    263.49483  0.027724624  0.027791673            1 
  793000    1.1148093   -7.2285721    262.27609   0.02756159  0.027786093            3 
  794000    1.1455275   -7.1913112    263.50966  0.027656345  0.027780114            2 
  795000    1.1109073   -7.2380984    262.45513  0.027511019   0.02777418            2 
  796000    1.1337066    -7.227247    263.04257  0.027537957  0.027767731            4 
  797000    1.1247591   -7.2363804    262.76674  0.027474565  0.027761012            3 
  798000    1.1100847    -7.202379    264.44072  0.027614946  0.027754604            3 
  799000    1.1106779   -7.1724447    264.55993  0.027592817  0.027748578            2 
  800000    1.1266094   -7.2403017     263.6469  0.027463219  0.027741969            2 
  801000    1.1231263   -7.2248402    264.28536  0.027495356  0.027735576            8 
  802000    1.1280294   -7.2195131     264.7948  0.027514007  0.027729098            1 
  803000    1.1298422   -7.2347708    265.65868  0.027569394  0.027722875            1 
  804000    1.1014021   -7.1954024    265.28409  0.027496278  0.027716531            2 
  805000    1.1175907   -7.2342933    265.51713  0.027486246  0.027710174            2 
  806000    1.1256799   -7.2095337     265.1995  0.027419303  0.027703916            3 
  807000    1.1389654   -7.2238692    266.24544  0.027493333  0.027697832            3 
  808000    1.1323745   -7.2122191    267.42805  0.027581276  0.027691862            1 
  809000    1.1261329   -7.1938178    267.24389  0.027528212  0.027685846            2 
  810000     1.121898   -7.2280218      266.899  0.027458745  0.027679912            6 
  811000    1.1429474     -7.23755    267.13461  0.027449097  0.027673824            3 
  812000    1.1560515   -7.2006698    268.76058  0.027582162  0.027667895            1 
  813000    1.0959944   -7.2478123    267.50318   0.02741935  0.027661827            3 
  814000    1.1219813   -7.2289544     268.1049  0.027447266  0.027655742            5 
  815000    1.1250365   -7.2400224    268.59515  0.027463717  0.027649993            3 
  816000    1.1333565   -7.2223654     268.9379  0.027465063  0.027644405            4 
  817000    1.1128862   -7.1849369    270.10128   0.02755011  0.027638693            2 
  818000    1.1466874   -7.2380794    269.43389  0.027448441  0.027632904            1 
  819000    1.1036578   -7.2567873    269.76259  0.027448371  0.027627132            3 
  820000    1.1361335   -7.2038964    270.43809  0.027483546  0.027621278            2 
  821000    1.1373755   -7.2640852    269.66766   0.02737187  0.027615426            6 
  822000    1.1504862   -7.2224149    270.87997  0.027461473  0.027609826            3 
  823000    1.1434513    -7.210966    271.29231  0.027469858  0.027603973            4 
  824000    1.1173099     -7.22078    271.44686   0.02745215  0.027598272            5 
  825000    1.1087582   -7.2440524    270.99582  0.027373315  0.027592144            1 
  826000    1.1215776   -7.2258541    272.19656  0.027461315  0.027586299            1 
  827000    1.1249861   -7.2485969     272.2564  0.027434139  0.027580572            5 
  828000    1.1263909   -7.1915348    273.26135  0.027502149  0.027574908            2 
  829000    1.1316614    -7.230406      272.557   0.02739817  0.027569227            4 
  830000    1.1052291   -7.2488511    272.88137  0.027397728  0.027563194            4 
  831000    1.1200048   -7.2483134    273.78218  0.027455093  0.027557368            3 
  832000    1.1186884    -7.206889    274.09152  0.027453077  0.027551552            5 
  833000    1.1074874   -7.2342177    274.46652  0.027457635  0.027545724            1 
  834000    1.1028352   -7.2195248    275.47703  0.027525683  0.027539995            3 
  835000    1.1152189   -7.1718284    275.59489   0.02750448  0.027534383            2 
  836000    1.0930273   -7.2448031    274.56926  0.027369344  0.027528807            7 
  837000    1.1204619    -7.222772    275.25217  0.027404636  0.027522963            3 
  838000    1.1010441   -7.2300544    275.16281  0.027363048   0.02751729            2 
  839000    1.1214808   -7.2588631    275.41488  0.027355471  0.027511398            5 
  840000    1.1358577   -7.2201109    276.40781   0.02742141  0.027505605            4 
  841000    1.1042886   -7.2529602    275.74429  0.027323057  0.027500175           14 
  842000    1.0933006   -7.2331794     276.4869  0.027364104  0.027494614            8 
  843000    1.1135043   -7.2551592    275.59421  0.027243397   0.02748896            2 
  844000    1.0898741   -7.2059438    277.56038  0.027405251    0.0274832            4 
  845000    1.1252613   -7.2238221    277.41919  0.027358894  0.027477778            4 
  846000    1.1202615   -7.2147133    277.46436  0.027331005   0.02747233            2 
  847000     1.139503   -7.2184836    277.24941  0.027277589  0.027466407            7 
  848000    1.1263035   -7.2397213    278.15992  0.027334898  0.027460589            5 
  849000    1.1027133   -7.1981043    278.83588   0.02736905  0.027454812            2 
  850000    1.1233726   -7.2479353    278.54996  0.027308819  0.027449003            3 
  851000    1.1357968    -7.205932    278.49985  0.027271822  0.027443266            2 
  852000    1.1307863    -7.247933    278.69469   0.02725887  0.027437421            3 
  853000    1.0932341    -7.237399    278.63667  0.027221246  0.027431291            2 
  854000     1.131215   -7.2680732    278.98882  0.027223733  0.027425337            3 
  855000    1.1078944   -7.2193013    279.85125   0.02727595  0.027419462            3 
  856000    1.1031027    -7.228952    279.62039  0.027221611  0.027413649            3 
  857000    1.1250367   -7.2718753    279.18439  0.027147452  0.027407495            2 
  858000    1.1022642   -7.2898578    280.39023  0.027232929  0.027401324            3 
  859000    1.1162631   -7.2717164    280.37077  0.027199337   0.02739527            8 
  860000    1.0941854   -7.3029048    280.39658  0.027170211  0.027389115            4 
  861000    1.1169253   -7.2575903    281.37122  0.027232987  0.027382924            4 
  862000    1.1015165   -7.2673388    280.44347  0.027111705   0.02737648            2 
  863000    1.1259347   -7.2639357    280.84255  0.027118825  0.027370286            2 
  864000    1.1081057   -7.2271694    283.03727   0.02729912    0.0273642            2 
  865000    1.1095437   -7.2520857    281.55336  0.027124602  0.027358235            2 
  866000    1.0732024   -7.2585311    282.58204  0.027192267  0.027352062            3 
  867000    1.0788296   -7.2201922    282.89948  0.027191415  0.027346064            2 
  868000     1.122769    -7.253684    283.41068  0.027209167  0.027340042            3 
  869000    1.1189337   -7.2587489    283.76569    0.0272119  0.027334328            5 
  870000    1.1022351   -7.2455892    284.24781  0.027226802  0.027328483            3 
  871000    1.0710017   -7.2320929    284.85117  0.027253269  0.027322621            3 
  872000    1.1200504   -7.2887519    283.62826  0.027105147  0.027316727            4 
  873000    1.0856119   -7.2413793    284.04964  0.027114322  0.027311148            3 
  874000    1.1108744   -7.2911634    284.38545  0.027115317  0.027305411            3 
  875000    1.1128589   -7.2240796    286.10559  0.027248151   0.02729951            4 
  876000    1.1134391   -7.2262455    285.75949  0.027184122  0.027293829            3 
  877000    1.1229587   -7.2967132    284.98436  0.027079472   0.02728785            2 
  878000    1.1067816   -7.2786855     286.4653  0.027189189  0.027281685            4 
  879000    1.1051405    -7.287588    285.87019  0.027101838  0.027275663            3 
  880000    1.1377934    -7.300492    286.14165  0.027096747  0.027269707            5 
  881000    1.0955601   -7.2341835    287.01835  0.027148917  0.027263865            2 
  882000    1.1019971   -7.2556712    287.23243  0.027138363  0.027258126            3 
  883000    1.1102309    -7.258708    286.98466  0.027084245  0.027252427            3 
  884000    1.1138029   -7.2628953    286.74072  0.027030611  0.027246352            3 
  885000    1.1030298   -7.2413206    288.39688  0.027156015  0.027240815            5 
  886000    1.1180094   -7.2244483    288.17693  0.027104678  0.027235108            1 
  887000    1.1167157   -7.2523607    288.45381  0.027100132  0.027229232            6 
  888000    1.1195106   -7.2623698    288.34411   0.02705932  0.027223679            5 
  889000    1.0892505   -7.3113966    287.76623  0.026974712  0.027217651            3 
  890000    1.1038296   -7.2494886    289.43777  0.027100915  0.027212037            3 
  891000    1.1187961   -7.2390656    288.74781  0.027005968  0.027206326            3 
  892000    1.1257534   -7.2303337    289.85167  0.027078818  0.027200478            3 
  893000    1.0839928   -7.2260781    290.04957  0.027066963  0.027194379            3 
  894000    1.1009587   -7.2672345    290.00243  0.027032292  0.027188283            3 
  895000    1.1370341   -7.2480367    289.02807  0.026911366  0.027182037            4 
  896000    1.0780377   -7.2950322    289.59235  0.026933812  0.027175815            2 
  897000    1.1105494   -7.2706119    290.22056  0.026962148  0.027169427            5 
  898000    1.1156245   -7.2453797    289.77993  0.026891234  0.027163102            5 
  899000    1.1272367   -7.2569482     290.3451   0.02691371   0.02715663            3 
  900000    1.1051717   -7.2673122    290.82735  0.026928458  0.027149679            2 
  901000    1.1038538   -7.3148523    288.82363  0.026713247  0.027142696            4 
  902000    1.1351632   -7.2291108    292.15753  0.026991641  0.027136038            5 
  903000    1.1228924   -7.2448215    291.91423  0.026939298  0.027129528            7 
  904000    1.1150063   -7.2450328    291.60744  0.026881217  0.027123016            2 
  905000    1.0946818   -7.2605762    292.05057  0.026892318  0.027116768            5 
  906000    1.1129508   -7.2315335    292.76424  0.026928278  0.027110356            1 
  907000    1.1147067   -7.2623179    291.95397  0.026824142  0.027103901            4 
  908000    1.1038137   -7.2694435    292.41084  0.026836531  0.027097331            3 
  909000    1.0936264   -7.2331695    292.69693  0.026833235  0.027090575            2 
  910000    1.0945629    -7.258478    292.55102  0.026790386  0.027083962            4 
  911000    1.0933466   -7.2382925    293.17009  0.026817608  0.027077157            9 
  912000    1.1217687   -7.2690027    294.02672  0.026866477  0.027070463            1 
  913000     1.100597   -7.2625066    293.86344  0.026822147  0.027063892            2 
  914000    1.1138662   -7.2629904    294.70192  0.026869249  0.027057258            3 
  915000    1.1217906   -7.2772448    294.27648  0.026801136  0.027050766            4 
  916000    1.1065744   -7.2901364    294.29651    0.0267737  0.027044263            3 
  917000      1.12567   -7.2725252    295.00742  0.026809107  0.027037801            2 
  918000    1.1194878   -7.2763001    294.51963  0.026735624  0.027030983            3 
  919000    1.1540365   -7.2836847     296.0109  0.026841757  0.027024348            2 
  920000    1.0864584   -7.2483838    296.56212  0.026862511  0.027017925            2 
  921000     1.102511   -7.2824065    295.52157  0.026739194    0.0270114            5 
  922000    1.0942305   -7.3194059    296.10851  0.026763242  0.027004708            3 
  923000    1.1017926   -7.2644177    297.01754  0.026816319  0.026998096            3 
  924000    1.1160752   -7.2549471    296.24436  0.026717565  0.026991945            3 
  925000    1.0978558   -7.2832552    296.98959  0.026755818   0.02698558            3 
  926000    1.0907248   -7.3110365    296.17867  0.026653948  0.026978844            5 
  927000    1.1095929   -7.2790665    297.42661   0.02673738  0.026972041            9 
  928000    1.0768834   -7.3048689    298.15207  0.026773713  0.026965346            4 
  929000     1.104372   -7.3167921    297.52759  0.026688876  0.026958524            2 
  930000    1.1217774   -7.3196286    296.98219  0.026611308  0.026951726            3 
  931000    1.0947406   -7.2875474    298.10872  0.026683559  0.026944461            4 
  932000     1.122319   -7.2686364    298.34202  0.026675789  0.026937496            2 
  933000    1.0819526   -7.3074653      297.307  0.026554752   0.02693054           16 
  934000    1.0970599   -7.3041745    298.44704  0.026628037  0.026923456            6 
  935000    1.0832925   -7.2743349     298.9893  0.026647888  0.026916246            3 
  936000    1.0899299   -7.2871488     299.1476  0.026633512  0.026909296            3 
  937000    1.0958798   -7.2958045     298.3329  0.026532631  0.026902301            4 
  938000    1.0933171   -7.2863839    299.82243  0.026636677  0.026895427            5 
  939000    1.0964721   -7.2980963    299.07661   0.02654212  0.026888389            2 
  940000    1.0960346   -7.2841601    300.47117  0.026637515  0.026881473            1 
  941000    1.1179721   -7.3107339    300.13358  0.026579311  0.026874582            3 
  942000    1.1073779   -7.2685926    300.15006  0.026552553  0.026867747            6 
  943000    1.1047978   -7.3300278     301.5792  0.026650689  0.026861019            6 
  944000    1.1160446   -7.2898437    301.44918   0.02661098  0.026854204            3 
  945000    1.0748483   -7.2477368     301.4647  0.026584189  0.026847561            2 
  946000     1.126015   -7.2879261    301.30277  0.026541822  0.026840877            3 
  947000     1.087391   -7.2937321    301.56955  0.026537271  0.026833796            2 
  948000     1.104847   -7.2833782    302.06858  0.026553145  0.026826811            3 
  949000      1.09226   -7.2927512    301.99067  0.026518323  0.026819865            2 
  950000    1.0993472   -7.2923357    301.64038  0.026459683  0.026812918            3 
  951000    1.0832303   -7.2801457    302.68482  0.026523381  0.026805711            2 
  952000    1.0876024    -7.315996    301.29651  0.026373994  0.026798282            2 
  953000    1.1067455    -7.304518     301.3864   0.02635418  0.026790722            4 
  954000    1.0841051   -7.2967598    302.35186  0.026410889  0.026783316            3 
  955000    1.0967753   -7.3044881    303.07006  0.026445904  0.026776151            3 
  956000    1.0716174   -7.2959317    303.36209  0.026443697  0.026768951            1 
  957000     1.091283   -7.2646381    303.78018  0.026452471  0.026761711            4 
  958000    1.1091295    -7.304349    302.82347  0.026341638  0.026754343            4 
  959000    1.1315071    -7.309688    303.33995   0.02635905  0.026747025            2 
  960000    1.0876508    -7.297048    304.00835  0.026389614  0.026739784            7 
  961000     1.089213   -7.3172687     304.3605   0.02639269  0.026732874            2 
  962000    1.0957282   -7.2889033    304.82404  0.026405408  0.026725662            1 
  963000    1.1028604   -7.2302303    306.80882  0.026549743  0.026718538            3 
  964000    1.0851319   -7.2944754    305.51712  0.026410539  0.026711582            3 
  965000    1.0866313   -7.2957382     305.9525  0.026420769   0.02670449            4 
  966000    1.0635044   -7.2869636    305.90511   0.02638933  0.026697452            3 
  967000    1.1075344   -7.2750442    306.58486  0.026420618  0.026690148            8 
  968000    1.0883882   -7.3046939    306.75854  0.026408276  0.026683339            2 
  969000    1.0968127   -7.3020899    306.29767  0.026341389  0.026676192            1 
  970000    1.1048146   -7.3478553    306.43273  0.026325836  0.026668904            5 
  971000    1.0954342   -7.3000566    307.03999   0.02635084  0.026661823            3 
  972000    1.1201834   -7.3170489    307.79176  0.026388182  0.026654799            3 
  973000     1.080881   -7.3304619      308.137  0.026390631  0.026647946            3 
  974000    1.0795526   -7.3249659    308.38801  0.026385011  0.026640901            7 
  975000    1.1022446   -7.2669813    308.99855  0.026410132  0.026634012            2 
  976000    1.1159945   -7.3082183    309.01441  0.026384427  0.026627237            3 
  977000    1.0958848   -7.3273961    308.64237  0.026325688  0.026620495            2 
  978000     1.100634   -7.3048949    308.93025    0.0263233  0.026613822            7 
  979000    1.1149325   -7.3028037    309.93609   0.02638203  0.026607084            7 
  980000    1.0887509   -7.2786434    309.42405  0.026311569  0.026600438            4 
  981000    1.0752377   -7.3626277    309.77147   0.02631426  0.026593454            1 
  982000    1.0988829   -7.2559751    311.07593  0.026398161  0.026586342            2 
  983000    1.0836317   -7.2801645    310.70654  0.026339991  0.026579642            2 
  984000    1.0749733   -7.2896102    310.45508  0.026291927  0.026572791            3 
  985000    1.1032212   -7.2914586    310.92931  0.026305356  0.026566111            5 
  986000    1.1055391   -7.2830329    311.79624  0.026351947  0.026559295            4 
  987000    1.1063057   -7.2962753    311.70651  0.026317672  0.026552419            3 
  988000    1.1226212   -7.2776758    312.09187  0.026323538  0.026545584            4 
  989000    1.0862605    -7.264244      312.363  0.026319768  0.026538771            2 
  990000    1.0985143   -7.2721303    313.03883   0.02635007  0.026532141            2 
  991000    1.0834093   -7.2863074    313.09417  0.026328134  0.026525489            2 
  992000    1.0603078   -7.3247753     313.2333  0.026313281  0.026518883            2 
  993000    1.1045279   -7.2957454    313.38642  0.026299632  0.026512284            5 
  994000    1.0975544   -7.2927767    313.92482  0.026318312  0.026505333            2 
  995000    1.1009803   -7.2323171    314.62535  0.026350532  0.026498675            3 
  996000    1.0982892   -7.3424521     312.6019  0.026154777  0.026491932            4 
  997000     1.122658   -7.3196826     313.4092  0.026196021  0.026484995            4 
  998000    1.0946369    -7.278942    314.72723  0.026279829  0.026477973            7 
  999000    1.0804514   -7.3024844    314.29836  0.026217748  0.026471217            4 
 1000000    1.0990529   -7.2547627    315.43972  0.026286644  0.026464414            8 
 1001000    1.1086902   -7.2639877     315.7163  0.026283408  0.026457858            3 
 1002000    1.0985221    -7.289336    314.68729  0.026171598   0.02645112            6 
 1003000    1.0694735   -7.3090587    315.77494  0.026235871  0.026444658            2 
 1004000    1.0928134   -7.3225432    315.04522  0.026149171  0.026437991            2 
 1005000    1.1142509    -7.299074    315.42426  0.026154582  0.026431528            2 
 1006000    1.0914435   -7.3363699    316.41221  0.026210421  0.026424957            3 
 1007000    1.0946176   -7.2542732    316.97482  0.026230952    0.0264187            5 
 1008000    1.1065254   -7.3287814    317.62746  0.026258884  0.026412161            1 
 1009000    1.0756666   -7.3064373    317.71651  0.026240214  0.026405562            2 
 1010000    1.0949482   -7.2925518     318.2813  0.026260833  0.026399223            1 
 1011000    1.1190132   -7.3292161    317.39737  0.026161999  0.026392808            2 
 1012000    1.0875079    -7.285399    318.61086  0.026236072  0.026386526            3 
 1013000    1.0916957   -7.3078523    318.79663  0.026225455  0.026380028            4 
 1014000     1.069166   -7.3287281    318.55119  0.026179421  0.026373622            2 
 1015000    1.0778774   -7.3110978    318.00462  0.026108754   0.02636709            8 
 1016000    1.0984622   -7.3346428    318.12571  0.026092988  0.026360449            4 
 1017000    1.0989886     -7.29694     319.4275  0.026174001  0.026353799            9 
 1018000    1.0907093   -7.3307342     319.7914  0.026178078  0.026347197            4 
 1019000    1.0723187   -7.3539068     319.3337  0.026114957  0.026340421            4 
 1020000    1.1078277   -7.2892185     319.7683  0.026124861  0.026333748            5 
 1021000    1.0819321   -7.2740286    320.71961  0.026176919  0.026327264            7 
 1022000     1.065135   -7.3350189    318.56594  0.025975696  0.026320724            4 
 1023000    1.0870587   -7.3291676    320.01118  0.026068034  0.026313827            2 
 1024000    1.0806557   -7.3596213    319.07026  0.025966004  0.026306891            3 
 1025000    1.0719634   -7.3390316     320.2499  0.026036577  0.026299951            4 
 1026000    1.0743635   -7.3570866    320.10017  0.025999039   0.02629316            2 
 1027000    1.1032608   -7.3620338    320.47888  0.026004453  0.026286231            3 
 1028000    1.0960579   -7.2993178    321.25034  0.026041694  0.026279495            5 
 1029000    1.0879861   -7.3138912    322.06173  0.026082096  0.026272596            6 
 1030000    1.0970245   -7.2764361    322.53468  0.026095039  0.026265771            2 
 1031000     1.085303   -7.3160858    321.94661  0.026022196  0.026259191            7 
 1032000    1.0846112    -7.305694    323.20337  0.026098464  0.026252632            3 
 1033000     1.088568   -7.3336068    322.54447  0.026020044  0.026246139            5 
 1034000    1.0985391   -7.3106824    323.12881  0.026041974  0.026239733            3 
 1035000    1.0814204   -7.3374184    324.05223  0.026091162  0.026233271            4 
 1036000    1.0690629   -7.3703183    322.24815  0.025920861  0.026226785            1 
 1037000    1.0739075   -7.2922194    324.02717  0.026038827  0.026220382            2 
 1038000    1.0873309   -7.3064282    325.44976  0.026127951  0.026214176            3 
 1039000    1.0857017   -7.2946924    325.55742  0.026111439  0.026208067            7 
 1040000    1.0686606    -7.311825    324.86238   0.02603064   0.02620182            2 
 1041000    1.0762328   -7.3543945    324.85695  0.026005199  0.026195461            2 
 1042000    1.0875621   -7.3609617    324.32069  0.025937355  0.026188913            4 
 1043000    1.1100186   -7.3633794    326.73302  0.026105227  0.026182436            2 
 1044000      1.11582   -7.3784044    325.52396  0.025983713   0.02617598            2 
 1045000    1.0636031   -7.3381273    326.67195  0.026050394  0.026169784            3 
 1046000    1.0735565    -7.283345    327.24134  0.026070852   0.02616364            5 
 1047000    1.1035712   -7.2882086    328.59093  0.026153369   0.02615766            4 
 1048000    1.0829879   -7.3125757    328.19675   0.02609707  0.026151686            2 
 1049000    1.0788051   -7.3240551    327.62419  0.026026707  0.026145698            3 
 1050000    1.0956179   -7.3592453    328.13729  0.026042642  0.026139636            2 
 1051000    1.0901504   -7.3120283    328.85046   0.02607441  0.026133726            6 
 1052000    1.0859979   -7.2939647    329.99047   0.02613993  0.026127799            3 
 1053000    1.1028985    -7.305159    329.28201  0.026059038  0.026122135            2 
 1054000    1.0993571   -7.3286536     329.7839  0.026073996  0.026116295            2 
 1055000    1.0757015    -7.362311    328.80174  0.025971701  0.026110298            4 
 1056000    1.0771211   -7.3194613    330.49483  0.026080716  0.026104426            4 
 1057000    1.1017122   -7.3048492    330.41293  0.026049584  0.026098488            5 
 1058000    1.0783126   -7.3788905    329.09449  0.025921116  0.026092602            7 
 1059000     1.085526   -7.3172652    330.62051  0.026016723  0.026086837            2 
 1060000    1.0664026   -7.3294382    330.24086  0.025962332  0.026080908            3 
 1061000    1.0756143   -7.3297672     330.6872  0.025972919  0.026074953            3 
 1062000    1.0652515    -7.314294    330.87737  0.025963384   0.02606908            2 
 1063000    1.0705468   -7.3198118    331.01925  0.025950082  0.026063201            4 
 1064000    1.0727837     -7.35826    330.79131   0.02590784  0.026057069            3 
 1065000    1.0742385   -7.3251042    331.31338  0.025924364  0.026050863            2 
 1066000    1.0724751   -7.3178668    332.54989  0.025996708  0.026044835            1 
 1067000    1.0722662   -7.3209947     331.6857   0.02590485   0.02603872            3 
 1068000    1.0680565   -7.3192454    332.11039  0.025913732  0.026032488            2 
 1069000     1.104553   -7.3174402    333.72527  0.026015378  0.026026437            3 
 1070000    1.0960441   -7.3577065    332.20336  0.025872536  0.026020522            2 
 1071000    1.0612858   -7.3646263    332.38423  0.025862452  0.026014573            3 
 1072000    1.0744432     -7.33532    333.82402   0.02595025  0.026008571            2 
 1073000    1.0866826   -7.3013883    335.08465  0.026023971  0.026002609            5 
 1074000    1.0851618   -7.3577205    333.29759  0.025861079   0.02599667            1 
 1075000     1.063111   -7.3301799    334.11912  0.025900707   0.02599054            4 
 1076000    1.0715176   -7.3338512    334.99016  0.025944096  0.025984458            3 
 1077000    1.0616429   -7.3500671    334.94268  0.025916332  0.025978567            3 
 1078000    1.0853357   -7.3530978    334.55645  0.025862434  0.025972513            2 
 1079000    1.0782877    -7.320952    335.11699  0.025881757  0.025966436            4 
 1080000    1.0942144    -7.311052    335.46107  0.025884342  0.025960659            4 
 1081000    1.0807872   -7.3452904    336.07006  0.025907344  0.025954695            3 
 1082000    1.0559473   -7.3478435    335.38522  0.025830655  0.025948832            2 
 1083000    1.0692255   -7.3403129    336.54802  0.025896277  0.025943052            4 
 1084000    1.0647787   -7.3604436    335.17059  0.025766497  0.025937125            7 
 1085000    1.0503977   -7.3739149       335.48  0.025766513  0.025930879            4 
 1086000    1.0827294    -7.310967    337.88897  0.025927638  0.025924716            5 
 1087000    1.0787836   -7.2796025    337.41476  0.025867431  0.025918688            4 
 1088000    1.0733387    -7.341036    336.50142  0.025773699   0.02591263            3 
 1089000    1.0790124   -7.3678407    336.26531  0.025731964  0.025906385            7 
 1090000    1.0676892   -7.3250274    337.64061  0.025813502  0.025900201            4 
 1091000    1.0838363   -7.3502334    336.99473  0.025740508  0.025893753            3 
 1092000    1.0757898   -7.3644084    337.09045  0.025724241  0.025887402            5 
 1093000    1.0656316   -7.3683404    337.97476  0.025768128  0.025881202            3 
 1094000     1.065436   -7.3455807    339.03479  0.025825319  0.025875038            2 
 1095000    1.0820549   -7.3244075    339.00996  0.025799845    0.0258689            4 
 1096000    1.0803004   -7.3360665    339.63697  0.025823978  0.025862847            2 
 1097000    1.0804734   -7.3181019    339.87198  0.025818291  0.025856917            4 
 1098000    1.1042317   -7.3542829    339.04943  0.025732349  0.025850969            5 
 1099000    1.0611989   -7.3166276    339.85653  0.025770134   0.02584496            8 
 1100000    1.0813451   -7.3572905     339.4912   0.02571903  0.025838812            2 
 1101000    1.0622233   -7.3202186    340.28609  0.025755835  0.025832637            2 
 1102000    1.0799132   -7.2899697    340.88066  0.025777424  0.025826632            2 
 1103000    1.0627636   -7.3382297    340.38214   0.02571639  0.025820704            2 
 1104000     1.093214   -7.3535139    340.17838  0.025677716  0.025814718            3 
 1105000    1.0740437   -7.3325349    341.64807  0.025765314  0.025808896            6 
 1106000    1.0597382   -7.3753029    341.04295  0.025696425  0.025803033            5 
 1107000    1.0910341   -7.3602348    340.70603   0.02564785  0.025796913            2 
 1108000    1.0880836   -7.3316894    341.87686   0.02571276  0.025790575            2 
 1109000    1.0741093   -7.3400901    341.70929  0.025676983  0.025784504            3 
 1110000    1.0796278   -7.3530136    341.02744   0.02560266  0.025778364            5 
 1111000    1.0910649   -7.3708709     341.5491  0.025618744  0.025772294            3 
 1112000    1.0563808   -7.3699938     342.3656  0.025656895  0.025766107            3 
 1113000    1.0550275    -7.367583     342.2466  0.025624933  0.025759976            3 
 1114000    1.0722261   -7.3744949     343.1658  0.025670692  0.025753991            4 
 1115000    1.0639209   -7.3429591    342.92059  0.025629342  0.025748049            3 
 1116000    1.0787037   -7.3551361    344.69872  0.025739152  0.025742218            8 
 1117000    1.0627186   -7.3125703    344.73811  0.025719048  0.025736357            4 
 1118000    1.1078948   -7.3436713    344.03504  0.025643637  0.025730722            3 
 1119000    1.0978571    -7.375535    344.32949  0.025642649  0.025724783            6 
 1120000    1.0857388    -7.357739    344.24643  0.025613573  0.025718696            7 
 1121000    1.0833096   -7.3621393     344.0616  0.025576985  0.025712658            5 
 1122000    1.0794192   -7.3578311    343.34385   0.02550088  0.025706433            2 
 1123000      1.08535   -7.3582745    345.22992   0.02561813  0.025700369            2 
 1124000    1.0674329   -7.3644727    345.97004   0.02565021   0.02569428            3 
 1125000    1.0713183   -7.3411668    346.06649  0.025634555  0.025688261            2 
 1126000     1.081656   -7.3425909     345.8791   0.02559792  0.025682272            6 
 1127000     1.091269   -7.3616189    346.59215  0.025627932    0.0256762            3 
 1128000    1.0629626   -7.3884341    346.08961  0.025568086   0.02567013            7 
 1129000    1.0664048   -7.3636635    345.60129  0.025509395  0.025664034            4 
 1130000     1.073235   -7.3214286    348.42849  0.025695316  0.025658072            2 
 1131000     1.074452   -7.3484638    346.84407  0.025555856  0.025652297            6 
 1132000    1.0686264   -7.3592561    346.90571  0.025537817  0.025646424            2 
 1133000    1.0801066   -7.3531491    347.00811  0.025522809  0.025640458            4 
 1134000     1.061234   -7.4033908    347.60977  0.025544515  0.025634467            6 
 1135000    1.0682973   -7.3621935    348.19281  0.025564817  0.025628491            6 
 1136000    1.0892467    -7.396952    347.35794   0.02548107  0.025622339            3 
 1137000    1.0760417   -7.3833008     347.8082  0.025491659  0.025616426            3 
 1138000    1.0873895   -7.3610301    348.35729  0.025509468  0.025610366            4 
 1139000     1.079791   -7.3666128    348.54159  0.025500555  0.025604396            2 
 1140000    1.0871006   -7.3338379    348.56135  0.025479631  0.025598557            3 
 1141000    1.0769434     -7.39012    349.51391   0.02552687  0.025592625            4 
 1142000    1.0640154   -7.3802565    349.79563  0.025525075   0.02558665            3 
 1143000    1.0493798   -7.3781273    350.68821   0.02556782   0.02558077            4 
 1144000    1.0667458   -7.3891946     350.3404  0.025520134  0.025574797            4 
 1145000    1.0883121   -7.3414261    351.46987  0.025580049  0.025569048            3 
 1146000    1.0673438   -7.2944656    351.10634  0.025531293  0.025563205            6 
 1147000    1.0726145   -7.3532093     350.7387  0.025482323  0.025557349            8 
 1148000    1.0514191   -7.4044799    350.89856  0.025471731  0.025551377           10 
 1149000    1.0458451   -7.3901187    350.42016  0.025414865  0.025545212            4 
 1150000    1.0707001   -7.3431714    351.89406  0.025499569  0.025539259            2 
 1151000    1.0519792   -7.4074244    350.82532  0.025400038  0.025533346            5 
 1152000    1.0566903   -7.4026021    350.43938  0.025350071  0.025526976            3 
 1153000    1.0703164   -7.3449916    351.74378  0.025422361  0.025520845            2 
 1154000    1.0742805   -7.3755831    352.48254  0.025453678   0.02551481            1 
 1155000    1.0828535   -7.3513137    353.02994  0.025471136  0.025508821            2 
 1156000    1.0712754   -7.3537267    351.75926  0.025357502  0.025502761            2 
 1157000    1.0801632   -7.4071686    352.57094  0.025394046  0.025496619            3 
 1158000     1.086363   -7.3701418     352.6711  0.025379325  0.025490431            3 
 1159000    1.0675055   -7.3686653    353.45242  0.025413605  0.025484257            4 
 1160000    1.0664544   -7.3504869    353.71186  0.025410335  0.025478306            5 
 1161000    1.0842157    -7.375808    353.94283  0.025405027  0.025472184            3 
 1162000    1.0922814   -7.3857773    353.64725  0.025361966  0.025466055            3 
 1163000    1.0660873    -7.387129    352.80444  0.025279768  0.025459941            3 
 1164000    1.0453639   -7.3491137    354.30138  0.025365219  0.025453783            3 
 1165000     1.065137   -7.3497561     355.7634  0.025448026  0.025447737            3 
 1166000    1.0965764   -7.4003749    355.22591  0.025387786  0.025441515            3 
 1167000     1.071049   -7.3832832    354.46477   0.02531168  0.025435248            3 
 1168000    1.0352569   -7.3515148    355.94221  0.025395421   0.02542914            8 
 1169000     1.069046   -7.3101712    355.61776  0.025350567  0.025422846            6 
 1170000      1.04362   -7.3885168    354.65103  0.025260045  0.025416575            7 
 1171000    1.0983755   -7.3849732    355.33112  0.025286872  0.025410141            4 
 1172000    1.0642766   -7.3674317    355.59558    0.0252841  0.025403759            4 
 1173000     1.058724   -7.4389263    353.45132   0.02511021  0.025396972            3 
 1174000    1.0559334   -7.3943195    354.30011  0.025149071  0.025390301           11 
 1175000    1.0543615   -7.3959014     355.1552  0.025188312  0.025383774            3 
 1176000    1.0485233   -7.3433674    356.31585  0.025249139  0.025377257            5 
 1177000    1.0729079   -7.3385504    356.05833  0.025209454  0.025370692            1 
 1178000    1.0564728   -7.3422254     356.8547   0.02524439  0.025363952            3 
 1179000    1.0438058   -7.3522397    356.81102  0.025219891   0.02535724            2 
 1180000    1.0630326   -7.3602991     357.1801  0.025224583  0.025350493            2 
 1181000     1.056924    -7.416267    355.52764  0.025086624  0.025343768            4 
 1182000    1.0506365   -7.4308943    355.65438  0.025074336   0.02533683            5 
 1183000    1.0410194   -7.3961262    356.11287  0.025085437  0.025329954            3 
 1184000    1.0549224   -7.3917981    355.70502  0.025035545  0.025323104            3 
 1185000    1.0811208   -7.3901376    356.08199  0.025040928   0.02531619            4 
 1186000    1.0546968   -7.4217728    357.31456  0.025106419  0.025309403            3 
 1187000    1.0661078   -7.3813046    357.98731  0.025132498  0.025302655            3 
 1188000    1.0630102   -7.3528405    358.15793  0.025123312  0.025296041            6 
 1189000    1.0644484   -7.3762095    357.83142  0.025079298  0.025289348            2 
 1190000    1.0805828   -7.4193362    357.38165  0.025026726  0.025282562            2 
 1191000    1.0776376   -7.3938511    358.49052    0.0250833  0.025275753            6 
 1192000      1.04329   -7.4246536    358.42604  0.025057749  0.025269022            7 
 1193000    1.0505484   -7.4254624    357.75454  0.024989839  0.025262034            3 
 1194000    1.0448093   -7.4129992    358.54722  0.025024234  0.025255326            4 
 1195000    1.0569271   -7.3829773    359.21352  0.025049758  0.025248896            5 
 1196000    1.0587225   -7.3978578    360.85156  0.025142946  0.025242404            3 
 1197000    1.0726877   -7.3602424    360.96466  0.025129814   0.02523584            3 
 1198000    1.0874021   -7.3480391    360.54057  0.025079339  0.025229543            5 
 1199000    1.0757062   -7.3963147     360.2589  0.025038845  0.025223077            4 
 1200000    1.0591516   -7.3730515    361.05381  0.025073181  0.025216636            4 
 1201000     1.060513   -7.4195739    359.78389  0.024964189   0.02521011            7 
 1202000    1.0492607   -7.4008445    361.01956  0.025029087  0.025203494            4 
 1203000    1.0890334   -7.3749091    361.63815  0.025051132  0.025196826            6 
 1204000    1.0773172   -7.4653349    359.66661  0.024893869  0.025190267            2 
 1205000    1.0447924   -7.4234428    361.46146  0.024997335  0.025183404            2 
 1206000    1.0734951   -7.3444805    362.51819  0.025049626  0.025176795            3 
 1207000    1.0466793   -7.3618788    362.56034  0.025031783  0.025170288            4 
 1208000    1.0944327    -7.372898    362.96302  0.025038839  0.025163815            7 
 1209000    1.0641072   -7.4315848    361.97227   0.02494984  0.025157216            3 
 1210000    1.0341414   -7.4331499     362.7009  0.024979401  0.025150468            2 
 1211000    1.0561771   -7.4231253    362.51226  0.024945793  0.025143837            5 
 1212000    1.0488173   -7.3776988    363.76811  0.025011559  0.025137311            3 
 1213000    1.0365763    -7.406634    364.04866  0.025010213  0.025130945            5 
 1214000    1.0613577   -7.4017809     363.7304  0.024967765  0.025124454            5 
 1215000     1.074509   -7.4301452    363.49998  0.024931411  0.025117873            3 
 1216000    1.0481496   -7.4016847     365.3064  0.025034704  0.025111434            2 
 1217000     1.078476   -7.3896076    364.31669  0.024946363  0.025104964            2 
 1218000     1.066991    -7.422142    364.23029  0.024919971  0.025098388           11 
 1219000    1.0455325   -7.4396746    363.42792  0.024844676  0.025091844            3 
 1220000    1.0600877   -7.4513787    363.60674  0.024836526   0.02508519            2 
 1221000    1.0353934   -7.4103987    363.91456  0.024837193  0.025078485            3 
 1222000    1.0290161   -7.3517743    365.85009   0.02494886  0.025071877            2 
 1223000    1.0695285   -7.4298051    365.36931  0.024895701  0.025065384            9 
 1224000    1.0625294   -7.4079602    365.51505  0.024885284  0.025058983            5 
 1225000    1.0562992   -7.4388897    366.48537  0.024930977   0.02505263            1 
 1226000    1.0411165   -7.4003727    366.10826   0.02488501  0.025046181            2 
 1227000    1.0473416   -7.4315231    367.20238  0.024939037  0.025039835            2 
 1228000    1.0549971   -7.3950628    366.42403  0.024865908  0.025033437            2 
 1229000    1.0447643   -7.4068698    366.81203  0.024871985  0.025026969            2 
 1230000    1.0768422   -7.3783994    367.36258  0.024889064  0.025020396            3 
 1231000    1.0603525   -7.4084037    366.15598  0.024787163  0.025013844            2 
 1232000    1.0469697   -7.4114206    366.20377  0.024770277  0.025007276            3 
 1233000     1.044548   -7.4133298    365.49518  0.024702296  0.025000742            6 
 1234000    1.0535544   -7.3542761     367.9155  0.024845725  0.024994254            5 
 1235000    1.0538586   -7.4145204    367.65939  0.024808326   0.02498781            4 
 1236000    1.0626807   -7.3685948    368.75103  0.024861855  0.024981285            4 
 1237000    1.0565916   -7.4464582    366.82793  0.024712202   0.02497469            2 
 1238000    1.0269902    -7.428685     367.6954  0.024750633  0.024967921            3 
 1239000    1.0405665   -7.3941467    368.59157  0.024790932  0.024961395            5 
 1240000    1.0504291    -7.384823    368.83089  0.024787022  0.024954798            3 
 1241000    1.0739216   -7.4128114    369.55265  0.024815515  0.024948276            4 
 1242000    1.0541725   -7.3828674    369.20911  0.024772485   0.02494152            6 
 1243000    1.0564319    -7.365723    369.12126  0.024746665  0.024934882            2 
 1244000    1.0629774   -7.4243635    369.05588  0.024722393  0.024928387            3 
 1245000    1.0270189   -7.4196591    370.02174  0.024767185  0.024921808            3 
 1246000    1.0382719   -7.3963878    370.27901  0.024764514  0.024915357            2 
 1247000    1.0534101   -7.4243541    370.34551  0.024749098  0.024908898            4 
 1248000    1.0363867   -7.4582103    369.68921  0.024685444  0.024902399            4 
 1249000    1.0587844   -7.4066885    371.19896   0.02476641  0.024895881            4 
 1250000    1.0470438   -7.3903702    370.87895  0.024725263  0.024889421            4 
 1251000     1.029553   -7.4462079    370.97386  0.024711821  0.024882942            5 
 1252000    1.0568451    -7.438787    371.05963  0.024697792  0.024876149            4 
 1253000    1.0711915    -7.419068    371.02973  0.024676093  0.024869452            4 
 1254000    1.0520401   -7.4170629    370.99832  0.024654328  0.024862684           15 
 1255000   0.99612407   -7.3956137    371.87744  0.024693057  0.024855948            4 
 1256000    1.0668495   -7.4161114      372.632  0.024723461  0.024849217            7 
 1257000    1.0236769   -7.3905476     371.4421  0.024624907   0.02484248            1 
 1258000    1.0421393    -7.425297     371.3979  0.024602405  0.024835654            4 
 1259000    1.0393845   -7.4208349    371.67396  0.024601136  0.024828663            3 
 1260000    1.0692594   -7.3712791    372.93525   0.02466503  0.024821888            3 
 1261000    1.0488752   -7.4063529    371.29079  0.024536796  0.024815227            1 
 1262000     1.040989   -7.4471917    371.44253  0.024527373  0.024808264            4 
 1263000    1.0371863   -7.4099842    373.00608  0.024611116  0.024801339            2 
 1264000    1.0301159   -7.4142571    372.80531  0.024578409  0.024794401            3 
 1265000      1.04149   -7.4429081    371.37077  0.024464478  0.024787498            5 
 1266000     1.065825   -7.4335967    372.88197  0.024544627  0.024780621            2 
 1267000    1.0363902   -7.4058175    374.42161   0.02462652  0.024773741            6 
 1268000    1.0451363   -7.4199745    373.57926  0.024551739  0.024766805            5 
 1269000    1.0493772   -7.4179753    374.12513  0.024568238  0.024760014            2 
 1270000    1.0309513   -7.3932165    374.66553  0.024584353  0.024753165            7 
 1271000    1.0600386   -7.3941732    374.59862  0.024560623  0.024746353            2 
 1272000     1.050818   -7.4374892    373.98997  0.024501439  0.024739477            3 
 1273000    1.0530136   -7.4265238    374.73043  0.024530665  0.024732601            4 
 1274000    1.0750107   -7.4242997     375.3576  0.024552433  0.024725827            2 
 1275000    1.0526565   -7.4185395    374.36897   0.02446856  0.024719077            5 
 1276000    1.0600034   -7.4501082    375.03869  0.024493122  0.024712268            2 
 1277000    1.0625403   -7.4376056    374.68655  0.024450963  0.024705343            4 
 1278000    1.0556024   -7.4269813    375.91561  0.024511973  0.024698393            7 
 1279000    1.0568569   -7.4037856    375.36286  0.024456793  0.024691494            3 
 1280000    1.0615245   -7.4581136    375.49404  0.024446226  0.024684584            3 
 1281000    1.0597647   -7.4325733    375.16223  0.024405558  0.024677672            1 
 1282000    1.0338618   -7.4198702    377.73028   0.02455345  0.024670813            4 
 1283000      1.02544   -7.4542747    374.81705  0.024345093  0.024663753            3 
 1284000      1.04144   -7.4708691    374.97082  0.024336113  0.024656594            5 
 1285000    1.0374637   -7.3861765    376.98925  0.024448071  0.024649458            6 
 1286000    1.0573754   -7.4209063    376.85785  0.024420545  0.024642555            3 
 1287000    1.0266162   -7.4024334    376.35621  0.024369089  0.024635403            4 
 1288000    1.0698134   -7.4091575    376.47616  0.024357929  0.024628339            3 
 1289000    1.0448301   -7.4473618     376.1845  0.024320177  0.024621138            3 
 1290000     1.044512   -7.4172855    376.91982  0.024348825  0.024613863            8 
 1291000     1.048871   -7.4642565    377.09122  0.024341029  0.024606631            5 
 1292000    1.0559548   -7.4060678    377.95376  0.024377822  0.024599615            2 
 1293000    1.0488636   -7.4325664    376.55676  0.024268933  0.024592372            5 
 1294000    1.0411473   -7.3948033    377.90202  0.024336812  0.024585182            2 
 1295000    1.0425793   -7.4180837    377.55585  0.024295743   0.02457803            3 
 1296000    1.0762913    -7.463387    376.06697  0.024181261  0.024570674            4 
 1297000     1.031381   -7.4686453    377.82317  0.024275455  0.024563161            4 
 1298000    1.0479238   -7.4084657     377.9082  0.024262211  0.024555837           10 
 1299000    1.0441784   -7.4513766    377.97636  0.024247906  0.024548566            3 
 1300000    1.0408237   -7.4400657    377.64838   0.02420823  0.024541221            3 
 1301000    1.0357735   -7.4293367    379.75237   0.02432439  0.024534051            6 
 1302000    1.0470769   -7.3739179    379.90679  0.024315591  0.024526746            4 
 1303000    1.0495702   -7.4110172    379.60513  0.024277637  0.024519502            5 
 1304000    1.0413506   -7.4409597    379.58221  0.024257554  0.024512358            4 
 1305000    1.0271945   -7.4078453    378.45975  0.024167289  0.024504985            8 
 1306000     1.049266   -7.4459345    378.17136  0.024130383  0.024497505            5 
 1307000    1.0254264   -7.4692469    379.44915  0.024193391  0.024490146            5 
 1308000    1.0382907   -7.4105565    378.44562   0.02411096  0.024482784            3 
 1309000    1.0508681   -7.4656325    378.18486   0.02407594  0.024475342            3 
 1310000    1.0449742   -7.4237894    379.10658  0.024116194  0.024467772            3 
 1311000    1.0484846   -7.4369152    379.86153  0.024145787  0.024460372            4 
 1312000    1.0390026   -7.4359873    378.51448  0.024041824  0.024452784            2 
 1313000    1.0484711   -7.4444471    379.93519  0.024113683  0.024445169            5 
 1314000    1.0415962   -7.4272292    380.38426  0.024123811  0.024437765            4 
 1315000    1.0233316   -7.4274332    380.75389   0.02412889   0.02443018            3 
 1316000    1.0398519   -7.4976713    379.86947  0.024054551  0.024422553            3 
 1317000    1.0303485   -7.4516339    380.49768  0.024076036  0.024414851            3 
 1318000    1.0318453   -7.4979224     380.0934  0.024032208  0.024407346            6 
 1319000    1.0348392   -7.4791315    380.60907  0.024046567  0.024399701            3 
 1320000     1.025858   -7.4756398    380.88937  0.024046046  0.024392249            5 
 1321000    1.0195016   -7.4623842    381.86321  0.024089277  0.024384775            4 
 1322000    1.0377488   -7.4293838    381.94931  0.024076482  0.024377385            3 
 1323000    1.0460823   -7.4281586    381.96728  0.024059415  0.024369983            8 
 1324000    1.0313266   -7.4497383     381.8538  0.024034101  0.024362492            4 
 1325000    1.0296093    -7.420046    381.59521  0.023999699  0.024354972            6 
 1326000    1.0490718   -7.4429347    382.92261  0.024065021  0.024347434            5 
 1327000     1.047124   -7.4201779    381.93266  0.023984719  0.024339926           11 
 1328000     1.030587   -7.4316148    381.54529   0.02394235  0.024332488            3 
 1329000    1.0220038   -7.4322923    382.88059  0.024008063  0.024325044            5 
 1330000    1.0585596   -7.4042393    383.07366  0.024002109  0.024317756            2 
 1331000    1.0274747   -7.4450595    382.53219  0.023950175  0.024310305            6 
 1332000    1.0530683   -7.4261944    383.98055  0.024022807  0.024302749            4 
 1333000    1.0307416    -7.440628    383.58123  0.023979822  0.024295169            2 
 1334000     1.044843   -7.4670235    382.75729  0.023910376  0.024287504            5 
 1335000    1.0508766    -7.448125    383.96648  0.023967945  0.024279851            3 
 1336000     1.035449   -7.4579134    383.51421  0.023921794  0.024272201            4 
 1337000    1.0265119   -7.4831274    382.89149  0.023865089  0.024264466            3 
 1338000    1.0363616   -7.4822257    383.12264  0.023861649  0.024256604            5 
 1339000    1.0388753   -7.4996821    383.03608  0.023838442  0.024248795            2 
 1340000    1.0287155   -7.4843059    383.75333  0.023865257  0.024241076            2 
 1341000     1.036638   -7.4468186     385.3719  0.023948042  0.024233477            3 
 1342000    1.0232261   -7.3963592    385.17108  0.023917727  0.024226033            3 
 1343000     1.043102   -7.4018748    385.83954  0.023941396  0.024218518            4 
 1344000    1.0240683   -7.4469125    384.97693  0.023870098  0.024210949            7 
 1345000    1.0195218   -7.4819307    383.60111  0.023767107  0.024203225            4 
 1346000    1.0528981   -7.4798869    384.19722  0.023786356  0.024195457            5 
 1347000    1.0294717   -7.4540854    384.19144  0.023768339  0.024187806            4 
 1348000     1.034494   -7.4688084    385.59063  0.023837205  0.024180195            7 
 1349000    1.0653546   -7.4443458    386.14117  0.023853544  0.024172483            5 
 1350000    1.0381235   -7.4566185    385.42905  0.023791916  0.024164772            3 
 1351000     1.024008   -7.4308598    386.15971  0.023819375   0.02415726            3 
 1352000    1.0205155   -7.4261839    387.28851  0.023871333  0.024149738            2 
 1353000    1.0326842   -7.4832299    385.82153  0.023763337  0.024142156            4 
 1354000    1.0090763   -7.4664045    386.83223  0.023807991  0.024134444            6 
 1355000    1.0220551   -7.4061959    387.81688  0.023850976  0.024126896            5 
 1356000    1.0219289   -7.4599293    386.74483  0.023767505  0.024119327            3 
 1357000    1.0408406   -7.4809572    386.68484  0.023746306  0.024111679            6 
 1358000    1.0314141   -7.4951607     385.7971  0.023674343  0.024104042            2 
 1359000    1.0425191   -7.5439688    386.54357  0.023702696  0.024096324            5 
 1360000    1.0276221   -7.4939513    387.34975  0.023734666  0.024088753            2 
 1361000    1.0495987   -7.4702001    387.43546  0.023722475   0.02408122            4 
 1362000    1.0327809    -7.485709    388.72194   0.02378377  0.024073689           10 
 1363000    1.0542173   -7.4814001    388.30019  0.023740535  0.024066284            6 
 1364000    1.0508632   -7.4636237    388.50159  0.023735434  0.024058713            2 
 1365000    1.0237244   -7.4802386    388.07419  0.023691953  0.024050993            4 
 1366000    1.0413393   -7.4872197     389.1285  0.023738928  0.024043596            4 
 1367000    1.0378937   -7.4782266    389.06544  0.023717717  0.024036108            3 
 1368000    1.0188376   -7.4700687    388.70544   0.02367845  0.024028619            2 
 1369000    1.0554435    -7.515946    387.49469  0.023587454  0.024021094            3 
 1370000    1.0170533   -7.4414471    388.77604  0.023648178  0.024013454            3 
 1371000     1.018677   -7.4774131    389.32208  0.023664119  0.024005867            6 
 1372000    1.0418681   -7.4853724    389.06111   0.02363102  0.023998295            7 
 1373000    1.0559367   -7.4618047    389.24667  0.023625071   0.02399064            3 
 1374000    1.0430484   -7.4334369    390.07713  0.023658244  0.023983085            3 
 1375000    1.0533438   -7.4311864    390.94497  0.023693635  0.023975592            3 
 1376000   0.99901171   -7.4693328    390.24678  0.023634131  0.023968187            3 
 1377000    1.0394167   -7.5091169     391.0814  0.023667478  0.023960672            3 
 1378000    1.0532143   -7.4985167    389.54518  0.023557401  0.023953126            3 
 1379000    1.0479151   -7.4297704    391.54325  0.023661062  0.023945691            7 
 1380000   0.99479118    -7.485161    390.45948  0.023578471   0.02393811            8 
 1381000    1.0313435   -7.5129652    390.07074   0.02353794   0.02393046            2 
 1382000    1.0144376   -7.5197065    390.52631  0.023548378  0.023922818            5 
 1383000     1.034725   -7.4999716    391.34581  0.023580731  0.023915145            2 
 1384000    1.0282059   -7.4947903    390.33988  0.023503124  0.023907439            5 
 1385000    1.0504694   -7.5073293    390.60311  0.023501992  0.023899711            9 
 1386000    1.0399459   -7.5040661    390.67222  0.023489191   0.02389184            4 
 1387000    1.0534231   -7.5137677    391.08805  0.023497239  0.023884003            3 
 1388000     1.026556   -7.4773065    391.16551  0.023484961  0.023876028            3 
 1389000    1.0437691   -7.5252108    391.61208  0.023494845  0.023868125            4 
 1390000     1.018041   -7.4903386    390.41366  0.023406094  0.023860245            4 
 1391000    1.0126733   -7.5438945    389.30523  0.023322863  0.023852105            4 
 1392000    1.0460745   -7.4929625    391.23585  0.023421686  0.023843986            2 
 1393000    1.0179547   -7.4769854    391.18884   0.02340206     0.023836            3 
 1394000    1.0141697   -7.4852573    391.09025  0.023379379     0.023828            4 
 1395000    1.0154209   -7.4884309    391.19668  0.023368977  0.023819964            2 
 1396000    1.0277679   -7.4472011    392.22002  0.023413325  0.023811973            3 
 1397000    1.0383678   -7.4975714    391.52987  0.023355397  0.023803804            3 
 1398000    1.0359797   -7.4915321    391.99083  0.023366168  0.023795735            2 
 1399000     1.036715   -7.5137388    391.26179  0.023306039  0.023787672            3 
 1400000    1.0646925   -7.5038305    392.27764   0.02334986  0.023779643            3 
 1401000    1.0241269   -7.5465877    390.48222  0.023226399  0.023771519            5 
 1402000   0.99257493   -7.5014764    393.18676  0.023370587  0.023763413            6 
 1403000    1.0294743    -7.495501    392.38538  0.023306331  0.023755419            5 
 1404000    1.0415324   -7.4927182    392.64062   0.02330488   0.02374735            6 
 1405000    1.0267117   -7.4987535    392.42645   0.02327559  0.023739161            2 
 1406000    1.0278704   -7.4927833    392.46881  0.023261546  0.023730954            2 
 1407000    1.0343123    -7.513639    392.28746  0.023234272  0.023722722            3 
 1408000    1.0310884    -7.498588     393.1763  0.023270378  0.023714614            3 
 1409000    1.0340992   -7.4825503    392.65679  0.023223136  0.023706616           11 
 1410000    1.0543441   -7.5053773    392.84268  0.023217653  0.023698484            2 
 1411000    1.0131194   -7.4551549    394.67846  0.023309619  0.023690367            2 
 1412000    1.0244034   -7.5328277    393.78206  0.023240206  0.023682242            4 
 1413000     1.043124   -7.5148436    393.64132  0.023215459  0.023674043            4 
 1414000    1.0407301   -7.5022332    393.54579   0.02319341  0.023665887            2 
 1415000    1.0338416   -7.4970678    393.60241  0.023180354  0.023657632            5 
 1416000    1.0394117   -7.4504474    395.26351  0.023261741  0.023649505            7 
 1417000    1.0254431   -7.4923914    395.20735  0.023242022  0.023641457            3 
 1418000    1.0101851   -7.4985462     394.2369    0.0231686  0.023633401            2 
 1419000    1.0263943   -7.4652798    395.99299  0.023255402  0.023625333            5 
 1420000    1.0243145   -7.4905521    395.11339  0.023187406  0.023617353            4 
 1421000    1.0462342    -7.516693    395.23389  0.023178155  0.023609348            2 
 1422000    1.0241178   -7.4661783    396.28568  0.023223493  0.023601372            3 
 1423000    1.0458163   -7.4875269    395.85755  0.023182101  0.023593557            6 
 1424000    1.0273967   -7.5348738    396.02964  0.023175892  0.023585653            5 
 1425000    1.0349365   -7.4604358    398.04144  0.023277277  0.023577769            4 
 1426000    1.0283385   -7.4784667     397.2574  0.023215135  0.023569907            2 
 1427000    1.0284164    -7.515923    395.66494  0.023105871  0.023561883            3 
 1428000     1.013709   -7.5079439    396.44802  0.023135389  0.023554016            2 
 1429000    1.0019581   -7.5275622    396.16011  0.023102409  0.023546127            3 
 1430000    1.0250574   -7.5272458    394.84447  0.023009585   0.02353808            5 
 1431000    1.0225559   -7.5112275    396.61444  0.023096578  0.023530009            3 
 1432000    1.0474283   -7.4931775    396.13159  0.023052351  0.023522075            5 
 1433000     1.016078   -7.5026697    397.72983  0.023129206  0.023514084            9 
 1434000    1.0327653   -7.4950778    397.41445   0.02309475  0.023506149            4 
 1435000    1.0211231   -7.5120083    398.02213  0.023113945  0.023498269            3 
 1436000     1.030342   -7.4701696    398.26359  0.023111861  0.023490333            3 
 1437000    1.0348349   -7.4891311    398.24013  0.023094417  0.023482533            4 
 1438000    1.0281535   -7.4862482    399.94002  0.023176867  0.023474655            3 
 1439000     1.039362   -7.4845956    398.69673  0.023088761  0.023466776            4 
 1440000    1.0490966   -7.5252638    398.77756  0.023077405  0.023458999            8 
 1441000    1.0120364   -7.5557233    398.63236  0.023052994  0.023451167            5 
 1442000    1.0170003   -7.5072466    399.83917  0.023106748  0.023443414            3 
 1443000   0.99523255   -7.5106199    400.08837  0.023105127  0.023435714            2 
 1444000    1.0389116   -7.5621127    398.43821  0.022993895  0.023427935            3 
 1445000    1.0154415   -7.5172626    400.44238  0.023093563  0.023420233            6 
 1446000    1.0203438   -7.5455036    400.17852  0.023062386  0.023412532            5 
 1447000     1.010764   -7.5188463     401.7673  0.023137947  0.023404874            5 
 1448000     1.041283   -7.4845502    400.48657   0.02304826    0.0233972            3 
 1449000    1.0192295   -7.5345534    400.94341  0.023058627  0.023389543            6 
 1450000    1.0127579   -7.5459016    401.21999   0.02305862  0.023381872            3 
 1451000    1.0363796   -7.5361432    400.27524   0.02298847  0.023374078            7 
 1452000     1.009124   -7.5440211    400.38713  0.022979059  0.023366396            7 
 1453000     1.038575   -7.5229402    400.38209  0.022962955  0.023358627            3 
 1454000    1.0219184   -7.4901198    401.80588  0.023028764  0.023350945            3 
 1455000    1.0208308   -7.5243379    401.14911  0.022975321  0.023343359            4 
 1456000    1.0393923   -7.4896283    402.78119  0.023052953  0.023335743            2 
 1457000    1.0082573   -7.5047324    401.64189  0.022971968  0.023328124            8 
 1458000    1.0026327   -7.4980117     403.1853  0.023044427  0.023320526            6 
 1459000    1.0009182   -7.5166068    402.74581  0.023003531  0.023312901            3 
 1460000    1.0443479   -7.5355135    402.06748  0.022949057  0.023305225            3 
 1461000     1.024378   -7.5305016    401.89477  0.022923498  0.023297589            2 
 1462000    1.0332534    -7.519258     404.2361  0.023041273   0.02328997            6 
 1463000   0.99856963   -7.5140657    404.67801  0.023050696   0.02328243            4 
 1464000   0.98581239   -7.4907522    404.45665   0.02302235  0.023274843            2 
 1465000    1.0207691   -7.5036847    403.99459  0.022980352  0.023267337            3 
 1466000    1.0193376   -7.4895911    405.28203   0.02303786  0.023259767            3 
 1467000    1.0041524   -7.5294054    403.48542  0.022920099  0.023252262            5 
 1468000    1.0276004   -7.4954497    404.78125  0.022978045  0.023244636            5 
 1469000     1.036214    -7.511329    403.94809   0.02291514  0.023237011            3 
 1470000    1.0333883   -7.5102857    404.09898  0.022908106  0.023229355            4 
 1471000    1.0348127   -7.5566148    404.10673  0.022892971  0.023221732           10 
 1472000    1.0165121   -7.5595102     403.4423  0.022839804  0.023214188            4 
 1473000    1.0205732   -7.5288645    404.71238  0.022896152  0.023206523            3 
 1474000    1.0110516   -7.5465512    404.11429  0.022846805   0.02319891            3 
 1475000    1.0068311   -7.5094541    405.43237  0.022905783  0.023191302            3 
 1476000    1.0129344   -7.5376945    404.45528  0.022835099  0.023183599            2 
 1477000    1.0098657   -7.5324382    405.54177  0.022880939  0.023175981           10 
 1478000   0.99462235   -7.5450407    404.12036  0.022785316  0.023168325            2 
 1479000    1.0096012   -7.5333176     405.5378  0.022849775  0.023160544            2 
 1480000    1.0131996   -7.5154631    406.04804  0.022863065  0.023152837            2 
 1481000    1.0212392   -7.5254865    406.42283  0.022868716  0.023145074            4 
 1482000    1.0245069   -7.5207572     407.2969  0.022902435  0.023137449            3 
 1483000    1.0348992   -7.5733912     405.1194  0.022764632  0.023129768            7 
 1484000   0.99907617   -7.4900156    405.59682  0.022776102   0.02312202            4 
 1485000    1.0004493   -7.5790752    406.39668   0.02280565  0.023114347            6 
 1486000    1.0000031   -7.5302536    406.43059  0.022792204  0.023106685            4 
 1487000    1.0082553   -7.5560244    405.10621  0.022702657  0.023099003            6 
 1488000    1.0163931   -7.4953896    407.14008  0.022801304  0.023091286            2 
 1489000    1.0100457     -7.52667    405.96892  0.022720445  0.023083569            3 
 1490000    1.0064866   -7.5514776    407.29532   0.02277938  0.023075933            6 
 1491000    1.0149166   -7.5435483    406.68917  0.022730224  0.023068224            3 
 1492000     1.013578   -7.5086503    406.95874  0.022730046  0.023060502            6 
 1493000    1.0083438   -7.5270433    407.81913  0.022762845  0.023052837            4 
 1494000    1.0140643   -7.5011272    408.24072  0.022771125  0.023045278            2 
 1495000     1.016128   -7.5206601    408.06021  0.022745831  0.023037676           11 
 1496000    1.0282326   -7.5093233    408.67552  0.022764902  0.023030106            3 
 1497000    1.0164096   -7.5371135    407.25617  0.022670684  0.023022417            6 
 1498000    1.0098626   -7.5957188    406.55614  0.022616608  0.023014635            4 
 1499000    1.0135621   -7.5559287    407.65805  0.022662778  0.023006895            4 
 1500000   0.97989332   -7.5514537    408.14263  0.022674591  0.022999214            3 
 1501000    1.0317688   -7.5539566    408.01246  0.022652257  0.022991549            6 
 1502000    1.0090964   -7.5533896    408.02144  0.022637674  0.022983735            2 
 1503000    1.0035378   -7.5361718    407.86251  0.022613801   0.02297607            2 
 1504000    1.0027119   -7.5152717    409.77851  0.022704926  0.022968456            3 
 1505000   0.99847264   -7.5424307    409.32456  0.022664705  0.022960752            5 
 1506000   0.98764754   -7.5472615    409.02742  0.022633213   0.02295317            2 
 1507000    1.0314574   -7.4903098    409.41423  0.022639584  0.022945501            4 
 1508000   0.99914858   -7.5595648    408.93395   0.02259803   0.02293782            4 
 1509000    1.0310549   -7.5576284    409.21713  0.022598693  0.022930005            5 
 1510000    1.0037355   -7.5830268    409.07946  0.022576129  0.022922153            7 
 1511000    1.0005573   -7.5581349     408.4013  0.022523787  0.022914291            2 
 1512000    1.0292437   -7.5341705    409.94422  0.022593928  0.022906389            6 
 1513000     1.023662   -7.5317372    409.70258  0.022565685  0.022898484            7 
 1514000    1.0090497   -7.5120112    410.89755  0.022616554  0.022890688            7 
 1515000    1.0056838   -7.5083216     409.1324  0.022504532  0.022882846            6 
 1516000    1.0004203   -7.5402276    409.04289  0.022484768  0.022875005            6 
 1517000   0.99861222   -7.5096284    410.53327  0.022551817  0.022867177            6 
 1518000    1.0301093   -7.5537881    409.06889  0.022456571  0.022859327            3 
 1519000    1.0169516   -7.5629309    409.34622  0.022457001   0.02285145            2 
 1520000    1.0129356   -7.5675396    410.08358  0.022482652  0.022843527            5 
 1521000    1.0183056   -7.5410221    410.27197  0.022478193   0.02283583            7 
 1522000    1.0110464   -7.5141275    410.56619  0.022479533  0.022827947            3 
 1523000   0.97943558   -7.5539732    410.12142  0.022440436  0.022820163            8 
 1524000    1.0124167    -7.539501    409.96572  0.022417198  0.022812219            3 
 1525000   0.99392651   -7.5326313    409.90917  0.022399408  0.022804322            5 
 1526000    1.0111628   -7.5723736    411.18315  0.022454301  0.022796371            4 
 1527000   0.99169208   -7.5882615     411.1119  0.022435707  0.022788344            4 
 1528000    1.0159698   -7.5506447    410.32914  0.022378334  0.022780503            2 
 1529000   0.99136707   -7.5625052    411.72056  0.022439533  0.022772537            3 
 1530000    1.0077685   -7.5438998    410.98772  0.022384952  0.022764569            3 
 1531000    1.0152434   -7.5506123    410.87296  0.022364085  0.022756645            5 
 1532000    1.0129726   -7.5368526     410.9324   0.02235272  0.022748766            3 
 1533000     1.013115   -7.5696532     411.0792  0.022346119  0.022740853            9 
 1534000   0.97565431   -7.5709756    410.98231  0.022326288  0.022732938            9 
 1535000   0.98848855    -7.516308    414.55617  0.022505764  0.022725066            6 
 1536000   0.99460301   -7.5699637    412.28536  0.022367912  0.022717164            7 
 1537000   0.98838268   -7.5917629    411.71634  0.022322508  0.022709257            4 
 1538000   0.97893768   -7.5476226    413.17296  0.022386918   0.02270134            3 
 1539000    1.0094113   -7.5598915    411.67455  0.022291236  0.022693477            3 
 1540000   0.99687493   -7.5579479    412.59555  0.022326599  0.022685628            4 
 1541000    1.0030317   -7.5468375    411.98103  0.022278879  0.022677822            3 
 1542000    1.0067144   -7.5645322    412.44401  0.022289451  0.022669953            9 
 1543000    1.0083392    -7.560091    413.61973  0.022338504  0.022662097            3 
 1544000    1.0102803   -7.5300171    414.00006  0.022344563  0.022654293            4 
 1545000    1.0114705   -7.5482764    413.03274  0.022277926  0.022646564            6 
 1546000   0.99834684    -7.557904    413.13587  0.022269074  0.022638824            4 
 1547000   0.99553463   -7.5573092    414.17462  0.022310634  0.022631161            4 
 1548000    1.0026813   -7.5517812    414.08223  0.022291249   0.02262347            2 
 1549000    1.0034197   -7.5494519    413.98684  0.022271726  0.022615795           11 
 1550000   0.96762007   -7.5316233    414.69839  0.022295613  0.022608204           10 
 1551000    1.0054162   -7.5298973    414.52108  0.022271711  0.022600556            5 
 1552000    1.0090882   -7.5423244    414.55178  0.022259009  0.022592864            3 
 1553000   0.97788484   -7.5752911    414.50894  0.022242377  0.022585099            5 
 1554000    1.0102172   -7.5979796    413.79361  0.022189705  0.022577279            5 
 1555000    1.0020767   -7.5773785    413.23848  0.022145685  0.022569369            4 
 1556000    1.0072513   -7.5832868    414.26399  0.022186375  0.022561517            2 
 1557000    1.0040118     -7.54863    414.89166  0.022205719  0.022553626            3 
 1558000    1.0152039   -7.5425946    416.56248  0.022280834  0.022545778            5 
 1559000    1.0049363   -7.5847075    415.48299   0.02220884  0.022537991            6 
 1560000   0.99244813     -7.53355    416.79734  0.022264815  0.022530255            5 
 1561000    1.0233898   -7.5388556     415.9395  0.022204757  0.022522589            5 
 1562000    1.0041136   -7.5585509    415.10733  0.022146144  0.022514874            5 
 1563000   0.99159029   -7.5376424    417.05829  0.022235993  0.022507137            3 
 1564000    1.0218753   -7.5613723    415.19542  0.022122518  0.022499514            2 
 1565000   0.99151373   -7.5804755    416.83853  0.022195875  0.022491679            5 
 1566000    1.0198321   -7.5209719    417.43089  0.022213223  0.022483993           10 
 1567000   0.96918563     -7.56303    416.91047  0.022171372  0.022476259            5 
 1568000   0.97608226   -7.5507128     416.7833  0.022150473  0.022468481            4 
 1569000   0.99903745   -7.5566978    418.02576  0.022202345  0.022460823            3 
 1570000    1.0083772   -7.5511799    416.90991  0.022128976  0.022453085            4 
 1571000    1.0006345   -7.6127073    416.60408  0.022098667  0.022445424            2 
 1572000    1.0240948   -7.5493788    417.27517  0.022120185  0.022437726            3 
 1573000     1.009355   -7.6034161    417.27559  0.022106145  0.022430021            6 
 1574000    1.0275058    -7.563376    417.59354  0.022108933   0.02242229            4 
 1575000    1.0057036   -7.5838291    417.97863  0.022115271  0.022414611            2 
 1576000    1.0010993   -7.5300203    418.37308  0.022122096   0.02240706            3 
 1577000   0.98546785   -7.5483276    417.94113  0.022085243  0.022399461            3 
 1578000    1.0020111   -7.5302329     418.6745  0.022109976   0.02239176            3 
 1579000    1.0008879   -7.5503446    418.93973  0.022109971  0.022384209            2 
 1580000   0.97031371   -7.5475712    418.41622  0.022068366  0.022376557            2 
 1581000   0.99302805   -7.5720168    419.18376  0.022094864  0.022369002            6 
 1582000    1.0296799   -7.6031071    419.38826   0.02209167  0.022361233            6 
 1583000     1.030243   -7.5540359    419.28192  0.022072116  0.022353549            4 
 1584000    0.9926526   -7.5383519    420.09699  0.022101062  0.022345992            4 
 1585000   0.99640935   -7.5666743     418.3016  0.021992723  0.022338334            3 
 1586000   0.97153801   -7.5827985     419.4833  0.022040947  0.022330557            4 
 1587000    0.9908279   -7.5663078    419.52499  0.022029247  0.022322855            6 
 1588000    1.0106022    -7.531418    419.56034   0.02201723  0.022315203            4 
 1589000    1.0127038   -7.5471017    420.31911  0.022043167  0.022307577            9 
 1590000   0.99721315   -7.5553183    420.12418  0.022019087  0.022299942            3 
 1591000   0.98377831   -7.5234371    420.34336  0.022016727  0.022292309            3 
 1592000   0.99576074   -7.5312058    422.54564  0.022118176  0.022284755            5 
 1593000   0.98004242   -7.5349229    421.31094  0.022039702  0.022277141            3 
 1594000   0.99257465   -7.5867192    420.91678  0.022005269  0.022269562            4 
 1595000   0.99957501   -7.5881379    420.73568   0.02198201  0.022262044            5 
 1596000   0.99605844   -7.6211277    419.49378  0.021903393  0.022254367            3 
 1597000    1.0100893   -7.5534923    421.61517  0.022000374  0.022246719            3 
 1598000   0.99179702   -7.5768346    421.32103  0.021971268  0.022239069            4 
 1599000    0.9914718   -7.5774441    421.27603  0.021955182  0.022231419            6 
 1600000    1.0001445   -7.5297344    422.61148  0.022011015  0.022223873            4 
 1601000    1.0117404   -7.5393431    422.61404    0.0219974  0.022216392            3 
 1602000   0.99407645    -7.581636    421.52961  0.021927258  0.022208865            8 
 1603000   0.97632187   -7.5575224    421.75752  0.021925427  0.022201331            4 
 1604000     1.004237   -7.5755816    423.53634  0.022004174  0.022193805            4 
 1605000   0.98957307   -7.5608606    422.14596  0.021918274  0.022186284            4 
 1606000   0.98991889   -7.5875864    422.28074   0.02191162  0.022178753            3 
 1607000    1.0151183   -7.5514296    422.60731   0.02191492  0.022171265            3 
 1608000   0.99572466   -7.5669098    422.33488  0.021887173  0.022163706            3 
 1609000   0.98812443   -7.6116842    422.27139  0.021870281  0.022156069            5 
 1610000   0.98979867   -7.5586018    423.52661  0.021921667  0.022148522            5 
 1611000    1.0001869   -7.5764333    423.70726  0.021917404  0.022141093            2 
 1612000   0.97972728   -7.5662649    423.58823  0.021897654  0.022133538            9 
 1613000   0.99696168   -7.5866417     423.5462  0.021881907  0.022125997            6 
 1614000   0.98525779   -7.5775315    424.28756  0.021906628  0.022118538            6 
 1615000   0.99054978    -7.599711    423.59244  0.021857195  0.022111116            4 
 1616000   0.97352192   -7.5621635    424.00419  0.021864903   0.02210382            2 
 1617000    0.9813583   -7.5539023    425.25356  0.021915768  0.022096534            7 
 1618000   0.97767713   -7.5691612    426.18163  0.021950022  0.022089251            3 
 1619000    1.0077127   -7.5775769    425.38034   0.02189522  0.022082027           11 
 1620000     1.006454   -7.6608019    424.10297  0.021815996  0.022074625            4 
 1621000     1.019433    -7.595741    424.69961   0.02183321  0.022067308            2 
 1622000   0.97831661   -7.6195094    424.87583  0.021828803  0.022059999            4 
 1623000   0.99979773   -7.6015307    426.00835  0.021873503   0.02205272            3 
 1624000   0.99811337   -7.6095569    426.18663  0.021869182  0.022045436            3 
 1625000   0.98874881   -7.6069391    427.19048  0.021907204  0.022038186            7 
 1626000   0.98900387    -7.594912    425.80491   0.02182272  0.022030983            7 
 1627000   0.97426403   -7.5704784    426.29399  0.021834357  0.022023671            3 
 1628000   0.99276648   -7.5839388    427.39452  0.021877279  0.022016303           12 
 1629000    0.9902658   -7.5909817    426.39054  0.021812489  0.022008953            6 
 1630000   0.99529112   -7.6149564    425.65779  0.021761646  0.022001553           16 
 1631000   0.98997094    -7.587104    426.65178   0.02179909  0.021994114            3 
 1632000    1.0183758   -7.6044478    426.04692  0.021754847  0.021986681            5 
 1633000   0.99416872   -7.5946089    426.44165  0.021761668  0.021979209            5 
 1634000   0.95018359   -7.5648302    426.90486  0.021771974   0.02197181            2 
 1635000   0.99023356   -7.6092972    426.53971  0.021740046  0.021964471            6 
 1636000      1.00023   -7.6067283     426.3353  0.021716346  0.021957067            2 
 1637000   0.97289848   -7.5748305    426.23024  0.021697732  0.021949624            4 
 1638000   0.98637099   -7.6003425    426.98811  0.021723042  0.021942101            5 
 1639000   0.98315634   -7.5771055    426.02107   0.02166062  0.021934555            4 
 1640000   0.98895822   -7.5694981    427.75408  0.021735471  0.021927016            7 
 1641000   0.96692777   -7.5942029    426.83927  0.021675771  0.021919585            9 
 1642000   0.98351307   -7.6112019    426.76236  0.021658666  0.021912087            5 
 1643000   0.96802879   -7.5882108    427.52108  0.021683966  0.021904618            2 
 1644000   0.97737706   -7.5721285    429.27102   0.02175948  0.021897228            3 
 1645000    1.0012081   -7.6162739    428.33542  0.021698856  0.021889932            4 
 1646000   0.99769131   -7.5902035    427.64451  0.021650694  0.021882488            9 
 1647000     1.012727   -7.6263313    428.39264  0.021675402  0.021875052            4 
 1648000   0.99855426   -7.5941118     427.9523  0.021639983  0.021867562            7 
 1649000   0.99820348   -7.6300772      426.202  0.021538407  0.021860078            7 
 1650000   0.99839028   -7.5919459    428.15224   0.02162385  0.021852606            1 
 1651000   0.97392543   -7.6143199    428.10874  0.021608557  0.021845187            6 
 1652000   0.99751284   -7.6159399    428.00189  0.021590087  0.021837767            4 
 1653000    0.9773009   -7.6187887    427.72137  0.021562884  0.021830244            7 
 1654000   0.96876477   -7.6735418    426.87356  0.021507132  0.021822665            3 
 1655000   0.99516444   -7.6117674    428.86981  0.021594653  0.021815119            3 
 1656000    1.0183988   -7.6085982    429.30702  0.021603614  0.021807706            4 
 1657000   0.99512253   -7.5828343    429.40958  0.021595734  0.021800273            4 
 1658000   0.96535482   -7.6129191    429.06093  0.021565186    0.0217927           14 
 1659000   0.98701707   -7.6500734    427.76695  0.021487189  0.021785084            3 
 1660000    0.9914894    -7.605329    428.54643  0.021513375  0.021777476            5 
 1661000    0.9841715   -7.5921795    428.77068  0.021511673  0.021769948            7 
 1662000   0.98668785   -7.6192856     428.7989  0.021500146    0.0217624           12 
 1663000     1.007812   -7.5845262    430.14909  0.021554875  0.021754868           18 
 1664000   0.99177859   -7.5866883    429.28545  0.021498671  0.021747318            3 
 1665000    1.0009544   -7.6406406    428.35641   0.02143926  0.021739867            4 
 1666000    1.0003875   -7.6165934    430.84291  0.021550766   0.02173238            4 
 1667000   0.98796673   -7.6121343     430.5259  0.021521991  0.021724864            4 
 1668000    0.9691825   -7.6464625    430.59058  0.021512319  0.021717429            2 
 1669000   0.99317639   -7.5871485    430.88011  0.021513886   0.02170999            5 
 1670000   0.97429255   -7.6177577     430.3432  0.021474211  0.021702543            5 
 1671000   0.99017542   -7.5803153    429.94667  0.021441586  0.021695101            6 
 1672000    1.0076991   -7.6132876    430.67041  0.021464833  0.021687639            5 
 1673000    1.0236142   -7.6247409    430.72487  0.021454716  0.021680141            3 
 1674000   0.97715928   -7.6364432    430.65726  0.021438534  0.021672612            3 
 1675000   0.97066738   -7.6062342    430.58863   0.02142232  0.021665095            4 
 1676000   0.98159026   -7.6282738    430.00394  0.021380466  0.021657522            3 
 1677000   0.98290482   -7.6191305    429.90094  0.021362599  0.021649922            3 
 1678000   0.98964845    -7.618339    430.91242    0.0214001  0.021642383            3 
 1679000    0.9786078   -7.5941899     430.9895   0.02139118  0.021634944            4 
 1680000   0.98011718   -7.6020987    431.98134  0.021427646  0.021627542            2 
 1681000   0.96847152   -7.6253038    432.14427  0.021422976  0.021620062            5 
 1682000   0.97636847   -7.5798584     432.9986  0.021452567  0.021612585            6 
 1683000   0.97699225   -7.6421759    431.10128  0.021345874  0.021605097            3 
 1684000   0.97320075   -7.6394781    430.97962  0.021327178  0.021597496           15 
 1685000   0.98169041   -7.6617634    431.42497  0.021336546  0.021589966            4 
 1686000   0.98549784   -7.6361841    431.07779  0.021306731  0.021582411            9 
 1687000    1.0003498   -7.6589346    431.56403   0.02131812  0.021574904            4 
 1688000   0.96988993   -7.6019595      432.667  0.021359943  0.021567388            6 
 1689000     0.974966   -7.5975699    433.45323  0.021386088  0.021559934            4 
 1690000   0.97974345   -7.6161018    432.44431  0.021323684  0.021552529            4 
 1691000   0.96937763    -7.604645    433.25054  0.021350805   0.02154511            5 
 1692000   0.96805673   -7.5958453    433.16033  0.021333744  0.021537684            4 
 1693000   0.96196851   -7.5999768    433.23554  0.021324844  0.021530278            5 
 1694000   0.99052223   -7.5893344    433.39075  0.021319891  0.021522849            7 
 1695000   0.99305805   -7.5954847    433.58893  0.021317057  0.021515371            3 
 1696000   0.99038829   -7.6380108    432.02027  0.021227411  0.021507909            7 
 1697000   0.97415889   -7.6284848    433.13337  0.021269562  0.021500378            5 
 1698000   0.98559756   -7.6670009    432.89652  0.021245412  0.021492795            4 
 1699000   0.97478532   -7.5990321    433.70416  0.021272521  0.021485271            6 
 1700000   0.97439777   -7.6460368     433.4052  0.021245353   0.02147782            5 
 1701000   0.96547775   -7.6133328    434.26219  0.021274848  0.021470289            3 
 1702000   0.98563917   -7.6100715    436.16011  0.021355274  0.021462867            6 
 1703000   0.98620148   -7.6413206    435.64759  0.021317654  0.021455384            4 
 1704000   0.98355184   -7.6385417    434.74887  0.021261193  0.021447888            4 
 1705000   0.98288562    -7.666543    433.05612  0.021165988  0.021440351            5 
 1706000   0.98798073   -7.6270648    433.79558  0.021189702  0.021432838            6 
 1707000    0.9506312   -7.6247198    434.63045  0.021218046  0.021425385           11 
 1708000    0.9742106   -7.5867444    435.87374  0.021266283  0.021417904            4 
 1709000    0.9835498   -7.6594069    433.33044  0.021129824  0.021410387            7 
 1710000   0.97929026   -7.6387824    433.52599  0.021126998  0.021402826           13 
 1711000   0.99497947   -7.6364167    434.41276  0.021157839  0.021395283            3 
 1712000   0.99282905   -7.6613868    433.85191  0.021118181  0.021387729            7 
 1713000   0.96693553   -7.6517122    434.53142  0.021138909  0.021380219            6 
 1714000   0.95741483   -7.6149361     434.7833  0.021138823    0.0213727            4 
 1715000   0.97383367    -7.600687    434.71964  0.021123403  0.021365302            5 
 1716000   0.96323127   -7.6368598    436.10351  0.021178298  0.021357913            5 
 1717000   0.97373379   -7.6272647    436.18282  0.021169812  0.021350509            3 
 1718000    1.0016284   -7.6212104    436.30856   0.02116359  0.021343213            6 
 1719000   0.96951659    -7.597255    435.68366  0.021120984  0.021335763            3 
 1720000   0.97513681   -7.6544009    435.28964  0.021089614   0.02132838            6 
 1721000    0.9705624   -7.6154883    437.10715  0.021165367  0.021320985            6 
 1722000   0.97995073   -7.6405148    437.44258  0.021169308  0.021313595            4 
 1723000    1.0014537   -7.6205465    437.59032  0.021164167  0.021306272            6 
 1724000   0.96796926   -7.6306498    437.54081  0.021149498  0.021299014           23 
 1725000   0.98200442   -7.6613536    436.59045  0.021091326  0.021291641            3 
 1726000   0.97900447   -7.6673673    437.24355  0.021110639  0.021284316           12 
 1727000    0.9789051   -7.6314626    438.26986  0.021147938  0.021277048           37 
 1728000   0.98882139   -7.6072029    438.94378  0.021168199   0.02126976            4 
 1729000   0.97044814    -7.619073    437.75375    0.0210986  0.021262498            2 
 1730000   0.96210414   -7.6264463    438.34642  0.021114953  0.021255232            6 
 1731000   0.97434598   -7.6442958    435.91769  0.020985831  0.021247911            2 
 1732000   0.98005457   -7.6511385    438.46752  0.021096397  0.021240604            2 
 1733000   0.96962775   -7.6999911     437.3492  0.021030448  0.021233248            4 
 1734000   0.97061297   -7.6457404    437.06323  0.021004577  0.021225839            2 
 1735000   0.97438113   -7.6773063    437.45255  0.021011169   0.02121853            6 
 1736000   0.96615878   -7.6091278    439.10495  0.021078387  0.021211202            7 
 1737000   0.99458683   -7.6244329     438.6993  0.021046791  0.021203943            5 
 1738000   0.99793044   -7.6103958    438.43621  0.021022066  0.021196662            7 
 1739000    0.9736923   -7.6185185    439.80028  0.021075344  0.021189492            6 
 1740000   0.98674046   -7.5700399    440.68196  0.021105458  0.021182335            3 
 1741000   0.95756952   -7.6460627    438.83265  0.021004818  0.021175074            6 
 1742000   0.96476259   -7.6585521    438.70756  0.020986776  0.021167738            4 
 1743000   0.96336456   -7.6342784    439.48146  0.021011735  0.021160436            4 
 1744000   0.97934465   -7.6800904    438.65904   0.02096039  0.021153055            6 
 1745000   0.98394117    -7.663698    438.85793  0.020957876  0.021145754            5 
 1746000   0.97333868   -7.6397206    438.99707  0.020952514    0.0211384           10 
 1747000   0.97035453   -7.6219892    439.89177  0.020983198  0.021131115            5 
 1748000    0.9697706   -7.6327339    440.59849  0.021004886  0.021123897            6 
 1749000   0.95933235   -7.6636989    439.26263  0.020929228  0.021116667            7 
 1750000   0.98231768   -7.6289277    441.10505  0.021005002  0.021109356            5 
 1751000   0.97248647   -7.6721888    439.08785  0.020897004  0.021101995            4 
 1752000   0.98390442   -7.6682961    440.30359  0.020942903  0.021094596            5 
 1753000   0.96812907   -7.6683153    439.76541  0.020905372  0.021087241            5 
 1754000   0.96869138   -7.6567897    439.99187  0.020904213  0.021079901            3 
 1755000   0.97171016   -7.6619637    441.50521   0.02096416  0.021072559            5 
 1756000   0.94991995   -7.6534035    439.94788  0.020878316  0.021065314            3 
 1757000   0.96655166   -7.6839543    439.61843  0.020850808  0.021057983            3 
 1758000   0.97532478   -7.6653812    440.03297  0.020858597  0.021050615            2 
 1759000    0.9762609   -7.6966724    440.07618  0.020848786  0.021043218           10 
 1760000   0.97135413   -7.6715082    440.11921  0.020838978  0.021035874           19 
 1761000   0.95218944   -7.6603775    440.12716   0.02082752  0.021028525            5 
 1762000    0.9792485   -7.7015225    439.58452  0.020790036   0.02102116            5 
 1763000   0.99387924    -7.679586    439.78322  0.020787636  0.021013764            5 
 1764000   0.95494168   -7.6762122    441.07614   0.02083693  0.021006458            6 
 1765000   0.98098658    -7.675128    440.57511  0.020801469  0.020999121            4 
 1766000   0.97396284   -7.6821525    441.79825  0.020847407  0.020991761            2 
 1767000   0.96427409   -7.6485503    442.37441  0.020862781  0.020984394            5 
 1768000   0.96495494   -7.6835212    440.83049  0.020778209  0.020977024           10 
 1769000   0.96797174   -7.6616095    441.43381  0.020794885  0.020969674            7 
 1770000   0.96887298   -7.7092815    440.75132  0.020751004  0.020962315            5 
 1771000   0.97441456   -7.6641268    441.91666  0.020794121  0.020954964            6 
 1772000   0.97665417   -7.6562693    442.69805  0.020819133  0.020947676            1 
 1773000   0.95320578   -7.6307604    443.23676  0.020832711  0.020940504            4 
 1774000   0.98412643   -7.6436462    442.15129  0.020769978  0.020933231            7 
 1775000   0.96779141   -7.6508679    443.01088  0.020798633  0.020926027            3 
 1776000   0.96698635   -7.6661529    443.25027  0.020798155  0.020918794            3 
 1777000    0.9785249   -7.6514998    443.67931   0.02080657  0.020911565            3 
 1778000   0.95089908   -7.6812355    442.30912  0.020730649  0.020904332            6 
 1779000    0.9536566   -7.6416428     444.0658  0.020801283   0.02089706           15 
 1780000    0.9602819   -7.6525843    443.00101  0.020739747  0.020889801            5 
 1781000   0.96641942   -7.6744733    442.88244  0.020722555  0.020882572            7 
 1782000   0.95825193   -7.6936658    443.71712  0.020749959   0.02087533            3 
 1783000   0.96629826   -7.6783456    442.91823  0.020700983  0.020868077            2 
 1784000   0.96107196   -7.6534344    443.30785  0.020707579  0.020860817            4 
 1785000   0.97786571   -7.7027719    442.16557  0.020642651  0.020853596            2 
 1786000   0.94724087   -7.6818113    443.03494  0.020671656  0.020846304           11 
 1787000   0.97157146   -7.6613294    443.47945  0.020680817  0.020839016            2 
 1788000   0.95022974   -7.6891084    442.62354   0.02062936  0.020831728            5 
 1789000   0.97938723   -7.6397459    444.99883  0.020728472  0.020824476            5 
 1790000   0.97007975    -7.677555    444.73156  0.020704449  0.020817311            4 
 1791000   0.96344686   -7.6494573    446.45333  0.020773001  0.020810159            5 
 1792000    0.9469561   -7.7013447    444.07414  0.020650769   0.02080298            5 
 1793000   0.96702919   -7.6826704    443.81075   0.02062701   0.02079575            7 
 1794000   0.95517013   -7.6588701    446.66233  0.020747972  0.020788652            3 
 1795000    0.9609424   -7.6765449    445.54041  0.020684327  0.020781548            5 
 1796000   0.97011504   -7.6947504    445.55552  0.020673511  0.020774479            4 
 1797000   0.94199549   -7.6651912    447.22631  0.020739488  0.020767445            4 
 1798000   0.96351532   -7.6716372    444.91448  0.020620804  0.020760411            4 
 1799000    0.9432229   -7.6955852    446.39077  0.020677727  0.020753369            6 
 1800000   0.97629651   -7.6704314    447.00584  0.020694715  0.020746351           12 
 1801000   0.96188156   -7.6523385    447.57654  0.020709631  0.020739356            7 
 1802000   0.95729969   -7.6865999    446.50671  0.020648664  0.020732386           12 
 1803000   0.96147053   -7.6756705    445.92986   0.02061055  0.020725315            6 
 1804000   0.96180387   -7.6577841     445.3108  0.020570529  0.020718238            6 
 1805000   0.94715905   -7.6872878    446.19074  0.020599757  0.020711156            7 
 1806000   0.98039495   -7.6857565    447.55524  0.020651312  0.020704119            7 
 1807000   0.94613732   -7.6825053    446.81536  0.020605763  0.020697015            3 
 1808000   0.98179793   -7.6863865     447.8856  0.020643695  0.020689984            6 
 1809000   0.94779777   -7.6907294    447.48042  0.020613618  0.020682907            8 
 1810000   0.94650062   -7.6753919    446.51306  0.020557692  0.020675795            7 
 1811000   0.96408764   -7.6646419    447.63293  0.020597871  0.020668756            5 
 1812000    0.9642083   -7.6871145    447.59925  0.020584954  0.020661744            9 
 1813000   0.96589791    -7.669533    447.60143  0.020573701  0.020654686            4 
 1814000   0.94505891   -7.6560402     447.1774  0.020542879  0.020647645            3 
 1815000   0.95917317   -7.6958989     447.2958  0.020536997  0.020640574            6 
 1816000   0.96780422   -7.6629892    449.30787  0.020618019  0.020633481            4 
 1817000   0.96473588   -7.6838628    448.94371   0.02058997  0.020626445            3 
 1818000   0.97247665   -7.6509584    448.35624  0.020551716  0.020619467            4 
 1819000   0.96528097   -7.6702421    448.62811  0.020552873  0.020612505            5 
 1820000   0.98243333   -7.6810617    448.71516  0.020545566  0.020605505            2 
 1821000   0.95074935   -7.6936494    449.33499  0.020562648  0.020598493            4 
 1822000   0.94711532   -7.6901339    448.70288  0.020522451  0.020591455            3 
 1823000   0.93978302    -7.707586    448.56676  0.020504972  0.020584413           12 
 1824000   0.94416596   -7.6954568    449.04056  0.020515377  0.020577305           14 
 1825000   0.96686003   -7.6751279    449.19961  0.020511398  0.020570322           16 
 1826000   0.95483224   -7.6894941     449.0677  0.020494145  0.020563344            7 
 1827000   0.95943016   -7.6627563     450.3217  0.020540125  0.020556408            4 
 1828000   0.95049218   -7.7074008    449.47951  0.020490496  0.020549565            8 
 1829000   0.94512927   -7.6606714    450.90006  0.020544016  0.020542717            6 
 1830000   0.96019808    -7.670376    451.44101  0.020557423  0.020535814            6 
 1831000   0.97508119   -7.6913289    449.36034  0.020451499  0.020528915            2 
 1832000    0.9479485   -7.7020871    449.50056  0.020446714  0.020522036            9 
 1833000    0.9507593    -7.671166    451.39351  0.020521618  0.020515163            6 
 1834000   0.94909732   -7.7025745     450.4564  0.020467848  0.020508232            8 
 1835000   0.96784736   -7.7012047    450.29599  0.020449409  0.020501196            9 
 1836000   0.96259622   -7.7128434    450.24309   0.02043587  0.020494188            5 
 1837000    0.9384934    -7.689456    451.33764  0.020474399  0.020487302            3 
 1838000   0.96916613   -7.6691537    450.90543  0.020443663  0.020480437            9 
 1839000   0.96907095   -7.7278254    449.71632  0.020378662   0.02047356            9 
 1840000   0.94931867   -7.7079002    450.99754  0.020425613  0.020466635            9 
 1841000    0.9444516   -7.7016129    451.42653  0.020433937  0.020459712            5 
 1842000   0.97230505   -7.7273869     452.3836  0.020466142  0.020452867            3 
 1843000   0.95101293   -7.7132338    452.36725  0.020454298  0.020446077            6 
 1844000   0.96874937    -7.737026    452.59662  0.020453571  0.020439223            5 
 1845000   0.95706772   -7.6827651    453.04966  0.020462948  0.020432446            3 
 1846000   0.95308478   -7.6833805    453.09044  0.020453704  0.020425726            2 
 1847000   0.95280925    -7.723509    452.85923  0.020432198  0.020418923            8 
 1848000   0.94836946    -7.699777    451.87138  0.020376596  0.020412123            3 
 1849000   0.96966705   -7.7272848    450.77372  0.020316104  0.020405234            6 
 1850000   0.95679007   -7.7052742     452.7863  0.020395779   0.02039838           17 
 1851000   0.96712504   -7.6914078    452.72401  0.020381956   0.02039158           12 
 1852000   0.95929377   -7.6845502    454.26669  0.020440366  0.020384745            3 
 1853000   0.95809234    -7.683186     452.8581  0.020365988  0.020377954            5 
 1854000   0.93100502   -7.7179319    454.06003  0.020409027  0.020371138            8 
 1855000   0.95522803   -7.6834795    454.26976  0.020407447  0.020364332            9 
 1856000   0.96324614   -7.7128771    452.53694  0.020318648  0.020357595            3 
 1857000   0.97451523   -7.7001968    453.99215   0.02037301  0.020350804            7 
 1858000   0.95855672   -7.7343971    453.32047  0.020331919  0.020343977            3 
 1859000   0.97679076   -7.7226698    452.60559  0.020288936  0.020337116            6 
 1860000   0.93762162   -7.6787265    453.87209  0.020334771  0.020330291           10 
 1861000   0.95364388   -7.7430154    453.87478  0.020323965  0.020323451            4 
 1862000   0.96607329   -7.7187694    453.23549  0.020284438  0.020316624            7 
 1863000   0.93870103   -7.7279116    453.54044  0.020287191  0.020309812           12 
 1864000   0.93859565   -7.7402912     452.7754  0.020242105  0.020302935            4 
 1865000    0.9542845    -7.705802    454.04538  0.020287998  0.020296071            9 
 1866000   0.95370585   -7.7007339     454.2754  0.020287397  0.020289293            7 
 1867000    0.9563076    -7.737677    453.55015  0.020244159  0.020282459            3 
 1868000   0.94864892   -7.7070301    454.64572  0.020282197  0.020275639            4 
 1869000    0.9687736   -7.7526176    454.16342   0.02024984  0.020268852            7 
 1870000   0.97153863   -7.7134346    454.54983  0.020256231  0.020262129            3 
 1871000   0.97018577   -7.6838616     455.2953  0.020278608  0.020255387            3 
 1872000   0.95796381   -7.7177912    453.59539  0.020192103  0.020248674           10 
 1873000   0.96032908   -7.6831389    456.13894  0.020294489  0.020242012            2 
 1874000    0.9577778   -7.7035849    455.99865  0.020277421  0.020235321           10 
 1875000   0.93685172   -7.6829555    455.96526  0.020265123   0.02022863            7 
 1876000   0.95818156   -7.7161778     455.5204  0.020234559  0.020221922            9 
 1877000   0.93188086   -7.7105453    455.53893  0.020224602  0.020215194            6 
 1878000    0.9535373   -7.7106198    455.76295  0.020223773  0.020208376           12 
 1879000   0.95644468   -7.7486815    456.10864  0.020228341  0.020201609            3 
 1880000   0.94656803   -7.6858702    457.48968  0.020278798  0.020194877            3 
 1881000   0.96420013   -7.6794853    457.65577  0.020275375  0.020188165            3 
 1882000   0.93360773   -7.7191175    456.20263  0.020200258  0.020181483            8 
 1883000   0.93883236    -7.722983    455.22591  0.020146305  0.020174776            3 
 1884000   0.93511651   -7.6707359    457.89471  0.020253659  0.020168067            3 
 1885000   0.98962963   -7.6947656    456.85625  0.020197005  0.020161381            4 
 1886000    0.9402264   -7.6583804    457.68419  0.020222879  0.020154718            5 
 1887000   0.97196157   -7.7253051    456.25734  0.020149149  0.020148082            5 
 1888000   0.93140103   -7.7156914    456.13101  0.020132901  0.020141371            8 
 1889000   0.96631392     -7.72008    456.86567  0.020154653  0.020134721           16 
 1890000    0.9603932   -7.7797969    455.96078  0.020104091  0.020128029            6 
 1891000   0.92631777   -7.7438409    457.26703  0.020151024  0.020121281            4 
 1892000   0.97003578    -7.719075    458.78591  0.020207272   0.02011461            9 
 1893000   0.94673967   -7.7218719    457.90972  0.020158026  0.020107947            9 
 1894000   0.96592095   -7.6865686    458.90565  0.020191203  0.020101264            6 
 1895000   0.95888539   -7.7146938    457.39389  0.020114067  0.020094603            5 
 1896000   0.92193908   -7.6624411    459.30777  0.020187578   0.02008798            6 
 1897000   0.95052232   -7.7172094     457.0218  0.020076515  0.020081323            6 
 1898000   0.95513581   -7.7525166    457.69973  0.020095703  0.020074632            5 
 1899000   0.95940221   -7.7202735    457.25023  0.020065395  0.020067849            7 
 1900000   0.93900396   -7.7307616    458.03698  0.020089341  0.020061129            8 
 1901000   0.95152692   -7.7564617    456.69832  0.020020091  0.020054313            3 
 1902000    0.9405208   -7.7536752    457.39819  0.020040229  0.020047543            9 
 1903000   0.92484376   -7.7214872     460.3621  0.020159489  0.020040848           12 
 1904000   0.92798998   -7.7267883    459.21422  0.020098662  0.020034114            5 
 1905000   0.95539758    -7.753001    456.86971  0.019985551  0.020027339            8 
 1906000    0.9476518   -7.7141149    458.44092  0.020043762  0.020020608            6 
 1907000   0.94049076   -7.7476821    459.61381  0.020084505  0.020013918            7 
 1908000   0.93835701   -7.7367822    458.69762  0.020033963  0.020007191           11 
 1909000    0.9560994    -7.728497    457.82212   0.01998525  0.020000442            9 
 1910000    0.9383306   -7.7516929    459.64454  0.020054299  0.019993705            7 
 1911000   0.95913802   -7.7019709    459.46232  0.020035859  0.019986988            5 
 1912000   0.95577502   -7.6896418    458.70609   0.01999242  0.019980296            2 
 1913000   0.94128062    -7.697694    459.17849  0.020002548  0.019973571            8 
 1914000   0.94260037   -7.7186965    459.26404  0.019995822  0.019966893            9 
 1915000   0.94540676   -7.7095558    459.94949  0.020015209   0.01996019            6 
 1916000   0.94126812    -7.741734    458.47449  0.019940609  0.019953464           14 
 1917000   0.93052615   -7.7286103    459.58258  0.019978377  0.019946761            8 
 1918000   0.94412145   -7.7549075    460.28939   0.01999867  0.019940051            3 
 1919000   0.93227694    -7.784522    457.42828  0.019864004  0.019933312            8 
 1920000   0.96344255   -7.7106049    459.97638  0.019964253  0.019926538           10 
 1921000   0.93547253   -7.7640544    459.34479  0.019926461  0.019919756           10 
 1922000   0.94818424   -7.7337579    460.02142  0.019945431  0.019913047            8 
 1923000   0.93395488   -7.7209895    459.31753  0.019904556  0.019906279            8 
 1924000   0.95588747   -7.7402485      460.081  0.019927278  0.019899552            7 
 1925000   0.93728524   -7.7258625    458.91918  0.019866631  0.019892771            2 
 1926000      0.93431   -7.7445758    459.14953  0.019866283  0.019885965           10 
 1927000   0.95841513   -7.6870654    460.10257  0.019897188  0.019879199            5 
 1928000   0.95320989   -7.7395473    459.67513  0.019868393  0.019872387            8 
 1929000   0.93608207   -7.7185637    460.41555  0.019890079  0.019865597            5 
 1930000   0.94653622   -7.7212898    460.79834  0.019896301  0.019858842           12 
 1931000    0.9460941    -7.712244    460.46478  0.019871603  0.019852052           21 
 1932000   0.94300763   -7.7236064    458.67111  0.019783951  0.019845255            6 
 1933000    0.9299574   -7.7461473    459.24068   0.01979827  0.019838376            4 
 1934000   0.95345707   -7.7466333    461.07046  0.019866876  0.019831554            3 
 1935000   0.95488513   -7.7177214    460.37827  0.019826799  0.019824775            6 
 1936000   0.94673212   -7.7195649    460.20605  0.019809145  0.019817996           16 
 1937000   0.93949186   -7.7163482     460.6508  0.019818052  0.019811215            5 
 1938000   0.93781405   -7.7551198    460.11589  0.019784825  0.019804397           13 
 1939000   0.94641262   -7.7520594    460.85603  0.019806431   0.01979758            7 
 1940000   0.94741751   -7.7278695    460.90209    0.0197982  0.019790708            9 
 1941000   0.93503032   -7.7481728    460.70881  0.019779702  0.019783898            3 
 1942000   0.93907842   -7.7680178    458.29297   0.01966585  0.019776969           13 
 1943000   0.95412661   -7.7611892    459.55433  0.019709827  0.019770034            6 
 1944000   0.92646205   -7.7710548    459.76389  0.019708672  0.019763073            9 
 1945000   0.94756181   -7.7672529    460.19449  0.019716988  0.019756133            5 
 1946000   0.94387717   -7.7326644    460.07822  0.019701876  0.019749184           11 
 1947000   0.93545556   -7.7369856    462.25807  0.019785057   0.01974221            6 
 1948000   0.92964924   -7.7533597    460.09596  0.019682408  0.019735249            3 
 1949000    0.9377844   -7.7712955    460.70448  0.019698327  0.019728289            7 
 1950000   0.93071002   -7.7549362    460.31054  0.019671391  0.019721261            8 
 1951000   0.92105368   -7.7458894    462.18691  0.019741454  0.019714319            7 
 1952000   0.94873258   -7.7422055    461.68758  0.019710023  0.019707405            6 
 1953000   0.94491728   -7.7443455    460.44795  0.019647037  0.019700492            3 
 1954000   0.92072731   -7.7412261    461.87339  0.019697773  0.019693561            5 
 1955000   0.95697877   -7.7811622    460.87319  0.019645063  0.019686633            9 
 1956000   0.95540626   -7.7930584    461.03201  0.019641786   0.01967967            7 
 1957000   0.90913216   -7.7671669     459.4527  0.019564499  0.019672704            6 
 1958000   0.94566235   -7.7561729     460.8847  0.019615454  0.019665742            7 
 1959000   0.92534851   -7.7636952    460.88144  0.019605302  0.019658769            3 
 1960000    0.9533151    -7.797886    460.93429  0.019597546  0.019651815            5 
 1961000   0.92291378   -7.7816309    461.19171  0.019598492  0.019644838            5 
 1962000   0.94337682   -7.7532703    461.93515  0.019620079  0.019637892            5 
 1963000   0.95169176    -7.741055    462.01222  0.019613356  0.019631019            4 
 1964000   0.95009474   -7.7645858    461.28928  0.019572695  0.019624124           15 
 1965000   0.93899147   -7.7525123      461.862  0.019587023  0.019617267           12 
 1966000   0.94731757   -7.7239331    462.56085  0.019606682  0.019610397           15 
 1967000   0.94768117   -7.7116022    463.49467  0.019636277  0.019603573            3 
 1968000     0.945055   -7.7867217    462.72292   0.01959362  0.019596622            4 
 1969000   0.94214632   -7.8069459    461.57184  0.019534952  0.019589696            7 
 1970000   0.92975604   -7.8054695    461.24194   0.01951108  0.019582781            6 
 1971000   0.94807872   -7.7821116    462.36325   0.01954859  0.019575927            7 
 1972000   0.94500123   -7.7821813      463.077  0.019568839   0.01956902            8 
 1973000   0.93779035   -7.7626369     462.9111  0.019551914  0.019562082            5 
 1974000   0.94981143   -7.7593827    461.68471  0.019490236  0.019555169            6 
 1975000   0.93564212   -7.7474515    462.96383  0.019534339  0.019548274            7 
 1976000   0.93090654   -7.8018493    460.69255  0.019428667    0.0195413            4 
 1977000   0.95629223   -7.7793509    462.34596  0.019488533  0.019534277            6 
 1978000   0.93942642   -7.7616608    462.11602  0.019468993  0.019527223            5 
 1979000   0.93849985   -7.8003806    461.62374  0.019438426  0.019520172            7 
 1980000   0.93494495   -7.7617154    461.89389  0.019439979  0.019513138            6 
 1981000   0.94817167   -7.7864952    461.89745  0.019430315  0.019506182            4 
 1982000   0.95120027    -7.770675    462.56293  0.019448492  0.019499163            3 
 1983000    0.9292252   -7.7590068    462.65209  0.019442431  0.019492122           35 
 1984000   0.91789627   -7.7533303    463.21406  0.019456236  0.019485126           24 
 1985000   0.95491257   -7.7510504    462.62286  0.019421615  0.019478052           20 
 1986000   0.92604531   -7.7619685    462.34095  0.019400006  0.019471038           13 
 1987000   0.92189568   -7.7541562    464.08275  0.019463293  0.019464005           14 
 1988000    0.9287453   -7.7956584    461.60219  0.019349522  0.019457048            9 
 1989000   0.94216876   -7.7879921    463.30064  0.019410954  0.019450053            3 
 1990000   0.94057785    -7.786957    461.17186  0.019312054  0.019443055            5 
 1991000   0.93038605    -7.772572    463.20724  0.019387546  0.019436048            5 
 1992000   0.93778395    -7.784403    463.41138  0.019386353  0.019429003            9 
 1993000   0.92243072   -7.7750584    463.19972  0.019367776  0.019421943            7 
 1994000   0.91849637   -7.7758431    462.13934  0.019313747  0.019414894            4 
 1995000   0.93498765   -7.7582089     463.3596  0.019355037   0.01940784            6 
 1996000   0.92203597   -7.7696833    462.43679  0.019306813  0.019400802            7 
 1997000    0.9371272   -7.7901427    462.84815  0.019314311   0.01939375            5 
 1998000   0.94028561   -7.7863962    462.57933  0.019293432  0.019386695            6 
 1999000   0.92214499    -7.778895     461.3743  0.019233546  0.019379593            5 
 2000000   0.90694017   -7.7644393     463.2045  0.019300187  0.019372488            9 
 2001000   0.94723811   -7.7775944    462.37991  0.019256202  0.019365386            5 
 2002000   0.92466362    -7.757296    463.00842  0.019272745  0.019358344            5 
 2003000   0.94792071   -7.7404676     463.4002  0.019279422  0.019351293            6 
 2004000   0.92489218   -7.8113407    463.16979  0.019260221  0.019344217            8 
 2005000    0.9250241   -7.8040877     462.5304   0.01922404  0.019337064           15 
 2006000   0.93612882   -7.7956615    462.45164  0.019211185  0.019329935            6 
 2007000   0.92109268   -7.8009987    462.60866  0.019208132  0.019322852            4 
 2008000   0.94494766   -7.8029341    463.22809  0.019224273  0.019315741            4 
 2009000   0.93016356   -7.7656485    462.47815  0.019183597  0.019308638            5 
 2010000    0.9312269   -7.8023573    462.61946  0.019179911  0.019301561           10 
 2011000   0.93601623   -7.8008559    463.00558  0.019186374  0.019294517            7 
 2012000   0.94356479   -7.8080153    464.82022  0.019251997  0.019287436            4 
 2013000   0.93727937   -7.7870009    463.99953  0.019208459  0.019280399            2 
 2014000   0.93535517   -7.7725091    464.54002  0.019221285  0.019273415            7 
 2015000   0.93906806   -7.7841953    464.42118  0.019206831  0.019266473            5 
 2016000    0.9497664   -7.7405963    465.59457  0.019245807  0.019259531            5 
 2017000   0.92040812   -7.8112594    463.94702  0.019168196  0.019252568            7 
 2018000   0.92294865   -7.8150007    465.51628    0.0192235  0.019245559            6 
 2019000   0.94257791   -7.7925299    464.73937  0.019181912  0.019238627           10 
 2020000   0.92862388    -7.774926    465.86708  0.019218939  0.019231695            5 
 2021000   0.91585323   -7.7961917    465.40055  0.019190192  0.019224756            5 
 2022000   0.93095512   -7.7573736    465.63249  0.019190261  0.019217791            8 
 2023000   0.90838496   -7.8212834    464.96934  0.019153458  0.019210827            9 
 2024000   0.92901871   -7.8054555     465.1805  0.019152689  0.019203847            5 
 2025000   0.92956971   -7.7887066    465.05205  0.019137944   0.01919687            7 
 2026000   0.91502659   -7.7661591    465.55621  0.019149235  0.019189972           10 
 2027000   0.91408554   -7.8091729    465.85421  0.019152039   0.01918306            3 
 2028000   0.91396471   -7.7770057     465.5666  0.019130777  0.019176147            5 
 2029000   0.90865404   -7.7658899    466.50021  0.019159693  0.019169222            3 
 2030000   0.93197043   -7.7664643    466.84653  0.019164472  0.019162334            3 
 2031000   0.93339573   -7.7931604    465.37576  0.019094689  0.019155401            4 
 2032000   0.90920768   -7.8608528    464.40141  0.019045333  0.019148444            3 
 2033000   0.92463036   -7.8072381    465.29903  0.019072759  0.019141463            6 
 2034000   0.94331171   -7.7605242    466.76813  0.019123571  0.019134588            7 
 2035000   0.92227311   -7.7599824    466.95698  0.019121908  0.019127652            7 
 2036000   0.92853335   -7.7562917    466.01556  0.019073983  0.019120708           10 
 2037000   0.93179343   -7.8032045    465.98069  0.019063193  0.019113771            5 
 2038000   0.90994956   -7.8075045    467.17845  0.019102815  0.019106802           10 
 2039000    0.9247229    -7.780053    466.81323   0.01907852   0.01909987           12 
 2040000   0.91960122   -7.8295291    465.58255  0.019018895  0.019092878            6 
 2041000   0.91245039   -7.8198307    467.58105  0.019091175  0.019085877            8 
 2042000   0.93654418    -7.824374    465.93101  0.019014488  0.019078943           12 
 2043000   0.93114907   -7.8036169    466.07268  0.019010959  0.019072017            9 
 2044000   0.91860797   -7.8023606      466.379  0.019014147  0.019065069           13 
 2045000    0.9202524   -7.7941586    466.02469  0.018990411  0.019058113            8 
 2046000   0.92047247   -7.8398036    466.36348  0.018994928    0.0190511            8 
 2047000   0.91006257   -7.7606081    466.85401  0.019005618  0.019044139            7 
 2048000   0.89669631    -7.795624    468.43098  0.019060505  0.019037219           11 
 2049000   0.92295309   -7.7621366    468.46908  0.019052752  0.019030358            8 
 2050000   0.93187493   -7.7869283    467.19554  0.018991689  0.019023455           11 
 2051000   0.92842064   -7.8113185    466.32903  0.018947222  0.019016533            4 
 2052000   0.92252587   -7.7939961    467.02326  0.018966182  0.019009615            9 
 2053000   0.91126042    -7.795073     466.7777  0.018946976  0.019002672            4 
 2054000   0.92294156   -7.8120782    467.15258  0.018952961  0.018995724            6 
 2055000   0.93472947   -7.8560858    465.72869  0.018885997  0.018988751            5 
 2056000   0.91829942   -7.8318433    466.61684   0.01891281  0.018981752           10 
 2057000   0.92178423   -7.8229855    467.60567  0.018943675  0.018974805            6 
 2058000    0.9304132   -7.7654434    467.83653  0.018943818  0.018967872           12 
 2059000   0.94208726   -7.7733228    468.31111  0.018953825  0.018960978            4 
 2060000   0.92264467   -7.7726276    467.81078  0.018924384  0.018954079            7 
 2061000   0.93973852    -7.789042    467.97593   0.01892188  0.018947192            6 
 2062000   0.89676087   -7.8092107    468.19512  0.018921562  0.018940264            9 
 2063000   0.91930894    -7.771342    467.90012  0.018900473  0.018933384            5 
 2064000   0.93223466    -7.754248    468.86622  0.018930322  0.018926532            6 
 2065000   0.92028362   -7.8123996    467.62885  0.018871221  0.018919671            4 
 2066000   0.90891301   -7.7834911    468.81734  0.018910025  0.018912794            4 
 2067000   0.92540406   -7.8001355    467.90183  0.018863967  0.018905884            9 
 2068000   0.91112283   -7.8445309    466.85496   0.01881266  0.018898978           10 
 2069000   0.91271017   -7.7889897    468.17361  0.018856678  0.018892017            6 
 2070000   0.93915736    -7.841574    468.54578  0.018862552  0.018885095            6 
 2071000   0.92692762   -7.7747963    469.91105   0.01890838  0.018878212            8 
 2072000   0.90407884   -7.7976667    469.86056  0.018897223  0.018871319            6 
 2073000   0.90917119   -7.8613379    468.84359  0.018847226   0.01886442            9 
 2074000   0.92668218   -7.7700172    470.41788  0.018901393  0.018857584            8 
 2075000   0.93743256   -7.8160503    468.78643  0.018826764  0.018850721            5 
 2076000    0.9107062   -7.8218314    468.39094   0.01880182  0.018843806           23 
 2077000    0.9030362    -7.816646    468.57618    0.0188002  0.018836922            5 
 2078000    0.9380919   -7.8361306     468.4353  0.018785503  0.018830026           11 
 2079000   0.89972204   -7.7861888    469.48362  0.018818487  0.018823116            8 
 2080000   0.93032381   -7.8342377    469.31967  0.018802871  0.018816203            7 
 2081000   0.90908477   -7.8618738    467.75132  0.018731032  0.018809266           17 
 2082000   0.89870657    -7.795448    470.67362  0.018839002  0.018802427            5 
 2083000   0.90103051   -7.8074788    469.62897  0.018788165  0.018795637            6 
 2084000   0.91143618    -7.785636    470.07529  0.018796997  0.018788854           11 
 2085000    0.9017143   -7.8174316    468.97952  0.018744185   0.01878197           11 
 2086000   0.92384081   -7.8060279    470.57807   0.01879906  0.018775137            7 
 2087000   0.90853301   -7.8363716    468.99305  0.018726763  0.018768254            8 
 2088000   0.92792823   -7.7962479    471.07752  0.018800987  0.018761402            2 
 2089000   0.91583429    -7.817431     469.7896   0.01874061  0.018754526           12 
 2090000   0.91669101   -7.8115518    470.74213  0.018769622  0.018747634            6 
 2091000   0.92835968   -7.8510382    468.62959  0.018676454  0.018740716            5 
 2092000   0.91822322   -7.8182924    470.13905  0.018727655  0.018733805            4 
 2093000   0.91179245    -7.768192    471.58429   0.01877625  0.018726975            9 
 2094000   0.91209496   -7.7995915    470.70909  0.018732453  0.018720135            5 
 2095000   0.91829504    -7.780473    470.41358  0.018711757  0.018713282            6 
 2096000   0.91136789   -7.8244802    470.42928  0.018703454  0.018706423            3 
 2097000   0.92690523   -7.8128987    470.34975  0.018691375  0.018699539            7 
 2098000    0.9066049   -7.7756587    471.39958  0.018724165  0.018692649            3 
 2099000   0.91828914   -7.7982081    470.52999   0.01868072  0.018685812            4 
 2100000   0.91683025   -7.7827528    470.88405  0.018685875   0.01867896            3 
 2101000   0.89293598   -7.8169641    470.13387  0.018647226  0.018672074            4 
 2102000   0.92134012   -7.8344309    469.73862  0.018622686  0.018665169            5 
 2103000   0.91873213   -7.8540188    469.87707  0.018619316   0.01865821            6 
 2104000   0.92175966   -7.8130032    470.31829  0.018627943  0.018651297            3 
 2105000   0.91144039   -7.7984069    470.51745  0.018626977  0.018644395           12 
 2106000   0.91362729    -7.780633    470.13023  0.018602811  0.018637477            7 
 2107000   0.89484973   -7.8165722     470.5601  0.018610983  0.018630568            5 
 2108000   0.92665255   -7.7976199    471.77549  0.018650201  0.018623667            2 
 2109000   0.91447076   -7.8178173    470.81972  0.018603593  0.018616706            5 
 2110000   0.90146193   -7.7992943    470.08898  0.018565915  0.018609748            8 
 2111000   0.93534673   -7.8137259    471.18337  0.018600322   0.01860278            5 
 2112000   0.91236989   -7.8156435    470.18867  0.018552268  0.018595865            9 
 2113000   0.89152681   -7.8460349    470.15784  0.018542272  0.018588938            8 
 2114000   0.92673312    -7.806007    470.67723  0.018553975  0.018582008            8 
 2115000   0.90274495   -7.8075604    470.64207  0.018543817  0.018575148            4 
 2116000   0.92236234   -7.8478818    471.22043   0.01855783  0.018568269            5 
 2117000   0.91644726   -7.8114114    472.09464  0.018583476  0.018561395            2 
 2118000   0.90234386   -7.8606825    471.87129  0.018565915  0.018554539            4 
 2119000   0.91945419   -7.8452672    470.54924  0.018505161  0.018547662           20 
 2120000   0.93207195   -7.8415353    471.53374  0.018535131  0.018540732            5 
 2121000   0.90668346   -7.8472805    470.64328  0.018491407  0.018533854            9 
 2122000   0.91382742   -7.8316224    470.81175  0.018489309  0.018526915           10 
 2123000   0.89497362   -7.8346589    471.53185  0.018508865  0.018520033            9 
 2124000   0.90765017   -7.8413661    470.65732   0.01846584  0.018513139           10 
 2125000   0.90207679   -7.8489534    470.27114  0.018442006  0.018506228            6 
 2126000   0.90294197    -7.858996    471.25722  0.018471983  0.018499357            9 
 2127000   0.91563851   -7.8833161    470.94852  0.018451204  0.018492447           10 
 2128000   0.92263755   -7.8233751    472.16281  0.018490085  0.018485602           12 
 2129000   0.91345971   -7.7925579    473.51725  0.018534416  0.018478792            4 
 2130000   0.89946697   -7.8485499    472.00975  0.018466735   0.01847202           12 
 2131000   0.91228773   -7.8081271    473.05522  0.018498953  0.018465269            5 
 2132000   0.89705876   -7.8124742    473.65101  0.018513564  0.018458531           15 
 2133000   0.92436579   -7.8463481    471.55844   0.01842313  0.018451776           21 
 2134000   0.90819937   -7.8476619     472.9866  0.018470267     0.018445           10 
 2135000   0.89105391   -7.8308217    473.15106  0.018468035  0.018438198           12 
 2136000   0.89741216   -7.8354403    473.09327  0.018457135  0.018431454           10 
 2137000   0.92260408   -7.8368752    473.93695  0.018481397  0.018424691            6 
 2138000   0.93195573   -7.8490466    473.11083  0.018440553  0.018418013            5 
 2139000     0.909134   -7.8714803    473.41387  0.018443738  0.018411329           11 
 2140000   0.90311594   -7.8562175    474.78072  0.018488346  0.018404597            6 
 2141000   0.91080834   -7.8474186    474.51945  0.018469541  0.018397917            4 
 2142000   0.91154041   -7.8510895     474.1867  0.018447973  0.018391278            7 
 2143000   0.90867505   -7.8415009    475.32321  0.018483559  0.018384621            3 
 2144000   0.89500698   -7.8437665    474.23204  0.018432526  0.018377965           16 
 2145000    0.8899622     -7.85532     473.4847  0.018394899  0.018371274            7 
 2146000   0.90881098   -7.8463928    474.63866  0.018431138  0.018364568            7 
 2147000    0.9292731   -7.8912649    473.33226  0.018371847  0.018357803            7 
 2148000   0.90164761   -7.8932965     474.0245   0.01839015  0.018351069            6 
 2149000   0.90866621   -7.8784767    474.22009  0.018389177  0.018344344            3 
 2150000   0.88947927   -7.8438385     475.1015  0.018414787  0.018337657            6 
 2151000   0.89636803    -7.876797    473.48602  0.018343639  0.018330933            7 
 2152000   0.91121165   -7.8690409    473.07665  0.018319263  0.018324177           12 
 2153000   0.89739369   -7.8492978    474.06398   0.01834897  0.018317393            6 
 2154000   0.92036213   -7.8623168    474.53203  0.018358559  0.018310609            4 
 2155000   0.90807504   -7.8718204    473.15687  0.018296863  0.018303896            6 
 2156000   0.91173019     -7.85549    475.15235  0.018365505  0.018297123            5 
 2157000   0.89898327   -7.8702459    473.38268  0.018288622  0.018290345           16 
 2158000   0.91224518   -7.8723509    473.80059  0.018296285  0.018283565            5 
 2159000    0.9023851   -7.8476603     475.2877   0.01834521  0.018276839           11 
 2160000   0.89934879   -7.8562224    475.14076  0.018331048  0.018270121            6 
 2161000   0.89009596    -7.858878    474.54656  0.018299651  0.018263416           25 
 2162000   0.89050111   -7.8464772    474.25471  0.018279938  0.018256753            6 
 2163000   0.89956072   -7.8548535    475.39473  0.018315408  0.018249998           14 
 2164000   0.91710925   -7.8564426    473.17833  0.018221593   0.01824328           14 
 2165000   0.90321456   -7.8201457    474.74979  0.018273664  0.018236559           10 
 2166000   0.90813786   -7.8991793    473.13066  0.018202934  0.018229804           16 
 2167000   0.88098781   -7.8360623    475.29513   0.01827777  0.018223048           21 
 2168000   0.90691776   -7.8510846    474.68254  0.018245793  0.018216322           12 
 2169000   0.89498041   -7.8470857    476.51708  0.018307864  0.018209677           36 
 2170000    0.9261288   -7.8145988    475.27751  0.018251824  0.018203006           13 
 2171000   0.90738895   -7.8308734    476.27519  0.018281713  0.018196303           32 
 2172000   0.91264983   -7.8215842    475.30195  0.018235956  0.018189616           17 
 2173000   0.88261467   -7.8388036    475.95088   0.01825245  0.018182884           13 
 2174000   0.90464924   -7.8720953    474.58182  0.018191575  0.018176166           12 
 2175000    0.9119641   -7.8502606    474.95929  0.018197674  0.018169433            7 
 2176000   0.90150445   -7.8895101    475.65781  0.018216062  0.018162748            6 
 2177000   0.90480041   -7.8412276     475.6796  0.018208529  0.018156082           10 
 2178000   0.90024213    -7.840031    476.53343  0.018232837   0.01814945            5 
 2179000   0.89655487   -7.8009922    476.91581  0.018239093  0.018142813            6 
 2180000   0.88823413   -7.8622554    475.01745   0.01815816  0.018136163            5 
 2181000   0.91592333   -7.8335656    476.87912  0.018220966  0.018129499           15 
 2182000   0.89137435   -7.8466807    477.57484  0.018239186  0.018122808            9 
 2183000   0.90161798   -7.8652723    476.41807  0.018186672  0.018116121            7 
 2184000   0.91005295   -7.8455049    476.63681  0.018186691  0.018109438            6 
 2185000   0.89668323   -7.8369477    477.90623  0.018226782  0.018102812            8 
 2186000   0.88937631   -7.8758666    474.85412  0.018102093  0.018096196            9 
 2187000   0.89177819    -7.880146    474.86879  0.018094376  0.018089577            9 
 2188000   0.90278962   -7.8568101     477.0734  0.018170072  0.018082892            6 
 2189000   0.91378343   -7.8651151     478.2604  0.018206959  0.018076307            6 
 2190000   0.93122868    -7.854376    477.34649   0.01816387  0.018069659            5 
 2191000   0.91884121   -7.8784236    477.15296  0.018148218  0.018063057           15 
 2192000      0.92673   -7.8541035    476.40332   0.01811144  0.018056429           11 
 2193000   0.90639406    -7.861467    477.42266  0.018141916  0.018049817           15 
 2194000   0.88625854   -7.8917835    477.70865   0.01814451  0.018043217            8 
 2195000   0.89015409   -7.9032331    476.31292  0.018083254  0.018036636           15 
 2196000   0.89399791   -7.8978088    476.62415   0.01808683  0.018030015           20 
 2197000   0.90379829   -7.9056614    476.98591  0.018092319  0.018023396           11 
 2198000   0.89135812   -7.8712565     477.7091  0.018111507  0.018016785            5 
 2199000   0.89533555   -7.8764902     478.2393  0.018123363  0.018010205           14 
 2200000   0.89071635    -7.846297    478.37662  0.018120326  0.018003651           15 
 2201000   0.91099783   -7.8642564    477.48897  0.018078486  0.017997077            7 
 2202000   0.89387245   -7.9050192    476.82452   0.01804513  0.017990483            8 
 2203000   0.90952719   -7.8768393    478.23705  0.018090371  0.017983893            5 
 2204000   0.91938652   -7.8759751     479.2407  0.018120111  0.017977347            4 
 2205000   0.90745101    -7.884351    478.08973  0.018068395  0.017970803            7 
 2206000   0.91556467   -7.8545703    477.84659   0.01805102    0.0179643            8 
 2207000   0.90931448   -7.9130668    477.67482  0.018036355  0.017957739            7 
 2208000   0.89178166     -7.87924    477.52714  0.018022613  0.017951139            5 
 2209000   0.90987555   -7.9086245    478.37311  0.018046367   0.01794457           13 
 2210000   0.89808172   -7.8964589    479.37049   0.01807581  0.017938003            4 
 2211000   0.91309843   -7.8642704      479.236  0.018062566  0.017931447            4 
 2212000   0.87328772      -7.8784    478.73041  0.018035353  0.017924853            4 
 2213000   0.90730247   -7.8852864    479.22351  0.018045771  0.017918275            6 
 2214000   0.88793094    -7.925215    477.67595  0.017979372  0.017911709            4 
 2215000   0.90388974   -7.9054905    477.68489  0.017971591  0.017905144            6 
 2216000   0.89383693    -7.884115    479.08136  0.018015996  0.017898624            4 
 2217000   0.92068307   -7.9131588    479.67704   0.01803026  0.017892101            7 
 2218000   0.90603697   -7.9146558    477.62806  0.017945148  0.017885568            9 
 2219000     0.882076   -7.8736189    480.02149  0.018026945  0.017879016            3 
 2220000   0.89282493   -7.8823922    479.57257  0.018001973  0.017872489           18 
 2221000   0.90066752   -7.8753475    479.99906   0.01800987  0.017866034           15 
 2222000   0.89102656   -7.8778502    479.18062   0.01797107  0.017859632            6 
 2223000   0.91185127   -7.8524911    479.64553  0.017980414  0.017853226            7 
 2224000   0.90712415   -7.8684887    479.95279  0.017983842  0.017846845            6 
 2225000   0.88088851   -7.8635168    480.85782  0.018009656  0.017840473            9 
 2226000    0.8939953   -7.8682604      481.114  0.018011156  0.017834085            4 
 2227000   0.90150116   -7.8496642    481.08276  0.018001899  0.017827719            5 
 2228000   0.90229746   -7.8865148    481.42813  0.018006737  0.017821342            3 
 2229000   0.89924487   -7.8764099    481.99075  0.018019693  0.017814957            5 
 2230000   0.88549415   -7.8836445    481.09572  0.017978166  0.017808584           18 
 2231000   0.90020104   -7.8749252    481.06743  0.017969051  0.017802144           14 
 2232000   0.89178511   -7.9084157    481.66702  0.017983386  0.017795774           15 
 2233000   0.91859937   -7.9172552    480.55931  0.017933994  0.017789372           12 
 2234000   0.91165785   -7.9238181    480.16061  0.017911094  0.017782915           17 
 2235000   0.89910673   -7.8826665    481.39878  0.017949246  0.017776476           15 
 2236000   0.91076989   -7.9220312      480.844  0.017920543  0.017770084            4 
 2237000   0.90281985   -7.8865942    481.49138  0.017936648  0.017763694            8 
 2238000   0.88776509   -7.9143946    481.20866  0.017918106   0.01775733            6 
 2239000   0.87136639   -7.9031181    481.02451  0.017903249  0.017750881           11 
 2240000   0.90333317   -7.9101481    480.94059  0.017892135  0.017744429            7 
 2241000   0.89857899   -7.8872492    481.07717   0.01788923  0.017738005            8 
 2242000   0.90063489   -7.9088894    481.49742  0.017896871  0.017731582            5 
 2243000   0.89468338   -7.8845312    481.25796  0.017879996  0.017725209           13 
 2244000    0.8947241   -7.8862038     482.1716  0.017905957   0.01771885           12 
 2245000   0.89632968   -7.9210695    482.35994  0.017904972  0.017712531            9 
 2246000   0.89976065    -7.902233    481.71002  0.017872886  0.017706188           16 
 2247000   0.87938343   -7.9500423    481.55051  0.017859016  0.017699773           10 
 2248000    0.8838736   -7.9450892    481.09595  0.017834221  0.017693307           13 
 2249000   0.88579362   -7.9402445    480.78931  0.017814929   0.01768681           20 
 2250000   0.87318875   -7.9615525    481.48513  0.017832783  0.017680326            5 
 2251000   0.87854406   -7.8982602    481.98747  0.017843457   0.01767391            4 
 2252000   0.89303482   -7.9385933    480.74274  0.017789474  0.017667478            4 
 2253000   0.88634476   -7.9484969    482.12556  0.017832725  0.017661071           12 
 2254000   0.88011219   -7.9000427    482.26592  0.017830003  0.017654683            5 
 2255000   0.88998537   -7.9256664    481.48882  0.017793378  0.017648305            6 
 2256000   0.90481523   -7.8750556    483.18422  0.017848117  0.017641904            9 
 2257000   0.90469937   -7.8880663     483.0733  0.017836114  0.017635567           12 
 2258000     0.876933   -7.9168013    483.31336  0.017837074  0.017629219           14 
 2259000   0.88587652   -7.9160668    481.83743  0.017774732  0.017622847           10 
 2260000   0.88856759   -7.9141469    481.82356  0.017766356  0.017616416           20 
 2261000   0.88753998    -7.959357    480.32871  0.017703402  0.017609991           15 
 2262000   0.88205331   -7.9099048    481.94078  0.017754965  0.017603587            9 
 2263000   0.87997522    -7.897396    482.30701  0.017760606  0.017597212            6 
 2264000   0.89512587   -7.9000284    483.00231  0.017778354  0.017590842            4 
 2265000   0.88945769   -7.9551299    481.40165  0.017711613  0.017584428            8 
 2266000   0.89710365   -7.9538147    482.17496  0.017732236  0.017577999           15 
 2267000   0.89654423   -7.9318562    481.72668  0.017707935   0.01757158           21 
 2268000    0.8972245   -7.9637329    481.54695  0.017693524   0.01756517           20 
 2269000    0.8910719   -7.9297142    482.44785  0.017718813  0.017558753           23 
 2270000   0.90820253   -7.9576945    482.41374  0.017709755  0.017552383           23 
 2271000   0.89818016   -7.9047458    483.16856  0.017729655  0.017546041           19 
 2272000   0.88117619     -7.90204    482.45082  0.017695526  0.017539708           35 
 2273000   0.88659354   -7.9205517    481.14589  0.017639899   0.01753332           31 
 2274000   0.90530564   -7.9124832    483.25649  0.017709487  0.017526966           43 
 2275000    0.8742072   -7.9446051    482.56548  0.017676391  0.017520577           40 
 2276000   0.88331132   -7.9031175    482.95816  0.017683002  0.017514209           18 
 2277000   0.89203991   -7.9727622    482.36064  0.017653369  0.017507796           13 
 2278000   0.88983707   -7.9331097    482.63005  0.017655474  0.017501343            8 
 2279000   0.90883954   -7.9658801    481.01334  0.017588611  0.017494926            6 
 2280000   0.89977421   -7.9287038    483.17921  0.017660059   0.01748855           39 
 2281000   0.87762611   -7.9061797    483.67791  0.017670536    0.0174822            9 
 2282000   0.90245394   -7.9313615    483.98219  0.017673904  0.017475861            8 
 2283000   0.90284489    -7.953632    484.24594   0.01767579  0.017469534           11 
 2284000   0.89168359   -7.9539377    482.99063   0.01762225  0.017463151            9 
 2285000   0.89434345   -7.9535163    483.58781  0.017636317  0.017456789           10 
 2286000   0.87839504   -7.9416379    482.97518  0.017606269  0.017450394            7 
 2287000   0.88684753   -7.9382671    482.50376  0.017581394  0.017443985            5 
 2288000   0.89942028   -7.9221865    482.27068   0.01756522  0.017437641           10 
 2289000    0.8728215   -7.9224733    484.62331  0.017643196  0.017431348            8 
 2290000    0.8862442   -7.9226433    485.88467  0.017681393  0.017425061           15 
 2291000   0.88887497   -7.9419471    483.29092  0.017579329  0.017418759            7 
 2292000   0.89528014    -7.930812    484.13844  0.017602474  0.017412455            5 
 2293000    0.8807152   -7.9274906    484.39036  0.017603953  0.017406211           11 
 2294000   0.88803057    -7.915411    485.35019  0.017631146  0.017399989           14 
 2295000   0.88853352   -7.9194483    485.07461  0.017613457  0.017393737            3 
 2296000   0.88265276   -7.9219155    484.09562  0.017570253   0.01738746            6 
 2297000    0.8714672   -7.9467093    483.86978  0.017554411   0.01738114            8 
 2298000    0.8952917   -7.8937456    485.44331  0.017603833  0.017374866           15 
 2299000   0.89028519   -7.9169396    485.34742    0.0175927   0.01736859           14 
 2300000   0.90434201   -7.9153771    484.76642  0.017564001  0.017362329           11 
 2301000   0.89418087   -7.9149573    485.90996  0.017597782  0.017356112           11 
 2302000    0.8719035   -7.9349922     485.2216  0.017565219  0.017349867            4 
 2303000   0.87446358   -7.9164912    485.19658  0.017556686  0.017343623           11 
 2304000   0.87472093   -7.9215037    484.84467  0.017536338  0.017337338           11 
 2305000   0.87384347   -7.9307123     485.2718  0.017544172   0.01733108           10 
 2306000    0.8692537   -7.9322457     485.1797  0.017533236  0.017324853            6 
 2307000   0.88768416   -7.8955633    486.82224  0.017584968  0.017318616            4 
 2308000   0.85847426   -7.9410685    485.74607  0.017538492  0.017312366           12 
 2309000   0.89987806    -7.903433    485.15316  0.017509498  0.017306175            7 
 2310000   0.89423424   -7.9351714    486.45466  0.017548869  0.017299926            5 
 2311000    0.8847204   -7.9376642    485.70325   0.01751418   0.01729367            5 
 2312000   0.90787989   -7.9231249    485.98081   0.01751661  0.017287418            6 
 2313000   0.88939597   -7.8983345    485.54308  0.017493266  0.017281199            7 
 2314000   0.86277077   -7.9046739    487.36674  0.017551381  0.017275007            9 
 2315000   0.86260555   -7.9112727    486.09892  0.017498161  0.017268802           16 
 2316000   0.87595576   -7.9232303    487.22914  0.017531273  0.017262597           11 
 2317000   0.86959505   -7.9231694    485.81763   0.01747294  0.017256369           11 
 2318000   0.87529868   -7.8964993    486.86906  0.017503202   0.01725021            5 
 2319000   0.87091475   -7.9098583     487.7999  0.017529104  0.017244033            5 
 2320000   0.90342872   -7.9263723    486.07626  0.017459636  0.017237854            8 
 2321000   0.88608069   -7.9301678    486.62797  0.017471922  0.017231677            4 
 2322000   0.87088301   -7.9589418    487.07512  0.017480445   0.01722549            5 
 2323000   0.88195798   -7.9270442    486.46453  0.017451016  0.017219324            7 
 2324000   0.89914195   -7.9583203    487.25247  0.017471761  0.017213168            6 
 2325000    0.8828216   -7.9310046    485.94395  0.017417346  0.017206956            4 
 2326000   0.88086484   -7.9352739    486.51016  0.017430143  0.017200807            7 
 2327000   0.86534711   -7.9155213    487.12327  0.017444609  0.017194631            9 
 2328000   0.87684267   -7.9226715    486.36421  0.017409944  0.017188455           17 
 2329000   0.87300361   -7.9425309    486.92929  0.017422688  0.017182262            9 
 2330000   0.87277484   -7.9290486    487.92247  0.017450732  0.017176129            8 
 2331000   0.89042427   -7.9161282    485.93932  0.017372348  0.017169963            3 
 2332000   0.88135526   -7.8996344    488.79828  0.017467063  0.017163792            8 
 2333000   0.88104659   -7.8930303    488.81574  0.017460199  0.017157648            9 
 2334000   0.90698271   -7.9278379    487.58506  0.017408778  0.017151482            5 
 2335000    0.8763482   -7.9187849    487.39356  0.017394488  0.017145328            6 
 2336000   0.88278358   -7.9642737    486.76244  0.017364528  0.017139125            7 
 2337000   0.87633036   -7.9062126    487.03207  0.017366712  0.017132957            6 
 2338000   0.88064642   -7.9344491    488.55396  0.017413529  0.017126783           11 
 2339000   0.89292422   -7.9668862    486.38767  0.017328904  0.017120563            6 
 2340000   0.87324339   -7.9695718    485.87722   0.01730332  0.017114326           16 
 2341000   0.89176794   -7.9481191    485.62891  0.017287089  0.017108098            8 
 2342000   0.88016028   -8.0042759    485.94718  0.017291032  0.017101841           10 
 2343000    0.8710954   -7.9645514    487.17022  0.017327152  0.017095595           13 
 2344000   0.88512812   -7.9389435     487.0141   0.01731421  0.017089388            8 
 2345000   0.88150908   -7.9890214    486.04012  0.017272215  0.017083149            7 
 2346000   0.86772536   -7.9583159     487.6359  0.017321537  0.017076932           12 
 2347000   0.87551875   -7.8852679    488.10315  0.017330747  0.017070763           10 
 2348000   0.88575986    -7.924541    487.03345  0.017285401  0.017064593            9 
 2349000   0.85701058   -7.9471364    486.29355  0.017251793    0.0170584           15 
 2350000   0.86636076   -7.9124274    487.86649   0.01730023  0.017052203           37 
 2351000   0.88111896   -7.9263177    486.87377  0.017257684  0.017046004           16 
 2352000   0.87158246   -7.9514438    487.19958   0.01726189  0.017039807           12 
 2353000   0.88990393   -7.9427546    488.38923  0.017296686  0.017033632            7 
 2354000   0.85251944    -7.907482    487.32279  0.017251586  0.017027467           12 
 2355000   0.87951712    -7.933366    486.40957  0.017211945  0.017021298            6 
 2356000   0.88882638   -7.9676869    487.67482  0.017249392   0.01701512            6 
 2357000   0.88218034   -7.9531526    486.71976  0.017208307  0.017008952            7 
 2358000   0.86147343   -7.9324196    487.03545  0.017212166  0.017002755           11 
 2359000   0.85611099    -7.924056    488.04766  0.017240627  0.016996595            8 
 2360000   0.87928036   -7.9241036    487.80697  0.017224822  0.016990452            4 
 2361000   0.87894005   -7.9504684    488.42629  0.017239386  0.016984316            7 
 2362000   0.91348718   -7.9345537    487.43462  0.017197101  0.016978154            7 
 2363000   0.87914128   -7.9429671    489.51133   0.01726306   0.01697203           10 
 2364000   0.88248722   -7.9439311    487.59672  0.017188266  0.016965895           14 
 2365000   0.86714405   -7.9576436    487.98857  0.017194805  0.016959778            9 
 2366000   0.88271708   -7.9715265    488.25354   0.01719687  0.016953579           11 
 2367000   0.87967667   -7.9421839    487.43155  0.017160666  0.016947354           12 
 2368000   0.87619768   -7.9758736    488.82875  0.017202588  0.016941174            7 
 2369000   0.86672915    -7.954426    488.30935  0.017177056  0.016934963            9 
 2370000   0.87416776   -7.9881948    487.07063  0.017126253  0.016928753            9 
 2371000   0.85415233    -8.010065    486.37139  0.017094454  0.016922509            9 
 2372000   0.87774114    -7.946493    488.60163    0.0171656  0.016916312           31 
 2373000   0.88220325   -7.9945476    488.22896  0.017145279  0.016910096            7 
 2374000   0.86030144   -7.9753803    487.76476  0.017121762  0.016903893            9 
 2375000   0.89145309   -8.0158544    486.16291  0.017058348  0.016897668           19 
 2376000   0.86676246    -7.960285    488.94695  0.017148813  0.016891401           10 
 2377000   0.85708147    -8.001261    486.50259  0.017055903  0.016885159           37 
 2378000   0.86089013   -7.9889243     487.5917  0.017086897  0.016878868           31 
 2379000   0.88391829   -8.0020804    486.42884  0.017038981  0.016872576            6 
 2380000   0.82935744   -7.9648915    488.00119  0.017086876  0.016866273           20 
 2381000   0.85655072   -8.0043371    486.68684  0.017033699  0.016859974           44 
 2382000   0.87188211   -7.9812439    486.90916  0.017034326  0.016853668           45 
 2383000   0.87294573    -7.990231     487.2029  0.017037449  0.016847365           14 
 2384000   0.88231951    -7.990326    485.93924  0.016986131  0.016841085           11 
 2385000   0.84567869   -7.9776632    488.17112  0.017056992  0.016834827           11 
 2386000   0.87255058    -7.984288    487.42254  0.017023699  0.016828545           22 
 2387000   0.86249459   -7.9867103    488.25102   0.01704549  0.016822251           19 
 2388000   0.88822681   -7.9969909    487.42704  0.017009598  0.016815953           32 
 2389000   0.86143457   -7.9883407     488.0644   0.01702471  0.016809666           34 
 2390000   0.86181763   -7.9623343    488.55774  0.017034789  0.016803416           41 
 2391000   0.88384741   -7.9686007    488.03319  0.017009382  0.016797167           29 
 2392000   0.85854583   -7.9936359    487.21628  0.016973811  0.016790922            9 
 2393000   0.88749386   -8.0170669    487.47501  0.016975728  0.016784699           17 
 2394000   0.88644724   -7.9774503     487.3447  0.016964101  0.016778438            7 
 2395000   0.87566701   -8.0143162    488.26471   0.01698903  0.016772173           13 
 2396000   0.87013521   -7.9871151    487.52878  0.016956343  0.016765905           24 
 2397000   0.86853736   -7.9818204    487.86931  0.016961108  0.016759663            6 
 2398000   0.87674113   -7.9641466    488.39074  0.016972155  0.016753434            7 
 2399000   0.87134099   -7.9892184    487.88743  0.016947597  0.016747216            6 
 2400000   0.86665886   -7.9541416    488.76429  0.016970982   0.01674095           10 
 2401000   0.87704752   -8.0020167    487.76317  0.016929167  0.016734719           10 
 2402000   0.85570875   -7.9892197      489.174  0.016971066  0.016728488           11 
 2403000   0.87298991   -7.9673573    488.95069  0.016956259   0.01672226           16 
 2404000   0.88444466   -7.9559953    488.81085  0.016944359  0.016716075            7 
 2405000   0.87362606   -7.9430803    488.45608   0.01692502  0.016709876            5 
 2406000   0.86036328   -7.9808696    488.06882  0.016904573  0.016703694            6 
 2407000   0.83739382   -7.9403327    488.84634  0.016924468  0.016697522            3 
 2408000   0.86046271   -7.9720583    488.96913  0.016921689   0.01669136           15 
 2409000   0.85779529   -7.9677468    489.11888  0.016919845  0.016685194            8 
 2410000   0.87056351   -7.9681881    489.85514  0.016938283  0.016679013            5 
 2411000   0.85982082   -7.9829738    487.92793  0.016864646  0.016672816            7 
 2412000   0.86426264   -7.9928623    489.90327  0.016925901  0.016666596            8 
 2413000   0.87044184   -7.9598079    488.82982  0.016881815  0.016660407            5 
 2414000   0.86424887   -7.9633083    489.01657  0.016881268  0.016654182            6 
 2415000   0.86204826   -7.9675113    489.86242  0.016903465  0.016648016           13 
 2416000   0.83732068   -7.9838628      490.043  0.016902697  0.016641857            8 
 2417000   0.86498857   -7.9734437     488.7146  0.016849904  0.016635696            8 
 2418000   0.88023262   -7.9843255    489.84965  0.016882053  0.016629492           11 
 2419000   0.87118214   -7.9530065     489.3289  0.016857134    0.0166233            9 
 2420000   0.85725675   -7.9762035    488.94595  0.016836982  0.016617113            5 
 2421000   0.83050322   -7.9795689    488.58095  0.016817463  0.016610885            7 
 2422000   0.86365787   -7.9591302    488.65583  0.016813096  0.016604699            4 
 2423000   0.86003413   -7.9828706    488.85455  0.016812992   0.01659855            3 
 2424000   0.86845456   -8.0064107     489.0445  0.016812586  0.016592392            5 
 2425000   0.87041204   -7.9890118    489.35173  0.016816211  0.016586199            5 
 2426000   0.85558301   -7.9588921    489.37176  0.016809967  0.016579996            4 
 2427000    0.8729459   -7.9835314    487.89257  0.016752252  0.016573794           16 
 2428000   0.86285882    -7.988079    489.87982  0.016813558  0.016567616            8 
 2429000   0.87494661    -8.013915    488.94038  0.016774406  0.016561405            9 
 2430000    0.8759707   -7.9991259    489.06882  0.016771907  0.016555194            9 
 2431000   0.86386943   -7.9796875    489.71068  0.016787011  0.016549004           15 
 2432000   0.86470258   -7.9447821    490.65515  0.016812471  0.016542854           10 
 2433000   0.88058552   -7.9530551    490.93711  0.016815218  0.016536736           11 
 2434000   0.86326173   -7.9857236    490.11546  0.016780179  0.016530598            6 
 2435000   0.86000972   -7.9761444    490.87177  0.016799171  0.016524491            6 
 2436000   0.85206991   -8.0064072    489.11416  0.016732148  0.016518386            7 
 2437000   0.85868596   -7.9751019    490.82324  0.016783725  0.016512222           12 
 2438000   0.85210192   -7.9694131    490.29127  0.016758657  0.016506102            6 
 2439000   0.85838976   -7.9884624    491.46477  0.016791881  0.016500007           14 
 2440000   0.86294576   -7.9553465    490.81966  0.016762967  0.016493921            7 
 2441000   0.86459333   -7.9571254    490.63055  0.016749643  0.016487816            9 
 2442000   0.87601039   -7.9651988    491.53089  0.016773508  0.016481732            7 
 2443000   0.84735425   -7.9847808    491.33736  0.016760041  0.016475644           29 
 2444000   0.86400872    -8.008142    490.82385  0.016735674  0.016469547           19 
 2445000   0.86516289   -7.9664852    490.11054  0.016704517  0.016463456            9 
 2446000   0.86019814   -7.9652437    491.42179  0.016742361  0.016457379            4 
 2447000   0.86403007   -7.9823138    492.31015  0.016765773  0.016451315           18 
 2448000   0.85958333   -7.9836166    490.51779  0.016697909  0.016445288           12 
 2449000    0.8402982   -7.9880833    491.35246  0.016719493  0.016439242           10 
 2450000   0.86678521    -7.979607    491.65631  0.016723004  0.016433195           23 
 2451000   0.87166045   -7.9907785    491.03401  0.016695023  0.016427131           13 
 2452000   0.85526906   -7.9882738    490.68698   0.01667642  0.016421034            7 
 2453000   0.84501904   -7.9779099    490.51682  0.016663841  0.016414971           28 
 2454000   0.86323832   -8.0254719    490.47652  0.016655682  0.016408914            9 
 2455000    0.8623714   -8.0114664    490.53242  0.016650795  0.016402833           17 
 2456000   0.84987123   -7.9829579    491.95152  0.016692166  0.016396738            8 
 2457000   0.85840138   -8.0110966    491.24224  0.016661316  0.016390666           11 
 2458000   0.86760196   -7.9999699    492.62529  0.016701427  0.016384627           11 
 2459000   0.84809961   -7.9941663     489.8051  0.016599061  0.016378576           25 
 2460000   0.86965177     -8.01242    492.38592   0.01667974  0.016372531           27 
 2461000   0.86367392   -8.0164066    490.69659  0.016615759  0.016366477            6 
 2462000   0.89018648   -8.0129542    491.15561  0.016624547  0.016360396           15 
 2463000   0.84842627   -8.0131461    490.90602  0.016609352  0.016354281           23 
 2464000   0.87150228   -8.0468744    490.58523  0.016591762  0.016348205           21 
 2465000     0.854027   -8.0004755    491.10117  0.016602474  0.016342121           29 
 2466000   0.84636686   -8.0018465    491.29449  0.016602274  0.016336023            9 
 2467000   0.86858007   -8.0114265    491.72563  0.016610108  0.016329943            6 
 2468000   0.84574883   -8.0470717    490.98229  0.016578278  0.016323845            5 
 2469000   0.86506695   -7.9945635    491.51085  0.016589404  0.016317763           15 
 2470000   0.83723846   -8.0101953    491.45497  0.016580802  0.016311671            6 
 2471000   0.85720985   -8.0299302    491.34821  0.016570491  0.016305575            6 
 2472000   0.84909501   -8.0294589     490.5218  0.016535929  0.016299475            4 
 2473000   0.85010879   -8.0274214    491.49459  0.016562023  0.016293373            9 
 2474000   0.87007779   -8.0068705    492.01454  0.016572842  0.016287286           19 
 2475000   0.84546183   -7.9976897    491.69147  0.016555268   0.01628121           23 
 2476000    0.8634466   -8.0090795    491.93532  0.016556789  0.016275142           17 
 2477000   0.85480315   -8.0090145     492.6411  0.016573849  0.016269118           13 
 2478000   0.85728106   -8.0184572    491.52009  0.016529462   0.01626307           10 
 2479000   0.87262194   -8.0178595    491.87408  0.016534694  0.016257011            8 
 2480000   0.86595988   -8.0269317    491.86023  0.016527562  0.016250955           12 
 2481000   0.84935571      -7.9985    491.92666  0.016523131  0.016244892            6 
 2482000   0.85452861   -8.0348895    491.56221  0.016504238  0.016238815           12 
 2483000   0.82623422   -8.0382506    491.08694   0.01648164   0.01623275           10 
 2484000   0.85880009   -8.0248375    491.65798  0.016494162  0.016226685           12 
 2485000   0.83885686   -8.0014263    493.13123  0.016536929  0.016220618           18 
 2486000   0.84729464   -8.0470325    491.40182  0.016472306  0.016214562            7 
 2487000   0.85055245   -8.0328802    492.20618  0.016492634  0.016208533            7 
 2488000   0.85128035   -8.0260575    493.74388  0.016537509  0.016202485            8 
 2489000   0.84793935   -8.0229211    490.38316  0.016418346  0.016196452            7 
 2490000   0.86354907   -8.0521851    491.62606  0.016453349   0.01619039            6 
 2491000   0.84241424   -7.9992263    491.50973  0.016442852  0.016184315            7 
 2492000   0.84052653   -8.0501292    490.70587  0.016409372  0.016178286            5 
 2493000   0.86584042   -7.9776542    493.10354  0.016482937  0.016172245            7 
 2494000   0.84548768   -8.0080878     492.6437  0.016460963  0.016166259            9 
 2495000   0.86067299   -7.9771075    492.81486  0.016460082  0.016160287            9 
 2496000   0.84115015   -8.0145104    492.81143  0.016453373  0.016154289           10 
 2497000   0.84539673   -7.9992115    493.10324  0.016456523  0.016148286            9 
 2498000   0.85756893   -8.0456387     492.0241  0.016413935  0.016142297            7 
 2499000   0.83644729   -8.0246811    492.73069  0.016430929   0.01613629           12 
 2500000   0.85235158   -8.0088385    491.88664  0.016396221  0.016130262            7 
 2501000   0.84491709   -8.0372856     491.9641  0.016392246  0.016124238            7 
 2502000   0.84261451   -8.0642925    492.62988   0.01640787  0.016118233            5 
 2503000   0.83206733   -8.0390636    491.58453  0.016366511  0.016112232           14 
 2504000   0.84767232   -8.0250925    492.74909  0.016398732  0.016106206           11 
 2505000   0.86652559   -7.9973475    493.22865  0.016408139  0.016100225            7 
 2506000   0.85180752   -8.0371719    493.09191  0.016397044  0.016094265            8 
 2507000    0.8302806   -8.0114906    494.99998  0.016453928   0.01608829           10 
 2508000   0.83352858   -8.0155054    494.21269  0.016421208  0.016082331           11 
 2509000    0.8494279   -8.0236023    493.73086   0.01639866  0.016076386           14 
 2510000   0.83680901   -8.0319031      492.585  0.016354084  0.016070414           18 
 2511000   0.85796946   -8.0241023    494.77201  0.016420152  0.016064452           13 
 2512000   0.85172179   -8.0121634    493.98572  0.016387531  0.016058494            3 
 2513000   0.84951721   -7.9880365    494.24355  0.016389559  0.016052565           14 
 2514000   0.86961412   -8.0460359    493.25978   0.01635043    0.0160466           10 
 2515000   0.82953521   -8.0682671     493.0009  0.016335351  0.016040612            6 
 2516000   0.85274848   -8.0120053    493.03027  0.016329831  0.016034594            9 
 2517000   0.85411122   -8.0359822    493.04316   0.01632377  0.016028573           10 
 2518000   0.86036438   -8.0498244    493.72728  0.016339929  0.016022569           15 
 2519000   0.86171269   -8.0651886    492.27201  0.016285299  0.016016527            7 
 2520000   0.83102382   -8.0192697    493.49376  0.016319238  0.016010498           15 
 2521000   0.83762517   -8.0543968    492.91942   0.01629378  0.016004497           11 
 2522000    0.8500722   -8.0763079    492.56811  0.016275711  0.015998507            9 
 2523000   0.85092064   -8.0548167    493.77831  0.016309232  0.015992503           13 
 2524000   0.85053528   -8.0707273    491.54375  0.016228993  0.015986492           14 
 2525000   0.82474308   -8.0542688    493.46178  0.016285867  0.015980452           16 
 2526000   0.84244338   -8.0568349    493.01218  0.016264587  0.015974449           14 
 2527000   0.86683079   -8.0591103    492.19089  0.016231067  0.015968463            7 
 2528000   0.85507581   -8.0549446    493.69302  0.016274163  0.015962461           19 
 2529000   0.87283893   -8.0487771    492.85555  0.016240133  0.015956426           20 
 2530000     0.859622   -8.0731407    493.08016  0.016241112  0.015950374           21 
 2531000   0.85581727   -8.0789566    491.77979   0.01619188  0.015944325           22 
 2532000   0.84928937   -8.0824218    492.94129  0.016223713  0.015938281           23 
 2533000   0.83648389   -8.0611996    492.74692  0.016210913  0.015932285           15 
 2534000   0.82874578   -8.0461109    492.90058  0.016209569  0.015926294           18 
 2535000   0.83238959   -8.0579688    492.73454  0.016197717    0.0159203           10 
 2536000   0.82733975   -8.0357351    494.77097  0.016258247  0.015914325           27 
 2537000   0.82650215   -8.0865897    493.09521  0.016196795  0.015908318           16 
 2538000   0.84912676   -8.0614043    494.31203  0.016230366  0.015902283           28 
 2539000   0.85404845   -8.0826186     492.6232  0.016168544  0.015896265            9 
 2540000    0.8369652   -8.0712755    493.73998  0.016198818  0.015890264           46 
 2541000   0.83748367   -8.0558875    493.89781  0.016197619  0.015884286           33 
 2542000   0.83485954   -8.0272053    494.57311  0.016213385  0.015878355           15 
 2543000   0.84849121   -8.0731082    493.80548  0.016181855  0.015872411           30 
 2544000   0.84619475   -8.0497611    494.30469  0.016191846  0.015866476           13 
 2545000   0.84125258   -8.0904822    493.63911  0.016163691  0.015860537            9 
 2546000   0.85164889   -8.0784677    493.51864  0.016153399  0.015854584           20 
 2547000   0.85137821   -8.0665996    494.31135  0.016172993  0.015848621           14 
 2548000   0.84632948   -8.0665386    494.06036  0.016158437  0.015842668           14 
 2549000   0.84692521   -8.0774518    494.56491  0.016168593  0.015836731           16 
 2550000   0.83717542   -8.0758127    494.51467   0.01616061  0.015830809           17 
 2551000   0.83024967   -8.0574269    494.06151  0.016139472  0.015824887           35 
 2552000   0.84963679   -8.0533157    495.39226  0.016176602  0.015818936           22 
 2553000   0.82966422   -8.1115538    493.54824  0.016110074  0.015812981           15 
 2554000    0.8540625   -8.0748369    493.33331  0.016096754  0.015807041            8 
 2555000   0.85680266   -8.0765279    494.75811  0.016136925  0.015801102           13 
 2556000   0.86249869   -8.0484467    494.08225  0.016108576  0.015795192            5 
 2557000   0.82040867   -8.0409189      494.232  0.016107157  0.015789278           15 
 2558000   0.83043699   -8.0441944    495.20808  0.016132658  0.015783404           24 
 2559000   0.85218108   -8.0554851    494.65273  0.016108269  0.015777509           35 
 2560000   0.84587269   -8.0481991    495.01064  0.016113628  0.015771611           34 
 2561000    0.8497572   -8.0375139    495.69892  0.016129732  0.015765711           32 
 2562000   0.83069658   -8.0511085    495.44181  0.016115073  0.015759815            8 
 2563000   0.83238545   -8.0206816    496.28312   0.01613614  0.015753919            9 
 2564000    0.8540024   -8.0441309    495.04491  0.016089603  0.015748057           12 
 2565000   0.83564582   -8.0679146    493.71944  0.016040268  0.015742163            9 
 2566000   0.83892878   -8.0355744    496.16864  0.016113557   0.01573628           20 
 2567000   0.83852736   -8.0331755    495.94223   0.01609993  0.015730413           13 
 2568000   0.84664137   -8.0504396    495.20791  0.016069831  0.015724547           16 
 2569000   0.82685849   -8.0389886    495.03957  0.016058115   0.01571867           19 
 2570000    0.8513463   -8.0501677    495.63174  0.016071068   0.01571281           29 
 2571000   0.85457823    -8.063134    496.24697  0.016084758  0.015706944           13 
 2572000   0.84170714   -8.0651261    495.55109  0.016055958  0.015701072           45 
 2573000   0.85718637   -8.0501012    495.92687  0.016061888  0.015695214           42 
 2574000    0.8323478   -8.0489201    496.17655  0.016063732  0.015689372           16 
 2575000   0.83959449    -8.055074    495.86075  0.016047273  0.015683537           14 
 2576000   0.82953136   -8.0235871    497.53216  0.016095114   0.01567772           30 
 2577000   0.86239961   -8.0915109    495.26519   0.01601556  0.015671896           18 
 2578000   0.83736246   -8.0452297    495.93943  0.016031143  0.015666075           53 
 2579000   0.84661225   -8.0986289     495.3029  0.016004359  0.015660251           54 
 2580000   0.84441462   -8.0740407    495.18486  0.015994343  0.015654413           51 
 2581000   0.84591715   -8.0769861    496.25641  0.016022743  0.015648582           63 
 2582000   0.85543871   -8.0927489    495.06775  0.015978174  0.015642767           46 
 2583000   0.83593478   -8.0616043     496.3376  0.016012957  0.015636932           50 
 2584000   0.81076489    -8.090259    495.89306  0.015992423  0.015631069           47 
 2585000   0.85261856   -8.0491495    495.77595  0.015982461  0.015625193           45 
 2586000   0.84291936   -8.0757738     495.6066  0.015970824  0.015619332           61 
 2587000   0.84695266   -8.1097557    495.31686  0.015955317  0.015613467           82 
 2588000   0.83753373   -8.0808303      494.981  0.015938337  0.015607564           80 
 2589000   0.84857227    -8.087129    495.06402  0.015934853  0.015601689           93 
 2590000   0.83536604   -8.1283692    495.67954  0.015948505  0.015595818           47 
 2591000   0.84672834   -8.0666271    494.95335  0.015918994  0.015589937           47 
 2592000   0.82743351   -8.0979772    495.61175   0.01593402  0.015584066           57 
 2593000   0.83460288    -8.099556    495.13478  0.015912546  0.015578188           49 
 2594000   0.82456753   -8.0828789    495.56646  0.015920279  0.015572307           46 
 2595000   0.83455046    -8.081909    495.73378  0.015919518  0.015566476           40 
 2596000   0.82667124   -8.0633962    496.34218  0.015932915  0.015560689           44 
 2597000   0.82845258   -8.0790043    495.87108  0.015911664  0.015554882           22 
 2598000   0.83808833   -8.0674689    496.03516  0.015910802  0.015549067           33 
 2599000   0.83858513   -8.0971267    495.23159  0.015878915  0.015543249           49 
 2600000   0.84936734   -8.0538114    496.29983  0.015907046  0.015537415           58 
 2601000   0.84302463   -8.0789508    496.21555   0.01589823  0.015531608           49 
 2602000    0.8161269   -8.0731823    495.78669  0.015878385  0.015525788           60 
 2603000   0.84401214   -8.0855737    496.93454  0.015909032  0.015519991           25 
 2604000   0.83195059   -8.0957378    497.10478  0.015908371  0.015514205           33 
 2605000     0.833278   -8.0492763    496.84058  0.015893813  0.015508464           44 
 2606000   0.84857272   -8.0476529    497.80757  0.015918636  0.015502747           11 
 2607000   0.82955653   -8.0557529    498.75186  0.015942714  0.015497005           20 
 2608000   0.84605634   -8.0495978    498.51554   0.01592905  0.015491278           50 
 2609000   0.81192482   -8.0943343     497.6499  0.015895295  0.015485541           16 
 2610000   0.82984508   -8.0280103    497.44207  0.015882569  0.015479784           36 
 2611000   0.83518224   -8.1174486    495.79105  0.015823792  0.015473995           51 
 2612000    0.8329479   -8.1056596     496.1382  0.015828809  0.015468175           31 
 2613000   0.85468678    -8.105898    496.99641  0.015850121  0.015462395           12 
 2614000   0.84586924   -8.1053769     496.7874  0.015837395  0.015456606           14 
 2615000   0.82303013   -8.0956694    497.19612  0.015844363  0.015450805           27 
 2616000   0.83979596   -8.0741074    496.13028  0.015804354  0.015444981           23 
 2617000   0.84686114   -8.0799189    496.74346   0.01581784  0.015439169           26 
 2618000   0.83803631   -8.1141736    495.24443  0.015764083  0.015433367           25 
 2619000   0.83123062   -8.0670883    497.52464  0.015830617  0.015427552           15 
 2620000   0.82953266   -8.1142268    495.93371  0.015773973  0.015421762           18 
 2621000   0.82996321   -8.1243781    496.35194  0.015781252  0.015415995           27 
 2622000   0.82104891   -8.1052184    496.92076  0.015793312  0.015410198           12 
 2623000   0.83295017   -8.0910616    496.19069  0.015764096  0.015404431            7 
 2624000    0.8368052   -8.1241188    496.33407  0.015762642  0.015398638           13 
 2625000   0.85139573   -8.0929175    496.45777  0.015760564   0.01539285           24 
 2626000   0.81686215   -8.0992927    497.43874  0.015785693  0.015387068           28 
 2627000   0.84070971   -8.0844587    497.23532   0.01577323  0.015381294           27 
 2628000   0.81738753   -8.0999425    495.78449  0.015721223  0.015375543           13 
 2629000   0.84030984   -8.1180679    496.91768  0.015751163   0.01536978           16 
 2630000   0.82007586   -8.0935138    496.35307  0.015727284  0.015364007           24 
 2631000    0.8383508   -8.1301247    496.81449  0.015735921  0.015358233           13 
 2632000   0.82238667   -8.1265913    496.15074  0.015708927  0.015352446           15 
 2633000   0.81561044    -8.124651    496.74786  0.015721859  0.015346683           25 
 2634000   0.82501007     -8.06432    497.71829  0.015746592  0.015340927           20 
 2635000   0.81864224   -8.0941804    497.13512  0.015722173  0.015335201           15 
 2636000   0.82372534   -8.0616722    496.79499  0.015705456  0.015329474           21 
 2637000   0.81071352   -8.1097569    497.78837  0.015730893  0.015323737           43 
 2638000   0.83588284   -8.1356301     496.1745  0.015673948  0.015317974           52 
 2639000   0.81837484   -8.1435458    496.65465  0.015683171  0.015312191           57 
 2640000   0.82949795   -8.1001172    497.98825  0.015719326  0.015306424           34 
 2641000    0.8257691   -8.0963112    496.90846  0.015679303  0.015300656           43 
 2642000    0.8205782   -8.1253368    497.91611  0.015705151  0.015294883           30 
 2643000   0.84525682   -8.1135339    497.94178  0.015700018  0.015289145           38 
 2644000   0.81478551    -8.083314     497.5539  0.015681855  0.015283413           47 
 2645000   0.82377067   -8.1285958    497.19488  0.015664615  0.015277686           53 
 2646000   0.83333598   -8.1052316    497.93026  0.015681855  0.015271975           46 
 2647000   0.82835008   -8.1093787    498.49893  0.015693834  0.015266243           41 
 2648000   0.81461042   -8.0957087    497.86203  0.015667864  0.015260511           48 
 2649000   0.82561013   -8.1250071    495.99845  0.015603323  0.015254812           61 
 2650000   0.83859379   -8.1014649    498.28514  0.015669344  0.015249084           59 
 2651000   0.82535276   -8.1022374    497.63889  0.015643119  0.015243344           48 
 2652000   0.80671163   -8.0911189    497.95379  0.015647115  0.015237618           52 
 2653000   0.83473273   -8.1094319     498.1042  0.015645942  0.015231883           69 
 2654000   0.81377339   -8.1265875    497.37959  0.015617294  0.015226171           61 
 2655000    0.8241813   -8.1148755    496.82573  0.015594028  0.015220447           65 
 2656000   0.81414882    -8.112019    497.49264  0.015609081  0.015214735           82 
 2657000   0.82249376   -8.1092693    497.74328  0.015611068  0.015208998           65 
 2658000   0.83247353   -8.1294158    497.18092  0.015587563  0.015203274           76 
 2659000   0.83353711   -8.1498955    497.07619  0.015578419  0.015197531           61 
 2660000   0.82779026   -8.1067446    498.26711  0.015609872  0.015191821           67 
 2661000   0.82428432   -8.1504609    497.33906  0.015574942   0.01518609           55 
 2662000   0.82445004   -8.1357664    497.60418  0.015577391  0.015180336           64 
 2663000   0.81014139   -8.1380674      497.822  0.015578358  0.015174623           61 
 2664000   0.82473583   -8.1443193     497.4716  0.015561549   0.01516891           59 
 2665000   0.83579525   -8.1147476    499.46763  0.015618125  0.015163212           48 
 2666000   0.82607876   -8.1314018    497.76703  0.015559109  0.015157521           68 
 2667000   0.82143015   -8.1415134    497.97225  0.015559688  0.015151793           64 
 2668000   0.83879107   -8.1543919    496.54646  0.015509322  0.015146027           83 
 2669000   0.84239696   -8.1336603    498.48455  0.015564024  0.015140273           49 
 2670000   0.84244195   -8.1431454    497.48658  0.015527047  0.015134532           59 
 2671000   0.82329598   -8.1729785    495.85321  0.015470274  0.015128794           71 
 2672000   0.82360314   -8.1689781    497.12008  0.015503995  0.015123078           97 
 2673000   0.82374283   -8.1384659     496.9135  0.015491754  0.015117334           64 
 2674000   0.81792995    -8.172672    496.82778  0.015483289  0.015111617           64 
 2675000   0.83887185    -8.166633    497.92914  0.015511811  0.015105869           93 
 2676000   0.84113867   -8.1290907     498.2508  0.015516031  0.015100146           66 
 2677000   0.82412479    -8.145128    497.70404  0.015493215  0.015094426           73 
 2678000    0.8159819   -8.1308982    497.64219  0.015485505  0.015088704           80 
 2679000   0.83899345   -8.1320906    498.13664  0.015495105  0.015082992           86 
 2680000   0.83319813   -8.1759381    496.17228  0.015428243  0.015077264           72 
 2681000   0.84096094   -8.1269286    497.07492  0.015450545  0.015071539           56 
 2682000   0.83536572    -8.144709    498.29299  0.015482631  0.015065846           50 
 2683000   0.81498942   -8.1265648    497.42624  0.015449939  0.015060147           24 
 2684000   0.81973862   -8.1755245    498.18424  0.015467717   0.01505445           57 
 2685000   0.81867342   -8.1321471    499.41275  0.015500085   0.01504878           48 
 2686000   0.81487059   -8.1079975    498.77195  0.015474434   0.01504311           55 
 2687000   0.82827916   -8.1548277    497.70189  0.015435489  0.015037421           33 
 2688000   0.82121302    -8.149113    499.76671   0.01549376  0.015031713           36 
 2689000   0.83000116   -8.1548072    497.45411  0.015416329  0.015026023           35 
 2690000   0.83230413   -8.1073269    498.48048  0.015442394  0.015020377           44 
 2691000   0.80471186   -8.1415809    499.53104  0.015469189  0.015014736           54 
 2692000   0.83134924   -8.1335251       499.33  0.015457219  0.015009082           58 
 2693000   0.81285256    -8.165903     498.3411  0.015420878  0.015003439           67 
 2694000   0.82214224   -8.1500934    498.19388    0.0154106  0.014997764           65 
 2695000   0.81637186   -8.1327573    498.83536  0.015424718  0.014992114           50 
 2696000      0.81455   -8.1568134    498.06817  0.015395282   0.01498644           70 
 2697000   0.81213367   -8.1237795    498.80151  0.015412233  0.014980784           41 
 2698000   0.83091082   -8.1443555    498.24562  0.015389351  0.014975133           69 
 2699000    0.8184241   -8.1181195    500.27469  0.015446298  0.014969501           40 
 2700000   0.80278351   -8.1321908    498.74089  0.015393237  0.014963895           83 
 2701000   0.81441955   -8.1543358    498.83592   0.01539047  0.014958256           62 
 2702000    0.8303812   -8.1517496    498.10938  0.015362367  0.014952585           64 
 2703000   0.82359954   -8.2029702    497.48535  0.015337445  0.014946895           79 
 2704000   0.83465741   -8.1748947    497.73121   0.01533935  0.014941223          106 
 2705000   0.81021875   -8.1485627    498.24252  0.015349431  0.014935547           94 
 2706000   0.80627417   -8.1363715     498.7522  0.015359454  0.014929871          111 
 2707000   0.81219588   -8.1571959    497.52438  0.015315983  0.014924201          113 
 2708000   0.81141966   -8.1726835    497.95341  0.015323529  0.014918516          140 
 2709000   0.80746598   -8.1823127    498.39766  0.015331539  0.014912836          149 
 2710000   0.80997797   -8.1616149     497.7733  0.015306682  0.014907133          139 
 2711000   0.82039854   -8.1864572    497.57906  0.015295065   0.01490142          159 
 2712000   0.81410371   -8.1906384    497.57702  0.015289363  0.014895697          154 
 2713000   0.80875399   -8.1545631    497.73312  0.015288522  0.014889993          188 
 2714000   0.82390278   -8.1497893    499.09558  0.015324723  0.014884305          211 
 2715000   0.81833262   -8.1634043    497.44367  0.015268375  0.014878622          204 
 2716000   0.81232485   -8.2066291     497.7034  0.015270723  0.014872911          219 
 2717000   0.81882586   -8.1785059     497.6861  0.015264572  0.014867208          213 
 2718000   0.81620209   -8.1947446    499.40007  0.015311506  0.014861495          212 
 2719000   0.82533545   -8.1822429     497.4438  0.015245918  0.014855785          253 
 2720000   0.81484646   -8.1871263    498.45967  0.015271436  0.014850066          206 
 2721000   0.82421825   -8.2075529     497.3068  0.015230516  0.014844332          208 
 2722000   0.81167722   -8.2224383    496.27031  0.015193188  0.014838604          200 
 2723000   0.82242662   -8.1897345    498.41208  0.015253155  0.014832846          231 
 2724000   0.82746616   -8.2121419      497.367  0.015215584  0.014827117          276 
 2725000   0.80943062   -8.2047348    497.53461  0.015215126  0.014821383          235 
 2726000   0.81773371   -8.2081769    496.69197  0.015183785  0.014815645          408 
 2727000   0.81962928   -8.2437585    497.50739  0.015203135   0.01480993          279 
 2728000   0.80840118   -8.2133548    497.49096   0.01519706  0.014804181          468 
 2729000   0.81742859   -8.2513593    497.95823   0.01520576  0.014798448          450 
 2730000   0.81290967   -8.2398507    497.17518  0.015176288  0.014792712          271 
 2731000   0.80767135   -8.2203995    497.41904  0.015178172   0.01478698          243 
 2732000   0.81561209   -8.2360666    495.48036  0.015113481  0.014781237          222 
 2733000    0.8063702   -8.2191679    497.59312  0.015172372  0.014775495          248 
 2734000   0.83635597   -8.2162596    496.38305  0.015129939  0.014769757          510 
 2735000   0.81852387   -8.2221085    495.93844  0.015110861  0.014764002          503 
 2736000   0.80770537   -8.2466655    496.67185  0.015127676  0.014758235          530 
 2737000   0.81830449   -8.2407547    497.16241  0.015137085  0.014752448          517 
 2738000    0.8218999    -8.230233    496.49138  0.015111133  0.014746689          554 
 2739000   0.80808505    -8.255112    497.11281  0.015124523  0.014740918          560 
 2740000   0.80484489   -8.2609409    495.15703   0.01505952  0.014735148          606 
 2741000   0.81409358   -8.2353675    496.42866  0.015092687  0.014729397          306 
 2742000    0.8231313   -8.2628731    495.77599  0.015067347  0.014723653          585 
 2743000    0.8296308   -8.2432846    496.92536  0.015096773  0.014717864          596 
 2744000    0.8063365   -8.2497149    496.55216  0.015079937  0.014712108          659 
 2745000   0.81880161   -8.2298913    496.73182  0.015079897  0.014706331          652 
 2746000   0.82188277   -8.2353622    496.51565  0.015067846  0.014700556          330 
 2747000   0.82518079   -8.2539123    496.54641  0.015063294  0.014694787          652 
 2748000   0.82102474   -8.2893195     495.8177  0.015035714  0.014689001          691 
 2749000   0.80865693   -8.2826944     496.1731  0.015041018  0.014683198          787 
 2750000   0.82119887   -8.2833332    496.56273  0.015047355  0.014677407          770 
 2751000   0.79926704   -8.2752332    496.41328  0.015037358  0.014671606          693 
 2752000   0.81794522   -8.3075878    495.47543  0.015003495  0.014665787          803 
 2753000   0.78998031   -8.2985139    494.72592  0.014975358  0.014659962          765 
 2754000   0.81790636   -8.3024716    495.15955  0.014983041  0.014654132          843 
 2755000   0.82155174    -8.281146    496.40236  0.015015195  0.014648313          779 
 2756000   0.79128244   -8.2955485    496.01564  0.014998054  0.014642493          861 
 2757000   0.80026419    -8.297058    496.55298  0.015008856  0.014636653          843 
 2758000   0.79637238   -8.3151643    494.41133  0.014938703  0.014630802          922 
 2759000    0.8268506   -8.3505235     494.8995  0.014948034   0.01462495         1021 
 2760000   0.81227197   -8.3372154    494.45117  0.014929081  0.014619092          999 
 2761000   0.80643052   -8.3497083    494.01733   0.01491058  0.014613191         1022 
 2762000   0.79688122   -8.3295684    494.73758  0.014926912  0.014607282         1050 
 2763000   0.78979473    -8.370167    493.88062  0.014895664  0.014601361         1092 
 2764000   0.80237573   -8.3662472    493.73251  0.014885809  0.014595434         1153 
 2765000   0.79951442   -8.3599703    493.98417   0.01488801   0.01458952         1036 
 2766000    0.8204573   -8.3718279    493.85291  0.014878673  0.014583583         1067 
 2767000   0.82076241   -8.3905178    493.48766  0.014862296  0.014577636         1218 
 2768000   0.79717643   -8.3827839    493.74247  0.014864597  0.014571704         1027 
 2769000   0.80158314   -8.3720443    493.89805  0.014863912  0.014565762         1254 
 2770000   0.80187849   -8.3634172    493.78699  0.014855204  0.014559817         1236 
 2771000   0.81180613   -8.3676262    493.65046  0.014845737  0.014553867         1295 
 2772000    0.8042634   -8.3717739    493.47051  0.014834972  0.014547918         1311 
 2773000   0.81843802   -8.4042972    493.73077  0.014837444  0.014541958         1189 
 2774000   0.81235165    -8.397203    493.40409  0.014822281  0.014535988         1412 
 2775000   0.80802143   -8.4201533    492.69633  0.014795686  0.014530002         1334 
 2776000   0.82077475   -8.4067959    492.46768  0.014783492  0.014524017         1448 
 2777000   0.79611896   -8.4406301    493.01608  0.014794625  0.014518015         1560 
 2778000   0.82014047   -8.4199524    493.20283  0.014794901  0.014511998         1568 
 2779000   0.80597746   -8.4280327    492.28582  0.014762079  0.014505981         1552 
 2780000   0.81483109   -8.4418054    492.34223   0.01475846   0.01449994         1536 
 2781000   0.80943645   -8.4424939    490.67034  0.014703055  0.014493914         1596 
 2782000   0.80953854   -8.4192518    492.43605   0.01475066  0.014487899         1438 
 2783000    0.8192293   -8.4109211    492.58841  0.014749922  0.014481865         1458 
 2784000   0.81130889   -8.4635482     491.1182  0.014700617  0.014475835         1738 
 2785000     0.804367   -8.4681279    490.97581  0.014691077  0.014469795         1627 
 2786000   0.82003498   -8.4377568    491.52204  0.014702143  0.014463765         1744 
 2787000   0.80085912   -8.4629363    491.48705  0.014695821  0.014457728         1789 
 2788000   0.77945662   -8.4510145    491.85809  0.014701641  0.014451683         1734 
 2789000   0.80679068   -8.4811687    490.70694  0.014661974   0.01444564         1699 
 2790000   0.79624012   -8.4879934    490.70634  0.014656701  0.014439585         1838 
 2791000   0.81522987   -8.4881867    491.14748  0.014664621  0.014433507         1837 
 2792000   0.79775907   -8.4687956    491.01478  0.014655408  0.014427443         1891 
 2793000   0.80097421   -8.4907573    490.38301  0.014631311  0.014421364         1876 
 2794000   0.81485397    -8.488519    490.11162   0.01461798  0.014415289         1874 
 2795000   0.81089872   -8.4799849    490.00775  0.014609653  0.014409216         1844 
 2796000   0.80844497   -8.4912029    490.52698  0.014619903  0.014403139         1900 
 2797000   0.80620907   -8.5129869    489.88877  0.014595661  0.014397045         1931 
 2798000   0.80294158   -8.5023106    491.22525  0.014630249  0.014390945         1923 
 2799000   0.79939646   -8.4993555    489.53236  0.014574621  0.014384826         1849 
 2800000   0.82509684   -8.5243964    489.62806  0.014572264  0.014378693         1986 
 2801000   0.81064095   -8.5189218     490.0487  0.014579576  0.014372561         1960 
 2802000   0.79244951   -8.5200795    488.56185  0.014530153   0.01436644         2024 
 2803000   0.81253558   -8.5023681    490.69991  0.014588534   0.01436033         2126 
 2804000   0.80867368   -8.5176095    489.66659  0.014552621  0.014354221         2024 
 2805000    0.7830725   -8.5446508     489.4863  0.014542077  0.014348093         2170 
 2806000    0.7936805   -8.5276993    489.61092  0.014540595  0.014341985         2059 
 2807000   0.79203774   -8.5575669    488.79083  0.014511069  0.014335853         2205 
 2808000   0.80268725   -8.5313037    489.62748   0.01453073  0.014329716         2243 
 2809000   0.82721901   -8.5923241    488.44252  0.014490403  0.014323556         2259 
 2810000   0.78403159   -8.5820803    489.22121   0.01450834  0.014317388         2218 
 2811000   0.79824876    -8.549159    489.80834  0.014520584  0.014311242         2228 
 2812000   0.83052335   -8.5390209    489.39741  0.014503242  0.014305083         2235 
 2813000   0.79015433    -8.581069    488.50055  0.014471518  0.014298912         2350 
 2814000   0.79876152   -8.5671983    489.03108  0.014482086   0.01429276         2307 
 2815000   0.79456081   -8.5789028    488.60357  0.014464286  0.014286591         2375 
 2816000    0.8089175   -8.5865519    487.65729  0.014431146  0.014280417         2363 
 2817000   0.79875352   -8.6049365    488.05186  0.014437696  0.014274245         2417 
 2818000   0.79461313   -8.6042715    487.48851  0.014415913  0.014268083         2342 
 2819000   0.79762467   -8.6012136    487.62845  0.014414936  0.014261918         2371 
 2820000   0.80355422   -8.5957268     489.4175  0.014462692  0.014255749         2356 
 2821000   0.80511064   -8.5850489    487.90705  0.014412946  0.014249578         2445 
 2822000   0.79790138   -8.6088086    488.22044  0.014417093  0.014243409         2441 
 2823000   0.79783907   -8.6293516    487.63918  0.014394828  0.014237233         2507 
 2824000   0.79223544   -8.6028986     488.0825  0.014402812  0.014231056         2354 
 2825000    0.7946442   -8.6073101    487.48787  0.014380173   0.01422486         2412 
 2826000   0.81799631   -8.6072555    488.31232  0.014399396  0.014218669         2462 
 2827000   0.80533702    -8.625717    486.92884  0.014353521  0.014212495         2512 
 2828000    0.7911317   -8.5935227    487.37187    0.0143615  0.014206306         2517 
 2829000   0.79582701   -8.6328002    487.15667  0.014350085  0.014200111         2610 
 2830000   0.81564016   -8.6111731    487.34855  0.014350664  0.014193919         2524 
 2831000   0.79580919   -8.6174999    487.28449  0.014343709  0.014187717         2564 
 2832000   0.79365394   -8.6242302    487.92022  0.014357351  0.014181509         2576 
 2833000   0.79340843   -8.6437328    488.35406  0.014365045  0.014175318         2546 
 2834000   0.80618743   -8.6551749    487.02744  0.014320967  0.014169124         2631 
 2835000   0.79286455   -8.6395775    488.18348  0.014349897  0.014162913         2649 
 2836000   0.77649093   -8.6506072    488.70992  0.014360305  0.014156713         2600 
 2837000   0.80390314   -8.6463077    486.85447  0.014300742  0.014150493         2594 
 2838000   0.80127019    -8.669593    487.34061  0.014309978  0.014144292         2659 
 2839000   0.80178513    -8.619139    487.25842  0.014302525  0.014138086         2781 
 2840000   0.82161149   -8.6487268    486.79141  0.014283786  0.014131882         2812 
 2841000   0.80519429   -8.6623023    487.12095  0.014288424  0.014125666         2697 
 2842000   0.77922342   -8.6564441    486.27532  0.014258601  0.014119441         2756 
 2843000   0.81254118   -8.6575137    486.47823  0.014259533  0.014113219         2752 
 2844000   0.79053726    -8.669926     487.2839  0.014278126   0.01410701         2777 
 2845000   0.78581035   -8.6598563    486.56521  0.014252057  0.014100799         2698 
 2846000   0.78699509   -8.6394222     486.2632  0.014238206  0.014094579         2699 
 2847000   0.78813178   -8.6840712    486.07642  0.014227737  0.014088359         2745 
 2848000   0.78528697   -8.6641885    486.41722  0.014232714   0.01408213         2849 
 2849000   0.79211016   -8.6944802    486.76552  0.014237906  0.014075907         2834 
 2850000   0.80449904    -8.710811    485.54776  0.014197303  0.014069672         2931 
 2851000   0.78933268   -8.7019948    485.96801  0.014204607  0.014063415         2907 
 2852000   0.79931602   -8.7289411    485.38963  0.014182726   0.01405716         2893 
 2853000    0.8051819    -8.697928    485.85163   0.01419125  0.014050888         2917 
 2854000   0.80572922   -8.7247714    485.79981  0.014184764  0.014044623         2868 
 2855000   0.78429452   -8.7047281    485.99255  0.014185422   0.01403836         2863 
 2856000   0.77521875   -8.7074218    484.58064  0.014139258  0.014032108         2929 
 2857000   0.79482807   -8.7182479    485.08246  0.014148946  0.014025857         2878 
 2858000    0.7858837   -8.7501432    484.98717  0.014141217  0.014019598         2935 
 2859000   0.79431786   -8.7388668    484.82135  0.014131437  0.014013343         2984 
 2860000   0.79420437    -8.717198    485.85872  0.014156723  0.014007095         2891 
 2861000   0.80289542   -8.7205907    485.61991  0.014144819  0.014000834         2924 
 2862000   0.80976147   -8.7293169    484.49627  0.014107159  0.013994568         3034 
 2863000   0.79583075    -8.752095    484.82251  0.014111728  0.013988298         3102 
 2864000   0.79929168   -8.7220453      484.449  0.014095932  0.013982017         3038 
 2865000   0.79066599   -8.7225743    485.17133  0.014112022  0.013975746         3053 
 2866000   0.78376027    -8.750419    485.25978   0.01410967   0.01396948         3054 
 2867000    0.8001803   -8.7590116    485.02175   0.01409783  0.013963203         3079 
 2868000   0.79352062   -8.7438859    485.24718  0.014099465  0.013956922         3127 
 2869000   0.80855428   -8.7389337    484.51398  0.014073254  0.013950629         3131 
 2870000   0.81198074   -8.7395109     484.4255  0.014065781  0.013944336         3108 
 2871000   0.78258921   -8.8091685    483.61877  0.014037466  0.013938047         3134 
 2872000   0.80605786   -8.7709306    484.29634  0.014052238  0.013931747         3110 
 2873000    0.7861668   -8.7752812    484.38168  0.014049822  0.013925458         3139 
 2874000   0.78336605   -8.7538149    484.45513  0.014047063  0.013919171         3072 
 2875000   0.79042348   -8.7641351      483.258  0.014007478  0.013912875         3133 
 2876000   0.79342332   -8.7820954     483.2317  0.014001846  0.013906573         3212 
 2877000   0.78333668   -8.7808545    483.16732  0.013995114  0.013900282         3165 
 2878000    0.8016253   -8.7638867    484.46501  0.014027826  0.013894003         3180 
 2879000   0.79115658    -8.796967    483.99847   0.01400945  0.013887718         3195 
 2880000   0.78426842   -8.8012826    484.61423  0.014022403  0.013881427         3225 
 2881000   0.76555302   -8.7833645    484.02997  0.014000635  0.013875133         3253 
 2882000   0.78522385   -8.7755913    483.75019  0.013987688  0.013868837         3155 
 2883000   0.79399526   -8.7813282    484.72403  0.014010985  0.013862543         3178 
 2884000   0.78341314   -8.7952498    482.70644  0.013947828  0.013856244         3253 
 2885000   0.79926583   -8.8045276    483.91318   0.01397785  0.013849953         3214 
 2886000    0.7985408   -8.8086061    483.36949  0.013957308  0.013843649         3212 
 2887000   0.79632956   -8.7953521     483.9484  0.013969184  0.013837345         3192 
 2888000   0.78952586    -8.790108    483.69847  0.013957135  0.013831045         3249 
 2889000   0.78298822   -8.8312736    483.14202  0.013936253  0.013824735         3237 
 2890000    0.7792505   -8.8211488    484.46302  0.013969522  0.013818441         3253 
 2891000   0.77952175    -8.806559    483.40806  0.013934281  0.013812142         3247 
 2892000   0.78955543   -8.7958149    482.09151  0.013891526  0.013805835         3229 
 2893000   0.78718752    -8.833985    482.43454  0.013896605  0.013799529         3204 
 2894000    0.7838699   -8.8133934    482.88318  0.013904722  0.013793223         3195 
 2895000   0.77133683   -8.8476802    483.02003  0.013903858  0.013786924         3266 
 2896000   0.78745685   -8.8266715    482.86507  0.013894598  0.013780622         3314 
 2897000   0.77297571   -8.8203303    482.19349  0.013870484  0.013774316         3266 
 2898000   0.76950848   -8.8346892     483.6146  0.013906562   0.01376801         3293 
 2899000   0.80129874   -8.8208839    482.57758  0.013871955  0.013761696         3312 
 2900000   0.79234204   -8.8419685    483.69798  0.013899367  0.013755382         3284 
 2901000    0.7872313    -8.834172    482.29468  0.013854265  0.013749082         3292 
 2902000   0.79060203    -8.842771    481.74443   0.01383369  0.013742769         3315 
 2903000   0.77624767   -8.8443208    481.91317  0.013833769  0.013736474         3332 
 2904000   0.78931635    -8.844547    482.21498  0.013837666  0.013730175         3379 
 2905000   0.78217741   -8.8295418    482.21659  0.013832949  0.013723893         3343 
 2906000     0.784635   -8.8622612    481.57542  0.013809802    0.0137176         3387 
 2907000   0.78544132   -8.8539935    481.80914  0.013811752  0.013711303         3362 
 2908000   0.78237607   -8.8636123    482.40094  0.013823961  0.013705009         3395 
 2909000   0.78380292   -8.8474756    482.92813  0.013834311  0.013698721         3343 
 2910000   0.76708367   -8.8444099    481.40825  0.013786032   0.01369244         3388 
 2911000   0.76232941    -8.845028    481.51945   0.01378448  0.013686153         3364 
 2912000    0.7931368   -8.8624774    481.74216   0.01378612  0.013679854         3329 
 2913000   0.77642298   -8.8368291    482.65199  0.013807415   0.01367355         3390 
 2914000   0.79334439   -8.8662706    481.91123  0.013781492  0.013667243         3395 
 2915000   0.76928268   -8.8635179    481.31413  0.013759695  0.013660938         3315 
 2916000    0.7798371   -8.8657888    481.77893  0.013768259  0.013654632         3387 
 2917000   0.79021333   -8.8731238    481.73502  0.013762285  0.013648344         3369 
 2918000   0.79528543   -8.8663605    482.42887  0.013777384  0.013642051         3395 
 2919000   0.79429615   -8.8648826    481.84261  0.013755927  0.013635753         3406 
 2920000     0.778102   -8.8855268    480.65755  0.013717396  0.013629466         3385 
 2921000   0.76840027   -8.8617992    481.24271  0.013729394  0.013623174         3404 
 2922000   0.79133315   -8.8914236    482.18367  0.013751531   0.01361689         3395 
 2923000   0.77652455   -8.8913414      482.702  0.013761603  0.013610611         3350 
 2924000   0.80139011   -8.8841611    482.46167  0.013750048  0.013604338         3395 
 2925000   0.78752097   -8.8592392    481.41795  0.013715611   0.01359807         3383 
 2926000   0.79033944    -8.869197    481.38446   0.01370997  0.013591807         3417 
 2927000   0.79119629   -8.8484393    482.35167  0.013732823  0.013585541         3364 
 2928000   0.77697295   -8.8736292    481.64159  0.013707923  0.013579284         3383 
 2929000   0.77117988   -8.8621769      482.246  0.013720439  0.013573021         3441 
 2930000   0.78554302   -8.8611847    483.02849  0.013738012  0.013566775         3383 
 2931000   0.78468816   -8.8851359    481.36766  0.013686104  0.013560525         3391 
 2932000   0.77499169   -8.8496715    482.22289  0.013705744  0.013554273         3348 
 2933000   0.77624428   -8.8829856    481.28457  0.013674411   0.01354802         3413 
 2934000   0.79035577    -8.862803    482.65221  0.013708595  0.013541781         3391 
 2935000   0.80226545   -8.8527772    482.68984  0.013704993   0.01353554         3373 
 2936000   0.78010544    -8.877333    481.38213  0.013663208  0.013529303         3397 
 2937000   0.77477998   -8.8823084    481.84439  0.013671672  0.013523063         3359 
 2938000   0.78504296   -8.8691948    482.64775  0.013689804  0.013516819         3403 
 2939000   0.76780704   -8.8801621    481.37687  0.013649112  0.013510579         3380 
 2940000   0.78045066   -8.8902835    481.53398  0.013648922  0.013504347         3399 
 2941000   0.78902853   -8.8685171    482.08903  0.013660009  0.013498116         3335 
 2942000   0.77726824   -8.8559552    481.64145  0.013642688   0.01349188         3373 
 2943000   0.78193034   -8.8923355    481.67185  0.013638913  0.013485646         3387 
 2944000   0.77635959   -8.9009993    481.91283  0.013641101  0.013479418         3461 
 2945000   0.78905268   -8.8925454    481.37042  0.013621121  0.013473195         3412 
 2946000   0.77048518   -8.8928152    480.75345  0.013599045  0.013466981         3420 
 2947000   0.77219588   -8.8640384     481.3063  0.013610064  0.013460762         3481 
 2948000   0.77043585   -8.8758888     482.1824  0.013630213  0.013454546         3435 
 2949000   0.77521033   -8.8768977    481.90366  0.013617714  0.013448337         3426 
 2950000   0.79834409   -8.9097197    481.02285  0.013588216  0.013442118         3432 
 2951000   0.77149588   -8.8300386    482.01278  0.013611566  0.013435911         3435 
 2952000   0.76444107    -8.905582    481.74206  0.013599313  0.013429708         3398 
 2953000   0.79108821   -8.8817511    481.70319  0.013593611  0.013423503         3419 
 2954000   0.78333563   -8.8915903    481.47046  0.013582443  0.013417305         3392 
 2955000   0.76526198   -8.8836384    481.01424  0.013564981  0.013411104         3394 
 2956000   0.75982642   -8.9075122    480.85309  0.013555849  0.013404902         3434 
 2957000   0.76721338   -8.9065374    480.74323  0.013548169  0.013398694         3469 
 2958000   0.77180444   -8.8787971    482.38028  0.013589708  0.013392498         3394 
 2959000   0.77716079   -8.8960972    482.01254  0.013574759  0.013386316         3447 
 2960000   0.78496282    -8.878964     482.0197  0.013570374  0.013380135         3387 
 2961000   0.78493035   -8.8894082     481.6827  0.013556307   0.01337395         3381 
 2962000   0.75722906   -8.8804329     482.0446  0.013561912  0.013367771         3381 
 2963000   0.79366326   -8.9050885    481.03958  0.013529069  0.013361581         3469 
 2964000   0.75623413    -8.914485     480.9145  0.013520988  0.013355411         3453 
 2965000   0.79309606   -8.8941694    482.05078  0.013548364   0.01334924         3440 
 2966000   0.78467111   -8.9151154    481.29614  0.013522593  0.013343071         3362 
 2967000   0.79268098   -8.9034404    480.90079  0.013506932  0.013336905         3419 
 2968000   0.76971936   -8.8941394    481.46812   0.01351831  0.013330748         3418 
 2969000   0.77701714   -8.8966824    481.50249  0.013514721  0.013324595         3429 
 2970000    0.7832234   -8.8828836    481.55619  0.013511678   0.01331843         3463 
 2971000   0.79272355    -8.901907    481.09765  0.013494268  0.013312255         3477 
 2972000   0.77286194   -8.8938032    480.71141  0.013478898  0.013306083         3414 
 2973000   0.76600531   -8.9250475    481.53303  0.013497394  0.013299917         3474 
 2974000   0.78442557   -8.8945714    480.95573  0.013476679  0.013293757         3480 
 2975000   0.75638071   -8.8930858    481.24352  0.013480211  0.013287597         3440 
 2976000   0.76590801   -8.9105047    481.31185  0.013477594  0.013281446         3456 
 2977000    0.7669558    -8.895512    480.40431  0.013447663  0.013275291         3487 
 2978000    0.7748871    -8.909767    481.34427   0.01346945  0.013269137         3467 
 2979000   0.77681015   -8.8969259     480.9578  0.013454118  0.013262988         3469 
 2980000    0.7759135   -8.9369947    480.29486  0.013431064  0.013256844         3461 
 2981000   0.77480981   -8.8935976    481.33246  0.013455565  0.013250702         3496 
 2982000   0.78549134   -8.9077861    480.28924  0.013421899  0.013244555         3492 
 2983000   0.77376198   -8.8770849    482.55889  0.013480805  0.013238418         3458 
 2984000   0.74667023    -8.921405    481.35409  0.013442641  0.013232287         3469 
 2985000   0.76921164   -8.9150753    480.52244   0.01341492  0.013226163         3479 
 2986000   0.78705703   -8.9079547    481.92861  0.013449671  0.013220051         3489 
 2987000   0.77645038   -8.9076702    480.93145  0.013417349  0.013213928         3522 
 2988000     0.770827   -8.9327234    480.89579  0.013411864  0.013207803         3487 
 2989000   0.76923522   -8.9223313     481.2386  0.013416934  0.013201669         3534 
 2990000   0.77114631   -8.8929346    481.69771  0.013425243  0.013195544         3482 
 2991000   0.74982276   -8.9196151    480.40492  0.013384735  0.013189419         3500 
 2992000   0.78920519    -8.932996    480.56184  0.013384632  0.013183292         3522 
 2993000   0.77844222   -8.9074423    481.32732  0.013401473  0.013177177         3566 
 2994000   0.77846057   -8.9006492    481.41282  0.013399377  0.013171052         3603 
 2995000   0.78044207   -8.9268392    480.75463   0.01337659  0.013164929         3615 
 2996000   0.78517856   -8.9238238    479.99429  0.013350976  0.013158799         3630 
 2997000   0.79198633   -8.9376201    480.64074  0.013364496  0.013152671         3651 
 2998000    0.7757282   -8.9347773    480.07642  0.013344352  0.013146536         3696 
 2999000   0.77085357   -8.9385517    480.08082  0.013340025  0.013140401         3711 
 3000000   0.76140719   -8.9293252    480.36788  0.013343552  0.013134284         3643 
 3001000   0.76773007   -8.9246804    480.68784  0.013347991  0.013128163         3621 
 3002000   0.76459565   -8.9432654    479.93736  0.013322711  0.013122048         3711 
 3003000   0.77405378   -8.9319857    479.09773  0.013294975  0.013115927         3692 
 3004000   0.76294028   -8.9627579    479.85862  0.013311657  0.013109799         3707 
 3005000   0.75988516   -8.9326883    480.48795   0.01332468  0.013103677         3764 
 3006000   0.77774657    -8.958948    480.53133   0.01332145  0.013097546         3790 
 3007000   0.75907749   -8.9835827    479.32529  0.013283596  0.013091415         3793 
 3008000   0.78670558   -8.9459273    480.25063  0.013304816   0.01308529         3752 
 3009000   0.76127619   -8.9428194    479.23632  0.013272303   0.01307917         3771 
 3010000   0.75996917   -8.9887437    478.69508  0.013252909  0.013073044         3781 
 3011000   0.75965314   -8.9883137    479.54169  0.013271939  0.013066913         3815 
 3012000   0.78757812   -8.9831551    479.82006  0.013275234  0.013060783         3789 
 3013000   0.77053978   -8.9521372    478.36456  0.013230572  0.013054656         3799 
 3014000   0.77715395   -8.9638081    479.63606  0.013261338  0.013048528         3806 
 3015000    0.7552243   -8.9797747    478.90918  0.013236848  0.013042401         3833 
 3016000   0.78315646    -8.969149    478.69174  0.013226452   0.01303628         3803 
 3017000   0.77269134    -8.955718       479.04  0.013231687  0.013030165         3829 
 3018000   0.77940704   -8.9859666    479.12344  0.013229607  0.013024049         3841 
 3019000   0.77417097   -8.9753681    478.01872  0.013194731  0.013017942         3867 
 3020000    0.7693661   -8.9998317    478.22836  0.013196147  0.013011825         3828 
 3021000   0.76043337   -8.9753676    479.63933    0.0132307  0.013005713         3830 
 3022000   0.79216503   -8.9685579    479.75628  0.013229547  0.012999608         3841 
 3023000   0.76979808   -8.9680358    478.77198  0.013198037  0.012993497         3857 
 3024000   0.78480535   -9.0013888    478.90717  0.013197398  0.012987388         3848 
 3025000   0.76673359   -8.9683014    479.24497  0.013202341  0.012981279         3861 
 3026000   0.75191046   -8.9830211    479.04735  0.013192536  0.012975171         3827 
 3027000   0.77829673   -9.0013793    478.72072  0.013179185  0.012969072         3833 
 3028000   0.77909679   -8.9797864    477.59767  0.013143925  0.012962969         3818 
 3029000   0.77423111   -8.9753664     477.8687  0.013147043  0.012956875         3811 
 3030000   0.76631688   -8.9607418    478.34989  0.013155938  0.012950785         3805 
 3031000     0.783171   -8.9839756    478.15364  0.013146201  0.012944695         3841 
 3032000    0.7700541   -8.9838908     479.0532   0.01316659  0.012938608         3888 
 3033000   0.76802674    -8.992028    477.80506  0.013127955  0.012932521         3804 
 3034000   0.75883262    -8.980284    479.36095  0.013166363  0.012926429         3805 
 3035000     0.761593   -8.9937042    477.66249  0.013115389  0.012920338         3834 
 3036000   0.77969914    -9.019256    478.49412  0.013133897  0.012914254         3831 
 3037000    0.7531453    -8.979709    479.41924  0.013154957  0.012908173         3826 
 3038000   0.76254742   -8.9765863    478.64634  0.013129426  0.012902093         3842 
 3039000   0.76390416   -8.9678926    479.57561  0.013150587  0.012896029         3853 
 3040000   0.75817115    -9.005493    477.91569  0.013100759  0.012889956         3855 
 3041000    0.7533437    -8.978742    479.18354  0.013131194  0.012883882         3829 
 3042000   0.77103712   -9.0068458    478.45048  0.013106796  0.012877807         3859 
 3043000   0.78149212   -9.0197605    477.82227  0.013085285  0.012871747         3860 
 3044000    0.7752891   -9.0164417    477.73268  0.013078534  0.012865686         3847 
 3045000   0.76670464   -8.9982965    478.53239  0.013096125  0.012859629         3855 
 3046000   0.78082844    -9.010265    478.46557  0.013089997  0.012853576         3837 
 3047000   0.74947629    -8.996962    478.75638  0.013093654  0.012847534         3859 
 3048000   0.75916692   -8.9971129    478.21471  0.013074549  0.012841484         3876 
 3049000   0.76023446   -9.0082103    478.06272  0.013066107  0.012835444         3846 
 3050000   0.75316257   -9.0055586     477.6622   0.01305088  0.012829396         3864 
 3051000    0.7639696   -9.0121007    478.15712   0.01306012  0.012823356         3847 
 3052000   0.78247562   -9.0093281    478.08162  0.013053779  0.012817307         3845 
 3053000   0.76778402   -8.9943382    478.66706  0.013065484  0.012811269         3817 
 3054000   0.75997009   -9.0154956    477.64691  0.013033369  0.012805233         3875 
 3055000   0.78086607   -9.0290739    477.45739  0.013023933  0.012799196         3863 
 3056000   0.76614373   -9.0186048    479.27449  0.013069221  0.012793172         3853 
 3057000   0.74928176   -9.0315195    477.80887  0.013024994  0.012787137         3867 
 3058000   0.75442572   -9.0093428    478.14626  0.013029928  0.012781111         3845 
 3059000   0.74746071   -9.0165459    477.47002  0.013007247  0.012775087         3863 
 3060000   0.75110289   -8.9966288    479.22157  0.013050696  0.012769066         3844 
 3061000   0.76119057   -8.9986129     478.9271  0.013038416  0.012763054         3844 
 3062000   0.74690466    -9.025467    477.10308  0.012984517  0.012757038         3833 
 3063000   0.75149542   -9.0264466    477.51915  0.012991597  0.012751032         3853 
 3064000   0.75347626   -9.0250798    477.39168   0.01298389   0.01274503         3860 
 3065000   0.76524762   -9.0162817    477.39047  0.012979621   0.01273903         3847 
 3066000    0.7585218   -9.0050032    478.27303  0.012999376  0.012733031         3820 
 3067000   0.75968492   -9.0230882    477.35385  0.012970162  0.012727032         3834 
 3068000   0.75655928   -8.9954267    478.03321  0.012984388  0.012721033         3841 
 3069000    0.7650382   -8.9945564    477.99313  0.012979068  0.012715039         3878 
 3070000   0.76297544   -9.0308537    478.83712   0.01299775  0.012709045         3829 
 3071000   0.76044088   -9.0050679    477.64077  0.012961054  0.012703059         3882 
 3072000   0.75096803   -9.0366941    477.81186  0.012961476  0.012697065         3837 
 3073000   0.75474169   -9.0419002    478.25308  0.012969223  0.012691078         3885 
 3074000   0.76391828   -9.0212685    477.51927  0.012945111    0.0126851         3876 
 3075000   0.76085095   -9.0187522      477.568  0.012942222  0.012679116         3849 
 3076000   0.76505387   -9.0078863    477.50976  0.012936437  0.012673133         3868 
 3077000    0.7515869   -9.0182911    477.29406  0.012926391  0.012667152         3881 
 3078000   0.74617869   -9.0419533    476.70482  0.012906238  0.012661177         3851 
 3079000   0.74389935   -9.0378637    478.03532  0.012938057  0.012655207         3856 
 3080000   0.76201661   -9.0253045    476.96709  0.012904954  0.012649236         3867 
 3081000   0.75316957   -9.0229088    478.35512  0.012938308  0.012643274         3855 
 3082000   0.76528336   -9.0493022    477.59989  0.012913689  0.012637302         3863 
 3083000   0.76412036    -9.016293    477.05251  0.012894705  0.012631347         3869 
 3084000   0.77073565   -9.0302568    478.13525  0.012919781  0.012625388         3899 
 3085000   0.77055403   -9.0269945    477.87347  0.012908522  0.012619442         3859 
 3086000   0.74592185   -9.0356616    478.12064  0.012911013  0.012613495         3878 
 3087000   0.76099897   -9.0488756    476.68428  0.012868056  0.012607548         3897 
 3088000    0.7631397    -9.034797    477.04592  0.012873648  0.012601603         3890 
 3089000   0.75855957    -9.040952    478.04551  0.012896447  0.012595655         3885 
 3090000   0.77994171   -9.0362765    476.64303  0.012854451   0.01258971         3871 
 3091000   0.75407151   -9.0242981     477.2459  0.012866545  0.012583768         3871 
 3092000   0.76351532   -9.0247246    477.02945   0.01285655  0.012577834         3885 
 3093000   0.75236034   -9.0299848     477.4686  0.012864226  0.012571902         3873 
 3094000   0.74446483   -9.0534928     477.0595  0.012849049  0.012565971         3895 
 3095000   0.74747801   -9.0388644    476.99592  0.012843186  0.012560045         3884 
 3096000   0.77079399   -9.0358847    477.27136  0.012846451  0.012554123         3873 
 3097000   0.75391958   -9.0183024    478.33193  0.012870841  0.012548208         3912 
 3098000   0.75898548   -9.0509969    477.91549  0.012855485  0.012542285         3913 
 3099000   0.74252567   -9.0507092    477.65343  0.012844289  0.012536368         3874 
 3100000   0.73446332   -9.0212699    478.09198  0.012851935  0.012530453         3894 
 3101000   0.74559668   -9.0400203    477.55179  0.012833274  0.012524547         3896 
 3102000   0.74902745   -9.0295275    478.20223   0.01284661  0.012518639         3887 
 3103000    0.7621115   -9.0139662    477.49451  0.012823464  0.012512733         3879 
 3104000   0.74992091   -9.0549851     477.6977  0.012824788   0.01250683         3881 
 3105000   0.74285415   -9.0461408    477.21174  0.012807615  0.012500929         3874 
 3106000   0.76506247   -9.0395372    477.91637  0.012822397  0.012495041         3894 
 3107000   0.73736558   -9.0232075    478.00369  0.012820612  0.012489152         3886 
 3108000   0.74787946   -9.0216467    477.32546  0.012798302  0.012483263         3887 
 3109000   0.75390009   -9.0323556    477.05239  0.012786866  0.012477382         3882 
 3110000   0.74734366   -9.0266209    476.73961  0.012774373  0.012471507         3878 
 3111000   0.76614133   -9.0466023      476.547  0.012765108  0.012465624         3880 
 3112000   0.77942495   -9.0408362    478.81215  0.012821662  0.012459757         3844 
 3113000   0.74898452    -9.049679    477.43732   0.01278074  0.012453883         3891 
 3114000   0.74685632   -9.0707494    477.11758  0.012768079  0.012448015         3921 
 3115000   0.75117665   -9.0525837    477.60635  0.012777056  0.012442149         3895 
 3116000   0.74185779   -9.0733915    477.14152  0.012760524  0.012436284         3895 
 3117000   0.73856239   -9.0440267    476.74873  0.012745929  0.012430428         3882 
 3118000   0.74344217   -9.0326176    477.81017   0.01277021  0.012424574         3896 
 3119000   0.75603878      -9.0309    477.09106  0.012746902  0.012418722         3872 
 3120000   0.75506244   -9.0661153    476.63138  0.012730539  0.012412873         3880 
 3121000   0.77470981   -9.0693341    477.27151  0.012743552  0.012407027         3924 
 3122000   0.75096371   -9.0207293    478.35053  0.012768272  0.012401194         3877 
 3123000   0.75657375   -9.0506453    477.17713  0.012732873  0.012395351         3898 
 3124000   0.73919046   -9.0549428    476.93825  0.012722424  0.012389501         3889 
 3125000   0.75427457   -9.0638248    475.89647  0.012690573  0.012383659         3904 
 3126000    0.7535118   -9.0334546    477.21797  0.012721742  0.012377822         3906 
 3127000   0.73462093   -9.0393266     477.2878  0.012719534  0.012371995         3868 
 3128000   0.75312067   -9.0500062      476.965  0.012706868   0.01236617         3903 
 3129000   0.75499036   -9.0581415    476.74155  0.012696856  0.012360345         3899 
 3130000   0.75751945   -9.0349415    476.73135  0.012692528  0.012354522         3902 
 3131000   0.74631812   -9.0537674    477.90529  0.012719719  0.012348704         3878 
 3132000   0.74823472    -9.057469     477.1366  0.012695205  0.012342891         3904 
 3133000    0.7570845   -9.0560791    476.92891  0.012685629  0.012337081         3904 
 3134000   0.75215871   -9.0507992     477.0401  0.012684538  0.012331271         3906 
 3135000   0.73288822   -9.0610746    477.51542  0.012693126  0.012325463         3914 
 3136000   0.74668433   -9.0698355    476.93605  0.012673683  0.012319664         3889 
 3137000   0.75677667   -9.0350645    477.35642   0.01268081  0.012313865         3890 
 3138000    0.7471653   -9.0148896    478.20333   0.01269926  0.012308077         3910 
 3139000   0.73167828   -9.0515744    477.31029  0.012671506  0.012302286         3904 
 3140000   0.73534217   -9.0789019    476.10427  0.012635464  0.012296501         3923 
 3141000   0.75383234   -9.0659183    476.59658  0.012644502  0.012290715         3930 
 3142000   0.74075779   -9.0611647    477.07008  0.012653036  0.012284932         3900 
 3143000   0.76579974    -9.050013    477.34101  0.012656194  0.012279151         3913 
 3144000   0.75081153   -9.0450438    477.10056  0.012645795  0.012273372         3890 
 3145000   0.75665904   -9.0507457    477.25194  0.012645785  0.012267595         3907 
 3146000   0.75923276   -9.0569419    477.63269  0.012651851  0.012261824         3908 
 3147000   0.75263003    -9.061022    476.62259  0.012621083  0.012256062         3926 
 3148000   0.72973426   -9.0538551    476.96077  0.012626026  0.012250295         3878 
 3149000   0.75836676   -9.0703163     476.7509  0.012616463  0.012244529         3914 
 3150000   0.74200715   -9.0766295    475.33025  0.012574874  0.012238764         3889 
 3151000   0.74330796   -9.0452852    476.81252  0.012610085  0.012233005         3916 
 3152000   0.75297977   -9.0789535    476.57678  0.012599851  0.012227242         3926 
 3153000   0.74187574   -9.0500045    476.82189  0.012602333   0.01222149         3906 
 3154000   0.75930123   -9.0618237    476.17601  0.012581273  0.012215735         3876 
 3155000   0.74784724   -9.0882175    475.31919  0.012554654  0.012209989         3889 
 3156000   0.73714989   -9.0664332    477.28078  0.012602471   0.01220424         3913 
 3157000   0.75187885   -9.0637882    477.08294  0.012593257  0.012198497         3923 
 3158000   0.74843477   -9.0541585    476.73547    0.0125801  0.012192753         3909 
 3159000   0.74880325   -9.0663674     476.3334  0.012565511  0.012187013         3906 
 3160000   0.75850188   -9.0672063    476.46152  0.012564914  0.012181274         3895 
 3161000   0.75522274   -9.0875411     476.0068  0.012548951  0.012175539         3919 
 3162000   0.75725021   -9.0438976    477.22873  0.012577186  0.012169821         3900 
 3163000   0.74573177   -9.0528612    476.69803  0.012559227    0.0121641         3900 
 3164000   0.74852069   -9.0511589    476.46116  0.012549019  0.012158381         3911 
 3165000   0.74168251   -9.0597956    477.04597  0.012560452  0.012152667         3906 
 3166000   0.73601327   -9.0739441    476.30981  0.012537108  0.012146955         3914 
 3167000   0.72717319   -9.0595515    477.45568  0.012563301  0.012141248         3919 
 3168000   0.73430484   -9.0475317    476.13486  0.012524591  0.012135539         3912 
 3169000   0.77021751   -9.0804939    476.44974  0.012528919  0.012129832         3896 
 3170000   0.75136813   -9.0628844     476.6696  0.012530747  0.012124136         3901 
 3171000   0.73597715   -9.0514631    476.28273  0.012516628  0.012118444         3895 
 3172000   0.75323853   -9.0732258    477.16126  0.012535762  0.012112753         3909 
 3173000   0.74744123    -9.061509    477.04975  0.012528883  0.012107069         3892 
 3174000   0.74450112   -9.0639467    476.59752  0.012513062  0.012101387         3916 
 3175000   0.74249635   -9.0856069     475.9908  0.012493197  0.012095706         3901 
 3176000   0.74419928   -9.0552612    476.11553  0.012492536   0.01209003         3906 
 3177000    0.7467403   -9.0805338    475.86869  0.012482129   0.01208436         3912 
 3178000    0.7584303   -9.0550659    477.16838  0.012512282  0.012078692         3905 
 3179000   0.74826768    -9.058812    477.62228  0.012520244  0.012073024         3923 
 3180000   0.74268757   -9.0651846    477.03117  0.012500817  0.012067354         3910 
 3181000    0.7189444   -9.0818508    476.24732  0.012476352  0.012061686         3911 
 3182000   0.72278897    -9.063813    476.14898  0.012469856  0.012056022         3898 
 3183000   0.74639893   -9.0784822    476.93746  0.012486581  0.012050369         3896 
 3184000   0.75869685   -9.0948746    477.19748  0.012489465  0.012044719         3929 
 3185000   0.75581202   -9.0716801    477.10808  0.012483205   0.01203907         3917 
 3186000   0.74380211   -9.0714092     476.6152  0.012466395  0.012033422         3874 
 3187000    0.7398425   -9.0755398    477.29608  0.012480287  0.012027785         3904 
 3188000   0.73381225   -9.0823937     476.9425  0.012467129  0.012022144         3907 
 3189000   0.74495538   -9.0673787    476.65759  0.012455775  0.012016506         3918 
 3190000   0.74652393   -9.0466319    476.59829  0.012450321  0.012010866         3898 
 3191000    0.7455156   -9.0528467    476.50238  0.012443915  0.012005235         3894 
 3192000   0.75330758    -9.061561    478.12412  0.012482355  0.011999609         3912 
 3193000   0.74131258   -9.0700225    475.57228  0.012411846  0.011993981         3916 
 3194000   0.74939501   -9.0870052    476.29422  0.012426796  0.011988362         3908 
 3195000   0.74558009   -9.0718337    476.82073  0.012436639  0.011982744         3894 
 3196000   0.75006762   -9.0754618    475.89057  0.012408494  0.011977128         3909 
 3197000   0.73589305   -9.0803089     475.7154  0.012400047  0.011971512         3903 
 3198000   0.73007651   -9.0749221     476.3707  0.012413245  0.011965903         3915 
 3199000   0.72447189   -9.0543779    476.87878    0.0124226  0.011960296         3909 
 3200000   0.73184028   -9.0586911    476.30376  0.012403744  0.011954688         3914 
 3201000   0.73878971   -9.0882825    476.91275  0.012415723  0.011949084         3913 
 3202000   0.74916416   -9.0613488     475.8091  0.012383123  0.011943491         3891 
 3203000    0.7376377   -9.0812808    475.91447  0.012381998  0.011937893         3921 
 3204000    0.7367905   -9.0813415    475.91805  0.012378226  0.011932307         3915 
 3205000   0.73392075   -9.0656526    476.82808  0.012398026  0.011926722         3885 
 3206000   0.73879508   -9.0747586    476.64495  0.012389399  0.011921145         3902 
 3207000   0.73680848   -9.0806905    476.83676   0.01239052  0.011915564         3911 
 3208000   0.73977128   -9.0752443     476.4355  0.012376234  0.011909987         3941 
 3209000   0.73794209    -9.065165    476.13835  0.012364661  0.011904419         3901 
 3210000   0.74571835   -9.0833052    477.20266  0.012388439  0.011898853         3905 
 3211000   0.74962686   -9.0890594    475.89236  0.012350575  0.011893283         3884 
 3212000   0.72822528   -9.0770435    476.24229  0.012355809  0.011887717         3904 
 3213000   0.75401831   -9.0945042    476.29518  0.012353335  0.011882151         3886 
 3214000   0.73757843   -9.0957084    476.21945  0.012347528  0.011876591         3902 
 3215000   0.73832908   -9.0884143    476.12506  0.012341241  0.011871035         3928 
 3216000   0.73613816   -9.0855815    476.72781  0.012353022  0.011865481         3929 
 3217000   0.73153366   -9.0768007    475.41294  0.012315121  0.011859931         3907 
 3218000   0.73617891   -9.0780244    476.21598   0.01233209  0.011854381         3912 
 3219000   0.74799056   -9.0752613    475.89241  0.012319882  0.011848834         3926 
 3220000   0.74411298    -9.072211     475.6135  0.012308838  0.011843288         3919 
 3221000   0.73786747   -9.0792422    476.34447  0.012323928  0.011837745         3895 
 3222000   0.71546279   -9.0701848    476.49694  0.012324047  0.011832208         3907 
 3223000   0.73287616   -9.0999506     475.1712  0.012285945  0.011826681         3911 
 3224000   0.74557916   -9.0894155    476.70602  0.012321806   0.01182115         3898 
 3225000   0.73684696   -9.0876522    476.29375  0.012307332   0.01181562         3908 
 3226000     0.722618   -9.0715126    475.67728  0.012287592  0.011810091         3900 
 3227000   0.73834983   -9.0772182    476.98894  0.012317657  0.011804569         3880 
 3228000   0.73307104   -9.0751533     477.1876  0.012318969  0.011799052         3900 
 3229000   0.72939831   -9.0876151    475.06935  0.012260487  0.011793529         3907 
 3230000   0.73253324   -9.0864625    474.96028  0.012253877   0.01178801         3913 
 3231000   0.73020522   -9.0601704    476.75437  0.012296357  0.011782505         3912 
 3232000   0.76019179    -9.086387    475.78047  0.012267442  0.011776999         3896 
 3233000   0.73323768   -9.0965412    476.51436  0.012282564  0.011771493         3908 
 3234000   0.72946275   -9.0984658    476.60243  0.012281036  0.011765994         3896 
 3235000   0.74122439   -9.1138356    475.21216  0.012241426  0.011760495         3908 
 3236000   0.73839616   -9.0799124     476.1709  0.012262333  0.011754996         3912 
 3237000   0.71893666   -9.1028274    475.61735  0.012244294  0.011749503         3902 
 3238000   0.73507152     -9.08323    476.67683  0.012267779   0.01174401         3906 
 3239000   0.74290801   -9.0902574    476.07844  0.012248596  0.011738522         3917 
 3240000   0.73466135    -9.082461    476.36374  0.012252154  0.011733035         3892 
 3241000   0.73926258   -9.0596456    476.43092  0.012250101  0.011727554         3895 
 3242000   0.73029346   -9.0794513    476.64409  0.012251802  0.011722081         3913 
 3243000   0.72154663    -9.099814    476.16803  0.012235791  0.011716608         3912 
 3244000   0.74247015   -9.0999356    476.76088  0.012247248  0.011711141         3909 
 3245000   0.73342733   -9.0933424    476.26948  0.012230855  0.011705675         3921 
 3246000   0.73052213   -9.1167169    475.26317  0.012201252   0.01170021         3923 
 3247000   0.74094921   -9.0938498    475.17855  0.012195323  0.011694748         3915 
 3248000   0.71279185   -9.0807003    476.01801  0.012213106  0.011689291         3919 
 3249000   0.73088672   -9.0885373    475.87842  0.012205766  0.011683834         3920 
 3250000    0.7224363   -9.0985426    476.37578  0.012214764  0.011678382         3911 
 3251000   0.72545252   -9.0896318    476.22328  0.012207097  0.011672927         3913 
 3252000   0.74428807    -9.100318    474.69361  0.012164146  0.011667477         3917 
 3253000   0.72901266   -9.0914819    475.49407  0.012180912  0.011662028         3928 
 3254000   0.74153486   -9.0994181    474.80577  0.012159541  0.011656586         3924 
 3255000   0.72362255   -9.0822329    476.08287  0.012188501  0.011651139         3903 
 3256000   0.74475536   -9.0961167    476.26246  0.012189355  0.011645697         3905 
 3257000   0.72622863   -9.0920159    475.18532  0.012158052   0.01164027         3926 
 3258000   0.71898501   -9.0951994    475.48026  0.012161865  0.011634838         3912 
 3259000   0.73786044   -9.0767308    476.17763  0.012175965  0.011629409         3908 
 3260000   0.72782657   -9.0965122    475.62523  0.012158109  0.011623981         3926 
 3261000   0.72880691   -9.0991441    475.90052  0.012161416  0.011618556         3890 
 3262000   0.73492352   -9.0744816    476.00967  0.012160476  0.011613135         3936 
 3263000   0.72499402   -9.1105914    475.90135  0.012153983  0.011607722         3937 
 3264000    0.7204182   -9.0819436    476.43437  0.012163868  0.011602317         3909 
 3265000   0.73553839   -9.1189552    476.03552  0.012149962  0.011596912         3922 
 3266000   0.75861931   -9.0995752    475.32249  0.012128049  0.011591512         3929 
 3267000   0.72119514   -9.0899695     476.3042  0.012149378  0.011586113         3918 
 3268000   0.73805988   -9.0915006    476.81272  0.012158627  0.011580719         3923 
 3269000   0.72892297   -9.0900401    477.03205  0.012160499   0.01157533         3943 
 3270000   0.73059372   -9.0721287    477.12807  0.012159227  0.011569945         3929 
 3271000   0.71010698   -9.0873709    475.64736  0.012117786  0.011564559         3948 
 3272000    0.7253823   -9.0821571    475.78302  0.012117538  0.011559171         3945 
 3273000   0.72051607   -9.1143895    476.66912  0.012136397  0.011553789         3930 
 3274000   0.72604812    -9.064453    476.49523  0.012128264  0.011548409         3929 
 3275000   0.73156212   -9.0927268    475.45749  0.012098155  0.011543031         3946 
 3276000   0.75635364   -9.1013573    475.55309  0.012096894  0.011537658         3922 
 3277000    0.7257409   -9.0972976    475.24052  0.012085254   0.01153228         3919 
 3278000   0.73479973   -9.1095226    475.82865  0.012096518  0.011526911         3927 
 3279000   0.71927075   -9.1224668    475.46674  0.012083632   0.01152154         3924 
 3280000    0.7297007   -9.1242491    474.89726  0.012065479  0.011516175         3931 
 3281000   0.71893463   -9.1190436    476.34272  0.012098515  0.011510814         3913 
 3282000   0.73310062   -9.1194254    475.68029  0.012078009  0.011505456         3931 
 3283000    0.7463923   -9.0803096    476.10885  0.012085208  0.011500107         3931 
 3284000   0.71650765   -9.1184969     475.8112  0.012073975  0.011494755         3939 
 3285000   0.72352797   -9.0917872    476.59413   0.01209016  0.011489404         3925 
 3286000   0.71248797   -9.0967143    475.87282  0.012068189  0.011484054         3915 
 3287000   0.71863831   -9.1163028    475.34211  0.012051063  0.011478704         3932 
 3288000    0.7311078   -9.1294084    475.24626  0.012044968  0.011473358         3965 
 3289000   0.73720774   -9.1209928    475.35442  0.012044046  0.011468021         3946 
 3290000   0.73333419   -9.1120557    475.07119  0.012033211  0.011462679         3905 
 3291000   0.71494788   -9.0961747    476.11811  0.012056065  0.011457341         3922 
 3292000   0.72901035   -9.1128505    475.79017  0.012044101  0.011452009         3921 
 3293000   0.72235835   -9.1128037    474.82882  0.012016116   0.01144668         3910 
 3294000   0.71235436   -9.1103918    474.94128  0.012015313  0.011441356         3942 
 3295000   0.72574975   -9.1122742    474.84464  0.012009222  0.011436031         3933 
 3296000   0.72973992   -9.1178195    475.71112  0.012027486  0.011430714         3950 
 3297000   0.72710411   -9.1163553    476.73362  0.012049682  0.011425394         3936 
 3298000   0.71010619   -9.0889078    474.97947  0.012001705  0.011420079         3913 
 3299000   0.72055939   -9.1205601    475.33818  0.012007128  0.011414771         3934 
 3300000   0.73589544   -9.1062623    476.08898  0.012022449  0.011409468         3927 
 3301000   0.71643286   -9.0776322    475.80493  0.012011636  0.011404162         3938 
 3302000   0.73384087   -9.1335331    475.19476    0.0119926  0.011398859         3949 
 3303000   0.72592238   -9.0987497    476.24785  0.012015538   0.01139356         3928 
 3304000   0.73607212   -9.1337719     475.0203   0.01198094  0.011388268         3942 
 3305000   0.74050175   -9.1068161    474.97357  0.011976136  0.011382978         3939 
 3306000    0.7205653   -9.1371546     475.7051  0.011990953  0.011377686         3914 
 3307000   0.71006361   -9.1266842    474.73379  0.011962851  0.011372399         3918 
 3308000   0.71492281   -9.1143034    475.58905   0.01198078  0.011367116         3923 
 3309000   0.71203278    -9.115094    476.18628    0.0119922  0.011361838         3919 
 3310000    0.7241672   -9.1393027     474.7349  0.011952037  0.011356563         3917 
 3311000    0.7120417   -9.1105721    475.20503  0.011960259  0.011351284         3928 
 3312000   0.71356989   -9.1125873     475.2661  0.011958185  0.011346008         3930 
 3313000   0.72455328   -9.1117993    475.37249  0.011957252   0.01134074         3928 
 3314000   0.73364716   -9.1359357    475.44671   0.01195551  0.011335467         3963 
 3315000   0.71775786   -9.1182326     475.4669  0.011952411  0.011330198         3917 
 3316000   0.71596284   -9.1298235    475.51186  0.011949936  0.011324941         3949 
 3317000   0.73333927   -9.1277485    476.13283  0.011961934   0.01131968         3927 
 3318000   0.71503065   -9.1129356    475.56298  0.011944017  0.011314424         3934 
 3319000   0.73724663   -9.1093565    474.24067  0.011907218  0.011309168         3935 
 3320000   0.72199465   -9.1031918    474.78221  0.011917224  0.011303917         3929 
 3321000   0.71262563   -9.1208763     475.0345  0.011919966  0.011298668         3938 
 3322000   0.71020687   -9.1169383    474.69283  0.011907807  0.011293421         3937 
 3323000   0.70619944   -9.1140274    475.21116  0.011917222  0.011288184         3921 
 3324000   0.72043694   -9.1446309    474.45938   0.01189479  0.011282951         3953 
 3325000   0.72457823   -9.1092568    474.18179  0.011884255  0.011277727         3939 
 3326000   0.71312834   -9.1206912    475.40926  0.011911437  0.011272502         3923 
 3327000   0.70429153   -9.1257157    475.79403  0.011917494  0.011267273         3915 
 3328000   0.71615401   -9.1189376    475.12256  0.011897099  0.011262045         3923 
 3329000   0.74646933   -9.1411961    475.06566  0.011892101  0.011256823         3928 
 3330000   0.72293933    -9.111798    475.07481  0.011888759  0.011251599         3932 
 3331000   0.72559715   -9.1474009    474.62225  0.011873868  0.011246379         3945 
 3332000   0.70714001   -9.1334819    475.21726  0.011885186  0.011241166         3942 
 3333000    0.7052859   -9.1197482    475.57939  0.011890674  0.011235952         3930 
 3334000   0.72097696   -9.1309866    475.08152  0.011874663  0.011230743         3933 
 3335000   0.73145257   -9.1111671    475.06239  0.011870624  0.011225535         3931 
 3336000   0.70355574   -9.1391195    475.43744  0.011876435  0.011220332         3946 
 3337000   0.73442075   -9.1365994    475.33951   0.01187043  0.011215131         3903 
 3338000   0.71870378   -9.1338627    474.75985  0.011852403  0.011209933         3926 
 3339000   0.71724826   -9.1531148    474.26036  0.011836387  0.011204736         3922 
 3340000    0.7097477   -9.1262012    476.04902  0.011877471  0.011199545         3923 
 3341000   0.71636508   -9.1241188    475.45042  0.011858985  0.011194365         3919 
 3342000   0.70543067   -9.1204242    475.34463  0.011852798  0.011189177         3924 
 3343000   0.70943204   -9.1207488     475.8436  0.011861691  0.011183997         3933 
 3344000   0.70549311   -9.1201299    475.26348  0.011843687   0.01117882         3931 
 3345000   0.70079608   -9.1194751    475.14167  0.011837112  0.011173643         3921 
 3346000   0.70541003    -9.109406    476.09118  0.011857222  0.011168468         3919 
 3347000   0.71418783    -9.136756    475.52758  0.011839647  0.011163299         3930 
 3348000   0.71730593   -9.1234634    475.22841  0.011828664  0.011158132         3916 
 3349000   0.71231251   -9.1256559    474.83032  0.011815226  0.011152965         3913 
 3350000   0.71691772   -9.1465703    474.95901  0.011814901  0.011147808         3938 
 3351000   0.70404123   -9.1065281     475.2593  0.011818843  0.011142645         3921 
 3352000   0.71469592   -9.1444175    474.79593  0.011803797  0.011137486         3935 
 3353000   0.70828416   -9.1484223    475.07795  0.011807286   0.01113233         3915 
 3354000   0.70774814   -9.1314458    474.70488  0.011794496  0.011127187         3919 
 3355000   0.71951062   -9.1240784    475.68386  0.011815297  0.011122044         3931 
 3356000   0.71400369   -9.1552865    475.15526  0.011798651  0.011116903         3929 
 3357000   0.71665711   -9.1153635    475.57885  0.011805651  0.011111762         3919 
 3358000   0.71047627   -9.1173146    474.99814  0.011787724  0.011106623         3935 
 3359000   0.69720833   -9.1112992    475.39489  0.011794058  0.011101484         3910 
 3360000   0.70990948   -9.1422205    475.12714  0.011783907  0.011096354         3936 
 3361000   0.72197327   -9.1457991     474.4921  0.011764656  0.011091228         3921 
 3362000    0.7115816   -9.1256992    474.40445  0.011758984  0.011086101         3928 
 3363000   0.72211524   -9.1269545    474.04106  0.011746483  0.011080975         3940 
 3364000   0.69512187   -9.1316544    474.34956  0.011750633  0.011075854         3926 
 3365000   0.71635708   -9.1503438    474.38397  0.011747993  0.011070732         3933 
 3366000   0.73018006    -9.120124    475.48472  0.011771755  0.011065617         3935 
 3367000   0.72493616   -9.1163933    474.68325  0.011748422  0.011060505         3943 
 3368000   0.70686272   -9.1168777    474.18256  0.011732545  0.011055397         3920 
 3369000   0.72280785   -9.1131481    474.62059  0.011739898  0.011050293         3926 
 3370000   0.71098057   -9.1142802    474.70163  0.011738418  0.011045189         3914 
 3371000   0.71509433   -9.1374155      475.448  0.011753387  0.011040083         3924 
 3372000   0.71120769   -9.1210998    475.37041  0.011747984  0.011034988         3914 
 3373000   0.72664361   -9.1449418    474.53921  0.011723965  0.011029891         3924 
 3374000    0.7020001   -9.1239192    474.18156  0.011711657  0.011024801         3927 
 3375000   0.69136284   -9.1436688    474.25507  0.011710002  0.011019712         3900 
 3376000   0.70221584   -9.1328245    476.08629  0.011751735  0.011014621         3928 
 3377000   0.71326715   -9.1270243    475.33507  0.011729718  0.011009533         3936 
 3378000   0.71466195   -9.1068978    475.11128  0.011720724  0.011004451         3933 
 3379000   0.70980036   -9.1343068    475.02441  0.011715113   0.01099937         3935 
 3380000   0.71001324   -9.1468276    474.27163  0.011693088  0.010994288         3940 
 3381000   0.70848491   -9.1450526    475.30161  0.011715016   0.01098921         3945 
 3382000   0.69861442   -9.1352942    476.07243  0.011730545  0.010984134         3934 
 3383000   0.71668982   -9.1419688    474.13704  0.011679403  0.010979065         3950 
 3384000   0.71295883   -9.1434571     473.7313   0.01166596  0.010973994         3934 
 3385000   0.70080141   -9.1493746    474.55777   0.01168286   0.01096893         3948 
 3386000   0.71415388     -9.16586    473.90184  0.011663266  0.010963865         3945 
 3387000   0.71762747   -9.1471585    475.48895  0.011698872  0.010958803         3947 
 3388000    0.7182261   -9.1570601    474.65075  0.011674802  0.010953743         3932 
 3389000   0.71267172   -9.1167632    474.07372  0.011657168  0.010948694         3924 
 3390000   0.71180763   -9.1357734    475.01022  0.011676751  0.010943644         3933 
 3391000   0.72899108   -9.1270369    474.82138  0.011668667  0.010938597         3921 
 3392000   0.71314952   -9.1309074    474.01528  0.011645423  0.010933556         3944 
 3393000   0.69224597   -9.1240636    474.14502  0.011645177  0.010928509         3904 
 3394000   0.71526007   -9.1538903    475.39227   0.01167237  0.010923475         3943 
 3395000   0.70342097   -9.1623336    473.48124  0.011622024  0.010918439         3937 
 3396000      0.71357    -9.154344    475.16568  0.011659935   0.01091341         3934 
 3397000   0.73279019   -9.1334287    475.29257  0.011659616  0.010908388         3922 
 3398000   0.72754719   -9.1477946    474.69538  0.011641539  0.010903362         3934 
 3399000   0.70947712   -9.1352703    474.06098   0.01162256   0.01089834         3932 
 3400000   0.70500106    -9.134207    474.61094  0.011632621  0.010893315         3931 
 3401000    0.7010494    -9.161735    473.92112  0.011612298  0.010888298         3935 
 3402000   0.71738168   -9.1436057    474.38237  0.011620183  0.010883281         3929 
 3403000   0.70996876   -9.1328466    474.43701  0.011618107  0.010878268         3924 
 3404000   0.69932968    -9.149626    474.93453  0.011626874  0.010873257         3924 
 3405000   0.70424642   -9.1402468    474.91442  0.011622967  0.010868251         3932 
 3406000   0.71943369   -9.1578894    473.37543    0.0115819  0.010863246         3943 
 3407000   0.70234948   -9.1298466    475.08642  0.011620351  0.010858246         3906 
 3408000   0.70144768   -9.1202204    474.38809  0.011599865   0.01085325         3930 
 3409000   0.70836179   -9.1398942    474.25651  0.011593246  0.010848255         3924 
 3410000   0.71708397   -9.1489802     474.7001  0.011600687  0.010843262         3923 
 3411000   0.72731943   -9.1771706    474.29116  0.011587295  0.010838276         3942 
 3412000   0.71975987   -9.1497744    475.45192  0.011612249  0.010833298         3934 
 3413000   0.71793873   -9.1459058    474.97593  0.011597225  0.010828315         3922 
 3414000   0.68009455   -9.1643229    474.80893  0.011589751   0.01082334         3928 
 3415000   0.70616672   -9.1395653    474.60116  0.011581287  0.010818366         3925 
 3416000   0.71263667     -9.16902    474.93337  0.011586001   0.01081339         3931 
 3417000   0.70037958    -9.166062    474.16429  0.011563855  0.010808419         3927 
 3418000   0.70652953   -9.1434425    475.43702  0.011591501  0.010803453         3932 
 3419000   0.69654226   -9.1523443    474.30178  0.011560441   0.01079849         3922 
 3420000   0.71320874   -9.1550155    473.96216  0.011548786  0.010793525         3933 
 3421000    0.7070394   -9.1741155    474.35621  0.011555009   0.01078857         3940 
 3422000   0.70729208   -9.1459838    474.95012  0.011566095  0.010783615         3925 
 3423000   0.71173304   -9.1651397    473.62799  0.011530529  0.010778663         3938 
 3424000   0.69552419    -9.174531    474.24395  0.011542152  0.010773711         3944 
 3425000   0.69873929   -9.1692607    474.96585  0.011556347  0.010768762         3942 
 3426000   0.69830258   -9.1432847    474.41982  0.011539692  0.010763816         3947 
 3427000   0.69950783   -9.1583775    473.86779  0.011522901  0.010758874         3935 
 3428000   0.71244681   -9.1831331    473.64951  0.011514234  0.010753933         3950 
 3429000   0.71076342   -9.1554348    474.00939  0.011519622  0.010748994         3951 
 3430000   0.69299537   -9.1452767    474.54078  0.011529173  0.010744062         3938 
 3431000   0.69290986   -9.1694581    474.31198  0.011520256   0.01073913         3935 
 3432000   0.69609889   -9.1578832    473.52677  0.011497833  0.010734203         3937 
 3433000   0.69033473   -9.1590773     474.9223   0.01152836  0.010729279         3927 
 3434000   0.69609059     -9.15217    474.33749  0.011510811  0.010724359         3939 
 3435000   0.70528588   -9.1476573    474.12734  0.011502361   0.01071944         3938 
 3436000   0.70309926   -9.1644019    474.98743  0.011519874  0.010714523         3945 
 3437000   0.69719614   -9.1478656    474.45065  0.011503507  0.010709611         3942 
 3438000   0.69628855   -9.1788085    474.64795  0.011504944  0.010704698         3942 
 3439000   0.71724809    -9.162887     474.4924  0.011497829  0.010699791         3939 
 3440000   0.69202649   -9.1638547    474.30712  0.011489998  0.010694885         3943 
 3441000    0.7033378   -9.1374541    474.96575  0.011502609   0.01068998         3933 
 3442000   0.71853604    -9.170374    473.67351  0.011467982  0.010685081         3936 
 3443000   0.69373145   -9.1450871    474.07905  0.011474466   0.01068019         3929 
 3444000   0.71302894   -9.1324965    474.42541  0.011479515  0.010675301         3940 
 3445000   0.68951022   -9.1559626    475.69681  0.011506938  0.010670409         3927 
 3446000   0.68823267   -9.1847433    474.04784  0.011463722  0.010665517         3944 
 3447000   0.69546627   -9.1645641    474.31246  0.011466794  0.010660626         3941 
 3448000   0.68984414   -9.1522346    474.52213  0.011468536  0.010655745         3933 
 3449000   0.70115408   -9.1465904    474.26852  0.011459083  0.010650858         3923 
 3450000   0.68914082   -9.1598477    474.16967  0.011453374   0.01064598         3930 
 3451000   0.70227661   -9.1668563    473.71422  0.011439057  0.010641108         3942 
 3452000   0.71146585   -9.1634498    474.13044  0.011445791  0.010636239         3937 
 3453000    0.6956095   -9.1675147    474.30888  0.011446782   0.01063137         3944 
 3454000   0.69322268   -9.1687015    473.69812  0.011428733  0.010626502         3949 
 3455000   0.69501931    -9.146277    474.34701  0.011441076  0.010621639         3939 
 3456000     0.695997   -9.1543182     474.7749  0.011448083  0.010616779         3952 
 3457000   0.70167202   -9.1554658    473.28282  0.011408804  0.010611924         3931 
 3458000   0.69500788   -9.1636932    474.69418  0.011439516  0.010607068         3934 
 3459000   0.70325678    -9.176055     474.2865  0.011426388  0.010602219         3937 
 3460000   0.70577892   -9.1799713    475.35357  0.011448785  0.010597368         3951 
 3461000   0.69027536   -9.1658372    474.49231   0.01142474  0.010592521         3937 
 3462000   0.69178736   -9.1560144    474.42851  0.011419904  0.010587681         3926 
 3463000   0.69481641    -9.156025    474.03365  0.011407105  0.010582835         3944 
 3464000    0.6936879   -9.1813751    474.17629  0.011407243  0.010577997         3939 
 3465000   0.71553144   -9.1747203    473.51908  0.011388145  0.010573162         3939 
 3466000   0.70900536   -9.1643973    473.16066  0.011376242  0.010568328         3926 
 3467000   0.68684638   -9.1553821    473.97455  0.011392524  0.010563498         3927 
 3468000   0.68866089   -9.1644603    474.32501   0.01139766   0.01055867         3937 
 3469000   0.68698251   -9.1531247    474.05642  0.011387922  0.010553845         3943 
 3470000   0.69564309   -9.1716746    474.29478  0.011390364   0.01054903         3941 
 3471000   0.68928071    -9.167081    474.26959  0.011386478  0.010544208         3942 
 3472000   0.70569992   -9.1670362    473.78527  0.011371574  0.010539395         3941 
 3473000   0.71046293   -9.1610316    473.97652  0.011372889  0.010534582         3930 
 3474000   0.72328012   -9.1710809    474.28344  0.011376977  0.010529773         3933 
 3475000   0.68453929   -9.1589693     474.2549  0.011373019  0.010524966         3939 
 3476000   0.69380854   -9.1673025     473.8819  0.011360805  0.010520166         3943 
 3477000   0.70286525   -9.1640533    473.85087  0.011356794  0.010515365         3934 
 3478000   0.68312106   -9.1791395    472.96077  0.011332202  0.010510569         3936 
 3479000   0.69924062   -9.1795295    473.88493  0.011351081  0.010505772         3944 
 3480000   0.69462856   -9.1827152    474.11248  0.011353268  0.010500978         3933 
 3481000   0.69261569   -9.2117938    474.23744  0.011352998  0.010496189         3940 
 3482000   0.68583979   -9.1858625    473.90568  0.011341798  0.010491398         3953 
 3483000   0.68884412   -9.1801832    473.76658  0.011335213  0.010486618         3939 
 3484000   0.69801401   -9.1681219    474.19105  0.011342113  0.010481838         3932 
 3485000   0.70025606   -9.1748831    474.67199  0.011350359  0.010477063         3946 
 3486000   0.70024585   -9.1621742    474.93963  0.011353501   0.01047229         3940 
 3487000   0.69782542   -9.1612873    475.01414  0.011352025  0.010467518         3936 
 3488000   0.69033501   -9.1775443    474.64226  0.011339886  0.010462751         3922 
 3489000   0.68984894   -9.1614781    474.15135   0.01132491  0.010457989         3942 
 3490000   0.70283707   -9.1763991    474.29963  0.011325206   0.01045322         3942 
 3491000   0.68383401   -9.1815653    472.59397  0.011281246  0.010448455         3952 
 3492000    0.6913649   -9.1784903    473.21754  0.011292897  0.010443693         3949 
 3493000   0.69189845   -9.1670065    474.24864  0.011314263  0.010438939         3940 
 3494000   0.68410101   -9.1669129    473.56369  0.011294688  0.010434183         3948 
 3495000   0.69297017   -9.1647602    474.02343  0.011302419  0.010429436         3944 
 3496000   0.69170522   -9.1641855    474.53093  0.011311283  0.010424682         3945 
 3497000   0.68387112   -9.1420186    473.38542  0.011280751  0.010419938         3924 
 3498000   0.67573291   -9.1784925    474.68444  0.011308472  0.010415195         3944 
 3499000   0.69434688   -9.1699065    473.95807  0.011287941   0.01041046         3955 
 3500000   0.70212774   -9.1726475    474.45533  0.011296555  0.010405723         3944 
 3501000   0.68097223   -9.1726312    473.76836  0.011276977  0.010400983         3944 
 3502000   0.69385751   -9.1972725    473.83073  0.011275241  0.010396251         3946 
 3503000   0.68827887   -9.1677232    474.10331  0.011278507  0.010391524         3926 
 3504000    0.6691155   -9.1646942    473.70583  0.011265835    0.0103868         3938 
 3505000   0.70058017   -9.1878487    473.72567  0.011263092  0.010382078         3929 
 3506000   0.68134831   -9.1614438    474.01067  0.011266654  0.010377361         3947 
 3507000   0.69425874   -9.1770503    474.19049  0.011267714  0.010372641         3928 
 3508000   0.68707908   -9.1818028    473.46891  0.011247361  0.010367922         3941 
 3509000   0.68812574   -9.1619489    474.03818  0.011257675   0.01036321         3943 
 3510000   0.69470634   -9.1780885    474.92227  0.011275457  0.010358501         3941 
 3511000   0.69684117   -9.1915413    474.06617  0.011251927  0.010353797         3936 
 3512000   0.68458878   -9.1878604    473.29491  0.011230422  0.010349096         3946 
 3513000   0.68434742   -9.1625859    473.79296   0.01123904  0.010344394         3920 
 3514000   0.70689219   -9.1685629     474.2861  0.011247536  0.010339695         3932 
 3515000   0.70973646   -9.1783757    473.00853  0.011214048  0.010335001         3936 
 3516000   0.70068804   -9.1741242    473.41498  0.011220492  0.010330308         3952 
 3517000   0.67206076   -9.2021844    473.86353  0.011227929   0.01032562         3927 
 3518000   0.68350733   -9.1691995    473.57679  0.011217946  0.010320932         3943 
 3519000    0.6905206   -9.1663935    474.11689  0.011227548  0.010316244         3943 
 3520000   0.69176077   -9.1854313    473.95752  0.011220585  0.010311564         3936 
 3521000   0.68648684   -9.1682568    473.56731  0.011208163  0.010306882         3942 
 3522000   0.68573255   -9.1605078    474.15618  0.011218914  0.010302199         3942 
 3523000   0.67459904   -9.1704754     474.5032  0.011223938  0.010297526         3936 
 3524000   0.67921668   -9.1723345    474.19569  0.011213481  0.010292854         3944 
 3525000    0.6939853   -9.1689243    474.14618   0.01120913  0.010288188         3950 
 3526000   0.68557914   -9.1976725     473.0949  0.011181105  0.010283523         3943 
 3527000   0.67916631   -9.1770171    474.58401  0.011213118   0.01027886         3955 
 3528000   0.68502996   -9.1586768    473.84525   0.01119249  0.010274203         3935 
 3529000   0.68528166   -9.1901814    473.63677  0.011184395  0.010269542         3941 
 3530000   0.70031878   -9.1923759    472.91762   0.01116425  0.010264884         3937 
 3531000   0.69443203   -9.1644692    474.43489  0.011196896  0.010260236         3923 
 3532000   0.68446352   -9.2045701    474.09578  0.011185725  0.010255586         3940 
 3533000   0.68362581   -9.2024001    473.73612  0.011174076  0.010250938         3944 
 3534000   0.69176124   -9.1681317    474.01519  0.011177495  0.010246294         3938 
 3535000   0.69399791   -9.1725203    474.72788  0.011191133  0.010241651         3947 
 3536000   0.68295614   -9.1743027    473.68267  0.011163336  0.010237014         3938 
 3537000   0.67785557   -9.2080951    473.42524  0.011154115  0.010232374         3949 
 3538000   0.68579832   -9.2052587    473.50612  0.011152867  0.010227739         3931 
 3539000   0.68962037   -9.1993064    473.31549  0.011145227  0.010223108         3942 
 3540000   0.67828814    -9.171045    473.35801  0.011143079  0.010218479         3941 
 3541000   0.69229864   -9.2017694     473.9774  0.011154509  0.010213847         3936 
 3542000   0.68234783   -9.1992568    473.64638  0.011143572  0.010209227         3933 
 3543000   0.68494309   -9.2015707     473.7168  0.011142083  0.010204607         3945 
 3544000    0.6846991   -9.1867262    474.12944  0.011148642  0.010199992         3958 
 3545000   0.68997187   -9.1771734    473.49973  0.011130694  0.010195378         3941 
 3546000   0.69530838   -9.1861947    473.59539  0.011129803  0.010190767         3944 
 3547000   0.69199965   -9.1696828    473.78509  0.011131122  0.010186159         3946 
 3548000   0.68736643   -9.1599999    474.60199  0.011147172  0.010181555         3927 
 3549000   0.67288186   -9.2045728    473.99229  0.011129715  0.010176955         3950 
 3550000   0.68290173   -9.1938081    473.31941  0.011110784  0.010172355         3929 
 3551000   0.67102386   -9.1735842    474.17026  0.011127623  0.010167754         3945 
 3552000   0.68901373   -9.1904772    473.47038   0.01110807  0.010163157         3949 
 3553000   0.67660426   -9.1669267     474.4037  0.011126834  0.010158567         3939 
 3554000    0.6871013   -9.1931577    473.05685  0.011092123  0.010153978         3956 
 3555000   0.70440594   -9.1662117    474.51103   0.01112309  0.010149393         3954 
 3556000   0.67453797   -9.1823149    474.05022  0.011109163  0.010144808         3936 
 3557000   0.68465231   -9.2066603    472.68636  0.011074088  0.010140229         3941 
 3558000   0.69157442   -9.1836751     473.7355  0.011095548   0.01013565         3949 
 3559000   0.69167181   -9.1776429    472.71316  0.011068492  0.010131076         3938 
 3560000   0.69873795   -9.1782338    473.30269  0.011079183  0.010126501         3949 
 3561000   0.67477326   -9.2069553    474.05072  0.011093577  0.010121933         3951 
 3562000    0.6755573   -9.1942822    473.91288  0.011087237  0.010117367         3948 
 3563000   0.68110595   -9.1828403    473.92772  0.011084473  0.010112794         3948 
 3564000    0.6689213   -9.1986018      474.291  0.011089857  0.010108229         3941 
 3565000   0.68300048   -9.1984299    473.56019  0.011069663   0.01010367         3940 
 3566000   0.68968304   -9.2103206    473.37059  0.011062128  0.010099113         3942 
 3567000   0.67069327   -9.2006667    472.45793  0.011037705  0.010094558         3943 
 3568000   0.69182356   -9.2034199    472.74776  0.011041381  0.010090003         3953 
 3569000   0.66262841   -9.2006293    473.71775  0.011060936  0.010085456         3947 
 3570000   0.67822581   -9.1799508    473.21564  0.011046117   0.01008091         3937 
 3571000   0.68933881   -9.1959577    472.98175  0.011037565  0.010076361         3940 
 3572000   0.69144853   -9.1830413    472.91718  0.011032969  0.010071823         3935 
 3573000   0.67052431   -9.1963499    472.69689  0.011024743  0.010067283         3958 
 3574000   0.67033574   -9.1713137     473.6099  0.011042947  0.010062747         3932 
 3575000   0.68316667   -9.1906355    473.71088  0.011042212  0.010058212         3947 
 3576000   0.68282572   -9.1817712    474.74331  0.011063183  0.010053684         3938 
 3577000   0.68894421    -9.192919    473.25327  0.011025377  0.010049155         3930 
 3578000   0.67426111    -9.193391    473.49058  0.011027822  0.010044631         3951 
 3579000    0.6626119   -9.1898998    473.76015  0.011031018  0.010040105         3952 
 3580000   0.67175074   -9.1978201    473.15381  0.011013822  0.010035582         3944 
 3581000   0.66820784   -9.1720177     473.0676  0.011008741  0.010031069         3939 
 3582000   0.68175975   -9.1848365    473.45846   0.01101476  0.010026553         3953 
 3583000   0.67803186   -9.1921131    474.72677  0.011041184  0.010022039         3953 
 3584000   0.66926433   -9.1776269    473.84873  0.011017688  0.010017532         3955 
 3585000   0.66955684   -9.2031108    473.70032  0.011011165  0.010013025         3947 
 3586000   0.65537892   -9.1688693    474.23703  0.011020567  0.010008515         3951 
 3587000    0.6689814   -9.2066383    473.64588  0.011003761   0.01000401         3922 
 3588000   0.66231005   -9.1797287    472.66538  0.010977921 0.0099995082         3945 
 3589000   0.69037631   -9.1809931    474.35222  0.011014029 0.0099950089         3947 
 3590000   0.67023666   -9.1981621     473.4508  0.010990037  0.009990514         3943 
 3591000   0.67451466   -9.1756088     473.6752  0.010992184 0.0099860258         3955 
 3592000   0.66855231   -9.1843202    474.24613  0.011002369 0.0099815381         3939 
 3593000      0.67773   -9.2011171    472.59219  0.010960947 0.0099770527         3942 
 3594000   0.67685341   -9.1986642    473.21204   0.01097227 0.0099725711         3942 
 3595000   0.66529266   -9.2104708    473.80563  0.010982977 0.0099680906         3950 
 3596000   0.68101283   -9.1936626    474.15451  0.010988008  0.009963613         3941 
 3597000    0.6738492   -9.2278276    473.22857  0.010963501 0.0099591371         3953 
 3598000   0.66674379   -9.1849222    472.83586  0.010951359 0.0099546698         3944 
 3599000   0.68778857   -9.1942991    473.44194  0.010962349 0.0099502008         3951 
 3600000   0.67937646   -9.1917875    473.58509  0.010962618 0.0099457342         3949 
 3601000   0.67646005   -9.1905147    473.95583  0.010968153 0.0099412692         3934 
 3602000   0.68180391   -9.1988846    473.35782  0.010951273 0.0099368063         3936 
 3603000   0.68847184   -9.1876808     472.8947  0.010937522 0.0099323443         3952 
 3604000   0.67577242   -9.1980453    472.48197  0.010924944 0.0099278913         3947 
 3605000   0.67672134   -9.1805595    473.44032  0.010944067 0.0099234385         3939 
 3606000   0.68971785   -9.2029846    473.70042  0.010947042 0.0099189847         3931 
 3607000   0.65927726   -9.2071875    473.15719  0.010931457 0.0099145346         3948 
 3608000   0.67501415   -9.2013467    473.37811   0.01093353 0.0099100883         3949 
 3609000   0.66538171   -9.1847709    473.75096   0.01093911 0.0099056437         3936 
 3610000   0.66315044    -9.219279    473.01456   0.01091908 0.0099011982         3947 
 3611000   0.67335551   -9.2062905    473.33269  0.010923398 0.0098967566         3951 
 3612000   0.66934335   -9.1976486    473.59851  0.010926507  0.009892325         3945 
 3613000    0.6826433    -9.196823    473.03033  0.010910378 0.0098878905         3931 
 3614000   0.68040147   -9.2056395    473.42893   0.01091655 0.0098834604         3958 
 3615000   0.68519763   -9.2058737    473.19889  0.010908227 0.0098790317         3951 
 3616000   0.67876666   -9.2165266    473.13832  0.010903814 0.0098746028         3950 
 3617000   0.66800834    -9.188706    473.52017  0.010909598 0.0098701818         3938 
 3618000   0.66422927   -9.1964052    473.01842  0.010895025 0.0098657626         3955 
 3619000   0.67396179   -9.1952611    473.71932  0.010908154 0.0098613467         3947 
 3620000   0.66995603    -9.212674    473.47256   0.01089946 0.0098569291         3950 
 3621000   0.67821201   -9.2122232    473.55213  0.010898282 0.0098525179         3943 
 3622000   0.69021351   -9.2102646    473.00445  0.010882672 0.0098481114         3944 
 3623000   0.67740549    -9.221124    473.68671  0.010895361 0.0098437087         3948 
 3624000   0.66749455   -9.1834555    474.36858  0.010908034 0.0098393058         3948 
 3625000   0.65752023   -9.2067612    473.61406   0.01088768 0.0098349111         3945 
 3626000   0.67347939   -9.1809513    473.72481  0.010887222 0.0098305162         3942 
 3627000    0.6825199    -9.187362    474.24042  0.010896067 0.0098261226         3951 
 3628000   0.67318613   -9.1956454    474.73376  0.010904395 0.0098217341         3945 
 3629000   0.66542563   -9.1938156    473.46682  0.010872298  0.009817349         3943 
 3630000   0.67799752   -9.2317747    473.57048  0.010871682 0.0098129659         3947 
 3631000   0.67638398   -9.2163654    472.89748  0.010853242 0.0098085867         3937 
 3632000   0.67189441   -9.2189348    474.21267   0.01088043 0.0098042088         3936 
 3633000   0.67122361   -9.2176247    473.77986  0.010867508 0.0097998325         3950 
 3634000   0.66642833   -9.2122091    473.96957  0.010868867 0.0097954538         3935 
 3635000   0.67997092   -9.2060924    473.21196  0.010848509 0.0097910807         3951 
 3636000   0.66328799   -9.2005937     472.8991  0.010838355 0.0097867058         3952 
 3637000   0.66151383   -9.1918526    473.51273  0.010849435 0.0097823356         3961 
 3638000   0.67832872   -9.2034581    472.95991  0.010833789  0.009777964         3935 
 3639000   0.67322555   -9.2101115    473.82149  0.010850542 0.0097736001         3942 
 3640000   0.67381034   -9.2347956    472.88071  0.010826024 0.0097692341         3941 
 3641000    0.6749475   -9.2169744    473.04102  0.010826719  0.009764876         3956 
 3642000   0.66993274   -9.2109877    472.84896  0.010819352 0.0097605141         3954 
 3643000   0.66108236   -9.2104528    473.46179  0.010830401 0.0097561574         3953 
 3644000   0.66476922   -9.2223065     473.5799   0.01083013 0.0097518019         3953 
 3645000   0.66450778   -9.2374865    472.76935  0.010808627 0.0097474476         3935 
 3646000   0.67530062   -9.2035732    474.13956   0.01083698 0.0097431048         3951 
 3647000   0.67718479   -9.2237472    473.29199  0.010814642 0.0097387548         3949 
 3648000    0.6653788   -9.2060847    472.69915  0.010798135 0.0097344102         3938 
 3649000   0.67024887   -9.1953986    472.28012  0.010785606 0.0097300674         3934 
 3650000   0.66734832   -9.2217572    472.43382   0.01078616 0.0097257314         3945 
 3651000   0.66849593   -9.2282076    473.53006  0.010808227 0.0097213955         3941 
 3652000   0.67213101   -9.2206355    473.38371  0.010801928 0.0097170599         3953 
 3653000   0.67718309   -9.2174915    473.26218  0.010796199 0.0097127283         3954 
 3654000    0.6647694   -9.1969175    472.33891  0.010772188 0.0097084019         3952 
 3655000   0.67039178   -9.2259661    473.45475  0.010794682 0.0097040721         3947 
 3656000   0.68039577    -9.215307    472.74738  0.010775606 0.0096997512         3954 
 3657000   0.66395811   -9.2047203    472.41307  0.010765041   0.00969543         3960 
 3658000   0.66749584   -9.2071101    474.06295  0.010799685 0.0096911138         3955 
 3659000   0.65308419   -9.1953862    472.71502  0.010766034 0.0096868048         3953 
 3660000    0.6501531   -9.1938503    473.70379  0.010785605 0.0096824925         3938 
 3661000    0.6625811   -9.2211992    474.00389   0.01078949 0.0096781814         3959 
 3662000   0.66025607   -9.2223994    472.68593  0.010756552 0.0096738772         3949 
 3663000    0.6678995   -9.2275165    472.56994  0.010750977 0.0096695726         3944 
 3664000   0.66369316   -9.2224006    473.18461  0.010762023 0.0096652684         3937 
 3665000   0.66012593   -9.2062077    472.85128  0.010751507 0.0096609679         3938 
 3666000   0.67701517    -9.200242    473.58379  0.010765225 0.0096566669         3951 
 3667000   0.66392488   -9.2071161    473.27149  0.010755192 0.0096523707         3945 
 3668000   0.66369847   -9.2383896     473.1782  0.010750141 0.0096480792         3956 
 3669000   0.66570523   -9.2263854    473.16484  0.010746907 0.0096437877         3948 
 3670000   0.67157349   -9.2267001    473.10775  0.010742683 0.0096394971         3952 
 3671000    0.6454225   -9.2149296    472.97224   0.01073668 0.0096352112         3955 
 3672000   0.67866343   -9.2166984    472.66703   0.01072683 0.0096309253         3950 
 3673000   0.65419271   -9.2159262    473.50315  0.010742879 0.0096266459         3947 
 3674000   0.66036982   -9.2247524    472.66924  0.010721041 0.0096223658         3953 
 3675000   0.66385539   -9.2143012    473.18904   0.01072991 0.0096180893         3949 
 3676000   0.65704584   -9.2091492    473.29514  0.010729397  0.009613816         3937 
 3677000   0.66704769   -9.2236509    473.27713   0.01072607 0.0096095465         3934 
 3678000    0.6521415   -9.2053166    473.08441  0.010718788  0.009605279         3931 
 3679000   0.65131426   -9.2261212    472.94896  0.010712806  0.009601011         3955 
 3680000   0.65235573   -9.2372158    472.11525  0.010691016 0.0095967479         3929 
 3681000   0.66172723   -9.2166331    473.40362  0.010717278 0.0095924906         3940 
 3682000   0.65595263   -9.2000095    473.57677  0.010718286 0.0095882309         3946 
 3683000   0.65821105   -9.2175376     473.2305  0.010707541 0.0095839745         3938 
 3684000   0.65467826    -9.243632    472.26556  0.010682808 0.0095797161         3957 
 3685000   0.66059303   -9.2383186     473.2729  0.010702689 0.0095754635         3948 
 3686000   0.66108643   -9.2227059    472.33946  0.010678682 0.0095712129         3941 
 3687000   0.64938174   -9.2247728    473.03092  0.010691414 0.0095669649         3950 
 3688000   0.65745303   -9.2345342    472.56915  0.010678081 0.0095627197         3939 
 3689000   0.65272954   -9.2276419    472.85842  0.010681721 0.0095584763         3945 
 3690000   0.66077638   -9.2307414     473.1229  0.010684799 0.0095542362         3939 
 3691000    0.6614493   -9.2325768    472.77281     0.010674  0.009549998         3939 
 3692000   0.66507173    -9.219214    472.42038  0.010663154  0.009545764         3937 
 3693000   0.66854584   -9.2373181    472.47632  0.010661529 0.0095415284         3940 
 3694000   0.64348197   -9.2191654    473.73568  0.010687053  0.009537301         3935 
 3695000   0.64772299   -9.2232265    472.62026  0.010659004  0.009533071         3931 
 3696000   0.65959013   -9.2063504     473.6077  0.010678384 0.0095288448         3957 
 3697000   0.66930072   -9.2225103    472.59448  0.010652657 0.0095246264         3942 
 3698000    0.6513127   -9.2270383     472.1725  0.010640267 0.0095204081         3948 
 3699000   0.64094151   -9.2157186    472.69597  0.010649184  0.009516187         3942 
 3700000   0.67461494   -9.2214897     472.5554   0.01064314 0.0095119707         3950 
 3701000   0.65699135   -9.2175016    473.56654  0.010663031 0.0095077586         3949 
 3702000   0.63617834   -9.2310511    472.54078  0.010637061  0.009503546         3942 
 3703000   0.64669442   -9.2482517    472.88118  0.010641848 0.0094993318         3946 
 3704000   0.64489268   -9.2098739    473.92916  0.010662553 0.0094951279         3938 
 3705000    0.6677038    -9.229613    472.56787  0.010629057 0.0094909196         3949 
 3706000   0.64531168   -9.2263307    473.24876  0.010641499 0.0094867183         3934 
 3707000   0.68034026   -9.2380721    472.83762  0.010629386 0.0094825212         3953 
 3708000   0.65369692   -9.2175659    473.08748  0.010632135 0.0094783258         3945 
 3709000   0.65953988   -9.2133083    473.60073    0.0106408 0.0094741325         3943 
 3710000   0.66122609   -9.2234109    472.92189  0.010622684 0.0094699425         3965 
 3711000   0.65156625   -9.2051329    473.04015  0.010622477 0.0094657566         3941 
 3712000   0.66941271   -9.2094135    474.03957  0.010642052 0.0094615729         3938 
 3713000    0.6560369   -9.2217738    472.68614   0.01060881 0.0094573923         3939 
 3714000   0.65533554   -9.2188894     472.5441  0.010602767 0.0094532096         3947 
 3715000   0.65467532   -9.2377863    472.22421  0.010592737 0.0094490323         3944 
 3716000    0.6591587   -9.2558368    473.34738  0.010615074 0.0094448581         3962 
 3717000   0.66301725   -9.2197557    473.75158   0.01062128 0.0094406906         3959 
 3718000   0.65893135   -9.2387638      472.544  0.010591357 0.0094365146         3944 
 3719000   0.64874422   -9.2463054    471.86219  0.010573232 0.0094323457         3942 
 3720000   0.65553261   -9.2323099    472.17854  0.010577476  0.009428178         3948 
 3721000   0.65914708   -9.2196301    472.36613  0.010578835 0.0094240152         3953 
 3722000   0.64266579    -9.232075    472.40838  0.010576939 0.0094198499         3953 
 3723000   0.66171186    -9.232673    472.02289  0.010565469 0.0094156895         3954 
 3724000   0.65552119   -9.2357055    472.69976  0.010577778 0.0094115325         3961 
 3725000   0.65414069     -9.23534    473.47491   0.01059228 0.0094073805         3939 
 3726000   0.66127382   -9.2283189    471.81268  0.010552261 0.0094032278         3944 
 3727000   0.65811363   -9.2163324    473.05306  0.010577164 0.0093990796         3957 
 3728000    0.6592204   -9.2280042    473.29868  0.010579817 0.0093949323         3946 
 3729000   0.67289191   -9.2583825    472.70249  0.010563656 0.0093907879         3956 
 3730000   0.66659494   -9.2248298     473.3057  0.010574301 0.0093866469         3948 
 3731000    0.6554164   -9.2120081    472.51861  0.010553887 0.0093825084         3932 
 3732000   0.66380988   -9.2304488    472.93912  0.010560448 0.0093783741         3951 
 3733000   0.65380846   -9.2505135    472.08313  0.010538511 0.0093742398         3949 
 3734000   0.64289068   -9.2399794    472.42622  0.010543345  0.009370104         3945 
 3735000   0.65170169    -9.237767     472.2199  0.010535919 0.0093659722         3957 
 3736000    0.6601055    -9.232427    472.51221  0.010539619 0.0093618449         3949 
 3737000    0.6640703   -9.2295277    472.92194  0.010545936 0.0093577181         3938 
 3738000   0.66947114   -9.2342215    471.99752  0.010522506 0.0093535925         3954 
 3739000   0.64616864   -9.2382539    471.28524  0.010503816 0.0093494724         3953 
 3740000   0.65638606   -9.2248291    472.43808  0.010526695 0.0093453521         3954 
 3741000   0.65733603   -9.2310841     472.8314  0.010532643 0.0093412367         3944 
 3742000   0.65194692   -9.2438659    472.02639  0.010511901 0.0093371192         3952 
 3743000   0.65337192    -9.250359    472.06929  0.010510047 0.0093330029         3954 
 3744000   0.65348648   -9.2413085    472.70243  0.010521332 0.0093288965         3951 
 3745000   0.65138946   -9.2428116    472.42289  0.010512303 0.0093247859         3959 
 3746000   0.65352888   -9.2318379    472.42081   0.01050945 0.0093206794         3949 
 3747000   0.65265369   -9.2581185    471.05877  0.010476354 0.0093165748         3950 
 3748000   0.65268496   -9.2291965    472.40304  0.010503447 0.0093124712         3946 
 3749000   0.64101205   -9.2461457    472.14876  0.010494993 0.0093083738         3950 
 3750000   0.65399204   -9.2294475    473.44945  0.010521099 0.0093042766         3939 
 3751000   0.63714221   -9.2274824    471.73204   0.01048014 0.0093001809         3952 
 3752000   0.64755169     -9.24168    472.29693  0.010489893 0.0092960911         3949 
 3753000   0.65482789   -9.2455773    472.56729  0.010493101 0.0092920014         3953 
 3754000   0.66408208   -9.2589295    472.36313  0.010485774 0.0092879109         3957 
 3755000   0.65164599   -9.2393119    473.05664  0.010498372 0.0092838265         3945 
 3756000   0.64438627   -9.2502509    472.39893  0.010480985 0.0092797427         3960 
 3757000   0.65439366   -9.2425611    472.27123  0.010475362 0.0092756645         3950 
 3758000   0.66000214   -9.2393081    472.75924  0.010483396 0.0092715844         3947 
 3759000   0.65404672   -9.2242062    473.13267  0.010488886 0.0092675102         3943 
 3760000   0.65606839   -9.2075963    472.91055  0.010481173   0.00926344         3933 
 3761000   0.66550815   -9.2517976    471.80849  0.010453968 0.0092593753         3959 
 3762000   0.65355586   -9.2428161    472.56948  0.010468046 0.0092553093         3951 
 3763000   0.65418272   -9.2400337    471.87697  0.010449928 0.0092512392         3946 
 3764000   0.65378587   -9.2414861    472.51386  0.010461253 0.0092471751         3949 
 3765000   0.64175484   -9.2438411    472.37467  0.010455393 0.0092431153         3941 
 3766000   0.63892931   -9.2303763    472.49249  0.010455224  0.009239062         3945 
 3767000   0.64528303   -9.2424089    473.35413   0.01047151 0.0092350039         3953 
 3768000   0.64294464   -9.2536305    472.53904  0.010450704 0.0092309523         3945 
 3769000   0.63324964   -9.2541418     472.4363   0.01044566 0.0092269008         3956 
 3770000   0.64783352    -9.239378    472.47941  0.010443842 0.0092228522         3944 
 3771000   0.64569413   -9.2253841    472.70671  0.010446095 0.0092188087         3955 
 3772000   0.66657626   -9.2291746    472.52357   0.01043928 0.0092147632         3955 
 3773000   0.64013787   -9.2589463    471.96143  0.010424097 0.0092107207         3953 
 3774000   0.66140248    -9.237404    472.14449  0.010425377 0.0092066797         3957 
 3775000   0.64190278   -9.2477068    472.63457  0.010433434 0.0092026423         3956 
 3776000    0.6261343   -9.2497974    472.19375  0.010420943 0.0091986062         3947 
 3777000   0.65456834   -9.2508226    471.21066  0.010396493 0.0091945712         3946 
 3778000   0.63532526   -9.2227497    471.81836  0.010407146 0.0091905417         3931 
 3779000   0.64598998   -9.2522521    472.20821  0.010412989 0.0091865164         3942 
 3780000   0.64904694    -9.245359    472.48146  0.010416258 0.0091824897         3963 
 3781000   0.64361254   -9.2513749    472.04261  0.010403831  0.009178468         3933 
 3782000   0.66924493   -9.2460315    472.80362  0.010417848 0.0091744483         3952 
 3783000   0.63935348   -9.2576809    472.04601  0.010398405 0.0091704292         3946 
 3784000   0.64311735   -9.2389656    471.46797  0.010382928 0.0091664112         3961 
 3785000   0.64166348   -9.2507694    472.39743  0.010400648 0.0091623946         3949 
 3786000     0.641766   -9.2485061    471.41531  0.010376283 0.0091583796         3951 
 3787000   0.65547185   -9.2628618    471.37626  0.010372684 0.0091543701         3963 
 3788000   0.63785239   -9.2537883    471.26664  0.010367534 0.0091503626         3962 
 3789000   0.64773172   -9.2504805    471.75495  0.010375538 0.0091463558         3954 
 3790000   0.65006042   -9.2516155    472.36407  0.010386193 0.0091423574         3957 
 3791000   0.64409915   -9.2354313    472.60701  0.010388794 0.0091383579         3958 
 3792000    0.6505895    -9.246033    472.36627  0.010380764 0.0091343599         3940 
 3793000   0.64582307   -9.2518208     472.1892  0.010374137 0.0091303609         3963 
 3794000   0.64096241   -9.2522619    471.86389  0.010364257 0.0091263685         3963 
 3795000   0.65423139   -9.2318674    472.75225  0.010381033 0.0091223804         3950 
 3796000   0.64880208   -9.2269817    472.57784   0.01037447 0.0091183928         3959 
 3797000   0.65642074   -9.2695149     471.9008  0.010356878 0.0091144074         3951 
 3798000   0.64159906   -9.2406559    472.43307   0.01036583 0.0091104194         3947 
 3799000   0.63891547   -9.2628822    472.44214    0.0103633 0.0091064363         3959 
 3800000   0.63726348   -9.2506724    473.19831  0.010377156 0.0091024564         3961 
 3801000   0.63555101   -9.2629414    471.92138   0.01034643 0.0090984807         3946 
 3802000   0.64694095   -9.2425259    473.04706  0.010368382 0.0090945079         3954 
 3803000   0.62737556   -9.2428777    472.11329  0.010345194 0.0090905379         3952 
 3804000    0.6481244   -9.2700312    472.33021  0.010347227 0.0090865659         3958 
 3805000   0.63740904   -9.2503063    471.75618  0.010331936 0.0090825956         3961 
 3806000   0.65336233   -9.2639589    471.42361  0.010321939 0.0090786299         3953 
 3807000   0.64103727   -9.2431818     471.8118  0.010327725 0.0090746653         3968 
 3808000   0.63262296   -9.2597805    471.56449  0.010319601  0.009070709         3957 
 3809000    0.6300828   -9.2418383    472.56766  0.010338839 0.0090667513         3951 
 3810000   0.63582519   -9.2490487    472.17305  0.010327495 0.0090627943         3946 
 3811000   0.64473918   -9.2525239    472.14374  0.010324144  0.009058839         3936 
 3812000   0.65379503    -9.268078    471.61562   0.01030989  0.009054887         3947 
 3813000   0.65485101   -9.2768747    472.46107  0.010325664 0.0090509409         3953 
 3814000   0.63659876   -9.2617086    473.01022  0.010334955 0.0090469927         3955 
 3815000   0.63283855   -9.2621458    471.90934  0.010308199 0.0090430447         3954 
 3816000   0.63475226   -9.2600217    472.10579  0.010309787 0.0090391023         3948 
 3817000   0.64192183   -9.2560672    471.06501  0.010284364 0.0090351592         3948 
 3818000   0.64163224   -9.2461775    471.87897  0.010299436 0.0090312188         3950 
 3819000   0.64028159   -9.2610824    472.27836  0.010305454 0.0090272832         3966 
 3820000   0.64704115   -9.2482637    473.05403  0.010319678 0.0090233493         3948 
 3821000   0.64312259   -9.2278067    472.54001  0.010305767 0.0090194238         3948 
 3822000   0.63945461   -9.2581996     471.7709  0.010286301 0.0090154941         3955 
 3823000   0.63901959   -9.2527112    472.09984   0.01029078 0.0090115684         3951 
 3824000   0.64742293   -9.2608132    471.67368  0.010278802 0.0090076404         3957 
 3825000   0.64059229   -9.2402958    471.89317  0.010280897 0.0090037196         3948 
 3826000   0.63138609   -9.2440368    471.35056  0.010266391 0.0089997982         3948 
 3827000   0.63401147   -9.2246472    472.28741  0.010284109 0.0089958793         3939 
 3828000   0.64472662   -9.2460861     472.7964  0.010292503 0.0089919658         3957 
 3829000   0.64290505   -9.2608957    472.54615  0.010284368 0.0089880501         3938 
 3830000   0.63030928   -9.2410746     471.9121  0.010267887 0.0089841417         3958 
 3831000    0.6363179   -9.2348795      472.996  0.010288785 0.0089802323         3943 
 3832000   0.63963027   -9.2518002    472.28426  0.010270622 0.0089763285         3954 
 3833000   0.65498171   -9.2567445    471.86281  0.010258779 0.0089724232         3952 
 3834000   0.63281993   -9.2585813    471.81417  0.010255046 0.0089685215         3939 
 3835000   0.65239916   -9.2642557    471.99912  0.010256391 0.0089646229         3955 
 3836000   0.62567308   -9.2619531    472.02119  0.010254197  0.008960727         3961 
 3837000    0.6433829   -9.2478147    472.97111  0.010272155 0.0089568335         3945 
 3838000   0.63542816   -9.2657863    471.65019  0.010240798 0.0089529374         3942 
 3839000   0.62894043   -9.2512993      472.057  0.010246961 0.0089490472         3961 
 3840000   0.63967106   -9.2647005    472.75728   0.01025949 0.0089451571         3958 
 3841000   0.63548379   -9.2566632    472.37522  0.010248529 0.0089412699         3946 
 3842000   0.63260108   -9.2532422    471.71844  0.010231616 0.0089373848         3947 
 3843000   0.63823955   -9.2545537     473.0395    0.0102576 0.0089335056         3958 
 3844000   0.63502753    -9.230232    473.10286  0.010256305 0.0089296275         3953 
 3845000   0.63728016    -9.279339    471.65734  0.010222309 0.0089257512         3949 
 3846000   0.62831829   -9.2480132    471.63681  0.010219206 0.0089218794         3946 
 3847000    0.6339924   -9.2852436    471.93613  0.010223034 0.0089180042         3961 
 3848000   0.63129387   -9.2498752    471.87713  0.010219099 0.0089141304         3942 
 3849000   0.64225647   -9.2819684    471.50283   0.01020834 0.0089102626         3953 
 3850000    0.6393383   -9.2554215    471.29576  0.010201207 0.0089063966         3954 
 3851000   0.64895342    -9.267609    471.67217  0.010206703  0.008902533         3956 
 3852000   0.65036801   -9.2690529    471.49466  0.010200213 0.0088986706         3960 
 3853000   0.62864448   -9.2562544    471.62056  0.010200289 0.0088948135         3958 
 3854000   0.63831368   -9.2640335    471.46865  0.010194358 0.0088909605         3940 
 3855000   0.63793975   -9.2660585    471.42518  0.010190773 0.0088871102         3955 
 3856000   0.63358851   -9.2597603    471.78254  0.010195854 0.0088832599         3942 
 3857000   0.64194366   -9.2490552    471.63316  0.010189983 0.0088794111         3948 
 3858000   0.64246059     -9.25931    472.19992  0.010199584 0.0088755629         3966 
 3859000   0.64423833   -9.2697818      472.064  0.010194005 0.0088717168         3955 
 3860000   0.61931998   -9.2664094    472.13875  0.010192978 0.0088678716         3962 
 3861000   0.63247356   -9.2546721    472.55101  0.010199236 0.0088640288         3944 
 3862000   0.62180414   -9.2779473    472.18942  0.010188793 0.0088601896         3956 
 3863000   0.63407495   -9.2566933    472.05558  0.010183268 0.0088563492         3958 
 3864000   0.63417443   -9.2740746    471.16317  0.010161386 0.0088525124         3949 
 3865000   0.63668965   -9.2649645    471.99225  0.010176633  0.008848681         3952 
 3866000   0.63434511   -9.2784373    471.75891  0.010168971 0.0088448483         3950 
 3867000   0.62782415   -9.2718888     471.7882  0.010166973 0.0088410162         3948 
 3868000   0.62805088   -9.2703787     472.2409  0.010174097 0.0088371895         3960 
 3869000    0.6426553    -9.259427    472.42493  0.010175431 0.0088333663         3962 
 3870000   0.63072392   -9.2736766    471.14074  0.010145149 0.0088295454         3944 
 3871000   0.63685938   -9.2604491    472.38522  0.010169319 0.0088257235         3946 
 3872000   0.62789912   -9.2517005    471.91496  0.010156572 0.0088219031         3970 
 3873000   0.63638118   -9.2551602    471.53814  0.010145842 0.0088180842         3960 
 3874000   0.62753806   -9.2785222    471.94156  0.010151901 0.0088142703         3952 
 3875000   0.61853125   -9.2537335    472.02243   0.01015102 0.0088104565         3966 
 3876000   0.62557381    -9.256685    471.87486  0.010145228 0.0088066454         3949 
 3877000   0.64189882   -9.2673584    471.24854  0.010129149 0.0088028374         3947 
 3878000   0.61218536   -9.2678045    471.92184  0.010141006 0.0087990347         3956 
 3879000   0.64760941   -9.2708782    472.20948  0.010144571 0.0087952349         3951 
 3880000   0.62826415   -9.2586081    471.94382   0.01013625 0.0087914328         3946 
 3881000   0.63546227   -9.2874148    472.19706  0.010139076 0.0087876345         3947 
 3882000   0.65270989   -9.2707295    471.94351  0.010131022  0.008783838         3952 
 3883000   0.63123682   -9.2716918    472.09331  0.010131627 0.0087800422         3953 
 3884000   0.63788167   -9.2728405    471.71967  0.010121002  0.008776248         3954 
 3885000   0.64400469   -9.2602102    472.22511  0.010129239 0.0087724589         3957 
 3886000   0.64235852   -9.2727434    471.92209  0.010120134 0.0087686736         3960 
 3887000   0.63281419   -9.2457142    471.27556   0.01010367 0.0087648884         3953 
 3888000   0.61751195   -9.2561617    471.74255   0.01011108 0.0087611044         3944 
 3889000   0.64153011   -9.2748875      471.753  0.010108704 0.0087573216         3958 
 3890000    0.6361407   -9.2811135    471.47615  0.010100175 0.0087535433         3956 
 3891000   0.60921548   -9.2749599    471.30851  0.010093988 0.0087497659         3960 
 3892000   0.63009699   -9.2744134      472.315  0.010112945 0.0087459893         3960 
 3893000   0.62912919   -9.2882253    470.71941  0.010076192 0.0087422151         3952 
 3894000   0.62924565   -9.2826377    472.01223  0.010101272 0.0087384457         3963 
 3895000   0.62417913   -9.2571287      472.277  0.010104343 0.0087346833         3947 
 3896000   0.62530871   -9.2569022    472.30368   0.01010232 0.0087309169         3948 
 3897000   0.62334039   -9.2882911     471.2926  0.010078107 0.0087271563         3948 
 3898000   0.64095519   -9.2786282    471.99894  0.010090622 0.0087233931         3952 
 3899000   0.62992995   -9.2628277    471.65668  0.010080719 0.0087196351         3952 
 3900000   0.62332314   -9.2568777    471.28732  0.010070242 0.0087158744         3946 
 3901000   0.62599573   -9.2763943    471.54446  0.010073153 0.0087121181         3953 
 3902000   0.62965402   -9.2881627    470.69325  0.010052393 0.0087083654         3956 
 3903000   0.63990693   -9.2788631    471.73951  0.010072156 0.0087046153         3960 
 3904000   0.60325868   -9.2719379    471.41771  0.010062707 0.0087008652         3961 
 3905000   0.62767655    -9.277534    471.70281  0.010066214 0.0086971178         3962 
 3906000   0.64035457   -9.2929553    472.01156  0.010070224 0.0086933699         3953 
 3907000   0.63848462   -9.2820197    471.85126  0.010064228 0.0086896261         3957 
 3908000    0.6126012   -9.2789977    471.55462  0.010055327 0.0086858878         3957 
 3909000   0.61045752   -9.2856329    471.71118  0.010056092 0.0086821477         3962 
 3910000   0.64389092   -9.2807102    470.71391  0.010032266 0.0086784097         3961 
 3911000   0.62876942   -9.2736171     471.3549  0.010043358 0.0086746762         3967 
 3912000   0.63169738   -9.2844525    471.57846  0.010045553  0.008670944         3956 
 3913000   0.61889677   -9.2778725    471.93196  0.010050515 0.0086672148         3969 
 3914000   0.62353263   -9.2872539    470.78029  0.010023426 0.0086634853         3959 
 3915000   0.60784379   -9.2803785    471.82314  0.010043064 0.0086597574         3968 
 3916000   0.61689358   -9.2920218    471.43955  0.010032336 0.0086560326         3961 
 3917000   0.62919559   -9.2915185    470.71996  0.010014466 0.0086523099         3963 
 3918000    0.6291449   -9.2902813    471.22429  0.010022637 0.0086485921         3954 
 3919000   0.63561348   -9.2700289    472.16884  0.010040164 0.0086448762         3951 
 3920000   0.63481019   -9.2925402     471.0203  0.010013187 0.0086411632         3956 
 3921000   0.64247736   -9.2846104      472.025  0.010031986  0.008637448         3956 
 3922000   0.63070392   -9.2699519    471.69405  0.010022396  0.008633738         3951 
 3923000   0.60551783   -9.2682983    471.84606   0.01002307 0.0086300296         3941 
 3924000   0.62174486   -9.2974747    471.36065  0.010010208 0.0086263229         3948 
 3925000    0.6218458   -9.2801382    471.78852  0.010016741 0.0086226193         3955 
 3926000   0.60638715   -9.2700868    471.73641  0.010013084 0.0086189192         3948 
 3927000   0.61871594   -9.2799332     472.1142  0.010018551 0.0086152177         3946 
 3928000   0.61990543   -9.2765492    472.13277  0.010016394 0.0086115175         3954 
 3929000   0.62691498   -9.2720621    471.60135  0.010002574 0.0086078215         3950 
 3930000   0.62824002    -9.276162    471.39007 0.0099955485 0.0086041278         3958 
 3931000   0.62798061   -9.2911206    471.47575 0.0099948222 0.0086004401         3950 
 3932000   0.63583456   -9.2823949    471.74222 0.0099979276 0.0085967535         3931 
 3933000   0.62477725   -9.2859787     471.3167 0.0099863697 0.0085930684         3962 
 3934000    0.6202874   -9.2878323    471.70093 0.0099919703 0.0085893868         3950 
 3935000   0.62187413   -9.2857297    471.32907 0.0099815558 0.0085857036         3949 
 3936000   0.63694744   -9.2764363    471.30388 0.0099784867 0.0085820266         3952 
 3937000   0.63097804   -9.2762183    471.65321 0.0099833462 0.0085783519         3949 
 3938000   0.61060826   -9.2968106    471.66835 0.0099811314 0.0085746776         3974 
 3939000    0.6268574   -9.2736382    472.21227 0.0099901048 0.0085710081         3956 
 3940000   0.61653436   -9.2662188     471.5568 0.0099737056 0.0085673386         3947 
 3941000   0.63376169   -9.2787766    472.08614 0.0099823678  0.008563669         3942 
 3942000   0.63182709   -9.2998537    471.12595 0.0099595371 0.0085600035         3953 
 3943000   0.63135869   -9.2896533     470.8123 0.0099503825  0.008556339         3959 
 3944000   0.62341546   -9.3060493    470.90155 0.0099497453 0.0085526718         3961 
 3945000    0.6142712   -9.3013789    469.68575  0.009921541 0.0085490098         3969 
 3946000   0.62548131   -9.2865117    471.99274 0.0099677467  0.008545347         3958 
 3947000   0.62746073    -9.262907    471.97531 0.0099648533 0.0085416869         3960 
 3948000   0.62048139   -9.2805998    470.74712 0.0099364049 0.0085380302         3955 
 3949000   0.61388601   -9.2740511    472.32906 0.0099672715 0.0085343788         3956 
 3950000   0.61725518   -9.2867792    471.68766 0.0099512164 0.0085307274         3962 
 3951000   0.62020393   -9.2733124    471.88918 0.0099529483 0.0085270759         3951 
 3952000   0.62017573   -9.2744959    471.55334 0.0099433481 0.0085234291         3947 
 3953000   0.62435681   -9.2787757     471.7112 0.0099441606 0.0085197807         3954 
 3954000   0.61705207   -9.2871894    470.65244 0.0099193315 0.0085161399         3962 
 3955000   0.60789975   -9.2815287    471.40485 0.0099326771 0.0085125026         3934 
 3956000   0.63119231   -9.2935448    471.06759 0.0099230618 0.0085088592         3968 
 3957000    0.6146105   -9.2947675    471.37103 0.0099269444 0.0085052245         3955 
 3958000   0.59957668   -9.2959476     471.1144 0.0099190332 0.0085015893         3957 
 3959000   0.61207407   -9.2830952     471.2472 0.0099193231  0.008497955         3952 
 3960000   0.62115129   -9.2809158    470.47975 0.0099006681 0.0084943234         3967 
 3961000   0.63096064   -9.2806688    471.54187  0.009920514 0.0084906932         3951 
 3962000   0.62342466   -9.2762303    472.09047 0.0099295488 0.0084870661         3943 
 3963000    0.6147912   -9.3045811     472.1085 0.0099274223 0.0084834446         3967 
 3964000   0.61345301   -9.2830626    471.86091  0.009919713 0.0084798247         3969 
 3965000   0.62266156   -9.2805314    471.27667 0.0099049321 0.0084762072         3957 
 3966000   0.61152837   -9.2916231    470.69879 0.0098902923 0.0084725874         3966 
 3967000   0.61314469   -9.3057715    471.01485 0.0098944384 0.0084689688         3957 
 3968000   0.61655981   -9.3060554    470.68109 0.0098849355 0.0084653531         3963 
 3969000   0.62346146    -9.279885    470.95878 0.0098882754 0.0084617375         3956 
 3970000   0.61181193   -9.2931776    471.38024 0.0098946313 0.0084581309         3955 
 3971000   0.62065146   -9.2889429    471.55564 0.0098958205 0.0084545256         3955 
 3972000   0.62426114   -9.3040581    470.76831 0.0098768108 0.0084509165         3953 
 3973000   0.62010205   -9.3016755    470.47434 0.0098681588 0.0084473126         3962 
 3974000   0.61567743   -9.2916575    470.61603 0.0098686468 0.0084437121         3957 
 3975000   0.61017509   -9.3085343     471.1283 0.0098769035 0.0084401119         3959 
 3976000   0.61769658   -9.3061566    471.36778 0.0098794387 0.0084365124         3956 
 3977000   0.60755432   -9.2909623    471.39498 0.0098775246  0.008432918         3956 
 3978000   0.61489409    -9.288074    471.62005 0.0098797564 0.0084293245         3955 
 3979000   0.61661286    -9.283845    471.43208 0.0098733367 0.0084257328         3956 
 3980000   0.61221457   -9.3156419    470.62591 0.0098539763 0.0084221422         3962 
 3981000   0.61684249   -9.3198465    470.44468 0.0098477074 0.0084185513         3958 
 3982000   0.62667223   -9.2932834    470.69669 0.0098505083 0.0084149627         3955 
 3983000   0.61458356   -9.2892499    472.07781 0.0098769314 0.0084113816         3949 
 3984000    0.6167164   -9.3220974    471.15535 0.0098551571 0.0084077963         3963 
 3985000   0.60879375   -9.2953334    471.01744 0.0098498002 0.0084042162         3959 
 3986000    0.6017681   -9.3066871    471.17685 0.0098506618 0.0084006349         3947 
 3987000   0.61155806   -9.3088036    471.45288 0.0098539603 0.0083970579         3943 
 3988000   0.62027664   -9.3047603    471.02076 0.0098424599 0.0083934845         3965 
 3989000   0.61723638   -9.2939756    470.69959  0.009833283  0.008389913         3945 
 3990000   0.60842694   -9.2958426    470.79393 0.0098327889 0.0083863438         3950 
 3991000   0.60951772   -9.2794936    471.43571 0.0098437258 0.0083827739         3947 
 3992000   0.60707032   -9.2856227    470.75397 0.0098270285 0.0083792093         3960 
 3993000    0.6266577   -9.2745897    471.79073 0.0098462043 0.0083756437         3947 
 3994000    0.6158139   -9.3028732    470.85159 0.0098241444  0.008372082         3948 
 3995000    0.6267073   -9.3246612     470.9663  0.009824078 0.0083685178         3954 
 3996000   0.61126266   -9.2965391     470.2597  0.009806884 0.0083649582         3953 
 3997000   0.60510284    -9.301245     471.4105 0.0098284233 0.0083614005         3965 
 3998000   0.62460973   -9.2901648    471.07405 0.0098189521 0.0083578446         3953 
 3999000   0.60665994   -9.2905344    470.94845 0.0098138795 0.0083542933         3950 
 4000000   0.60101134   -9.2998089    470.37886 0.0097995595 0.0083507443         3962 
 4001000   0.60686571   -9.3082259    470.24262 0.0097942727 0.0083471965         3957 
 4002000   0.59226742   -9.3122337    470.92553 0.0098060455 0.0083436502         3964 
 4003000   0.61356203   -9.2866946    471.22492 0.0098098284 0.0083401032         3955 
 4004000   0.60498073   -9.3020006    470.64498 0.0097953085 0.0083365603         3953 
 4005000   0.62546734   -9.3010005    470.27173 0.0097850963 0.0083330208         3964 
 4006000   0.61672032   -9.3008217    470.44861 0.0097863331 0.0083294793         3965 
 4007000   0.62286502    -9.296624    470.17442 0.0097781885 0.0083259464         3952 
 4008000   0.60640206   -9.2884078    471.11211 0.0097952451 0.0083224118         3953 
 4009000   0.61640734   -9.3057715     470.8829 0.0097880373 0.0083188779         3956 
 4010000   0.60039014   -9.3135011    470.54851 0.0097786473 0.0083153475         3955 
 4011000   0.61735172   -9.3070553    470.76397 0.0097806858 0.0083118195         3953 
 4012000   0.60799942   -9.2757665    470.60851 0.0097750189 0.0083082941         3961 
 4013000   0.61312478   -9.3238877    470.49804  0.009770289 0.0083047682         3955 
 4014000   0.60964868   -9.2999317    470.00627 0.0097576455 0.0083012437         3953 
 4015000   0.59896289   -9.3039619    470.94231 0.0097746433 0.0082977216         3943 
 4016000   0.60575162   -9.2860078    471.13321 0.0097761704 0.0082942017         3962 
 4017000    0.6147796   -9.2879961    471.86554 0.0097889292 0.0082906863         3948 
 4018000   0.61240606   -9.3038844     471.0425 0.0097694229 0.0082871681         3948 
 4019000   0.61556037   -9.2999619    470.60878  0.009757999 0.0082836567         3966 
 4020000   0.61671497   -9.3213911     471.2769 0.0097694217 0.0082801428         3955 
 4021000   0.60891802   -9.2971194    470.67758 0.0097545715 0.0082766304         3948 
 4022000   0.61579934   -9.3067877    471.13908 0.0097617081 0.0082731226         3963 
 4023000   0.60456863   -9.2806806    471.20331 0.0097606121 0.0082696188         3956 
 4024000   0.60953286   -9.3073331    472.09925 0.0097767405 0.0082661138         3951 
 4025000   0.59927831   -9.3161839    471.28578 0.0097574695 0.0082626142         3952 
 4026000   0.60583418   -9.3017374    471.53221 0.0097601467  0.008259113         3950 
 4027000   0.59818015    -9.307965    470.35742 0.0097334124 0.0082556142         3960 
 4028000   0.60097206   -9.3052492    470.73263 0.0097387585 0.0082521207         3955 
 4029000   0.61728817   -9.2909353    471.15604 0.0097450989 0.0082486284         3951 
 4030000   0.59804329   -9.2992114    470.39758  0.009726997 0.0082451383         3956 
 4031000   0.59792524   -9.3036924    470.53761  0.009727479 0.0082416514         3958 
 4032000   0.61616593   -9.2996638    470.81587 0.0097308174 0.0082381643         3957 
 4033000   0.61698903   -9.3174594    470.45029 0.0097208506 0.0082346788         3960 
 4034000   0.61267699   -9.3199502    470.97155  0.009729209 0.0082311956         3958 
 4035000   0.61388901   -9.3308184    470.08676 0.0097085245 0.0082277135         3955 
 4036000   0.60152835   -9.3164099    470.36049  0.009711771 0.0082242359         3961 
 4037000   0.58790813   -9.3089014    470.95658   0.00972167 0.0082207603         3939 
 4038000   0.60369676    -9.299168    471.06754 0.0097215523 0.0082172855         3953 
 4039000   0.60648526   -9.3185166    471.45086 0.0097270541 0.0082138137         3948 
 4040000   0.60828029   -9.3055009    471.00518 0.0097154534 0.0082103412         3954 
 4041000   0.61854936   -9.3045796    469.87061 0.0096896521 0.0082068719         3951 
 4042000    0.6083696    -9.283706    470.83487 0.0097071349 0.0082034078         3953 
 4043000   0.60969421   -9.3103209    471.84642 0.0097255837 0.0081999447         3957 
 4044000   0.60812712   -9.3027052    470.52772 0.0096960047 0.0081964837         3952 
 4045000   0.60369683   -9.3340659    470.12784 0.0096853695 0.0081930218         3964 
 4046000    0.6127881    -9.313589    470.79012 0.0096966164 0.0081895617         3959 
 4047000   0.60070803   -9.3172775    470.54176 0.0096891063  0.008186102         3949 
 4048000   0.61231388   -9.3191987    470.18394 0.0096793467 0.0081826484         3952 
 4049000   0.62141467   -9.2854973    470.90482 0.0096917925 0.0081791948         3953 
 4050000    0.6059698   -9.3129816     469.8347 0.0096673807 0.0081757465         3948 
 4051000   0.60550241   -9.3064142    470.69124 0.0096826142 0.0081722954         3956 
 4052000   0.59376089   -9.3049016    470.56056 0.0096775371 0.0081688473         3943 
 4053000   0.61469019   -9.3226699    470.42831 0.0096724302  0.008165398         3951 
 4054000   0.60582827   -9.2938886    470.85623 0.0096788404 0.0081619555         3959 
 4055000   0.59965114   -9.3067562    470.73932 0.0096740509 0.0081585152         3962 
 4056000   0.60781193   -9.3164198     470.7375 0.0096716285 0.0081550766         3963 
 4057000   0.58599714   -9.3180056    470.73172 0.0096691258 0.0081516382         3960 
 4058000   0.60183979   -9.2923932    471.26593 0.0096777134    0.0081482         3947 
 4059000   0.60824499     -9.31823    471.56621  0.009681494 0.0081447641         3951 
 4060000   0.60580023   -9.3001703    470.71435 0.0096616246  0.008141333         3936 
 4061000   0.61083238   -9.3050637     470.3788 0.0096523598 0.0081379007         3953 
 4062000   0.59231659   -9.3131863    470.44787 0.0096514006 0.0081344725         3966 
 4063000   0.60074336   -9.3333873    471.02803 0.0096609244 0.0081310449         3963 
 4064000   0.60173285   -9.3154165    471.14032 0.0096608497 0.0081276187         3950 
 4065000   0.59378396   -9.3027599    470.44884 0.0096442976 0.0081241966         3956 
 4066000   0.59810814   -9.3142494    471.04046 0.0096540511 0.0081207796         3946 
 4067000   0.60128128   -9.3194889    470.04943 0.0096313711 0.0081173604         3950 
 4068000    0.5899198   -9.3210966    471.00701 0.0096486195 0.0081139446         3949 
 4069000   0.58658085   -9.3171291    470.17099 0.0096291265  0.008110529         3959 
 4070000    0.5941674   -9.3377743    470.69185 0.0096374253 0.0081071135         3956 
 4071000   0.59527726   -9.3068964    469.90254 0.0096189007  0.008103701         3971 
 4072000   0.61519967    -9.314654    471.10402 0.0096411267 0.0081002922         3959 
 4073000   0.59748815   -9.3171367     471.1206  0.009639099 0.0080968842         3954 
 4074000    0.5942173   -9.3222226    470.69879 0.0096281049 0.0080934787         3957 
 4075000   0.61452187   -9.3288459    470.30588 0.0096177071 0.0080900759         3965 
 4076000   0.61112378   -9.3191946    470.37566 0.0096167743 0.0080866728         3959 
 4077000   0.59278285    -9.315819    469.97991 0.0096063263 0.0080832758         3958 
 4078000   0.60052154   -9.3165218    470.49541 0.0096145048 0.0080798811         3955 
 4079000   0.60450647   -9.3324964    470.75696 0.0096174913 0.0080764884         3953 
 4080000   0.60420218   -9.3110629    470.32994 0.0096064123 0.0080730957         3942 
 4081000   0.59032026   -9.3121422    471.23122 0.0096224622 0.0080697037         3959 
 4082000   0.59609104   -9.3366604    470.60388  0.009607298  0.008066314         3963 
 4083000   0.60734058   -9.3242235    469.79986  0.009588535 0.0080629306         3964 
 4084000    0.5897195   -9.3157586    470.12871 0.0095928972 0.0080595468         3959 
 4085000   0.60012853   -9.3278618    469.67321 0.0095812568 0.0080561622         3962 
 4086000   0.59554297   -9.3103094    470.49517 0.0095956756 0.0080527788         3946 
 4087000   0.59228233   -9.3087219    470.77563 0.0095990463 0.0080493999         3949 
 4088000     0.590467   -9.2998817    471.00488 0.0096013715 0.0080460218         3955 
 4089000   0.58125193   -9.3013534    470.70632 0.0095929387 0.0080426472         3969 
 4090000   0.60244442   -9.3085021    470.61075  0.009588646 0.0080392718         3944 
 4091000   0.60362376   -9.3129623    470.95915 0.0095933992 0.0080359012         3945 
 4092000   0.60309518   -9.3164905       470.64 0.0095845553  0.008032532         3950 
 4093000   0.60024758   -9.3264151    470.87874 0.0095870742 0.0080291612         3956 
 4094000   0.60957625   -9.3408503    469.77825 0.0095623321 0.0080257975         3953 
 4095000   0.59906897   -9.3140418    471.06927 0.0095862692 0.0080224342         3963 
 4096000   0.60682381   -9.3058567    470.46091 0.0095715517 0.0080190722         3955 
 4097000   0.59307615   -9.3020846    470.09692 0.0095618118  0.008015713         3966 
 4098000   0.58819979   -9.3296075    470.61103 0.0095699332 0.0080123536         3950 
 4099000   0.58419117   -9.3226239     469.6865 0.0095488026 0.0080089946         3951 
 4100000   0.59578373   -9.2985304    470.14283 0.0095557486 0.0080056395         3962 
 4101000   0.60083703   -9.3100427    471.11039 0.0095730796 0.0080022884         3946 
 4102000   0.58390721   -9.3253011    470.37676 0.0095558418  0.007998936         3963 
 4103000   0.58856726   -9.3349825    469.76394 0.0095410662 0.0079955864         3958 
 4104000   0.59764826   -9.3293203    470.91907 0.0095621969 0.0079922397         3953 
 4105000   0.59297653    -9.310566    470.82479 0.0095579535 0.0079888966         3950 
 4106000   0.59557721    -9.316433     471.1245 0.0095617085 0.0079855513         3942 
 4107000   0.58133623   -9.3333298    469.73768 0.0095312409 0.0079822085         3964 
 4108000   0.57974241   -9.3167002    470.61214 0.0095466598 0.0079788711         3947 
 4109000   0.60139477   -9.3153904    470.60896  0.009544272 0.0079755327         3957 
 4110000   0.58151796   -9.3249322    470.62103 0.0095421943 0.0079721977         3952 
 4111000   0.57969148   -9.3406315    470.01678 0.0095276247 0.0079688609         3971 
 4112000   0.59363861   -9.3296888    469.85635 0.0095220564 0.0079655276         3950 
 4113000   0.59140218   -9.3202446    470.74302 0.0095377061 0.0079621977         3951 
 4114000   0.59007167   -9.3305475    470.49473 0.0095303583 0.0079588694         3964 
 4115000    0.5879205   -9.3277974    470.01242  0.009518275 0.0079555452         3949 
 4116000   0.60510487   -9.3179496     469.4102 0.0095037698 0.0079522183         3962 
 4117000   0.59623759   -9.3272215     470.5818  0.009525176 0.0079488968         3962 
 4118000   0.58707341   -9.3340351    470.20209  0.009515179 0.0079455735         3944 
 4119000   0.58903882   -9.3307896    469.41824 0.0094970105 0.0079422568         3954 
 4120000   0.59712179   -9.3443884    470.26867 0.0095119068 0.0079389372         3954 
 4121000   0.59036562   -9.3462935    469.74637 0.0094990368 0.0079356222         3966 
 4122000   0.59472221   -9.3276249    470.31432 0.0095082145 0.0079323073         3958 
 4123000   0.58591577   -9.3340875    469.59378 0.0094913448 0.0079289953         3958 
 4124000   0.60392807   -9.3119945    470.36022 0.0095045309 0.0079256871         3961 
 4125000   0.59944553   -9.3307162    470.45171  0.009504075  0.007922379         3947 
 4126000   0.59625001   -9.3248931    470.15811 0.0094958417  0.007919071         3955 
 4127000   0.60352412   -9.3353682    470.72219 0.0095049307 0.0079157667         3958 
 4128000   0.60289539   -9.3388131    469.39724  0.009475881  0.007912465         3970 
 4129000   0.58354711   -9.3492543    469.97508 0.0094852483 0.0079091617         3958 
 4130000    0.5934092   -9.3263952    470.72065 0.0094979953  0.007905862         3957 
 4131000   0.58747112   -9.3175761    469.84703  0.009478073 0.0079025665         3951 
 4132000   0.59202661   -9.3198701    470.62767 0.0094915229   0.00789927         3957 
 4133000   0.58900675   -9.3046873    470.71979 0.0094910838 0.0078959746         3947 
 4134000   0.58968431   -9.3350581    470.62276  0.009486832  0.007892682         3960 
 4135000   0.59467676   -9.3248856    470.20959 0.0094762109 0.0078893899         3954 
 4136000   0.58509245   -9.3347642    470.17201 0.0094731627 0.0078860989         3955 
 4137000   0.59788614   -9.3139863     470.3587 0.0094746334 0.0078828135         3949 
 4138000   0.58429744   -9.3319971    470.50338 0.0094752573 0.0078795279         3964 
 4139000   0.58784564   -9.3335656    470.12756 0.0094654014 0.0078762457         3957 
 4140000   0.59623217   -9.3357471    469.83385  0.009457203 0.0078729659         3962 
 4141000   0.59291759   -9.3401421    469.75549 0.0094533424 0.0078696855         3963 
 4142000    0.5957885   -9.3246146    470.23792 0.0094607661 0.0078664101         3942 
 4143000   0.58299738   -9.3217101    470.35233 0.0094607838 0.0078631313         3953 
 4144000   0.59405217   -9.3416886    470.66619 0.0094648124 0.0078598565         3962 
 4145000   0.58665785   -9.3477595    470.86879 0.0094666021 0.0078565827         3953 
 4146000   0.59576201   -9.3278592    469.79005 0.0094426365  0.007853313         3965 
 4147000   0.59227289    -9.343392    469.69689 0.0094384875 0.0078500439         3957 
 4148000   0.58820538   -9.3358849    469.89091 0.0094401098 0.0078467775         3946 
 4149000   0.59697163   -9.3384296    469.40768 0.0094281289 0.0078435111         3960 
 4150000   0.58108743   -9.3314048    470.03196 0.0094383927 0.0078402501         3947 
 4151000   0.58310265   -9.3344024    469.76485 0.0094307567  0.007836987         3959 
 4152000   0.59352909   -9.3312616     470.4135 0.0094415041 0.0078337262         3951 
 4153000    0.5835534   -9.3240091    470.24913 0.0094359324 0.0078304689         3948 
 4154000   0.58707103   -9.3313446    470.10461 0.0094307618 0.0078272121         3961 
 4155000   0.58112564   -9.3228245    470.13038 0.0094290087 0.0078239568         3961 
 4156000   0.58902905   -9.3530135    469.78457  0.009419806 0.0078207061         3957 
 4157000   0.58513148   -9.3362086    470.29597 0.0094277919 0.0078174537         3962 
 4158000   0.59100989   -9.3358674    469.58346 0.0094112447 0.0078142049         3959 
 4159000   0.58660754   -9.3164459    470.21078 0.0094215512 0.0078109564         3949 
 4160000    0.5854132   -9.3410236    469.74226 0.0094099011  0.007807711         3970 
 4161000    0.5938529   -9.3331756    469.35399 0.0093998635 0.0078044658         3962 
 4162000    0.5807287   -9.3443676    469.63722  0.009403276  0.007801221         3957 
 4163000   0.58788082    -9.352776    470.40505 0.0094163874 0.0077979816         3958 
 4164000   0.58752025   -9.3346329    470.15076 0.0094090369 0.0077947396         3962 
 4165000   0.57868481   -9.3269167    469.79628 0.0093996855 0.0077915042         3969 
 4166000   0.58307021   -9.3405862    470.30792 0.0094076635 0.0077882697         3954 
 4167000   0.56875163   -9.3601955     470.1781 0.0094028098 0.0077850359         3949 
 4168000   0.58376542   -9.3131384    470.09142 0.0093988208 0.0077818038         3960 
 4169000   0.58110531   -9.3384857    470.16293 0.0093979957 0.0077785756         3966 
 4170000   0.57928564   -9.3421888    470.76805 0.0094078347  0.007775348         3961 
 4171000    0.5865005   -9.3479558    470.43994 0.0093990239 0.0077721201         3954 
 4172000   0.58582285   -9.3367438    469.53194 0.0093786341 0.0077688947         3956 
 4173000   0.58669288   -9.3469405    470.73169 0.0094003453 0.0077656719         3959 
 4174000   0.57743765    -9.339668    470.10447 0.0093855707 0.0077624508         3950 
 4175000   0.58538453   -9.3290677    469.85978 0.0093784387 0.0077592309         3951 
 4176000   0.57518831   -9.3383181    470.07324 0.0093804526 0.0077560165         3947 
 4177000   0.57414287    -9.309026    470.38573 0.0093844412 0.0077528025         3940 
 4178000   0.56988879   -9.3396867     470.8751 0.0093919559 0.0077495871         3950 
 4179000   0.58473873   -9.3390533    470.03989 0.0093730536 0.0077463748         3958 
 4180000    0.5673267   -9.3459525     470.3895 0.0093777811 0.0077431648         3954 
 4181000   0.59144148   -9.3360107     470.0385 0.0093685422 0.0077399586         3967 
 4182000    0.5835004   -9.3326531    470.13491 0.0093682231 0.0077367519         3959 
 4183000   0.58200737   -9.3536077    469.90635 0.0093614303 0.0077335442         3947 
 4184000   0.57741737   -9.3460612    470.44117 0.0093698449  0.007730345         3961 
 4185000    0.5751186   -9.3378275    470.14672 0.0093617428 0.0077271468         3966 
 4186000   0.57207481   -9.3338626    469.78784 0.0093523619 0.0077239478         3952 
 4187000   0.57364999   -9.3505608    469.91079 0.0093525751 0.0077207492         3966 
 4188000   0.58386138    -9.343081    469.99787 0.0093520748 0.0077175535         3956 
 4189000   0.58716039   -9.3580207    470.20442 0.0093539511 0.0077143601         3953 
 4190000   0.56819081   -9.3425868    470.06099 0.0093488661 0.0077111698         3950 
 4191000    0.5848089   -9.3463396    469.33641  0.009332228 0.0077079831         3955 
 4192000   0.58752817   -9.3492288    470.31031 0.0093493621 0.0077047962         3959 
 4193000    0.5870177   -9.3400761    470.30981 0.0093471224 0.0077016079         3949 
 4194000   0.58181127   -9.3380312    469.76996  0.009334167 0.0076984251         3956 
 4195000   0.57588591   -9.3271256    469.70368 0.0093306254  0.007695241         3959 
 4196000    0.5872403    -9.344737    470.61226 0.0093464462 0.0076920623         3963 
 4197000   0.58599224   -9.3230727    470.25655 0.0093371564 0.0076888837         3952 
 4198000   0.58208671   -9.3551426    470.12374  0.009332296 0.0076857073         3959 
 4199000   0.58545131   -9.3321451    470.02043 0.0093280231 0.0076825332         3956 
 4200000   0.57328764   -9.3401851    469.38067 0.0093131085 0.0076793605         3965 
 4201000   0.57440991   -9.3473788    470.59978 0.0093350745 0.0076761884         3964 
 4202000   0.59027645   -9.3650956    469.59402  0.009312907 0.0076730196         3962 
 4203000   0.57527328   -9.3536401    470.20222 0.0093227501 0.0076698538         3964 
 4204000   0.57493447   -9.3538686    470.30874 0.0093226439 0.0076666892         3950 
 4205000   0.56736693   -9.3460758    470.72769 0.0093287295 0.0076635232         3948 
 4206000    0.5574907   -9.3557156    469.65517 0.0093052618 0.0076603586         3955 
 4207000   0.57852626   -9.3360906    470.67118 0.0093231752 0.0076571965         3964 
 4208000   0.58248316   -9.3479374    469.94297 0.0093065385 0.0076540339         3954 
 4209000    0.5729825   -9.3503934    469.81701 0.0093018335 0.0076508733         3951 
 4210000   0.57312963    -9.350674    469.68983 0.0092971067 0.0076477175         3954 
 4211000   0.57387354   -9.3611557    469.98708 0.0093007813 0.0076445644         3955 
 4212000   0.57075172   -9.3395015    470.28922 0.0093045509 0.0076414127         3959 
 4213000   0.56795365   -9.3717932    470.52836 0.0093070725 0.0076382592         3972 
 4214000   0.58649139   -9.3433817    470.15338 0.0092974486 0.0076351106         3959 
 4215000   0.56861104   -9.3567752    469.53116 0.0092829411 0.0076319625         3956 
 4216000    0.5743407   -9.3441335    470.57326 0.0093013373  0.007628816         3947 
 4217000   0.58296267   -9.3446013    470.12426 0.0092902588 0.0076256705         3950 
 4218000   0.58193579   -9.3588628    469.73357 0.0092803377 0.0076225292         3960 
 4219000   0.57476798   -9.3415551    469.88232 0.0092810762 0.0076193895         3955 
 4220000   0.58818788   -9.3530638    469.00088 0.0092614707 0.0076162519         3949 
 4221000   0.56289973   -9.3592222    469.11199 0.0092614701 0.0076131156         3959 
 4222000   0.57084431    -9.349032    469.05291 0.0092581105 0.0076099769         3964 
 4223000   0.56563519   -9.3544572    470.12062 0.0092769876 0.0076068437         3957 
 4224000    0.5784118    -9.344884    469.91767 0.0092707874 0.0076037143         3957 
 4225000   0.57441096    -9.359685    470.18521 0.0092738701 0.0076005852         3965 
 4226000   0.56771207   -9.3330192    470.30975 0.0092741313  0.007597457         3957 
 4227000   0.57221017   -9.3265508    470.04378  0.009266694 0.0075943312         3963 
 4228000   0.58323039    -9.368249    469.49505 0.0092536867 0.0075912067         3956 
 4229000   0.56605859   -9.3550004    470.02029 0.0092618485 0.0075880845         3955 
 4230000   0.57335747   -9.3535821    469.69872 0.0092533238 0.0075849613         3953 
 4231000   0.56329858   -9.3466577    468.85697 0.0092345578 0.0075818391         3959 
 4232000    0.5868285   -9.3428835     469.9328 0.0092535602 0.0075787204         3955 
 4233000   0.57330714   -9.3629213     470.1129 0.0092549198 0.0075756059         3966 
 4234000   0.56704443    -9.336159     470.1272 0.0092530153  0.007572492         3962 
 4235000   0.57561958   -9.3586141    469.07865 0.0092301978 0.0075693773         3959 
 4236000   0.57799971   -9.3721483    468.96979 0.0092258773  0.007566267         3969 
 4237000    0.5858538   -9.3544936    469.69632 0.0092379891 0.0075631576         3957 
 4238000   0.56170885   -9.3519206    469.21651 0.0092263747 0.0075600508         3953 
 4239000   0.56591725   -9.3436952    470.23167 0.0092441549 0.0075569435         3954 
 4240000   0.56885539   -9.3341081    469.67059 0.0092309472 0.0075538383         3956 
 4241000   0.57435586    -9.373159    469.45432  0.009224521 0.0075507354         3954 
 4242000   0.56646061   -9.3430517    468.68929 0.0092073175 0.0075476357         3949 
 4243000   0.57277941   -9.3590297    469.86191  0.009228178 0.0075445386         3967 
 4244000   0.57340493    -9.353414    469.88604 0.0092264773 0.0075414399         3963 
 4245000   0.55713676   -9.3649746    469.95325 0.0092256233 0.0075383436         3956 
 4246000   0.57714891   -9.3535709    469.19974 0.0092086619 0.0075352498         3963 
 4247000   0.58919075   -9.3378465    469.80469 0.0092183638 0.0075321601         3966 
 4248000   0.57960249   -9.3600666    468.85408 0.0091975456  0.007529068         3966 
 4249000   0.56978946   -9.3642537    469.89617 0.0092158189 0.0075259821         3954 
 4250000   0.55740782   -9.3705765    469.37981 0.0092035257 0.0075228944         3959 
 4251000   0.56447501   -9.3680904    469.09502 0.0091957778 0.0075198086         3956 
 4252000   0.58252164   -9.3628163    469.29369 0.0091975089 0.0075167237         3961 
 4253000   0.56252761   -9.3600195    469.76525  0.009204586  0.007513641         3965 
 4254000   0.57494749   -9.3632167    469.51025 0.0091974269 0.0075105599         3960 
 4255000   0.58828142   -9.3682016    469.81696 0.0092012722 0.0075074793         3973 
 4256000   0.58427696   -9.3523609    468.92046 0.0091815566 0.0075043997         3957 
 4257000   0.56616811   -9.3386224     470.1179 0.0092028403 0.0075013246         3957 
 4258000    0.5774585   -9.3537634    470.86664 0.0092153326  0.007498251         3951 
 4259000   0.56505151   -9.3515543    469.62095 0.0091887953 0.0074951784         3950 
 4260000   0.56778133   -9.3342051    469.82045 0.0091905409 0.0074921068         3960 
 4261000    0.5750274   -9.3803564    469.67661 0.0091855708 0.0074890366         3967 
 4262000   0.56887816   -9.3780857     469.0981 0.0091721043 0.0074859701         3961 
 4263000   0.57279302   -9.3643506    469.72157 0.0091821403 0.0074829041         3965 
 4264000   0.56894366   -9.3714648    469.60291 0.0091776678 0.0074798426         3969 
 4265000   0.57159069   -9.3644254    469.82057 0.0091797689  0.007476778         3964 
 4266000   0.55616289   -9.3779766    469.32664 0.0091679684 0.0074737187         3943 
 4267000   0.56804337   -9.3561771    470.00354 0.0091790396 0.0074706606         3966 
 4268000   0.56657066   -9.3570894    469.90202 0.0091749067 0.0074676038         3962 
 4269000   0.56679527   -9.3537013    469.53098 0.0091655146   0.00746455         3946 
 4270000   0.55164452   -9.3566292    469.24141 0.0091577167 0.0074614972         3959 
 4271000    0.5678778   -9.3727358    469.24084 0.0091555615 0.0074584446         3954 
 4272000   0.57462469   -9.3564484    470.13472 0.0091708553 0.0074553968         3962 
 4273000   0.56830535    -9.365933    469.19356 0.0091503541 0.0074523471         3964 
 4274000   0.57734305   -9.3689966    469.80371 0.0091601097 0.0074493005         3951 
 4275000   0.58318714    -9.365273    469.53473 0.0091527237 0.0074462554         3971 
 4276000   0.56255603   -9.3592539    470.46902 0.0091687914 0.0074432145         3958 
 4277000   0.57790251   -9.3713335     469.2174  0.009142261 0.0074401728         3965 
 4278000   0.57555364   -9.3575393    470.28536 0.0091609273 0.0074371354         3957 
 4279000   0.55875729   -9.3474935    469.24533 0.0091385317    0.0074341         3958 
 4280000   0.56103719   -9.3462626    469.65156  0.009144306 0.0074310638         3968 
 4281000   0.56435461   -9.3629126    469.53883 0.0091399757 0.0074280285         3954 
 4282000   0.55203078   -9.3504093    469.74652 0.0091418831 0.0074249955         3965 
 4283000   0.57161104   -9.3752472    470.13461 0.0091472996 0.0074219661         3951 
 4284000   0.56519978   -9.3702245    469.08077 0.0091246649  0.007418938         3960 
 4285000   0.56159108    -9.380077    470.52598 0.0091506413 0.0074159102         3959 
 4286000   0.56868923   -9.3804906    469.68639 0.0091321822  0.007412886         3955 
 4287000   0.56681351   -9.3663445    469.62116 0.0091287839 0.0074098612         3961 
 4288000   0.56409787   -9.3565083    467.54249  0.009086258 0.0074068393         3959 
 4289000   0.55908654    -9.368168    469.14511 0.0091152777 0.0074038177         3960 
 4290000   0.57829551   -9.3651489    469.07177 0.0091117283 0.0074007976         3949 
 4291000   0.55481685   -9.3754816    468.84224 0.0091051473 0.0073977796         3968 
 4292000   0.55220346   -9.3621688    469.79782 0.0091215793 0.0073947661         3963 
 4293000   0.54914277   -9.3724898    469.28293 0.0091094598 0.0073917518         3952 
 4294000   0.55967937   -9.3609174    469.86752 0.0091186835  0.007388741         3964 
 4295000    0.5720952   -9.3923193    468.35501  0.009087214 0.0073857307         3955 
 4296000   0.56876762   -9.3767016    469.59774 0.0091092051  0.007382722         3952 
 4297000   0.56504915   -9.3703042    469.94583 0.0091138358 0.0073797128         3963 
 4298000   0.55625058   -9.3784864    468.93272 0.0090920723 0.0073767063         3966 
 4299000   0.55698963   -9.3811173    469.39138 0.0090988481 0.0073737047         3961 
 4300000   0.56607534   -9.3775776    470.10995 0.0091106579 0.0073707034         3958 
 4301000   0.56149327   -9.3700739    469.93461 0.0091051424 0.0073677018         3950 
 4302000    0.5641302   -9.3560844    470.14211 0.0091070453  0.007364703         3955 
 4303000   0.57679694   -9.3829062    468.88442 0.0090805721 0.0073617082         3962 
 4304000   0.56700707   -9.3708856     468.7564 0.0090759837 0.0073587102         3960 
 4305000   0.55914561   -9.3783168     469.6536 0.0090912428 0.0073557147         3969 
 4306000   0.57605282   -9.3982353     469.5522  0.009087169 0.0073527222         3961 
 4307000   0.55873234   -9.3722492     469.1952 0.0090781519 0.0073497306         3971 
 4308000   0.57509728   -9.3790378    469.79818 0.0090877085 0.0073467405         3955 
 4309000   0.55778223   -9.3750691    469.41387 0.0090781672 0.0073437535         3965 
 4310000   0.54568821   -9.3819143    469.12364 0.0090704494 0.0073407671         3967 
 4311000   0.55201359   -9.3782676    469.51474 0.0090759054 0.0073377814         3971 
 4312000   0.55213885   -9.3795583    468.79202 0.0090598335 0.0073347979         3963 
 4313000   0.54945361   -9.3588942    468.29774 0.0090481826 0.0073318146         3959 
 4314000   0.55531892   -9.3666165    468.61356 0.0090521859 0.0073288357         3965 
 4315000   0.56641114   -9.3866659     468.4687 0.0090472905 0.0073258572         3962 
 4316000   0.56053264   -9.3774741    468.75085 0.0090506419 0.0073228812         3964 
 4317000   0.56562386   -9.3583687    468.75669 0.0090486582 0.0073199048         3972 
 4318000   0.55301862   -9.3778232    469.11451 0.0090534682  0.007316931         3953 
 4319000   0.56408639    -9.374661    469.37499  0.009056398 0.0073139591         3961 
 4320000   0.55956642   -9.3627426    469.82467 0.0090629758   0.00731099         3957 
 4321000   0.55217866   -9.3597934    469.67511  0.009057994 0.0073080218         3971 
 4322000   0.55885871    -9.388494    469.81155 0.0090585291 0.0073050564         3968 
 4323000   0.57172152   -9.3915247    469.78494 0.0090559207  0.007302091         3957 
 4324000   0.55100737   -9.3674149    468.97212 0.0090381614 0.0072991259         3955 
 4325000   0.54330774    -9.363756    468.96976 0.0090360263 0.0072961652         3957 
 4326000   0.54957621   -9.3884828     468.8643 0.0090319059 0.0072932053         3957 
 4327000   0.58103052   -9.3618419    469.56276 0.0090432701 0.0072902466         3956 
 4328000   0.56935906    -9.373935    469.16178   0.00903346 0.0072872913         3955 
 4329000   0.55623706    -9.380771    468.80342 0.0090244749 0.0072843353         3971 
 4330000    0.5573528   -9.3803119    469.08716 0.0090278514 0.0072813789         3964 
 4331000   0.56727901   -9.3733566    469.76097 0.0090387318 0.0072784257         3966 
 4332000   0.55615421    -9.370191    469.93201 0.0090399355  0.007275476         3946 
 4333000   0.56230655   -9.3870298    469.55495 0.0090305976 0.0072725266         3955 
 4334000   0.56080384   -9.3908141    469.23373 0.0090223375 0.0072695791         3967 
 4335000   0.55654655   -9.3709439    468.84539  0.009012791  0.007266634         3960 
 4336000   0.55933577   -9.3612766    469.45827 0.0090224913 0.0072636908         3955 
 4337000   0.55916037   -9.3746069    469.31672 0.0090176912 0.0072607484         3963 
 4338000   0.56108071   -9.3875841    469.16364 0.0090126718 0.0072578066         3950 
 4339000   0.55810218   -9.3782576    468.92791 0.0090060672 0.0072548685         3946 
 4340000   0.56234591   -9.3803029    469.57447 0.0090164069 0.0072519314         3956 
 4341000   0.55803393   -9.3978545    468.74554  0.008998417 0.0072489936         3964 
 4342000   0.54673929   -9.3727271     468.3789  0.008989308 0.0072460581         3967 
 4343000   0.55430772   -9.3853617    469.24594 0.0090038749  0.007243127         3961 
 4344000   0.55316504   -9.3754316    468.38317 0.0089852511 0.0072401964         3964 
 4345000   0.54751916   -9.3912743    467.84917 0.0089729415 0.0072372629         3960 
 4346000   0.54822378   -9.3726687     469.4114 0.0090008321 0.0072343342         3969 
 4347000   0.54491439   -9.3866649    469.70193 0.0090043312 0.0072314072         3969 
 4348000   0.56812904   -9.3691801    468.96551  0.008988146 0.0072284826         3957 
 4349000   0.55063355    -9.366832    469.82294 0.0090025089  0.007225559         3970 
 4350000   0.54907694   -9.3915916     469.0979 0.0089865498 0.0072226366         3961 
 4351000   0.54676556    -9.395151    469.41684 0.0089905929 0.0072197162         3962 
 4352000   0.54935561    -9.379258    469.41018 0.0089883995 0.0072167979         3963 
 4353000   0.54826913    -9.374122    469.39914 0.0089861234 0.0072138821         3958 
 4354000   0.55221243   -9.3805538    469.80497 0.0089918269 0.0072109662         3963 
 4355000   0.55347224   -9.3867483    469.39058 0.0089818327 0.0072080527         3957 
 4356000   0.54409175   -9.3939593    468.76534 0.0089678096 0.0072051399         3960 
 4357000   0.54982762   -9.3911902    469.20242  0.008974111 0.0072022286         3968 
 4358000   0.54920553   -9.3859588    469.15673 0.0089711782 0.0071993206         3963 
 4359000   0.54090764      -9.3849    469.77068 0.0089808572 0.0071964132         3952 
 4360000   0.54337668   -9.3937026    468.88643 0.0089618966 0.0071935071         3969 
 4361000   0.56224414   -9.3786425    469.30064 0.0089677566  0.007190605         3961 
 4362000   0.55670868    -9.373785    469.08925 0.0089616622 0.0071877047         3969 
 4363000   0.54406935    -9.388478    468.96001 0.0089571397  0.007184804         3960 
 4364000   0.55665456   -9.3832954    468.83639 0.0089527267  0.007181905         3958 
 4365000   0.56445435   -9.3941462    469.05089 0.0089547707 0.0071790107         3963 
 4366000   0.55298164   -9.3815269    468.69886 0.0089460006 0.0071761135         3959 
 4367000   0.56434589   -9.3784114    469.48453 0.0089589446 0.0071732212         3970 
 4368000   0.53960474    -9.388437    468.89319 0.0089456118 0.0071703289         3963 
 4369000   0.56443739   -9.3867697    469.24023 0.0089501838 0.0071674366         3967 
 4370000   0.55569294   -9.3929467    469.03237 0.0089441718 0.0071645473         3964 
 4371000   0.55387058   -9.3863531     468.9512 0.0089405781 0.0071616582         3964 
 4372000   0.55411376   -9.3805398    469.30381  0.008945254 0.0071587713         3964 
 4373000   0.54611598   -9.3938624    468.83779 0.0089343279 0.0071558892         3967 
 4374000    0.5402875   -9.4027078    468.34011 0.0089228035 0.0071530049         3964 
 4375000   0.54754441   -9.3921118    468.71221 0.0089278516 0.0071501233         3964 
 4376000   0.55729364   -9.4058894     469.0998 0.0089331924 0.0071472443         3964 
 4377000   0.56147672   -9.4132567    468.76633 0.0089248025 0.0071443667         3967 
 4378000   0.55932398   -9.4035266    469.08471 0.0089288243 0.0071414897         3962 
 4379000   0.55152646    -9.400423    469.23603  0.008929665 0.0071386141         3965 
 4380000   0.54841137   -9.3901522    468.81873 0.0089196866 0.0071357388         3963 
 4381000   0.54967698   -9.3937286    469.05879  0.008922217 0.0071328634         3961 
 4382000   0.53726339   -9.3758499    468.89687 0.0089171016 0.0071299931         3952 
 4383000   0.54168988   -9.3862451    468.77862 0.0089128188 0.0071271227         3966 
 4384000     0.549493   -9.3903353    468.01585 0.0088962866  0.007124252         3971 
 4385000   0.56311297   -9.3999455    469.08928 0.0089146575 0.0071213851         3959 
 4386000    0.5399573   -9.3886871    468.70882 0.0089053964  0.007118522         3960 
 4387000   0.55237225   -9.3832519    468.75826 0.0089043054 0.0071156595         3968 
 4388000   0.53169064   -9.3669613    468.70517 0.0089012681 0.0071127976         3962 
 4389000   0.55439619   -9.3916424    469.19855 0.0089086077 0.0071099345         3965 
 4390000   0.54921669    -9.380351    469.21234 0.0089068402 0.0071070758         3969 
 4391000   0.55388782   -9.3981228    468.73516 0.0088957557 0.0071042175         3955 
 4392000    0.5468391   -9.4069563    469.21995 0.0089029285  0.007101362         3966 
 4393000   0.54655336   -9.3834846     468.6886 0.0088908226 0.0070985092         3949 
 4394000   0.55380198   -9.3846279    468.77551 0.0088904474 0.0070956563         3961 
 4395000   0.56175456   -9.3846961    469.38825 0.0089000426  0.007092806         3957 
 4396000   0.55391699   -9.3881149    468.69334 0.0088848449 0.0070899571         3966 
 4397000   0.55142343   -9.4036022    468.27958 0.0088749825 0.0070871066         3961 
 4398000   0.54563216   -9.4006713    468.65687 0.0088801134 0.0070842587         3958 
 4399000   0.56281685   -9.3978814      468.647 0.0088779078 0.0070814129         3955 
 4400000   0.54341752    -9.387854    469.69234 0.0088956883 0.0070785678         3957 
 4401000   0.54182542   -9.3792628    468.44069 0.0088699668 0.0070757265         3944 
 4402000   0.55952221   -9.3926359    468.91781 0.0088769841 0.0070728854         3960 
 4403000   0.54828747   -9.3836497    469.51262 0.0088862256 0.0070700477         3965 
 4404000   0.54645683   -9.3796481     468.8225 0.0088711493 0.0070672086         3963 
 4405000   0.54188255   -9.4103547    468.22965   0.00885792 0.0070643697         3956 
 4406000   0.53975186   -9.4184925    468.69061  0.008864628 0.0070615351         3961 
 4407000   0.54450355   -9.3969937    468.86975 0.0088660038 0.0070587019         3955 
 4408000   0.53963198    -9.397213    468.92922 0.0088651168 0.0070558718         3969 
 4409000   0.53515986   -9.3995702    469.13558 0.0088670065 0.0070530421         3956 
 4410000   0.54633875   -9.4051003    469.02261  0.008862861 0.0070502144         3970 
 4411000   0.54628599   -9.3879482    468.05178 0.0088425108  0.007047386         3963 
 4412000   0.54539464   -9.3921239    468.83507 0.0088553013 0.0070445591         3963 
 4413000   0.52220951   -9.3990439      467.767 0.0088331256 0.0070417341         3952 
 4414000   0.54632949   -9.3996732    468.77913 0.0088502327 0.0070389111         3970 
 4415000   0.54444207   -9.3997228    469.03001 0.0088529635 0.0070360928         3972 
 4416000    0.5529639   -9.3819584    468.81142 0.0088468338 0.0070332739         3949 
 4417000   0.55008985   -9.3815766    469.61436 0.0088599796 0.0070304581         3961 
 4418000   0.54273686   -9.3860113    468.52092 0.0088373495 0.0070276412         3969 
 4419000   0.55337351   -9.4044107    469.16491  0.008847494 0.0070248266         3970 
 4420000   0.54781052   -9.4037814     467.6274 0.0088165045 0.0070220143         3960 
 4421000   0.54748051   -9.4051308    468.79797 0.0088365749 0.0070192028         3957 
 4422000   0.55127897   -9.3927737    468.57151 0.0088303088 0.0070163925         3969 
 4423000   0.54349906   -9.3961513    469.17167 0.0088396201 0.0070135826         3953 
 4424000   0.54356565   -9.4031102    468.25493 0.0088203536 0.0070107736         3963 
 4425000   0.53606039   -9.3953453    469.29993 0.0088380401 0.0070079674         3956 
 4426000   0.55040063   -9.3942544    469.01825 0.0088307397 0.0070051624         3959 
 4427000   0.55457235   -9.3998534    468.64401 0.0088217003 0.0070023581         3964 
 4428000   0.54854709   -9.4040113    468.39384 0.0088149999 0.0069995559         3971 
 4429000   0.52930008   -9.3962196    468.67106 0.0088182257 0.0069967566         3971 
 4430000   0.55176888    -9.423712    467.82689 0.0088003553 0.0069939573         3955 
 4431000   0.53714888   -9.4048412      469.247 0.0088250771 0.0069911627         3962 
 4432000   0.54835137   -9.4078421    468.83615 0.0088153609 0.0069883674         3956 
 4433000   0.53963961   -9.4153732    468.82668 0.0088131943  0.006985573         3966 
 4434000   0.55223353   -9.3843174    469.23748 0.0088189272 0.0069827808         3958 
 4435000   0.53827137   -9.4090757    468.60434 0.0088050421 0.0069799885         3970 
 4436000   0.54173488   -9.4084942    468.43494 0.0087998748 0.0069771967         3964 
 4437000   0.54064797   -9.4144903    467.85811 0.0087870578 0.0069744083         3968 
 4438000   0.53866704   -9.4125877    468.02288 0.0087881718  0.006971621         3968 
 4439000   0.54316945   -9.3890037     467.8765  0.008783444 0.0069688361         3960 
 4440000   0.53309085   -9.4038376    469.32394 0.0088086325 0.0069660526         3952 
 4441000   0.54781815   -9.4010711    469.51549 0.0088102434 0.0069632726         3960 
 4442000   0.53221096   -9.4082887    467.85643 0.0087771354 0.0069604934         3974 
 4443000   0.54296958   -9.4141868    467.64306 0.0087711579 0.0069577149         3954 
 4444000   0.54564605   -9.3930405    468.09643 0.0087776858 0.0069549382         3953 
 4445000   0.54141918     -9.39308    469.46472 0.0088013634  0.006952165         3961 
 4446000    0.5440734   -9.3923418    468.61642 0.0087834837 0.0069493923         3955 
 4447000   0.55162285    -9.389447    468.97237 0.0087881788 0.0069466208         3951 
 4448000   0.52775321   -9.4173335    468.56259 0.0087785257 0.0069438471         3947 
 4449000    0.5401199   -9.4029788    468.90413 0.0087829498  0.006941079         3956 
 4450000   0.53726183   -9.4034777    468.27235 0.0087691451  0.006938312         3964 
 4451000   0.53197853   -9.4061659    468.73404  0.008775819 0.0069355476         3962 
 4452000   0.53770724   -9.4063445     468.8613 0.0087762298 0.0069327833         3965 
 4453000   0.54010098   -9.4057594    468.46667 0.0087668739 0.0069300208         3960 
 4454000   0.52365065   -9.4137133     468.7903 0.0087709605 0.0069272601         3968 
 4455000   0.52635257   -9.4002544    469.06487 0.0087741278    0.0069245         3967 
 4456000   0.54006942   -9.3947385    468.18282 0.0087556632  0.006921742         3966 
 4457000   0.53485916   -9.3977514    468.50967 0.0087598099 0.0069189845         3966 
 4458000    0.5354779   -9.3786646    468.53204 0.0087582631 0.0069162282         3970 
 4459000   0.53326107   -9.4124176    468.80628  0.008761424 0.0069134733         3962 
 4460000   0.53761028   -9.4045995    468.42655 0.0087523645 0.0069107213         3964 
 4461000   0.53226336   -9.3973069    468.51445 0.0087520445 0.0069079705         3968 
 4462000   0.54366157   -9.4066731    468.72703 0.0087540533 0.0069052211         3960 
 4463000   0.52628057   -9.4047045    467.77386 0.0087342942 0.0069024719         3973 
 4464000   0.52290762   -9.4119723    468.39592 0.0087439501 0.0068997232         3957 
 4465000   0.52091662   -9.4106847    467.94128 0.0087335066 0.0068969769         3957 
 4466000   0.53882526   -9.4289558    467.76711  0.008728301 0.0068942298         3962 
 4467000   0.52953934   -9.4086698    468.28474 0.0087360037  0.006891486         3965 
 4468000    0.5276703   -9.4057449    467.95981 0.0087279881  0.006888744         3969 
 4469000   0.53979162   -9.3987021    469.49151 0.0087545966 0.0068860045         3971 
 4470000   0.54761396   -9.4161137    468.40982 0.0087324725 0.0068832657         3967 
 4471000   0.52892862   -9.4171854     468.3578 0.0087295497 0.0068805275         3968 
 4472000   0.54325483   -9.4059436    468.06631 0.0087221658 0.0068777902         3973 
 4473000    0.5358001   -9.3964945     468.6129 0.0087303991 0.0068750572         3963 
 4474000   0.53986246   -9.4141101    468.79497  0.008731839 0.0068723252         3958 
 4475000   0.53730829   -9.4157216    467.64106 0.0087083996 0.0068695938         3964 
 4476000   0.53702785   -9.4142957    467.73319 0.0087081693 0.0068668624         3968 
 4477000   0.52673073   -9.4102853    468.50624 0.0087206135 0.0068641363         3959 
 4478000   0.53296825   -9.4183249    468.66139 0.0087215533 0.0068614099         3968 
 4479000    0.5417694   -9.4131478    468.03354 0.0087079247 0.0068586857         3960 
 4480000   0.54170124   -9.3971844    468.10395 0.0087072908 0.0068559628         3965 
 4481000    0.5199516   -9.4100679    468.47864 0.0087123157 0.0068532404         3970 
 4482000   0.53441342    -9.402937    468.27789 0.0087066393 0.0068505205         3964 
 4483000   0.54036881   -9.4277511    468.82271 0.0087148246 0.0068478002         3960 
 4484000   0.53486158    -9.418492    468.52634 0.0087073732 0.0068450822         3976 
 4485000   0.53332078   -9.4211719    469.32029 0.0087201837 0.0068423651         3958 
 4486000   0.52509471   -9.4285941    468.54796 0.0087038928 0.0068396509         3960 
 4487000   0.54241455   -9.4176466      468.605 0.0087030124  0.006836937         3967 
 4488000   0.53358512   -9.4220361    467.92852 0.0086885123 0.0068342243         3969 
 4489000   0.53484687    -9.424576    469.18316 0.0087098679 0.0068315155         3965 
 4490000   0.52901547   -9.4279077    468.81697 0.0087011317 0.0068288061         3973 
 4491000   0.54135884   -9.4182027    468.26404 0.0086889341 0.0068260946         3961 
 4492000    0.5260895   -9.4077651    467.99261 0.0086819645 0.0068233895         3956 
 4493000   0.53277038   -9.4041317    469.04183 0.0086994924 0.0068206856         3970 
 4494000   0.52896066   -9.4107364     468.6811 0.0086908674 0.0068179809         3966 
 4495000   0.53621449   -9.4318379    468.30093 0.0086818859 0.0068152791         3970 
 4496000   0.53850817   -9.4190572    467.54247  0.008665897 0.0068125779         3971 
 4497000    0.5318117   -9.4268138    468.16707 0.0086755442 0.0068098778         3973 
 4498000   0.52492228   -9.4264327    468.13337 0.0086729911 0.0068071803         3968 
 4499000   0.53625084   -9.4040662     468.8598 0.0086845189 0.0068044857         3975 
 4500000   0.53860779    -9.416573    468.58847 0.0086775643 0.0068017924         3960 
 4501000   0.53129518   -9.4276564    468.90972 0.0086815842 0.0067991002         3962 
 4502000   0.53525207   -9.4108536    467.60519 0.0086555086  0.006796408         3960 
 4503000   0.52141081   -9.4130677    468.11159 0.0086629578 0.0067937196         3956 
 4504000   0.52330465   -9.4191764    467.90092 0.0086571366 0.0067910303         3964 
 4505000    0.5378867     -9.42314     467.6466 0.0086505105 0.0067883441         3973 
 4506000   0.53101813    -9.429716    468.27435 0.0086602003 0.0067856578         3972 
 4507000   0.53397421   -9.4060773    468.92864 0.0086703764 0.0067829741         3973 
 4508000   0.54277688   -9.4241547    468.21297 0.0086552235 0.0067802907         3962 
 4509000   0.53293164   -9.4205364    467.85529 0.0086466934 0.0067776092         3964 
 4510000   0.53402073   -9.4223362    468.43855 0.0086555534 0.0067749296         3957 
 4511000     0.522845   -9.4261901    468.71611 0.0086587621 0.0067722541         3954 
 4512000   0.52761676   -9.4229589    467.93166 0.0086423548 0.0067695781         3969 
 4513000   0.53088335   -9.4066899    468.95178 0.0086592766 0.0067669014         3968 
 4514000    0.5148341   -9.4207184    468.03473 0.0086404285 0.0067642261         3972 
 4515000   0.52480286   -9.4201482     467.8427 0.0086349704  0.006761552         3967 
 4516000   0.53127597   -9.4167147    468.53508 0.0086458348   0.00675888         3971 
 4517000   0.53645437   -9.4204976    468.13758 0.0086365873 0.0067562097         3971 
 4518000   0.52165561   -9.4349157    468.00678 0.0086322631 0.0067535404         3963 
 4519000   0.51808348   -9.4149716    467.87369 0.0086278987  0.006750873         3957 
 4520000   0.51286833   -9.4222645    469.04303 0.0086475484 0.0067482074         3962 
 4521000   0.52792504   -9.4293985    468.22141 0.0086304912 0.0067455421         3970 
 4522000   0.52977141   -9.4278579    468.54939 0.0086346268 0.0067428794         3967 
 4523000   0.53386138   -9.4441833    467.71176  0.008617285 0.0067402168         3975 
 4524000   0.52104612   -9.4119774    468.85573 0.0086364524 0.0067375561         3969 
 4525000   0.53188625   -9.4286259    468.26646 0.0086236916 0.0067348946         3970 
 4526000   0.53757067   -9.4201917    467.51256 0.0086079054 0.0067322384         3955 
 4527000   0.53707947   -9.4221261    468.42972 0.0086228871 0.0067295826         3968 
 4528000   0.53555749   -9.4045785    467.23941 0.0085990763 0.0067269291         3958 
 4529000   0.52698519   -9.4152493    468.42568  0.008619005 0.0067242779         3962 
 4530000    0.5391406   -9.4204512    468.82267 0.0086244053 0.0067216277         3967 
 4531000   0.53788028   -9.4208646    468.52859 0.0086170932 0.0067189791         3971 
 4532000   0.52021443    -9.423558     467.3455 0.0085934375 0.0067163304         3968 
 4533000   0.51662801   -9.4251134    468.18712 0.0086070137 0.0067136835         3978 
 4534000   0.53378616   -9.4108532    468.13626 0.0086041807  0.006711038         3971 
 4535000    0.5232997   -9.4175653    468.04837 0.0086006683 0.0067083947         3967 
 4536000   0.53221022   -9.4288296    468.74271 0.0086115284 0.0067057528         3954 
 4537000     0.520502   -9.4298335    467.79868 0.0085922907 0.0067031116         3961 
 4538000    0.5342336   -9.4321705    468.76141 0.0086080765 0.0067004714         3972 
 4539000   0.52296388   -9.4455604    467.32591  0.008579825  0.006697832         3965 
 4540000   0.51610727   -9.4169252    467.65229  0.008583926 0.0066951942         3960 
 4541000   0.53020902   -9.4286835     467.6407  0.008581823  0.006692558         3960 
 4542000   0.51838015   -9.4335079    467.70666 0.0085811438  0.006689925         3963 
 4543000   0.52110854   -9.4142591    468.19972 0.0085882992 0.0066872913         3952 
 4544000   0.53301803   -9.4227515    468.25849 0.0085874869 0.0066846608         3961 
 4545000   0.51914669   -9.4296528    468.03833 0.0085815609 0.0066820297         3961 
 4546000   0.52600378   -9.4289868    468.47313 0.0085876436 0.0066793993         3969 
 4547000   0.52502342   -9.4306448    468.19158 0.0085805949  0.006676771         3959 
 4548000   0.52452124   -9.4323044    468.83818 0.0085905558 0.0066741444         3965 
 4549000   0.50816532    -9.417403     467.4495 0.0085632283 0.0066715202         3961 
 4550000   0.52073594   -9.4104095    467.88157 0.0085692595 0.0066688973         3973 
 4551000   0.53866974    -9.431707    468.40132 0.0085768938 0.0066662748         3961 
 4552000   0.51597964   -9.4136637    468.59977 0.0085786425 0.0066636544         3971 
 4553000   0.52297654    -9.426246    468.27312 0.0085707797 0.0066610348         3966 
 4554000   0.52422382   -9.4007103    467.07257 0.0085469289 0.0066584145         3965 
 4555000   0.52154042    -9.424159     467.9997 0.0085620142 0.0066557999         3959 
 4556000   0.52315447   -9.4238717    468.38606 0.0085672019 0.0066531844         3963 
 4557000   0.52806039   -9.4277481    467.67872 0.0085523868 0.0066505718         3966 
 4558000    0.5267704    -9.446073    467.68669 0.0085506562 0.0066479592         3968 
 4559000   0.52594011   -9.4248202    468.41518 0.0085620966 0.0066453505         3969 
 4560000   0.52601713   -9.4314221    468.22844 0.0085568062 0.0066427406         3961 
 4561000   0.52969487   -9.4196417     467.8237 0.0085475354 0.0066401348         3970 
 4562000   0.52838797   -9.4346864    467.91647 0.0085473562 0.0066375296         3967 
 4563000   0.52314464   -9.4368658    467.77559 0.0085429102 0.0066349245         3964 
 4564000   0.51129856   -9.4277967    468.37855 0.0085520477 0.0066323212         3965 
 4565000   0.52663108   -9.4401562    468.57709 0.0085537987 0.0066297202         3970 
 4566000   0.53419698   -9.4330636    467.61109  0.008534295 0.0066271201         3967 
 4567000   0.54517644   -9.4351559    467.87152 0.0085371782 0.0066245211         3977 
 4568000   0.52961203   -9.4361463    468.01756 0.0085379737 0.0066219221         3960 
 4569000   0.51417092   -9.4417696    468.60684 0.0085468528 0.0066193244         3968 
 4570000   0.52813441   -9.4266277    467.39304 0.0085228489 0.0066167278         3957 
 4571000   0.52461881   -9.4085388    467.98836 0.0085318377 0.0066141328         3960 
 4572000   0.53422293   -9.4428544    467.94188 0.0085291244 0.0066115389         3968 
 4573000   0.52973749   -9.4225178     468.1324 0.0085307312 0.0066089469         3957 
 4574000   0.52183113   -9.4260487     468.3285 0.0085324387  0.006606357         3973 
 4575000   0.52206861   -9.4343422    468.29379 0.0085299415 0.0066037679         3965 
 4576000    0.5124867   -9.4319068    467.60583 0.0085155491 0.0066011813         3960 
 4577000   0.51126968   -9.4522736    468.20969  0.008524683 0.0065985955         3973 
 4578000     0.510104    -9.433675    467.93134 0.0085177542 0.0065960101         3967 
 4579000   0.52486928    -9.435219     467.5729 0.0085093706 0.0065934268         3964 
 4580000   0.52634887   -9.4272562    468.32267 0.0085211549  0.006590845         3959 
 4581000   0.50659348   -9.4143784    468.26293 0.0085182079 0.0065882636         3967 
 4582000   0.51781299    -9.449672    468.10571 0.0085134896 0.0065856836         3957 
 4583000   0.51733319   -9.4344865    467.24585 0.0084959969  0.006583105         3973 
 4584000   0.52798655   -9.4249271    468.02856 0.0085083726 0.0065805297         3966 
 4585000   0.52025764   -9.4346308    467.42117 0.0084954775 0.0065779551         3969 
 4586000    0.5144699    -9.423333    468.21144 0.0085079851 0.0065753804         3970 
 4587000   0.52172242   -9.4219127    467.85099  0.008499582 0.0065728069         3970 
 4588000   0.51663713   -9.4296426    467.16535 0.0084852759 0.0065702344         3959 
 4589000   0.50955753   -9.4307589    467.50448 0.0084895852 0.0065676654         3958 
 4590000   0.50899178    -9.445605    467.61946 0.0084898233 0.0065650967         3973 
 4591000   0.51190451   -9.4386617    467.44968 0.0084848921 0.0065625287         3978 
 4592000   0.52252393   -9.4444921     468.0092 0.0084931983 0.0065599633         3957 
 4593000   0.52105491   -9.4359997    467.49624 0.0084820423 0.0065573993         3958 
 4594000   0.52035428   -9.4480373    468.06453 0.0084905045 0.0065548365         3969 
 4595000    0.5270843   -9.4221437    467.65333 0.0084811992 0.0065522745         3968 
 4596000   0.51659406   -9.4391873    468.68938 0.0084981393 0.0065497132         3956 
 4597000   0.51773233   -9.4236074    468.42568 0.0084915104 0.0065471532         3956 
 4598000   0.51972077    -9.458144    467.11295 0.0084658719 0.0065445948         3958 
 4599000   0.51908563    -9.445654    467.61899 0.0084732005 0.0065420361         3961 
 4600000   0.51582783   -9.4347432    467.76601 0.0084740218 0.0065394787         3963 
 4601000    0.5106305   -9.4298084    467.16164 0.0084612338 0.0065369263         3967 
 4602000   0.52684296   -9.4398961    467.87758 0.0084723595  0.006534375         3956 
 4603000   0.51367022   -9.4327194    467.13386 0.0084570544 0.0065318234         3962 
 4604000   0.52243474   -9.4358192    467.50162  0.008461874 0.0065292693         3969 
 4605000   0.51624043   -9.4489346    467.53105 0.0084605691 0.0065267208         3965 
 4606000   0.50261533   -9.4269954    467.80271 0.0084636473 0.0065241734         3964 
 4607000   0.51450802   -9.4340996    467.49998 0.0084563342 0.0065216262         3969 
 4608000    0.5091704   -9.4394944    467.79497 0.0084598338 0.0065190784         3971 
 4609000   0.50944958   -9.4530192    467.05637  0.008444644 0.0065165355         3966 
 4610000   0.51245065   -9.4539255    468.45149 0.0084680313 0.0065139927         3968 
 4611000   0.50344743   -9.4362177    467.78232  0.008454101 0.0065114519         3972 
 4612000   0.51215991   -9.4503955    468.01431 0.0084564597 0.0065089124         3962 
 4613000   0.51285351    -9.434967    466.90288 0.0084345487 0.0065063719         3977 
 4614000   0.52545281   -9.4342803     467.6369 0.0084459778  0.006503836         3960 
 4615000   0.51888389   -9.4515946    467.48286 0.0084413661 0.0065012992         3962 
 4616000   0.50347211   -9.4479702    467.45424 0.0084390208 0.0064987648         3972 
 4617000    0.5131599   -9.4443111    467.02999 0.0084295357 0.0064962313         3966 
 4618000   0.52183307   -9.4342014    467.28293 0.0084322747 0.0064936999         3968 
 4619000   0.49612268   -9.4413642    466.93601 0.0084241901   0.00649117         3973 
 4620000    0.5093582   -9.4405211    467.84754 0.0084388084 0.0064886426         3978 
 4621000   0.51770126   -9.4508816    467.60807 0.0084326637 0.0064861147         3965 
 4622000   0.50879315   -9.4413258    467.22682 0.0084239655 0.0064835899         3962 
 4623000    0.5072326   -9.4453027    467.56333 0.0084282092 0.0064810669         3961 
 4624000   0.50240531   -9.4256712    468.24214   0.00843862  0.006478544         3966 
 4625000   0.50242936   -9.4351496    467.70103 0.0084270455  0.006476021         3963 
 4626000   0.50158605   -9.4610647    467.74713 0.0084260544 0.0064734983         3961 
 4627000     0.509334   -9.4601441    467.10519 0.0084126717 0.0064709789         3963 
 4628000    0.5125486   -9.4358848    467.84908 0.0084242488 0.0064684592         3957 
 4629000   0.49788047   -9.4420745    467.26193 0.0084118587  0.006465943         3945 
 4630000   0.51461371   -9.4565673    467.31377 0.0084109749 0.0064634287         3966 
 4631000   0.51108621   -9.4502747    468.03481 0.0084221337 0.0064609177         3964 
 4632000   0.51879175   -9.4452823    467.86162 0.0084171995 0.0064584041         3974 
 4633000   0.51675986    -9.441154    467.80414 0.0084143489 0.0064558928         3970 
 4634000   0.51556094   -9.4606939     467.5344 0.0084076823 0.0064533813         3961 
 4635000   0.51555875    -9.440729    468.23902 0.0084185369 0.0064508728         3972 
 4636000   0.50872593    -9.449124    467.48461 0.0084031602 0.0064483654         3957 
 4637000   0.50677419   -9.4415084    467.48681 0.0084013876 0.0064458587         3969 
 4638000   0.50363075   -9.4465019    467.43709 0.0083986829  0.006443354         3962 
 4639000   0.50884867   -9.4530005    467.65511 0.0084007888  0.006440851         3968 
 4640000   0.51434547   -9.4608126    467.23485 0.0083914305 0.0064383494         3967 
 4641000   0.50250707   -9.4444171    467.83509 0.0084004003 0.0064358503         3959 
 4642000   0.50850002   -9.4375986    467.64058 0.0083950987 0.0064333529         3965 
 4643000   0.50590323   -9.4350584    467.51722 0.0083910765 0.0064308546         3967 
 4644000   0.50271051   -9.4376126    467.98489 0.0083976616 0.0064283584         3960 
 4645000   0.50990761   -9.4499655    468.46864 0.0084045325 0.0064258639         3952 
 4646000   0.49790242   -9.4331051    467.31041 0.0083819487 0.0064233697         3968 
 4647000   0.51684242   -9.4396548    468.57428 0.0084028097 0.0064208787         3972 
 4648000   0.51445207    -9.449611    467.53473 0.0083823639 0.0064183874         3960 
 4649000   0.51547343   -9.4526351    467.48155 0.0083796076 0.0064158985         3968 
 4650000   0.51523555   -9.4502374    467.30809 0.0083746969 0.0064134092         3966 
 4651000   0.51878154   -9.4556855      467.239 0.0083716584 0.0064109227         3963 
 4652000   0.50803604   -9.4703224    467.09448 0.0083672701 0.0064084371         3970 
 4653000   0.50775221   -9.4616276    467.68605 0.0083760666 0.0064059532         3970 
 4654000   0.50474176   -9.4537931    467.54421 0.0083717271 0.0064034683         3975 
 4655000   0.49973548    -9.456533    467.72166 0.0083731052 0.0064009855         3967 
 4656000   0.50849158   -9.4567157    467.45163 0.0083664738 0.0063985049         3964 
 4657000   0.51670128   -9.4482143    467.42807 0.0083642557 0.0063960266         3960 
 4658000   0.50580523    -9.437287    467.12306 0.0083570034 0.0063935503         3967 
 4659000   0.50288351   -9.4533574     468.0391 0.0083715945 0.0063910731         3960 
 4660000   0.50149706   -9.4486452    467.99438 0.0083689982 0.0063885955         3957 
 4661000   0.50639169    -9.444642    467.33445 0.0083554038  0.006386119         3967 
 4662000   0.51037089   -9.4570118    467.06026 0.0083487106 0.0063836466         3970 
 4663000   0.49820853   -9.4618338    467.32051  0.008351571 0.0063811766         3964 
 4664000   0.49898238   -9.4619483    467.01428 0.0083443088 0.0063787063         3963 
 4665000    0.5056942   -9.4577207    467.85692 0.0083575727 0.0063762368         3963 
 4666000   0.50355303   -9.4517193    467.03261 0.0083410596 0.0063737669         3962 
 4667000   0.50815125   -9.4393544    467.71261 0.0083514144 0.0063713005         3967 
 4668000   0.50903738   -9.4603146    467.65238 0.0083485501 0.0063688355         3966 
 4669000   0.50832459   -9.4527602    466.94146 0.0083340734  0.006366371         3961 
 4670000   0.50329185   -9.4526487    467.01301 0.0083335654 0.0063639082         3975 
 4671000    0.5148602   -9.4513969    466.78149 0.0083276509 0.0063614467         3952 
 4672000   0.49524445   -9.4502709    467.55442 0.0083396551  0.006358985         3965 
 4673000    0.5037871   -9.4685915     466.9572 0.0083272202 0.0063565243         3972 
 4674000   0.49932248   -9.4461545    466.88271 0.0083241105 0.0063540648         3956 
 4675000   0.50858007   -9.4582338    467.64457 0.0083359103 0.0063516076         3968 
 4676000   0.51269361   -9.4549151    467.81969 0.0083372486 0.0063491506         3970 
 4677000   0.49626645    -9.467966    467.12933 0.0083231654 0.0063466964         3968 
 4678000   0.51115303   -9.4584573     467.4451 0.0083270111 0.0063442405         3975 
 4679000   0.51718817   -9.4549229    467.38964 0.0083242438 0.0063417888         3970 
 4680000   0.50646118   -9.4471257    467.33243 0.0083214465 0.0063393376         3970 
 4681000   0.50808122   -9.4722659    467.30756  0.008319226 0.0063368886         3964 
 4682000   0.50388027   -9.4651462    466.86066 0.0083094948 0.0063344409         3960 
 4683000   0.49642403   -9.4625207    467.39008 0.0083171414 0.0063319951         3958 
 4684000   0.50726294    -9.458048    466.68633 0.0083028454 0.0063295495         3968 
 4685000    0.5061309    -9.470458    467.26433 0.0083113542 0.0063271049         3966 
 4686000   0.51082412    -9.475207    467.21897 0.0083087739 0.0063246614         3967 
 4687000    0.5023653   -9.4546361    466.81515 0.0082998213 0.0063222205         3970 
 4688000    0.5089651   -9.4688356    467.13287 0.0083036987 0.0063197793         3966 
 4689000   0.49988316   -9.4797682    466.84636 0.0082968359 0.0063173388         3974 
 4690000   0.50076411   -9.4631175    467.75758 0.0083112577 0.0063148997         3964 
 4691000   0.49551091   -9.4612803    467.62914 0.0083072042 0.0063124626         3956 
 4692000   0.50604277   -9.4626668    467.51999 0.0083034952 0.0063100254         3970 
 4693000   0.50902538   -9.4726086    467.90689 0.0083085959 0.0063075911         3965 
 4694000   0.49837875    -9.460511    466.86653 0.0082883563 0.0063051578         3969 
 4695000   0.50292617   -9.4717403    466.80553 0.0082855081 0.0063027266         3966 
 4696000   0.50123026   -9.4716139    467.05548 0.0082881794 0.0063002969         3960 
 4697000   0.49114212   -9.4835317    467.59546  0.008295995 0.0062978674         3967 
 4698000   0.50314044    -9.467324    467.88135 0.0082993002   0.00629544         3968 
 4699000   0.49864869    -9.459012    467.58618 0.0082922994  0.006293012         3961 
 4700000   0.50340366   -9.4820878    467.32723 0.0082859438 0.0062905864         3971 
 4701000    0.4962463   -9.4384648    467.48094  0.008286906 0.0062881615         3963 
 4702000   0.49816708    -9.455649    467.58176 0.0082869305 0.0062857397         3960 
 4703000   0.49238463   -9.4535673    467.92111 0.0082911814 0.0062833166         3965 
 4704000   0.49775153   -9.4918688    466.46641 0.0082636482 0.0062808968         3960 
 4705000   0.48296559   -9.4671451    466.82052 0.0082681637 0.0062784764         3977 
 4706000   0.50497962     -9.46287    466.77172 0.0082655425 0.0062760577         3957 
 4707000   0.49691624    -9.483305    467.49868 0.0082766568 0.0062736418         3968 
 4708000   0.49008891   -9.4685379    466.30103 0.0082536999 0.0062712273         3964 
 4709000   0.49673492   -9.4664703    466.97573 0.0082638871 0.0062688127         3973 
 4710000   0.49541364   -9.4682454    467.55638 0.0082724059 0.0062663996         3960 
 4711000   0.49194556   -9.4647893    467.18407  0.008264064 0.0062639886         3964 
 4712000   0.49266981   -9.4527116    466.92851 0.0082577906 0.0062615793         3974 
 4713000     0.494569   -9.4639421    466.88666 0.0082552985 0.0062591688         3968 
 4714000   0.51091815   -9.4760382    466.99071 0.0082553866 0.0062567619         3973 
 4715000   0.50301738   -9.4746589    467.16554 0.0082567257  0.006254355         3974 
 4716000   0.49129396   -9.4650162    467.22873 0.0082560915 0.0062519496         3972 
 4717000   0.49009103   -9.4658058    467.36596 0.0082567656 0.0062495465         3961 
 4718000   0.49820142   -9.4658014    466.48165 0.0082393962 0.0062471449         3967 
 4719000   0.48078078   -9.4797848    466.78027 0.0082429234 0.0062447424         3953 
 4720000   0.49646279   -9.4597454    467.07067 0.0082463042 0.0062423416         3975 
 4721000   0.50021406   -9.4585978    467.41876 0.0082507018  0.006239944         3971 
 4722000   0.48801819   -9.4699294    466.82977 0.0082385601 0.0062375471         3973 
 4723000   0.50637006    -9.460415    466.20212 0.0082257414 0.0062351512         3960 
 4724000   0.49467295   -9.4682276    466.68636 0.0082325423 0.0062327573         3972 
 4725000   0.50289853   -9.4677106    466.99813 0.0082362986 0.0062303614         3963 
 4726000   0.48844212   -9.4701903    467.29077  0.008239716   0.00622797         3966 
 4727000   0.48813669    -9.452096    466.40397 0.0082223392 0.0062255783         3974 
 4728000   0.49760294   -9.4558887    466.66622 0.0082252224 0.0062231873         3971 
 4729000   0.49795592   -9.4647711    467.55471 0.0082391399 0.0062207999         3975 
 4730000   0.49712809   -9.4829738    466.48757 0.0082185971 0.0062184128         3976 
 4731000   0.50091679   -9.4717116     466.7372  0.008221257 0.0062160271         3968 
 4732000   0.49970122   -9.4641217    467.01039 0.0082243306 0.0062136415         3967 
 4733000   0.50785911   -9.4642318    466.28638 0.0082098455 0.0062112576         3966 
 4734000   0.49822431   -9.4746778    467.38066  0.008227374 0.0062088752         3971 
 4735000   0.48802168   -9.4751715    466.92284  0.008217579 0.0062064941         3968 
 4736000   0.49663631   -9.4638649    466.63789   0.00821083 0.0062041136         3963 
 4737000   0.50422226    -9.468975    467.19223 0.0082188486 0.0062017342         3971 
 4738000   0.48906157   -9.4579202    467.08328 0.0082151977 0.0061993552         3971 
 4739000   0.50160793   -9.4779498    467.12098 0.0082141271 0.0061969773         3968 
 4740000   0.50762027   -9.4713541    467.84018 0.0082250383 0.0061946025         3970 
 4741000   0.48992687   -9.4783862    466.99111 0.0082083792 0.0061922287         3969 
 4742000   0.50113533   -9.4697708    467.03696  0.008207454  0.006189854         3963 
 4743000   0.50282148   -9.4551043    467.08855   0.00820663 0.0061874838         3966 
 4744000   0.50282364   -9.4746322    466.65133 0.0081972198 0.0061851137         3967 
 4745000   0.49099135   -9.4701559    467.22411 0.0082055516 0.0061827447         3971 
 4746000   0.50686847   -9.4875572    466.98318 0.0081995922 0.0061803783         3970 
 4747000   0.48914895   -9.4661034    467.11543 0.0082001867 0.0061780099         3968 
 4748000   0.49045312   -9.4670366    466.59946 0.0081894035 0.0061756457         3961 
 4749000   0.49888999    -9.486887    467.40261 0.0082017725 0.0061732802         3970 
 4750000   0.49319315   -9.4901422    467.18197  0.008196175 0.0061709178         3964 
 4751000   0.49124095    -9.482986    466.49475 0.0081823958 0.0061685565         3967 
 4752000   0.48670546   -9.4741599    466.39425 0.0081789115  0.006166194         3970 
 4753000   0.50276491   -9.4786091    466.12568  0.008172482  0.006163835         3965 
 4754000   0.49978596   -9.4778288    467.03304  0.008186668 0.0061614765         3962 
 4755000   0.48168561   -9.4829378    467.00198  0.008184402  0.006159121         3970 
 4756000   0.48192299   -9.4717433    467.59585 0.0081930868 0.0061567655         3964 
 4757000   0.48606687   -9.4717174    467.04139 0.0081816515 0.0061544113         3968 
 4758000   0.49283556   -9.4584268    467.22937 0.0081832242 0.0061520598         3962 
 4759000   0.48841333    -9.484952     467.4026 0.0081845381 0.0061497075         3972 
 4760000   0.49079629   -9.4771865    466.57192  0.008168276 0.0061473565         3969 
 4761000   0.49570486   -9.4711838     466.0949 0.0081582109 0.0061450071         3968 
 4762000    0.4912362   -9.4865058    466.55982 0.0081646336 0.0061426588         3963 
 4763000   0.49061624   -9.4807234    467.64824 0.0081819623 0.0061403111         3964 
 4764000   0.48667046   -9.4731444    466.72456 0.0081640877 0.0061379659         3975 
 4765000   0.48318883   -9.4768211    466.51619 0.0081587301 0.0061356194         3952 
 4766000   0.48247659   -9.4912779    466.89708 0.0081636781 0.0061332758         3968 
 4767000   0.48465612    -9.486477    467.24659 0.0081680755 0.0061309332         3974 
 4768000   0.47792554   -9.4769287    466.77506 0.0081581212 0.0061285917         3968 
 4769000   0.48635139   -9.4880954    466.85376 0.0081577857 0.0061262517         3970 
 4770000   0.49407743   -9.4802718    466.73814 0.0081540555 0.0061239133         3957 
 4771000   0.48007001   -9.5013293    466.23336 0.0081435296 0.0061215745         3969 
 4772000   0.48905463   -9.4958829    466.00764 0.0081378814 0.0061192377         3969 
 4773000   0.48133334   -9.4931688     466.8129 0.0081502357 0.0061169032         3971 
 4774000   0.48535844   -9.4917558    467.29619 0.0081569647 0.0061145692         3967 
 4775000   0.48971724   -9.4854126    466.83601 0.0081472254 0.0061122355         3967 
 4776000   0.48356511   -9.4855317    466.77694 0.0081444887 0.0061099048         3966 
 4777000   0.47681259   -9.4708978    466.24174 0.0081334475 0.0061075761         3965 
 4778000   0.48223892   -9.4637353    467.12439 0.0081471395 0.0061052476         3965 
 4779000   0.49445747   -9.4737283    466.50897 0.0081347035 0.0061029204         3956 
 4780000   0.48412193   -9.4599435    466.95118  0.008140711  0.006100595         3970 
 4781000   0.49923913   -9.4792897    466.48527 0.0081308873 0.0060982696         3966 
 4782000   0.48966192   -9.4757919    466.54851  0.008130289 0.0060959469         3968 
 4783000   0.50238602   -9.4844907    466.49512 0.0081276591  0.006093624         3963 
 4784000     0.488108   -9.4880301    465.80672 0.0081139688 0.0060913021         3974 
 4785000    0.4849638   -9.5000619    466.07255 0.0081169026 0.0060889815         3971 
 4786000   0.48496369   -9.4906932    466.73015 0.0081266567 0.0060866598         3966 
 4787000   0.48671344   -9.4881955     466.8489 0.0081270264 0.0060843427         3969 
 4788000   0.49356394   -9.4903957    466.78592 0.0081242328 0.0060820254         3957 
 4789000   0.48274087   -9.4974288    467.88422 0.0081416479 0.0060797092         3967 
 4790000   0.47205913   -9.4768745    466.54413 0.0081166341 0.0060773948         3973 
 4791000   0.48072373   -9.4899132    466.84938 0.0081202494 0.0060750817         3971 
 4792000   0.48656679   -9.4839969     467.0902 0.0081227427   0.00607277         3965 
 4793000   0.48657522   -9.4762217    467.24635 0.0081237629 0.0060704592         3971 
 4794000   0.48813111   -9.4860628    466.72198 0.0081129533 0.0060681484         3966 
 4795000   0.49668736   -9.4923562    466.55057 0.0081082824 0.0060658398         3967 
 4796000   0.47426873   -9.4802602    467.03064 0.0081149334 0.0060635319         3959 
 4797000   0.49678911   -9.4925771    466.91812  0.008111287 0.0060612263         3966 
 4798000   0.49823856   -9.4888893    466.63941 0.0081047556 0.0060589207         3967 
 4799000   0.49201062   -9.4998951    466.44171 0.0080996337 0.0060566166         3967 
 4800000    0.4940068   -9.4873277    466.44912 0.0080980749 0.0060543115         3963 
 4801000      0.48076   -9.5041267    466.96845 0.0081054025   0.00605201         3966 
 4802000   0.48070178   -9.4943387    466.66459 0.0080984415 0.0060497091         3959 
 4803000   0.49287875   -9.5035946    466.91012 0.0081010154 0.0060474091         3972 
 4804000   0.47759605   -9.4714803    467.88626 0.0081162617  0.006045112         3964 
 4805000   0.48037824    -9.479046    466.69085 0.0080938407 0.0060428149         3960 
 4806000   0.48394866   -9.4779428    467.13262 0.0080998165 0.0060405204         3963 
 4807000   0.48432586   -9.4963434    466.13491 0.0080808355 0.0060382254         3965 
 4808000   0.48082223   -9.4945696    466.32201 0.0080823975 0.0060359325         3967 
 4809000   0.48317516   -9.4795454    465.93806 0.0080740636 0.0060336409         3968 
 4810000   0.47815328    -9.497533    466.30147  0.008078681 0.0060313494         3973 
 4811000   0.48641825    -9.486452    466.89279 0.0080872443 0.0060290608         3972 
 4812000   0.48100025   -9.4816494    466.49855 0.0080787364 0.0060267713         3973 
 4813000   0.47510813   -9.4854539    465.99502 0.0080683396 0.0060244835         3974 
 4814000   0.48366134   -9.5007686    465.77033  0.008062774 0.0060221968         3965 
 4815000   0.48372046   -9.4725566    466.11848 0.0080671249 0.0060199124         3955 
 4816000   0.48245573   -9.4877263    466.51705 0.0080723465 0.0060176292         3975 
 4817000   0.47263373   -9.4999256    466.93847 0.0080779612 0.0060153452         3974 
 4818000   0.47741982   -9.4806318    466.51826 0.0080690165 0.0060130636         3967 
 4819000   0.48858077   -9.4806932    466.40735 0.0080654242 0.0060107829         3972 
 4820000   0.48334808   -9.4955361    466.80182 0.0080705708  0.006008505         3978 
 4821000   0.47450411    -9.506246    467.03976 0.0080730097 0.0060062262         3966 
 4822000   0.47972242   -9.4964769    466.14691 0.0080559054 0.0060039479         3973 
 4823000   0.46782198   -9.5011931    466.42413 0.0080590249 0.0060016704         3965 
 4824000   0.47598351   -9.4928477    466.91099 0.0080657648 0.0059993939         3976 
 4825000   0.47160273   -9.4935349     466.7727 0.0080617046 0.0059971181         3970 
 4826000   0.47460008   -9.4917763    466.48241 0.0080550216  0.005994847         3957 
 4827000   0.48655348   -9.4945796    466.74763 0.0080579316 0.0059925759         3965 
 4828000   0.47000408   -9.4975618    466.26836 0.0080479901 0.0059903054         3969 
 4829000   0.47719992   -9.5062964    466.20494 0.0080452292 0.0059880347         3960 
 4830000   0.48047246   -9.4762239     466.3099 0.0080453744 0.0059857664         3964 
 4831000   0.47395538   -9.4824862    466.05457 0.0080393047 0.0059834986         3964 
 4832000    0.4776017   -9.4809938    466.44119 0.0080443086 0.0059812314         3966 
 4833000   0.48255101    -9.482613    466.60845 0.0080455281 0.0059789665         3958 
 4834000   0.48841811   -9.4925179    466.64711 0.0080445303 0.0059767026         3964 
 4835000   0.47927127   -9.4911176    466.65703 0.0080430373 0.0059744404         3966 
 4836000   0.48434857   -9.4944169    466.08455 0.0080315094 0.0059721789         3972 
 4837000   0.47643176   -9.5147884    466.42313  0.008035682 0.0059699183         3974 
 4838000   0.46958089   -9.4896722     466.2535 0.0080310994 0.0059676589         3958 
 4839000   0.48321735   -9.5018163    466.56758 0.0080348485 0.0059654015         3968 
 4840000   0.46797217   -9.4925659    466.73025 0.0080359892 0.0059631471         3967 
 4841000   0.47887315   -9.4901779    466.64238 0.0080328165 0.0059608908         3968 
 4842000   0.48073966   -9.4921733    465.89419 0.0080182809 0.0059586367         3967 
 4843000   0.47694376   -9.4866327    465.94579  0.008017513 0.0059563817         3971 
 4844000   0.47902287   -9.5104603    466.07056 0.0080180044 0.0059541294         3974 
 4845000   0.48424119   -9.5057183    466.25536  0.008019528 0.0059518791         3975 
 4846000   0.47047564    -9.484709    467.14001 0.0080330858 0.0059496292         3975 
 4847000   0.47239802   -9.4839974    466.22688 0.0080157293 0.0059473803         3969 
 4848000    0.4844823   -9.4980399    466.19803 0.0080135799 0.0059451316         3973 
 4849000   0.48692312   -9.4964522    466.40355 0.0080154593 0.0059428856         3963 
 4850000   0.48772629   -9.5035588    465.92659 0.0080056115 0.0059406411         3971 
 4851000   0.48173581   -9.4974609    466.30673 0.0080104915 0.0059383962         3961 
 4852000   0.47247162    -9.492325    466.92154 0.0080193999  0.005936154         3966 
 4853000   0.47193283   -9.4973676    466.70794 0.0080140795 0.0059339109         3973 
 4854000   0.48548934   -9.5188797    466.44247 0.0080078709 0.0059316676         3959 
 4855000   0.47582492   -9.4952778    466.10024 0.0080003473 0.0059294282         3974 
 4856000   0.47763366   -9.5025196    465.55709  0.007989379 0.0059271896         3971 
 4857000   0.47883685   -9.5078757    466.64739 0.0080064408  0.005924952         3975 
 4858000   0.48239367   -9.4999902    467.03984 0.0080115247 0.0059227168         3969 
 4859000   0.47841713    -9.489743    466.22422 0.0079958878 0.0059204814         3980 
 4860000   0.46892401   -9.5014779     466.3423 0.0079962672 0.0059182471         3962 
 4861000   0.48461018   -9.5030152    465.62732 0.0079823651 0.0059160139         3957 
 4862000   0.46997995    -9.502765    466.29655 0.0079921937 0.0059137824         3960 
 4863000   0.47342601   -9.5060045    466.01756 0.0079857694 0.0059115531         3973 
 4864000   0.48321948   -9.4996588    465.98268 0.0079835301 0.0059093247         3969 
 4865000   0.46091056   -9.5046634    466.83845 0.0079965476  0.005907097         3963 
 4866000   0.47026577   -9.4956062    465.96401  0.007979929 0.0059048712         3957 
 4867000   0.47052881    -9.501192    466.28496 0.0079837847 0.0059026443         3972 
 4868000   0.46895037   -9.4940724    467.01709 0.0079946776  0.005900419         3969 
 4869000   0.47195459   -9.4954665     466.8794  0.007990679 0.0058981957         3966 
 4870000   0.47807172   -9.4989181    466.40041 0.0079808421 0.0058959722         3966 
 4871000   0.47593218   -9.4854539    466.51338 0.0079811363 0.0058937516         3968 
 4872000   0.48030998    -9.497888     465.6894 0.0079654044 0.0058915329         3965 
 4873000   0.47755731   -9.5017819    466.57323 0.0079788842 0.0058893134         3968 
 4874000   0.46735167   -9.5061054     466.1116 0.0079693543  0.005887096         3972 
 4875000   0.47000369   -9.5104555    467.07351 0.0079841626 0.0058848805         3969 
 4876000   0.46893864   -9.4930152     466.4318 0.0079715579 0.0058826658         3966 
 4877000   0.46703332   -9.4927095    465.70216 0.0079574561 0.0058804512         3969 
 4878000   0.47545538   -9.5106386    466.66413 0.0079722587 0.0058782388         3966 
 4879000    0.4766071    -9.500585     466.2228 0.0079630868 0.0058760267         3961 
 4880000   0.47265033    -9.522548    466.60489 0.0079679796 0.0058738153         3966 
 4881000   0.47514454   -9.4980251    466.67055 0.0079674682 0.0058716057         3970 
 4882000    0.4798078   -9.5130757    466.62721 0.0079650965 0.0058693967         3974 
 4883000   0.46289403   -9.5111847    466.33392   0.00795846 0.0058671883         3966 
 4884000   0.47209512   -9.4991367    466.55693 0.0079606355 0.0058649811         3968 
 4885000   0.47175212   -9.5047705    465.77002  0.007945582 0.0058627742         3961 
 4886000   0.47216908    -9.513413    465.94762 0.0079469849 0.0058605713         3964 
 4887000   0.45526032   -9.5160067    466.44493 0.0079538389 0.0058583667         3965 
 4888000   0.46342535   -9.5036416    465.34396 0.0079334418 0.0058561644         3977 
 4889000   0.47041697   -9.4997091    466.19671 0.0079463542 0.0058539633         3968 
 4890000   0.46473491   -9.4984475    465.54719 0.0079336603 0.0058517626         3964 
 4891000   0.47474415   -9.5132814    466.07591 0.0079410466 0.0058495631         3967 
 4892000   0.48131458    -9.510064    465.38919 0.0079277254 0.0058473654         3961 
 4893000   0.47435543   -9.5228673    465.98216 0.0079362042 0.0058451684         3970 
 4894000   0.45891758   -9.5070545    466.33479 0.0079405869 0.0058429723         3969 
 4895000   0.46551588   -9.5101822    465.67292 0.0079276969 0.0058407777         3973 
 4896000   0.46493117   -9.5220423     465.2261 0.0079184726 0.0058385842         3972 
 4897000   0.46313697   -9.5111089    466.74427 0.0079426906 0.0058363915         3970 
 4898000    0.4639521    -9.516282    466.18717 0.0079315906 0.0058342012         3965 
 4899000   0.47365267   -9.5087377    465.94925 0.0079259244 0.0058320125         3965 
 4900000   0.46682252   -9.5092063     466.2131 0.0079287941 0.0058298231         3972 
 4901000   0.46112183   -9.5172781    466.30644 0.0079287636 0.0058276373         3970 
 4902000   0.47069689    -9.513962    465.68938 0.0079166561 0.0058254511         3974 
 4903000   0.46921322   -9.5196994    466.47484 0.0079283914 0.0058232678         3970 
 4904000   0.46502166   -9.5101815    466.07652 0.0079200061 0.0058210824         3970 
 4905000   0.47195826   -9.5017237    466.68231 0.0079286835 0.0058188982         3957 
 4906000   0.46958884   -9.4924353    466.26239 0.0079199346 0.0058167157         3964 
 4907000   0.46780221   -9.5152257    466.87677 0.0079287544 0.0058145358         3965 
 4908000   0.46213863   -9.4962589    466.23828 0.0079162978 0.0058123569         3965 
 4909000   0.46893651   -9.5136714    465.26849 0.0078982224 0.0058101774         3962 
 4910000   0.46552679   -9.5181674    466.37557 0.0079154033 0.0058079987         3970 
 4911000   0.46289745   -9.5201507    466.09478  0.007909027 0.0058058229         3974 
 4912000    0.4691601   -9.5178479      465.926 0.0079045534 0.0058036478         3967 
 4913000   0.46374541   -9.5121566     466.4256 0.0079114187 0.0058014734         3964 
 4914000   0.47039815   -9.5168139     466.1399 0.0079049637 0.0057992989         3958 
 4915000   0.46330786   -9.5060121    466.73851 0.0079135047 0.0057971268         3966 
 4916000   0.47191746   -9.5251334    465.43056 0.0078897233 0.0057949557         3974 
 4917000   0.46229425    -9.510755    466.03404 0.0078983465 0.0057927848         3966 
 4918000   0.46460832   -9.5400877    466.19915 0.0078995383 0.0057906158         3972 
 4919000   0.45880181   -9.5208818    465.81904 0.0078914928 0.0057884473         3964 
 4920000   0.48007057   -9.5295104    465.71347 0.0078881008  0.005786281         3972 
 4921000   0.46593501   -9.5188995    466.34166 0.0078971357 0.0057841152         3962 
 4922000   0.46385086   -9.5181229    465.72764 0.0078851354 0.0057819501         3974 
 4923000   0.45944091    -9.494997    465.71059 0.0078832451 0.0057797861         3972 
 4924000   0.47126554   -9.5108227    465.63316 0.0078803337 0.0057776224         3964 
 4925000   0.44961774    -9.516304    466.12582 0.0078870696 0.0057754607         3972 
 4926000     0.462894   -9.5203763    465.43745 0.0078738235 0.0057733004         3963 
 4927000   0.45042183   -9.5097779    466.40435 0.0078885792 0.0057711413         3966 
 4928000    0.4556816   -9.5016431    466.09838 0.0078818043 0.0057689835         3966 
 4929000   0.46925057   -9.5087195    466.12164 0.0078805986 0.0057668262         3965 
 4930000   0.45519028   -9.5131979    465.78631 0.0078733317 0.0057646707         3959 
 4931000   0.46257646   -9.5143276    466.19261 0.0078786015 0.0057625164         3973 
 4932000   0.48095557   -9.5233536     465.6673 0.0078681282 0.0057603626         3967 
 4933000   0.45681726   -9.5349401    466.01371 0.0078723851 0.0057582097         3973 
 4934000   0.45670633   -9.5236443    465.73637 0.0078661055  0.005756059         3971 
 4935000   0.47041357   -9.5299476    465.54942 0.0078613547 0.0057539082         3978 
 4936000   0.46906665   -9.5194578    465.34634 0.0078563334 0.0057517607         3964 
 4937000    0.4500417   -9.5121828    465.54802 0.0078581464 0.0057496128         3967 
 4938000   0.45957299   -9.5044201    466.09117 0.0078657211  0.005747466         3960 
 4939000   0.45515462   -9.5115327    466.36647 0.0078687735 0.0057453188         3966 
 4940000   0.46951174   -9.5336287    466.35126 0.0078669241 0.0057431735         3972 
 4941000   0.45325775   -9.5133206    465.77775 0.0078556593 0.0057410305         3965 
 4942000   0.46626711   -9.5274425    466.03096 0.0078583394 0.0057388893         3968 
 4943000   0.45766715   -9.5239113    466.36242 0.0078623377 0.0057367462         3972 
 4944000   0.46662824   -9.5177801     465.9814  0.007854325 0.0057346066         3977 
 4945000   0.45304265   -9.5184312    465.78787 0.0078494755 0.0057324665         3973 
 4946000    0.4666779   -9.5231454    465.73977 0.0078470779 0.0057303283         3974 
 4947000   0.45341879   -9.5059186    466.22759 0.0078537092 0.0057281912         3967 
 4948000   0.46383643    -9.533233    465.74891 0.0078440601 0.0057260538         3967 
 4949000   0.45790666   -9.5272626    465.45128 0.0078374634  0.005723918         3968 
 4950000   0.44575394    -9.531592    465.64813 0.0078391941 0.0057217833         3966 
 4951000    0.4550128   -9.5198086    465.47525 0.0078347008  0.005719649         3972 
 4952000   0.45382044   -9.5309403    466.14105  0.007844323 0.0057175177         3974 
 4953000   0.45729789   -9.5227787     465.4973 0.0078319082  0.005715386         3976 
 4954000   0.45643355   -9.5159362    466.07254 0.0078400037 0.0057132572         3967 
 4955000   0.45476625   -9.5040786    466.05479 0.0078381229 0.0057111281         3962 
 4956000   0.46801527    -9.517439    465.16185  0.007821527 0.0057090004         3978 
 4957000   0.44200843     -9.52865    465.49235 0.0078255053 0.0057068745         3974 
 4958000    0.4669361   -9.5151329    466.22658 0.0078362676 0.0057047503         3974 
 4959000   0.45723112   -9.5102467    465.95522 0.0078301274 0.0057026258         3972 
 4960000   0.44496415   -9.5321256    466.00978 0.0078294653 0.0057005027         3972 
 4961000   0.45644698   -9.5300525    466.06389 0.0078287962 0.0056983801         3964 
 4962000   0.45397985   -9.5216421    465.63001 0.0078199316 0.0056962587         3974 
 4963000   0.46295971   -9.5273005    466.09781 0.0078262107  0.005694139         3971 
 4964000   0.46218979   -9.5435025    465.74834 0.0078187675 0.0056920209         3971 
 4965000   0.46631265   -9.5102579    466.21324 0.0078249957 0.0056899039         3964 
 4966000   0.45733547   -9.5402427    466.25572 0.0078241327  0.005687788         3968 
 4967000   0.45644071   -9.5405603    464.97913 0.0078011397  0.005685674         3973 
 4968000   0.45587872   -9.5206905    465.59881 0.0078099639 0.0056835601         3955 
 4969000   0.45835195   -9.5146348    465.53507 0.0078073232 0.0056814467         3966 
 4970000    0.4561027   -9.5257534    465.34243 0.0078025223 0.0056793356         3968 
 4971000   0.45702604   -9.5140922     465.6476 0.0078060686 0.0056772254         3978 
 4972000   0.46036405   -9.5365925    466.10724 0.0078122023 0.0056751155         3977 
 4973000    0.4572043     -9.53202     465.7032 0.0078038608  0.005673006         3975 
 4974000   0.44596821   -9.5359668    465.07908 0.0077918355 0.0056708973         3963 
 4975000   0.46147196   -9.5316813     465.2979 0.0077939347 0.0056687911         3967 
 4976000   0.45581457   -9.5412352    465.60504 0.0077975121 0.0056666853         3972 
 4977000   0.46113298   -9.5340878    465.48843 0.0077939928 0.0056645821         3968 
 4978000   0.45738734   -9.5338201    465.37889 0.0077905934 0.0056624795         3978 
 4979000   0.45890634   -9.5268828    465.54801 0.0077918593 0.0056603776         3979 
 4980000   0.45962356   -9.5266162    466.15679 0.0078004818 0.0056582771         3963 
 4981000   0.44608421   -9.5233584    466.18013 0.0077993063 0.0056561774         3969 
 4982000   0.45226592   -9.5404059    465.74541 0.0077904692 0.0056540783         3969 
 4983000   0.46044317    -9.528826    465.56737 0.0077859284 0.0056519814         3968 
 4984000   0.45628121   -9.5298243    466.03553 0.0077921939 0.0056498844         3969 
 4985000   0.45520415   -9.5244488    465.95887 0.0077893493 0.0056477882         3959 
 4986000   0.45667019   -9.5376621    466.11714 0.0077904322 0.0056456934         3972 
 4987000   0.44667154   -9.5422702    466.31079 0.0077921059 0.0056436021         3975 
 4988000   0.45766246   -9.5124228    464.84341 0.0077660287 0.0056415107         3966 
 4989000   0.46174792    -9.529942    465.23389 0.0077709943 0.0056394204         3976 
 4990000    0.4585298   -9.5321606    466.00454 0.0077823069 0.0056373292         3974 
 4991000    0.4533439   -9.5305362    465.94287  0.007779718 0.0056352399         3967 
 4992000   0.44416275   -9.5155986    466.08344 0.0077805061 0.0056331514         3971 
 4993000   0.44668763   -9.5307046    465.41908 0.0077678597 0.0056310627         3947 
 4994000   0.45528405   -9.5454109     465.4545 0.0077668952 0.0056289768         3971 
 4995000   0.45493966   -9.5319604    465.36504 0.0077638478  0.005626893         3975 
 4996000    0.4549489    -9.532894    465.91749 0.0077715087 0.0056248076         3975 
 4997000   0.45853303   -9.5451411    465.59489 0.0077645736 0.0056227247         3967 
 4998000   0.45053867    -9.527579     465.0389 0.0077537498 0.0056206435         3966 
 4999000   0.44589307   -9.5320864    465.82203 0.0077652535 0.0056185641         3973 
 5000000   0.44667149   -9.5329673    466.21015 0.0077701691 0.0056164828         3972 
 5001000   0.45542425   -9.5406882    465.33579 0.0077540457 0.0056144049         3966 
 5002000   0.44979541   -9.5399012    465.62615 0.0077573329 0.0056123257         3974 
 5003000   0.44457262   -9.5445979    465.50532 0.0077537698 0.0056102492         3964 
 5004000   0.44880573   -9.5432893    465.60076 0.0077538096 0.0056081725         3960 
 5005000   0.45632245   -9.5368455    465.49756 0.0077505421 0.0056060961         3968 
 5006000   0.46325064   -9.5455106    465.76257 0.0077534054 0.0056040234         3970 
 5007000   0.46200363   -9.5280256    466.15933 0.0077584604 0.0056019495         3968 
 5008000   0.46110602   -9.5377574    466.08133 0.0077556132 0.0055998789         3971 
 5009000   0.45675787   -9.5370524    464.80239 0.0077327875 0.0055978073         3966 
 5010000   0.45620274   -9.5404064    465.68187 0.0077458728 0.0055957397         3963 
 5011000   0.45945398   -9.5343545     466.0038 0.0077496807 0.0055936716         3968 
 5012000   0.44998117   -9.5419665    465.80954 0.0077449045 0.0055916045         3970 
Loop time of 13380.8 on 48 procs for 5000000 steps with 4000 atoms

Performance: 64570.344 tau/day, 373.671 timesteps/s
99.4% CPU use with 48 MPI tasks x no OpenMP threads

MPI task timing breakdown:
Section |  min time  |  avg time  |  max time  |%varavg| %total
---------------------------------------------------------------
Pair    | 996.94     | 1099.9     | 1225.1     | 171.5 |  8.22
Neigh   | 93.514     | 97.501     | 102.34     |  21.0 |  0.73
Comm    | 838.98     | 968        | 1073.2     | 192.3 |  7.23
Output  | 18.274     | 18.279     | 18.373     |   0.3 |  0.14
Modify  | 11007      | 11064      | 11127      |  30.3 | 82.69
Other   |            | 133.1      |            |       |  0.99

Nlocal:        83.3333 ave          91 max          76 min
Histogram: 1 2 6 7 10 4 10 4 3 1
Nghost:        2447.40 ave        2466 max        2430 min
Histogram: 1 1 5 8 15 6 7 1 3 1
Neighs:        16930.3 ave       19508 max       14432 min
Histogram: 2 9 4 2 2 12 5 6 4 2
FullNghs:      33860.6 ave       37507 max       31138 min
Histogram: 3 2 10 7 8 3 11 3 0 1

Total # of neighbors = 1625310
Ave neighs/atom = 406.32750
Neighbor list builds = 265912
Dangerous builds = 1

#clear
#
#next RN
#
#jump SELF
Total wall time: 3:43:04
