
units lj                  # Use reduced LJ style units
atom_style atomic         # Uncharged point particles
atom_modify map hash      # Needed for indexing of clusters etc
                          # Used to be able to find where atoms are in relation to each other.

lattice fcc 1.0 spacing 1 1 1
Lattice spacing in x,y,z = 1.5874011 1.5874011 1.5874011
region box block 0 10 0 10 0 10 units lattice
create_box 2 box
Created orthogonal box = (0.0000000 0.0000000 0.0000000) to (15.874011 15.874011 15.874011)
  3 by 4 by 4 MPI processor grid
create_atoms 1 box
Created 4000 atoms
  using lattice units in orthogonal box = (0.0000000 0.0000000 0.0000000) to (15.874011 15.874011 15.874011)
  create_atoms CPU = 0.016 seconds
set type 1 type/fraction 2 0.83 78393
Setting atom values ...
  3314 settings made for type/fraction
mass 1 1.0
mass 2 1.0
pair_style lj/cut  3.5
pair_modify tail  yes
pair_coeff 1  1  1.0  1.0   # Intearaction between 1 and 1 set with epsilon = 1 and sigma = 1
pair_coeff 1  2  1.5  0.8
pair_coeff 2  2  0.5  0.88

write_data data.0
System init for write_data ...
Neighbor list info ...
  update every 1 steps, delay 10 steps, check yes
  max neighbors/atom: 2000, page size: 100000
  master list distance cutoff = 3.8
  ghost atom cutoff = 3.8
  binsize = 1.9, bins = 9 9 9
  1 neighbor lists, perpetual/occasional/extra = 1 0 0
  (1) pair lj/cut, perpetual
      attributes: half, newton on
      pair build: half/bin/atomonly/newton
      stencil: half/bin/3d
      bin: standard
WARNING: Not all mixed pair coeffs generated from mixing. Use write_data with 'pair ij' option to store all pair coeffs. (../write_data.cpp:312)


#############################
#   M E L T   S Y S T E M   #
#############################

velocity all create 2.4 1741580 mom yes dist gaussian # Assign velocities
                                                    # Temperature 2.4, random number seed, zero linear momentum
                                                                                # Gaussian distribution

timestep 0.002   # simulation timestep
thermo 1000       # output thermodynamic data every 1000 steps bf 100

# Define a fix  in this case with index 1 applied to all
# particles in the simulation. This fix is for simulations
# in the anisotropic NPT ensemble. Note that we use the MTK
# correction.
fix 1 all npt temp 2.4 2.4 0.1 iso 5.68 5.68 0.5 mtk yes tchain 5 pchain 5 # Use NPT ensemble
                                                                         # Set temperature and pressure and damping
                                                                         # Numbers of thermostats in chain and in barostat
run 10000          # run for 10000 steps
Per MPI rank memory allocation (min/avg/max) = 3.642 | 3.644 | 3.648 Mbytes
Step Temp E_pair E_mol TotEng Press Volume 
       0          2.4   -3.5381599            0  0.060940148   -3.0801753         4000 
    1000    2.3918637   -2.8191307            0   0.76776784     5.672709    3841.1347 
    2000    2.3976317   -2.8091765            0   0.78637191    5.7948817    3838.1877 
    3000    2.4021392   -2.8345737            0    0.7677343    5.9371136    3805.8714 
    4000    2.4249359   -2.7832102            0   0.85328435    5.7683765    3861.9702 
    5000    2.4379764   -2.8121245            0   0.84392585    5.6137721    3859.9171 
    6000    2.3924256   -2.7814666            0   0.80627473    5.6281099    3860.6301 
    7000    2.4387428   -2.8063149            0   0.85088478    5.6726924    3856.4248 
    8000    2.4073089   -2.7854955            0   0.82456511    5.9253399    3839.7855 
    9000     2.404079   -2.8157282            0   0.78948885    5.4846607    3859.4796 
   10000    2.3941211   -2.8282029            0    0.7620809    5.3348012    3884.8762 
Loop time of 2.52498 on 48 procs for 10000 steps with 4000 atoms

Performance: 684360.904 tau/day, 3960.422 timesteps/s
99.6% CPU use with 48 MPI tasks x no OpenMP threads

MPI task timing breakdown:
Section |  min time  |  avg time  |  max time  |%varavg| %total
---------------------------------------------------------------
Pair    | 1.1324     | 1.185      | 1.3381     |   3.0 | 46.93
Neigh   | 0.21073    | 0.21863    | 0.2471     |   1.1 |  8.66
Comm    | 0.69684    | 0.85309    | 0.93606    |   5.0 | 33.79
Output  | 0.00024348 | 0.00024784 | 0.00030938 |   0.0 |  0.01
Modify  | 0.2128     | 0.25296    | 0.30046    |   5.8 | 10.02
Other   |            | 0.01501    |            |       |  0.59

Nlocal:        83.3333 ave          91 max          77 min
Histogram: 6 4 5 7 4 6 5 6 3 2
Nghost:        1674.35 ave        1704 max        1649 min
Histogram: 4 2 6 10 6 7 4 6 1 2
Neighs:        9823.44 ave       11031 max        8678 min
Histogram: 1 6 6 5 11 4 3 6 4 2

Total # of neighbors = 471525
Ave neighs/atom = 117.88125
Neighbor list builds = 911
Dangerous builds = 237

# Equilibrate just above the melting temperature to avoid step fn in T

fix 1 all npt temp 1.25 1.25 0.1 iso 5.68 5.68 0.5 mtk yes tchain 5 pchain 5
run 2000
Per MPI rank memory allocation (min/avg/max) = 3.643 | 3.645 | 3.649 Mbytes
Step Temp E_pair E_mol TotEng Press Volume 
   10000    2.3941211   -2.8282029            0    0.7620809    5.3348012    3884.8762 
   11000    1.2433053   -4.1504809            0   -2.2859892    5.7443269    2953.4874 
   12000    1.2280189   -4.1282779            0   -2.2867101    5.5630271    2980.2589 
Loop time of 0.620828 on 48 procs for 2000 steps with 4000 atoms

Performance: 556676.182 tau/day, 3221.506 timesteps/s
99.6% CPU use with 48 MPI tasks x no OpenMP threads

MPI task timing breakdown:
Section |  min time  |  avg time  |  max time  |%varavg| %total
---------------------------------------------------------------
Pair    | 0.27581    | 0.30083    | 0.32697    |   2.5 | 48.46
Neigh   | 0.039077   | 0.042009   | 0.045247   |   0.7 |  6.77
Comm    | 0.19853    | 0.22814    | 0.25663    |   3.3 | 36.75
Output  | 5.3593e-05 | 5.7123e-05 | 0.00017874 |   0.0 |  0.01
Modify  | 0.042534   | 0.045026   | 0.04725    |   0.7 |  7.25
Other   |            | 0.004769   |            |       |  0.77

Nlocal:        83.3333 ave          91 max          75 min
Histogram: 1 3 4 4 5 13 10 2 3 3
Nghost:        2001.25 ave        2025 max        1974 min
Histogram: 2 3 4 2 10 7 8 6 2 4
Neighs:        12823.8 ave       14687 max       11306 min
Histogram: 5 4 4 6 8 7 7 4 1 2

Total # of neighbors = 615541
Ave neighs/atom = 153.88525
Neighbor list builds = 143
Dangerous builds = 18

#############################
# L I N E A R  Q U E N C H  #
#############################

# Define solid atoms. This closely follows ten Wolde  Ruiz-Montero and Frenkel  Faraday Discuss  1996  104  93-110
# Compute components of the per-atom q6 vector
compute q6 all orientorder/atom degrees 1 6 components 6 nnn NULL cutoff 1.3 # compute the Q6 parameter.
                                                                             # Use all neighbours within 1.3 unit cell.

# get number of connections
compute coord_number all coord/atom orientorder q6 0.5

# An atom is solid if it has 8 or more connections (of a possible 14)
variable is_solid atom c_coord_number>=8
group solid dynamic all var is_solid    # Must be dynamic to update
dynamic group solid defined

# do clustering
compute cluster solid cluster/atom 1.3 # Create a cluster where all atoms within are solid and max 1.3 units from another member

# define chunks one chunk per cluster
compute clus_chunks solid chunk/atom c_cluster nchunk every compress yes  # Says which atoms are in which chunk

# count the size of each chunk
compute size_chunks solid property/chunk clus_chunks count


# Find the maximum entry in the vector of chunk sizes
variable max_n equal max(c_size_chunks)


# Thermo style which includes this variable
# thermo_style custom step temp pe vol v_max_n

thermo ${N}  # Print the thermo information every 100 steps
thermo 1000  

# Reset the npt fix at a lower temperature (below freezing)
fix 1  all npt temp  ${temp} ${temp}  0.1  iso  5.68  5.68  0.5  mtk yes tchain  5  pchain  5
fix 1  all npt temp  0.45 ${temp}  0.1  iso  5.68  5.68  0.5  mtk yes tchain  5  pchain  5
fix 1  all npt temp  0.45 0.45  0.1  iso  5.68  5.68  0.5  mtk yes tchain  5  pchain  5

dump dmp2 all dcd ${N} traj.dcd
dump dmp2 all dcd 1000 traj.dcd


compute msd all msd com yes
variable twopoint equal c_msd[4]/6/(step*dt+1.0e-6)
fix 9 all vector 10 c_msd[4]
variable fit equal slope(f_9)/6/(10*dt)
thermo_style custom step temp pe c_msd[4] v_twopoint v_fit v_max_n

fix 1 all npt temp 1.25 ${temp} 0.1 iso 5.68 5.68 0.5 mtk yes tchain 5 pchain 5
fix 1 all npt temp 1.25 0.45 0.1 iso 5.68 5.68 0.5 mtk yes tchain 5 pchain 5
run 5000000 # 5000000  # Run for this many steps
Neighbor list info ...
  update every 1 steps, delay 10 steps, check yes
  max neighbors/atom: 2000, page size: 100000
  master list distance cutoff = 3.8
  ghost atom cutoff = 3.8
  binsize = 1.9, bins = 8 8 8
  4 neighbor lists, perpetual/occasional/extra = 1 3 0
  (1) pair lj/cut, perpetual
      attributes: half, newton on
      pair build: half/bin/atomonly/newton
      stencil: half/bin/3d
      bin: standard
  (2) compute orientorder/atom, occasional
      attributes: full, newton on
      pair build: full/bin/atomonly
      stencil: full/bin/3d
      bin: standard
  (3) compute coord/atom, occasional
      attributes: full, newton on
      pair build: full/bin/atomonly
      stencil: full/bin/3d
      bin: standard
  (4) compute cluster/atom, occasional
      attributes: full, newton on
      pair build: full/bin/atomonly
      stencil: full/bin/3d
      bin: standard
Per MPI rank memory allocation (min/avg/max) = 9.830 | 9.835 | 9.838 Mbytes
Step Temp PotEng c_msd[4] v_twopoint v_fit v_max_n 
   12000    1.2280189   -4.1282779 7.3285178e-31 5.0892483e-33 8.3333333e+20            2 
   13000    1.2708118   -4.1533542   0.83806047 0.0053721823  0.071104274            2 
   14000    1.2312763   -4.1730086    1.7706175  0.010539389  0.073316395            1 
   15000    1.2404242   -4.1346028    2.7500134  0.015277852  0.076916258            2 
   16000    1.2396519    -4.164695    3.6767153  0.019149558  0.077808856            3 
   17000    1.2460477   -4.1771436    4.6499853  0.022794045  0.078527811            2 
   18000    1.2508686   -4.1357992    5.5809118  0.025837554  0.078786653            1 
   19000    1.2138325   -4.1055658    6.4909647  0.028469143  0.078642027            2 
   20000    1.2363453   -4.1357735     7.250659  0.030211078  0.077528763            1 
   21000    1.2381826   -4.1833581     8.010134  0.031786245  0.076326436            2 
   22000    1.2868362   -4.1664747    8.8884606  0.033668411   0.07522509            1 
   23000    1.2892705   -4.1791614    9.8813386  0.035801951  0.074683115            2 
   24000    1.2554905   -4.2038119     10.73064  0.037259164  0.074679393            4 
   25000    1.2486156   -4.1268992    11.766183  0.039220611  0.074764477            2 
   26000    1.2240235   -4.1605667    12.701465  0.040709823  0.074797427            2 
   27000    1.2447859   -4.1551295    13.584558  0.041927648   0.07498153            3 
   28000    1.2293105   -4.1764663    14.402622  0.042864946  0.075044113            4 
   29000    1.2778725   -4.1720161     15.39162  0.044228793  0.075080627            2 
   30000    1.2416643   -4.1499665     16.19631  0.044989749  0.075120622            2 
   31000    1.2193197   -4.1218265    16.945641  0.045552797  0.074910353            3 
   32000    1.2406208   -4.1468431    17.809463  0.046378809   0.07463823            3 
   33000    1.2593401   -4.1612852    18.596474  0.046960791  0.074374053            1 
   34000    1.2506213   -4.1595079    19.507157  0.047811658  0.074121811            2 
   35000    1.2520853   -4.1979782    20.104077   0.04786685  0.073823262            2 
   36000    1.2441534   -4.1716975    21.205695  0.049087257  0.073644343            2 
   37000      1.22894   -4.1639278    22.132711  0.049848447   0.07358783            2 
   38000    1.2211926   -4.1985025    22.814757  0.050032361  0.073456986            1 
   39000    1.2226512   -4.1766331    23.960981  0.051198677  0.073380632            3 
   40000    1.2537117   -4.1847769    24.794996  0.051656241   0.07337485            1 
   41000    1.2467954   -4.1694808    25.752949  0.052343392  0.073373611            4 
   42000    1.2244786   -4.1843812    26.434701  0.052449803   0.07337059            2 
   43000    1.2376509   -4.1535617    27.300574  0.052908089  0.073334354            2 
   44000    1.2765378   -4.1721795    28.178688  0.053368727  0.073283909            1 
   45000    1.2610663   -4.1174939    29.110022  0.053907448  0.073272121            3 
   46000    1.2412234   -4.1689997    29.737554   0.05387238  0.073191482            4 
   47000    1.2497079   -4.1839469    30.414256  0.053925985  0.073058523            2 
   48000    1.2564441   -4.1743233    31.393763  0.054503061  0.072885273            2 
   49000      1.25433   -4.1267624    32.489878  0.055254894  0.072776643            1 
   50000    1.2387612   -4.1618461    33.514108  0.055856846  0.072757158            3 
   51000    1.2377667   -4.1429952     34.33928  0.056109934  0.072761006            2 
   52000    1.2088645   -4.1227283    35.494534  0.056882266  0.072799594            2 
   53000    1.2600273   -4.1719171      35.8771  0.056410535  0.072824983            1 
   54000    1.2425715   -4.1418389    37.048727   0.05717396  0.072823531            1 
   55000    1.2341451   -4.1669132    38.110538  0.057743239  0.072858149            1 
   56000    1.2489757   -4.1626733    38.838656  0.057795619   0.07289579            3 
   57000     1.249497   -4.1662566    39.775966  0.058151997  0.072944952            1 
   58000    1.2247586   -4.1539399     40.63454  0.058382959  0.072970125            3 
   59000    1.2503324   -4.2018387     41.40798  0.058485846  0.072982609            2 
   60000    1.2372417   -4.1894715    42.343589   0.05881054  0.073019808            1 
   61000    1.2468139   -4.1331076    43.463524  0.059376399   0.07305383            3 
   62000      1.24899   -4.1501679    44.468626  0.059769658    0.0731036            2 
   63000    1.2587374   -4.1309277    44.770133  0.059219752  0.073141731            2 
   64000    1.2276389   -4.1691036    45.629616  0.059413562  0.073132641            1 
   65000     1.281194   -4.1547159    46.589853  0.059730581  0.073100178            2 
   66000    1.2471205   -4.2094695     47.71432  0.060245353   0.07309778            1 
   67000    1.2291256    -4.152267    48.504206  0.060328614  0.073116245            2 
   68000    1.2208569   -4.1764956    49.195409   0.06028849  0.073115991            3 
   69000     1.246583   -4.1821533    50.002295  0.060389245  0.073092207            1 
   70000    1.2287393   -4.1642498    51.108554  0.060843516  0.073070275            2 
   71000     1.259995   -4.2164084    51.817733  0.060818935  0.073055778            3 
   72000    1.1966976   -4.1870309    52.683272  0.060976009  0.073056326            5 
   73000    1.2558847   -4.1876799     53.45885  0.061026084  0.073035537            2 
   74000    1.2233269   -4.1510459    54.956518   0.06188797  0.073017094            2 
   75000    1.2611525    -4.165779    55.502407  0.061669341  0.073021498            3 
   76000    1.2224543   -4.1708541    56.264199  0.061693201  0.073022766            3 
   77000    1.2367945   -4.1438479    57.236044  0.061943771  0.073025242            1 
   78000     1.250713   -4.2065573    57.913773  0.061873689  0.073019558            1 
   79000    1.2373511   -4.1857449    58.741668  0.061963785  0.073000775            1 
   80000    1.2349454   -4.1595327    59.677516  0.062164078  0.072989967            1 
   81000    1.2398352   -4.1680037    60.975704  0.062732205  0.073015981            1 
   82000    1.2575393   -4.1641184    62.169607  0.063180494  0.073066614            2 
   83000    1.2254633   -4.2008819    62.708301  0.062960141  0.073116187            3 
   84000    1.2563097   -4.1342515    64.141366  0.063632307  0.073168533            4 
   85000    1.2502298   -4.1816573    65.126394  0.063849405  0.073225358            1 
   86000    1.2409766     -4.17615    66.149483  0.064098335  0.073282773            1 
   87000    1.2373123   -4.1960411    66.868816  0.064050589  0.073354742            3 
   88000    1.2438257   -4.1758684    68.065543  0.064456006  0.073433675            1 
   89000    1.2423638   -4.1611875    68.809341  0.064428222  0.073511745            1 
   90000    1.2516458   -4.1870487    69.338849  0.064202638    0.0735725            3 
   91000    1.2387085   -4.1585687    70.643936  0.064692249  0.073616329            2 
   92000    1.2186546   -4.1603989    70.812298  0.064141574  0.073642851            1 
   93000    1.2200732   -4.1683649    71.526769  0.064092087  0.073646531            3 
   94000    1.2431094   -4.1751091    73.194229  0.064888501  0.073661379            2 
   95000    1.2219739   -4.1624707    73.986521  0.064900457  0.073699296            5 
   96000    1.2262648   -4.1413156    74.929369  0.065042855  0.073731466            1 
   97000    1.2520402   -4.1518713    75.523004  0.064882306  0.073760058            2 
   98000    1.2326359   -4.1552225    76.714238  0.065233195  0.073795546            1 
   99000    1.2500452   -4.1882095     77.77104  0.065463838  0.073834597            2 
  100000    1.2238479   -4.1730198    78.796194  0.065663495  0.073885302            2 
  101000    1.2289681    -4.224844    79.046757  0.065220096  0.073930042            2 
  102000    1.2379621   -4.1716367    80.022081  0.065377517  0.073960334            1 
  103000    1.2419922   -4.2068252    80.887212  0.065442727  0.073980922            3 
  104000    1.2481537   -4.2020973    81.802091  0.065546547  0.074003298            3 
  105000    1.2294168   -4.1566386    82.941558  0.065826633  0.074035656            2 
  106000    1.2527707    -4.207791    83.506673    0.0656499  0.074051008            3 
  107000    1.2376417   -4.2133394    84.115017  0.065510138  0.074053734            2 
  108000    1.2345316   -4.1556878     85.40011  0.065895146   0.07404936            2 
  109000    1.2195567   -4.1590356    86.760576  0.066330716  0.074071532            3 
  110000    1.2242751   -4.1361416    88.285035  0.066882602  0.074104131       -1e+20 
  111000    1.2265652   -4.1550995    88.907559  0.066747416  0.074148698            1 
  112000    1.2263533   -4.2022566    88.846944  0.066106357  0.074178673            2 
  113000    1.2466736   -4.2036301    90.145849   0.06647924   0.07419652            1 
  114000    1.2521755   -4.1822353    91.426892  0.066832523  0.074227365            2 
  115000    1.2418591   -4.1661671    92.602169  0.067103021  0.074253148            2 
  116000    1.2232821   -4.1850023    93.368053   0.06707475  0.074287923            2 
  117000    1.2390529   -4.1664501    94.256824   0.06713449  0.074323223            3 
  118000    1.2230193   -4.1963995    94.738573  0.066905772  0.074353424            3 
  119000    1.2300749   -4.2007776    95.988982  0.067219175  0.074393548            2 
  120000    1.2712087   -4.1486336    96.737913  0.067179106   0.07441671            2 
  121000     1.203923   -4.1735416    97.940513  0.067452144  0.074442123            1 
  122000    1.2229366   -4.1966826    98.664938  0.067394083  0.074477596            2 
  123000    1.2665408   -4.1617661    99.951797   0.06771802  0.074508399            1 
  124000    1.2658487   -4.1943936    100.17899  0.067324592  0.074540285            2 
  125000    1.2377875   -4.1869015    101.23634  0.067490896   0.07456635            2 
  126000     1.231917   -4.1326729    102.67151  0.067904436  0.074585736            1 
  127000    1.2355557   -4.1585135    103.34612  0.067812412  0.074607932            2 
  128000    1.2333295   -4.1883213    103.43114  0.067337984   0.07462143            5 
  129000    1.2391851   -4.2041252    104.38159  0.067429967  0.074617832            5 
  130000    1.2371304   -4.1794337    105.49576  0.067625489  0.074616411            1 
  131000    1.2644434   -4.1965909    106.07486  0.067477649  0.074618933            2 
  132000    1.2200424   -4.1671103    107.16752  0.067656265  0.074630613            2 
  133000    1.2107587   -4.2105589    107.68505  0.067471836  0.074641239            2 
  134000    1.2696263   -4.1955062    108.52565  0.067491075  0.074649777            3 
  135000    1.2436833   -4.1846433    110.35704   0.06812163  0.074655774            2 
  136000    1.2243197   -4.1700755    110.85037  0.067923021  0.074659403            1 
  137000    1.2608457   -4.2034008    111.83675  0.068027221  0.074673346            1 
  138000     1.256415   -4.1920397    113.03521  0.068257975  0.074687789            1 
  139000    1.2237964    -4.179339    114.01846  0.068356388   0.07469327            5 
  140000     1.228772   -4.2101276     114.5842  0.068204879  0.074708595            3 
  141000    1.2146866   -4.1398327    115.22058  0.068097269   0.07471763            1 
  142000    1.2397475   -4.1916271    116.23157  0.068211016  0.074726244            3 
  143000    1.2412659    -4.182624    116.72453  0.068021285   0.07472536            1 
  144000    1.2412294    -4.200835    117.77218  0.068155197   0.07472504            3 
  145000    1.2335544   -4.1913156    119.27288  0.068547632  0.074721329            2 
  146000    1.2317073   -4.1406558    120.19241  0.068602973  0.074727991            1 
  147000    1.2323128    -4.170391    120.45809  0.068286902   0.07472247            1 
  148000    1.2266441   -4.1712892    122.10223  0.068751253  0.074719665            1 
  149000    1.2065802   -4.2353535    121.65333  0.068038773  0.074712894            2 
  150000      1.20931   -4.1916538    122.39309  0.067996161  0.074695445            4 
  151000    1.2310945   -4.2173362    123.31063  0.068052224  0.074682862            4 
  152000    1.2351699   -4.1899498     124.5387  0.068277796  0.074667818            2 
  153000    1.2419588   -4.1737782    125.61233  0.068416299  0.074658762            1 
  154000     1.225081   -4.2225587    126.06469  0.068216826  0.074647461            1 
  155000    1.2412152    -4.204734    126.91093  0.068231682  0.074634492            3 
  156000     1.227005   -4.1997752    128.18427  0.068474504  0.074629994            2 
  157000    1.2292626   -4.1561966    129.55094  0.068763767  0.074628705            1 
  158000    1.2284079   -4.2076605    130.62545  0.068895277  0.074625106            2 
  159000    1.2363955   -4.1699738     131.4585  0.068898585  0.074617894            2 
  160000    1.2330389   -4.1952255    132.39534  0.068955907  0.074615011            3 
  161000    1.2416288   -4.1994053    132.49562  0.068579515   0.07460945            2 
  162000    1.1909407   -4.2125658    133.28146  0.068560421    0.0746028            1 
  163000    1.1867977   -4.1475409    134.51283  0.068769341    0.0745996            5 
  164000    1.2319185   -4.1916273    135.66881  0.068937404  0.074593975            2 
  165000    1.2340098   -4.2140598    136.01399  0.068693934  0.074584411            3 
  166000    1.2305902   -4.1803909    137.24718  0.068899187  0.074571087            2 
  167000    1.2379009   -4.1412975     138.1978  0.068960979   0.07456353            1 
  168000    1.2495791   -4.1551094    139.00571  0.068951247  0.074551307            2 
  169000    1.2193611   -4.2355755     139.2912  0.068684022  0.074543287            2 
  170000    1.1999197   -4.1830387    140.18214  0.068716735  0.074528481            3 
  171000    1.2450399   -4.2144647    140.79163  0.068611903  0.074511336            1 
  172000    1.2249662   -4.1858886    141.46421  0.068538863  0.074489233            2 
  173000    1.2018742   -4.1971381      142.119  0.068458091  0.074466645            2 
  174000    1.2296678   -4.1675208    144.44748  0.069179827  0.074453474            1 
  175000    1.2407192   -4.1711163    144.90582  0.069002772  0.074445865            1 
  176000    1.2402341    -4.179487    145.38602  0.068838078  0.074436713            9 
  177000    1.1980008   -4.1779846    146.18499  0.068825325  0.074424398            2 
  178000    1.2138142   -4.2406981    147.59259  0.069097653  0.074413373            5 
  179000    1.2328577   -4.1925603    148.42266   0.06909807  0.074408492            2 
  180000    1.2028364   -4.1874774    149.66711  0.069290328  0.074401852            3 
  181000    1.2253314   -4.1836126    149.92654  0.069026953  0.074391503            2 
  182000    1.2258008   -4.1393951    152.12824  0.069655785  0.074383304            2 
  183000     1.240044    -4.146683    152.96984  0.069658395  0.074369896            1 
  184000    1.1897139   -4.2092521    153.14878  0.069360861  0.074363384            1 
  185000    1.2340745   -4.1850906    154.29002  0.069500008  0.074355981            1 
  186000    1.2055782   -4.1879777    154.67004  0.069296614  0.074354413            1 
  187000      1.21665    -4.214204    156.28177  0.069644283  0.074354878            1 
  188000    1.2297695    -4.213632    157.17257  0.069668691  0.074352878            3 
  189000    1.2211663   -4.1875376    157.48808   0.06943919  0.074353882            2 
  190000    1.2268626   -4.1996047    158.09396  0.069339455  0.074353527            1 
  191000    1.2037357    -4.182089    159.16268  0.069442705  0.074351014            1 
  192000    1.2067958   -4.1964924    159.85164   0.06938005  0.074341528            2 
  193000    1.2257914   -4.1946993    160.84048  0.069447529   0.07433223            1 
  194000    1.2376851   -4.1699933    161.61857  0.069423785  0.074322694            5 
  195000    1.2290273   -4.2128701    161.99981  0.069230687   0.07430742            2 
  196000    1.2177124   -4.2138726    162.74834  0.069195722  0.074291862            3 
  197000    1.1946279   -4.2071467    163.03956  0.068967667  0.074272629            2 
  198000    1.2422571   -4.2129053    163.88516  0.068975236  0.074252419            2 
  199000    1.2347283   -4.2403394    165.50905  0.069308649  0.074233298            2 
  200000    1.2083866   -4.1905313    166.18955  0.069245647  0.074214848            2 
  201000     1.249889   -4.1868078    166.72746  0.069124152  0.074192487            2 
  202000    1.2379467   -4.1926509    167.79276  0.069221436  0.074171429            4 
  203000    1.2150486   -4.2165371    168.07064  0.068994516  0.074148492            2 
  204000    1.1968171   -4.2235858    169.23431  0.069131662  0.074126117            2 
  205000    1.2165006   -4.1882566    170.05464  0.069127901  0.074105308            1 
  206000    1.2007398    -4.209584    170.64979  0.069033085  0.074084165            2 
  207000    1.2497573   -4.1566545    172.34828  0.069383363  0.074063181            2 
  208000    1.2362358   -4.1687397    172.10569  0.068952598  0.074043433            2 
  209000    1.2339521   -4.1713574    173.85265   0.06931924  0.074020087            1 
  210000    1.2084418   -4.1888748    175.15069  0.069504244  0.074002401            1 
  211000    1.2017416   -4.1797768    175.01726  0.069122142   0.07398857            3 
  212000    1.2314546   -4.1809885    176.32029  0.069308291   0.07397064            1 
  213000    1.2258948   -4.1733754    177.39918  0.069404998  0.073955925            1 
  214000    1.1975062   -4.1909201    178.77036  0.069614626   0.07394634            3 
  215000    1.2287721   -4.1742248    179.84489  0.069707323  0.073937155            1 
  216000    1.2318482   -4.2047185    181.16765  0.069894928  0.073929312            1 
  217000      1.22266   -4.2085188    181.32346  0.069632665   0.07392114            1 
  218000    1.2239251   -4.2145631    181.80293  0.069496533  0.073906027            1 
  219000    1.1961158    -4.175396    182.51688  0.069450868  0.073888701            2 
  220000    1.1772882   -4.2103406    183.77679  0.069612422  0.073870753            1 
  221000    1.2345202   -4.2051287    184.27106  0.069483808  0.073853786            2 
  222000    1.1993044   -4.2422866    184.34753  0.069199524  0.073833131            2 
  223000    1.2159248    -4.235154    184.48392  0.068940179  0.073811206            3 
  224000    1.2272546   -4.2012522    186.10851  0.069236797  0.073789114            3 
  225000    1.2112672   -4.2557787    186.33796   0.06901406  0.073764119            3 
  226000    1.2219864   -4.2163129    187.49541  0.069135474  0.073744651            4 
  227000     1.234725   -4.2033187    187.21016  0.068726195  0.073717842            3 
  228000    1.2071865   -4.2162169    189.22623  0.069161634   0.07369273            3 
  229000    1.2204789   -4.2482995    189.03158  0.068788783  0.073663543            2 
  230000    1.2264379   -4.2137083    190.14221  0.068892104  0.073633745            3 
  231000    1.2177146   -4.2081591    190.68382  0.068789257  0.073601703            1 
  232000    1.1971243    -4.185328    192.33857  0.069087131  0.073572449            3 
  233000    1.2337032   -4.2257713    192.49915   0.06884805  0.073544068            2 
  234000    1.1863616   -4.1783537    193.20819  0.068806337  0.073514983            1 
  235000    1.2209785   -4.2180359    194.01564  0.068799873  0.073482424            3 
  236000    1.2473219   -4.2001892    195.93356   0.06918558  0.073452151            1 
  237000    1.2053877   -4.2346549    195.48337  0.068735363  0.073419814            3 
  238000    1.2032763   -4.1770003    196.57334  0.068828201  0.073388417            2 
  239000    1.2314118   -4.2508344    196.33747  0.068457973  0.073353906            5 
  240000    1.2195572   -4.1981421    198.47136  0.068913666  0.073322186            1 
  241000    1.2141931   -4.1912562    199.59257   0.06901541  0.073296232            2 
  242000    1.1926816   -4.2423668     200.1941  0.068937364  0.073270076            3 
  243000    1.2209161   -4.2007953    201.30635  0.069035099   0.07324178            4 
  244000     1.206029     -4.19224    202.56006  0.069180348  0.073213005            2 
  245000     1.205714   -4.2259158    202.12774  0.068750932  0.073185976            1 
  246000    1.2004259   -4.1895097     202.6748  0.068656775  0.073155047            3 
  247000    1.2070937   -4.2122731    203.27248  0.068580457  0.073125719            1 
  248000    1.2174018   -4.2407636    205.08537  0.068913093  0.073096036            4 
  249000     1.191935   -4.2419421    205.81491  0.068880492  0.073071564            1 
  250000    1.1996909   -4.2076778    206.93855  0.068979516  0.073049175            2 
  251000    1.2222316   -4.2103916    207.73328  0.068968551  0.073025596            3 
  252000    1.1869387   -4.2109044    208.33268  0.068893082  0.073001551            2 
  253000    1.2047827   -4.2051958    208.82019  0.068781355  0.072979299            2 
  254000    1.2080967   -4.2081823    209.57624  0.068758607   0.07295395            2 
  255000    1.2147172   -4.1967938    210.37594  0.068750308   0.07292719            3 
  256000    1.2229713   -4.2048027    210.78673   0.06861547  0.072896739            3 
  257000    1.2017968   -4.2395268    210.60542  0.068289695  0.072863148            2 
  258000    1.2076359   -4.2067856    212.23679  0.068551933  0.072829849            2 
  259000    1.2124475   -4.2231182    212.51255  0.068375982  0.072799997            1 
  260000    1.1856186   -4.2114787    214.71435    0.0688187  0.072769653            1 
  261000    1.2242868    -4.232369    214.59859  0.068518069   0.07273972            5 
  262000    1.1976884   -4.1838734    216.13443  0.068745047  0.072712334            3 
  263000     1.207644   -4.1954178    216.68808  0.068659087  0.072686399            3 
  264000    1.2117436   -4.2303606     217.5662  0.068676199  0.072661759            1 
  265000    1.2387714   -4.1829355    219.29339  0.068960186   0.07263915            1 
  266000    1.1957032   -4.2411795    219.32048  0.068709423  0.072617227            1 
  267000    1.2069423    -4.252624    219.36749  0.068466758  0.072596882            1 
  268000    1.2043174   -4.2377851    221.06522  0.068739184  0.072572329            1 
  269000    1.2145722   -4.1798417    222.72659  0.068998325  0.072547695            1 
  270000    1.1988181   -4.2380697    223.22761  0.068897409  0.072523279            2 
  271000     1.225363   -4.2384644    222.95002  0.068557816  0.072497756            2 
  272000    1.2102325   -4.2103194     223.7467  0.068549847  0.072468497            3 
  273000    1.1776913   -4.2256837    223.88267  0.068340253  0.072439387            2 
  274000    1.1987959   -4.2114205    225.93783  0.068715886  0.072409374            4 
  275000    1.2274831   -4.2146685    226.70291  0.068697852  0.072379763            2 
  276000    1.1919379   -4.2227832     227.3258  0.068637016  0.072351351            2 
  277000    1.2066403    -4.225399    226.98321  0.068286164  0.072321908            2 
  278000    1.2046251   -4.2348025    228.81547  0.068589768   0.07229532            1 
  279000    1.2000199   -4.2302638    229.75983  0.068625995  0.072266427            2 
  280000    1.2153146   -4.2226863    231.18768  0.068805856   0.07224038            1 
  281000    1.2030226   -4.2171329    231.39861   0.06862355  0.072216871            2 
  282000    1.2224611   -4.1976897    231.87979  0.068522398  0.072194737            1 
  283000    1.2105121   -4.2054889    233.69573  0.068814995  0.072169519            4 
  284000    1.1999148   -4.2363192    233.18286  0.068422199  0.072141963            3 
  285000    1.1907741   -4.2149401    234.90645  0.068686097  0.072113688            2 
  286000    1.2055566   -4.2384979    233.89765  0.068151997  0.072083631            2 
  287000    1.2097078   -4.1792444    236.47685   0.06866343  0.072056895            3 
  288000    1.2133843   -4.2263036    236.87945  0.068541508    0.0720313            1 
  289000     1.198975   -4.2281127    238.01875  0.068632858  0.072006515            2 
  290000    1.2128952   -4.2270148    239.34371  0.068776927  0.071981222            6 
  291000    1.2092337     -4.25876    239.34812  0.068541844  0.071957161            3 
  292000    1.2369831   -4.2322618    239.41219  0.068325396   0.07193375            2 
  293000    1.2119764   -4.2251348    240.08612  0.068283878  0.071908872            2 
  294000    1.1831467   -4.2222161    241.07019  0.068330554   0.07188105            6 
  295000    1.2235961   -4.2143975    242.98865  0.068640861  0.071856546            2 
  296000      1.18359   -4.2126618    242.77854  0.068349814   0.07183243            2 
  297000    1.2081324   -4.2250796    244.35889  0.068563099  0.071805991            1 
  298000    1.1928974   -4.2315939      244.531  0.068381152  0.071782944            4 
  299000    1.1841228    -4.201162    245.91209  0.068537371   0.07175966            3 
  300000    1.2397777   -4.1901821    246.88499  0.068579164  0.071737695            1 
  301000     1.212298   -4.2218578    246.79012  0.068325061  0.071715485            1 
  302000    1.2211648   -4.2257875    247.98707  0.068429104  0.071692057            4 
  303000    1.2014622   -4.2114976    248.73954  0.068410214   0.07166825            1 
  304000    1.2028597   -4.2308036    249.27398  0.068331684  0.071645868            2 
  305000    1.2181343   -4.2339049    249.22774  0.068095012  0.071617849            3 
  306000    1.2101331   -4.1992097      251.221  0.068415304  0.071591369            5 
  307000    1.1958748   -4.2242169    251.34548  0.068226243  0.071566197            1 
  308000    1.2337265   -4.2584458    251.88016  0.068149394  0.071541127            2 
  309000    1.2141654   -4.2277747    252.73749  0.068160057  0.071515448            1 
  310000    1.2184989   -4.2426727    253.73804  0.068209149  0.071492288            3 
  311000    1.1905595   -4.2238411     254.1298  0.068094802  0.071464805            1 
  312000    1.2058076   -4.2263568    254.86758  0.068073606  0.071438257            1 
  313000    1.1958657   -4.1953485    256.20487  0.068212158  0.071412418            3 
  314000    1.2079182   -4.2401589    256.67815  0.068120529  0.071390587            2 
  315000    1.2065224   -4.2220255    257.68671  0.068171086  0.071371555            6 
  316000    1.2096576    -4.256656    257.92069  0.068017061  0.071350377            4 
  317000    1.2042574   -4.1914424    259.89623  0.068321828  0.071328063            3 
  318000    1.1806123   -4.2530871     260.3866  0.068235481  0.071303115            2 
  319000    1.2027016   -4.1896557    260.95297  0.068169532  0.071274486            2 
  320000    1.2298091   -4.2512787    260.76821  0.067908389  0.071248923            2 
  321000    1.1873747   -4.2185758    262.45357  0.068134365  0.071222066            3 
  322000    1.2302507   -4.2380727    262.90098  0.068038556  0.071198104            3 
  323000    1.1705839   -4.2050075    264.35974  0.068204268  0.071173453            2 
  324000    1.1976717   -4.2076718    264.94154    0.0681434  0.071148319            5 
  325000    1.1877896   -4.1997143    265.34098  0.068036149   0.07112135            2 
  326000    1.1878525    -4.231638    266.37891  0.068092768  0.071093982            2 
  327000    1.2044058   -4.2351288    267.58952  0.068193049  0.071068506            1 
  328000    1.1620829   -4.2472446     267.4552  0.067951017  0.071043583            1 
  329000    1.1934835   -4.2302204    268.45188  0.067996931  0.071017834            1 
  330000    1.2406669   -4.2476765    267.57716   0.06756999  0.070992576            1 
  331000    1.1949247    -4.230061    269.18209  0.067769913  0.070966477            5 
  332000     1.192881   -4.2515669    270.19806  0.067820798  0.070940926            6 
  333000    1.2034527   -4.2226108    270.49439   0.06769129  0.070911508            1 
  334000    1.1892043   -4.2365841    271.80416   0.06781541  0.070883862            1 
  335000    1.1619864   -4.2573018    271.43496  0.067521133  0.070853973            3 
  336000    1.2151883   -4.2586276    272.65313  0.067622305   0.07082438            2 
  337000    1.2045204   -4.2187938    272.06127  0.067275288   0.07079306            3 
  338000     1.216077   -4.2031062     273.9433  0.067540262  0.070761875            3 
  339000     1.208947   -4.2647301    273.72832  0.067288181  0.070729821            3 
  340000    1.1870734   -4.2748422     274.5396  0.067289118  0.070697106            2 
  341000    1.2283888   -4.2250322    276.55938  0.067585381  0.070665314            1 
  342000    1.2046835   -4.2386636     275.8753  0.067221076  0.070634242            2 
  343000    1.2058731   -4.2256431    276.21328   0.06710721   0.07060093            4 
  344000    1.1759351   -4.2123459    278.61409  0.067493723  0.070569617            2 
  345000    1.2155232   -4.2471956    278.67088  0.067311808  0.070539065            3 
  346000    1.2015643   -4.2586347    278.88437  0.067168683  0.070508837            2 
  347000    1.1731923   -4.2469979    279.76519  0.067186646  0.070477117            1 
  348000     1.213778   -4.2221909    281.15044  0.067325296  0.070445778            3 
  349000    1.1879553   -4.2376802    281.39532   0.06719086  0.070416448            3 
  350000    1.1779318   -4.2361029    281.88362  0.067115148   0.07038632            1 
  351000    1.1941955   -4.2499249    282.51328  0.067073428  0.070354824            3 
  352000    1.1957305   -4.2503249    282.75408  0.066939886  0.070324505            3 
  353000    1.1882144   -4.2606342    284.21872  0.067096016  0.070292814            1 
  354000    1.2070838   -4.2134475    286.57948  0.067462214  0.070263325            2 
  355000    1.1921653   -4.2125156    286.71884  0.067304893  0.070233798            2 
  356000     1.195115   -4.2265548    287.43269  0.067282932   0.07020772            3 
  357000     1.202383   -4.2682711    288.33579  0.067305274  0.070181681            2 
  358000    1.1850804   -4.2200399    290.44542  0.067608337  0.070157542            1 
  359000    1.1850532   -4.2003376    290.82845  0.067508925  0.070133774            4 
  360000    1.1870644   -4.2499802    291.28957  0.067428142  0.070109418            2 
  361000    1.2101604   -4.2461275    292.48658  0.067517678  0.070086635            4 
  362000    1.1818207   -4.2314392    294.99321  0.067908198  0.070068702            3 
  363000    1.1798055   -4.2363873    293.58047  0.067396802  0.070047725            3 
  364000    1.1832905   -4.2311546    295.42779  0.067634568  0.070026056            3 
  365000    1.2234097   -4.2373472     296.3519  0.067660252  0.070007051            1 
  366000    1.1801604   -4.2411111    298.80984  0.068035027  0.069986676            2 
  367000    1.1911228   -4.2280836    297.73591  0.067605792   0.06996813            2 
  368000    1.1946631    -4.235485    297.90695  0.067460812  0.069949388            2 
  369000    1.1921089   -4.2355283    299.72211  0.067687921  0.069929181            1 
  370000    1.2074769   -4.2469977    298.73403   0.06728244  0.069907879            4 
  371000    1.1549612   -4.2185752    301.44747  0.067710573  0.069886626            3 
  372000    1.1836913   -4.2447884    301.52244   0.06754535  0.069866265            1 
  373000    1.1804503   -4.2554709    300.79639  0.067202053  0.069845748            2 
  374000    1.1955527   -4.2359573    302.64365  0.067433969  0.069824035            2 
  375000    1.2007679   -4.2153378    303.61625  0.067470277  0.069803947            2 
  376000    1.1615761   -4.2267256    303.87606  0.067348417  0.069782225            3 
  377000    1.1671739   -4.2488662    303.77489  0.067147412  0.069761141            2 
  378000    1.2039112   -4.2672127    306.35869  0.067539394  0.069739827            2 
  379000    1.2226725    -4.260772    305.94275  0.067269734  0.069721169            2 
  380000    1.1992563   -4.2422897    307.20522  0.067369567  0.069701088            1 
  381000    1.1930121   -4.2818317    308.10287   0.06738908  0.069682809            2 
  382000    1.1885032   -4.2830102     308.7677    0.0673577  0.069665532            2 
  383000     1.194611   -4.2343244    309.81478  0.067409656  0.069646494            2 
  384000    1.1952807   -4.2309767    310.95368  0.067481267  0.069628987            3 
  385000    1.2091147   -4.2462067    312.80153   0.06770596  0.069611979            2 
  386000    1.1897228   -4.2038627     313.6474   0.06771317  0.069597492            2 
  387000    1.1640791   -4.2418158    315.24127   0.06788141  0.069582913            3 
  388000    1.1865514   -4.2306331     315.0961  0.067675279  0.069569739            2 
  389000    1.1965851   -4.2099674    317.27444   0.06796796   0.06955383            2 
  390000    1.1718693   -4.2770697    315.56925  0.067429327  0.069537596            3 
  391000    1.2038162   -4.2211301    317.53867  0.067676612  0.069520402            2 
  392000    1.1992227   -4.2525807    317.59094   0.06751508  0.069503216            3 
  393000    1.1865167   -4.2547947    317.69528  0.067365412  0.069484156            1 
  394000    1.1976492   -4.2247422    318.23013  0.067307558  0.069465075            2 
  395000    1.1846171   -4.2473598    320.15957  0.067544212  0.069447466            4 
  396000    1.1978822   -4.2392388    320.33496  0.067410555  0.069427912            2 
  397000     1.173831   -4.2537342     320.3136  0.067236271  0.069410196            3 
  398000    1.1704163   -4.2225628    321.47557  0.067310631  0.069393674            2 
  399000    1.1849736   -4.2714623    321.49367  0.067145711  0.069376051            3 
  400000    1.2029999   -4.2614915    323.21674  0.067336821  0.069360099            2 
  401000    1.1791114   -4.2488894    324.92926  0.067524784  0.069344482            3 
  402000    1.1775468   -4.2507585    324.40729  0.067248609  0.069329423            3 
  403000    1.2008396   -4.2798319    325.91758   0.06739404  0.069315154            4 
  404000    1.1721254   -4.2469885    327.42202  0.067537546  0.069301602            1 
  405000    1.1902644   -4.2419043    327.61579  0.067410657  0.069288219            3 
  406000    1.1843944    -4.253844    327.93507  0.067310154  0.069273421            2 
  407000    1.1861549   -4.2628093     329.2246  0.067408805  0.069259261            1 
  408000    1.1667486   -4.2401094    331.49641    0.0677076  0.069245015            3 
  409000    1.1979351   -4.2401613    332.48901  0.067744297  0.069231412            2 
  410000    1.1727227   -4.2610268     334.1873  0.067924248   0.06922023            1 
  411000    1.1759962   -4.2698997    334.08935  0.067739123  0.069209368            3 
  412000    1.1820523    -4.217023     334.9608  0.067750971   0.06920163            2 
  413000    1.1813308   -4.2573009    335.40724  0.067677006  0.069191604            2 
  414000    1.1830919   -4.2407653    336.69526  0.067772797  0.069183357            3 
  415000    1.1836917   -4.2703276    337.19424  0.067709686   0.06917461            3 
  416000    1.2198571   -4.2334458    337.91678  0.067691663  0.069165434            5 
  417000    1.1887885   -4.2834493    336.54164  0.067254525  0.069155816            4 
  418000    1.1780977   -4.2586692    338.58619  0.067501234  0.069146239            2 
  419000     1.158654   -4.2505709     340.0191  0.067625118  0.069135489            3 
  420000    1.1970742   -4.2438481    342.26456  0.067909635  0.069125094            2 
  421000    1.1628122   -4.2407442    342.65778  0.067826163  0.069115475            2 
  422000    1.1809029    -4.284518    341.96983  0.067529588  0.069104757            3 
  423000    1.1647678    -4.252394    344.11924  0.067793388  0.069093692            2 
  424000    1.1943035   -4.2770566    343.77319  0.067565485  0.069082494            2 
  425000     1.178519   -4.2757737    344.15054  0.067480499  0.069069769            3 
  426000     1.198441    -4.302246     342.9606  0.067089318  0.069057374            4 
  427000    1.2007643   -4.2474093    345.19174  0.067367632  0.069044662            2 
  428000     1.215997   -4.2731277    347.81647  0.067721276  0.069031962            1 
  429000    1.1673368   -4.2840663    346.16925  0.067243445  0.069018837            3 
  430000    1.2000022   -4.2895621    346.37091  0.067126144  0.069004108            1 
  431000    1.1742559   -4.2574597    348.88936   0.06745734  0.068989501            3 
  432000     1.190112   -4.2733981    349.83449  0.067483504   0.06897802            1 
  433000    1.1997992   -4.3144248    347.30181  0.066840226  0.068965745            3 
  434000    1.1992173   -4.2541254     350.9755  0.067391609  0.068952908            1 
  435000    1.1862703   -4.2733042    351.35706  0.067309782   0.06894113            4 
  436000    1.1827732   -4.2617151    351.11971  0.067110037  0.068927684            3 
  437000    1.1918921   -4.2683687    351.65174  0.067057922  0.068914057            2 
  438000    1.1931482     -4.26067     354.2994  0.067408561  0.068902706            2 
  439000    1.1504595   -4.2561565    355.54687  0.067491812  0.068890721            3 
  440000    1.1727636   -4.2182954    357.50506  0.067709292  0.068880029            6 
  441000    1.1948133   -4.2594579    357.18089  0.067494499  0.068869915            2 
  442000    1.1827728   -4.2693794      358.618  0.067612745  0.068858083            3 
  443000    1.1614234   -4.2871661    357.98517  0.067341078   0.06884786            3 
  444000     1.174263   -4.2758491    357.62878  0.067122518  0.068835776            2 
  445000    1.1909972   -4.2637246    358.97067  0.067222972  0.068823672            3 
  446000    1.1731702   -4.2265989    359.62419  0.067194354  0.068810714            2 
  447000    1.2042277    -4.253311    360.68404  0.067241618  0.068796557            3 
  448000    1.2011912   -4.2764899    361.76742  0.067293047  0.068782434            1 
  449000    1.1777325    -4.269659    361.20018  0.067037896  0.068768628            7 
  450000    1.1601683   -4.2478981    362.50585  0.067130712  0.068751802            2 
  451000    1.1864669   -4.2933958    362.27009  0.066938302  0.068737022            2 
  452000    1.1894732   -4.2623746    364.12138  0.067131522  0.068723713            3 
  453000    1.1829102   -4.2710482     365.0954   0.06716251  0.068708979            4 
  454000    1.1827181    -4.219526    367.03829  0.067371198  0.068694574            1 
  455000    1.1578041   -4.2419536    366.91181  0.067199964  0.068681393            2 
  456000    1.1806611   -4.2956084    367.20322  0.067105852  0.068666228            3 
  457000    1.1608574   -4.2844805    367.24127   0.06696595  0.068651402            2 
  458000    1.1944921   -4.2371849    369.29709  0.067193794  0.068639963            2 
  459000    1.1921645   -4.2804735    367.69415  0.066756381  0.068628729            2 
  460000    1.1712108   -4.2662543    371.97146  0.067386135  0.068617732            4 
  461000    1.1780119   -4.2671505    372.36737  0.067311527  0.068607506            1 
  462000     1.196334   -4.2641115    373.30922  0.067335718  0.068598089            1 
  463000    1.1494306   -4.2737352    375.73591  0.067627054  0.068589005            2 
  464000    1.1865151     -4.25187    375.59575  0.067456133  0.068578485            2 
  465000    1.1641746   -4.2684344    376.58621  0.067488568  0.068569201            3 
  466000    1.1631611   -4.2670449    376.24559  0.067282831   0.06855923            2 
  467000    1.1839885   -4.2451599    377.23842   0.06731592  0.068550208            2 
  468000    1.1863657   -4.2587399    376.35755  0.067015234   0.06854133            3 
  469000    1.1707117   -4.3109186    376.84392  0.066958764  0.068530825            2 
  470000     1.194954   -4.2552944    378.72065  0.067149052  0.068521278            2 
  471000    1.1773006   -4.2935916     379.8042  0.067198196  0.068511313            2 
  472000    1.1890638   -4.2907705    379.37374  0.066979827  0.068500673            1 
  473000    1.1732869   -4.2753519    381.09912  0.067142199  0.068489585            2 
  474000    1.1795604   -4.3145957    380.79067   0.06694632  0.068477212            2 
  475000    1.1970523   -4.2614315    382.15162  0.067044144  0.068463458            5 
  476000    1.1806764   -4.2832808    381.52877  0.066794252  0.068450801            2 
  477000    1.1605574    -4.271463    383.77987  0.067047496  0.068437622            2 
  478000    1.1776344   -4.2314556    384.41456   0.06701788  0.068424662            1 
  479000    1.2039579   -4.2777084    384.38586  0.066872974  0.068410326            2 
  480000    1.1850623   -4.2544385    386.53859  0.067107394  0.068396258            2 
  481000    1.1830433   -4.2472439    386.53712  0.066967623  0.068383446            2 
  482000    1.1642795   -4.2886904    386.73811  0.066863436  0.068370544            3 
  483000     1.154442   -4.2548782    388.88829  0.067095978  0.068358147            2 
  484000    1.1731918   -4.2700812     388.6205  0.066911244  0.068346782            2 
  485000    1.1755442   -4.2552278    389.95815  0.067003118  0.068334543            2 
  486000    1.1602716   -4.2973566    391.49381  0.067128569  0.068324236            2 
  487000    1.1596501   -4.2968814    388.99395  0.066562961  0.068312235            3 
  488000    1.1718263   -4.2691662     392.7213  0.067063064  0.068300146            1 
  489000    1.1767199   -4.2689387    392.34727   0.06686218  0.068289373            2 
  490000    1.1735162   -4.2379696    394.91531  0.067162468  0.068278026            3 
  491000    1.1553303   -4.2633953    393.00897  0.066702133  0.068267381            4 
  492000    1.1831943   -4.2805418    395.98782  0.067071107  0.068257905            2 
  493000    1.1659723   -4.2965102    396.28902  0.066985974  0.068247728            3 
  494000     1.191274   -4.2842173    396.11077  0.066820306  0.068235807            2 
  495000     1.164304   -4.2605948    396.25993  0.066710426  0.068222558            3 
  496000     1.156931   -4.3041948    396.20113   0.06656605  0.068210034            4 
  497000    1.1429338    -4.249931    399.08416   0.06691552  0.068195774            2 
  498000    1.1937559   -4.2907516    397.59225  0.066531501   0.06818148            2 
  499000     1.164988   -4.2780488     398.6565  0.066575901  0.068166904            2 
  500000    1.1747518   -4.3196798    398.51653  0.066419422  0.068152455            2 
  501000    1.1659137   -4.2664273    400.18344  0.066564112   0.06813836            3 
  502000    1.1839825   -4.2383623    402.45128  0.066807981  0.068123072            5 
  503000    1.1917696   -4.2709876    400.98226  0.066431786  0.068107791            3 
  504000    1.1655297   -4.2640023    404.04852  0.066806964  0.068092243            3 
  505000    1.1637267   -4.3029741    402.48167  0.066416118  0.068076947            2 
  506000    1.1658699   -4.2683629    405.00579  0.066700558  0.068063082            7 
  507000    1.1360665   -4.2954073    404.63993  0.066508864  0.068047475            1 
  508000    1.1458769   -4.2656102    406.63954  0.066705962   0.06803414            3 
  509000    1.1733499   -4.2853304    406.90126  0.066617757  0.068020773            6 
  510000    1.1479203   -4.2858338    407.16647  0.066530469  0.068007562            2 
  511000    1.1804518   -4.2833294    408.38231   0.06659855  0.067994778            1 
  512000    1.1643386   -4.2940977    408.74534  0.066527562  0.067981786            5 
  513000    1.1503259   -4.2430284    409.86826  0.066580288  0.067968333            4 
  514000    1.1655588   -4.2623602    410.99947  0.066634155  0.067956137            2 
  515000    1.1753927   -4.3067878    409.76875  0.066305623  0.067942807            5 
  516000    1.1527973   -4.2999328    411.93147  0.066526401  0.067930527            2 
  517000    1.1635888    -4.304765    413.19177  0.066600865  0.067917659            2 
  518000     1.158761   -4.2683623    413.78781  0.066568181  0.067904943            1 
  519000    1.1956879   -4.2749115    413.76564  0.066436359  0.067892355            2 
  520000    1.1678825   -4.2806706    415.69775   0.06661823  0.067880536            2 
  521000    1.1619844   -4.2835899    416.12299   0.06655838  0.067868799            3 
  522000    1.1651554   -4.2919926    416.31171     0.066461   0.06785619            2 
  523000    1.1759887   -4.2891373    418.76479  0.066724792   0.06784573            1 
  524000      1.15159   -4.3058764    419.44571  0.066705743  0.067836165            3 
  525000    1.1587028   -4.2938414    420.76426  0.066787978  0.067827379            2 
  526000    1.2132526   -4.2928086    421.93862  0.066847057   0.06781942            3 
  527000    1.1876489   -4.2612334    424.98757  0.067202336  0.067811443            2 
  528000    1.1875663   -4.2907681    424.64422  0.067020869  0.067803104            2 
  529000    1.1947474   -4.3095268    422.96291  0.066629317  0.067794357            2 
  530000    1.1777725    -4.277768    425.16751  0.066850238  0.067786252            1 
  531000    1.1634883   -4.2747216    425.73263  0.066813031  0.067778553            2 
  532000    1.1967901   -4.3064462    425.27015  0.066614999  0.067770448            2 
  533000    1.1875815   -4.2894598    426.72333  0.066717218  0.067761686            1 
  534000    1.1726321   -4.2878681    428.38412  0.066851454  0.067753596            3 
  535000    1.1545692    -4.312243    428.96625  0.066817173  0.067745589            5 
  536000    1.1418665   -4.2606269     430.8282  0.066981996  0.067737588            1 
  537000    1.1818006   -4.2752067    430.02504  0.066732625  0.067729533            1 
  538000    1.1769323   -4.2711131    431.78879  0.066881783  0.067722543            2 
  539000    1.1801764   -4.2707762    433.56569  0.067032419  0.067715563            3 
  540000    1.1346641   -4.2767656    433.96685  0.066970194   0.06770804            2 
  541000    1.1855871   -4.2802599    432.94315  0.066688717   0.06769862            1 
  542000    1.1525866    -4.348055    433.24562  0.066612181  0.067689357            2 
  543000      1.17104   -4.2705113    435.31004  0.066806329  0.067681284            3 
  544000    1.1688007    -4.290959    436.11502  0.066806835  0.067674441            2 
  545000    1.1406928   -4.2980635    436.34469  0.066719371  0.067666972            2 
  546000      1.14423   -4.2573073    437.47611  0.066769857  0.067658396            5 
  547000    1.1717495   -4.2612095    439.11356  0.066897252  0.067651476            1 
  548000    1.1616072    -4.316839     439.1015  0.066773342  0.067644538            3 
  549000    1.1469162   -4.2902625    440.64835  0.066886514  0.067636339            2 
  550000      1.15089   -4.2656163    441.59394  0.066908173  0.067629437            3 
  551000    1.1545795   -4.2908721    442.13114  0.066867988  0.067621713            2 
  552000    1.1712373   -4.2988703    441.72808  0.066686002  0.067613667            3 
  553000    1.1679313   -4.2995236    443.69872  0.066862375  0.067605685            2 
  554000    1.1596243   -4.2916488     443.9582  0.066780716  0.067598269            2 
  555000    1.1848774    -4.334496    443.03841  0.066522283  0.067590043            2 
  556000    1.1774553    -4.280847    444.76497  0.066661417   0.06758092            2 
  557000    1.1629657   -4.2935129    444.48392  0.066499689  0.067571699            3 
  558000    1.1486648    -4.300748    447.05158  0.066763976  0.067561376            3 
  559000    1.1566262   -4.3022755    445.79348  0.066456989  0.067550488            2 
  560000    1.1738173   -4.2970605    446.20469  0.066399508  0.067538673            3 
  561000    1.1618339   -4.2887988    448.71525  0.066654078  0.067528937            3 
  562000    1.1825628   -4.2955125    448.83722  0.066553562  0.067518748            4 
  563000     1.166649   -4.2858605    451.23941  0.066790914   0.06750895            4 
  564000    1.1546068   -4.2906893    450.59819  0.066577747   0.06749981            2 
  565000    1.1431131   -4.3129507    451.82542  0.066640918  0.067491597            1 
  566000    1.1637378   -4.2808599    451.13198   0.06642108   0.06748125            2 
  567000     1.179902   -4.3148901     451.7589  0.066396076  0.067471358            3 
  568000    1.1611144   -4.3145717    450.87391  0.066149341  0.067460435            4 
  569000    1.1522863   -4.2956347    453.89456  0.066475477  0.067449023            5 
  570000    1.1627408   -4.2903864    454.91947  0.066508694  0.067437733            2 
  571000    1.1584758   -4.3048088    455.24073  0.066439103  0.067428344            1 
  572000    1.1487028   -4.2698349    456.34396  0.066483677  0.067418337            4 
  573000    1.1399494   -4.2803926    456.75236  0.066427045  0.067407651            2 
  574000    1.1729934   -4.2953929    458.95371   0.06663091  0.067398014            5 
  575000     1.191375   -4.2626742    458.89619  0.066506695  0.067388446            3 
  576000    1.1950872   -4.3142332    458.86757  0.066387091    0.0673791            2 
  577000    1.1816396   -4.3125205    458.76927  0.066257838  0.067369725            2 
  578000    1.1294989   -4.2912024    460.72816  0.066425628  0.067360638            1 
  579000    1.1403183   -4.2833637    462.13534  0.066513434  0.067351132            2 
  580000    1.1335277   -4.3062808    463.30709   0.06656711  0.067341882            2 
  581000    1.1513014    -4.326813    462.86175  0.066388662  0.067331811            2 
  582000    1.1779173   -4.2806023    464.88747  0.066564644  0.067323952            1 
  583000    1.1488173   -4.2876228    466.03457  0.066614432  0.067315735            1 
  584000    1.1673947   -4.2856862    465.65559  0.066446289  0.067306548            3 
  585000    1.1639982   -4.3132848    465.87821  0.066364418  0.067297738            2 
  586000    1.1514095   -4.3023642     468.3222  0.066598721  0.067287295            1 
  587000    1.1454502    -4.336263    466.70252  0.066255327  0.067277754            5 
  588000    1.1591477   -4.2786093    469.73987   0.06657311  0.067269079            3 
  589000     1.148183   -4.3002802       468.78  0.066324278   0.06726041            3 
  590000    1.1851803   -4.2984392    471.38693  0.066580075  0.067250972            3 
  591000    1.1437763   -4.2934602    472.50884  0.066625612  0.067242746            4 
  592000    1.1258338   -4.3069229    472.80234  0.066554383  0.067234222            2 
  593000    1.1565939   -4.3150607    473.14215  0.066489903    0.0672257            2 
  594000    1.1700297   -4.3058692    473.30211  0.066400409  0.067216232            1 
  595000    1.1644817   -4.2895805    473.40063  0.066302609  0.067207553            4 
  596000    1.1613174   -4.3049523    474.01232  0.066276891  0.067199147            2 
  597000    1.1630573   -4.3258738    474.54952   0.06624086  0.067190029            3 
  598000    1.1554884   -4.2526848    479.19261  0.066777119  0.067181329            3 
  599000    1.1843997   -4.3148195    476.40687  0.066278084  0.067172673            4 
  600000    1.1454518   -4.3134607    476.55877  0.066188718  0.067163582            2 
  601000    1.1370763   -4.3088357    476.74255   0.06610407  0.067155338            3 
  602000    1.1736119   -4.2830872    477.47893  0.066096198  0.067145398            3 
  603000    1.1563525    -4.302396    479.00493  0.066197476  0.067134728            3 
  604000     1.146774   -4.2757658    479.78562  0.066195587  0.067124989            4 
  605000    1.1611976   -4.3153602    480.58095  0.066195723  0.067114953            2 
  606000    1.1441459    -4.307856    480.45876  0.066069686  0.067104562            2 
  607000    1.1564427   -4.3330086    481.51415  0.066105732  0.067094188            3 
  608000    1.1231254   -4.3173225    483.64694  0.066289328  0.067084134            3 
  609000    1.1687566   -4.3131654    483.33537  0.066137844  0.067073526            2 
  610000    1.1328617   -4.3289089     484.2362  0.066152486   0.06706332            2 
  611000    1.1809928    -4.288994    484.44421  0.066072587  0.067053914            5 
  612000     1.180691    -4.326661    484.80708  0.066014036  0.067044478            3 
  613000    1.1320464   -4.3323336    484.67879  0.065888906  0.067034029            2 
  614000    1.1433342   -4.3107769    488.02398   0.06623561  0.067023533            2 
  615000    1.1432201   -4.3150974    487.43662  0.066048323  0.067012428            2 
  616000    1.1481496   -4.3077859    487.83196  0.065994584  0.067001289            2 
  617000    1.1458827   -4.2837102    487.83508  0.065888044  0.066989286            1 
  618000    1.1716103    -4.295508    488.83109  0.065915735  0.066977645            4 
  619000    1.1165228   -4.2955509    490.40199  0.066020731   0.06696659            2 
  620000    1.1576126   -4.2335621    492.61227  0.066211327  0.066955691            2 
  621000    1.1602295   -4.3054658     491.7777  0.065992713  0.066945126            2 
  622000    1.1135387   -4.3025385    495.23807  0.066350224  0.066934481            3 
  623000    1.1206411   -4.3460666    490.64658  0.065629558  0.066923762            2 
  624000    1.1423265   -4.3239986    495.29705   0.06614544   0.06691246            5 
  625000    1.1356709   -4.3265317    494.39326  0.065919101  0.066902102            4 
  626000    1.1469055   -4.3373342    495.40039  0.065947868  0.066891166            5 
  627000    1.1547007   -4.3323443    494.93988  0.065781483  0.066880901            5 
  628000    1.1513272   -4.3145507    497.80875  0.066057424  0.066870961            1 
  629000     1.152231   -4.3248106    497.54814  0.065917877   0.06686232            3 
  630000     1.151583   -4.2936568    497.08856  0.065752454  0.066851132            2 
  631000    1.1436659   -4.2687708    501.75692  0.066264781  0.066841043            3 
  632000      1.11445   -4.2864713    499.18142  0.065820335  0.066831498            2 
  633000    1.1488624   -4.3206942    500.99743  0.065955428  0.066822201            4 
  634000    1.1454132   -4.3023214    503.36016  0.066161956  0.066813389            1 
  635000    1.1579152   -4.3061607    501.96151  0.065874214  0.066805159            2 
  636000     1.159955     -4.30841    506.23802  0.066330978  0.066797632            2 
  637000    1.1452431   -4.3117551    506.06979  0.066204838  0.066790487            2 
  638000    1.1537844   -4.3118287    505.72183  0.066055621  0.066781806            2 
  639000    1.1225009   -4.3424848     505.1258  0.065874518   0.06677364            3 
  640000    1.1665237   -4.2984555    508.01697  0.066148043  0.066764923            3 
  641000    1.1548384   -4.2895358    510.42177  0.066357484  0.066757118            1 
  642000    1.1239651    -4.280966    511.18665  0.066353408  0.066749784            2 
  643000     1.158614   -4.3447991    507.42076  0.065762152  0.066741131            3 
  644000    1.1366762   -4.2982218    511.63991  0.066205992  0.066733721            6 
  645000    1.1324604   -4.3004985    513.12293  0.066294952  0.066726667            4 
  646000    1.1806367   -4.3354147    512.86169  0.066158629  0.066719848            3 
  647000    1.1355833   -4.3036561    514.76677  0.066301747  0.066713262            3 
  648000    1.1569499   -4.3278182    515.46117  0.066288731   0.06670663            3 
  649000    1.1582799   -4.3531301    513.49399     0.065934  0.066701032            3 
  650000    1.1554939   -4.3438231    517.05524  0.066289133  0.066693903            4 
  651000    1.1421697   -4.3369857    514.60021  0.065873043  0.066687771            3 
  652000    1.1531927   -4.3343635    518.41687  0.066259825  0.066682771            2 
  653000    1.1344569   -4.3356186    519.56383  0.066304725  0.066677023            1 
  654000     1.140428   -4.3060173    521.61125  0.066464227  0.066672138            1 
  655000    1.1329735   -4.3582257    519.19827   0.06605576  0.066666367            4 
  656000    1.1481076   -4.3329912    520.78573  0.066156724  0.066660078            2 
  657000    1.1350981   -4.2757121     522.4814  0.066271107  0.066653006            2 
  658000    1.1379839   -4.3330541     522.1441  0.066127672  0.066646255            3 
  659000    1.1428479   -4.2979598    523.12778  0.066151717  0.066640003            2 
  660000    1.1383429   -4.2873295    525.73857  0.066381133  0.066634029            2 
  661000    1.1692064   -4.3093025    525.68051  0.066273387  0.066628508            3 
  662000    1.1478478   -4.3581196    526.63069  0.066292887  0.066623211            5 
  663000    1.1476518   -4.3158634    527.61541  0.066316668  0.066617234            4 
  664000    1.1708583   -4.3246872    528.33383  0.066306956    0.0666126            4 
  665000    1.1425021   -4.3232831     529.5976  0.066365614  0.066607024            5 
  666000    1.1391648   -4.3057869    530.56077  0.066386483  0.066602688            3 
  667000      1.14549   -4.3357164    529.04686  0.066097809  0.066596483            5 
  668000    1.1509457    -4.321824    528.87196  0.065977041  0.066591212            2 
  669000    1.1350995   -4.3211037    531.32821  0.066184381  0.066586308            2 
  670000    1.1314107   -4.3352571    532.22723  0.066197417  0.066580519            3 
  671000    1.1155486   -4.3220566    533.46539  0.066252532  0.066574243            2 
  672000    1.1584335   -4.3559775    531.83369  0.065951599  0.066567388            2 
  673000    1.1451732   -4.2986509    534.08629  0.066132527  0.066560343            3 
  674000    1.1447737   -4.2835522    534.35491   0.06606762  0.066553903            7 
  675000    1.1469152   -4.3333821    533.16526  0.065822871  0.066546927            2 
  676000     1.143794   -4.3063984    535.69209  0.066036994  0.066539373            4 
  677000    1.1628497   -4.3120015     535.3018  0.065891408  0.066532782            2 
  678000    1.1580045    -4.297254    538.10375  0.066138612   0.06652634            2 
  679000    1.1661431    -4.296088    537.39897  0.065954709  0.066519018            4 
  680000     1.142024   -4.2965071    537.96788  0.065927436  0.066512641            1 
  681000    1.1561455   -4.3194929    538.40363  0.065883949  0.066504542            2 
  682000    1.1667146   -4.2933128    539.95632  0.065977067  0.066496404            3 
  683000    1.1477148    -4.320139    539.42826   0.06581604    0.0664888            1 
  684000    1.1326189   -4.2882768    541.65494  0.065991099  0.066480412            4 
  685000    1.1214611    -4.329983    539.53593  0.065636974  0.066472379            6 
  686000    1.1431038   -4.3270794    541.86922  0.065824735  0.066464144            3 
  687000    1.1426231   -4.2883687    544.44534  0.066041404  0.066456368            2 
  688000    1.1314675   -4.3526685    540.92059  0.065518482  0.066447958            4 
  689000    1.1233294   -4.3413717     543.6737  0.065756374  0.066439421            3 
  690000    1.1200633   -4.3346328    542.85095  0.065561709  0.066430587            2 
  691000    1.1368664   -4.3650203    544.22097  0.065632052  0.066421636            2 
  692000    1.1432316    -4.299092    548.47331   0.06604929  0.066413873            6 
  693000    1.1466232   -4.3646103    545.14555  0.065553818  0.066405809            2 
  694000    1.1412558   -4.3292925    549.29464   0.06595757  0.066397495            2 
  695000    1.1149983   -4.3356346      549.225  0.065854316  0.066389412            2 
  696000    1.1273708   -4.3368591    549.70091  0.065816679  0.066382686            2 
  697000    1.1123694   -4.3275671    550.03275  0.065761926  0.066375228            2 
  698000    1.1422679   -4.3167951    550.92037  0.065773684  0.066367305            5 
  699000    1.1137713   -4.3293553     552.6618  0.065887196  0.066359859            2 
  700000     1.150948   -4.3334015    553.59416  0.065904066  0.066352038            1 
  701000    1.1453491   -4.3663218    552.06552  0.065628331  0.066343763            2 
  702000    1.1457254    -4.335455    552.98369  0.065643838  0.066334928            2 
  703000    1.1487779   -4.3499765    550.76319  0.065287244   0.06632564            2 
  704000    1.1320333   -4.3106567    557.29022  0.065967119   0.06631653            5 
  705000    1.1346926   -4.3200356    556.12708  0.065736061  0.066307226            6 
  706000    1.1294364    -4.340953    554.19379  0.065414754  0.066298205            4 
  707000    1.1384798   -4.3403253    554.92757  0.065408718  0.066287651            4 
  708000    1.1358116   -4.3457204    555.42326  0.065374677  0.066277606            2 
  709000    1.1378255   -4.3446158    556.44725  0.065402827  0.066268228            2 
  710000    1.1325616   -4.3608023    555.99558  0.065257697  0.066257964            4 
  711000     1.171674   -4.3399028    560.03078  0.065638863  0.066247746            3 
  712000    1.1567981   -4.3395426    557.06492  0.065199546  0.066236773            2 
  713000    1.1460986    -4.337174    557.09734  0.065111891   0.06622578            1 
  714000    1.1604274   -4.3296663    559.54767  0.065306684  0.066214983            1 
  715000    1.1433359   -4.3659645    556.05343  0.064808092  0.066203764            5 
  716000    1.1552476   -4.3123628    560.05788  0.065183645  0.066193226            2 
  717000    1.1419684       -4.344    560.87897  0.065188165  0.066181657            1 
  718000    1.1200557   -4.3045535    561.73881  0.065197169  0.066170792            2 
  719000    1.1227382   -4.3606587    562.98569  0.065251007  0.066160282            2 
  720000    1.1343172   -4.3460467    564.39484  0.065323477  0.066147803            2 
  721000      1.13187   -4.3508685    562.96036  0.065067078   0.06613705            6 
  722000    1.1210115   -4.3298341    562.98865  0.064980223  0.066125702            1 
  723000    1.1438935   -4.3409835    565.12023  0.065136033  0.066114668            2 
  724000    1.1236702   -4.3639094    567.99843  0.065377351  0.066102922            3 
  725000    1.1151346   -4.3647101    566.96716  0.065168639  0.066091944            4 
  726000     1.142841   -4.3678727    567.34912  0.065122718   0.06608123            4 
  727000    1.1517585   -4.3604169    567.70481  0.065073912  0.066071162            1 
  728000    1.1464181   -4.3952492    567.63499  0.064976532  0.066060893            4 
  729000    1.1387163    -4.366791    568.54845  0.064991822  0.066050588            2 
  730000    1.1278366   -4.3350815    572.71408   0.06537832  0.066041108            3 
  731000    1.1336977   -4.3651005    570.34797  0.065019148   0.06603024            2 
  732000    1.1319677   -4.3355735    573.61437  0.065302182  0.066020096            2 
  733000    1.1409299   -4.3357798    573.64903  0.065217034  0.066009866            3 
  734000    1.1114997   -4.3389112    574.06905  0.065175868  0.065999162            3 
  735000    1.1223441   -4.3311869    572.93027   0.06495808  0.065989061            1 
  736000    1.1441248   -4.3371648     574.8069  0.065082303  0.065978151            1 
  737000    1.1542541   -4.3433489    577.08242  0.065251291  0.065967979            4 
  738000    1.1234269   -4.3281082    578.01213  0.065267855  0.065957681            3 
  739000    1.1464644   -4.3241739    579.26097  0.065320362  0.065947421            3 
  740000    1.1278767   -4.3381412    577.79034  0.065066479  0.065937277            4 
  741000    1.1134223   -4.3151067    578.12888  0.065016743  0.065927992            2 
  742000    1.1139683   -4.3527237    579.19748  0.065049132  0.065918137            3 
  743000    1.1507256   -4.3146275    579.91816  0.065042414  0.065907675            2 
  744000    1.1208905   -4.3313611    580.71174  0.065043878  0.065897414            2 
  745000    1.1400124   -4.2796696    583.13014  0.065227084  0.065887341            2 
  746000    1.1126757   -4.3040232    583.80113  0.065214604  0.065877389            1 
  747000    1.1292187   -4.3316723    584.60417  0.065216886  0.065868139            2 
  748000    1.1369146   -4.3300919    583.26537  0.064980545  0.065857846            2 
  749000     1.114824   -4.2944824    584.22661  0.065000735   0.06584826            2 
  750000    1.1182904   -4.3439283    587.62889  0.065292099  0.065838382            2 
  751000    1.1228274   -4.3577973    584.48294  0.064856074   0.06582924            3 
  752000    1.1094643   -4.3893472    587.24644  0.065076069  0.065819885            2 
  753000    1.1123109   -4.3519234    588.36999  0.065113987   0.06581007            2 
  754000    1.1151943   -4.3661616    588.04507  0.064991718  0.065800543            4 
  755000     1.100898    -4.328584    591.34478  0.065269843  0.065790727            2 
  756000    1.1108996   -4.3441954    589.00473  0.064925566  0.065780864            2 
  757000    1.1280273   -4.3153932    591.93719  0.065162615  0.065772518            1 
  758000      1.12959   -4.3399483    592.91823  0.065184502  0.065763879            3 
  759000    1.1433135     -4.33661    595.33674  0.065364157  0.065755948            3 
  760000    1.1323232    -4.390767    594.49677  0.065186049   0.06574847            3 
  761000    1.1430457   -4.3437408     594.3341  0.065082578  0.065741198            2 
  762000    1.1516914   -4.3309933    597.88713  0.065385731   0.06573371            2 
  763000    1.1336276   -4.3731541    593.12154  0.064779548  0.065726289            3 
  764000    1.1438541    -4.352413    598.27451  0.065256818  0.065717753            3 
  765000    1.1147645   -4.3541591    598.09059   0.06515148   0.06570996            1 
  766000    1.1151647   -4.3472556    599.46756  0.065216227  0.065701191            3 
  767000    1.0946755    -4.344033    596.93982  0.064856564  0.065691962            2 
  768000    1.1393508   -4.3478818    599.77509  0.065079762  0.065683187            2 
  769000    1.1111999   -4.3070388    599.89084  0.065007676   0.06567421            2 
  770000     1.145951   -4.3727877    600.86454   0.06502863  0.065664768            2 
  771000      1.13686   -4.3408429    600.61042   0.06491682  0.065655758            4 
  772000    1.1435737   -4.3466516    600.24084  0.064792837  0.065646516            2 
  773000    1.1302708   -4.3443105    602.62661  0.064966215  0.065636576            2 
  774000    1.1376322    -4.335523    604.18094  0.065049628  0.065626845            3 
  775000    1.1297265   -4.3474646    602.23591   0.06475655  0.065617572            2 
  776000    1.1159579   -4.3724442    602.18879   0.06466804  0.065607446            3 
  777000    1.1328168   -4.3690466    605.50749  0.064940744    0.0655978            1 
  778000    1.1483813   -4.3759593    604.10772  0.064707339   0.06558776            2 
  779000    1.1070678   -4.3546038    606.75675  0.064907654  0.065578248            1 
  780000    1.1085948   -4.3227549     607.3758  0.064890576  0.065568806            1 
  781000    1.1362809   -4.3612746    607.66641  0.064838498  0.065558501            1 
  782000     1.124039   -4.3546467    607.18321  0.064704093  0.065547656            3 
  783000    1.1161241   -4.3654948    607.80317  0.064687439  0.065537153            1 
  784000    1.1390357   -4.3172613    609.62849  0.064798947  0.065526981            4 
  785000    1.1224797   -4.3438432    610.35967   0.06479402  0.065517095            1 
  786000    1.1247167   -4.3274239    611.62185  0.064845403  0.065507519            3 
  787000    1.1271394   -4.3202397    611.88597  0.064790976  0.065496646            2 
  788000    1.1251126   -4.3651702    611.63183  0.064681877  0.065486644            3 
  789000    1.0964035   -4.3572966    612.19629  0.064659515  0.065476125            2 
  790000    1.1283043    -4.331934    614.81893  0.064854318  0.065465478            3 
  791000    1.1238767   -4.3525578    612.64218  0.064543002  0.065455064            1 
  792000    1.1250429   -4.3737759    614.22098  0.064627628  0.065444348            3 
  793000    1.0947397   -4.3325473    616.57098  0.064793083  0.065434032            5 
  794000    1.1332496   -4.3636656    615.65877   0.06461574  0.065423119            2 
  795000    1.1379813   -4.3639118    615.39255  0.064506556  0.065411926            2 
  796000    1.1120915   -4.3578062    617.46801  0.064642798  0.065401671            2 
  797000    1.1043952   -4.3464306    619.35517   0.06475901  0.065390726            2 
  798000    1.1311128   -4.3625376    618.73009  0.064612583  0.065379866            2 
  799000    1.0962787   -4.3458148    618.98565   0.06455837  0.065369167            4 
  800000    1.1320846   -4.3310308      620.496     0.064635  0.065358702            1 
  801000     1.112045    -4.372132    620.11934  0.064515121  0.065348834            2 
  802000    1.1420423   -4.3718539    618.95082  0.064313261  0.065338523            2 
  803000     1.132964   -4.3601928    623.03609  0.064657129  0.065327912            2 
  804000    1.1210545   -4.3713097    622.20523  0.064490592  0.065317388            2 
  805000    1.1232805   -4.3686343    621.81617  0.064370204   0.06530589            2 
  806000    1.0966135   -4.3526907    624.99227  0.064618722  0.065296376            1 
  807000    1.1333152   -4.3910735    624.89235   0.06452833  0.065286231            7 
  808000    1.1528712    -4.360687    627.65872  0.064733779  0.065277099            2 
  809000     1.114682    -4.383154    624.81021  0.064360343  0.065267729            3 
  810000    1.1321589   -4.3689882    623.56163  0.064152431  0.065256443            2 
  811000    1.1160393   -4.3811425    625.51088  0.064273621   0.06524593            3 
  812000    1.1318926   -4.3577461    626.96704  0.064343908  0.065234817            2 
  813000    1.1372058   -4.3729604    628.11042  0.064381961  0.065223907            3 
  814000    1.1434443   -4.3562916    630.70155  0.064568135  0.065213699            1 
  815000    1.1225133     -4.37906    631.37648  0.064557922  0.065203221            2 
  816000    1.1183825   -4.3660451    628.60823  0.064196101  0.065192547            2 
  817000    1.1276524   -4.3703028    631.24475   0.06438645  0.065181682            3 
  818000    1.1081261   -4.3757095    632.47976  0.064433554  0.065171094            6 
  819000    1.1234181   -4.3301059    635.12013  0.064623538   0.06516005            2 
  820000    1.1305189   -4.3576013    631.08991  0.064135154  0.065149623            1 
  821000    1.1080481    -4.384024    632.26263  0.064176068  0.065139042            1 
  822000    1.1056196   -4.3692077    632.44939  0.064116929  0.065127334            2 
  823000    1.1333555   -4.3368504    636.80899  0.064480457   0.06511561            5 
  824000    1.1316304   -4.3891523    634.78422  0.064197434  0.065104903            3 
  825000    1.1254275   -4.3697893    637.98589  0.064443019  0.065093113            1 
  826000    1.1202982   -4.3771101    637.57601   0.06432365   0.06508145            8 
  827000     1.091866   -4.3384419    633.66982  0.063852259  0.065069394            2 
  828000     1.129665   -4.3872543    636.46775  0.064056739  0.065056951            3 
  829000    1.1068281   -4.3870301    635.85612  0.063917986  0.065045107            2 
  830000    1.1260233   -4.3223995    638.16942  0.064073235  0.065033168            2 
  831000     1.115671   -4.3873274    637.64851  0.063943894  0.065021299            2 
  832000    1.1166106   -4.3571715    640.49446  0.064152089  0.065009833            2 
  833000    1.1092639   -4.3993145    638.08069  0.063833602  0.064998212            2 
  834000    1.1135447   -4.3783361    642.50219   0.06419886  0.064986659            2 
  835000    1.1163251   -4.3296439    648.02197  0.064672852  0.064975797            2 
  836000    1.1019688   -4.3793048    643.97121  0.064191707  0.064965126            2 
  837000    1.1155239   -4.3334909    644.49741  0.064167404   0.06495425            3 
  838000    1.1231321   -4.3969772    644.33604  0.064074785  0.064943596            6 
  839000    1.1055972   -4.3666702    644.41673  0.064006429  0.064933088            2 
  840000    1.1213167   -4.3879102     645.5325  0.064040923   0.06492248            3 
  841000    1.1540639   -4.3484756    646.76758  0.064087156  0.064911577            2 
  842000    1.1124667   -4.3942685    644.81509  0.063817804  0.064900714            1 
  843000    1.1012797    -4.336419    647.39826  0.063997456  0.064889645            2 
  844000    1.1291286   -4.3522663    648.38161  0.064018721  0.064878837            4 
  845000    1.1195145   -4.3416994    649.48651  0.064051924  0.064867501            2 
  846000    1.1076669   -4.3488009    650.79652  0.064105252  0.064857001            3 
  847000    1.1424056   -4.3492833    653.17774  0.064263847   0.06484631            5 
  848000    1.0826568   -4.3842535    651.28919  0.064002475  0.064835791            2 
  849000    1.1167231   -4.3537307    654.90819  0.064282312    0.0648248            3 
  850000    1.1068819   -4.3479871     651.7206  0.063894176   0.06481378            1 
  851000    1.1118319    -4.366214    652.39615  0.063885248  0.064802844            4 
  852000    1.1274036   -4.3429544     656.4248  0.064204303  0.064792133            2 
  853000    1.1096254   -4.3747112    655.82552  0.064070488  0.064780914            2 
  854000    1.1048859   -4.3525874    655.92604  0.064005273  0.064770292            7 
  855000    1.1473737   -4.3544414     659.0964  0.064239415  0.064758463            2 
  856000     1.111182   -4.3992022    654.96852  0.063762512  0.064747096            1 
  857000    1.1199067    -4.368815     656.9984  0.063885492  0.064735334            3 
  858000    1.1385123   -4.3817592    656.14615  0.063728259  0.064724167            3 
  859000    1.1071442   -4.3830586    656.60094  0.063698189  0.064713358            5 
  860000    1.1184534   -4.3954572    659.14247  0.063870394  0.064701863            1 
  861000    1.1106477   -4.3937279    658.24594   0.06370944  0.064690168            2 
  862000    1.1147438   -4.3770172    660.66591   0.06386948  0.064677843            2 
  863000    1.1012507   -4.3774008    661.31331  0.063857986  0.064665434            2 
  864000    1.1311945   -4.3844434    657.99691  0.063464208  0.064652663            1 
  865000    1.1205849   -4.4001978    659.06435  0.063493676  0.064639634            3 
  866000    1.0875326    -4.389924    661.19416  0.063625304  0.064627178            2 
  867000    1.0840475   -4.3299943    662.70925  0.063697544  0.064615038            4 
  868000    1.1347498   -4.4048279    660.61343  0.063422948  0.064602474            2 
  869000    1.1239279   -4.3934118    662.22691  0.063504691  0.064590234            2 
  870000    1.1159124   -4.3510314    666.49086   0.06384012  0.064578081            2 
  871000    1.1247264   -4.3792046    662.54031  0.063388855   0.06456504            2 
  872000    1.1137968   -4.3422421    666.76618   0.06372001  0.064552409            2 
  873000    1.1036901   -4.3449404    666.75305  0.063645766  0.064539212            2 
  874000     1.109167   -4.3784517    667.20787  0.063616311   0.06452671            3 
  875000    1.1176229   -4.3697678    669.42723  0.063754974    0.0645141            2 
  876000    1.1074866   -4.3198364    670.94077  0.063826176  0.064501668            3 
  877000    1.1057987   -4.3828551    667.98804  0.063472828  0.064489584            2 
  878000    1.1002245   -4.3727951    668.17607  0.063418382  0.064476929            2 
  879000    1.1192785   -4.3490821    671.08705  0.063622208  0.064464522            4 
  880000    1.1101055   -4.3875844    672.82944  0.063714909  0.064451811            3 
  881000    1.1321108   -4.3676353    673.90836  0.063744642  0.064439552            3 
  882000    1.0852677   -4.3698048    672.55988  0.063544962  0.064427377            2 
  883000    1.0906641   -4.3469299    673.78529  0.063588646  0.064415048            4 
  884000    1.1078451   -4.3599872    673.23528  0.063464864   0.06440323            2 
  885000    1.1200996   -4.3821355    675.61537  0.063617266  0.064391608            1 
  886000    1.1012299   -4.3800975    674.33184  0.063424741  0.064380309            4 
  887000    1.1190981   -4.3674046    678.02932  0.063700612  0.064368029            2 
  888000    1.1271134   -4.4180172    672.70349  0.063129081  0.064356182            1 
  889000    1.1248401   -4.4077135    674.75945  0.063250792  0.064344865            2 
  890000    1.1127153   -4.4098885    676.61698   0.06335365  0.064333504            2 
  891000    1.1067954    -4.391447    680.75176  0.063669263  0.064322152            2 
  892000    1.1005416   -4.3776414    678.21603  0.063360989  0.064310797            4 
  893000     1.114246   -4.3698997    683.83598  0.063814481  0.064300166            2 
  894000    1.0691919   -4.3590792    683.22355  0.063686014  0.064289414            2 
  895000    1.0885634   -4.3767775     683.7936  0.063667933  0.064279153            1 
  896000    1.1292971   -4.4066529    683.06628   0.06352923  0.064268806            1 
  897000    1.1257013   -4.4056208    683.67888  0.063515318  0.064257993            3 
  898000    1.0852775   -4.3870495    682.45386  0.063330907  0.064247883            3 
  899000    1.1187498   -4.4253201    687.80541  0.063756526  0.064237815            2 
  900000    1.1033715   -4.3790179    689.80378   0.06387072  0.064228449            1 
  901000    1.0916276    -4.417835    686.08708  0.063456075  0.064218741            7 
  902000    1.1083187   -4.3201231    692.94806  0.064019592  0.064209269            3 
  903000    1.1045222   -4.3689672    691.03878  0.063772497  0.064200236            3 
  904000    1.1126259     -4.39739    691.89196  0.063780601  0.064191143            2 
  905000    1.1072813   -4.4074588    689.77413  0.063515113  0.064182859            2 
  906000    1.1038198   -4.4218225    693.54082  0.063791466   0.06417353            1 
  907000    1.1181959   -4.3659976    694.52434  0.063811497  0.064164114            2 
  908000    1.1315395   -4.3565937    695.30158  0.063812553  0.064154806            2 
  909000    1.1172641   -4.4094612    692.17035  0.063455294  0.064145297            3 
  910000    1.0994054   -4.3806854    696.45854  0.063778254  0.064136622            1 
  911000    1.1024748   -4.4062499    694.90794  0.063566405  0.064127012            1 
  912000    1.0992047   -4.3696018    696.51501   0.06364355  0.064117407            3 
  913000    1.1156375   -4.4019187    697.40104  0.063654713  0.064108229            3 
  914000    1.0928076   -4.3750479    695.41604  0.063404089  0.064098956            2 
  915000    1.0998728   -4.3709793    697.06364  0.063484849  0.064089149            2 
  916000    1.0887201    -4.389234    695.62214  0.063284401  0.064079308            4 
  917000    1.1052421   -4.3638068     701.4985  0.063749409   0.06406988            1 
  918000    1.0806943   -4.4060242    698.52003  0.063409588  0.064059778            2 
  919000    1.1118226     -4.36349     701.6024  0.063620094  0.064049893            4 
  920000    1.1363926   -4.3816221    701.00109  0.063496476  0.064040852            2 
  921000    1.1099428   -4.3792752    704.30341  0.063726331  0.064031125            2 
  922000    1.0819856   -4.4155122    703.09117  0.063547648  0.064021369            4 
  923000    1.1062613   -4.3985572    702.79004  0.063451611  0.064012052            1 
  924000    1.1218449   -4.3323437    707.11434  0.063772938  0.064002561            3 
  925000    1.1005402   -4.4081951    705.52124  0.063560472  0.063993486            4 
  926000    1.0774397   -4.4127506    703.74286  0.063331791  0.063983974            3 
  927000    1.0995648   -4.3969139    705.39782  0.063412246  0.063973899            2 
  928000    1.0979315   -4.3717208     709.7071  0.063730882  0.063965056            1 
  929000     1.096198   -4.4071349    708.00119  0.063509256  0.063955555            4 
  930000    1.0943058   -4.3856432    711.63281  0.063766381  0.063945807            1 
  931000    1.1006163   -4.3703642    711.89034   0.06372094  0.063936464            2 
  932000    1.0818212   -4.3860409    713.58585  0.063804171  0.063927438            1 
  933000     1.096544   -4.4282443    709.00506   0.06332664  0.063918315            1 
  934000    1.1096199   -4.4041306    711.83822  0.063511618  0.063909289            2 
  935000     1.101263   -4.4186944    708.89372  0.063181258  0.063899695            3 
  936000    1.0932359   -4.3707619    714.37478  0.063601743  0.063890057            6 
  937000    1.1125221   -4.3967229    710.87321  0.063222448  0.063880637            5 
  938000    1.1296314   -4.4089071    713.48476  0.063387061  0.063871258            3 
  939000     1.089704   -4.3866198    714.26217  0.063388549  0.063861662            5 
  940000    1.1018089    -4.405244    714.15375  0.063311503  0.063851916            4 
  941000    1.1170421   -4.4118107    714.78306  0.063299952  0.063841863            4 
  942000    1.0879165   -4.4140231    715.61082  0.063305982   0.06383167            3 
  943000    1.1237164   -4.4031277    714.66473  0.063155243  0.063821679            1 
  944000    1.0977018   -4.4072694    720.17045  0.063574369  0.063811612            4 
  945000    1.0862155   -4.3837334    717.55074  0.063276079   0.06380236            3 
  946000    1.1171068   -4.3921212    719.27327  0.063360929  0.063792693            4 
  947000    1.1355273    -4.382992     719.1947  0.063287108  0.063782979            5 
  948000    1.1010371   -4.4110134     720.9274  0.063372662  0.063772867            3 
  949000    1.0835619   -4.4444681    716.33622  0.062902724  0.063762013            3 
  950000     1.104131   -4.3903468    719.21367  0.063088918  0.063751779            4 
  951000    1.1135368   -4.3736048    722.27756  0.063291059  0.063741398            2 
  952000    1.1003724   -4.4396771    718.38829  0.062884129  0.063731467            3 
  953000    1.1094998   -4.3974959    722.20856    0.0631522  0.063721624            3 
  954000    1.0921728    -4.407598    723.42628  0.063192372  0.063711735            1 
  955000    1.0889029   -4.4196553    721.82292  0.062986293  0.063701379            3 
  956000    1.0780244    -4.396556    723.23153  0.063043195  0.063691278            2 
  957000    1.0781614   -4.4098866     723.1758  0.062972466  0.063681305            3 
  958000    1.0887392    -4.418696    722.33509  0.062833602  0.063671192            1 
  959000    1.1043028   -4.4033124    727.04183  0.063177079  0.063661323            6 
  960000    1.0896272   -4.4189375    725.59292  0.062985497  0.063651697            3 
  961000     1.089865    -4.387977    730.14664  0.063314832  0.063641847            2 
  962000    1.0889096   -4.3923531    729.92074  0.063229448  0.063632495            3 
  963000    1.0902403   -4.3638437    730.74302  0.063234944   0.06362344            3 
  964000    1.0958088   -4.3773643    730.89364  0.063182369  0.063613638            2 
  965000    1.0960609   -4.3842973    733.68372  0.063357834  0.063604526            2 
  966000    1.1195523    -4.399101    732.08766   0.06315456  0.063595508            2 
  967000    1.0835532   -4.4206698    729.70879  0.062884246  0.063585917            3 
  968000    1.0867881   -4.4003539    733.32738    0.0631308  0.063576099            2 
  969000    1.0985982   -4.4386744    732.37516   0.06298376  0.063566206            3 
  970000    1.1022865   -4.3554472    736.76544     0.063296  0.063557171            2 
  971000     1.134825   -4.4441053    735.73361   0.06314226  0.063548138            3 
  972000    1.1141587   -4.4098649    735.66427  0.063071354  0.063538546            3 
  973000    1.0904457   -4.3967635    734.13743  0.062875765  0.063529196            3 
  974000    1.1062934   -4.4130772    737.73147  0.063118709  0.063519584            3 
  975000    1.1054397   -4.3833684    736.15057  0.062918852  0.063509959            3 
  976000     1.080317   -4.3906495    736.93764  0.062921588  0.063501113            5 
  977000    1.1046461    -4.410188    737.13557  0.062874067  0.063491632            2 
  978000    1.0905374   -4.3957119    740.68223  0.063111983   0.06348177            1 
  979000    1.0750703   -4.3919216    741.24856  0.063095724  0.063472125            2 
  980000     1.092064    -4.410372    739.28232  0.062864143  0.063461874            2 
  981000    1.0892233    -4.422417    740.61861  0.062913575  0.063452282            2 
  982000    1.1018821   -4.4149974    739.26615  0.062734738  0.063442062            2 
  983000    1.1106511   -4.4101391     742.1833  0.062918218  0.063432011            2 
  984000     1.087729   -4.3961874    744.19622  0.063024748  0.063422267            3 
  985000    1.0793406   -4.3523172    746.85188  0.063185438  0.063412562            3 
  986000    1.0828536   -4.4178937    742.46314  0.062750434  0.063402458            4 
  987000    1.0665337   -4.4375933       739.09   0.06240206  0.063392019            3 
  988000    1.0887859   -4.4203876    743.22353  0.062687545   0.06338122            3 
  989000    1.0921507   -4.4135988    743.16111    0.0626189  0.063370212            2 
  990000    1.0757547   -4.3935831    746.32722  0.062822156  0.063359651            3 
  991000    1.0900356    -4.393086    749.74223  0.063045932  0.063349876            1 
  992000    1.0952685   -4.3894244    748.53496  0.062880961    0.0633402            4 
  993000    1.1002522   -4.4245763    746.47072  0.062644404  0.063329746            4 
  994000    1.0892841   -4.4227113    745.66007  0.062513419  0.063318365            2 
  995000    1.0814328   -4.3978396    748.42042  0.062681777  0.063307528            4 
  996000    1.0880877   -4.4161361    748.23722  0.062603516  0.063297037            4 
  997000    1.0845738   -4.4160609    749.01489  0.062605725  0.063286435            2 
  998000     1.102457   -4.4105022    753.14011  0.062887451  0.063276493            2 
  999000    1.0714054   -4.4031205    750.95896  0.062642556  0.063266432            2 
 1000000    1.0973026   -4.4206474    752.91308  0.062742757  0.063256572            2 
 1001000    1.0936459   -4.3984542    753.58365  0.062735902  0.063246768            4 
 1002000    1.0966049   -4.4250299    752.88179   0.06261492  0.063236644            4 
 1003000    1.1042473   -4.4225276     753.0141  0.062563485  0.063226486            5 
 1004000    1.0922705   -4.4264068    752.99473  0.062499563  0.063216671            1 
 1005000    1.0893107   -4.4176735     755.8821  0.062676791   0.06320685            4 
 1006000    1.0648672   -4.4276697    754.00054  0.062458626  0.063196256            3 
 1007000    1.0935065   -4.4238126    756.32791  0.062589201  0.063186243            1 
 1008000     1.103077   -4.4062775    759.61904  0.062799193  0.063176512            3 
 1009000    1.1033903    -4.397478    759.06961  0.062691577  0.063166689            2 
 1010000    1.0875499   -4.4521003    758.16004  0.062554459  0.063157211            4 
 1011000    1.0830785   -4.4350127    764.60713  0.063023997  0.063147772            3 
 1012000    1.0924365   -4.3895342    761.82693  0.062732784  0.063138744            4 
 1013000    1.0703934   -4.4202731    763.08552  0.062774393  0.063129114            3 
 1014000    1.0898289   -4.4311967    760.48215  0.062498533  0.063119294            2 
 1015000     1.104085   -4.4135475    760.60248  0.062446838   0.06310907            2 
 1016000    1.1208034   -4.4054768    763.85251  0.062651945   0.06309983            2 
 1017000    1.0989664   -4.4249203    765.44083  0.062720488  0.063090076            7 
 1018000    1.0906662   -4.3907678    768.13636  0.062879532  0.063080557            3 
 1019000    1.0955896   -4.4178755    767.09454  0.062732625  0.063071175            2 
 1020000    1.0921948   -4.4229599    763.62481  0.062387648  0.063061549            2 
 1021000    1.1173402   -4.4190888    764.35033   0.06238576   0.06305143            1 
 1022000    1.1093664   -4.4195412    763.90842  0.062288684  0.063041252            1 
 1023000    1.0956984   -4.4138184    768.27482  0.062583481  0.063030596            2 
 1024000    1.0691808   -4.4144063    768.60342  0.062549106  0.063020625            3 
 1025000    1.0942154   -4.4464928    770.27995  0.062624386  0.063010362            4 
 1026000    1.0921545   -4.4357842    769.65088  0.062512254  0.063000508            1 
 1027000    1.0754468   -4.4127531     770.3049  0.062504455   0.06299124            3 
 1028000    1.1002226   -4.4184145     768.7884   0.06232072  0.062981623            2 
 1029000    1.0994262    -4.431751    771.43767  0.062474706  0.062971493            2 
 1030000    1.0889025   -4.4172364    772.04648  0.062463308  0.062961563            5 
 1031000    1.1034416   -4.4063993    772.83851   0.06246674  0.062951502            3 
 1032000     1.092902    -4.415324    773.71359  0.062476872  0.062941469            4 
 1033000    1.0861574   -4.4137606    770.52161   0.06215889  0.062931235            3 
 1034000    1.0919479   -4.3988626    773.21051  0.062315482  0.062920965            2 
 1035000    1.0711089   -4.4146416    776.19021  0.062495186  0.062910853            2 
 1036000    1.0903276   -4.4235358    774.95636  0.062335614  0.062900378            2 
 1037000    1.1022061   -4.4247483    775.65562  0.062331695  0.062889819            2 
 1038000    1.0927276    -4.420575    777.43492  0.062414492  0.062879385            4 
 1039000    1.0768876   -4.4288966    774.88859  0.062150192  0.062868973            4 
 1040000    1.0783088   -4.4359463    776.26023  0.062200339  0.062858267            4 
 1041000    1.0702815   -4.3997995    777.34112  0.062227115  0.062847749            2 
 1042000    1.0954838   -4.4271506    778.78352  0.062282751   0.06283745            2 
 1043000    1.0770752   -4.3966274    780.02415   0.06232216  0.062827108            3 
 1044000    1.0820767   -4.4423969    775.99461  0.061940821  0.062816598            4 
 1045000    1.0909845   -4.4415392    777.45923  0.061998344  0.062805291            3 
 1046000    1.0567195   -4.4243485    780.56631  0.062186609  0.062794872            2 
 1047000    1.0766456   -4.4334889    782.27791  0.062263444  0.062784818            4 
 1048000    1.1067752   -4.3995063     784.8326  0.062407173  0.062774399            4 
 1049000    1.1008435    -4.430477    780.19597  0.061979343  0.062764474            9 
 1050000    1.0719671   -4.4044424    784.01021  0.062223032  0.062753828            1 
 1051000    1.0932221   -4.3754645     789.9946  0.062638328    0.0627441            2 
 1052000    1.0635868   -4.4437796    784.62008  0.062153048   0.06273428            3 
 1053000    1.0916515   -4.4162979    787.36285  0.062311084  0.062724671            2 
 1054000    1.0832509    -4.434126    784.79774  0.062049157  0.062714702            2 
 1055000    1.0627987   -4.4500028    784.36083  0.061955831  0.062704203            3 
 1056000    1.0677486    -4.456071    785.26512  0.061968522  0.062693679            4 
 1057000    1.1118011   -4.4170804    786.19319  0.061983064  0.062683477            2 
 1058000    1.1059601   -4.4468572    787.65563  0.062039669  0.062673368            2 
 1059000    1.0693038   -4.4411254    788.90093  0.062079079  0.062663124            2 
 1060000    1.0800926   -4.4273898     788.3658  0.061978443  0.062653198            2 
 1061000    1.0850672   -4.4726318    788.27956  0.061913254  0.062642597            2 
 1062000    1.0693642   -4.4196441     790.7476  0.062048619  0.062632216            3 
 1063000    1.0863561   -4.4442879    789.41949  0.061886131  0.062621908            3 
 1064000    1.0605705   -4.4038427    794.76588  0.062246701  0.062611826            2 
 1065000    1.0710212   -4.4020428    795.50299   0.06224593  0.062601831            3 
 1066000    1.0855854   -4.4253433    794.22535   0.06208766  0.062591688            1 
 1067000     1.100747   -4.4475689     791.1759  0.061791308  0.062581355            3 
 1068000    1.0784737   -4.4408166    793.76931  0.061935808   0.06256998            2 
 1069000    1.0904195   -4.4162992    792.30075  0.061763389  0.062558344            6 
 1070000    1.0938992   -4.4529998    793.96468  0.061835255  0.062547256            3 
 1071000    1.1006069    -4.449787    793.68886  0.061756058   0.06253579            2 
 1072000    1.0431989   -4.4671932    796.19944  0.061893613  0.062524858            2 
 1073000    1.0819342   -4.4217747    796.37335  0.061849437  0.062513447            2 
 1074000    1.0810079   -4.4007322    796.25005  0.061782282  0.062502224            2 
 1075000    1.0923707    -4.475314    793.97484  0.061548437   0.06249086            3 
 1076000    1.0889994   -4.4065981    802.17463  0.062126288  0.062479809            3 
 1077000    1.0665008   -4.4131871    793.86799  0.061425874  0.062469016            1 
 1078000    1.0875432   -4.4627033    798.02105  0.061689939  0.062457669            3 
 1079000    1.0880121   -4.4315398    800.14353  0.061796689  0.062445868            1 
 1080000    1.0731449   -4.4495217    800.90198  0.061797992  0.062433978            2 
 1081000    1.0977452   -4.4580626    800.59453  0.061717124  0.062422085            5 
 1082000    1.0709135   -4.4722831    798.17254  0.061473547  0.062410258            4 
 1083000    1.0608951   -4.4678514    798.15113  0.061415138  0.062398431            2 
 1084000    1.0846921   -4.4475943    799.88474  0.061491754  0.062386626            3 
 1085000    1.0963614   -4.4540856    800.28006  0.061465443  0.062374237            2 
 1086000    1.0566026   -4.4693358    801.46937  0.061500105  0.062362265            3 
 1087000    1.0736269   -4.3927681    805.28672  0.061736179  0.062350143            3 
 1088000    1.0800173   -4.4675209    804.76511  0.061639484  0.062338241            3 
 1089000    1.0618676   -4.4353488    802.39507  0.061401521    0.0623261            2 
 1090000    1.0548772   -4.4403842    807.10647  0.061705387  0.062314356            3 
 1091000     1.099809   -4.4625132    804.18252   0.06142549   0.06230285            2 
 1092000    1.0560469   -4.4423139     808.9167  0.061730518  0.062292017            2 
 1093000    1.0555121   -4.4485327    808.13913  0.061614755  0.062280808            1 
 1094000    1.0502953    -4.420749    809.15713  0.061635978  0.062269647            2 
 1095000    1.0980158    -4.446102    809.99709  0.061643614  0.062258589            4 
 1096000    1.0860769   -4.4217001    809.60202  0.061557331  0.062247692            4 
 1097000    1.0784295   -4.4494762     811.7633  0.061665398  0.062237094            3 
 1098000    1.0595893   -4.4384089    813.57342  0.061746616  0.062226446            3 
 1099000    1.0549259   -4.4377971    813.44007  0.061680321  0.062216451            2 
 1100000    1.0836754   -4.4348616    816.16558  0.061830726  0.062206051            5 
 1101000    1.0599179   -4.4632273    813.70183  0.061588088  0.062195677            2 
 1102000    1.0559345   -4.4693343    814.48197  0.061591196  0.062184873            1 
 1103000    1.0719873   -4.4236881    821.32881  0.062052645   0.06217472            4 
 1104000    1.0935248   -4.4775944    815.04892  0.061522412  0.062164921            3 
 1105000    1.0740806   -4.4311412    819.66816  0.061815095  0.062155039            1 
 1106000    1.0638216   -4.4363301    821.16933  0.061872313  0.062145494            2 
 1107000    1.0972576   -4.4517034    818.67663  0.061628773  0.062135793            3 
 1108000    1.0673267    -4.465475    820.06995  0.061677945  0.062125708            6 
 1109000    1.0752679   -4.4185933     821.7083  0.061745439  0.062115952            2 
 1110000    1.0517136   -4.4568816    820.87066  0.061626927  0.062106294            2 
 1111000    1.0805738   -4.4869494     819.1359  0.061441337  0.062096188            3 
 1112000     1.051896   -4.4220335    821.93706  0.061596003  0.062085244            4 
 1113000    1.0779225   -4.4550019     820.9764  0.061468733  0.062075066            3 
 1114000     1.071507   -4.4624419    821.98494  0.061488999  0.062064855            2 
 1115000    1.0694823   -4.4204093    823.45863  0.061543994  0.062054203            3 
 1116000    1.0608611   -4.4360946    822.13799  0.061390232  0.062043664            1 
 1117000    1.0755006   -4.4581986     823.1983  0.061414376  0.062032929            2 
 1118000    1.0716323   -4.4418473    825.30524  0.061516491  0.062022273            2 
 1119000    1.0950165   -4.4475916    824.07074  0.061369581  0.062011755            5 
 1120000    1.0476094     -4.48593    824.07083  0.061314794  0.062000802            3 
 1121000    1.0798931   -4.4449093    827.30356  0.061500413  0.061989795            2 
 1122000     1.095783    -4.465031    826.73224  0.061403167  0.061978983            4 
 1123000    1.0803104   -4.4755609    826.08033  0.061300113  0.061968031            2 
 1124000    1.0593091   -4.4529318    826.98874  0.061312926   0.06195724            4 
 1125000    1.0735429   -4.4483947    827.03166  0.061261605  0.061946584            3 
 1126000    1.0537845   -4.4311636    831.00299  0.061501109  0.061935902            2 
 1127000    1.0604825   -4.4661127    827.04126  0.061153598  0.061925305            3 
 1128000    1.0922469   -4.4725486    829.70814  0.061296405  0.061914564            2 
 1129000    1.0628293   -4.4107492    831.88188  0.061402559  0.061903973            2 
 1130000    1.0786628    -4.442326    833.99699  0.061504203  0.061893812            6 
 1131000    1.0806835   -4.4359196    837.36831  0.061698225  0.061883923            2 
 1132000    1.0634038   -4.4399555    831.75721  0.061230654  0.061873531            2 
 1133000    1.0596434   -4.4018191    836.35202  0.061514565  0.061863352            3 
 1134000    1.0599588   -4.4764833    831.96616  0.061138019  0.061853168            2 
 1135000    1.0629285   -4.4306829    833.06144   0.06116457  0.061842067            1 
 1136000    1.0643599   -4.4678162      833.406  0.061136004  0.061831435            2 
 1137000    1.0629859   -4.4537643    835.41033  0.061229136  0.061820083            3 
 1138000    1.0657549   -4.4805673    833.04641  0.061002227   0.06180929            1 
 1139000    1.0508061   -4.4778187     833.4783  0.060980268   0.06179781            2 
 1140000    1.0667448    -4.457599      834.416  0.060995321  0.061786399            5 
 1141000    1.0695457   -4.4566755    837.52432  0.061168881  0.061775323            5 
 1142000    1.0459044   -4.4386593    837.88433  0.061141589  0.061764063            3 
 1143000    1.0462492   -4.4390801    835.90987  0.060944144  0.061752582            3 
 1144000    1.0742828   -4.4421753     838.9905  0.061115276  0.061741307            2 
 1145000    1.0598054   -4.4787388    837.01864  0.060918387  0.061730336            3 
 1146000    1.0800468   -4.4526339    840.68334  0.061131715  0.061719207            4 
 1147000    1.0447454    -4.416114    841.63851  0.061147814  0.061708087            2 
 1148000    1.0650498   -4.4808302    840.85462  0.061037647   0.06169692            4 
 1149000     1.063125   -4.4220263    842.72146   0.06111992  0.061685787            3 
 1150000    1.0604686   -4.4647009    837.63038  0.060697853  0.061674436            3 
 1151000    1.0638679   -4.4569318    841.35916  0.060915085  0.061663124            3 
 1152000    1.0770468     -4.48525    840.54732  0.060803481  0.061651986            3 
 1153000    1.0571932    -4.479375    840.16781  0.060723316  0.061640521            3 
 1154000    1.0652384   -4.4668992    842.50934  0.060839785  0.061628657            3 
 1155000    1.0700755   -4.4481054    847.20933  0.061126214  0.061616862            4 
 1156000    1.0552424   -4.4784575    844.67128  0.060890375  0.061605259            2 
 1157000    1.0744476   -4.4416605    844.27593  0.060809272  0.061594065            3 
 1158000     1.072792   -4.4723015    848.31645  0.061047528  0.061583075            6 
 1159000     1.072413   -4.4443661    850.17618  0.061128572  0.061572565            2 
 1160000    1.0924217   -4.4289143     848.0958  0.060926423   0.06156177            3 
 1161000    1.0678048   -4.4367829    849.80202  0.060996413  0.061551066            3 
 1162000    1.0711755   -4.4631244     852.5851   0.06114351  0.061540508            1 
 1163000    1.0696059   -4.4449442    850.01697   0.06090692  0.061529767            1 
 1164000    1.0671085   -4.4822123    849.73781  0.060834608  0.061518707            4 
 1165000    1.0706973   -4.4608825     851.7983  0.060929778   0.06150775            2 
 1166000     1.078692   -4.4570116    850.86532  0.060810844  0.061496536            3 
 1167000    1.0698349   -4.4528888    854.01937   0.06098396  0.061485413            2 
 1168000    1.0611487   -4.4281561    853.35765  0.060884536  0.061474389            1 
 1169000    1.0640753   -4.4588477    857.27727  0.061111867  0.061463282            4 
 1170000     1.083751    -4.441191    851.10525  0.060620032  0.061452268            3 
 1171000    1.0875969   -4.4421836    856.24376  0.060933942  0.061441651            2 
 1172000    1.0626472   -4.4821536    855.85761  0.060854494  0.061430721            2 
 1173000    1.0676629   -4.4598619    857.30545  0.060905474  0.061419441            1 
 1174000    1.0441248   -4.4489012    855.41572  0.060719458  0.061408614            3 
 1175000    1.0776107   -4.4637128     859.8327  0.060981043  0.061397574            4 
 1176000    1.0720918   -4.4276802    856.75919  0.060711394  0.061386515            2 
 1177000    1.0591287   -4.4794766    857.59472  0.060718969  0.061375321            1 
 1178000     1.061469    -4.458417    858.99459  0.060766454  0.061364389            2 
 1179000    1.0489948    -4.442058    858.38385  0.060671745  0.061353049            2 
 1180000    1.0785364   -4.4699976    857.04984  0.060526119  0.061341596            1 
 1181000    1.0553162   -4.4805885    860.80326  0.060739716  0.061330324            3 
 1182000     1.045241   -4.5102685    857.20102  0.060434364    0.0613186            5 
 1183000    1.0568355   -4.4607757    860.96191  0.060648205  0.061307054            1 
 1184000     1.067361   -4.4635789    858.72892  0.060439817  0.061295848            2 
 1185000    1.0462836   -4.4464052    864.21194  0.060774398   0.06128449            8 
 1186000    1.0471203   -4.4671529    862.11639  0.060575913  0.061273499            1 
 1187000    1.0705542   -4.4654045      863.358  0.060612047   0.06126224            4 
 1188000    1.0616321   -4.4502679    863.23299  0.060552258  0.061251128            2 
 1189000    1.0705651   -4.4591147    864.93571  0.060620669  0.061240152            2 
 1190000    1.0638064   -4.4633997    866.02179  0.060645784  0.061229227            4 
 1191000      1.09536   -4.4503428    867.26486   0.06068184  0.061218013            5 
 1192000    1.0982503   -4.4888937    863.63211  0.060376965  0.061206698            2 
 1193000    1.0676558   -4.4707106    865.69251  0.060470278  0.061194778            4 
 1194000    1.0537313   -4.4828123    865.59361  0.060412731  0.061183374            3 
 1195000     1.059387   -4.4689998    868.23041  0.060546053  0.061171954            2 
 1196000    1.0784311   -4.4489007    869.00995  0.060549745  0.061160763            2 
 1197000     1.090861    -4.467397    868.15554  0.060439678  0.061149362            3 
 1198000    1.0432402   -4.4793174    865.78291  0.060224187  0.061137835            2 
 1199000    1.0767353   -4.4769733     869.8089  0.060453774  0.061126579            2 
 1200000    1.0472357   -4.4771775    871.39504  0.060513544  0.061114943            4 
 1201000     1.054728   -4.4754495    870.58843   0.06040719  0.061103462            3 
 1202000    1.0482019    -4.447855     873.8782  0.060585011  0.061092143            2 
 1203000    1.0472801   -4.4877123    869.40171  0.060224558  0.061080662            2 
 1204000    1.0652793   -4.4514352    872.94501  0.060419782  0.061069214            3 
 1205000    1.0769247   -4.4400987    873.89377  0.060435254  0.061057704            2 
 1206000    1.0886746   -4.4465604    873.76097  0.060375965   0.06104635            2 
 1207000    1.0643667   -4.4458565    874.80473  0.060398007  0.061035441            2 
 1208000    1.0568717   -4.4642817    871.97994  0.060153142  0.061023873            5 
 1209000    1.0519904   -4.4686377    875.42188  0.060340631  0.061012779            5 
 1210000    1.0368568   -4.4824042    876.19211  0.060343809  0.061001401            3 
 1211000    1.0639495   -4.4976732     874.7443   0.06019435  0.060990042            3 
 1212000    1.0645147   -4.4895552    878.43796   0.06039865  0.060978951            2 
 1213000    1.0636614   -4.4794167    881.15974  0.060535844  0.060967273            3 
 1214000    1.0547089    -4.476846    880.22861  0.060422063  0.060956363            3 
 1215000    1.0645164   -4.4747588    875.38377  0.060040039  0.060945073            3 
 1216000    1.0521328   -4.4505647    878.19782  0.060183513  0.060933843            3 
 1217000    1.0548625    -4.489497    881.12493  0.060334493  0.060922338            3 
 1218000    1.0578585   -4.4610664    883.71084   0.06046188  0.060911612            3 
 1219000    1.0419287   -4.4583614    883.05636  0.060367539  0.060900333            2 
 1220000    1.0299303   -4.5005301     882.0507  0.060249364  0.060889138            1 
 1221000    1.0624602   -4.4758558    882.16723  0.060207974  0.060878102            3 
 1222000    1.0723929   -4.4640396    883.74554  0.060266335   0.06086735            2 
 1223000    1.0523653   -4.4609047    887.61655  0.060480822  0.060856956            1 
 1224000    1.0748258   -4.4545029    888.29832  0.060477827  0.060846418            1 
 1225000    1.0424657   -4.4790987    886.64527  0.060316004  0.060836176            6 
 1226000    1.0811937   -4.4811371    887.50003  0.060324907  0.060824912            2 
 1227000     1.047303   -4.4791571     888.1512  0.060319967  0.060814335            2 
 1228000    1.0616964   -4.4855494     888.9533  0.060325278  0.060803747            4 
 1229000    1.0531331   -4.4683414    888.57617  0.060250622  0.060793142            2 
 1230000    1.0625992   -4.4697995    892.74426  0.060484028  0.060782383            6 
 1231000    1.0614547    -4.472766    892.53641  0.060420824  0.060771642            4 
 1232000    1.0680502   -4.4341563    891.46321  0.060299189  0.060761267            4 
 1233000    1.0221442   -4.4865104    893.62054   0.06039609  0.060750446            3 
 1234000    1.0599005    -4.442675    894.84526  0.060429853  0.060739755            2 
 1235000    1.0543568   -4.4613935    894.67277  0.060369283   0.06072939            5 
 1236000    1.0667384   -4.4894152    894.67865  0.060320837  0.060718362            1 
 1237000     1.058001   -4.4811516    894.31539  0.060247601  0.060707423            2 
 1238000    1.0558202   -4.4652777    891.50255  0.060009596  0.060696922            2 
 1239000    1.0306051   -4.4686061    895.13535  0.060205499  0.060686563            2 
 1240000    1.0591095    -4.511362    895.40933  0.060175358  0.060676026            4 
 1241000     1.078535   -4.4627923    894.44492  0.060062109  0.060664922            2 
 1242000    1.0543423   -4.4597379    896.60218  0.060158493  0.060654187            4 
 1243000    1.0476678   -4.4841119     894.8453  0.059992311  0.060643294            5 
 1244000    1.0584171    -4.472665    896.02505  0.060023115  0.060632359            2 
 1245000    1.0486884   -4.4942017    899.20051   0.06018745   0.06062148            5 
 1246000    1.0663147   -4.4585513    901.18813  0.060272079  0.060610863            2 
 1247000    1.0595955   -4.4827748    897.13975  0.059953205  0.060599851            2 
 1248000    1.0752501   -4.4729158    898.21785  0.059977154  0.060588781            2 
 1249000    1.0533492   -4.4634274    899.94368   0.06004428   0.06057785            3 
 1250000    1.0624526   -4.5147806    900.88331  0.060058887  0.060566615            3 
 1251000    1.0486588   -4.4503511    904.04934  0.060221779  0.060555566            1 
 1252000    1.0470335   -4.4874905    900.56664  0.059941869  0.060544548            3 
 1253000    1.0573258   -4.5130941    898.81372  0.059777449  0.060533395            4 
 1254000     1.083002   -4.4961313    902.88397  0.060000264  0.060522378            3 
 1255000    1.0537985   -4.4697506     898.4742  0.059659642  0.060511188            5 
 1256000    1.0312875   -4.5065968    902.40111  0.059872685  0.060499922            6 
 1257000    1.0596616    -4.477792    905.83781  0.060052891  0.060488351            4 
 1258000    1.0317507   -4.4970859    904.20409  0.059896932  0.060476955            2 
 1259000     1.061626   -4.4974574    902.97368  0.059767916  0.060465732            2 
 1260000     1.051366   -4.4657798    905.39132  0.059880378  0.060454431            2 
 1261000    1.0684159   -4.5103932    904.72468  0.059788837  0.060443576            1 
 1262000    1.0322226   -4.4979861    905.25811  0.059776684  0.060432708            3 
 1263000    1.0385506   -4.4855082    904.77732  0.059697633  0.060421727            4 
 1264000    1.0424886    -4.475378    908.82261  0.059917102  0.060410938            2 
 1265000    1.0298499   -4.5051561    908.25027  0.059832033  0.060399641            2 
 1266000    1.0360426   -4.4764061    909.65287  0.059877098  0.060387826            2 
 1267000    1.0622512   -4.4921858    912.87505  0.060041769  0.060376381            2 
 1268000    1.0644561   -4.4711337    907.43138  0.059636657  0.060364993            5 
 1269000    1.0648691   -4.4618037    907.36193  0.059585102  0.060353828            5 
 1270000    1.0697472   -4.4643592     909.9618  0.059708779  0.060342257            3 
 1271000    1.0465228   -4.4777331    908.49835   0.05956585  0.060330403            3 
 1272000    1.0127586   -4.4865413    909.50272  0.059584822  0.060318401            1 
 1273000    1.0255847   -4.4691094    910.40193  0.059596879  0.060306554            2 
 1274000    1.0421494   -4.4652154    912.96933  0.059718036  0.060294863            2 
 1275000    1.0609124   -4.4836863    914.53084  0.059773257   0.06028316            3 
 1276000    1.0317412   -4.4720685    913.37243   0.05965076  0.060271657            1 
 1277000    1.0434469   -4.4774888    910.21337  0.059397897  0.060260274            4 
 1278000    1.0504745   -4.4875839    913.34435  0.059555578  0.060248545            3 
 1279000    1.0251351   -4.5203906     912.6423  0.059463272  0.060236556            4 
 1280000    1.0447891   -4.4758595    912.07723  0.059380028  0.060224558            3 
 1281000    1.0543881   -4.4853658     913.9405  0.059454886  0.060212721            3 
 1282000    1.0526789   -4.4868681    915.43467  0.059505634  0.060201063            3 
 1283000    1.0397197   -4.4664838    915.93092  0.059491486  0.060189273            5 
 1284000     1.058507   -4.4957848    917.00216  0.059514678  0.060177915            2 
 1285000    1.0448299   -4.5022321    918.70292  0.059578659  0.060166538            2 
 1286000    1.0320088   -4.5153079    918.80925   0.05953922  0.060154863            3 
 1287000    1.0363278    -4.456722     922.8151  0.059752337  0.060143487            5 
 1288000    1.0465584   -4.4772065    922.70661  0.059698927  0.060132197            2 
 1289000    1.0348421   -4.4786677    920.77433  0.059527691   0.06012115            3 
 1290000     1.034881   -4.4948603     922.8293  0.059614296  0.060110284            5 
 1291000    1.0370433   -4.4835243    920.66809  0.059428614  0.060099309            4 
 1292000    1.0289481   -4.4748261    927.42905  0.059818695  0.060088175            2 
 1293000    1.0548337   -4.5175418    923.07839  0.059492033  0.060077391            2 
 1294000    1.0480018   -4.4791222    924.16624  0.059516115   0.06006624            2 
 1295000    1.0485128   -4.4638705    925.23044  0.059538639  0.060055463            2 
 1296000    1.0489196   -4.5187142    923.28554   0.05936764  0.060044111            2 
 1297000    1.0148738   -4.4800488    927.11929  0.059568189     0.060033            2 
 1298000    1.0492368   -4.5019467    923.56026  0.059293802  0.060021919            5 
 1299000    1.0295169   -4.5018655    923.19356  0.059224631  0.060010668            7 
 1300000    1.0461039   -4.5091835    928.55525  0.059522772  0.059998991            1 
 1301000    1.0296432   -4.5423268     926.3055  0.059332917  0.059987422            4 
 1302000     1.057373   -4.5020457    930.98344  0.059586753  0.059976154            4 
 1303000    1.0403027   -4.4804189    927.03896  0.059288754  0.059965128            4 
 1304000    1.0551689   -4.4933499     932.5078  0.059592779  0.059954093            2 
 1305000    1.0273949   -4.4818079    932.29593  0.059533584  0.059943009            3 
 1306000     1.047663   -4.4871082    932.87438  0.059524909  0.059931627            3 
 1307000    1.0363929   -4.4805489    931.58505   0.05939716  0.059920428            2 
 1308000    1.0340132     -4.48407    931.44787  0.059343009  0.059909238            4 
 1309000    1.0542734   -4.5102152    932.23387  0.059347713  0.059898696            3 
 1310000    1.0342309   -4.5192443    935.49344  0.059509761  0.059887899            3 
 1311000    1.0450811   -4.5247138    934.03037  0.059371368  0.059876849            3 
 1312000    1.0277615   -4.4761274    933.22358  0.059274872  0.059865668            5 
 1313000    1.0236243   -4.5192707    933.93098  0.059274624  0.059854886            3 
 1314000     1.008639    -4.538896    937.56851  0.059460205  0.059843993            2 
 1315000    1.0565244   -4.5283948    934.64894  0.059229971  0.059832865            1 
 1316000     1.033137   -4.4898069    933.76521  0.059129003  0.059821685            2 
 1317000    1.0430185   -4.4887563    938.06717  0.059356313  0.059810713            3 
 1318000    1.0413709   -4.4900246    935.30581  0.059136685  0.059799732            3 
 1319000    1.0547567    -4.518384     939.5198  0.059358087  0.059788707            4 
 1320000    1.0213913    -4.487519    939.19521  0.059292627   0.05977754            5 
 1321000    1.0490136   -4.4840333    938.54406  0.059206666  0.059766687            2 
 1322000    1.0456957   -4.5178476     940.2975  0.059272409  0.059755708            3 
 1323000    1.0390508   -4.5445753    937.67966  0.059062715  0.059744438            7 
 1324000    1.0322881   -4.4979607    938.84836  0.059091664   0.05973332            2 
 1325000    1.0198048   -4.5190208    938.93934  0.059052789  0.059722206            2 
 1326000    1.0333218   -4.5207658    940.97348  0.059136091  0.059710792            2 
 1327000    1.0363833   -4.4891882     938.4402  0.058932442  0.059699354            2 
 1328000    1.0448499   -4.5227685    943.55616  0.059209097  0.059687878            1 
 1329000    1.0206608   -4.5039105    940.83936  0.058994191  0.059676526            3 
 1330000    1.0463284   -4.5327185    939.91397  0.058891853  0.059664994            6 
 1331000    1.0508508   -4.5138892     941.0501  0.058918739  0.059653497            4 
 1332000    1.0401433   -4.5348713    942.70062  0.058977766   0.05964168            3 
 1333000    1.0418147   -4.4979464    945.67772  0.059119637  0.059630553            6 
 1334000    1.0215918   -4.4961716    946.54211  0.059129317  0.059619596            5 
 1335000    1.0365402   -4.5079743    945.27391  0.059005862  0.059608487            4 
 1336000    1.0267705   -4.5096753    949.21857  0.059207745  0.059597865            3 
 1337000    1.0377604   -4.4979774    951.33091   0.05929512  0.059587443            5 
 1338000    1.0458783   -4.5009875    946.13771  0.058927361  0.059576882            4 
 1339000    1.0428175   -4.4966093    950.70279  0.059167463  0.059566327            3 
 1340000    1.0253549    -4.529626    946.84328  0.058883289  0.059555343            1 
 1341000    1.0466814   -4.5124913    951.17847  0.059108779  0.059544499            4 
 1342000    1.0335521   -4.5227652    955.57991  0.059338047  0.059533686            3 
 1343000    1.0374505   -4.5021755    950.16044  0.058957585  0.059522569            5 
 1344000    1.0362518   -4.5261117    950.16543  0.058914027  0.059511179            3 
 1345000    1.0779285   -4.5316685    951.62902  0.058960906  0.059500124            1 
 1346000    1.0295395    -4.482231    953.66191  0.059042961  0.059489049            5 
 1347000    1.0201964    -4.503195     956.2557  0.059159596  0.059478321            5 
 1348000    1.0578593   -4.4936339    954.93213  0.059033886  0.059467876            3 
 1349000    1.0420374      -4.4931    955.42263  0.059020424  0.059457218            3 
 1350000    1.0329794   -4.5181151    952.81957  0.058816023  0.059446622            4 
 1351000    1.0332161    -4.496932    956.69524  0.059011549  0.059435653            4 
 1352000    1.0695434   -4.5420418    955.85648  0.058916203  0.059424504            1 
 1353000    1.0287736   -4.5042093    959.49928  0.059097024  0.059413285            3 
 1354000    1.0002576   -4.5525758    955.27166  0.058793184  0.059402386            3 
 1355000    1.0160885   -4.5265709    957.67889  0.058897841  0.059391502            3 
 1356000    1.0164944   -4.5295934    956.82823  0.058802128  0.059380741            2 
 1357000    1.0383893   -4.5059402    962.55561  0.059110514  0.059370471            3 
 1358000    1.0178669   -4.5144126    961.90324  0.059026954  0.059359704            4 
 1359000    1.0249056   -4.4856583    962.66178  0.059030033  0.059349229            5 
 1360000    1.0218916    -4.507471    963.74188  0.059052811  0.059338837            2 
 1361000    1.0282311   -4.5414062    963.08021  0.058968909  0.059328664            9 
 1362000    1.0373356   -4.4560023    964.50225  0.059012619  0.059318338            5 
 1363000    1.0379576   -4.4937887    964.80002  0.058987529  0.059308021            3 
 1364000    1.0246509   -4.5322367     964.1887  0.058906934  0.059297699            3 
 1365000    1.0451328   -4.4804401    967.85302  0.059087486  0.059287451            2 
 1366000    1.0295075    -4.496696    966.67827  0.058972564   0.05927692            2 
 1367000    1.0530173    -4.521783    963.73616  0.058750071  0.059266343            3 
 1368000    1.0390598   -4.5276732    965.11932  0.058791382  0.059255568            2 
 1369000    1.0150937   -4.5326304     970.0717  0.059049897  0.059244789            3 
 1370000    1.0257677   -4.5471277      962.897  0.058570377  0.059234061            5 
 1371000    1.0270385   -4.4897294    970.10382  0.058965708  0.059223554            2 
 1372000    1.0421166   -4.5380022    967.61031  0.058771278   0.05921324            5 
 1373000    1.0252688   -4.5091417    968.00392  0.058752362  0.059202971            3 
 1374000   0.99988305   -4.5033395    970.56557  0.058864966  0.059192833            4 
 1375000    1.0286037   -4.5211956     971.8254  0.058898509  0.059182505            4 
 1376000    1.0321807   -4.5025345    970.34368  0.058765969  0.059172156            4 
 1377000    1.0381818   -4.5147182    970.15888  0.058712109  0.059161526            7 
 1378000    1.0380046    -4.520148    975.51038  0.058993129  0.059150942            2 
 1379000    1.0119443   -4.5507156    971.82376  0.058727566  0.059140578            4 
 1380000     1.032792   -4.5102419    975.96585  0.058935136  0.059130394            3 
 1381000     1.022634   -4.5309311    973.00037  0.058713515  0.059120279            5 
 1382000    1.0224047   -4.5078506    975.57941  0.058826545   0.05911012            3 
 1383000    1.0366955   -4.5143222    975.77333  0.058795693   0.05909981            4 
 1384000    1.0422358   -4.4833287    976.67992  0.058807799    0.0590893            3 
 1385000    1.0164188   -4.5659718    972.97807  0.058542604  0.059078915            2 
 1386000    1.0215661   -4.5174543    976.39819     0.058706  0.059068714            3 
 1387000    1.0217244   -4.5280252    980.22016  0.058893304  0.059058418            7 
 1388000    1.0214016   -4.4982882    976.93625  0.058653713   0.05904813            3 
 1389000    1.0169197   -4.5526795    979.30541  0.058753624  0.059037957            4 
 1390000    1.0229524   -4.5418704    977.60235  0.058609253   0.05902776            4 
 1391000    1.0422957   -4.5294038    979.24436   0.05866549  0.059017378            4 
 1392000    1.0326917   -4.5486062    980.11539   0.05867549  0.059007565            3 
 1393000    1.0199018   -4.5079816    981.25524  0.058701558  0.058997699            2 
 1394000    1.0288079   -4.5388621    981.31025  0.058662736  0.058987967            3 
 1395000    1.0365081   -4.5036248    982.62729   0.05869936  0.058977756            4 
 1396000    1.0326129   -4.5416096    979.53683  0.058472829  0.058967489            2 
 1397000    1.0365422   -4.5453846    982.86446  0.058629471  0.058956997            4 
 1398000    1.0155392   -4.5207913    980.92048  0.058471655  0.058946442            3 
 1399000    1.0339721   -4.5001358    984.84202  0.058663451  0.058935856            5 
 1400000    1.0344272   -4.5003048    984.25978  0.058586891  0.058925285            3 
 1401000    1.0562331   -4.5116957     984.5169  0.058560368  0.058914755            2 
 1402000    1.0095444   -4.5146755    983.50412    0.0584584  0.058904202            1 
 1403000    1.0266611   -4.5110588    986.40005  0.058588742  0.058893266            4 
 1404000    1.0156978    -4.554282    983.25622  0.058360412  0.058882512            3 
 1405000    1.0125835   -4.5113822    985.87204  0.058474024  0.058871687            2 
 1406000    1.0270439   -4.5517672    986.14257  0.058448469  0.058860925            2 
 1407000     1.016678    -4.523768    986.42154   0.05842345  0.058850143            3 
 1408000    1.0297088    -4.539558    988.50198  0.058505089  0.058839528            2 
 1409000    1.0235298   -4.4998614    986.28955  0.058332715  0.058828853            3 
 1410000     1.047799   -4.5187173     987.7421  0.058377192  0.058817883            2 
 1411000    1.0170874   -4.5326109    989.17888  0.058420676   0.05880716            4 
 1412000    1.0149083    -4.523752    992.31605  0.058564451   0.05879659            3 
 1413000    1.0388013   -4.5303821    987.40298   0.05823325  0.058785775            3 
 1414000    1.0244925   -4.5389582    990.41988  0.058369866  0.058774925            2 
 1415000     1.030879   -4.5260852    988.21264  0.058198625   0.05876378            3 
 1416000   0.99915006   -4.5418349    987.90163   0.05813922  0.058752732            5 
 1417000    1.0293536   -4.5004539     990.5583  0.058254428  0.058741991            2 
 1418000    1.0214903   -4.5303393    992.96325  0.058354681  0.058731017            2 
 1419000    1.0126487    -4.525905    988.80226  0.058069195  0.058720145            2 
 1420000    1.0266299   -4.5521127    988.88121  0.058032935  0.058709049            2 
 1421000    1.0422402   -4.5196381    991.09403  0.058121864  0.058697808            3 
 1422000    1.0124698   -4.5271616    993.14829  0.058201377  0.058686816            3 
 1423000    1.0281839   -4.4913666    995.88344  0.058320651  0.058675915            4 
 1424000    1.0250492   -4.5317802    994.48291  0.058197736  0.058664911            4 
 1425000    1.0224774   -4.5314239    994.35605  0.058149477  0.058653664            6 
 1426000    1.0411876   -4.5415497    991.52869  0.057943472  0.058642695            4 
 1427000    1.0196018   -4.5502461    995.04576  0.058108255  0.058631595            1 
 1428000     1.016266   -4.5437506    994.69123  0.058046874  0.058620626            2 
 1429000    1.0331542   -4.5078312    997.55661   0.05817335  0.058609644            3 
 1430000    1.0299974   -4.5416253    999.99967  0.058275039  0.058598391            2 
 1431000    1.0109338   -4.5670522    996.67501  0.058040706  0.058586709            4 
 1432000    1.0216955   -4.5322635    996.54503  0.057992611   0.05857549            4 
 1433000    1.0272497   -4.5382476     998.5654  0.058069633  0.058564213            4 
 1434000    1.0164549   -4.5499215    996.39255  0.057902868  0.058552962            4 
 1435000    1.0233015   -4.5299515    995.10229  0.057787589  0.058541404            3 
 1436000    1.0120122   -4.5372612     998.0069  0.057915906  0.058529658            2 
 1437000    1.0104864   -4.5099765    1002.2242  0.058120172  0.058518153            1 
 1438000    1.0266596   -4.5688998    998.24729  0.057849286  0.058506436            1 
 1439000    1.0171891   -4.5183824    1000.5006  0.057939575  0.058494799            1 
 1440000    1.0256213   -4.5160934    1000.5272   0.05790088  0.058483154            3 
 1441000    1.0283806   -4.5585035    996.89143  0.057650441  0.058471537            3 
 1442000    1.0049512   -4.5330329    1000.5395  0.057821286  0.058459891            4 
 1443000    1.0072164   -4.5372764     999.1482  0.057700866  0.058448357            2 
 1444000    1.0039338   -4.5381152    1000.8588  0.057759626  0.058436511            3 
 1445000    1.0284362   -4.5479949    1003.2055  0.057854986  0.058424737            2 
 1446000   0.99728323   -4.5200491    1004.9967  0.057918203  0.058413275            3 
 1447000    1.0089231   -4.5393798    1006.3125  0.057953959  0.058401778            6 
 1448000    1.0211007   -4.5473107    1002.8639  0.057715462  0.058390155            2 
 1449000    1.0119635   -4.5546792    1007.2704  0.057929057  0.058378581            3 
 1450000    1.0201156   -4.5364155    1002.8398  0.057634472  0.058366433            2 
 1451000    1.0377348   -4.5459593    1005.6961  0.057758791  0.058354543            3 
 1452000     1.017736   -4.5698552    1003.9051  0.057616226  0.058342664            3 
 1453000    1.0009093   -4.5359597    1001.9236   0.05746293  0.058330763            3 
 1454000    1.0278739   -4.5326221    1001.1837  0.057380998  0.058318667            2 
 1455000    1.0262984   -4.5433241    1008.6118  0.057766999  0.058306485            2 
 1456000    1.0172655   -4.5697589    1001.8383  0.057339649  0.058294331            1 
 1457000    1.0125738   -4.5563215    1005.4592  0.057507387  0.058282174            3 
 1458000    1.0399929   -4.5368095    1006.3915  0.057521235  0.058269664            5 
 1459000     1.037584   -4.5168305       1004.4   0.05736806   0.05825733            4 
 1460000     1.009728   -4.5570844    1005.8474  0.057411381  0.058244761            2 
 1461000     1.018844   -4.5372122     1006.154  0.057389573   0.05823221            5 
 1462000    1.0275463   -4.5185745    1008.8319  0.057502956  0.058219822            3 
 1463000    1.0142001   -4.5416024    1009.5845  0.057506523  0.058207552            3 
 1464000    1.0229823   -4.5682256    1008.0477  0.057379763  0.058195196            5 
 1465000    1.0177701   -4.5499068    1011.0242  0.057509911  0.058183054            2 
 1466000    1.0214756    -4.529309    1012.3791  0.057547695  0.058170433            7 
 1467000    1.0300998   -4.5415135    1010.7866  0.057418005  0.058157824            3 
 1468000    1.0460141   -4.5255335     1009.657  0.057314769  0.058145441            2 
 1469000    1.0120732   -4.5385984    1012.0086  0.057409159  0.058133177            4 
 1470000    1.0372818   -4.5420356     1010.223  0.057268875  0.058120659            4 
 1471000    1.0244757   -4.5714527    1007.4639  0.057073639  0.058107989            6 
 1472000    1.0198796   -4.5371392    1013.8095  0.057394109  0.058095449            6 
 1473000    1.0159244   -4.5252349    1008.3486  0.057046199  0.058083099            3 
 1474000    1.0016552   -4.5713536    1014.5666  0.057359034  0.058070467            4 
 1475000    1.0131514   -4.5419547    1014.7417  0.057330041   0.05805775            6 
 1476000   0.99359146   -4.5635055    1009.1351  0.056974657  0.058045076            7 
 1477000    1.0051929   -4.5403993    1015.1321  0.057274437  0.058032338            6 
 1478000    1.0065013   -4.5638741    1014.7665  0.057215072  0.058019887            2 
 1479000    1.0181326   -4.5697452    1014.0699  0.057137138  0.058007491            2 
 1480000   0.99979876   -4.5563508    1013.1882  0.057048888  0.057994849            4 
 1481000    1.0023021   -4.5508719    1015.8938  0.057162604  0.057982475            2 
 1482000    1.0336661   -4.5608923    1012.6327  0.056940661  0.057969934            3 
 1483000    1.0168114    -4.551148    1016.6003  0.057125215  0.057957231            8 
 1484000    1.0207671   -4.5373267    1025.7794  0.057602169  0.057944991            3 
 1485000    1.0115592   -4.5286371    1016.1178  0.057021199  0.057932764            2 
 1486000    1.0128534   -4.5531881    1021.0499  0.057259418  0.057920155            3 
 1487000   0.99953995   -4.5278336    1018.3169  0.057067746  0.057907693            2 
 1488000    1.0437056   -4.5624766    1018.3703  0.057032384    0.0578949            1 
 1489000    1.0242288   -4.5428565    1020.9247  0.057137047  0.057882207            2 
 1490000    1.0373896   -4.5679424    1020.6505  0.057083363  0.057869608            3 
 1491000    1.0074078    -4.538564    1018.8677  0.056945435  0.057857279            7 
 1492000    1.0052512   -4.5262303    1021.0537  0.057029362  0.057844682            6 
 1493000    1.0161382   -4.5626779    1020.2025  0.056943653  0.057831726            2 
 1494000    1.0020748   -4.5538666    1021.1379  0.056957713  0.057819216            5 
 1495000    1.0282768   -4.5423703    1024.3388  0.057098039  0.057806404            4 
 1496000    1.0102897   -4.5598228    1023.9476  0.057038082  0.057793863            3 
 1497000    1.0058212   -4.5443228    1022.0404  0.056893811  0.057781368            7 
 1498000      1.01799   -4.5616837    1027.2466   0.05714545  0.057768621            2 
 1499000    1.0017793   -4.5387565     1026.365  0.057058316  0.057756166            4 
 1500000    1.0256054   -4.5587667    1027.1586  0.057064369  0.057743809            2 
 1501000   0.99202198   -4.5025645    1026.2184  0.056974151   0.05773133            3 
 1502000    1.0152976   -4.5567367    1026.3928  0.056945894  0.057718993            3 
 1503000     1.024764   -4.5459637    1026.2112  0.056897938  0.057706644            5 
 1504000   0.99598129   -4.5624104    1026.9207  0.056899417  0.057694326            4 
 1505000    1.0205755   -4.5560057    1026.6957  0.056849155  0.057682264            4 
 1506000   0.99823516   -4.5546709    1029.2385  0.056952109   0.05767024            3 
 1507000    1.0232287    -4.554276    1032.1387  0.057074689  0.057658079            3 
 1508000    1.0119147   -4.5596849     1029.044  0.056865825   0.05764551            3 
 1509000    1.0059161   -4.5524066    1030.6162  0.056914968  0.057633227            4 
 1510000    1.0251067   -4.5253724    1030.6055  0.056876685  0.057620665            5 
 1511000   0.99096223   -4.5669409    1030.3247  0.056823553  0.057608168            1 
 1512000    1.0153274   -4.5695429    1026.4044  0.056569909  0.057595417            7 
 1513000   0.98202068   -4.5130857    1029.5903  0.056707993  0.057582722            6 
 1514000   0.98783107   -4.5645921    1029.3355  0.056656513  0.057569939            5 
 1515000    1.0018168   -4.5613389    1035.0378  0.056932772  0.057557349            3 
 1516000    1.0019222    -4.545002    1033.4835  0.056809779  0.057544672            5 
 1517000    1.0115892    -4.563965    1032.4674  0.056716514  0.057532243            3 
 1518000    1.0176797   -4.5437201    1031.6766  0.056635737  0.057520094            3 
 1519000    1.0231204    -4.573054    1031.0614    0.0565647  0.057507677            2 
 1520000   0.99192713    -4.521669     1038.113   0.05691409  0.057495047            3 
 1521000    1.0172149   -4.5631148    1031.7052  0.056525596  0.057482391            9 
 1522000    1.0093277   -4.5712496    1037.6325  0.056812992  0.057469923            1 
 1523000    1.0116291   -4.5299604    1037.8899  0.056789776  0.057457395            2 
 1524000    1.0345964   -4.5719608    1034.4669  0.056565338  0.057444902            3 
 1525000    1.0267294   -4.5869483    1039.8022  0.056819791  0.057432243            5 
 1526000    1.0032379   -4.5878283    1036.1798  0.056584741  0.057419678            3 
 1527000    1.0128327   -4.5502542    1039.0565  0.056704675  0.057407111            2 
 1528000     1.020088   -4.5518231     1036.489  0.056527542  0.057394529            3 
 1529000    1.0012771   -4.5422861    1038.3355  0.056591211  0.057381972            6 
 1530000    1.0008076    -4.534895     1043.097  0.056813562  0.057369357            8 
 1531000    1.0085909    -4.560534    1039.9057   0.05660275  0.057357128            3 
 1532000   0.99715347   -4.5475996    1037.9926  0.056461739  0.057344757            5 
 1533000    1.0156879   -4.5640701    1041.6189  0.056622029  0.057332259            6 
 1534000    1.0190408   -4.5911165    1042.8893  0.056654133  0.057319754            4 
 1535000   0.99547031   -4.5471606    1047.3421  0.056858964  0.057307625            3 
 1536000    1.0097309   -4.5550491    1042.9969  0.056586203  0.057295707            2 
 1537000    1.0062137   -4.5871391    1043.8769  0.056597099  0.057283627            1 
 1538000    1.0084835   -4.5473637     1047.823  0.056774111  0.057271326            5 
 1539000    1.0024004   -4.5326038    1046.4269  0.056661627  0.057259345            2 
 1540000    1.0267907   -4.5763386    1045.6129  0.056580785  0.057247274            7 
 1541000    1.0206664   -4.5484863    1045.5639  0.056541417  0.057234699            3 
 1542000   0.98897955   -4.5922533    1042.7235  0.056351248  0.057222421            2 
 1543000   0.99785457   -4.5813769    1041.2652   0.05623597  0.057209664            1 
 1544000    1.0205205   -4.5854667    1042.1022  0.056244722  0.057196605            6 
 1545000    1.0334164   -4.5813997    1047.8815  0.056520037  0.057183967            3 
 1546000    1.0008607   -4.5814079    1041.2355  0.056125243  0.057171205            3 
 1547000     1.011315   -4.5681461    1045.4954  0.056318432  0.057158411            5 
 1548000    1.0087498   -4.5698335    1044.6579  0.056236966  0.057145497            4 
 1549000    1.0013602   -4.5805225     1046.174  0.056282224  0.057132401            2 
 1550000    1.0112263   -4.5532736    1049.6699  0.056433867  0.057119386            4 
 1551000    0.9860144   -4.5772129     1045.446  0.056170535  0.057106389            2 
 1552000    1.0149401   -4.5766006    1047.1698  0.056226902  0.057093721            5 
 1553000   0.99311315   -4.5664765    1050.8335  0.056387288  0.057081139            3 
 1554000    1.0257867   -4.5671474    1048.6557  0.056234217  0.057068585            5 
 1555000   0.99570201   -4.5554675    1050.7721  0.056311473  0.057055901            2 
 1556000   0.98502329   -4.6124521    1046.7733  0.056061122  0.057042877            5 
 1557000    1.0053262   -4.5648267    1051.2349   0.05626391  0.057030191            4 
 1558000    1.0284774   -4.5724314    1049.8196  0.056152098  0.057017619            3 
 1559000   0.98781196   -4.5638255     1050.597  0.056157631  0.057004612            2 
 1560000   0.98447636   -4.5626161     1047.825  0.055973556   0.05699156            2 
 1561000   0.97507141    -4.590322    1048.4988   0.05597367  0.056978503            7 
 1562000   0.98902016   -4.5480041    1054.4493  0.056255297  0.056965964            3 
 1563000   0.99322041   -4.5790838    1053.8534  0.056187532  0.056953569            5 
 1564000   0.98037198   -4.5886278    1052.7592  0.056093305   0.05694102            2 
 1565000   0.98596512   -4.5586886    1054.1284  0.056130375  0.056928388            4 
 1566000    1.0012687   -4.5754546    1055.9543  0.056191693  0.056915637            3 
 1567000   0.99132907   -4.5919973    1055.0787  0.056109267  0.056902799            2 
 1568000    1.0044989   -4.5601901    1055.8814  0.056116147  0.056890252            3 
 1569000    1.0129469     -4.55295    1061.7623  0.056392731  0.056877699            2 
 1570000    1.0046622   -4.5380658     1059.021  0.056211304   0.05686511            2 
 1571000   0.98347448   -4.5719638    1056.5076    0.0560422  0.056852579            4 
 1572000   0.99238515   -4.5645016    1056.8318  0.056023737  0.056840172            3 
 1573000    0.9872662    -4.551438    1063.4604  0.056339287  0.056827673            2 
 1574000   0.98147146   -4.5523574    1056.7823  0.055949929  0.056815203            3 
 1575000   0.99575998   -4.5505067    1062.2096  0.056201565  0.056802565            4 
 1576000   0.99049729   -4.5755274    1058.5038  0.055969954  0.056789878            4 
 1577000    1.0017639   -4.5797498    1057.2294  0.055867123  0.056777414            2 
 1578000   0.99278974    -4.588435    1061.8635  0.056076442  0.056764832            3 
 1579000   0.99241535   -4.5488222    1064.8922   0.05620077   0.05675222            2 
 1580000    1.0180457   -4.5781031    1058.9594  0.055852288  0.056739731            4 
 1581000   0.99824267   -4.5831535    1065.2539  0.056148742  0.056727297            2 
 1582000    0.9699952   -4.6015262    1059.2711    0.0557981  0.056714812            4 
 1583000    0.9941956   -4.6084682    1065.2714  0.056078721  0.056702499            3 
 1584000   0.99073261   -4.5932506    1062.7992  0.055913256  0.056690113            4 
 1585000    1.0011503   -4.5698895     1069.489  0.056229706  0.056677948            2 
 1586000   0.98007467   -4.5852331    1062.3472  0.055818998  0.056666079            4 
 1587000   0.98020812   -4.5872835     1064.779   0.05591152  0.056653735            2 
 1588000   0.98400483   -4.5941406    1062.8407  0.055774598  0.056641469            3 
 1589000    1.0064806   -4.5686924     1069.285   0.05607746  0.056629102           15 
 1590000   0.98561148   -4.5818611    1066.1154   0.05587607  0.056616806            3 
 1591000    1.0091113   -4.5870671    1067.0988  0.055892459  0.056604554            2 
 1592000   0.99293453   -4.6060121    1069.5859  0.055987534  0.056592218            3 
 1593000    1.0128248   -4.6243147    1068.7809  0.055910279  0.056579982            4 
 1594000   0.98948781   -4.5776463    1070.8765  0.055984761   0.05656751            3 
 1595000   0.98356182   -4.6297252    1066.5857  0.055725481  0.056555454            3 
 1596000   0.97765198    -4.594388    1071.2757  0.055935448  0.056543393            3 
 1597000   0.99994149   -4.5720357    1071.3135  0.055902396  0.056531824            3 
 1598000    1.0104379   -4.5982793    1070.1874   0.05580869  0.056519775            6 
 1599000   0.98259948    -4.611252     1073.334  0.055937776  0.056507878            2 
 1600000    1.0010382   -4.5725205    1076.7706  0.056081803  0.056496158            2 
 1601000    1.0065278    -4.583047    1073.4453  0.055873689  0.056484145            3 
 1602000    1.0017488   -4.5995597    1071.3568   0.05573017  0.056472106            3 
 1603000    1.0099892   -4.5781988    1074.6017  0.055864094  0.056459954            2 
 1604000   0.99106922   -4.5890863    1071.2438  0.055654812  0.056447705            5 
 1605000   0.99837028   -4.5850646    1078.4186  0.055992658  0.056435852            2 
 1606000    1.0045208    -4.576182    1078.7381   0.05597437  0.056423887            3 
 1607000   0.98893877   -4.5784222    1074.1755  0.055702941  0.056412103            4 
 1608000    0.9883072   -4.5750518    1076.6124  0.055794591  0.056400241            3 
 1609000     0.977075   -4.5770999    1075.6779  0.055711515  0.056388484            3 
 1610000    1.0048869   -4.6215267    1076.9131  0.055740846  0.056376738            6 
 1611000   0.99581093   -4.5643761    1079.8862  0.055860033  0.056364824            7 
 1612000    1.0045745   -4.5827154    1077.3535  0.055694453   0.05635295            4 
 1613000   0.99177224   -4.5664917    1082.1345  0.055906929  0.056341156            4 
 1614000   0.99474365   -4.5931109    1081.5781  0.055843562  0.056329207            4 
 1615000   0.98611185     -4.57301     1079.691  0.055711608  0.056317291            2 
 1616000    1.0032131   -4.5567553    1085.7119  0.055987619  0.056305582            4 
 1617000   0.97999298   -4.5761139    1081.6106   0.05574163  0.056293921            5 
 1618000    0.9858383   -4.5448149     1085.804  0.055923156  0.056282491            4 
 1619000   0.98862605   -4.5749158    1086.1677  0.055907336  0.056270869            4 
 1620000     1.013466   -4.5902101    1085.8073  0.055854286  0.056259186            2 
 1621000    1.0019849   -4.5888534    1081.2934  0.055587776  0.056247394            3 
 1622000   0.98238222   -4.5851178    1089.0875  0.055953938  0.056235865            3 
 1623000    0.9814854   -4.5696308     1084.275  0.055672364  0.056224383            4 
 1624000    0.9810369   -4.6029118    1085.2953  0.055690443  0.056212841            5 
 1625000   0.99422816   -4.5888746    1086.5861  0.055722363  0.056201339            2 
 1626000   0.97372029    -4.619894    1083.6111  0.055535624  0.056189733            7 
 1627000   0.99658695   -4.6090353    1084.7001  0.055557267  0.056177797            2 
 1628000   0.99512764   -4.6396305    1090.3564  0.055812676  0.056165658            3 
 1629000   0.99187456   -4.5905165    1089.8391  0.055751949  0.056153954            4 
 1630000   0.99925518   -4.5532575    1091.2569  0.055790231  0.056142634            3 
 1631000    0.9761882   -4.5901094    1092.8663  0.055838252  0.056131371            5 
 1632000   0.99110518   -4.5931294    1091.1909  0.055718491  0.056119833            3 
 1633000   0.98630585   -4.5745115    1092.1946   0.05573559  0.056108064            3 
 1634000    0.9540068   -4.5394893     1093.743  0.055780447  0.056096868            2 
 1635000   0.99189663   -4.5954545    1092.4529  0.055680577  0.056085617            6 
 1636000   0.98776359   -4.5962781    1087.8785  0.055413534  0.056074201            4 
 1637000   0.98433935   -4.5751033    1091.1107  0.055544224  0.056062923            5 
 1638000    1.0153886   -4.5853763    1093.0577  0.055609367  0.056051501            2 
 1639000    1.0049837   -4.6071377     1093.753   0.05561079  0.056040058            3 
 1640000   0.96209996   -4.5847386     1097.542  0.055769411  0.056028942            2 
 1641000   0.98908346   -4.6049232    1098.6266  0.055790503   0.05601793            3 
 1642000   0.97636712   -4.6051811    1098.4289  0.055746494  0.056006799            3 
 1643000   0.99990981   -4.5962329    1096.6094  0.055620278  0.055996072            5 
 1644000   0.99717439   -4.5991664    1101.9182  0.055855543  0.055985308            3 
 1645000   0.98288596   -4.6101011    1103.2028  0.055886666  0.055974359            6 
 1646000    1.0229121   -4.5649857    1103.2026  0.055852703  0.055963652            2 
 1647000   0.99712773   -4.5872006    1104.0554   0.05586194  0.055953058            2 
 1648000    0.9756904   -4.5922551    1098.7246  0.055558485  0.055941993            3 
 1649000   0.99100163   -4.6321822    1100.5164   0.05561534  0.055931069            4 
 1650000   0.97070626   -4.6128487    1098.2062  0.055464958  0.055920309            3 
 1651000   0.99020542   -4.6087341    1104.6955  0.055758909  0.055909426            5 
 1652000    0.9753737    -4.605479    1102.2406  0.055601322  0.055898632            4 
 1653000    0.9842981   -4.6022824     1105.889  0.055751615  0.055887741            4 
 1654000   0.99276726   -4.6037619    1103.8884  0.055617108  0.055876888            4 
 1655000   0.99882629   -4.5755918    1109.5065   0.05586639  0.055866436            4 
 1656000   0.99433848   -4.5852093    1106.7209  0.055692477  0.055855808            7 
 1657000    1.0070502   -4.5902193    1106.6435  0.055654974   0.05584533            4 
 1658000    0.9907401   -4.6103702      1107.84  0.055681543  0.055834721            2 
 1659000   0.98926652    -4.613533    1105.3106  0.055520927  0.055823917            2 
 1660000    1.0085121   -4.5764028     1110.021  0.055723944  0.055813197            4 
 1661000    0.9802019   -4.6031113    1106.7485  0.055526216   0.05580245            3 
 1662000    1.0040897   -4.6325182    1104.2484   0.05536745  0.055791507            7 
 1663000   0.97652603   -4.6054123    1107.1792  0.055481019  0.055780318            4 
 1664000   0.98377015   -4.5835715    1108.9979  0.055538755  0.055769142            3 
 1665000   0.99855431   -4.5901879    1108.7146  0.055491221  0.055758139            2 
 1666000   0.99431059   -4.6220232    1106.0596  0.055325108  0.055746907           13 
 1667000   0.97439265   -4.6027541    1110.3734  0.055507566  0.055735766            2 
 1668000    1.0049949   -4.5923414    1106.3345  0.055272509  0.055724648            2 
 1669000   0.98576071    -4.576223    1111.4826  0.055496435  0.055713717            3 
 1670000   0.97497926   -4.5947038     1109.137  0.055346156  0.055702602            2 
 1671000   0.98073038   -4.6138123    1108.7165  0.055292064  0.055691484           10 
 1672000   0.97161514   -4.6149649    1110.7439  0.055360044   0.05568044            5 
 1673000    0.9755334   -4.6055062    1112.7845  0.055428598  0.055669539            2 
 1674000   0.96863066   -4.6130555    1114.0557  0.055458766  0.055658667            5 
 1675000   0.98919368   -4.5981088    1115.5565  0.055500326   0.05564759            2 
 1676000   0.96594549    -4.596558    1116.8979  0.055533903  0.055636733            1 
 1677000   0.97533638   -4.5936532    1112.2564  0.055270146   0.05562577            3 
 1678000   0.99326722   -4.5879696    1113.1997  0.055284054  0.055615218            5 
 1679000   0.97718414   -4.6128654    1117.3146  0.055455359   0.05560426            4 
 1680000   0.98084478   -4.5695745     1119.208  0.055516268  0.055593461            5 
 1681000   0.98654486    -4.584268    1113.6713  0.055208768  0.055582623            4 
 1682000   0.97245425   -4.5972246    1118.0522  0.055392994  0.055571918            5 
 1683000   0.97012706   -4.5855134    1118.3211  0.055373393  0.055561003            3 
 1684000   0.96800838   -4.6066649    1117.1382  0.055281976  0.055549945            2 
 1685000   0.99127639   -4.5989905    1117.6386  0.055273918  0.055538982            5 
 1686000   0.99174806   -4.6244287    1116.7374   0.05519659   0.05552808            3 
 1687000   0.98775209   -4.6022794    1122.1359  0.055430544  0.055517261            3 
 1688000    0.9802424   -4.6151425      1116.14  0.055101699  0.055506429            3 
 1689000   0.98546906   -4.6141708    1121.0463  0.055311146  0.055495447            6 
 1690000   0.99121811   -4.6349365     1115.785  0.055018984  0.055484294            7 
 1691000    0.9760214    -4.603269    1121.4253  0.055264403  0.055473394            3 
 1692000   0.98075207   -4.5775639    1123.6088  0.055339284  0.055462387            8 
 1693000   0.99780256   -4.5898717    1122.4131  0.055247739  0.055451304            2 
 1694000   0.98650611     -4.62882    1121.1843  0.055154676  0.055439939            3 
 1695000   0.99519179   -4.6125598    1118.4571  0.054988058  0.055428712            4 
 1696000   0.97886375   -4.6274031    1119.9799  0.055030461  0.055417554            8 
 1697000   0.97325223   -4.6373794    1122.1197  0.055103108  0.055406141            3 
 1698000   0.96950807   -4.5729433    1122.2706  0.055078064  0.055394869            2 
 1699000   0.98283333   -4.6421327    1119.2389  0.054896945  0.055383489            3 
 1700000    0.9996935   -4.6128162    1121.0994  0.054955853  0.055371996            3 
 1701000   0.99028985   -4.6250284    1123.4994  0.055041125  0.055360803            6 
 1702000   0.97531431   -4.6196883     1120.015   0.05483818  0.055349691            5 
 1703000   0.98806757   -4.6215366    1124.6172   0.05503118   0.05533836            3 
 1704000   0.96977903   -4.5944344    1125.3476  0.055034603  0.055327197            4 
 1705000   0.96371645   -4.6093569    1121.6945  0.054823779  0.055315974            7 
 1706000    0.9797279     -4.61103     1126.068  0.055005275    0.0553046            5 
 1707000   0.97640499   -4.6003579    1126.2935  0.054984059  0.055293389            2 
 1708000   0.95269474   -4.6468044    1121.2575  0.054706161  0.055282047            9 
 1709000   0.98725473    -4.608385    1124.6105   0.05483765  0.055270567            3 
 1710000   0.97338677   -4.6179354    1129.8888  0.055062805    0.0552592            3 
 1711000   0.99931189   -4.6045453    1126.8316  0.054881724  0.055247972            3 
 1712000   0.98382915   -4.6214254    1126.8029  0.054848273   0.05523649            3 
 1713000   0.99330694   -4.5935591    1127.2411  0.054837571  0.055225189            2 
 1714000   0.99749877   -4.6250444    1127.0159  0.054794625  0.055213706            3 
 1715000   0.98591785   -4.6119362    1131.2561  0.054968711  0.055202349            4 
 1716000   0.99181356   -4.6541501    1122.4918  0.054511061  0.055190939            4 
 1717000   0.97950025    -4.636253    1129.1241  0.054801207  0.055179378            3 
 1718000   0.97441781   -4.6126907    1134.0702  0.055009223  0.055167886            4 
 1719000   0.99958955   -4.6103149    1129.8129  0.054770842  0.055156461            5 
 1720000   0.99614553   -4.6420105    1125.5495  0.054532436  0.055144999            6 
 1721000   0.96846618   -4.6258603    1129.1378  0.054674503  0.055133332            3 
 1722000   0.97509853   -4.5751419     1134.138  0.054884727  0.055122143            3 
 1723000   0.97745723   -4.6229901    1129.7475  0.054640525  0.055110827            2 
 1724000   0.99269639   -4.6086093    1131.2454  0.054681235  0.055099392            3 
 1725000   0.97471953   -4.6372171    1132.8225  0.054725724  0.055087799            4 
 1726000   0.97267077   -4.6448689    1130.4159  0.054577826  0.055076624            7 
 1727000   0.98311216   -4.6130539    1131.7327  0.054609761  0.055065351            4 
 1728000   0.98004839   -4.5901354    1134.7343   0.05472291  0.055054389            4 
 1729000    0.9837621   -4.5715939    1137.4503  0.054822164  0.055043693            2 
 1730000   0.95879184   -4.6311768    1136.0375  0.054722423  0.055032758            2 
 1731000   0.96737742   -4.6199923    1135.3077  0.054655675  0.055021538            2 
 1732000   0.99337019   -4.6072932    1137.4239   0.05472594  0.055010495            4 
 1733000   0.98664999    -4.645337    1135.9033   0.05462124  0.054999332            8 
 1734000   0.97312169   -4.5701402    1140.1662   0.05479461  0.054988149            7 
 1735000   0.97510753   -4.6198715    1136.1785  0.054571492  0.054976858            4 
 1736000   0.98864293   -4.6078063    1139.2669  0.054688313  0.054965527           10 
 1737000   0.95293821   -4.6144655    1137.8982  0.054591165  0.054954538            6 
 1738000   0.95189998   -4.6017879    1141.1292  0.054714673  0.054943458            3 
 1739000   0.96021264   -4.6071019    1144.2222  0.054831427  0.054932385            3 
 1740000   0.99933012   -4.6175401    1141.4705  0.054668127  0.054921378            4 
 1741000   0.98585709   -4.6227038    1145.4289  0.054826196  0.054910353            3 
 1742000   0.98002686   -4.6145801    1142.9821  0.054677673  0.054899409            5 
 1743000   0.96839163   -4.6448068    1138.5833  0.054435995  0.054888196            2 
 1744000    0.9592629   -4.6074572    1141.6615  0.054551868   0.05487708            8 
 1745000   0.98173878   -4.6469847    1144.3097  0.054647071   0.05486621            5 
 1746000   0.98305013   -4.6270661    1144.6324  0.054631175  0.054855071            2 
 1747000      0.98198   -4.6097876    1147.1049  0.054717846  0.054844068           13 
 1748000   0.93885617   -4.6799254    1140.2865  0.054361487  0.054832944            2 
 1749000   0.94502848    -4.614738     1146.091  0.054606964  0.054821658            1 
 1750000   0.95033356   -4.6365088    1144.3571  0.054493196  0.054810599            3 
 1751000   0.94740261   -4.6411512    1143.6183  0.054426915  0.054799583            5 
 1752000   0.96131755   -4.6133178    1147.6314   0.05458673  0.054788429            3 
 1753000   0.98034823   -4.6087688    1146.8068  0.054516393  0.054777404            9 
 1754000    0.9633952   -4.6463106    1150.8627  0.054678007  0.054766296            3 
 1755000   0.97481523   -4.6024229     1150.307  0.054620465  0.054755064            3 
 1756000   0.96430682   -4.6272221    1149.3949  0.054546077  0.054744083            5 
 1757000   0.97038924   -4.6197655    1150.7863  0.054581021  0.054733113            4 
 1758000   0.98145656   -4.6457026    1143.3559  0.054197757  0.054721997            3 
 1759000   0.97361338   -4.6108614    1150.5639  0.054508427  0.054710956            3 
 1760000   0.97929615   -4.6480774    1149.9543  0.054448594  0.054699962            4 
 1761000   0.97501204   -4.6115518    1150.8908  0.054461992  0.054689146            7 
 1762000   0.95021615   -4.6263843    1153.9432  0.054575445  0.054678341            3 
 1763000   0.97925259   -4.6275552    1149.6264  0.054340441  0.054667322            3 
 1764000   0.97095805   -4.6365651    1147.8749  0.054226895  0.054656301            2 
 1765000   0.96669793   -4.6066499    1154.5999  0.054513689  0.054645224            2 
 1766000   0.96782137   -4.6213486    1153.8621  0.054448002  0.054634138            3 
 1767000   0.95930287   -4.6271069    1150.9684  0.054280719  0.054623167            3 
 1768000    0.9711895   -4.6527303    1152.5699  0.054325504  0.054612222            5 
 1769000   0.96974148   -4.6202864    1154.4084  0.054381403  0.054601441            4 
 1770000   0.98123304     -4.63313    1150.2169  0.054153338  0.054590511            6 
 1771000   0.99484143   -4.6358563    1156.5299  0.054419817  0.054579668            4 
 1772000    0.9441643   -4.5825008    1160.9627  0.054597567  0.054569082            1 
 1773000   0.98295566   -4.6401737    1156.9251  0.054377001  0.054558495            3 
 1774000   0.95823973    -4.628884    1160.0843  0.054494755  0.054547751            5 
 1775000   0.96088937   -4.6237073    1160.0493   0.05446241  0.054537094            3 
 1776000   0.98687807   -4.6141335    1159.8972  0.054424604  0.054526493            5 
 1777000   0.96691659   -4.6303745    1155.3285  0.054179729   0.05451564            2 
 1778000   0.96142741     -4.64107    1160.9655  0.054413455   0.05450505            4 
 1779000   0.97421872   -4.6430458    1159.5029  0.054314359  0.054494477            2 
 1780000   0.96744337   -4.6011073    1164.0788   0.05449807  0.054483692            3 
 1781000   0.94584403   -4.6099777    1162.6923  0.054402597  0.054473168            2 
 1782000   0.97829683    -4.607676    1159.6456   0.05422959  0.054462594            2 
 1783000   0.95006357   -4.6362143    1163.2035  0.054365464   0.05445193            5 
 1784000    0.9877109    -4.613044    1165.5343  0.054443868  0.054441683            3 
 1785000   0.95614251   -4.5998245    1163.9669  0.054340193  0.054431662            2 
 1786000   0.97809818   -4.6263561    1169.8591   0.05458469  0.054421406            3 
 1787000   0.97078137   -4.6190583    1160.7655  0.054130082  0.054410905            2 
 1788000   0.96189936   -4.6501765    1160.1954  0.054073238  0.054400048            3 
 1789000   0.95565783   -4.6530852    1159.2278  0.053997942  0.054389276            3 
 1790000   0.98121607   -4.6475444    1169.6206   0.05445161  0.054378761            8 
 1791000   0.98265998   -4.6356021    1166.3763  0.054270255   0.05436807            6 
 1792000   0.98064817   -4.6378057    1166.1154  0.054227838   0.05435736            4 
 1793000   0.94611681   -4.6517571     1157.695  0.053806238  0.054346647            6 
 1794000   0.94947285   -4.6313892    1167.3042  0.054222603  0.054336053            4 
 1795000   0.98434181   -4.6539126    1163.9563  0.054036968  0.054325523            2 
 1796000   0.94964494   -4.6438683    1164.8126  0.054046613  0.054314659            4 
 1797000   0.95516245   -4.6330878    1171.1591  0.054310846  0.054303675            3 
 1798000   0.95158283   -4.6347187    1166.0288  0.054042862  0.054292914            2 
 1799000   0.97758768   -4.6367785    1162.8227  0.053864308  0.054282061            2 
 1800000   0.95911263    -4.651446      1163.46  0.053863887  0.054271071            5 
 1801000   0.94175427   -4.6194001    1171.5783  0.054209618  0.054260228            2 
 1802000   0.97269925   -4.6458289      1167.01  0.053968274   0.05424943            4 
 1803000   0.96947199   -4.6482294    1173.8025  0.054252286  0.054238521            2 
 1804000   0.93947522   -4.6569428    1170.2956  0.054060217  0.054227755            3 
 1805000   0.95781703   -4.6596751    1167.7189  0.053911309  0.054216795           10 
 1806000   0.96114545   -4.6374314    1165.6373  0.053785403  0.054205988            2 
 1807000   0.94877809   -4.6287772    1170.0281  0.053958132  0.054195159            1 
 1808000    0.9645123   -4.6301317    1170.6215  0.053955639  0.054184306            2 
 1809000   0.94550885   -4.6496843    1172.8002  0.054026174  0.054173454            5 
 1810000   0.95598045   -4.6584397    1170.6811  0.053898763  0.054162529            6 
 1811000   0.94813248   -4.6415611    1173.4895  0.053998227  0.054151796            4 
 1812000   0.97128348   -4.6243145    1171.5333  0.053878462  0.054140953            2 
 1813000   0.96232904   -4.6109292    1174.8645  0.054001863  0.054130185            2 
 1814000   0.94534962   -4.6507418    1171.6935   0.05382642  0.054119286            4 
 1815000   0.95303335   -4.6733751    1171.6298  0.053793839  0.054108449            4 
 1816000   0.95695537   -4.6412073    1174.6086  0.053900907  0.054097601            3 
 1817000   0.95958908    -4.670577      1173.16  0.053804809  0.054086569            2 
 1818000   0.96357996   -4.6557873    1174.4924  0.053836283  0.054075334            2 
 1819000   0.97188243   -4.6318709    1173.2547  0.053749985  0.054064393            2 
 1820000   0.96787371   -4.6265202    1174.2534  0.053766181  0.054053152            3 
 1821000   0.95730771   -4.6585981    1167.2576  0.053416511  0.054042107            2 
 1822000   0.96399147    -4.618384    1180.7135  0.054002629  0.054031149            5 
 1823000   0.97797895   -4.6441606    1178.4224  0.053868274  0.054019982            7 
 1824000   0.98637408   -4.6577439    1175.5118  0.053705764  0.054009133            2 
 1825000   0.95421011   -4.6556366    1174.8165  0.053644587  0.053998071            1 
 1826000   0.97941246   -4.6346323    1175.2511  0.053635044  0.053987044            6 
 1827000   0.93379396   -4.6560106    1179.1504  0.053783541  0.053976017            6 
 1828000   0.95881648   -4.6542736    1177.2117   0.05366574  0.053965013            6 
 1829000   0.94775286   -4.6255737     1177.776  0.053662111  0.053954018            7 
 1830000   0.95219929   -4.6282285    1179.5479  0.053713477  0.053942906            3 
 1831000   0.97011267   -4.6403879    1178.2178  0.053623602  0.053931498            2 
 1832000   0.98298946   -4.6360058    1180.6185  0.053703533  0.053920076            2 
 1833000   0.95965212   -4.6596511    1173.8968  0.053368648  0.053908887            4 
 1834000    0.9597737   -4.6617923     1175.303  0.053403444  0.053897326            6 
 1835000   0.96603993   -4.6576977    1175.0099  0.053361031   0.05388592            2 
 1836000   0.99416644   -4.6596113    1177.4923  0.053444642  0.053874406            5 
 1837000   0.95005293   -4.6670062    1177.5254   0.05341705  0.053863054            6 
 1838000   0.97127769   -4.6689762    1184.1786  0.053689637   0.05385184            2 
 1839000   0.96846111   -4.6546122    1179.1125  0.053430874    0.0538405            6 
 1840000   0.94893466    -4.672524    1177.9626  0.053349757  0.053828928            5 
 1841000   0.94992422    -4.679998    1178.7427   0.05335609  0.053817443            7 
 1842000   0.96120344   -4.6509804    1183.4519  0.053540167  0.053805937            4 
 1843000   0.97471323   -4.6604945    1183.6863  0.053521717  0.053794734            5 
 1844000   0.94478926   -4.6487767    1186.3926  0.053614995  0.053783623            5 
 1845000   0.99267624   -4.6442651    1186.8274  0.053605574  0.053772615            2 
 1846000   0.95100822   -4.6279603    1182.6952  0.053389997  0.053761588            6 
 1847000   0.95139868   -4.6403556    1183.8626  0.053413763  0.053750343            4 
 1848000    0.9357592   -4.6561539     1183.963  0.053389384  0.053738964            7 
 1849000   0.96642419   -4.6520043    1180.5026  0.053204553  0.053727593            3 
 1850000   0.95973691   -4.6350359     1188.335  0.053528603   0.05371645            5 
 1851000   0.94088014   -4.6507294    1184.9882  0.053349009  0.053705223            5 
 1852000   0.94989047   -4.6529636    1188.2597  0.053467411  0.053693986            3 
 1853000   0.94943968   -4.6623671    1183.6206  0.053229925  0.053682682            2 
 1854000   0.96249415    -4.662091    1186.3899  0.053325689  0.053670946            4 
 1855000   0.95294677   -4.6561495    1187.1237  0.053329905  0.053659501            7 
 1856000   0.95205657   -4.6532145    1187.2103   0.05330506  0.053648174           15 
 1857000   0.95957238   -4.6496869    1184.5965  0.053159059  0.053636647            2 
 1858000   0.96267587   -4.6409301    1188.7337  0.053316009  0.053625341            4 
 1859000   0.94440735   -4.6654785    1186.9826  0.053208832  0.053614073            4 
 1860000   0.95335507   -4.6568825    1189.9333  0.053312425  0.053602823            5 
 1861000   0.96435698   -4.6704314    1187.7479  0.053185918  0.053591554            3 
 1862000   0.95890454   -4.6517027     1189.381   0.05323044  0.053580345            4 
 1863000   0.95502554   -4.6676682    1191.2804  0.053286833  0.053569228            4 
 1864000   0.96104488   -4.6515884    1191.4468  0.053265684  0.053557856            6 
 1865000   0.95452715   -4.6382409     1191.496  0.053239321  0.053546916            2 
 1866000   0.95229526   -4.6668729     1190.755  0.053177698  0.053535612            2 
 1867000   0.94495779   -4.6497256    1189.5003   0.05309321    0.0535243            5 
 1868000   0.95967569   -4.7041793      1189.12  0.053047823  0.053512855            3 
 1869000    0.9755489   -4.6627511    1189.3905  0.053031501  0.053501405            4 
 1870000   0.95948951   -4.6303147    1192.4259  0.053138408  0.053489916            4 
 1871000   0.95538692   -4.6611113    1193.5573  0.053160401  0.053478771            3 
 1872000   0.93729876   -4.6446001    1194.3976  0.053169407  0.053467385            2 
 1873000   0.94565983   -4.6670222    1192.3379  0.053049382  0.053456211            3 
 1874000   0.94280407   -4.6734221    1194.7958   0.05313037  0.053445069            4 
 1875000   0.97453265    -4.670722    1195.6297  0.053139098  0.053433902            4 
 1876000   0.92105403   -4.6840034    1195.9964  0.053127062   0.05342246            4 
 1877000    0.9484588   -4.6426539    1196.1126  0.053103917  0.053411194            3 
 1878000   0.92402238   -4.6751612    1197.4354  0.053134337  0.053399903            5 
 1879000   0.96528572    -4.667538    1193.2167   0.05291896  0.053388713            2 
 1880000   0.95015713   -4.6447688    1198.2137  0.053112311  0.053377446            2 
 1881000   0.95368445   -4.6393609    1199.3363  0.053133809  0.053366112            3 
 1882000   0.96405791   -4.6888876    1196.9362  0.052999301  0.053354899            3 
 1883000   0.95217305   -4.6471261    1195.7468  0.052918518  0.053343496           13 
 1884000   0.95967771   -4.6666016    1198.0703    0.0529932  0.053332309            4 
 1885000   0.96231164   -4.6452934    1197.5682  0.052942893  0.053320956            2 
 1886000   0.96442203   -4.6746328    1196.6811  0.052875624  0.053309713            9 
 1887000   0.92733094   -4.6956325    1195.6333  0.052801331  0.053298322            7 
 1888000   0.94225466   -4.6408279    1201.8601  0.053048202  0.053287087            2 
 1889000   0.98593475   -4.6606846    1199.3064  0.052907463  0.053275986            3 
 1890000   0.93691881   -4.6820594    1198.5543  0.052846309  0.053264723            4 
 1891000   0.95376168   -4.6816927    1198.6662  0.052823295  0.053253545            3 
 1892000   0.95563386   -4.6837529    1201.5146  0.052920832  0.053242313            5 
 1893000    0.9641972   -4.6610504    1204.7951  0.053037289  0.053231093            4 
 1894000    0.9390582   -4.6826177    1198.9462  0.052751944  0.053219744            5 
 1895000   0.91720047   -4.6528997    1204.6096  0.052973159  0.053208459            8 
 1896000   0.93929588    -4.671806    1204.9602  0.052960629  0.053197271            3 
 1897000   0.95270213   -4.6672948    1206.1937  0.052986895  0.053186088            2 
 1898000   0.95271498   -4.6485784    1207.3678  0.053010528  0.053175345            3 
 1899000   0.95639649   -4.6619757    1207.9116  0.053006478  0.053164475            6 
 1900000   0.93709194   -4.6963007    1205.5987  0.052877134  0.053153554            3 
 1901000   0.94121772   -4.6858156    1206.5435  0.052890735  0.053142411            6 
 1902000   0.94404198   -4.6691883    1206.8291  0.052875441  0.053131294            5 
 1903000   0.94046562   -4.6842879    1205.4577  0.052787605  0.053120023            4 
 1904000   0.94326442   -4.6309183    1210.7353  0.052990866  0.053108801            5 
 1905000   0.95021217   -4.6746346    1207.5796  0.052825003  0.053097861            4 
 1906000   0.93394804   -4.6638917     1211.859  0.052984391  0.053087028            2 
 1907000   0.96636925   -4.6972802    1205.8839  0.052695504  0.053075885            3 
 1908000   0.95339338    -4.682676    1208.3434  0.052775305  0.053064884            6 
 1909000   0.91737661   -4.6943136    1209.4257  0.052794904   0.05305363            6 
 1910000   0.97501004   -4.6390598    1212.9195  0.052919701  0.053042505            2 
 1911000   0.93355601    -4.701185     1207.082  0.052637448  0.053031407            3 
 1912000   0.92574394   -4.6660664    1206.7661  0.052596152  0.053020259            4 
 1913000   0.95660447   -4.6570752    1209.4239  0.052684434  0.053009057            6 
 1914000   0.95761535    -4.691179    1209.2622  0.052649867   0.05299763            2 
 1915000   0.94779289   -4.6405233    1207.7309   0.05255574  0.052986484            2 
 1916000   0.96574797   -4.6855382     1209.158  0.052590378  0.052975228            4 
 1917000   0.93553453   -4.6797009    1209.5787  0.052581233  0.052964114            4 
 1918000   0.98225214   -4.6786592    1208.9302  0.052525644  0.052953072            4 
 1919000   0.96878067   -4.6729955    1212.8615  0.052668989  0.052942033            3 
 1920000   0.92224358   -4.6836582     1210.432  0.052536109  0.052930889            7 
 1921000   0.93922009   -4.6768794    1210.9235  0.052530083   0.05291962            3 
 1922000   0.94043062   -4.6975234    1215.0572  0.052681981  0.052908431            3 
 1923000   0.96206946   -4.6961953    1212.5626  0.052546481   0.05289729            7 
 1924000   0.92601963    -4.671182    1213.1801  0.052545916    0.0528861            4 
 1925000   0.95232402   -4.6466341    1220.1229  0.052819171  0.052875016            3 
 1926000   0.93047128   -4.6484019    1213.3446  0.052498469   0.05286383            3 
 1927000   0.93052998    -4.660192    1220.3898  0.052775897  0.052852891            3 
 1928000    0.9551537   -4.6565455    1213.1555  0.052435834  0.052841746            3 
 1929000   0.93383172   -4.6871036    1213.1836  0.052409868  0.052830408            3 
 1930000   0.93280075   -4.6774548     1216.447  0.052523617  0.052819216            3 
 1931000   0.93842696   -4.7004968    1212.9635  0.052346087  0.052807833            3 
 1932000   0.95986262   -4.6667588    1218.6897   0.05256598  0.052796705            3 
 1933000   0.92980905   -4.6892959    1211.0307    0.0522086  0.052785394            7 
 1934000   0.94448763   -4.6749869    1219.4473  0.052544267  0.052774255            3 
 1935000   0.94104222   -4.6581323    1214.7905   0.05231656   0.05276308            4 
 1936000   0.96680052   -4.6687816    1219.8923   0.05250914  0.052752023            2 
 1937000   0.96153676   -4.6602627    1221.1292  0.052535244  0.052741065            4 
 1938000   0.93506047   -4.6826456    1226.1768  0.052725182   0.05273048            4 
 1939000   0.93310464   -4.6905775    1224.6432  0.052632079  0.052719748            3 
 1940000   0.93152477   -4.6579522    1221.9087  0.052487489   0.05270892           10 
 1941000   0.94766471   -4.6748874     1223.373  0.052523312  0.052698183            4 
 1942000   0.94790914   -4.6785819    1223.1944  0.052488602  0.052687244            7 
 1943000   0.95183901   -4.6822966     1221.008  0.052367817  0.052676293            3 
 1944000   0.93737922   -4.6478971    1223.3145  0.052439752  0.052665535            6 
 1945000   0.93785451   -4.6686427    1226.7469   0.05255985  0.052654759            4 
 1946000   0.94033609   -4.6622478    1223.7234  0.052403366  0.052644172            3 
 1947000   0.95261685   -4.6653661    1225.7391  0.052462725  0.052633465            5 
 1948000   0.93019804   -4.6883201    1225.2769  0.052416021  0.052622754            3 
 1949000   0.92563599   -4.6852987    1229.0235  0.052549319  0.052612278            4 
 1950000    0.9338127   -4.7018357    1224.9056  0.052346394  0.052601328            4 
 1951000   0.94554862   -4.6848849    1230.9275  0.052576778  0.052590421            3 
 1952000    0.9483718   -4.6746893    1229.5388  0.052490557  0.052579747            4 
 1953000    0.9658543    -4.658202    1226.0948  0.052316727  0.052568921            4 
 1954000   0.94967118   -4.6792302    1222.6094  0.052141308   0.05255797            3 
 1955000   0.92900401     -4.69581     1225.219  0.052225873   0.05254699            3 
 1956000   0.92350452   -4.6877914    1227.8993  0.052313367  0.052536108            2 
 1957000   0.92379459    -4.706907    1228.5171  0.052312942  0.052525151            3 
 1958000   0.93084537   -4.6924626    1224.7441  0.052125642   0.05251424            4 
 1959000   0.94271111   -4.6767715    1236.0904  0.052581691  0.052503417            4 
 1960000    0.9670308   -4.6774937     1229.862   0.05229005  0.052492833            3 
 1961000   0.94846222   -4.7033541     1228.389  0.052200791  0.052482025            5 
 1962000   0.93452492   -4.6832123    1233.2202  0.052379385  0.052471295            8 
 1963000   0.91470148   -4.7111123     1230.969  0.052257131  0.052460371            7 
 1964000   0.93308616   -4.6731668     1234.201  0.052367658  0.052449655            1 
 1965000   0.93370308   -4.7001561    1229.4573  0.052139834  0.052438921            2 
 1966000   0.92992053   -4.7088131    1235.1659  0.052355285  0.052428065            2 
 1967000   0.93458615   -4.7197514    1229.0073  0.052067755  0.052417061            3 
 1968000   0.93279093   -4.6900011    1233.1112  0.052215076  0.052406102            2 
 1969000   0.93063254    -4.679036    1235.0273  0.052269652  0.052395211            6 
 1970000    0.9409705   -4.6791663    1238.2135  0.052377899  0.052384402            5 
 1971000   0.91506116   -4.6825987    1233.5862  0.052155683  0.052373616            3 
 1972000   0.94710731   -4.7157229    1233.3931  0.052121073  0.052362553            5 
 1973000   0.92945455   -4.6732197    1232.1596  0.052042557   0.05235167            4 
 1974000   0.90985145   -4.7050045    1234.5093  0.052115388  0.052340816            4 
 1975000   0.92688315   -4.6815096    1236.1077  0.052156445  0.052329803            4 
 1976000   0.94359248   -4.7500181    1232.9312  0.051996088  0.052318859            4 
 1977000   0.93539365   -4.6753107    1238.3727  0.052199151  0.052308103            5 
 1978000   0.94318855   -4.6978263    1237.9015  0.052152912  0.052297413            5 
 1979000   0.93465662   -4.6912137    1242.5412  0.052321931  0.052286698            5 
 1980000   0.92828731   -4.6877705    1236.5026  0.052041357  0.052276111            3 
 1981000   0.94666458   -4.7092092      1238.43  0.052096165  0.052265464            3 
 1982000   0.94447957   -4.6909097    1240.2058  0.052144543  0.052254823            6 
 1983000   0.94356436   -4.6959639    1238.5226  0.052047514  0.052244258            3 
 1984000   0.93005188   -4.7166692    1240.3583  0.052098383  0.052233628            5 
 1985000   0.92470157    -4.699309    1237.1104  0.051935785  0.052222872            4 
 1986000   0.95454093   -4.6822272    1241.4754  0.052092791  0.052212138            3 
 1987000   0.89994109   -4.6791281    1245.7209  0.052244627  0.052201461            4 
 1988000   0.93722308   -4.6919624     1242.465  0.052081868   0.05219088            2 
 1989000   0.93201406   -4.6860885    1245.5012  0.052182888  0.052180165            4 
 1990000   0.92965784   -4.7110399    1243.2346  0.052061752  0.052169678            5 
 1991000   0.91347126   -4.6937271    1238.9968  0.051858228  0.052158858            4 
 1992000   0.91758547   -4.6773619    1243.7935  0.052032861  0.052147984            3 
 1993000   0.94244724   -4.6823277    1245.9632  0.052097476  0.052137183            2 
 1994000   0.91517097   -4.6965201    1242.3715  0.051921241  0.052126574            4 
 1995000   0.91419154   -4.7024729    1240.9594  0.051836234  0.052115918            2 
 1996000   0.93282153   -4.7348046    1246.3557  0.052035559  0.052104917            4 
 1997000   0.94692824   -4.7071224    1245.7066  0.051982414   0.05209412            4 
 1998000   0.93797807    -4.694394    1244.4373  0.051903456   0.05208335            4 
 1999000   0.92521743   -4.6811195     1244.963  0.051899407  0.052072691            4 
 2000000   0.92810639   -4.7039589    1244.0792  0.051836633  0.052061884            2 
 2001000   0.95335674   -4.6879918    1239.3355  0.051613174  0.052050987            7 
 2002000   0.91938999    -4.700567    1245.8156  0.051857127  0.052039941            5 
 2003000   0.93383459   -4.7109962    1245.2303  0.051806884  0.052028922            3 
 2004000   0.93473343   -4.6935234    1245.7017  0.051800638  0.052017915            6 
 2005000   0.92770226   -4.7221723    1247.8896  0.051865736  0.052006789            1 
 2006000   0.92710518   -4.6719919    1244.1434  0.051684255   0.05199586            2 
 2007000   0.92889395   -4.6933596    1249.0212  0.051861038  0.051984987            3 
 2008000   0.91318813   -4.7356847    1246.9558  0.051749494  0.051973982            3 
 2009000   0.92082869   -4.7011886    1248.7653  0.051798793  0.051962992            5 
 2010000   0.95442209   -4.6985496    1248.8614  0.051777006  0.051952099            3 
 2011000   0.90571227   -4.7105929    1248.2008  0.051723885  0.051941181            8 
 2012000    0.9310592   -4.6875092    1252.6015  0.051880447  0.051930433            4 
 2013000   0.94733037   -4.6821305     1248.735  0.051694608  0.051919581            3 
 2014000   0.93380808   -4.7130328    1251.1634  0.051769421  0.051908621            8 
 2015000   0.94715418   -4.7037213    1252.1656  0.051785178  0.051897712            2 
 2016000   0.94353898   -4.7017415    1249.5208  0.051650164  0.051886734            4 
 2017000    0.9459293   -4.7161064    1251.8959  0.051722685  0.051875756            2 
 2018000   0.93046896   -4.7238807    1250.8104   0.05165223  0.051864748            5 
 2019000   0.91750455   -4.7056835    1253.8356  0.051751513  0.051853915            5 
 2020000   0.95498846   -4.6662114    1257.1702  0.051863457   0.05184312            5 
 2021000   0.92208742   -4.7042065    1251.7102  0.051612658  0.051832406            4 
 2022000   0.93258863   -4.7086869    1252.6721  0.051626777  0.051821561            5 
 2023000   0.93082353   -4.7320551    1253.6384   0.05164106  0.051810591            2 
 2024000   0.94662306   -4.7105041     1254.722  0.051660163  0.051799774            5 
 2025000   0.91474301   -4.7031985    1257.2991  0.051740705  0.051788966            3 
 2026000   0.92237744   -4.7372613    1252.0673  0.051499972  0.051778088            2 
 2027000   0.93211184   -4.6959181    1256.8438  0.051670933  0.051767209            3 
 2028000   0.91013035   -4.7175007    1255.2971  0.051581901  0.051756479            3 
 2029000   0.92217015   -4.6833968    1256.1326  0.051590793  0.051745723            5 
 2030000    0.9162811   -4.7294816    1260.8219  0.051757879  0.051734907            2 
 2031000   0.92448857   -4.6920152    1260.3438  0.051712779  0.051724428           11 
 2032000   0.93783631   -4.7053414    1259.2053  0.051640636  0.051713774            4 
 2033000   0.92298819   -4.7206551    1263.2917  0.051782737  0.051703089            3 
 2034000    0.9343054   -4.7327151    1259.4748  0.051600903  0.051692406            1 
 2035000   0.92890146   -4.7100964     1258.155  0.051521497  0.051681784            5 
 2036000   0.90608306   -4.6892675    1261.8319  0.051646691  0.051671028            2 
 2037000   0.93048657   -4.7037032     1260.231  0.051555841  0.051660269            4 
 2038000    0.9237687   -4.6997955    1258.9466  0.051478027  0.051649433            9 
 2039000   0.93036203    -4.663263    1263.8437  0.051652921  0.051638751            4 
 2040000   0.91902376   -4.7260723    1262.7189  0.051581655  0.051628059            5 
 2041000   0.91565827   -4.7343826    1256.8995  0.051318779  0.051617519            8 
 2042000   0.92326054   -4.7078508    1262.0547  0.051504026  0.051606847            3 
 2043000   0.94377916   -4.7020178     1264.096   0.05156208  0.051596221            3 
 2044000   0.91800029   -4.7327098    1260.2404  0.051379666  0.051585317            4 
 2045000   0.93378789   -4.7339912    1259.0333  0.051305351  0.051574487            3 
 2046000   0.91099852   -4.6968208    1266.5251  0.051585415   0.05156399            3 
 2047000   0.89885662   -4.6900743    1264.8566  0.051492289  0.051553417            3 
 2048000   0.93133303   -4.7074252    1265.8669  0.051508255  0.051542835            7 
 2049000   0.93006313   -4.7245536    1265.1557  0.051454193  0.051532252            4 
 2050000   0.90791865   -4.7090353    1268.5623  0.051567575  0.051521819            3 
 2051000   0.92449237   -4.7190557    1265.4063  0.051414201   0.05151119            5 
 2052000   0.93773345   -4.7091047    1270.1771  0.051582889  0.051500537            3 
 2053000   0.92852688    -4.733879    1265.1988  0.051355693  0.051490041            5 
 2054000   0.92659112   -4.7061407    1267.9231  0.051441215  0.051479579            4 
 2055000   0.91723673   -4.6913418    1266.9404  0.051376333  0.051469107            2 
 2056000   0.94488357   -4.6994723     1266.955  0.051351938  0.051458685            2 
 2057000   0.93506771   -4.7215631     1264.318  0.051220141  0.051448135            4 
 2058000    0.9234955   -4.7069182    1270.8421  0.051459432  0.051437589            3 
 2059000   0.93594398    -4.702233    1270.8063  0.051432991  0.051427226            4 
 2060000   0.91955507   -4.7466167    1267.4914  0.051273925  0.051416837            4 
 2061000   0.93717682   -4.7247413    1270.8226  0.051383737  0.051406556            9 
 2062000   0.91838463   -4.7278452     1271.719  0.051395045  0.051396043            3 
 2063000   0.92754627   -4.7161809    1270.3806  0.051316068  0.051385634            5 
 2064000    0.9111897    -4.730316    1271.3642   0.05133092   0.05137541            4 
 2065000   0.91713292   -4.7372504    1270.9883  0.051290893  0.051365074            2 
 2066000   0.92204934   -4.7100522    1272.6065  0.051331336  0.051354777            3 
 2067000   0.90848262   -4.7453082    1271.1162  0.051246419  0.051344267            7 
 2068000   0.92079862   -4.7568337    1274.9923  0.051377832  0.051333895            3 
 2069000    0.9176923   -4.7139058    1274.9949  0.051353104  0.051323589            3 
 2070000   0.93047157   -4.7061369    1272.7634  0.051238461  0.051313264            1 
 2071000   0.90806935   -4.7195282    1277.4839  0.051403664  0.051302971            6 
 2072000    0.9310821   -4.7194523    1274.3631  0.051253341    0.0512927            2 
 2073000   0.91638808   -4.7494467    1275.8911  0.051290043   0.05128242            4 
 2074000   0.92188179   -4.7276604    1271.4021  0.051084945  0.051272189            2 
 2075000   0.93513909   -4.7188304    1280.6274  0.051430818  0.051261952            2 
 2076000   0.93651714   -4.7523331    1274.4994   0.05116006  0.051251903            2 
 2077000   0.92186476    -4.712321    1277.2794  0.051246966  0.051241819            5 
 2078000   0.90582051   -4.7450915    1275.6174  0.051155655   0.05123148            6 
 2079000   0.91819908    -4.729093    1279.4715  0.051285534  0.051221056            6 
 2080000   0.89696909   -4.7210036    1281.9117  0.051358641  0.051210776            3 
 2081000   0.92188742   -4.7476276    1277.9742  0.051176285  0.051200593            7 
 2082000   0.92635723   -4.7150681    1284.6734  0.051419846  0.051190533            6 
 2083000    0.9139263   -4.7069142    1277.5647  0.051110765   0.05118054            6 
 2084000   0.94007594   -4.6844829    1283.3419  0.051317256  0.051170679            4 
 2085000   0.91497668   -4.7266133    1283.6452  0.051304765  0.051160616            4 
 2086000   0.91090441     -4.74177    1280.8251  0.051167511  0.051150495            3 
 2087000   0.92066803   -4.7329453    1281.7486  0.051179869  0.051140483            8 
 2088000   0.91085637    -4.736551    1280.2328  0.051094861  0.051130419            4 
 2089000   0.91441159    -4.670115    1283.1017  0.051184845  0.051120281            2 
 2090000   0.92779392   -4.7055236    1287.7243   0.05134467  0.051110411            3 
 2091000    0.9076045   -4.6968295    1287.3121  0.051303685  0.051100331            4 
 2092000   0.93025431   -4.7593206    1283.5032  0.051127439  0.051090351            4 
 2093000   0.92015113   -4.7021713    1285.0227  0.051163509  0.051080315            5 
 2094000   0.89974191   -4.7407278    1284.8829  0.051133512  0.051070221            2 
 2095000   0.89466618   -4.7241306    1286.9195  0.051190117  0.051060124            6 
 2096000   0.89866111   -4.7137965    1289.1388  0.051253928  0.051050062            4 
 2097000   0.90477105   -4.7473434    1284.1856  0.051032651  0.051039938            6 
 2098000   0.90519915   -4.7172092    1290.9455  0.051276832  0.051029904            2 
 2099000   0.92422468   -4.7315989    1286.7695  0.051086607  0.051019971            4 
 2100000   0.90559283   -4.7375222    1288.2462  0.051120881  0.051009946            8 
 2101000   0.91194042   -4.7133049    1290.1515   0.05117212  0.051000158            9 
 2102000   0.91501147    -4.718727    1292.2233  0.051229913  0.050990157            3 
 2103000    0.9143515    -4.722472    1290.3096  0.051129719  0.050980148            4 
 2104000    0.9184554   -4.7194163    1294.6057  0.051275574  0.050970059            4 
 2105000   0.92152458   -4.7394056    1290.0547  0.051071048  0.050960184            4 
 2106000   0.92652031   -4.7079242    1289.8273  0.051037801  0.050950071            2 
 2107000   0.90403229    -4.709117     1293.038  0.051140563  0.050940204            9 
 2108000   0.90699989   -4.7506222    1292.9537  0.051112969  0.050930144            6 
 2109000   0.92073837   -4.7187806    1289.2483  0.050942322  0.050920288            3 
 2110000   0.91435388   -4.7253992    1290.2882  0.050959249  0.050910464            4 
 2111000   0.88957713    -4.707692    1294.3939  0.051097187  0.050900713            5 
 2112000    0.9187326    -4.725137    1292.8646   0.05101265  0.050890872            3 
 2113000   0.91945599   -4.7085501    1295.9423  0.051109887  0.050881024            4 
 2114000    0.8990347   -4.7019002     1295.344  0.051062127  0.050871162            4 
 2115000   0.89709421   -4.7155072    1296.4536  0.051081702  0.050861183            4 
 2116000   0.91567894   -4.7269533     1294.155  0.050967037  0.050851217            2 
 2117000   0.91726407   -4.7817748    1289.3986   0.05075573  0.050841218           12 
 2118000   0.92157011   -4.7429481    1291.4662  0.050813117  0.050831223            7 
 2119000   0.90454152   -4.7250955    1294.0115  0.050889236   0.05082136            4 
 2120000   0.91984837   -4.7214949    1293.3067  0.050837529  0.050811291            3 
 2121000   0.91956365   -4.7570619    1296.7142   0.05094744  0.050801527            8 
 2122000   0.91287139   -4.7028631    1299.1561  0.051019326  0.050791481            5 
 2123000   0.91143962   -4.7471075    1296.6705  0.050897729  0.050781478            4 
 2124000   0.89327918   -4.7121111    1300.2661  0.051014835   0.05077139            4 
 2125000   0.90379693   -4.7349903    1298.0532  0.050904047  0.050761385            2 
 2126000   0.90658829   -4.7419637    1296.5931   0.05082287  0.050751406            4 
 2127000   0.90395279    -4.717734     1300.357  0.050946442  0.050741331            4 
 2128000    0.9022996   -4.7477472    1296.3247  0.050764594  0.050731066            4 
 2129000   0.91505349   -4.7446408    1294.8844  0.050684376  0.050720854            9 
 2130000   0.92302888   -4.7323994    1296.3554  0.050718129  0.050710634            3 
 2131000   0.91068268   -4.7593896    1301.1173  0.050880545  0.050700471            6 
 2132000   0.92335917   -4.7244964    1303.4996  0.050949799  0.050690368            7 
 2133000   0.90927747   -4.7677796     1297.072  0.050674795  0.050680143            2 
 2134000   0.90516232   -4.7016812    1303.1892  0.050889925  0.050670028            3 
 2135000   0.91996939     -4.74707    1297.0867  0.050627896  0.050659844            5 
 2136000   0.90339419   -4.7131823    1303.2088   0.05084304  0.050649595            3 
 2137000   0.90017175   -4.7121939    1301.0507  0.050735091  0.050639511            6 
 2138000    0.9248807   -4.7344003    1297.9931  0.050592184  0.050629366            8 
 2139000   0.90039791   -4.7215542    1303.5437  0.050784779  0.050619236            4 
 2140000   0.92351415   -4.7588942    1301.6457  0.050687139   0.05060905           10 
 2141000    0.9110498   -4.7704819    1297.6191  0.050506736  0.050598652            3 
 2142000   0.91842157   -4.7388068    1301.6791   0.05064111   0.05058843            3 
 2143000   0.90205308   -4.7822439    1297.9366  0.050471949  0.050577859            4 
 2144000   0.91589193   -4.7788422    1298.2614  0.050461033  0.050567632            7 
 2145000   0.91659155   -4.7633444    1303.2773  0.050632373  0.050557312            2 
 2146000   0.90835867   -4.7500528    1298.8996  0.050438786  0.050546764            4 
 2147000   0.92874021   -4.7425852    1298.8843    0.0504147  0.050536329            3 
 2148000    0.9138168   -4.7636323    1299.4228  0.050412118   0.05052584            6 
 2149000    0.9161628   -4.7476595    1303.8038  0.050558547  0.050515364            7 
 2150000    0.9048831   -4.7551486    1304.8048  0.050573828  0.050505097            3 
 2151000   0.90824816   -4.7472354    1306.6177  0.050620553  0.050494909            3 
 2152000     0.888637   -4.7416442    1302.6043  0.050441617  0.050484486            6 
 2153000   0.90035147    -4.724004    1302.4282   0.05041137  0.050474196            7 
 2154000   0.90097726   -4.7324676    1309.8029  0.050673277  0.050463747            2 
 2155000   0.90801166   -4.7370601    1302.8632  0.050381408  0.050453443            2 
 2156000   0.89715675    -4.748105    1305.7343  0.050469014  0.050443098            5 
 2157000   0.91085018   -4.7566319    1304.0035  0.050378749  0.050432767            5 
 2158000   0.89342691   -4.7562862    1305.2167  0.050402253  0.050422331            7 
 2159000   0.89657497   -4.7530109    1306.8664  0.050442583  0.050411851            6 
 2160000   0.92762702   -4.7253374    1309.6237  0.050525605  0.050401491            5 
 2161000   0.88690534   -4.7586836    1305.4914  0.050342875  0.050391236            4 
 2162000   0.93108521   -4.7101622    1313.6437  0.050633816  0.050381086            7 
 2163000   0.90446641   -4.7442904     1307.668  0.050380182  0.050370902            7 
 2164000   0.89012502   -4.7551747     1309.112  0.050412507  0.050360915            2 
 2165000   0.88368727   -4.7227435    1310.6049  0.050446688   0.05035088            7 
 2166000   0.89783484   -4.7548077    1311.9418  0.050474829  0.050340763            3 
 2167000   0.89574559   -4.7425861    1313.2901  0.050503386  0.050330627            2 
 2168000   0.89767318   -4.7474694    1311.2089  0.050400098   0.05032041            3 
 2169000   0.90826071   -4.7206617    1316.9403  0.050597062  0.050310162            8 
 2170000   0.90194727   -4.7490184    1311.9059  0.050380412  0.050300218            8 
 2171000   0.89347697    -4.755386    1307.2962  0.050180263  0.050290037            5 
 2172000   0.89602726   -4.7163535    1319.1295  0.050611169   0.05027985            3 
 2173000   0.90634213   -4.7553058    1307.8411  0.050154974  0.050269617            2 
 2174000   0.91209456   -4.7690081    1312.3873  0.050306168  0.050259351            4 
 2175000   0.88472007   -4.7201528    1312.7565  0.050297185  0.050248981           10 
 2176000   0.90171728   -4.7380632    1313.6783  0.050309371   0.05023871            2 
 2177000   0.90320187   -4.7460772    1312.2143   0.05023022  0.050228417            4 
 2178000   0.88398897   -4.7489224    1307.8453  0.050039995  0.050218323            5 
 2179000   0.90535997   -4.7563775    1311.7127  0.050164934  0.050208163            2 
 2180000   0.91240809   -4.7541582    1313.3071   0.05020287  0.050197898            7 
 2181000   0.89851825   -4.7672882    1312.5418  0.050150613  0.050187468            3 
 2182000   0.89434171    -4.727744     1316.737  0.050287848  0.050177244            7 
 2183000   0.90443901   -4.7469581    1317.8629   0.05030779  0.050166986            3 
 2184000   0.92385714   -4.7649284    1316.6387  0.050238044  0.050156742            4 
 2185000   0.89923992   -4.7347289    1313.3122  0.050088186  0.050146572            4 
 2186000   0.91334932   -4.7234773    1317.6336  0.050230008  0.050136379            4 
 2187000   0.90501909   -4.7398702     1315.913  0.050141481  0.050126258            5 
 2188000   0.88254306   -4.7379665    1318.1075  0.050202144  0.050115989            4 
 2189000   0.91159879   -4.7265768     1323.686  0.050391579  0.050105632            4 
 2190000   0.89553436   -4.7538449    1312.9452  0.049959863  0.050095306            5 
 2191000   0.90299665    -4.747706    1317.0169  0.050091924  0.050085107            7 
 2192000   0.89635248   -4.7563743    1318.5931  0.050128994  0.050074918            2 
 2193000   0.91277911   -4.7493458     1320.049  0.050161461  0.050064559            6 
 2194000   0.90681741   -4.7677738    1316.0695  0.049987447  0.050054381            5 
 2195000   0.88592814   -4.7714857    1316.8405  0.049993945  0.050043961            6 
 2196000   0.91101093   -4.7411086     1317.647  0.050001782  0.050033755            3 
 2197000   0.89219487   -4.7540327    1320.7685  0.050097426  0.050023457            5 
 2198000   0.89855153   -4.7613747    1321.5758   0.05010524  0.050013226            1 
 2199000   0.90273041   -4.7801231     1319.322  0.049997045  0.050002629            3 
 2200000   0.89678511   -4.7556441    1319.9623  0.049998571   0.04999219            2 
 2201000   0.90800724   -4.7783379    1317.1564  0.049869619  0.049981664            4 
 2202000    0.9275637    -4.755628    1317.4174  0.049856848  0.049971442            6 
 2203000   0.91150792    -4.728357    1320.8625  0.049964537  0.049961188            6 
 2204000   0.90982322   -4.7607707    1322.1344  0.049989956  0.049950759            6 
 2205000   0.89510817   -4.7837759    1320.8391  0.049918334   0.04994024            6 
 2206000   0.89608397   -4.7743617    1316.3101   0.04972462  0.049929636            4 
 2207000   0.90521489   -4.7702115    1324.9162  0.050027043  0.049919271            2 
 2208000   0.90208642   -4.7498103    1321.2553  0.049866218  0.049908945            8 
 2209000   0.91221416    -4.728174    1324.3256  0.049959471  0.049898666            4 
 2210000    0.9099199   -4.7500261    1323.3124  0.049898657  0.049888307            4 
 2211000   0.90012215   -4.7522629    1321.2234  0.049797353  0.049877844            4 
 2212000   0.89543336    -4.764457    1320.8297  0.049760012  0.049867413            4 
 2213000   0.87936922   -4.7646555    1319.4929  0.049687186  0.049856964            6 
 2214000   0.90467355   -4.7741745    1319.5254  0.049665967  0.049846541            8 
 2215000   0.91065534   -4.7694184    1328.5508  0.049983102  0.049836288            3 
 2216000   0.90417601    -4.775185    1327.1571  0.049908132  0.049825852            6 
 2217000   0.89920024    -4.780589     1325.128  0.049809351  0.049815401            6 
 2218000   0.88559342   -4.7236709    1329.9588  0.049968397  0.049805176            4 
 2219000   0.89464041   -4.7559883    1320.7935  0.049601677  0.049794932            6 
 2220000   0.91122731   -4.7481848    1328.7863  0.049879366  0.049784697            3 
 2221000   0.91169226   -4.7645331    1330.4831  0.049920572   0.04977444            3 
 2222000   0.88684581   -4.7806307    1323.4173  0.049633112  0.049764093            4 
 2223000   0.89360027   -4.7987069    1327.3471  0.049758102  0.049753852            5 
 2224000   0.91133444   -4.7762079     1324.963  0.049646394  0.049743565            8 
 2225000   0.90776712    -4.741602    1332.9618  0.049923663  0.049733247            5 
 2226000   0.88509479   -4.7680038    1332.8289  0.049896261  0.049723079            3 
 2227000   0.89518441   -4.7625747    1328.1595  0.049699128  0.049712847            5 
 2228000   0.87784505   -4.7472511    1334.8955  0.049928768  0.049702562            4 
 2229000   0.90069248   -4.7843525    1329.7624  0.049714461  0.049692198            6 
 2230000   0.90194694   -4.7556399    1331.4508   0.04975526  0.049681873            2 
 2231000   0.87862381   -4.7672033    1330.8005  0.049708671  0.049671558            3 
 2232000   0.90739546   -4.7403728    1332.5499  0.049751713  0.049661326            3 
 2233000   0.88463089      -4.7743    1330.8143  0.049664664  0.049651109           10 
 2234000   0.91812972   -4.7608157    1330.5288  0.049631783  0.049640873            3 
 2235000   0.89338181   -4.7874615    1329.1537  0.049558305  0.049630545            5 
 2236000   0.90096146   -4.7770771    1325.7593  0.049409632  0.049620189            8 
 2237000   0.88181204   -4.7831396    1332.9967  0.049657157  0.049609939            3 
 2238000   0.88540599   -4.7199713    1338.4233   0.04983703  0.049599743            4 
 2239000   0.89469735   -4.7659768     1331.261  0.049548199   0.04958941            6 
 2240000   0.88030461   -4.8055834    1331.3834  0.049530631  0.049578981            4 
 2241000   0.88632272   -4.7599828    1332.7021  0.049557567   0.04956876            3 
 2242000    0.8899722    -4.748234     1333.893  0.049579728  0.049558404            6 
 2243000   0.89879484   -4.7376338    1333.8648  0.049556577  0.049548239            9 
 2244000   0.88851991   -4.7961263     1333.249  0.049511624  0.049537842            6 
 2245000   0.89634137   -4.7712899    1334.5515  0.049537917  0.049527547            6 
 2246000   0.90172132   -4.7675274    1332.0734  0.049423915  0.049517212            4 
 2247000   0.89886111   -4.7523214    1333.1788  0.049442916  0.049506921            2 
 2248000   0.89890399   -4.7882384    1333.8786  0.049446865  0.049496587            4 
 2249000     0.892684    -4.748556    1338.3667  0.049591177  0.049486324            5 
 2250000   0.87088164   -4.7750957    1338.5411  0.049575598  0.049476065            4 
 2251000   0.90148305   -4.7669539    1338.6228  0.049556597  0.049465763            4 
 2252000    0.8804095   -4.7579401    1342.5429  0.049679653  0.049455492            2 
 2253000   0.90708685   -4.7614267    1343.4743   0.04969205  0.049445253            2 
 2254000   0.88110917   -4.7453643    1343.0253  0.049653405  0.049434983            6 
 2255000   0.89105558   -4.8084187    1330.8358  0.049180922  0.049424558            3 
 2256000   0.88072418   -4.7665939    1335.3545  0.049326039  0.049414112            5 
 2257000   0.90450064   -4.7856725    1335.8521  0.049322555  0.049403556            6 
 2258000   0.89655287   -4.7746099      1336.39  0.049320565  0.049393171            4 
 2259000   0.90608848   -4.7873613    1337.1545  0.049326931  0.049382655            4 
 2260000   0.89245245   -4.7584477    1340.3611  0.049423344  0.049372187            4 
 2261000   0.89483692   -4.7793435    1340.3399  0.049400705  0.049361796            2 
 2262000   0.90127866    -4.796884    1337.3413  0.049268395  0.049351151            3 
 2263000    0.8869676   -4.7903023    1336.8327  0.049227896   0.04934056            7 
 2264000    0.8975077   -4.7678008    1339.2608  0.049295523  0.049330085            4 
 2265000   0.89793854   -4.7827744    1338.2783  0.049237614  0.049319651            2 
 2266000   0.87293964   -4.7697905    1342.9177    0.0493865   0.04930923            4 
 2267000   0.87966088   -4.7867176    1338.7397  0.049211135  0.049298891            9 
 2268000   0.88899565   -4.7862539     1335.782  0.049080762  0.049288387            3 
 2269000   0.89976251   -4.7815298    1339.8999  0.049210366  0.049277916            6 
 2270000   0.88787382   -4.7744322    1340.7121  0.049218507  0.049267483            6 
 2271000   0.89583555   -4.7930294    1343.6337  0.049304039     0.049257            5 
 2272000   0.90792604   -4.7849332    1341.7168   0.04921203  0.049246539            3 
 2273000   0.88553978    -4.783489    1345.5096  0.049329431  0.049236233            6 
 2274000   0.89015125   -4.7812911     1343.542  0.049235635  0.049225853            4 
 2275000   0.89358266   -4.7450444    1346.7833   0.04933272  0.049215498            6 
 2276000   0.89845479   -4.7691561    1344.4434  0.049225373  0.049205216            3 
 2277000    0.8915551    -4.780245    1345.4133  0.049239253  0.049194953            3 
 2278000   0.90142742   -4.7878958    1343.4813   0.04914696  0.049184591            5 
 2279000   0.90010924   -4.8057519      1343.15  0.049113282  0.049174273            8 
 2280000   0.88166337   -4.7577535    1346.8738  0.049227844  0.049163948            8 
 2281000   0.87749982   -4.7745722    1349.0707  0.049286523  0.049153567            5 
 2282000   0.89167702   -4.7852475    1348.1015  0.049229532  0.049143191            5 
 2283000   0.87316274   -4.7768934    1344.4385  0.049074262  0.049132745            6 
 2284000   0.91621202   -4.7534533    1347.5356  0.049165776  0.049122384            3 
 2285000    0.8835496   -4.7868237      1346.24  0.049097011  0.049111986            9 
 2286000   0.88978806   -4.7995783     1343.783  0.048985965  0.049101528            1 
 2287000   0.87692923   -4.7519449    1350.5304  0.049210405  0.049090977            3 
 2288000   0.88882115   -4.7927185     1351.313  0.049217402  0.049080515            6 
 2289000   0.88937413   -4.7804065    1348.1978   0.04908249  0.049070112            2 
 2290000   0.87780448   -4.7776152     1345.189  0.048951565  0.049059616            2 
 2291000   0.89232893   -4.7701853     1348.514  0.049051142  0.049049328            4 
 2292000   0.87149661   -4.7756888    1349.0005  0.049047429  0.049039055            5 
 2293000   0.89517495   -4.7505778     1350.657   0.04908624  0.049028633            3 
 2294000   0.88796356   -4.8011716     1349.744  0.049031677  0.049018122            6 
 2295000   0.87200642   -4.8001007    1345.8105  0.048867485  0.049007604            6 
 2296000   0.88251748   -4.7750895    1353.6134  0.049129407  0.048997158            4 
 2297000   0.86948977   -4.7823097    1346.3917  0.048846022  0.048986817            3 
 2298000   0.88981217   -4.7872192     1348.414  0.048898098  0.048976496            4 
 2299000   0.86703557   -4.7749847     1346.918  0.048822605  0.048965987            3 
 2300000   0.89552098   -4.7830774    1351.9645  0.048984222   0.04895566            3 
 2301000   0.88581057   -4.7973761    1349.1617  0.048861428  0.048945287            7 
 2302000    0.8734225   -4.7704051    1352.3814  0.048956755  0.048935116            3 
 2303000   0.86512118   -4.7800587    1352.7074  0.048947295  0.048924827            3 
 2304000   0.87160851    -4.798664     1354.808  0.049002025  0.048914619            5 
 2305000   0.87588657   -4.8031824    1354.7984   0.04898042  0.048904312            4 
 2306000   0.90314176   -4.8027149    1354.8794  0.048962105  0.048894004            2 
 2307000   0.88303965   -4.7920363    1352.1925  0.048843828   0.04888379            6 
 2308000   0.88366387   -4.7873029    1357.8882  0.049028314  0.048873607            7 
 2309000   0.89594592   -4.8123764    1352.3961  0.048808868  0.048863368            2 
 2310000   0.87019239   -4.7841263    1354.1469  0.048850898  0.048853245            4 
 2311000   0.86887384   -4.7950549     1353.839  0.048818655   0.04884313            4 
 2312000   0.87784137   -4.7776033    1349.8585  0.048654068   0.04883293            4 
 2313000   0.87031982   -4.7589997     1360.447  0.049014521  0.048822731            4 
 2314000   0.87828588   -4.7973173    1358.6351  0.048928085  0.048812734            6 
 2315000   0.88724618   -4.7937317    1354.7283  0.048766316  0.048802732            8 
 2316000   0.88444878   -4.7827008    1359.8794  0.048930605  0.048792549            3 
 2317000   0.89593514   -4.8085567    1355.4066  0.048748619  0.048782347            1 
 2318000   0.88058974   -4.8015398    1362.3299  0.048976483  0.048772316            5 
 2319000   0.88261596   -4.7632035    1362.9668  0.048978251    0.0487624            4 
 2320000   0.88711889   -4.7684314     1359.344  0.048827012  0.048752458            7 
 2321000   0.89256954   -4.7786053    1360.2086  0.048837019  0.048742448            8 
 2322000   0.87434208   -4.8234579    1359.4212  0.048787726  0.048732361            5 
 2323000   0.88240882   -4.8030835    1362.1143  0.048863335  0.048722447            9 
 2324000   0.88329518   -4.7949232     1362.348  0.048850687  0.048712417            9 
 2325000   0.87348854    -4.785316    1364.8841  0.048920579  0.048702493            3 
 2326000    0.8432246   -4.7653761    1367.7957  0.049003859  0.048692629            7 
 2327000   0.87364979   -4.7785415    1364.5769  0.048867528  0.048682594            3 
 2328000   0.88999374   -4.7927142    1363.6878  0.048814714  0.048672723            5 
 2329000    0.8988502   -4.8076669    1363.3521  0.048781742  0.048662889            4 
 2330000   0.89776243   -4.8013921    1368.2475   0.04893589   0.04865288            6 
 2331000   0.87984912    -4.787358     1365.932  0.048832117  0.048642873            4 
 2332000   0.89106591    -4.807747    1360.9121  0.048631791  0.048632799           12 
 2333000    0.8846556   -4.8275956    1364.2258  0.048729312  0.048622668            3 
 2334000   0.87039628    -4.798321    1361.3134  0.048604447  0.048612401            6 
 2335000    0.9206671   -4.8271083    1362.8491  0.048638442  0.048602197            4 
 2336000   0.88840323    -4.787288    1363.6943  0.048647769  0.048592101            5 
 2337000   0.86610721   -4.7933588     1368.787   0.04880855  0.048581916            4 
 2338000   0.87528021   -4.7835004    1365.1486  0.048657993  0.048571783            5 
 2339000   0.88972917    -4.809461    1363.5758  0.048581154  0.048561842           10 
 2340000    0.8688472   -4.7842412     1373.327  0.048907657  0.048551845            9 
 2341000   0.87692214   -4.7986405    1369.4045  0.048747136  0.048541863            4 
 2342000    0.8903171   -4.8112228    1366.6168  0.048627128  0.048531911            5 
 2343000   0.88245783   -4.7962129    1371.4106  0.048776873   0.04852207            4 
 2344000   0.87803183   -4.7583664    1371.1694  0.048747492  0.048512203            4 
 2345000    0.8790617   -4.7810865    1364.8697  0.048502833  0.048502013            2 
 2346000    0.8670562   -4.8214537    1368.6741  0.048617294  0.048491982            6 
 2347000   0.89380254   -4.8142425    1369.0078  0.048608429  0.048481829            7 
 2348000   0.87630426   -4.8244905    1368.9947  0.048587261  0.048471777           11 
 2349000   0.86659808   -4.8207257    1366.7861  0.048488226  0.048461579            3 
 2350000   0.89105842   -4.8010665    1369.5235  0.048564664  0.048451578            6 
 2351000    0.8664213   -4.7866152    1371.1283   0.04860089  0.048441686            3 
 2352000   0.87806295   -4.7894181    1373.3283  0.048658172  0.048431709            4 
 2353000   0.84902896   -4.7980943    1370.2231  0.048527521  0.048421813            4 
 2354000   0.88372793   -4.8105803    1368.6844  0.048452437  0.048411783            3 
 2355000   0.87113461   -4.8075719    1370.5909  0.048499323  0.048401788           11 
 2356000   0.85172717   -4.7834731    1374.7545  0.048626006  0.048391858           13 
 2357000   0.86672785   -4.7802948    1371.1217  0.048476938  0.048382036            6 
 2358000   0.87513495   -4.8071324    1372.8839  0.048518658  0.048372069            4 
 2359000   0.89172162   -4.8353572    1372.0198  0.048467562  0.048362041            4 
 2360000   0.89705022   -4.8211508    1372.9995  0.048481619  0.048351974            5 
 2361000   0.86437119   -4.8194114    1372.3513  0.048438208  0.048342028           10 
 2362000   0.86568684   -4.8089645    1374.2503  0.048484699  0.048332164            6 
 2363000   0.86415255   -4.8117565    1375.6112  0.048512173  0.048322285            5 
 2364000   0.88154295   -4.7959133    1377.4301  0.048555772  0.048312396           10 
 2365000   0.87612982   -4.8126787    1379.1744  0.048596701   0.04830244            4 
 2366000   0.88863456   -4.7914971    1378.8979  0.048566425   0.04829268            4 
 2367000   0.87122635   -4.8086633    1375.0026  0.048408767  0.048282711            7 
 2368000   0.85506698    -4.784458    1378.7484  0.048520144   0.04827291            7 
 2369000   0.87001606   -4.8155506    1375.1129  0.048371778  0.048262917            3 
 2370000   0.89328206    -4.786708    1381.2077  0.048565672     0.048253            7 
 2371000   0.86328455   -4.8031989    1379.2595  0.048476714  0.048243145            5 
 2372000   0.85437221   -4.8210936    1381.0355  0.048518673  0.048233298            2 
 2373000   0.86606982   -4.8056337    1375.5221   0.04830461  0.048223445            5 
 2374000   0.89094593   -4.8125146    1377.7888  0.048363831  0.048213561            5 
 2375000   0.87514656     -4.80663    1380.6553  0.048444047  0.048203725            4 
 2376000   0.85081728    -4.793352    1376.5281  0.048278905  0.048193877            3 
 2377000   0.85951147   -4.8152306    1379.5523  0.048364617  0.048183998            4 
 2378000   0.85742177   -4.7864931    1376.7816  0.048247182  0.048174222           10 
 2379000   0.85132292   -4.8131693     1377.741   0.04826051  0.048164364            4 
 2380000   0.85629605   -4.7937267    1378.4723  0.048265835  0.048154457            3 
 2381000   0.87794956   -4.8155769    1379.1442  0.048269081  0.048144696           11 
 2382000   0.88135823   -4.8330716    1377.8528  0.048203638   0.04813484            8 
 2383000   0.85672376    -4.821806    1381.6133  0.048314914  0.048124883            4 
 2384000   0.86596392   -4.8190818     1382.055  0.048310089  0.048115103            5 
 2385000   0.88489972   -4.8413585    1379.6053  0.048204238  0.048105244            3 
 2386000   0.86227821    -4.794719    1389.7319  0.048537717  0.048095483            3 
 2387000   0.86983046   -4.7969976    1385.2775  0.048361873  0.048085767            2 
 2388000   0.87864648   -4.7954836    1382.1754  0.048233367  0.048076076            4 
 2389000   0.87660019   -4.8205168    1383.0039  0.048242079    0.0480662            4 
 2390000   0.86694464   -4.8076852    1385.4968  0.048308815  0.048056355            5 
 2391000   0.86396342   -4.8115816    1387.3997   0.04835493  0.048046594           12 
 2392000   0.86372468   -4.8168443    1386.8782  0.048316547  0.048036764            4 
 2393000   0.87209198   -4.8112673    1386.0827  0.048268655  0.048027214            6 
 2394000   0.86449659   -4.8436661    1384.3048  0.048186607  0.048017531            5 
 2395000   0.86067083   -4.8068678    1387.7374  0.048285922  0.048007751            3 
 2396000   0.86686856   -4.8244098    1389.3692  0.048322523  0.047998069            7 
 2397000   0.87675026   -4.8081471    1387.8773  0.048250498  0.047988244            5 
 2398000   0.88088794   -4.8275683    1385.9327  0.048162801  0.047978344            4 
 2399000   0.86798907   -4.8255286    1388.5891  0.048234998  0.047968472            4 
 2400000    0.8600885   -4.8295576    1389.2653   0.04823838  0.047958704            8 
 2401000    0.8710758   -4.8275922    1385.9167  0.048102065  0.047948798            5 
 2402000   0.85833027    -4.825196    1389.2443  0.048197486  0.047938869            2 
 2403000   0.86730272   -4.8525689    1390.4352  0.048218728  0.047929037            8 
 2404000   0.86132421   -4.8376562    1384.9118  0.048007203  0.047919267           10 
 2405000   0.84869042   -4.8219471    1389.1939  0.048135617  0.047909358            5 
 2406000   0.87305083   -4.8196498    1391.0857  0.048181134  0.047899605            3 
 2407000   0.84745339   -4.8187726    1394.8873  0.048292734  0.047890018            5 
 2408000   0.86602608   -4.8475789    1386.8922  0.047995992  0.047880206            5 
 2409000   0.86486044   -4.7940326     1392.857  0.048182406  0.047870446            3 
 2410000   0.85962606   -4.8309726    1387.6458  0.047982219  0.047860499            3 
 2411000   0.85625742   -4.8262823    1392.4623  0.048128795  0.047850713            4 
 2412000   0.86500148   -4.8323166    1387.6044  0.047941003  0.047840751            9 
 2413000   0.85776617   -4.8325949     1390.693  0.048027799  0.047830846            3 
 2414000   0.87713565   -4.8397543    1391.7164  0.048043233  0.047821006            4 
 2415000   0.86707692   -4.8199365    1390.5321  0.047982474  0.047811233            7 
 2416000   0.86375867   -4.8399505    1392.7142  0.048037878  0.047801358            5 
 2417000   0.86216129     -4.81683    1396.1575  0.048136721  0.047791543            8 
 2418000   0.86416751   -4.8320924    1395.2167   0.04808439  0.047781772            3 
 2419000   0.86872115    -4.838803    1392.1767  0.047959787  0.047772144            5 
 2420000   0.86657019   -4.8002626    1394.6156  0.048023952  0.047762535            6 
 2421000   0.85079289    -4.841568     1392.376  0.047927029  0.047752784            5 
 2422000   0.86620905   -4.8173569    1396.8074  0.048059709   0.04774323            3 
 2423000   0.88187306   -4.8096314    1394.9827  0.047977119  0.047733474            4 
 2424000    0.8738879   -4.8221196    1396.6127  0.048013363  0.047723851            3 
 2425000   0.84831597    -4.828699    1393.6806  0.047892803  0.047714212            8 
 2426000     0.863568   -4.8107676     1398.113  0.048025317  0.047704625            7 
 2427000   0.87999159   -4.8305207    1391.6422  0.047783347  0.047694977            6 
 2428000   0.87657418   -4.8181667    1398.8901  0.048012426  0.047685231            6 
 2429000   0.86950064   -4.8132907    1396.2875  0.047903374  0.047675471            6 
 2430000   0.85442837   -4.8084062    1397.2037  0.047915078  0.047665788            5 
 2431000   0.86793979    -4.839177    1397.4156  0.047902633  0.047656096            3 
 2432000   0.86082357   -4.8186955    1396.4879  0.047851147  0.047646274            7 
 2433000    0.8787483   -4.8485846    1398.0058  0.047883472  0.047636657            7 
 2434000   0.86697969    -4.822175    1399.6111  0.047918758  0.047627087            6 
 2435000   0.87128078   -4.8091549    1399.5589  0.047897293  0.047617431            4 
 2436000   0.85538217   -4.8345126    1399.2494  0.047867042  0.047607688            2 
 2437000   0.85823467   -4.8395147     1394.247  0.047676344  0.047597904            4 
 2438000   0.86262853   -4.8419207    1400.5996  0.047873928  0.047587934            3 
 2439000   0.87073345   -4.8254445    1400.5954  0.047854156  0.047578219           11 
 2440000   0.84586805   -4.8292853    1399.1703  0.047785869  0.047568511            2 
 2441000   0.85666545   -4.8412761    1403.6135  0.047917982  0.047558578            2 
 2442000   0.86349797   -4.8606553    1402.0559  0.047845205  0.047548837            4 
 2443000   0.86467789   -4.8454313    1398.1536  0.047692509   0.04753901            4 
 2444000   0.84684027   -4.8328899    1396.0477  0.047601191  0.047529259            3 
 2445000   0.86111265   -4.8246651    1400.9611  0.047749187  0.047519468            4 
 2446000   0.86676188   -4.8377865    1399.4906  0.047679567  0.047509668            4 
 2447000   0.86372894   -4.7942046    1409.6352  0.048005557  0.047499923            5 
 2448000    0.8624311   -4.8240297    1400.4004  0.047671583  0.047490437            6 
 2449000   0.85919002   -4.8236714    1401.6432  0.047694404  0.047480765            5 
 2450000   0.85719105   -4.8254401    1401.2561  0.047661773  0.047471091            4 
 2451000   0.88010095   -4.8106792    1408.5077   0.04788888  0.047461331            7 
 2452000    0.8715048   -4.8431072    1405.1849   0.04775642  0.047451608            5 
 2453000    0.8853317   -4.8573381    1396.9016  0.047455551   0.04744185            6 
 2454000   0.86950779   -4.8560149    1403.5044  0.047660431  0.047432103            7 
 2455000   0.86359863   -4.8263989     1398.795  0.047481162  0.047422253            3 
 2456000   0.84381716   -4.8613061    1396.8901  0.047397195  0.047412225            9 
 2457000   0.85120259   -4.8654461    1399.0316  0.047450536   0.04740226            5 
 2458000   0.85933708    -4.850497    1402.0232  0.047532656  0.047392266            3 
 2459000   0.85741094   -4.8429139     1397.097  0.047346379  0.047382216            7 
 2460000   0.86490132   -4.8151412    1403.4941  0.047543837  0.047372198            5 
 2461000   0.85836015   -4.8257705    1405.3239  0.047586481  0.047362321            6 
 2462000   0.84898579   -4.8500307    1406.8493  0.047618782  0.047352592            9 
 2463000   0.85067303   -4.8418133     1403.781  0.047495636  0.047342747            4 
 2464000   0.85056453   -4.8337348    1405.2435  0.047525821  0.047332889            5 
 2465000   0.86653052   -4.8513487    1407.8498  0.047594653  0.047322954            4 
 2466000   0.85643767    -4.819139    1408.8219  0.047608203  0.047312858            3 
 2467000   0.84855282   -4.8397706     1408.627  0.047582319  0.047302871            7 
 2468000   0.86616543   -4.8539175    1404.6079  0.047427333  0.047292833            4 
 2469000    0.8608357   -4.8445572    1402.5083  0.047337259  0.047282888            4 
 2470000   0.85437019   -4.8142968    1405.2707  0.047411293   0.04727291            2 
 2471000   0.85771029   -4.8432134    1404.3349  0.047360546  0.047262915            5 
 2472000   0.86339395   -4.8320623    1407.5095  0.047448406  0.047252979            4 
 2473000   0.87178408   -4.8318383    1404.5192  0.047328455  0.047242981            3 
 2474000   0.86917728    -4.842925    1401.9083  0.047221379  0.047232914            4 
 2475000   0.87177813   -4.8582696    1408.4231  0.047421654  0.047222828            7 
 2476000    0.8511762   -4.8159951    1405.2257  0.047294887  0.047212857            4 
 2477000   0.84305142   -4.8234987    1408.2969  0.047379118  0.047202929            5 
 2478000    0.8573534   -4.8510961    1405.7231  0.047273442  0.047192912            8 
 2479000   0.87752099   -4.8720914    1399.5689  0.047047496  0.047182869            7 
 2480000   0.85547557    -4.848947     1406.468  0.047260351  0.047172658            3 
 2481000   0.86809868   -4.8653638    1407.1689  0.047264844   0.04716259            5 
 2482000   0.86902012   -4.8511177    1405.0573  0.047174902  0.047152612            5 
 2483000   0.88045245   -4.8346348    1409.1988    0.0472949  0.047142565            5 
 2484000   0.83908826    -4.856079     1409.466  0.047284822  0.047132589            8 
 2485000   0.84119412   -4.8515699     1406.843  0.047177834  0.047122444            2 
 2486000    0.8527077   -4.8694417    1405.4878  0.047113427  0.047112361            4 
 2487000   0.87565817   -4.8476344    1408.0821  0.047181413  0.047102341            6 
 2488000   0.84105635   -4.8609844    1408.2968  0.047169642  0.047092297            5 
 2489000   0.83785124     -4.83978    1409.4114  0.047188008  0.047082381            5 
 2490000   0.84495127   -4.8275472      1409.39  0.047168339  0.047072438            6 
 2491000    0.8522243   -4.8560446      1415.41  0.047350798  0.047062623            3 
 2492000   0.84298979   -4.8484364    1409.4397  0.047132146  0.047052719           11 
 2493000   0.83959931   -4.8375362    1409.4304  0.047112929  0.047042846            5 
 2494000   0.84298409   -4.8544552    1412.2677  0.047188844  0.047032853            3 
 2495000    0.8547718    -4.843057    1408.5289  0.047045054  0.047022829            4 
 2496000   0.84415176   -4.8681164    1412.4326  0.047156536  0.047012854            6 
 2497000   0.86491956   -4.8493235    1416.9755  0.047289264   0.04700297            5 
 2498000   0.84185336   -4.8754937     1412.387  0.047117261  0.046993077            7 
 2499000   0.85177205   -4.8572218    1412.6999  0.047108839  0.046983036            7 
 2500000    0.8390443   -4.8602015    1414.7725  0.047159083  0.046973059            7 
 2501000   0.85917546   -4.8367048    1417.1711  0.047220149  0.046963163            4 
 2502000     0.859307   -4.8683438    1413.3209   0.04707304  0.046953252            8 
 2503000   0.85459299   -4.8444221    1410.4717  0.046959373  0.046943292            5 
 2504000   0.83576638   -4.8760688    1411.2159  0.046965384  0.046933372            4 
 2505000   0.85523473   -4.8684203    1418.0358  0.047173513  0.046923394            4 
 2506000   0.85867196   -4.8594226    1414.2111  0.047027503  0.046913525            3 
 2507000   0.84627421   -4.8594769    1416.6765  0.047090696  0.046903837            5 
 2508000   0.83890471   -4.8657908    1418.7626  0.047141236  0.046894002            5 
 2509000   0.83645372   -4.8414284    1421.5131    0.0472138  0.046884201            3 
 2510000   0.84984803   -4.8474202    1418.1439  0.047083129  0.046874389           10 
 2511000   0.81943694   -4.8566087    1414.5647  0.046945597  0.046864616            4 
 2512000    0.8352875   -4.8943914    1416.9148   0.04700487   0.04685474           24 
 2513000   0.86044903   -4.8519208     1414.794  0.046915839  0.046844967            6 
 2514000   0.83812291   -4.8664292    1420.0715  0.047072113  0.046835157            7 
 2515000   0.84061822   -4.8635625    1418.1684  0.046990339  0.046825434            2 
 2516000   0.84730097    -4.827151    1421.7421  0.047090028  0.046815728            7 
 2517000   0.85831197   -4.8478973     1417.583  0.046933618  0.046806018            3 
 2518000     0.842249   -4.8913005    1419.0167  0.046962427  0.046796314            6 
 2519000   0.84024915   -4.8609726    1422.9162  0.047072787  0.046786626            3 
 2520000   0.85599817   -4.8290773    1424.8296   0.04711738  0.046777055            7 
 2521000   0.85857622   -4.8366191    1424.7209  0.047095098  0.046767438            5 
 2522000   0.83733656   -4.9083513     1418.093  0.046857422  0.046757563            8 
 2523000   0.82616481   -4.8512379     1425.425  0.047081023  0.046747779            4 
 2524000   0.86607182   -4.8714788    1420.0765  0.046885779  0.046738072            5 
 2525000   0.84909642    -4.886071    1420.6561  0.046886339  0.046728448            5 
 2526000   0.82321187   -4.8396693    1426.1376  0.047048614  0.046718888            6 
 2527000   0.84881735   -4.8513413    1421.3036  0.046870585  0.046709238            3 
 2528000     0.849702   -4.8998477     1418.189  0.046749374  0.046699546            5 
 2529000   0.82770533   -4.8651393    1425.2481  0.046963495  0.046689834            4 
 2530000   0.85359486   -4.8762049    1421.3912  0.046817892  0.046680289            5 
 2531000     0.840292   -4.8673633    1427.7233  0.047007878  0.046670771            7 
 2532000   0.82379162   -4.8564795    1429.3226   0.04704195  0.046661398            6 
 2533000   0.84550925   -4.8831201    1427.4953  0.046963261  0.046651902            9 
 2534000   0.85477683   -4.8728414    1427.7691  0.046953734  0.046642384           10 
 2535000   0.85023542   -4.8566334    1428.2234  0.046950145  0.046632866            8 
 2536000   0.84622006   -4.8673559    1429.2477  0.046965291  0.046623384            3 
 2537000   0.84011733   -4.8660999    1428.6367  0.046926707  0.046613927           18 
 2538000   0.86029821   -4.8833959    1427.9417  0.046885398   0.04660441            7 
 2539000   0.83399176   -4.8498653    1430.7454  0.046958953  0.046594853            5 
 2540000   0.84346352   -4.8878432    1425.0153  0.046752472  0.046585291            2 
 2541000   0.85139261   -4.8980155    1427.3497   0.04681063  0.046575809            7 
 2542000   0.84192015   -4.8595522    1432.6208  0.046965013  0.046566268           11 
 2543000   0.85758382   -4.8877548    1427.8621  0.046790605  0.046556762            9 
 2544000   0.83530711   -4.8430178    1430.0241  0.046843033  0.046547071            3 
 2545000   0.85093453   -4.8618499    1428.2982  0.046768115  0.046537554            3 
 2546000   0.84082493   -4.8666991    1434.5602  0.046954706  0.046527973            7 
 2547000   0.83569979   -4.8431879    1432.9931  0.046884999  0.046518398            3 
 2548000   0.86080077   -4.8710537    1435.9312  0.046962688  0.046508951            7 
 2549000   0.85655237   -4.8808193    1427.3506  0.046663743  0.046499424           10 
 2550000   0.84566559   -4.8820178    1433.9743  0.046861904  0.046489814            5 
 2551000   0.85811941    -4.883698    1428.3379  0.046659413  0.046480164            7 
 2552000   0.84349314   -4.8544324    1436.1442  0.046896034  0.046470548            5 
 2553000   0.86282616   -4.8616659    1430.9024  0.046706567  0.046460984            4 
 2554000   0.85243115   -4.8698484    1435.4817  0.046837697  0.046451473            5 
 2555000   0.84415252   -4.8679642     1433.851  0.046766176  0.046441978            7 
 2556000     0.855876   -4.8487946    1431.4023  0.046668045  0.046432468            4 
 2557000   0.84441131   -4.8621547    1432.4624  0.046684343  0.046423009            8 
 2558000   0.84684849   -4.8624747    1430.3809  0.046598282  0.046413387            4 
 2559000   0.83543174   -4.8933378    1430.5431  0.046585356  0.046403734            8 
 2560000   0.85069668   -4.8831592    1431.9782  0.046613873  0.046394117            4 
 2561000    0.8319607   -4.8582976    1434.9424  0.046692124  0.046384583            2 
 2562000   0.85071433    -4.871749    1437.3173   0.04675115  0.046375061            3 
 2563000   0.85488034   -4.8986251    1426.9585  0.046396102  0.046365306            4 
 2564000   0.82958896   -4.8557666    1437.8714  0.046732689  0.046355749            4 
 2565000   0.83298105   -4.8605838    1438.7928  0.046744405  0.046346181            4 
 2566000   0.84188001   -4.8773769    1435.6721  0.046624842  0.046336725            3 
 2567000   0.82599554    -4.862065    1436.7643  0.046642134  0.046327224            7 
 2568000   0.86555048   -4.8621476    1436.0354  0.046600318  0.046317708            3 
 2569000   0.83647311   -4.8782584    1436.9171   0.04661078  0.046308224           11 
 2570000   0.84173093   -4.8744922    1439.5622   0.04667841  0.046298738            6 
 2571000   0.83931304   -4.8552357    1435.9895  0.046544453  0.046289237            7 
 2572000   0.87485368   -4.8970583    1430.8041  0.046358351  0.046279748            6 
 2573000   0.84165584   -4.8750492    1435.9418  0.046506731   0.04627024            6 
 2574000   0.83293263   -4.8634852    1441.0619  0.046654426  0.046260762            3 
 2575000   0.84497703   -4.8876287    1436.8948  0.046501451  0.046251133            5 
 2576000   0.82620787   -4.8971643    1436.8925  0.046483325  0.046241463            2 
 2577000   0.84000373   -4.8724463    1440.4974  0.046581859  0.046231826            4 
 2578000   0.83081482    -4.878511    1439.1218  0.046519324  0.046222132            6 
 2579000    0.8320593   -4.9021756    1436.3858   0.04641288  0.046212528            5 
 2580000   0.84034634   -4.8657449    1440.5698  0.046530032  0.046202873            4 
 2581000    0.8384983   -4.8925464    1441.9963  0.046558063  0.046193226            6 
 2582000   0.82920862   -4.8474758    1444.2026  0.046611237   0.04618372            5 
 2583000   0.82321897   -4.8950102     1440.703  0.046480288  0.046174066            4 
 2584000    0.8345442   -4.8502789    1443.2115    0.0465432  0.046164527            4 
 2585000   0.83306385   -4.9120164    1438.1282  0.046361322  0.046154816           30 
 2586000   0.83364969    -4.882607    1444.1662  0.046537968  0.046145328            2 
 2587000    0.8189741    -4.880591    1441.0629  0.046420012  0.046135713            8 
 2588000   0.84370543   -4.8771888    1442.5817  0.046450983  0.046126148            7 
 2589000   0.84386989    -4.852071    1442.9217  0.046443984  0.046116519            6 
 2590000   0.84512069   -4.8797768     1441.701  0.046386777  0.046106968            5 
 2591000    0.8423366   -4.8722237    1443.6635  0.046431992  0.046097346            4 
 2592000   0.84322249   -4.8851328      1443.37  0.046404642  0.046087796            5 
 2593000   0.85050859   -4.8828328    1439.2913  0.046255666  0.046078269            8 
 2594000   0.82558282   -4.8919954    1441.8861  0.046321193   0.04606858            9 
 2595000   0.83043996   -4.8613453    1445.2644  0.046411829  0.046059092            6 
 2596000   0.83534462   -4.8613874    1447.5689  0.046467927   0.04604956            3 
 2597000   0.83065845   -4.8698738    1446.7018  0.046422213  0.046040005            8 
 2598000   0.83252719   -4.8887076    1443.1072  0.046289043   0.04603033            6 
 2599000   0.85186121   -4.9041165    1441.2619  0.046212065  0.046020665            5 
 2600000   0.85136546   -4.8967178    1446.9284  0.046375911  0.046011126            4 
 2601000   0.83679415   -4.8916235    1441.9726  0.046199303    0.0460015            7 
 2602000   0.85545146   -4.8905059    1449.4391  0.046420672  0.045991929            8 
 2603000   0.83474147   -4.8802849    1449.0209  0.046389453  0.045982393            6 
 2604000   0.82883817   -4.8653427    1449.4799  0.046386327   0.04597287            2 
 2605000   0.82586469   -4.8863483    1446.6541  0.046278123  0.045963283            5 
 2606000   0.82657583   -4.8893518    1449.7714  0.046360048  0.045953821            4 
 2607000   0.82794436   -4.8709888    1444.9721  0.046188854  0.045944252            7 
 2608000   0.83456172   -4.8499185    1451.3012  0.046373375  0.045934859            5 
 2609000   0.83792744   -4.8814056    1450.0389  0.046315283  0.045925325            7 
 2610000   0.84104454   -4.8687406    1446.4388  0.046182592  0.045915815            3 
 2611000   0.82721975   -4.8803097    1450.7281  0.046301803  0.045906367            9 
 2612000   0.84474771   -4.9000402     1447.519  0.046181695  0.045896849            4 
 2613000   0.82508414   -4.8714914    1449.7293  0.046234509  0.045887244            4 
 2614000   0.83037359   -4.8828686    1451.0198  0.046257965  0.045877763            3 
 2615000   0.85962216    -4.898151    1452.4216  0.046284946  0.045868175            8 
 2616000   0.83674113   -4.8675259     1451.539  0.046239139  0.045858746            5 
 2617000   0.84022662   -4.8916548    1449.4992  0.046156516  0.045849358            4 
 2618000   0.83221441   -4.8652559    1454.7626  0.046306424  0.045839977           10 
 2619000   0.83555571   -4.8856735    1454.1695  0.046269871  0.045830635            8 
 2620000   0.86773989   -4.8701931    1450.4609  0.046134252  0.045821194            4 
 2621000   0.83810754   -4.9072293    1447.8832  0.046034693  0.045811802            3 
 2622000   0.82489593   -4.8903382    1451.1212  0.046120048  0.045802292            4 
 2623000   0.85113539   -4.8934915    1450.3278  0.046077259  0.045792882            4 
 2624000   0.81387117    -4.884208    1453.7541  0.046168511  0.045783539            7 
 2625000   0.82820944   -4.8844011     1455.296  0.046199874  0.045774171            8 
 2626000   0.83804147   -4.8891204    1460.7165  0.046354294  0.045764813            5 
 2627000   0.82161354   -4.8646134    1457.2949  0.046228109  0.045755471            4 
 2628000   0.84616494   -4.9094032    1452.4849  0.046057994  0.045746201            4 
 2629000   0.82991116   -4.8949955    1458.1225  0.046219174  0.045736977            8 
 2630000   0.83340763   -4.8988943    1456.5152  0.046150672  0.045727651            3 
 2631000   0.85054522   -4.9010978    1458.9032  0.046208769   0.04571831            3 
 2632000   0.83020948   -4.8828264    1456.3605  0.046110706  0.045708946            3 
 2633000   0.83608519   -4.8872583    1455.5287  0.046066866  0.045699547            3 
 2634000    0.8307306   -4.9049613    1451.2306  0.045913395  0.045690167            2 
 2635000   0.83505566    -4.876992    1461.5344  0.046221833  0.045680802           11 
 2636000   0.84396575   -4.8995351    1455.8938  0.046025979   0.04567141            4 
 2637000   0.83019066   -4.8908826    1458.1614  0.046080186  0.045661984            4 
 2638000   0.83012258      -4.9096     1456.277  0.046003189  0.045652522            6 
 2639000   0.83330014   -4.9053037    1459.9092  0.046100455  0.045643122            4 
 2640000   0.85320278   -4.8743887    1458.8013  0.046048022  0.045633776            6 
 2641000   0.82559898   -4.9136443    1456.0517  0.045943826  0.045624367            8 
 2642000   0.84066067   -4.8658401    1458.0751  0.045990256  0.045615018            5 
 2643000   0.84861074   -4.9120857      1452.29  0.045790452  0.045605605            6 
 2644000   0.83928809   -4.9154064    1457.9099  0.045950263  0.045596143            3 
 2645000   0.82644032    -4.909726    1455.9748  0.045871921  0.045586786            6 
 2646000   0.83442848    -4.882606    1460.4494  0.045995509  0.045577482            4 
 2647000   0.83509829   -4.9235023    1463.4932  0.046073957   0.04556824            3 
 2648000   0.82243031   -4.8928313    1461.1976  0.045984316  0.045558887            4 
 2649000   0.81531773   -4.9203741    1462.2814  0.046001051  0.045549539            3 
 2650000   0.82877302   -4.8739518    1463.9973  0.046037652  0.045540191            5 
 2651000   0.82604139   -4.8871353    1465.1252   0.04605574   0.04553096            7 
 2652000   0.82660529   -4.8946883    1461.6061  0.045927793  0.045521796            8 
 2653000   0.81565288    -4.880778    1462.9434  0.045952487  0.045512501            5 
 2654000   0.82968785   -4.9036166    1463.9715  0.045967455  0.045503334            6 
 2655000   0.81895603   -4.8702602    1464.6236  0.045970607  0.045493998           11 
 2656000   0.82325967   -4.8956978    1462.3272  0.045881249  0.045484738            4 
 2657000   0.84399426    -4.903335     1458.078   0.04573071  0.045475356            3 
 2658000   0.84528449   -4.9148939    1461.4475  0.045819145   0.04546618            3 
 2659000   0.81366211    -4.891763    1466.3154  0.045954474  0.045456879            7 
 2660000   0.82054435   -4.8937057     1462.651  0.045822401  0.045447634            7 
 2661000   0.82506455     -4.89651    1465.7276  0.045901528  0.045438374            6 
 2662000   0.82589857   -4.8855644    1465.0774   0.04586393  0.045429285            3 
 2663000   0.83494419   -4.8566937    1470.0416  0.046002052  0.045420051            2 
 2664000   0.81175719   -4.8922392    1469.2352  0.045959558  0.045410762            4 
 2665000   0.82293168   -4.8965729    1473.6902   0.04608162  0.045401596            4 
 2666000   0.80310878   -4.9265703     1463.047  0.045731652  0.045392239            4 
 2667000   0.81263413   -4.9314871    1464.9507  0.045773988  0.045382916            7 
 2668000   0.82345942   -4.9134257    1465.5436  0.045775351  0.045373646            2 
 2669000   0.83076827   -4.9314859    1468.8141  0.045860313  0.045364445            3 
 2670000   0.82048874    -4.922481    1466.2521  0.045763174  0.045355117            7 
 2671000   0.83935027   -4.9118601    1469.8334  0.045857775  0.045345804            3 
 2672000   0.80801143   -4.8798005    1466.2256  0.045728092  0.045336514            5 
 2673000   0.83222578   -4.8986006    1462.8514  0.045605791  0.045327289            4 
 2674000   0.82004906    -4.881955    1471.0467  0.045844139  0.045317997            4 
 2675000   0.81392857    -4.892763    1464.9033  0.045635616  0.045308702            4 
 2676000   0.82968197   -4.8897823    1469.8352  0.045772147  0.045299388            7 
 2677000   0.82140866   -4.9325822    1465.2586  0.045612582  0.045290042            4 
 2678000   0.82045379   -4.8695593    1461.7558   0.04548655  0.045280554           11 
 2679000   0.81745854   -4.8913068    1470.4547  0.045740161  0.045271116           12 
 2680000   0.82518118   -4.9299677    1462.6971  0.045481876  0.045261589           13 
 2681000   0.83563045   -4.9161443    1467.7163  0.045620923  0.045252262            4 
 2682000   0.82302615   -4.9233415    1467.3332  0.045592009  0.045242879            3 
 2683000   0.81163343   -4.8884282    1471.2518  0.045696727  0.045233576           11 
 2684000   0.81959041   -4.9182946    1470.6571  0.045661237  0.045224262            9 
 2685000   0.83424697   -4.9036729    1470.1395  0.045628166  0.045214958            9 
 2686000   0.81844065   -4.9145961    1467.6167  0.045532907  0.045205572            3 
 2687000   0.81060152    -4.878411    1467.3638  0.045508118  0.045196264            2 
 2688000   0.83057116   -4.8770728    1476.5341  0.045775485   0.04518692            3 
 2689000   0.81772091   -4.9215729    1468.5392  0.045510697  0.045177519            4 
 2690000   0.82053529   -4.8910285    1473.3104  0.045641588  0.045168216            4 
 2691000   0.81904334   -4.8943363    1471.7999   0.04557785  0.045159021            5 
 2692000   0.81578588   -4.8751118     1478.636  0.045772537  0.045149781            4 
 2693000   0.82901232   -4.9349651    1467.6637  0.045416008  0.045140458            8 
 2694000   0.81538338   -4.8895871    1471.0265  0.045503171  0.045131171            4 
 2695000   0.81947634   -4.9392821    1471.2866   0.04549433   0.04512176            9 
 2696000   0.83055768   -4.9004016    1477.4437  0.045667769  0.045112457            3 
 2697000   0.80565756   -4.9279857     1474.091  0.045547242   0.04510321            6 
 2698000   0.80543841   -4.9217717    1469.0805  0.045375603  0.045093932            2 
 2699000    0.8239096   -4.8865654    1475.6592  0.045561912  0.045084655            3 
 2700000   0.81599529   -4.9132826    1475.9176  0.045553012  0.045075334            6 
 2701000   0.81158147   -4.8988789    1474.9134  0.045505164  0.045066013            5 
 2702000   0.82416814   -4.8957302    1474.3057   0.04546958  0.045056835            7 
 2703000    0.8100449   -4.9450744    1476.5711  0.045522602  0.045047542            6 
 2704000   0.81499408   -4.9047216    1478.2428  0.045557285  0.045038283            5 
 2705000    0.8272586   -4.9187298    1475.1164  0.045444127  0.045029002           11 
 2706000   0.81561161   -4.9377902    1479.2723  0.045555317  0.045019761            5 
 2707000   0.81870104    -4.905177    1476.3875  0.045449682  0.045010507            4 
 2708000   0.82543195   -4.9179823    1476.9532  0.045450308  0.045001295            4 
 2709000   0.85074716   -4.9463558    1474.4785  0.045357404  0.044991965            6 
 2710000   0.82524904   -4.9154026    1472.7747  0.045288274  0.044982619            4 
 2711000   0.80872901   -4.9321325     1475.903  0.045367732  0.044973347            4 
 2712000   0.82174968   -4.9166439    1479.8391  0.045471948  0.044964149            7 
 2713000   0.79364565   -4.9258383    1479.4039  0.045441819  0.044954922            5 
 2714000   0.83390816   -4.9306258    1475.8465  0.045315848  0.044945633            8 
 2715000   0.82009152     -4.92837    1479.9084   0.04542383   0.04493627            4 
 2716000   0.81401499   -4.9293186    1473.8765  0.045222032  0.044926957            6 
 2717000   0.82787399   -4.9555359    1473.6208  0.045197546  0.044917686            6 
 2718000   0.82523886   -4.9208312    1477.9858  0.045314748  0.044908342            3 
 2719000   0.83223461   -4.9096242    1477.6996   0.04528931  0.044899087            7 
 2720000   0.80417989   -4.9240155    1479.4395  0.045325965  0.044889813            5 
 2721000   0.80771162   -4.9203166    1476.9949   0.04523444  0.044880565            3 
 2722000   0.81781199   -4.9300863    1478.0981  0.045251596    0.0448713            4 
 2723000   0.80644417   -4.9303331    1481.1027  0.045326929  0.044861937           11 
 2724000   0.80774013    -4.930014    1477.1309  0.045188783  0.044852618            8 
 2725000   0.81080444   -4.9171966     1481.878  0.045317371  0.044843393            7 
 2726000   0.81638781   -4.9113684    1480.9469  0.045272282    0.0448342            4 
 2727000   0.81528312   -4.9206995    1479.0707  0.045198348  0.044825046            5 
 2728000   0.82034685   -4.9212978     1478.098  0.045152065  0.044815816            5 
 2729000   0.80418046   -4.9133028    1478.8977  0.045159941    0.0448065            5 
 2730000   0.81671947   -4.9152963    1482.6259  0.045257201  0.044797199            4 
 2731000   0.82277283   -4.9321813    1484.8534  0.045308599     0.044788            8 
 2732000    0.8104288   -4.9093513    1482.6487  0.045224765  0.044778769           13 
 2733000   0.82457954   -4.9026478    1484.2384  0.045256689  0.044769558            6 
 2734000   0.83615268   -4.8787907    1487.5509  0.045341102  0.044760438            4 
 2735000   0.82354698   -4.9574724     1481.317  0.045134583  0.044751226            5 
 2736000   0.80199468   -4.9402086    1482.6922  0.045159972  0.044741939            5 
 2737000   0.82334831   -4.9469948    1482.1059  0.045125623  0.044732671            5 
 2738000   0.81238766     -4.92344    1485.4905  0.045212152   0.04472337            7 
 2739000   0.82360672   -4.9321111    1481.5211  0.045074878  0.044713931            5 
 2740000   0.82089352   -4.9557443    1486.3308  0.045204707  0.044704555           13 
 2741000   0.81690458   -4.9213272    1481.8543   0.04505212  0.044695315            4 
 2742000   0.81168407    -4.936572    1481.7291  0.045031883  0.044686164            4 
 2743000    0.8120634   -4.9356638    1482.9286  0.045051907  0.044676846            7 
 2744000   0.79871939   -4.9554401    1478.9205  0.044913766  0.044667406            4 
 2745000   0.79956241   -4.9542311    1483.0251  0.045022014  0.044658063            9 
 2746000    0.7952176     -4.92631    1483.0408  0.045006095  0.044648684            4 
 2747000   0.82457764   -4.9320944    1484.0476  0.045020252  0.044639383           10 
 2748000   0.79890217   -4.9369168    1484.3483   0.04501299  0.044630151            8 
 2749000   0.80631416    -4.935065    1483.0173  0.044956265  0.044620767            5 
 2750000   0.82569523   -4.9505572    1483.2166  0.044945958  0.044611483            3 
 2751000   0.81274597   -4.9462707    1481.8753  0.044888988  0.044602043            2 
 2752000   0.80647035   -4.9566962    1481.4536  0.044859908  0.044592568            3 
 2753000   0.81092863   -4.9262711    1482.8974  0.044887316  0.044583059            4 
 2754000   0.80242068   -4.9529383    1487.8097  0.045019659   0.04457361            6 
 2755000   0.79132399   -4.9237573      1489.32     0.045049  0.044564305            3 
 2756000   0.83805657   -4.9296995    1488.9162  0.045020447  0.044554985            6 
 2757000   0.79997306   -4.9246327    1488.9298  0.045004528  0.044545672            7 
 2758000   0.80598255   -4.9411851    1485.5818  0.044887051  0.044536462            5 
 2759000    0.7892252   -4.9310673    1484.9723   0.04485237  0.044527055            3 
 2760000   0.82373006   -4.9497191    1484.8629  0.044832816  0.044517773           10 
 2761000   0.81256994   -4.9302266    1485.8161   0.04484535   0.04450847            4 
 2762000   0.81082555   -4.9188508    1487.8904  0.044891695  0.044499137            4 
 2763000   0.79550703   -4.9425747    1488.2004  0.044884799  0.044489845            5 
 2764000   0.81554831   -4.9333974    1493.2957  0.045022182  0.044480534            5 
 2765000    0.8104846   -4.9399891     1485.033  0.044756873  0.044471215            6 
 2766000   0.80877632   -4.9503622    1485.3765   0.04475104  0.044461906            3 
 2767000   0.82010731    -4.937128    1488.2672  0.044821925   0.04445255            5 
 2768000   0.79747931   -4.9385055    1489.7906  0.044851595  0.044443121            8 
 2769000   0.80706928    -4.930766    1485.8296  0.044716192  0.044433743            2 
 2770000   0.81926131   -4.9519093    1488.6159  0.044783871  0.044424297            5 
 2771000   0.80479373   -4.9085946     1488.918  0.044776795  0.044414834            4 
 2772000   0.81387663   -4.9594043    1492.0073  0.044853514  0.044405437            6 
 2773000    0.7985847   -4.9613631    1487.6254  0.044705656   0.04439587            6 
 2774000   0.80487455   -4.9444567    1486.0208  0.044641335  0.044386286            4 
 2775000   0.80315261    -4.966765    1484.0625  0.044566441  0.044376755            6 
 2776000    0.8096601   -4.9437637    1494.0809  0.044851132  0.044367384            5 
 2777000   0.81134236   -4.9424957    1489.4484  0.044695968  0.044357987            6 
 2778000   0.80646259   -4.9048333    1491.6652  0.044746378  0.044348552           10 
 2779000   0.79514308   -4.9534637    1492.8342  0.044765331  0.044339198            5 
 2780000   0.80923047    -4.913362    1495.9608  0.044842949  0.044329816            7 
 2781000   0.81827474   -4.9460788    1493.2896  0.044746782  0.044320442            6 
 2782000   0.81405093   -4.9330607    1493.0484  0.044723472  0.044311179           12 
 2783000   0.81075561   -4.9543643    1491.6352  0.044665086  0.044301857            6 
 2784000   0.78344496   -4.9350954    1491.5607  0.044646812  0.044292512            6 
 2785000   0.81367611   -4.9452965    1496.6357  0.044782637  0.044283106            5 
 2786000    0.8112767   -4.9393211    1494.4857  0.044702253  0.044273892            7 
 2787000   0.80133772   -4.9600235    1491.4537  0.044595553  0.044264674            5 
 2788000   0.80076693   -4.9269187    1498.3077  0.044784425  0.044255342            5 
 2789000   0.79330244   -4.9796641    1490.7995  0.044544026  0.044246075           12 
 2790000   0.79277442   -4.9500096    1494.0272  0.044624468  0.044236783            7 
 2791000   0.79467306    -4.940081    1495.8708  0.044663527  0.044227487            9 
 2792000   0.80095684   -4.9615098     1493.799   0.04458569  0.044218299            3 
 2793000   0.81256103   -4.9359817    1492.5308  0.044531888  0.044209053            3 
 2794000   0.79987631   -4.9287018    1496.7562  0.044641977   0.04419982           11 
 2795000   0.80255661   -4.9379727    1492.5259  0.044499878  0.044190561           10 
 2796000   0.81527177   -4.9627969    1496.8516  0.044612887  0.044181353            5 
 2797000   0.79491066   -4.9427885    1497.4984  0.044616207  0.044172156            4 
 2798000   0.78691075   -4.9226324    1500.8937  0.044701384  0.044162998            3 
 2799000   0.81027796   -4.9450924    1495.4157  0.044522322  0.044153599            7 
 2800000   0.80849405   -4.9363983    1495.0463  0.044495426  0.044144235            2 
 2801000   0.79548795   -4.9245338     1497.974  0.044566643  0.044134972            6 
 2802000   0.80241172   -4.9637034    1496.1827  0.044497463  0.044125724            7 
 2803000   0.81414943   -4.9560627    1497.8575  0.044531379  0.044116466            6 
 2804000   0.80315942   -4.9656885     1493.317  0.044380557  0.044107102            6 
 2805000   0.81754423   -4.9770253    1500.1359  0.044567316  0.044097721            4 
 2806000   0.81011857   -4.9586315    1496.7693  0.044451452  0.044088411            4 
 2807000   0.79115737   -4.9338697    1499.1869  0.044507389  0.044079191            7 
 2808000   0.78964663   -4.9395108    1498.1745  0.044461495  0.044069959            5 
 2809000   0.82293866   -4.9626856     1503.358  0.044599441  0.044060788           11 
 2810000   0.83637197   -4.9796122    1499.3485  0.044464666  0.044051605            4 
 2811000   0.81360451   -4.9148647     1504.272  0.044594807  0.044042483            6 
 2812000   0.79442116   -4.9216079    1503.9279  0.044568751  0.044033266            5 
 2813000   0.82739897   -4.9363275    1504.7704  0.044577864  0.044024161           10 
 2814000   0.79510833   -4.9499947    1499.0164  0.044391625  0.044015081            3 
 2815000   0.80495578   -4.9447273    1501.3922  0.044446188  0.044006033            3 
 2816000   0.80558213   -4.9909397    1501.7581  0.044441233  0.043996872            5 
 2817000   0.79315821   -4.9600571    1501.8683  0.044428716  0.043987754            7 
 2818000   0.78911933   -4.9290005    1505.0807  0.044507945  0.043978648            5 
 2819000   0.79752162    -4.947693    1503.8228  0.044454972  0.043969515            8 
 2820000   0.80141941   -4.9657812      1505.74  0.044495864  0.043960414           10 
 2821000   0.79479553    -4.937427    1509.5239  0.044591867  0.043951333            7 
 2822000   0.80041162   -4.9544501     1502.548  0.044370069  0.043942355            4 
 2823000   0.79016587   -4.9609254    1502.5556  0.044354577  0.043933283            5 
 2824000   0.81648515    -4.949917     1503.487  0.044366353  0.043924136            8 
 2825000   0.81165018   -4.9324633    1509.9097  0.044540108  0.043915041            4 
 2826000   0.78411146   -4.9425856    1502.8319  0.044315637   0.04390592            2 
 2827000   0.78255092   -4.9345781    1506.3947  0.044404986   0.04389676            3 
 2828000   0.79690961   -4.9341133    1509.9843  0.044495058  0.043887637            7 
 2829000   0.80398381   -4.9464295    1506.2726  0.044369995   0.04387854            4 
 2830000   0.79869466   -4.9664261    1505.3874  0.044328252  0.043869558            7 
 2831000   0.79754361   -4.9534178    1509.6505  0.044438082  0.043860498            4 
 2832000   0.78429306   -4.9480119    1507.4506  0.044357656  0.043851465            6 
 2833000   0.79031955   -4.9384985     1506.297  0.044308064  0.043842324           11 
 2834000   0.80650051   -4.9634232     1508.079  0.044344832  0.043833274           14 
 2835000   0.78089889   -4.9343683    1510.4494  0.044398867  0.043824265            3 
 2836000   0.79330793   -4.9442357     1507.573  0.044298689  0.043815162           10 
 2837000   0.79501163   -4.9795134    1509.4536  0.044338317  0.043806011            5 
 2838000   0.80262971   -4.9530999    1511.0223  0.044368754  0.043796829            4 
 2839000   0.78239637    -4.955432    1511.1802   0.04435776  0.043787684            2 
 2840000   0.79199641    -4.942848    1510.3065  0.044316505  0.043778599            5 
 2841000   0.81121094    -4.950665    1506.7533  0.044196682  0.043769572            6 
 2842000   0.81024906   -4.9473952     1506.666  0.044178573  0.043760393            5 
 2843000   0.81346641   -4.9784429    1508.0114  0.044202469  0.043751286            5 
 2844000   0.79276462   -4.9578843    1511.8447  0.044299246  0.043742164            5 
 2845000    0.8071596    -4.957415      1510.04  0.044230816  0.043733088            4 
 2846000    0.7754064   -4.9478374     1509.956  0.044212814  0.043724061            4 
 2847000   0.78353794   -4.9751908    1511.0801  0.044230188  0.043715026            7 
 2848000   0.79167519   -4.9541098    1510.4693  0.044196784  0.043706023            5 
 2849000   0.79031013   -4.9418719    1511.0785  0.044199089  0.043696914            3 
 2850000   0.78786496   -4.9626876    1511.2964  0.044189953  0.043687869            7 
 2851000   0.81962184   -4.9774559      1512.81  0.044218696  0.043678875            6 
 2852000   0.78870446   -4.9442438    1512.4951  0.044193989  0.043669881            6 
 2853000   0.80028793   -4.9671848    1513.2444  0.044200385  0.043660737            5 
 2854000   0.80560925   -4.9821431    1511.3946  0.044130886  0.043651574            8 
 2855000   0.77376287   -4.9677662     1515.391  0.044232077   0.04364252            9 
 2856000   0.77232092   -4.9455411    1512.2786  0.044125776  0.043633512            6 
 2857000   0.80745474   -4.9294103    1516.2964  0.044227524  0.043624507            7 
 2858000    0.8069423   -4.9578139    1513.7296  0.044137205  0.043615464            3 
 2859000   0.79681392   -4.9660129    1511.3803  0.044053291  0.043606448            8 
 2860000   0.80866987   -4.9430242    1520.1578  0.044293641   0.04359756            7 
 2861000   0.78240651   -4.9739269    1514.1461  0.044103054  0.043588598            8 
 2862000     0.796246   -4.9740758    1513.8558  0.044079193  0.043579562            5 
 2863000   0.79373783   -4.9804137    1514.3495  0.044078168   0.04357041            5 
 2864000   0.80082389   -4.9434478    1518.5192  0.044184102  0.043561315            8 
 2865000   0.79718007   -4.9829419    1509.8955  0.043917846   0.04355219            6 
 2866000    0.7844334   -4.9697116    1516.5556  0.044096174  0.043543142            7 
 2867000   0.78436837   -4.9570854    1516.6817  0.044084459  0.043534175            5 
 2868000   0.79773227   -4.9656593    1514.2341  0.043997968  0.043525143            6 
 2869000   0.79074986   -4.9614719    1513.0288  0.043947625  0.043516072            5 
 2870000   0.80602617    -4.983429    1518.5819  0.044093552  0.043507069            7 
 2871000   0.80401976    -4.977201    1516.6516  0.044022164  0.043498075            6 
 2872000   0.78997727   -4.9438573    1519.3522  0.044085197  0.043489086            3 
 2873000   0.77860063    -4.968386    1520.1368  0.044092608  0.043480083            5 
 2874000   0.79089363   -4.9877493     1517.314  0.043995418  0.043470994           13 
 2875000   0.79338551   -4.9808498    1514.4154  0.043896099  0.043461835            7 
 2876000   0.79099928   -4.9773714    1512.0643  0.043812712  0.043452747            7 
 2877000   0.79729618   -4.9727961    1516.6335  0.043929832  0.043443656            8 
 2878000   0.78521856   -4.9549611    1516.8444  0.043920673  0.043434557            6 
 2879000   0.77997815   -4.9767501    1514.9881  0.043851687  0.043425494            7 
 2880000   0.80230286   -4.9787438    1516.7677  0.043887955  0.043416456            5 
 2881000   0.79678823   -4.9477227     1519.819  0.043960981   0.04340741            4 
 2882000   0.77405613   -4.9552922    1516.8477   0.04385981  0.043398348            4 
 2883000    0.7923852   -4.9846522    1517.0154  0.043849444  0.043389313            3 
 2884000   0.79691024   -4.9865384    1515.6059  0.043793514  0.043380252            6 
 2885000   0.78400418   -4.9655193    1521.8498  0.043958689  0.043371273            6 
 2886000   0.79380329    -4.975534    1523.7363  0.043997931  0.043362288            4 
 2887000   0.79489444   -4.9782015    1520.8105  0.043898237  0.043353367            5 
 2888000   0.77639994   -4.9890073    1522.9863  0.043945818  0.043344374            5 
 2889000   0.78696315    -4.975088    1518.3679  0.043797389  0.043335257            4 
 2890000   0.80562933   -4.9760746    1523.5058  0.043930387  0.043326238            5 
 2891000   0.79308714   -4.9451289    1522.8647  0.043896712   0.04331737            5 
 2892000   0.79100311   -4.9808021    1520.7277  0.043819955  0.043308441            7 
 2893000   0.78042129   -4.9788665    1520.3091   0.04379275  0.043299384            6 
 2894000   0.79201787   -5.0054665    1517.9037  0.043708353  0.043290322           12 
 2895000   0.78313773   -4.9899273    1519.6949  0.043744816  0.043281246            3 
 2896000   0.77215196   -4.9618152    1521.3202  0.043776479  0.043272124            7 
 2897000   0.77340078   -4.9922125    1519.4299  0.043706992  0.043263042            8 
 2898000   0.79069929   -4.9570952    1526.0736  0.043882954  0.043254063            4 
 2899000   0.79979543   -4.9738566     1524.845  0.043832501  0.043245022            6 
 2900000    0.7791462   -4.9870301    1523.3566  0.043774616  0.043236044            4 
 2901000   0.77956674    -4.983134    1521.4249  0.043704036  0.043227033            6 
 2902000   0.77844339   -5.0022821    1515.9097  0.043530602  0.043217992           11 
 2903000   0.76418899    -4.966195    1527.2527  0.043841219  0.043208903            4 
 2904000   0.77236671   -4.9632281      1527.69   0.04383867  0.043199961            2 
 2905000   0.78420866   -4.9572569    1530.7948  0.043912646  0.043190959            2 
 2906000   0.78781291   -4.9763558    1524.3638  0.043713117  0.043182013            8 
 2907000   0.77128634   -5.0203955    1523.3716  0.043669637  0.043172979            5 
 2908000   0.80092247   -4.9749145    1525.8728  0.043726295  0.043164113            4 
 2909000   0.77852485   -4.9990229     1525.667  0.043705369  0.043155256            4 
 2910000   0.77315624   -4.9883837    1524.5121  0.043657277  0.043146311            5 
 2911000    0.7919514   -5.0015695    1527.0737   0.04371561   0.04313734            7 
 2912000    0.7908261   -4.9870164    1525.1137  0.043644509  0.043128461            7 
 2913000   0.78323567   -4.9679511    1524.8689  0.043622523  0.043119549            6 
 2914000   0.77788153   -4.9689437    1524.1408  0.043586731  0.043110626            5 
 2915000   0.76885567   -4.9751559    1527.0076  0.043653733  0.043101734            5 
 2916000   0.77947915    -4.992248    1526.1406  0.043613986  0.043092902            8 
 2917000   0.80539953   -4.9928178    1522.6144  0.043498296  0.043084052            7 
 2918000   0.79241378   -4.9830063    1528.3354  0.043646774  0.043075211            4 
 2919000   0.80373301   -4.9739837     1528.207  0.043628153  0.043066261            7 
 2920000   0.78568065   -4.9975811    1530.0952  0.043667099  0.043057336            6 
 2921000     0.786393   -4.9928471    1531.5433  0.043693464  0.043048379            5 
 2922000   0.79152356   -5.0087633    1526.5607   0.04353641  0.043039469            7 
 2923000   0.77761567    -4.984193    1529.6733  0.043610256  0.043030529            4 
 2924000   0.78415645   -4.9716069    1530.2228  0.043611002  0.043021726           16 
 2925000    0.7829847   -4.9950739    1529.7374  0.043582262   0.04301277            9 
 2926000   0.77432229   -4.9993444    1525.8777  0.043457441  0.043003775            9 
 2927000   0.77307308   -4.9630891    1529.3761  0.043542197   0.04299484           10 
 2928000   0.78862276   -4.9835873    1530.4256  0.043557194  0.042985911            6 
 2929000   0.78322085    -4.974252    1527.3679  0.043455328  0.042976913            7 
 2930000    0.7854281   -4.9919288     1530.331  0.043524774  0.042967931            4 
 2931000   0.77087052   -5.0025647    1526.7617  0.043408443  0.042958897            6 
 2932000   0.78699137   -4.9950346    1528.5443  0.043444302   0.04294994            3 
 2933000   0.78685507   -4.9691324    1530.5626  0.043486833  0.042941013            5 
 2934000   0.78268135   -4.9629243    1535.9964  0.043626347  0.042932135            7 
 2935000   0.79236244   -5.0113836    1529.0256  0.043413561  0.042923232            9 
 2936000   0.78034186   -4.9974892    1527.5647  0.043357308  0.042914229            5 
 2937000   0.77842945     -4.98999    1535.7322  0.043574287  0.042905262            5 
 2938000    0.7889737   -4.9960148    1531.0301  0.043426088  0.042896276           10 
 2939000   0.77395471   -5.0238526    1526.4205  0.043280609  0.042887277            7 
 2940000   0.78426618   -4.9797278     1535.046  0.043510374  0.042878323            8 
 2941000   0.78289846    -5.000561    1533.5179  0.043452282  0.042869408            6 
 2942000   0.78098466   -5.0200832    1528.6944  0.043300883   0.04286042            5 
 2943000   0.79388537   -4.9955399    1530.7707  0.043344963  0.042851478            8 
 2944000    0.7895202   -5.0024005    1534.9941  0.043449788  0.042842537            3 
 2945000   0.78910729   -4.9807144    1533.9979  0.043406844  0.042833717            5 
 2946000   0.78214215   -4.9897926    1534.4421  0.043404676  0.042824779            6 
 2947000   0.79646531   -4.9880883    1532.4597  0.043333891  0.042815814            3 
 2948000   0.76771612   -4.9996557    1533.8557  0.043358654  0.042806862            7 
 2949000   0.78441988   -4.9650896    1532.3285  0.043300794  0.042797852            3 
 2950000   0.78079587   -4.9925052    1530.1331  0.043224098  0.042788856            5 
 2951000   0.77959569   -4.9976641    1532.8368  0.043285802  0.042779716            8 
 2952000    0.7777523   -5.0028677    1528.9464  0.043161315   0.04277058            7 
 2953000   0.77110373   -5.0001262     1531.295  0.043212975  0.042761437            7 
 2954000   0.77909016   -4.9860192    1531.7083  0.043210006  0.042752354            6 
 2955000   0.77409394   -4.9719586    1532.0776  0.043205797  0.042743305            6 
 2956000   0.77625658   -4.9905998    1532.4806  0.043202543  0.042734183            8 
 2957000   0.78377783   -5.0206641    1531.8301  0.043169601  0.042725051            7 
 2958000   0.77860645   -5.0048742    1530.5635  0.043119325  0.042715776           11 
 2959000    0.7816085   -4.9796841    1529.7428  0.043081638  0.042706609            5 
 2960000   0.78505924   -5.0179225    1530.2348  0.043080936  0.042697512            6 
 2961000   0.78292949   -4.9961018    1530.2791  0.043067631  0.042688428            5 
 2962000   0.77232007   -4.9920731    1532.8994  0.043126811  0.042679276            9 
 2963000   0.77286984   -4.9987998    1531.4506  0.043071508  0.042670163            6 
 2964000   0.78435826   -5.0006981    1536.4949  0.043198798   0.04266106            5 
 2965000   0.77906824   -5.0308304    1532.0899  0.043060423  0.042651912            8 
 2966000   0.78039944   -4.9815553    1534.6017  0.043116477  0.042642754           13 
 2967000   0.77070167   -5.0079879    1536.8212  0.043164284  0.042633645            6 
 2968000   0.76366164   -5.0186933    1533.0438  0.043043682  0.042624569            6 
 2969000   0.77479532   -5.0143972    1531.0122  0.042972163   0.04261543            4 
 2970000   0.77541545   -5.0029117    1533.3173  0.043022371  0.042606409            7 
 2971000   0.78090319   -4.9800493    1538.0064  0.043139413  0.042597453           11 
 2972000   0.78712683   -5.0078536    1532.8717  0.042980924  0.042588371            8 
 2973000   0.78465025   -5.0098563    1536.5317  0.043069058  0.042579257            8 
 2974000   0.77728313   -5.0180785    1537.8581  0.043091743  0.042569995           11 
 2975000   0.76425649   -4.9844277    1535.8769  0.043021761   0.04256086           10 
 2976000   0.76995729   -5.0089948     1537.502   0.04305281  0.042551702            7 
 2977000   0.77018669   -5.0334172    1529.9667  0.042827418  0.042542518            5 
 2978000   0.76399551   -4.9909134    1534.4502  0.042938499  0.042533355            4 
 2979000   0.77643778   -5.0066673    1537.4687  0.043008524  0.042524279            6 
 2980000   0.78677256    -4.979977     1536.804  0.042975504  0.042515171           11 
 2981000   0.78414931   -5.0109043    1534.5598   0.04289835  0.042506053            8 
 2982000   0.77164638   -4.9957962    1540.0095   0.04303626  0.042496921            4 
 2983000   0.77677676   -4.9974548    1539.3091  0.043002267  0.042487881           16 
 2984000   0.76466925   -5.0096127    1541.6742  0.043053904  0.042478744           10 
 2985000   0.77207978   -5.0193587     1534.383  0.042835928  0.042469546            7 
 2986000   0.77929592   -5.0247397    1534.3253  0.042819974  0.042460318           13 
 2987000    0.7649642   -5.0129519    1539.8047  0.042958508  0.042451151            7 
 2988000   0.78228115   -5.0077209    1534.8814  0.042806822  0.042441934            7 
 2989000   0.77338145   -4.9827715     1540.552  0.042950597  0.042432718            8 
 2990000   0.77781412   -5.0191176     1536.369  0.042819648  0.042423561            5 
 2991000   0.77717358   -5.0382455    1534.5335  0.042754194   0.04241438            7 
 2992000   0.74319824   -4.9931534    1538.2752  0.042844117  0.042405157            6 
 2993000   0.78207984   -5.0215054    1536.6412  0.042784308  0.042395966            8 
 2994000   0.76933096   -5.0235288    1535.9119  0.042749718  0.042386781            5 
 2995000   0.77426806   -5.0185246    1540.5641  0.042864889  0.042377637            3 
 2996000   0.78378615   -5.0068898    1539.9066  0.042832293  0.042368486            8 
 2997000   0.78213406   -5.0112403    1538.0814  0.042767252  0.042359406            7 
 2998000   0.76252805   -5.0054316    1539.8332  0.042801678  0.042350316            3 
 2999000   0.78064851   -5.0237955    1541.5253  0.042834425  0.042341155            5 
 3000000   0.77926715   -5.0328443    1539.0884  0.042752455  0.042332029            4 
 3001000   0.77817009   -5.0088897    1539.1713  0.042740511  0.042322959           14 
 3002000   0.75023363   -4.9857123    1543.7696   0.04285392  0.042313855            7 
 3003000   0.78165205   -5.0064119    1539.8561  0.042731049  0.042304776            6 
 3004000   0.75380673   -5.0347349    1538.6104  0.042682268  0.042295611            5 
 3005000   0.76656297   -5.0372571     1542.501  0.042775957  0.042286592            3 
 3006000    0.7781304      -4.9985    1545.4951   0.04284473  0.042277593            3 
 3007000    0.7562852   -5.0295443    1544.4617  0.042801844  0.042268516            9 
 3008000   0.78183863   -5.0311817    1541.1088  0.042694724  0.042259329            6 
 3009000   0.78268388   -5.0018704    1542.0998  0.042707981  0.042250244            3 
 3010000   0.77401214   -5.0240984    1537.8298  0.042575576   0.04224123            7 
 3011000   0.77418121   -5.0177195    1545.7999  0.042782018  0.042232177           12 
 3012000   0.77660061   -5.0323412    1542.2927  0.042670781   0.04222321            8 
 3013000   0.76860017   -5.0329054    1542.9218  0.042674018  0.042214134            7 
 3014000   0.76394823   -4.9980069    1545.4867  0.042730777   0.04220506            5 
 3015000   0.76811344   -5.0362498    1542.0827  0.042622519  0.042195982            5 
 3016000   0.77034485   -4.9883804    1546.0422  0.042717788  0.042186896            7 
 3017000    0.7614662   -5.0541138    1540.5119  0.042550875  0.042177858            9 
 3018000   0.76510831   -5.0674944    1544.0409  0.042634221  0.042168767            6 
 3019000   0.77118022   -5.0122798    1543.4545   0.04260391  0.042159738            7 
 3020000   0.75765272   -5.0173983    1547.1725  0.042692399  0.042150659            4 
 3021000   0.75144576   -5.0266097    1542.9701  0.042562343  0.042141568           14 
 3022000   0.75765163   -5.0416178    1543.2089  0.042554845  0.042132402            5 
 3023000   0.76086413   -5.0310458    1541.5106  0.042493952  0.042123288            8 
 3024000   0.76259782   -4.9900091    1540.6329  0.042455714  0.042114235            9 
 3025000   0.75376141    -5.046829    1543.7009  0.042526194   0.04210516            6 
 3026000   0.77043921   -5.0379884    1543.1898  0.042498067   0.04209603           16 
 3027000   0.76708801   -5.0428006    1543.3683   0.04248894  0.042086906            6 
 3028000   0.76535275   -5.0286002    1544.0767  0.042494405  0.042077829           15 
 3029000   0.76532704   -5.0136337    1549.5099  0.042629853  0.042068792            7 
 3030000   0.75710356   -5.0293677     1548.646  0.042592023  0.042059762            7 
 3031000   0.78379879   -5.0466022    1542.8208  0.042417817  0.042050667            4 
 3032000   0.76144952   -5.0334908    1546.5125   0.04250529  0.042041516            7 
 3033000   0.76395748   -5.0198283    1547.6135  0.042521528   0.04203248            7 
 3034000   0.77295597   -5.0078734    1545.3821  0.042446223  0.042023398            8 
 3035000   0.76921396   -5.0418117    1543.6381  0.042384352  0.042014285           11 
 3036000   0.77858779   -5.0220312    1550.1235  0.042548405  0.042005193            9 
 3037000   0.77392384   -5.0189458    1547.5186  0.042462918  0.041996079            7 
 3038000   0.78421664    -5.006948    1545.2027  0.042385414  0.041987005            5 
 3039000     0.762403   -5.0426274    1546.3459  0.042402817  0.041977843            7 
 3040000   0.75542016   -5.0562701      1545.79  0.042373628  0.041968733           15 
 3041000    0.7485214   -5.0114917    1549.0021  0.042447717  0.041959635            6 
 3042000   0.76263623   -5.0154456    1549.2938  0.042441753  0.041950518            5 
 3043000   0.78020166    -5.025561    1545.9655  0.042336661  0.041941475            4 
 3044000    0.7694093   -5.0101801    1553.0678  0.042517188  0.041932386            5 
 3045000   0.76756956   -5.0247565    1546.0139  0.042310179  0.041923348            7 
 3046000   0.76086441   -5.0160997    1550.3117  0.042413868  0.041914308            8 
 3047000   0.76157705   -5.0208903    1547.4467  0.042321593  0.041905222            4 
 3048000   0.75409633   -5.0322107    1548.3187  0.042331549  0.041896222            6 
 3049000   0.74201118    -5.005653    1552.4304  0.042430043  0.041887136            5 
 3050000   0.76339653   -5.0054475    1552.3178  0.042413053  0.041878126            7 
 3051000   0.76650423   -4.9954913    1557.0789  0.042529196  0.041869112            5 
 3052000   0.77497203   -5.0424485    1547.3164  0.042248699  0.041860008            7 
 3053000   0.77374561   -5.0448047    1548.9948  0.042280673  0.041850942            6 
 3054000   0.75919804   -5.0474511    1548.8175  0.042261992  0.041841968           11 
 3055000    0.7442698   -5.0312249    1551.3831  0.042318141    0.0418329           10 
 3056000   0.76527086   -5.0407099    1550.4424  0.042278642  0.041823812            8 
 3057000   0.76295818   -5.0280746    1550.5701  0.042268293  0.041814635            8 
 3058000   0.76075704   -5.0170535    1548.4581  0.042196918  0.041805544            6 
 3059000   0.74779012   -5.0355027    1551.0817  0.042254596  0.041796443            8 
 3060000   0.76596725   -5.0492054    1544.5459  0.042062797  0.041787215            5 
 3061000   0.76832829   -5.0225305      1549.33  0.042179298  0.041778007            4 
 3062000   0.77890011   -5.0452282    1547.0844  0.042104409  0.041768741            7 
 3063000   0.75416923   -5.0449213    1551.3824  0.042207595  0.041759525            6 
 3064000    0.7620207    -5.052414    1550.0969  0.042158859  0.041750365           10 
 3065000   0.76361112   -5.0085135    1550.9642  0.042168685  0.041741194            6 
 3066000   0.76994344   -5.0357749    1549.4382  0.042113455  0.041732089            7 
 3067000   0.75686347   -5.0187549    1551.9047   0.04216674  0.041722925           10 
 3068000   0.76700376   -5.0269607    1553.8985  0.042207152  0.041713862           11 
 3069000   0.76813224   -5.0109325    1552.4325  0.042153592  0.041704728           17 
 3070000   0.77627854    -5.063498    1551.7296  0.042120782  0.041695577           11 
 3071000   0.75493244   -5.0413334     1547.896  0.042003039  0.041686344            6 
 3072000   0.74524975   -5.0660139    1552.3493  0.042110168  0.041677171            7 
 3073000   0.77050685   -5.0448297    1554.6816  0.042159713  0.041668043            5 
 3074000   0.77324692    -5.060996    1548.9871  0.041991625  0.041658808            6 
 3075000   0.75287407    -5.039263     1548.889  0.041975312    0.0416497            6 
 3076000   0.75383997   -5.0326392    1551.4478  0.042030986  0.041640545            4 
 3077000   0.75197572   -5.0303136    1555.5708   0.04212899  0.041631416            5 
 3078000   0.75094822    -5.046902    1555.1523  0.042103973  0.041622217            4 
 3079000   0.75191266   -5.0291361    1557.1951  0.042145586  0.041613078           15 
 3080000   0.76764421   -5.0498107    1554.7241  0.042065046  0.041604008            5 
 3081000   0.74697417   -5.0149593    1555.1008  0.042061582  0.041594874            7 
 3082000    0.7483507   -5.0561231    1552.7279  0.041983773  0.041585766            9 
 3083000   0.77722031    -5.055863    1550.7447  0.041916552  0.041576606            6 
 3084000    0.7563265   -5.0370899    1558.3256  0.042107803  0.041567458            7 
 3085000   0.76078421   -5.0457857    1554.5853  0.041993119  0.041558346            6 
 3086000   0.75912637   -5.0063255    1555.3199  0.041999349  0.041549353            5 
 3087000   0.76040434   -5.0737659    1551.8478  0.041892015  0.041540247            5 
 3088000   0.77382997   -5.0634001    1553.1574  0.041913789  0.041531006           15 
 3089000   0.75741226   -5.0507729    1551.3385  0.041851152   0.04152177            3 
 3090000   0.75361954   -5.0399819    1556.4023  0.041974173  0.041512579            7 
 3091000   0.75189395   -4.9988041    1560.4678  0.042070198   0.04150344            6 
 3092000   0.75406385   -5.0580102    1555.9665  0.041935278  0.041494319            8 
 3093000   0.74865798   -5.0249013    1552.0927  0.041817349  0.041485066            9 
 3094000   0.75430229   -5.0412644    1555.9697  0.041908256  0.041475893            5 
 3095000   0.77113145   -5.0375816    1555.9201  0.041893379  0.041466727            4 
 3096000   0.76383291    -5.047524     1558.512  0.041949612   0.04145769            7 
 3097000   0.73533524   -5.0405236    1559.3594  0.041958869  0.041448565            4 
 3098000    0.7603399   -5.0540153    1548.6386  0.041656945  0.041439388            5 
 3099000   0.75417724   -5.0493638    1559.0147  0.041922519  0.041430215            5 
 3100000   0.74469875   -5.0648164    1557.6673  0.041872778  0.041421152           13 
 3101000   0.73947392    -5.027612    1556.5799  0.041830053  0.041412065            6 
 3102000   0.74875153   -5.0662318    1556.9191  0.041825681  0.041402964            4 
 3103000   0.76370223   -5.0522881    1557.5387   0.04182884  0.041393834           16 
 3104000   0.75159571   -5.0540242    1558.0789  0.041829867  0.041384715            6 
 3105000   0.76162999   -5.0436514    1556.6695  0.041778571  0.041375595            8 
 3106000   0.74546401    -5.047438    1557.4841  0.041786973   0.04136645            8 
 3107000   0.75370348   -5.0372456    1560.6128  0.041857439  0.041357389            7 
 3108000   0.75276003   -5.0354038    1558.7668  0.041794476  0.041348331            5 
 3109000   0.77364817   -5.0920226    1558.9115  0.041784911  0.041339216           13 
 3110000   0.76174418   -5.0384191    1557.6256  0.041737021  0.041330178            7 
 3111000   0.76051006   -5.0566588      1557.12  0.041710061  0.041321058           13 
 3112000   0.76082829   -5.0350641    1563.5056  0.041867652  0.041311975            5 
 3113000   0.76361239   -5.0579875    1562.2872  0.041821587  0.041302916            5 
 3114000    0.7675731   -5.0660215    1555.5324  0.041627392  0.041293783            7 
 3115000   0.76119599   -5.0486397    1561.1243  0.041763624  0.041284749            5 
 3116000   0.77102432   -5.0579378    1560.9143  0.041744606  0.041275708            5 
 3117000   0.75282833   -5.0578811    1560.2028  0.041712193  0.041266642           10 
 3118000   0.74737497   -5.0234872    1562.9942  0.041773417  0.041257584            7 
 3119000   0.76092681   -5.0373393    1562.2419  0.041739925  0.041248478            8 
 3120000   0.75517208   -5.0791535    1557.4674  0.041599024  0.041239438            7 
 3121000   0.74981263    -5.066587    1557.6927  0.041591709  0.041230303            5 
 3122000   0.76020383   -5.0553536    1560.1946  0.041645168  0.041221205            5 
 3123000   0.76294409    -5.081034    1559.5907  0.041615721  0.041212066            8 
 3124000   0.75678286   -5.0659845    1563.8548  0.041716143  0.041202916            5 
 3125000   0.74295966   -5.0703194     1562.387  0.041663652  0.041193724           15 
 3126000    0.7569859   -5.0596353    1558.5734  0.041548663  0.041184553            6 
 3127000   0.74052568   -5.0439033    1562.2413  0.041633122  0.041175493            9 
 3128000   0.73268186   -5.0590203    1561.8985  0.041610682  0.041166479            5 
 3129000   0.75080037   -5.0502461    1564.5112  0.041666965  0.041157369            7 
 3130000   0.75441619   -5.0480909    1562.4415  0.041598549  0.041148304           10 
 3131000   0.73825129    -5.041847    1567.1262   0.04170995  0.041139174            6 
 3132000   0.73955028   -5.0293004    1565.0983  0.041642675  0.041130135            6 
 3133000   0.74388513   -5.0230186    1567.3166  0.041688388  0.041121096           11 
 3134000   0.74618606   -5.0298637    1566.8432  0.041662498  0.041112101            7 
 3135000   0.75831228   -5.0498865    1564.1428  0.041577426  0.041103096            9 
 3136000   0.76082184   -5.0464657    1562.0164  0.041507663  0.041093972           12 
 3137000   0.74270579   -5.0589868    1568.1301  0.041656839  0.041084794           13 
 3138000   0.75526354   -5.0782476    1559.1086  0.041403989  0.041075733            6 
 3139000   0.75348898    -5.067844     1563.133  0.041497638  0.041066614            4 
 3140000   0.75300913   -5.0851233     1562.539  0.041468657  0.041057499            5 
 3141000   0.75196046    -5.084158    1560.5132  0.041401709  0.041048361           15 
 3142000   0.74370744   -5.0514555    1565.4537  0.041519564  0.041039234            6 
 3143000   0.73816663   -5.0815065    1563.4428   0.04145304  0.041030147            9 
 3144000   0.72574095   -5.0545436    1561.8465  0.041397543  0.041020979            8 
 3145000   0.73470584   -5.0690059    1562.5133  0.041402047  0.041011907           11 
 3146000   0.73829817   -5.0249413    1568.8845  0.041557651  0.041002891            8 
 3147000   0.72197507   -5.0715444    1567.6677  0.041512225  0.040993866           17 
 3148000   0.74519093   -5.0742936     1562.377  0.041358985  0.040984825            6 
 3149000   0.75374955   -5.0572699    1562.4879  0.041348784  0.040975676           12 
 3150000   0.72924924   -5.0448066    1567.9453  0.041480036  0.040966619            6 
 3151000   0.73926031   -5.0281241    1569.9842  0.041520793  0.040957629            7 
 3152000   0.75104326   -5.0577548    1568.1491  0.041459101   0.04094861            5 
 3153000    0.7352403   -5.0910663     1564.229  0.041342346  0.040939587            7 
 3154000   0.73961995   -5.0610234    1564.7668  0.041343448  0.040930477           12 
 3155000   0.72271006   -5.0385953    1567.2835  0.041396817  0.040921374            9 
 3156000   0.73729953   -5.0562605    1565.5776  0.041338657  0.040912357            4 
 3157000   0.74634557   -5.0776937    1562.6219  0.041247542  0.040903319           10 
 3158000   0.73304781   -5.0614162    1568.8323  0.041398362  0.040894271            5 
 3159000    0.7656992   -5.0600995    1564.5179  0.041271443  0.040885185           13 
 3160000   0.74866756   -5.0547343    1564.4511  0.041256622  0.040876074           14 
 3161000   0.74189414   -5.0675425    1567.9964  0.041337035  0.040867004           10 
 3162000   0.74459546    -5.086883    1563.4277  0.041203556  0.040857896           14 
 3163000   0.72364424   -5.0824904    1567.6875  0.041302757  0.040848806            6 
 3164000   0.74730667   -5.0578004    1568.5743   0.04131306  0.040839716            9 
 3165000   0.74478791   -5.0803333    1567.1075  0.041261388  0.040830716            6 
 3166000    0.7593205   -5.0581267    1570.8153  0.041345949  0.040821643            7 
 3167000   0.75545385   -5.0826565    1561.8977  0.041098245  0.040812506            7 
 3168000    0.7547397    -5.062345    1574.7495  0.041423335  0.040803439            8 
 3169000   0.73670581   -5.0863332    1569.3493  0.041268258  0.040794395            6 
 3170000   0.75699847   -5.0331385    1572.8101  0.041346218  0.040785378            6 
 3171000   0.73341668   -5.0971515    1565.5188  0.041141564  0.040776272            5 
 3172000   0.73947705   -5.0665209    1567.2439  0.041173915  0.040767148            4 
 3173000   0.73967775   -5.0841312    1568.6789  0.041198626  0.040758151            3 
 3174000   0.74480953   -5.0490172    1565.8311  0.041110878  0.040749066            8 
 3175000   0.74264068   -5.0582813    1567.8393  0.041150638  0.040739972           14 
 3176000   0.73670909   -5.0623224    1571.0016  0.041220655  0.040730895            3 
 3177000   0.73419242   -5.0703302    1572.6041  0.041249714  0.040721858            9 
 3178000   0.74678941   -5.0822619    1569.5239  0.041155965  0.040712785            6 
 3179000   0.73798199   -5.0886748    1566.5389   0.04106477  0.040703699           13 
 3180000   0.73597471   -5.0657052    1569.8998  0.041139932  0.040694607            9 
 3181000   0.71998203   -5.0546496    1574.3959  0.041244783  0.040685532            6 
 3182000   0.73058803   -5.0931726    1566.3992  0.041022398   0.04067636            6 
 3183000   0.73829158   -5.0819241    1568.8748  0.041074322  0.040667246           22 
 3184000   0.72257244   -5.0689726    1573.3071  0.041177426  0.040658146            4 
 3185000   0.74092023   -5.0571403    1578.2448  0.041293689  0.040649077            7 
 3186000   0.72528251   -5.0883571    1568.2391  0.041019018  0.040639985            7 
 3187000   0.72574463    -5.088044    1570.2567  0.041058902  0.040630826            4 
 3188000   0.75123936   -5.0703231    1574.1551  0.041147927  0.040621699           10 
 3189000   0.73965127   -5.0859875    1572.7835  0.041099183  0.040612547            5 
 3190000   0.74778558   -5.0894071    1568.6384  0.040978015  0.040603417           15 
 3191000   0.72756081   -5.0820972    1574.1417  0.041108893  0.040594292            3 
 3192000   0.73198655   -5.0551115    1572.5755  0.041055124  0.040585178            5 
 3193000   0.72864396   -5.0580972    1570.1656  0.040979371  0.040576116            6 
 3194000   0.72944345   -5.0977212    1566.6651  0.040875211  0.040566892            8 
 3195000   0.73543399   -5.0614783    1571.1135  0.040978443  0.040557774            9 
 3196000   0.73992038   -5.0647505    1574.6793  0.041058596  0.040548657            7 
 3197000   0.73612287   -5.0748162    1570.4251  0.040934862  0.040539577            6 
 3198000   0.73939609   -5.0925963    1569.6413   0.04090164  0.040530514            6 
 3199000    0.7495904   -5.0644224    1573.2265  0.040982247  0.040521461            9 
 3200000   0.73508721   -5.0944415     1570.485  0.040898047  0.040512285            5 
 3201000   0.73566922   -5.0916639    1570.7068  0.040891046  0.040503227            8 
 3202000   0.74418541   -5.0630742    1575.4346  0.041001318  0.040494171            5 
 3203000   0.74390974   -5.0787198    1572.7751  0.040919324  0.040485088            5 
 3204000   0.75197698   -5.0779126     1573.413  0.040923143  0.040476015           11 
 3205000   0.75085283   -5.0783399    1569.7973  0.040816361  0.040466909            5 
 3206000   0.73376579   -5.0575196    1572.4963  0.040873787  0.040457813            5 
 3207000   0.74355016   -5.0897524    1571.4663  0.040834276  0.040448677            4 
 3208000   0.73625926   -5.0972192    1569.8742   0.04078019  0.040439555           12 
 3209000    0.7489954   -5.1032786    1571.0402  0.040797761  0.040430467           10 
 3210000   0.72581913   -5.0586109    1574.8796  0.040884724  0.040421398            5 
 3211000   0.73133663   -5.0776477    1571.8218  0.040792634   0.04041228            3 
 3212000   0.72382504   -5.0791429    1573.4948   0.04082334  0.040403224           11 
 3213000   0.73527206   -5.0762716    1579.3521   0.04096255  0.040394188            5 
 3214000   0.72427455   -5.0908341    1570.5974  0.040722812   0.04038508           19 
 3215000   0.72030431    -5.071337    1579.7249  0.040946731  0.040375987            8 
 3216000   0.73497765   -5.0977083    1571.8594  0.040730187  0.040366849            4 
 3217000   0.74393858   -5.0629765    1577.1551  0.040854706  0.040357768            5 
 3218000   0.74338274   -5.0875001    1576.6534  0.040829019  0.040348691           20 
 3219000   0.74401511   -5.0788358    1578.8525  0.040873266  0.040339541            5 
 3220000   0.74051201   -5.0892253     1573.514  0.040722412  0.040330481            7 
 3221000   0.74884082   -5.0884101    1576.4052  0.040784571  0.040321386            6 
 3222000   0.73590525   -5.0669723     1576.332  0.040770017  0.040312317           15 
 3223000   0.74083355   -5.0639589    1575.0928  0.040725329  0.040303234            8 
 3224000   0.73142448   -5.0890688    1571.6251  0.040623065   0.04029415            5 
 3225000   0.73658028   -5.0917319    1571.9427  0.040618674  0.040284966            4 
 3226000   0.72878288   -5.0689428    1575.4517  0.040696728  0.040275936            6 
 3227000   0.72924705   -5.0617061    1577.3836  0.040734005  0.040266896            8 
 3228000   0.74686764   -5.0882801    1574.8161  0.040655103  0.040257811           16 
 3229000   0.72958691   -5.1210317    1567.4891  0.040453419   0.04024857            6 
 3230000    0.7321568   -5.0949776    1575.2815  0.040641937  0.040239341            8 
 3231000    0.7588302    -5.091992    1580.7756  0.040771061  0.040230264            8 
 3232000   0.73439344   -5.0763525    1579.5313  0.040726363  0.040221099            6 
 3233000   0.74271103   -5.0779589    1573.2798   0.04055263  0.040211892            8 
 3234000   0.72996851   -5.0990133    1573.8066  0.040553665  0.040202701            5 
 3235000    0.7382635   -5.0830447    1574.9993  0.040571852  0.040193542           15 
 3236000   0.73772141   -5.0692183    1575.8179  0.040580395  0.040184389            7 
 3237000      0.72894   -5.0935385     1575.193  0.040551772   0.04017516           15 
 3238000   0.73910835   -5.0959007    1577.2588  0.040592414  0.040166015           13 
 3239000   0.72845256   -5.0906495    1577.6103  0.040588924   0.04015678            6 
 3240000     0.726267   -5.0981648    1574.3371   0.04049221  0.040147578            4 
 3241000   0.74532063   -5.1080359    1573.6907  0.040463096  0.040138397           10 
 3242000   0.72463112   -5.0763074    1580.2598  0.040619468  0.040129241           10 
 3243000   0.74315346   -5.0792759    1576.4093     0.040508  0.040120069            9 
 3244000   0.74472938   -5.0831272    1570.5562  0.040345155  0.040110856            6 
 3245000   0.74417933   -5.1028257    1574.2554   0.04042772  0.040101583           12 
 3246000   0.73292141   -5.1077065    1578.5303  0.040525013  0.040092407            9 
 3247000   0.74153979   -5.0720897     1574.572  0.040410945  0.040083188            7 
 3248000   0.72404554    -5.118662    1578.0138  0.040486808    0.0400741            7 
 3249000   0.74285456   -5.0881368     1579.283  0.040506899  0.040064931           10 
 3250000   0.73269711   -5.1018212    1580.6828  0.040530328  0.040055729            5 
 3251000   0.72052689   -5.0764125    1579.1497  0.040478562  0.040046534            8 
 3252000    0.7362016   -5.1113511    1573.3103  0.040316479  0.040037272            7 
 3253000    0.7214435   -5.1067779    1575.2642  0.040354141  0.040028109           10 
 3254000   0.71640501   -5.1126239     1580.638  0.040479358   0.04001893            7 
 3255000   0.72320952   -5.1223379    1577.7703  0.040393505  0.040009735           12 
 3256000   0.73809022   -5.1106412    1577.8695  0.040383639  0.040000549            8 
 3257000   0.71554071   -5.1028676    1579.0147  0.040400541  0.039991345           12 
 3258000   0.73204082   -5.0700464    1584.0342  0.040516528  0.039982215            7 
 3259000   0.72618896    -5.090691    1579.4657   0.04038728  0.039973087            5 
 3260000    0.7150796    -5.123421    1580.1558   0.04039253  0.039963947            5 
 3261000   0.73745492   -5.1219729    1578.6203  0.040340906  0.039954724           10 
 3262000   0.72454241    -5.092515    1581.4156  0.040399948  0.039945553            5 
 3263000   0.74741328   -5.0827264     1579.094  0.040328277  0.039936424           18 
 3264000   0.73185036   -5.1070945    1581.4564  0.040376235  0.039927259            4 
 3265000    0.7439284   -5.0591079     1581.398  0.040362378  0.039918179            5 
 3266000    0.7516339   -5.1085725    1580.5039  0.040327208  0.039909032            6 
 3267000   0.74486672   -5.0992189    1581.2987  0.040335136  0.039899983            7 
 3268000   0.73204287   -5.1039649    1580.7804  0.040309579  0.039890987            6 
 3269000   0.73000367   -5.0932401    1583.4844  0.040366176  0.039881917           10 
 3270000   0.73179915   -5.0863587    1580.7589  0.040284376  0.039872777            6 
 3271000   0.72390637   -5.1034593    1579.8129   0.04024796  0.039863546            5 
 3272000   0.72409615    -5.112719    1577.1036  0.040166655  0.039854378           10 
 3273000   0.71996837   -5.1071668    1579.2248  0.040208392  0.039845222            4 
 3274000   0.73236545   -5.0950057    1576.8572  0.040135848  0.039836018           13 
 3275000   0.73089254   -5.1266098    1578.5805  0.040167443  0.039826757            7 
 3276000   0.71325926   -5.1288033    1576.9144    0.0401128  0.039817457            7 
 3277000   0.74431684   -5.1075748    1580.5697  0.040193512  0.039808203            7 
 3278000   0.72926289   -5.1228898    1579.9402  0.040165248  0.039799004            8 
 3279000    0.7172066   -5.1017464    1579.7183  0.040147358  0.039789813            9 
 3280000   0.71995393   -5.1025665    1579.8871  0.040139407   0.03978057            7 
 3281000   0.72583982   -5.1236304     1577.214   0.04005928  0.039771295            8 
 3282000   0.71867212   -5.1085894    1578.8287  0.040088073  0.039762043            4 
 3283000   0.71056687   -5.1059082    1579.2193  0.040085777  0.039752786           15 
 3284000   0.71857055   -5.1443055    1577.6093  0.040032715  0.039743474           12 
 3285000   0.73556224    -5.114545    1580.2761  0.040088182  0.039734092            8 
 3286000   0.72798272   -5.1080718    1582.3225  0.040127878  0.039724918            4 
 3287000   0.72610544   -5.1022147    1582.1317  0.040110832   0.03971565           11 
 3288000   0.71950243   -5.0895354    1583.3144   0.04012861  0.039706415            9 
 3289000   0.73066054   -5.1189985    1583.7969  0.040128634  0.039697226            7 
 3290000   0.73136021   -5.0868457    1582.0523  0.040072246  0.039687984            5 
 3291000   0.73671377   -5.0655922    1588.1478  0.040214419   0.03967881            3 
 3292000   0.73060219   -5.0932489    1580.1611  0.040000027  0.039669663            6 
 3293000   0.72509606    -5.120472     1584.721  0.040103275  0.039660526            8 
 3294000   0.71464499   -5.1262649    1578.0989  0.039923571  0.039651324           17 
 3295000   0.71738528   -5.1057549    1584.7382  0.040079368  0.039642135            8 
 3296000   0.73861254   -5.1065597    1584.1623  0.040052648   0.03963296            5 
 3297000   0.71828174   -5.1186102    1580.8023  0.039955574  0.039623675            9 
 3298000    0.7366842   -5.1132465    1586.6439  0.040091063  0.039614371            6 
 3299000   0.72202143    -5.130508    1581.6614  0.039953051   0.03960514            7 
 3300000   0.72395529   -5.1185683    1579.2789  0.039880779  0.039595908           13 
 3301000   0.71712131   -5.1260239    1580.8986  0.039909588  0.039586646            6 
 3302000     0.729498   -5.1188867    1583.1775  0.039955014  0.039577401           10 
 3303000   0.71341494   -5.1221904    1582.2466  0.039919433  0.039568185           11 
 3304000   0.72757023   -5.1276203    1578.8894  0.039822674  0.039558955            6 
 3305000   0.72645327   -5.1337971    1579.8682  0.039835304  0.039549594           22 
 3306000   0.71379088   -5.1102645    1586.1797  0.039982348  0.039540335            7 
 3307000   0.72672821   -5.1300741    1582.5467   0.03987871  0.039531124            8 
 3308000   0.72461623   -5.1067482    1583.0679  0.039879783   0.03952187           11 
 3309000   0.71682274   -5.0998437    1582.8946  0.039863367  0.039512658           13 
 3310000   0.74336626   -5.1180782    1584.3938  0.039889069  0.039503469            3 
 3311000   0.71221126   -5.0824667    1587.8831  0.039964843  0.039494332           10 
 3312000   0.73492439   -5.1284152    1582.3197  0.039812793  0.039485187            9 
 3313000   0.72450489   -5.1109079    1583.5145  0.039830832   0.03947597           14 
 3314000   0.71607097   -5.0908487    1586.6898  0.039898658  0.039466762           12 
 3315000   0.72457467   -5.1086884    1581.1758  0.039748008  0.039457537           11 
 3316000   0.72714617     -5.10324    1584.3029  0.039814607  0.039448311           11 
 3317000   0.71470923   -5.0876682    1583.8198  0.039790468  0.039439107            8 
 3318000   0.72290574   -5.1118555    1584.2675   0.03978972  0.039429922           19 
 3319000   0.71812057   -5.1335414    1585.0699   0.03979788  0.039420717           12 
 3320000   0.72233289    -5.143739    1583.8527  0.039755339   0.03941149            6 
 3321000   0.72264829   -5.1130673    1586.6778  0.039814258  0.039402258           12 
 3322000   0.72433589    -5.147722    1580.3286  0.039643002  0.039393046            9 
 3323000   0.71140881    -5.143244     1581.988  0.039672686  0.039383766            6 
 3324000   0.72059544   -5.1111751    1590.1872  0.039866307  0.039374617            6 
 3325000   0.70913876   -5.0854187    1586.7074  0.039767102  0.039365536            6 
 3326000   0.73134026   -5.1252734    1589.8343  0.039833492   0.03935642            7 
 3327000   0.70590568   -5.1175845    1581.1503  0.039604005  0.039347217            3 
 3328000   0.71820369   -5.1214006    1586.8712  0.039735357  0.039337993           10 
 3329000   0.71900038   -5.1292844    1586.3591  0.039710602  0.039328769           12 
 3330000   0.71628819   -5.1313874    1585.4626  0.039676241  0.039319492            7 
 3331000   0.73091873    -5.127694    1585.8095  0.039673008  0.039310258            5 
 3332000   0.72909968   -5.1401911    1583.0671  0.039592514  0.039301084           19 
 3333000   0.71507406   -5.1378721    1586.4389  0.039664938  0.039291888           10 
 3334000   0.71971594   -5.1284216    1582.8616  0.039563627  0.039282707            8 
 3335000   0.71465137   -5.1062198    1591.1654  0.039759256  0.039273563            6 
 3336000   0.70928436   -5.1014769    1589.5799  0.039707732  0.039264351            7 
 3337000   0.69579298   -5.0849614    1588.8275  0.039677042  0.039255334            7 
 3338000   0.72588465   -5.0999683    1590.6208  0.039709927  0.039246222            8 
 3339000   0.73643635   -5.1287641    1589.1642  0.039661679  0.039237064            8 
 3340000   0.72553974   -5.1109222    1589.8486  0.039666881  0.039227915            6 
 3341000   0.72555304   -5.1274531    1591.6307  0.039699459  0.039218771            8 
 3342000   0.72084486   -5.1183378    1585.8657  0.039543828   0.03920957            5 
 3343000     0.706602   -5.1255576    1586.2855  0.039542465  0.039200376            5 
 3344000    0.7211241   -5.1192134    1587.3423  0.039556976  0.039191193            6 
 3345000   0.72256636   -5.1241473    1586.5227  0.039524731  0.039181974            4 
 3346000   0.72119715   -5.1127237    1593.3376  0.039682646  0.039172775            3 
 3347000   0.71014732   -5.1421051    1589.5516  0.039576527  0.039163594            8 
 3348000   0.72219521   -5.1397623    1587.1387  0.039504648  0.039154377            6 
 3349000   0.70927685   -5.1238278    1587.7262  0.039507469  0.039145217            4 
 3350000   0.71282077    -5.133927    1585.3922  0.039437618  0.039136066            7 
 3351000    0.7110704   -5.1302031    1589.1904  0.039520302   0.03912685            4 
 3352000   0.71434517   -5.1509432      1593.36  0.039612173  0.039117589            8 
 3353000   0.71366901   -5.1271407    1590.1995  0.039521808  0.039108367            6 
 3354000   0.71710588   -5.1329353    1590.3156  0.039512909  0.039099215            6 
 3355000   0.71078192      -5.1264    1588.8505  0.039464741  0.039090011            8 
 3356000   0.71184532   -5.1082913    1588.5654  0.039445902  0.039080904            4 
 3357000    0.7052618   -5.1455811    1587.9787  0.039419589  0.039071693            8 
 3358000   0.71765083    -5.147667    1587.4062  0.039393643  0.039062535            8 
 3359000   0.73071307   -5.1344102    1590.3252  0.039454332  0.039053444            9 
 3360000   0.72192628   -5.1235809    1590.7092  0.039452114  0.039044254            8 
 3361000   0.70777866   -5.1440689    1594.2474  0.039528102  0.039035135            7 
 3362000   0.70543707    -5.142668     1590.528  0.039424152  0.039026008            6 
 3363000    0.6993647   -5.1423631    1587.0227  0.039325569  0.039016885            8 
 3364000   0.71506951   -5.1139302    1588.9797  0.039362358  0.039007781            5 
 3365000   0.70106136   -5.1662123    1588.5009  0.039338803  0.038998581           10 
 3366000   0.72227453   -5.1396145     1592.039   0.03941471  0.038989391            5 
 3367000   0.72197328    -5.140066    1585.6534   0.03924496  0.038980266           11 
 3368000   0.72286994   -5.1459701    1589.1084  0.039318796  0.038971031           12 
 3369000   0.72276371    -5.154841    1592.5928  0.039393311  0.038961801           20 
 3370000   0.71695942   -5.1624277    1586.6583  0.039234873  0.038952636            6 
 3371000   0.72558222   -5.1375422    1595.1053  0.039432049  0.038943458            6 
 3372000   0.68709109   -5.1410121    1593.4721  0.039379996  0.038934269           20 
 3373000   0.72391799   -5.1367726    1590.7453  0.039300952  0.038925069            7 
 3374000    0.7123616   -5.1461674    1589.4906  0.039258314   0.03891581            6 
 3375000   0.70350672   -5.1632263    1590.7251  0.039277163  0.038906571            5 
 3376000   0.72544943   -5.1406952    1590.3122  0.039255338  0.038897297            9 
 3377000   0.70933249   -5.1322474    1592.9413  0.039308589  0.038888081            6 
 3378000   0.70548195    -5.143198    1593.0376  0.039299328  0.038878861            5 
 3379000   0.70788183   -5.1376279    1593.0469  0.039287928  0.038869682           11 
 3380000   0.72022102    -5.169368    1590.5955  0.039215866  0.038860444            5 
 3381000   0.71664902   -5.1415771    1589.0409  0.039165949  0.038851242            5 
 3382000   0.71852822    -5.145503    1591.4988  0.039214933  0.038842071            5 
 3383000   0.68014029   -5.1398563    1592.9955  0.039240209  0.038832906           27 
 3384000   0.71523226   -5.1695364    1592.2552  0.039210381  0.038823699            9 
 3385000   0.70137189   -5.1474674    1590.9995  0.039167885  0.038814475            8 
 3386000   0.72483837   -5.1316205    1593.6068  0.039220485  0.038805306            5 
 3387000   0.70168938   -5.1514308    1593.0783  0.039195903  0.038796167            9 
 3388000   0.71060685   -5.1480675    1592.7667  0.039176671  0.038786959            9 
 3389000   0.71249516   -5.1472917     1597.128  0.039272352  0.038777767            4 
 3390000   0.72125499   -5.1772819    1588.4824   0.03904824  0.038768614            7 
 3391000   0.71150075   -5.1508089    1589.9077  0.039071751  0.038759312            5 
 3392000   0.70406154   -5.1382004    1593.0704  0.039137932  0.038750107            6 
 3393000   0.71716694   -5.1302478    1591.9613  0.039099158  0.038740897           11 
 3394000    0.6982289   -5.1406023    1596.9456  0.039210017  0.038731746            5 
 3395000   0.70505301   -5.1606207    1587.2906  0.038961477  0.038722488            4 
 3396000   0.71200317   -5.1550344    1590.0424   0.03901753  0.038713238           25 
 3397000   0.71144492   -5.1547484    1596.2668  0.039158739  0.038704012           18 
 3398000   0.71603564   -5.1481279     1594.439   0.03910239  0.038694803            9 
 3399000   0.72353342   -5.1711278    1591.2785  0.039013399  0.038685512           16 
 3400000    0.7034147   -5.1408506    1587.9393  0.038920081  0.038676251            7 
 3401000   0.68919423   -5.1232972    1596.9397  0.039129171  0.038667044           13 
 3402000   0.70861971   -5.1487824    1593.3904  0.039030727  0.038657793            9 
 3403000   0.71336912   -5.1506736     1590.587  0.038950607  0.038648617           11 
 3404000   0.69974981    -5.137962    1594.7029  0.039039925  0.038639424           15 
 3405000   0.71284579   -5.1564582    1593.7049  0.039004035  0.038630264            6 
 3406000   0.70037584   -5.1501727    1593.2306  0.038980979  0.038621038            5 
 3407000   0.70467486   -5.1112877     1599.793  0.039130051  0.038611886            7 
 3408000   0.70042538    -5.139371    1593.3486   0.03896099  0.038602702           11 
 3409000   0.70616971   -5.1411783     1593.573  0.038955045  0.038593463            5 
 3410000    0.7134754   -5.1418087     1593.086  0.038931721  0.038584269            6 
 3411000   0.70186393    -5.138613    1594.8181  0.038962625  0.038575082            8 
 3412000   0.68302329   -5.1413049    1593.2615  0.038913187  0.038565912            9 
 3413000   0.71269595   -5.1389273     1596.001  0.038968674  0.038556666            5 
 3414000   0.71047208   -5.1779099    1589.7665  0.038805081  0.038547362            8 
 3415000   0.70129041   -5.1482034    1594.4999  0.038909223  0.038538041            5 
 3416000   0.70441319   -5.1557169    1596.7564  0.038952879  0.038528755            7 
 3417000   0.70330104   -5.1409866    1592.8303   0.03884573  0.038519478           12 
 3418000   0.71306749   -5.1619168    1599.2838  0.038991706  0.038510223            9 
 3419000   0.71102985   -5.1344189    1592.5523  0.038816231  0.038500929            9 
 3420000   0.69377727   -5.1421995    1591.7192   0.03878458  0.038491624            6 
 3421000   0.70981457   -5.1520884    1595.0012   0.03885319  0.038482345           15 
 3422000   0.72265314   -5.1290088    1596.0704  0.038867876  0.038473094            4 
 3423000   0.70686908   -5.1578833    1594.6826  0.038822733  0.038463835            9 
 3424000   0.70264839   -5.1438738    1590.9479  0.038720501  0.038454628            6 
 3425000   0.70035291   -5.1738069    1592.7782  0.038753728   0.03844535           13 
 3426000   0.71467109    -5.163259    1592.6824  0.038740086  0.038436029            9 
 3427000   0.70715903   -5.1588255    1597.0315  0.038834537  0.038426705           21 
 3428000   0.71661877   -5.1617868    1593.3011  0.038732523  0.038417392            7 
 3429000   0.71653004   -5.1487135    1594.9163  0.038760482  0.038408088            6 
 3430000   0.70236142   -5.1456509    1594.7894  0.038746098  0.038398731            6 
 3431000   0.71428557   -5.1693232    1593.6274  0.038706582   0.03838946            3 
 3432000   0.70536697   -5.1755664    1592.0633  0.038657325  0.038380186            9 
 3433000   0.70328956    -5.161682    1591.9928  0.038644354  0.038370869           10 
 3434000   0.69851814   -5.1635721    1592.9518  0.038656373  0.038361501            4 
 3435000   0.69151297   -5.1491825    1591.9793  0.038621525  0.038352192            4 
 3436000   0.70194871   -5.1820925    1590.1554  0.038566051  0.038342832            6 
 3437000   0.70179422   -5.1534446    1597.3731   0.03872983  0.038333489            5 
 3438000    0.6964558   -5.1650595     1596.707   0.03870242  0.038324157           13 
 3439000   0.70455796     -5.13296    1597.0143  0.038698611  0.038314877           20 
 3440000   0.70233157   -5.1781036    1597.1095  0.038689667  0.038305612            5 
 3441000    0.7137724    -5.155815    1592.6159  0.038569599  0.038296356           10 
 3442000   0.69963961   -5.1616813    1594.7438  0.038609911  0.038287117           10 
 3443000   0.69871465   -5.1648592    1593.2744  0.038563133  0.038277864            7 
 3444000   0.70522045   -5.1622062     1594.564   0.03858314  0.038268547            7 
 3445000   0.70205238   -5.1400774    1595.9306  0.038604998  0.038259311            6 
 3446000   0.69705295    -5.161895    1599.0914  0.038670232  0.038250012           10 
 3447000   0.69022022   -5.1626663    1592.2741  0.038494201  0.038240705            9 
 3448000   0.70222323   -5.1458946     1597.447  0.038608057  0.038231431            9 
 3449000   0.69183185   -5.1787824    1596.8071  0.038581403  0.038222189            7 
 3450000   0.70129946   -5.1651072    1593.1486  0.038481851  0.038213024           14 
 3451000   0.70517856   -5.1459303    1599.2168  0.038617232  0.038203826           10 
 3452000   0.69274074   -5.1664806    1596.5887  0.038542601  0.038194604            8 
 3453000   0.69518827    -5.144328    1598.0765  0.038567344   0.03818539            5 
 3454000    0.6991302   -5.1604314    1597.2909  0.038537226  0.038176165            4 
 3455000   0.71136625   -5.1602557    1597.3622  0.038527791  0.038166938            6 
 3456000   0.70119023    -5.167194    1593.3084  0.038418895  0.038157687           13 
 3457000   0.71523515   -5.1654523    1593.1372  0.038403655  0.038148331            5 
 3458000   0.69652387   -5.1524189    1596.0273  0.038462197  0.038139064           11 
 3459000   0.69517034   -5.1829059    1597.8179  0.038494217  0.038129798           14 
 3460000   0.70137293   -5.1919471    1592.9104  0.038364894  0.038120459           10 
 3461000    0.7051922   -5.1820875    1591.4358  0.038318305  0.038111153            5 
 3462000   0.70194943   -5.1699968    1594.7951  0.038388096  0.038101807            6 
 3463000   0.71006016   -5.1763705    1597.7778  0.038448788  0.038092488            8 
 3464000   0.69718586   -5.1631702    1595.9807  0.038394455   0.03808317            9 
 3465000   0.69540088    -5.178119    1597.7205  0.038425217  0.038073884            8 
 3466000      0.70544   -5.1637743    1599.8645  0.038465679  0.038064588            4 
 3467000   0.70354532   -5.1985372    1592.4133  0.038275486   0.03805526           10 
 3468000   0.69438596   -5.1742696    1595.0091  0.038326823  0.038045925            6 
 3469000   0.70328902   -5.1743586    1595.7784  0.038334255  0.038036565           11 
 3470000   0.71816711   -5.1412543    1599.1174  0.038403396  0.038027341            7 
 3471000   0.68176958   -5.1653272    1595.1787  0.038297769  0.038018064            5 
 3472000   0.69864144   -5.1846796    1594.5871  0.038272539  0.038008746            7 
 3473000   0.70200616   -5.1822311    1595.8859  0.038292685   0.03799939            4 
 3474000   0.70736263   -5.1816449    1596.4521  0.038295243  0.037990034           14 
 3475000   0.71246059   -5.1787585    1598.8581   0.03834192  0.037980742            6 
 3476000   0.71403256   -5.1793714    1594.9508  0.038237217  0.037971401           19 
 3477000   0.69970675   -5.1702576     1594.559  0.038216829  0.037962037           15 
 3478000   0.69187155   -5.1886726    1600.3546  0.038344704  0.037952728            7 
 3479000   0.69279905   -5.1707668    1597.6103  0.038267948  0.037943431            6 
 3480000   0.69517982   -5.1627302    1598.4636  0.038277384  0.037934134            6 
 3481000   0.70265704   -5.1638399    1593.3487  0.038143941  0.037924887           11 
 3482000   0.69247899   -5.1629412    1597.6363    0.0382356  0.037915663            5 
 3483000    0.6825582   -5.1780372    1597.4804  0.038220891  0.037906368            8 
 3484000   0.69588269   -5.1684186    1595.8082  0.038169925  0.037897106            8 
 3485000   0.69033748   -5.1788723    1592.2232  0.038073246  0.037887724           11 
 3486000   0.66902704    -5.174985    1594.7736  0.038123293  0.037878323           16 
 3487000   0.70764553   -5.1667637    1599.9434   0.03823591  0.037868954            7 
 3488000   0.68625457   -5.1571581    1596.1096  0.038133354  0.037859581            5 
 3489000   0.69802127   -5.1974081    1596.8946  0.038141171  0.037850219            9 
 3490000   0.70086111   -5.2044308    1591.0842  0.037991504  0.037840779           10 
 3491000   0.68622253   -5.1692169    1596.7504  0.038115879  0.037831383           18 
 3492000   0.67961249   -5.1967798    1595.2288  0.038068653   0.03782201           13 
 3493000   0.69522558   -5.1667016    1599.7631   0.03816593  0.037812698            8 
 3494000   0.68930658   -5.1956352     1591.873  0.037966825  0.037803383           10 
 3495000    0.6900816   -5.1684976    1599.3473  0.038134175  0.037793993            7 
 3496000   0.67798344   -5.2157187      1591.03  0.037925011  0.037784654           12 
 3497000   0.68605952   -5.1830231    1593.1622  0.037964975  0.037775254            6 
 3498000   0.68158415   -5.1841325    1596.6879  0.038038115  0.037765869           23 
 3499000   0.69559783   -5.1823122    1595.1395  0.037990366  0.037756514           14 
 3500000   0.68050045   -5.1858531    1592.2387  0.037910445  0.037747186            4 
 3501000     0.706347   -5.1776051    1601.6228  0.038122985  0.037737863            4 
 3502000   0.68306245   -5.1910233    1590.4731   0.03784678  0.037728536            5 
 3503000   0.68992197   -5.1780667    1596.1304  0.037970559  0.037719248            9 
 3504000   0.69317137   -5.2119833    1597.4249   0.03799051   0.03770991           11 
 3505000   0.68903966   -5.1654753     1596.405   0.03795542  0.037700543           13 
 3506000   0.68792592   -5.1977119    1594.0127  0.037887733  0.037691112           16 
 3507000   0.69286764   -5.2126471    1594.4605  0.037887569  0.037681718            8 
 3508000   0.68524917   -5.1821378    1596.3655  0.037922023  0.037672323            6 
 3509000   0.67905685   -5.2097189    1595.8176  0.037898205  0.037662971           12 
 3510000   0.69757404   -5.2170977    1594.7336  0.037861672  0.037653621           11 
 3511000   0.70544379   -5.1979764    1599.2917  0.037959074  0.037644277           20 
 3512000   0.69230195   -5.1855754    1598.8806  0.037938512  0.037634929            6 
 3513000   0.69446979   -5.2007425    1598.6396  0.037921996  0.037625608           14 
 3514000   0.67625012   -5.1862919    1600.0553  0.037944776  0.037616265            3 
 3515000   0.69077804    -5.193827    1601.5886  0.037970332  0.037606956            7 
 3516000   0.68384662   -5.1822102    1592.3768  0.037741202   0.03759764           13 
 3517000   0.67758608   -5.2073629    1594.9724  0.037791972  0.037588298            6 
 3518000   0.69290023   -5.1917489    1597.9702  0.037852241  0.037578942            6 
 3519000   0.70631632   -5.2097185    1596.8116  0.037814047  0.037569663           12 
 3520000     0.683903   -5.1768553    1600.3937  0.037888108  0.037560399           21 
 3521000   0.67694783   -5.1939896    1597.1941  0.037801621  0.037551104            6 
 3522000    0.6814966   -5.1799657    1599.4964  0.037845363  0.037541775            8 
 3523000   0.69973958   -5.1890933    1600.6864  0.037862768  0.037532451            4 
 3524000   0.69270925   -5.1818277    1599.4977  0.037823914  0.037523123            7 
 3525000   0.67875746   -5.2101046    1596.0874  0.037732564  0.037513785            8 
 3526000   0.70092444   -5.1990065    1598.3176   0.03777457  0.037504417           15 
 3527000   0.68281524   -5.2004578    1597.7937  0.037751481  0.037495031           16 
 3528000   0.68031733   -5.1979275    1597.8865  0.037742974  0.037485655           10 
 3529000   0.69578293   -5.1996737    1597.4079  0.037720977  0.037476321            8 
 3530000   0.67595965   -5.2116603     1598.743  0.037741808  0.037466937           13 
 3531000   0.69500739   -5.2027585    1601.9527   0.03780687    0.0374576           12 
 3532000   0.68099429   -5.1971548    1597.1297  0.037682372  0.037448254           14 
 3533000   0.68660845   -5.2020221    1597.9381  0.037690775  0.037438924            8 
 3534000   0.67321363    -5.167008    1601.3607  0.037760817  0.037429627           16 
 3535000   0.68631624   -5.1859475    1600.3298  0.037725832  0.037420348           12 
 3536000   0.69089269   -5.2043899    1601.0962  0.037733225  0.037411035           14 
 3537000   0.69575962   -5.2019349    1598.4593  0.037660431  0.037401681           17 
 3538000    0.6882111   -5.1759796    1605.8472  0.037823799  0.037392372            6 
 3539000   0.67683423   -5.1792765    1594.8711  0.037554654  0.037383057           10 
 3540000   0.68112467   -5.1940402    1599.4632  0.037652146  0.037373701            6 
 3541000   0.70211179   -5.1737214     1601.581  0.037691353  0.037364403            7 
 3542000   0.68623508   -5.1807579    1602.2385  0.037696181  0.037355103            7 
 3543000   0.68606447   -5.1864434    1600.6345  0.037647815   0.03734582           16 
 3544000   0.69456935   -5.2110317    1600.8337  0.037641875  0.037336452            6 
 3545000   0.68550693     -5.18531    1601.0718  0.037636854  0.037327109            8 
 3546000   0.68459412   -5.2124662    1601.4266  0.037634578  0.037317811           11 
 3547000   0.68508976   -5.2088824    1602.0865  0.037639472   0.03730846           10 
 3548000   0.70285994   -5.2014745    1601.6008  0.037617456  0.037299176            5 
 3549000   0.68524569   -5.1764417    1600.0201  0.037569741  0.037289822            7 
 3550000   0.68655112   -5.2092103    1599.3402  0.037543196  0.037280485            8 
 3551000   0.66673008   -5.1957806    1599.6359  0.037539563  0.037271142            6 
 3552000   0.69045869   -5.2341176    1597.6681  0.037482828  0.037261783            5 
 3553000   0.69267702   -5.1930262    1602.5879   0.03758767  0.037252437            7 
 3554000   0.69834694   -5.2038113    1602.8876  0.037584122  0.037243154            9 
 3555000   0.68949077   -5.1878595    1599.1519   0.03748598  0.037233865            6 
 3556000   0.67779617   -5.1952209    1600.9556  0.037517707  0.037224551            9 
 3557000   0.68822118   -5.2110103    1600.4089  0.037494352  0.037215215            7 
 3558000   0.68294796   -5.1904606    1602.2181  0.037526188  0.037205969            4 
 3559000   0.68930878    -5.207572    1598.5308  0.037429306   0.03719669            4 
 3560000   0.68131487   -5.1690637    1599.9689  0.037452455  0.037187339            4 
 3561000   0.69036219   -5.2186234    1601.6491  0.037481258  0.037178003            8 
 3562000   0.66845749   -5.1822924    1602.3527  0.037487196  0.037168715            9 
 3563000   0.66131497    -5.215838    1600.9605  0.037444113  0.037159409           15 
 3564000   0.68300002   -5.2122341    1599.3219  0.037395293  0.037150042           10 
 3565000   0.68832709   -5.2099043    1599.5645  0.037390475  0.037140726           12 
 3566000   0.66569118   -5.1984291    1600.3102  0.037397414  0.037131441            9 
 3567000   0.67420083   -5.2030526    1604.7394  0.037490408  0.037122198            6 
 3568000   0.69071809   -5.1980182    1602.3788  0.037424767  0.037112892            9 
 3569000   0.70079913   -5.2138656    1602.2615  0.037411541  0.037103624            9 
 3570000   0.69347723    -5.205531    1597.8622  0.037298371  0.037094349            7 
 3571000   0.67832671   -5.2179736    1602.2322  0.037389904  0.037085026           19 
 3572000   0.67485614   -5.1889482    1603.7071  0.037413846  0.037075698            7 
 3573000   0.68383199   -5.2346857    1601.2305  0.037345612  0.037066384           16 
 3574000    0.6868738   -5.2160584    1602.6059  0.037367233  0.037057044            6 
 3575000   0.67134703   -5.2056153    1603.3346  0.037373768   0.03704779            9 
 3576000   0.68238463    -5.205876     1602.449  0.037342678  0.037038552           14 
 3577000   0.68665011   -5.2033437    1600.9109  0.037296404  0.037029292            9 
 3578000    0.6756539   -5.2054266     1604.816  0.037376932  0.037020042           26 
 3579000   0.66875609   -5.1945974    1605.8356  0.037390229  0.037010863            5 
 3580000   0.68567916   -5.1968738    1606.9684  0.037406154  0.037001642            6 
 3581000   0.68075096   -5.2045266    1603.5657  0.037316525  0.036992415            7 
 3582000   0.69443267   -5.1990993    1601.1675  0.037250314  0.036983175            7 
 3583000    0.6801938   -5.2117128    1603.3497  0.037290672  0.036973915            5 
 3584000   0.68265667   -5.2165402    1604.0138  0.037295708  0.036964626            7 
 3585000   0.65840783   -5.2065275     1598.753  0.037163016  0.036955351            5 
 3586000   0.67028687   -5.2050878    1602.0648  0.037229614  0.036946132           12 
 3587000    0.6815217   -5.1943492    1603.4138  0.037250577   0.03693689            7 
 3588000   0.67499428   -5.2163792    1605.4995  0.037288636  0.036927624           19 
 3589000   0.68009838   -5.2173715    1603.2462  0.037225926  0.036918324           12 
 3590000    0.6835658   -5.2135106     1601.675  0.037179086  0.036908952            5 
 3591000   0.67282633   -5.1981544    1604.8151  0.037241602  0.036899604           15 
 3592000   0.68147301   -5.2123636    1606.4502  0.037269167  0.036890306            6 
 3593000   0.67803028   -5.2248834    1601.7701  0.037150247  0.036880993            9 
 3594000   0.68227581   -5.2083749    1600.0158  0.037099235   0.03687168            7 
 3595000   0.67935829   -5.1964649    1601.5743  0.037125041  0.036862322           10 
 3596000    0.6711342   -5.2152294    1601.3725  0.037110041  0.036852934           10 
 3597000   0.66075406   -5.2179492    1605.0738  0.037185475  0.036843595            6 
 3598000   0.68419195   -5.2202961    1604.9835  0.037173048  0.036834288           12 
 3599000   0.68160197   -5.2181804    1601.7622  0.037088132  0.036824981            7 
 3600000   0.66798108   -5.2117893    1598.6625  0.037006076   0.03681561           12 
 3601000   0.67383601    -5.225325    1603.8535  0.037115928  0.036806265            4 
 3602000   0.67377015   -5.2189066    1604.7841  0.037127154  0.036796947            6 
 3603000   0.67495408   -5.2097397    1602.0961  0.037054679  0.036787595           20 
 3604000   0.66906828   -5.2044602    1606.3269  0.037142224  0.036778258           12 
 3605000    0.6673191   -5.1927272    1601.3008  0.037015737  0.036768969           10 
 3606000    0.6749527   -5.2178504    1598.7399   0.03694629  0.036759568           22 
 3607000   0.67724896   -5.2281604    1600.1294   0.03696815  0.036750203            6 
 3608000    0.6676094   -5.2592298    1600.4442  0.036965174  0.036740778            6 
 3609000    0.6694242   -5.2197223    1598.9103  0.036919513  0.036731376           13 
 3610000   0.68796274   -5.2321053    1601.0617  0.036958949  0.036721988            6 
 3611000   0.67557445   -5.2344773    1597.3912  0.036864009  0.036712569            9 
 3612000   0.66356794   -5.2287315    1601.4902   0.03694837  0.036703187            9 
 3613000   0.65096011   -5.2090948    1602.4546   0.03696039  0.036693812            9 
 3614000   0.66471001   -5.2223047    1600.6973   0.03690964  0.036684449            7 
 3615000   0.68347287   -5.2345912    1603.8413  0.036971906  0.036675107            9 
 3616000   0.68607481   -5.2172029    1602.5663  0.036932298  0.036665709           13 
 3617000   0.67985681   -5.2107554    1604.4215  0.036964829  0.036656332           24 
 3618000    0.6673448   -5.2393149    1605.2383  0.036973427  0.036646924           14 
 3619000   0.67401166   -5.2173853    1602.3785  0.036897359  0.036637523            9 
 3620000   0.67732705   -5.2412646    1596.6843  0.036756085  0.036628124           26 
 3621000   0.68186027   -5.2271972    1599.1852   0.03680349  0.036618667           15 
 3622000   0.68819214   -5.2255641    1602.3198  0.036865446  0.036609245            8 
 3623000   0.67703699   -5.2307123    1599.0969  0.036781141  0.036599887            7 
 3624000   0.66487246   -5.2009194    1604.4975  0.036895178  0.036590502           18 
 3625000   0.67576457   -5.2404455    1600.9551  0.036803565  0.036581138            6 
 3626000    0.6830691   -5.2508967    1602.1067  0.036819882  0.036571738            8 
 3627000   0.66920257    -5.220289    1606.5412  0.036911617  0.036562372            7 
 3628000    0.6790093    -5.218418    1602.3636  0.036805485  0.036553013            9 
 3629000   0.67538453   -5.2441461     1599.565  0.036731077  0.036543625            7 
 3630000   0.66446457   -5.2322831    1608.2857   0.03692116  0.036534314           41 
 3631000   0.65679613   -5.2034378    1607.7955  0.036899742  0.036525016           16 
 3632000   0.67392831   -5.2148207    1603.2766  0.036785899  0.036515772           12 
 3633000   0.69132131    -5.204712    1609.2036  0.036911725  0.036506503           17 
 3634000   0.66260082   -5.2229321    1606.3116  0.036835249   0.03649727           20 
 3635000   0.65814231   -5.2291949     1606.047  0.036819051  0.036487994            9 
 3636000   0.68011216   -5.2314475    1601.0979  0.036695496  0.036478703           15 
 3637000   0.66721839   -5.2422985    1605.3188   0.03678212  0.036469407           14 
 3638000   0.65902088    -5.251329    1602.0644  0.036697462  0.036460082           12 
 3639000   0.66982789   -5.2371415    1602.0479     0.036687  0.036450794           12 
 3640000   0.67356015   -5.2154866    1603.5391  0.036711061  0.036441466           10 
 3641000   0.67102368   -5.2438842    1605.6689  0.036749723  0.036432184           12 
 3642000   0.66969795   -5.2463037    1603.8631  0.036698315  0.036422888            8 
 3643000   0.66714878   -5.2358764    1607.8166  0.036778675  0.036413605           18 
 3644000   0.67327469   -5.2560101    1601.0453  0.036613732  0.036404241           27 
 3645000   0.66450262   -5.2202233     1606.958  0.036738865  0.036394916            9 
 3646000   0.67442072   -5.2147218     1609.519  0.036787324  0.036385715            8 
 3647000   0.67909942   -5.2267025     1610.603  0.036802005  0.036376504           12 
 3648000   0.66487431   -5.2394171    1605.2482  0.036669595  0.036367323           17 
 3649000   0.66201861    -5.219246    1606.3977  0.036685798  0.036358063           11 
 3650000   0.66644017   -5.2199794    1607.6498  0.036704333  0.036348831           18 
 3651000   0.67859172   -5.2260143    1609.1804  0.036729215   0.03633958            9 
 3652000   0.67180051   -5.2307132    1603.9785  0.036600459   0.03633031           14 
 3653000   0.66643357   -5.2173984    1608.7439  0.036699149  0.036321066            6 
 3654000   0.66423513     -5.21632    1604.6183  0.036595017  0.036311816            9 
 3655000    0.6647116   -5.2120776    1608.0449  0.036663131  0.036302573            6 
 3656000   0.66944026   -5.2285313    1607.1724  0.036633216  0.036293368           12 
 3657000   0.67213813   -5.2611534    1603.5053  0.036539633  0.036284133           10 
 3658000   0.66087307   -5.2518439    1609.5911  0.036668286  0.036274907           13 
 3659000   0.66469743   -5.2410367    1609.1646  0.036648551  0.036265654            6 
 3660000   0.67060952   -5.2349079    1608.2296  0.036617249   0.03625642           12 
 3661000   0.65247143   -5.2518528    1607.5071  0.036590801  0.036247192            6 
 3662000   0.67197672   -5.2396733    1607.3175  0.036576496  0.036237984           11 
 3663000   0.66136431   -5.2549361    1605.8148  0.036532323  0.036228737            8 
 3664000   0.66669139   -5.2355145    1606.7125   0.03654277  0.036219447           20 
 3665000    0.6757781   -5.2371551    1605.6432  0.036508485  0.036210203           14 
 3666000   0.65676688   -5.2432577     1605.024  0.036484451  0.036200944            8 
 3667000   0.66720543   -5.2136548    1609.1705  0.036568733  0.036191745           14 
 3668000   0.68023294   -5.2632082    1605.6809  0.036479484  0.036182488            9 
 3669000   0.67887539   -5.2415116    1608.8955  0.036542553  0.036173295           11 
 3670000   0.65295918   -5.2428277    1611.1508  0.036583806  0.036164131           17 
 3671000   0.68295934   -5.2333212    1605.3997  0.036443288  0.036154941            7 
 3672000   0.66208598   -5.2329545    1607.3509  0.036477643  0.036145763           11 
 3673000     0.646894   -5.2593422    1605.6847   0.03642991  0.036136544            7 
 3674000   0.66155738   -5.2521308    1608.1802  0.036476598  0.036127319            6 
 3675000   0.65669658   -5.2622447    1608.0804  0.036464408  0.036118109           11 
 3676000   0.66625931   -5.2143182    1604.9959  0.036384564  0.036108866           24 
 3677000   0.65655459   -5.2581314    1609.8369  0.036484382  0.036099661           22 
 3678000   0.66106424   -5.2471277    1606.6837   0.03640302   0.03609038            9 
 3679000   0.65995261   -5.2423208    1604.5604  0.036345031  0.036081115            8 
 3680000   0.66799309   -5.2503497    1606.1245  0.036370573   0.03607185           12 
 3681000   0.67203913   -5.2498316    1607.1562  0.036384048   0.03606254            8 
 3682000   0.66334647   -5.2454408    1611.2495  0.036466809  0.036053251            8 
 3683000   0.66122956   -5.2632293    1601.8539  0.036244318  0.036043954            4 
 3684000   0.64890683   -5.2232005    1607.4733  0.036361592  0.036034697           15 
 3685000   0.65942415   -5.2354172    1604.3886  0.036281967  0.036025435           12 
 3686000   0.67288937   -5.2408433    1609.2519  0.036382074  0.036016193            7 
 3687000   0.65009885   -5.2448494    1605.2573   0.03628192  0.036006975           17 
 3688000   0.65738428   -5.2447884    1610.2624  0.036385178  0.035997767            5 
 3689000   0.65269602   -5.2626033    1608.1296  0.036327135  0.035988537            9 
 3690000   0.65697229   -5.2569503     1603.217  0.036206345  0.035979254            5 
 3691000   0.66355379   -5.2435601    1608.3023   0.03631135  0.035969951           14 
 3692000   0.66211083   -5.2714741    1605.0248  0.036227536  0.035960548           10 
 3693000   0.66313023   -5.2557908    1607.9751  0.036284302  0.035951226            7 
 3694000   0.66830943    -5.266321    1604.6683   0.03619988  0.035941919           12 
 3695000   0.67065755   -5.2721358    1607.9649  0.036264432  0.035932624           31 
 3696000    0.6499355   -5.2547198     1606.513  0.036221885  0.035923365           15 
 3697000   0.66988452   -5.2463428    1606.2447  0.036206038  0.035914067            8 
 3698000   0.67081633   -5.2474632    1609.4002  0.036267357  0.035904807            8 
 3699000   0.66177318   -5.2613358    1609.6282  0.036262689   0.03589556            8 
 3700000   0.64940286   -5.2326379    1607.5452  0.036205972  0.035886327           11 
 3701000   0.64112944   -5.2736355    1605.2435  0.036144365  0.035877044           16 
 3702000   0.66834445   -5.2327802     1614.454  0.036341932  0.035867814            9 
 3703000   0.67468396   -5.2278501      1607.39  0.036173149  0.035858624            6 
 3704000   0.66591721    -5.272915    1612.8088  0.036285294  0.035849396            9 
 3705000   0.64079539   -5.2605369    1608.5988   0.03618081  0.035840112            6 
 3706000   0.66699167   -5.2703317    1601.9895  0.036022429  0.035830875            7 
 3707000   0.65689669   -5.2614477    1607.0795  0.036127135  0.035821593           19 
 3708000   0.65834182   -5.2607226    1608.7274  0.036154427  0.035812333           16 
 3709000   0.65741208   -5.2554092    1611.8915   0.03621577  0.035803105            8 
 3710000   0.66750637   -5.2436214    1610.1761  0.036167478  0.035793896           12 
 3711000   0.65860005   -5.2622359    1607.8963  0.036106537  0.035784664           12 
 3712000   0.66948038   -5.2670055    1606.7569  0.036071232  0.035775414           16 
 3713000    0.6550755   -5.2487444     1608.138  0.036092513  0.035766117            9 
 3714000   0.65561548    -5.258141    1610.9417  0.036145702  0.035756859           12 
 3715000    0.6635873    -5.226458    1607.1627  0.036051204  0.035747658           20 
 3716000   0.65191135   -5.2612218    1607.0826  0.036039707  0.035738472           17 
 3717000   0.66046956   -5.2466183    1615.5675  0.036220238  0.035729305           20 
 3718000   0.66153439   -5.2671489    1607.9741  0.036040301  0.035720087            9 
 3719000   0.65015252   -5.2520996    1607.8923  0.036028777  0.035710889           16 
 3720000   0.64730471   -5.2808279    1605.8921  0.035974286  0.035701651            9 
 3721000   0.65213306   -5.2527437    1607.5362  0.036001438  0.035692382            7 
 3722000   0.67456769    -5.264629    1610.6398  0.036061253  0.035683193            6 
 3723000   0.64809231   -5.2782901    1606.9142  0.035968176   0.03567396           10 
 3724000   0.65269346    -5.272518    1610.0601  0.036028913   0.03566473            6 
 3725000   0.65506506     -5.27351    1612.9507  0.036083907  0.035655575            8 
 3726000    0.6714015   -5.2703988    1612.5209  0.036064612  0.035646378           10 
 3727000   0.65270077   -5.2635429    1608.1872  0.035958036  0.035637183            7 
 3728000   0.64715635   -5.2702436    1616.6327  0.036137175  0.035628009            7 
 3729000   0.64502712   -5.2468159     1608.436  0.035944311  0.035618823            5 
 3730000   0.65858474   -5.2556081    1611.2546  0.035997644  0.035609665            8 
 3731000   0.65147936   -5.2628463    1612.1024  0.036006933  0.035600516           36 
 3732000   0.65399934   -5.2733556    1608.9484  0.035926858  0.035591314            6 
 3733000   0.65797996   -5.2600732    1610.1073  0.035943104  0.035582143            7 
 3734000   0.65861035   -5.2805074    1613.2646  0.036003941  0.035573008            5 
 3735000   0.65353071    -5.271907    1611.5564  0.035956189  0.035563804            7 
 3736000   0.65817786   -5.2897785    1610.7689  0.035928999   0.03555463           11 
 3737000   0.66488839   -5.2657329    1614.9665  0.036012989  0.035545468           16 
 3738000   0.65543455    -5.254938    1609.5202  0.035881939  0.035536358           10 
 3739000   0.64870354   -5.2613228    1610.7647  0.035900079   0.03552723            7 
 3740000   0.66404336    -5.264677    1611.0821  0.035897551  0.035518119            6 
 3741000   0.64604167   -5.2574055    1610.5538  0.035876186  0.035508972            5 
 3742000   0.65591142    -5.268157    1608.6566  0.035824349  0.035499804            8 
 3743000   0.66404708   -5.2683814    1612.8155  0.035907371  0.035490603            8 
 3744000   0.64612856   -5.2909817     1610.625  0.035849025  0.035481361            5 
 3745000   0.65299477   -5.2656461    1609.9449   0.03582432  0.035472131           14 
 3746000   0.64275008   -5.2747651    1612.8358  0.035879067  0.035462983            7 
 3747000   0.64752055    -5.269195    1611.0221  0.035829155  0.035453764           19 
 3748000     0.651635    -5.288341    1610.0726  0.035798484  0.035444595           14 
 3749000    0.6534248   -5.2721856    1607.5981  0.035733931  0.035435471           10 
 3750000   0.64316584   -5.2802974    1609.2965  0.035762144  0.035426281           16 
 3751000   0.66132496   -5.2491682    1610.3712  0.035776487   0.03541714            9 
 3752000   0.64258266   -5.2796239    1612.3153  0.035810129  0.035408013           14 
 3753000   0.65082575   -5.2876979    1612.5268  0.035805285  0.035398795           17 
 3754000   0.65818593    -5.295179    1608.9069  0.035715389  0.035389585           15 
 3755000   0.65334026   -5.2743508    1613.3197  0.035803811  0.035380389            8 
 3756000   0.64596631   -5.2894536    1608.7052  0.035691898  0.035371211            5 
 3757000    0.6525745   -5.2725904    1614.4308  0.035809397  0.035362048           10 
 3758000   0.65045999   -5.2589771    1612.0965  0.035748104  0.035352958            6 
 3759000   0.63846221   -5.2642922    1609.1485   0.03567324  0.035343851            9 
 3760000   0.65276403   -5.2653051    1613.8497  0.035767945  0.035334771           14 
 3761000   0.63356411   -5.2619547    1615.8931   0.03580371  0.035325679           12 
 3762000   0.65686835   -5.2843277     1609.809  0.035659423  0.035316571           11 
 3763000   0.66041611   -5.2741195    1617.4465  0.035819083  0.035307426            7 
 3764000   0.65789931   -5.2612418    1615.7917   0.03577293  0.035298342            6 
 3765000   0.64739777   -5.2782287    1609.7264  0.035629182  0.035289292            6 
 3766000   0.65480787   -5.2840494    1612.0567  0.035671284  0.035280206            9 
 3767000   0.64496584   -5.2832265    1613.4023  0.035691582  0.035271104            8 
 3768000   0.65309842   -5.2944811    1613.0521  0.035674366   0.03526199            8 
 3769000   0.65295528   -5.2447486    1609.1637  0.035578926  0.035252862            7 
 3770000   0.65990218   -5.2652352    1617.3865  0.035751248  0.035243834            9 
 3771000   0.65226548   -5.2791312    1616.2238  0.035716074  0.035234777           18 
 3772000   0.65106406    -5.273505    1613.1352  0.035638371  0.035225729            6 
 3773000   0.63070181   -5.2830936    1611.7723  0.035598822  0.035216659            6 
 3774000   0.65743566   -5.2748576    1611.8657  0.035591452  0.035207565            9 
 3775000      0.64698   -5.3086449    1615.1502  0.035654529  0.035198473           10 
 3776000   0.64504924   -5.2933767    1615.5314    0.0356535  0.035189376            8 
 3777000   0.63954548   -5.2815506     1615.351   0.03564008  0.035180304           10 
 3778000   0.63828938   -5.2706156    1612.8935  0.035576441  0.035171212           15 
 3779000   0.64772004   -5.2801482    1610.5688  0.035515763  0.035162067           15 
 3780000   0.65345763   -5.2858966    1614.2932  0.035588474  0.035152941           33 
 3781000   0.65660612   -5.2691683    1614.2866  0.035578916  0.035143827           28 
 3782000   0.65000395   -5.2563349    1616.2619  0.035613033  0.035134722            5 
 3783000   0.65104635   -5.2803308    1615.4626  0.035586011  0.035125649            7 
 3784000   0.65153028   -5.2528451    1613.1264   0.03552516  0.035116584            6 
 3785000   0.65455674   -5.2929076    1614.4061  0.035543947  0.035107536            7 
 3786000   0.64766852   -5.2757382    1611.3212  0.035466659  0.035098421           12 
 3787000   0.63205264   -5.2894334     1613.887  0.035513754  0.035089356            8 
 3788000   0.64491212   -5.2704501    1613.5732  0.035497475   0.03508033            7 
 3789000   0.64850727   -5.2812701    1610.9966  0.035431438  0.035071315            7 
 3790000   0.64657862   -5.2672035    1618.4505  0.035585983  0.035062264           12 
 3791000   0.65718285   -5.2990636    1611.9258   0.03543317  0.035053222           21 
 3792000   0.64120655   -5.2692049    1617.9094  0.035555322  0.035044198           20 
 3793000    0.6386745   -5.2727527    1614.4812  0.035470631  0.035035127           12 
 3794000    0.6461431   -5.2630971    1614.3797  0.035459051   0.03502606           17 
 3795000   0.64075011   -5.2996008     1612.886  0.035416909  0.035016957           11 
 3796000   0.63499121   -5.2869932    1613.6749  0.035424898  0.035007899            8 
 3797000   0.63086402   -5.2744094    1616.8455  0.035485153  0.034998838           17 
 3798000   0.64813206   -5.2582142    1617.8107  0.035496988   0.03498982           17 
 3799000   0.65403163   -5.2727855    1615.1648  0.035429605  0.034980794            7 
 3800000   0.65214104   -5.2753228    1615.6791  0.035431558  0.034971759           10 
 3801000   0.64807587   -5.2628203     1614.987  0.035407063  0.034962736            7 
 3802000   0.65195399   -5.2815203    1614.9893  0.035397801  0.034953702            7 
 3803000    0.6473066   -5.2670243    1617.6911  0.035447697  0.034944698            9 
 3804000   0.65792467   -5.2875521      1613.35  0.035343279  0.034935664            6 
 3805000   0.63317322    -5.296489    1612.0454  0.035305419  0.034926611           20 
 3806000   0.64501105   -5.2772656    1611.7095  0.035288787   0.03491757           13 
 3807000   0.64131963   -5.2789815    1621.6646  0.035497429  0.034908513           12 
 3808000   0.63666421   -5.2848328    1614.1111   0.03532281  0.034899481           10 
 3809000   0.64260348   -5.2894263    1615.5307  0.035344593  0.034890461            8 
 3810000   0.64516155   -5.2746119    1616.7334  0.035361622  0.034881439           19 
 3811000   0.64007345   -5.2855866    1613.8316  0.035288891  0.034872442           15 
 3812000   0.65129118   -5.2888606     1619.413  0.035401648   0.03486343           10 
 3813000   0.62774618   -5.2743631    1614.1562  0.035277476    0.0348544           18 
 3814000    0.6374497   -5.2810899    1616.7698  0.035325333   0.03484536            7 
 3815000   0.64135697   -5.3152196    1617.5974   0.03533415  0.034836307           10 
 3816000   0.63799111   -5.2822057     1615.716  0.035283806  0.034827269           10 
 3817000    0.6393531   -5.2997698    1614.4068  0.035245979  0.034818241           10 
 3818000   0.64007387   -5.3022376    1613.5439  0.035217912  0.034809179            6 
 3819000   0.63975297   -5.2864138    1621.8296   0.03538949  0.034800057            9 
 3820000   0.64533572   -5.2954386    1620.6138  0.035353705  0.034790995           10 
 3821000   0.64888233   -5.3001426    1616.8862  0.035263156  0.034781948            7 
 3822000   0.63230044   -5.3121379     1616.675  0.035249323  0.034772891            9 
 3823000   0.64388132   -5.2796521    1619.2132  0.035295431  0.034763814           12 
 3824000   0.65812274   -5.3256882     1613.745  0.035167036  0.034754778            7 
 3825000   0.63029166   -5.2922948    1617.4606  0.035238792  0.034745761           18 
 3826000   0.64152805   -5.2741391    1618.6113  0.035254646  0.034736757            8 
 3827000   0.62026592   -5.3165195    1608.1603  0.035017862  0.034727697           17 
 3828000   0.63726208   -5.3001218    1611.4425  0.035080166  0.034718625            7 
 3829000   0.64076179   -5.2908303    1615.9998  0.035170188  0.034709563            8 
 3830000   0.64806629   -5.3091065    1613.5732  0.035108207   0.03470053           11 
 3831000   0.64806169   -5.2979423    1614.0382  0.035109158  0.034691486            8 
 3832000   0.64602551   -5.3044433    1613.6308  0.035091136  0.034682465           16 
 3833000   0.65216119   -5.3042795    1617.0796  0.035156961  0.034673454           18 
 3834000   0.61948051   -5.2857629    1615.7869  0.035119694  0.034664482           12 
 3835000   0.63912304   -5.2971633    1615.6206  0.035106923  0.034655526           28 
 3836000   0.62845726   -5.2910816    1616.1607  0.035109505  0.034646518           32 
 3837000   0.62953043   -5.3099214    1616.0512  0.035097975  0.034637554           44 
 3838000   0.64223784   -5.3037341    1616.8236  0.035105601  0.034628572           18 
 3839000   0.63176766   -5.2981958    1619.2675  0.035149507  0.034619594            8 
 3840000   0.62770862   -5.2893414    1617.3349  0.035098414  0.034610591           13 
 3841000   0.64220994   -5.2820532    1619.4118  0.035134335  0.034601599           10 
 3842000   0.63592297   -5.2928887    1616.3972  0.035059804  0.034592651            6 
 3843000   0.62688402   -5.2778501    1620.5016  0.035139683  0.034583701            7 
 3844000   0.63645483   -5.3259165     1619.927  0.035118085  0.034574743           12 
 3845000   0.64038363   -5.3278027    1615.8333  0.035020228   0.03456574            6 
 3846000   0.62824696   -5.3220168    1611.4671  0.034916518  0.034556688           25 
 3847000   0.63125672   -5.3100889    1617.5637  0.035039505  0.034547635            9 
 3848000   0.63958262   -5.3229564    1615.9517   0.03499549  0.034538593            7 
 3849000   0.63871537   -5.3370301    1615.4209  0.034974905   0.03452954           18 
 3850000   0.62906691   -5.3047607    1618.5154  0.035032801  0.034520534           11 
 3851000   0.63095978   -5.3091468    1620.8096  0.035073348  0.034511579           16 
 3852000   0.63100056   -5.2945242    1616.4757  0.034970485    0.0345026            7 
 3853000   0.63652191   -5.3135903    1618.2631  0.035000067   0.03449361            9 
 3854000   0.62915407   -5.3268457    1613.4316  0.034886515  0.034484628           19 
 3855000   0.64021123   -5.3228026      1613.48  0.034878513  0.034475625           23 
 3856000   0.64566743   -5.3082017     1619.013  0.034989042  0.034466582            8 
 3857000   0.64613462   -5.2973792    1617.0415  0.034937376  0.034457585            8 
 3858000   0.64184422   -5.3079481    1615.3404  0.034891577  0.034448603           36 
 3859000   0.64200479   -5.2867119    1619.4976  0.034972308  0.034439642           17 
 3860000   0.64748955   -5.3156418    1613.5232  0.034834266  0.034430637           12 
 3861000   0.62736805   -5.3226723    1615.4219  0.034866224  0.034421617           17 
 3862000   0.63238338   -5.3053411    1617.3421  0.034898631  0.034412628            7 
 3863000   0.63202054   -5.3157932     1621.332  0.034975668  0.034403659           14 
 3864000   0.62452076   -5.2986022    1619.5521  0.034928229  0.034394649           10 
 3865000   0.63622809   -5.3128216    1616.5387  0.034854219  0.034385664            9 
 3866000   0.63836537   -5.3186261    1617.1397  0.034858159  0.034376695           10 
 3867000   0.64514577   -5.3043918    1617.0971  0.034848227  0.034367712            9 
 3868000   0.63172132    -5.324608    1613.0911  0.034752911  0.034358758           13 
 3869000    0.6300907   -5.3298671    1614.8466   0.03478174  0.034349768           16 
 3870000   0.63873181   -5.2953212    1617.4109   0.03482797  0.034340811           17 
 3871000    0.6293194   -5.3285198     1614.968  0.034766383  0.034331803           17 
 3872000    0.6181585   -5.3149272    1617.5484  0.034812939  0.034322843           14 
 3873000   0.64528048   -5.3162865    1617.0575  0.034793388  0.034313885           13 
 3874000   0.62585763   -5.3245823    1616.0621  0.034762996  0.034304895           17 
 3875000   0.62083551   -5.3234891    1615.2076  0.034735647  0.034295882           16 
 3876000   0.62165522   -5.3384321    1612.6702  0.034672131  0.034286852           11 
 3877000   0.63398037   -5.3108293    1615.5085  0.034724197  0.034277826           13 
 3878000   0.63509798   -5.3194275     1616.562  0.034737881  0.034268843            7 
 3879000   0.61865125   -5.3365339    1614.9479  0.034694249  0.034259865            7 
 3880000   0.62268148   -5.3042897    1618.0173   0.03475123  0.034250919            9 
 3881000   0.64256752   -5.3225449    1612.8405   0.03463112  0.034241981           13 
 3882000   0.63778366   -5.3077519    1614.3185  0.034653927  0.034233015            9 
 3883000   0.61896249   -5.3211268    1619.6175  0.034758723  0.034224037           16 
 3884000   0.62642571    -5.322527    1616.2872  0.034678322  0.034215084           14 
 3885000   0.63746437   -5.3227465    1618.8963  0.034725361  0.034206125           19 
 3886000   0.63209336   -5.2812181    1615.8504  0.034651107  0.034197165           11 
 3887000   0.64180284   -5.3218018    1618.0643  0.034689656  0.034188227           14 
 3888000   0.62409403   -5.3056007    1621.3766  0.034751728  0.034179322           17 
 3889000   0.63376027   -5.3099448    1616.8716  0.034646258  0.034170402           10 
 3890000    0.6260537   -5.3325125    1618.9423  0.034681711    0.0341615            6 
 3891000   0.63525606   -5.3085131    1618.6521  0.034666583  0.034152562           10 
 3892000   0.62635503    -5.327123    1618.0093  0.034643913  0.034143585            8 
 3893000    0.6234121    -5.346327    1617.3222  0.034620305  0.034134553           13 
 3894000    0.6313941    -5.350114    1616.8486   0.03460128  0.034125546            8 
 3895000   0.63746532   -5.3301907    1615.2614  0.034558439  0.034116567           11 
 3896000   0.62859964   -5.3400318    1616.8684  0.034583941  0.034107556           12 
 3897000   0.63239791   -5.3248066    1617.1502  0.034581093  0.034098569           26 
 3898000   0.62057259   -5.3250704    1617.1225  0.034571628  0.034089581            9 
 3899000   0.63733316   -5.3149657    1616.5193  0.034549869   0.03408064           26 
 3900000   0.61801362   -5.3310685    1615.1733   0.03451225  0.034071697           19 
 3901000    0.6090332   -5.3136425    1618.0366   0.03456457  0.034062742           11 
 3902000    0.6291794   -5.3262187    1616.3164  0.034518973  0.034053784           31 
 3903000   0.62884609   -5.3101322    1617.4482  0.034534294  0.034044832           11 
 3904000    0.6111414   -5.3213874    1617.4627  0.034525757  0.034035891           10 
 3905000   0.64494161   -5.3217042    1618.5505   0.03454013  0.034026873            9 
 3906000    0.6276656    -5.329799     1615.269  0.034461277  0.034017885            7 
 3907000   0.62300334   -5.3468489    1616.0308  0.034468705  0.034008844            8 
 3908000   0.64336937   -5.3359417    1613.7668  0.034411608  0.033999827           11 
 3909000   0.63406036   -5.3226432     1618.701  0.034507994  0.033990867           18 
 3910000   0.64226881   -5.3380314    1615.3273  0.034427266  0.033981879            5 
 3911000   0.60619861   -5.3481613    1617.5917  0.034466712  0.033972854            8 
 3912000   0.62291111   -5.3146246    1616.1672  0.034427555  0.033963905           13 
 3913000   0.63178288   -5.3504173    1619.0522  0.034480199  0.033954928           21 
 3914000    0.6254529   -5.2942896    1621.0624  0.034514189  0.033945997            9 
 3915000   0.63597442   -5.3242562    1618.7322  0.034455773  0.033937061           29 
 3916000   0.62503361   -5.3249524    1616.5604  0.034400759  0.033928074           20 
 3917000   0.61449678   -5.3275438     1616.777  0.034396584  0.033919097           18 
 3918000   0.64403091   -5.3297706     1619.509  0.034445913  0.033910133           13 
 3919000   0.62702772   -5.3386712    1617.2747  0.034389613  0.033901198           24 
 3920000   0.64095706   -5.3433156    1616.6835  0.034368271  0.033892237            9 
 3921000   0.62050745   -5.3298094    1614.8556  0.034320658   0.03388327            9 
 3922000   0.63109249   -5.3463579    1617.9014  0.034376624  0.033874309           12 
 3923000    0.6237534   -5.3339675    1616.1093  0.034329793  0.033865342           12 
 3924000   0.62896316   -5.3415778    1617.4261  0.034349009  0.033856322           12 
 3925000    0.6246862   -5.3421386    1616.3926  0.034318315  0.033847314           11 
 3926000   0.62178879     -5.32627    1618.0976  0.034345763  0.033838268            7 
 3927000   0.62423097   -5.3382825    1618.7355  0.034350554  0.033829302           11 
 3928000   0.61573226   -5.3506375    1611.5972  0.034190369   0.03382035           13 
 3929000    0.6270478   -5.3361801    1615.1699  0.034257442  0.033811372           15 
 3930000   0.61828979   -5.3222965    1618.5408  0.034320203  0.033802399            8 
 3931000   0.63109466   -5.3622339    1614.6779  0.034229583  0.033793395           15 
 3932000   0.62636994   -5.3444584    1614.6228   0.03421971  0.033784342           18 
 3933000   0.61533316   -5.3480857    1613.8074  0.034193733  0.033775346            6 
 3934000   0.61072302   -5.3431634     1617.476  0.034262752  0.033766344           15 
 3935000   0.62259459   -5.3363081    1617.5361  0.034255317   0.03375739           14 
 3936000   0.61964349    -5.315377    1612.0677  0.034130838  0.033748428            7 
 3937000   0.61805904   -5.3164711    1614.7271  0.034178459   0.03373952           12 
 3938000   0.61114553   -5.3246066    1617.7838  0.034234463  0.033730551           20 
 3939000   0.62396814   -5.3311735    1616.8101  0.034205173  0.033721597           21 
 3940000   0.60512585   -5.3489602    1617.8292  0.034218045  0.033712617            7 
 3941000   0.63169773   -5.3461783     1615.268  0.034155207  0.033703658            8 
 3942000   0.63476239    -5.324768    1618.5883  0.034216731  0.033694689           11 
 3943000    0.6236284      -5.3542      1612.64  0.034082341  0.033685681           16 
 3944000   0.62927172   -5.3368384    1617.9897  0.034186733  0.033676701           13 
 3945000   0.62099953   -5.3519513     1615.401  0.034123384  0.033667732           14 
 3946000   0.62779985   -5.3080269    1621.0111  0.034233213  0.033658778           16 
 3947000   0.62281558   -5.3398722    1619.4916  0.034192458  0.033649854           18 
 3948000   0.62047846   -5.3532628    1617.1633  0.034134653  0.033640909            7 
 3949000   0.60621411   -5.3370371    1618.8694  0.034162012  0.033631969           19 
 3950000   0.61985159    -5.339012    1613.5234  0.034040578  0.033623024            8 
 3951000   0.62479713   -5.3268771    1620.9358  0.034188303  0.033614096            7 
 3952000   0.62522247   -5.3483716    1618.8506  0.034135682  0.033605164            5 
 3953000   0.62326378   -5.3440038    1612.8652  0.034000868  0.033596252           12 
 3954000   0.61759336   -5.3559925    1617.3945  0.034087727  0.033587313            9 
 3955000   0.61664668    -5.344953    1612.4455  0.033974831  0.033578356            8 
 3956000   0.63065635   -5.3624062    1623.9215  0.034207986  0.033569385            5 
 3957000   0.61975289   -5.3241792    1618.1507   0.03407781  0.033560408            5 
 3958000   0.61525387   -5.3488639    1620.4075  0.034116715  0.033551484            8 
 3959000    0.6158977   -5.3359906    1617.1552   0.03403964  0.033542567           20 
 3960000   0.62541006    -5.344128    1618.2712  0.034054528  0.033533638           17 
 3961000   0.61454882   -5.3491386    1615.5413  0.033988499  0.033524681            8 
 3962000    0.6166435   -5.3547252    1618.5638  0.034043493   0.03351568           11 
 3963000   0.60908725   -5.3488828    1618.7568   0.03403896  0.033506696            8 
 3964000     0.621154   -5.3578396     1618.117  0.034016923   0.03349771            6 
 3965000   0.61803085   -5.3534297    1613.8779   0.03391925  0.033488718           15 
 3966000   0.61722375   -5.3310786     1616.098  0.033957347  0.033479739           10 
 3967000    0.6113111   -5.3415481    1615.1883  0.033929675  0.033470774            9 
 3968000    0.6083071   -5.3746498    1613.3281  0.033882058   0.03346178           14 
 3969000   0.61079054   -5.3511822    1617.5517    0.0339622  0.033452783            8 
 3970000   0.61134871   -5.3274171    1617.7071  0.033956907  0.033443798            7 
 3971000   0.62398933   -5.3656281    1618.3536  0.033961923  0.033434853           23 
 3972000   0.63049443   -5.3716179    1613.3672  0.033848757  0.033425883           17 
 3973000   0.61352321   -5.3619218    1619.1609  0.033961761  0.033416918            8 
 3974000   0.61421538   -5.3563017    1617.2126  0.033912359  0.033408026            9 
 3975000   0.60746656   -5.3497062    1617.3429  0.033906559  0.033399076           19 
 3976000   0.60480295   -5.3585996    1614.7695  0.033844097  0.033390118            7 
 3977000    0.6251573   -5.3567013    1616.1138  0.033863754  0.033381126           37 
 3978000   0.60563323   -5.3222285    1617.8136  0.033890849  0.033372161           21 
 3979000   0.62135168   -5.3584362    1614.8038  0.033819298  0.033363204           31 
 3980000   0.63246744   -5.3546025    1615.8415  0.033832527  0.033354258           11 
 3981000   0.61701401   -5.3553591    1617.5898  0.033860626  0.033345313            9 
 3982000   0.61084313   -5.3641999    1615.4646  0.033807647  0.033336401            8 
 3983000   0.61957944    -5.361124    1622.6345   0.03394917   0.03332748           11 
 3984000   0.61808851   -5.3371427    1616.5113  0.033812569  0.033318582           10 
 3985000   0.61557483   -5.3692144    1619.0463  0.033857096  0.033309629           14 
 3986000   0.61617518   -5.3519034    1619.7362  0.033863024  0.033300691           11 
 3987000   0.61059477   -5.3682259    1614.7654  0.033750635  0.033291778           18 
 3988000   0.61930864   -5.3568271    1616.0728  0.033769492  0.033282856           13 
 3989000   0.60465075   -5.3651169    1619.5714  0.033834115  0.033273965           23 
 3990000   0.61827656   -5.3570497    1615.4779  0.033740141  0.033265054           20 
 3991000   0.62061238   -5.3556562    1620.6493  0.033839667  0.033256138           11 
 3992000   0.62238537   -5.3640729    1613.5554  0.033683104  0.033247204           21 
 3993000    0.6032922   -5.3285627    1619.9557  0.033808241  0.033238305            9 
 3994000   0.62351835    -5.360159    1619.5734  0.033791799  0.033229429           23 
 3995000   0.61053175   -5.3507638    1619.0608   0.03377265  0.033220521           13 
 3996000   0.60217367   -5.3388583     1617.137  0.033724079  0.033211625           22 
 3997000   0.60876756   -5.3718684    1617.3105  0.033719257  0.033202764           12 
 3998000   0.60873723   -5.3576097    1616.4347   0.03369257  0.033193883           26 
 3999000   0.61180574   -5.3608796    1619.5136  0.033748304  0.033185025           15 
 4000000    0.6172616   -5.3509452    1621.2028  0.033775058  0.033176127            9 
 4001000   0.61548821   -5.3381746    1620.8629  0.033759537  0.033167269           14 
 4002000   0.60520902   -5.3778534    1620.5852  0.033745319  0.033158369           14 
 4003000   0.61911806   -5.3625698    1617.7746  0.033678378  0.033149499            8 
 4004000   0.60574099   -5.3507508     1622.841  0.033775412  0.033140642           15 
 4005000   0.61166112   -5.3663179    1614.6809  0.033597189  0.033131716           19 
 4006000   0.61529955   -5.3735966    1619.3284  0.033685481   0.03312281            9 
 4007000   0.61164735   -5.3762053    1616.5686  0.033619679  0.033113938           40 
 4008000   0.62618857   -5.3484102     1619.006  0.033661968  0.033105088            9 
 4009000   0.61087169   -5.3817841    1619.3033   0.03365975  0.033096233           14 
 4010000    0.6151393   -5.3581931    1615.2894  0.033567943  0.033087354           11 
 4011000   0.61378049   -5.3479478     1620.216   0.03366193  0.033078496           11 
 4012000   0.60396265   -5.3807118    1615.4838  0.033555246  0.033069617           12 
 4013000   0.61052532   -5.3662802    1615.7148  0.033551683  0.033060763           21 
 4014000    0.6156976   -5.3630142    1615.2101  0.033532846   0.03305191           17 
 4015000   0.60738126   -5.3774252    1619.9066  0.033621971  0.033043082            8 
 4016000   0.60470676   -5.3399694     1618.899  0.033592692  0.033034241           12 
 4017000   0.60648453   -5.3406664    1620.3657  0.033614756  0.033025418            7 
 4018000   0.58985495   -5.3822499    1617.9931  0.033557181  0.033016599           22 
 4019000   0.60053304   -5.3713874    1616.2574  0.033512844  0.033007776           12 
 4020000    0.6204506   -5.3549167    1616.5297  0.033510151  0.032998935            6 
 4021000   0.60700887    -5.387574    1615.6414  0.033483408  0.032990084           20 
 4022000   0.61159975    -5.355611    1618.7569  0.033539634  0.032981212            5 
 4023000   0.60429779   -5.3730053    1615.9981  0.033474151  0.032972341           19 
 4024000   0.60856257   -5.3758613    1612.6449   0.03339639  0.032963462           18 
 4025000   0.61993043    -5.378782    1618.1965  0.033503032  0.032954591           15 
 4026000   0.59666547   -5.3548159    1615.5748  0.033440444  0.032945712           11 
 4027000   0.62173128   -5.3571388    1618.6039  0.033494825   0.03293685           16 
 4028000   0.60089657   -5.3631853    1618.6016  0.033486461  0.032928018            7 
 4029000   0.60305195   -5.3452773    1621.5319  0.033538759  0.032919163           13 
 4030000   0.60531701   -5.3755641    1618.3598  0.033464843  0.032910347           22 
 4031000   0.60325268    -5.382837    1620.1015  0.033492548  0.032901516           13 
 4032000   0.61819834   -5.3747244    1617.4602  0.033429649  0.032892689           16 
 4033000   0.62035044   -5.3748821    1617.9598  0.033431684  0.032883874           22 
 4034000    0.6179885   -5.3860924     1617.759  0.033419248  0.032875048           24 
 4035000   0.60014958   -5.3788963    1616.4784  0.033384518  0.032866179           11 
 4036000   0.60750801   -5.3881317    1618.8771  0.033425775  0.032857302           21 
 4037000    0.6010829   -5.3546853    1619.4265  0.033428836  0.032848439           11 
 4038000   0.60906879   -5.3763853    1617.7031   0.03338499  0.032839605           13 
 4039000   0.61260119   -5.3900639     1618.034  0.033383551   0.03283079           11 
 4040000   0.61258463   -5.3756541    1617.0279  0.033354536  0.032821934            9 
 4041000   0.59894249   -5.3639637    1620.3908  0.033415632  0.032813092            5 
 4042000   0.60076189   -5.3681837    1622.4428  0.033449671  0.032804308            7 
 4043000   0.60204705   -5.3532068    1620.7464  0.033406431  0.032795577           11 
 4044000   0.60276282   -5.3860196    1621.8333  0.033420567  0.032786781           13 
 4045000   0.61482745   -5.3609689     1617.871  0.033330676  0.032777951           12 
 4046000   0.60212454   -5.3870771    1617.5957  0.033316768  0.032769155           11 
 4047000   0.60249352   -5.3978663    1618.9099  0.033335597  0.032760347           18 
 4048000   0.61154808   -5.3625672    1620.7767  0.033365792  0.032751546           25 
 4049000   0.59995453   -5.3877704    1621.5311  0.033373078   0.03274276           16 
 4050000   0.60852247   -5.3660804    1620.6335  0.033346368  0.032733975           16 
 4051000   0.59022792   -5.3875931    1620.5481   0.03333638  0.032725181           11 
 4052000   0.61789629   -5.3647346     1620.815  0.033333642  0.032716369           15 
 4053000   0.60114473   -5.3675912    1615.5023  0.033216183  0.032707552           18 
 4054000   0.60874016   -5.3601775    1619.2688  0.033285414   0.03269877            7 
 4055000   0.60772378   -5.3800662    1622.9078  0.033351989  0.032689955           12 
 4056000   0.59537476   -5.3793211    1615.0385  0.033182086  0.032681139           16 
 4057000   0.59480201   -5.3845703    1616.9899  0.033213991  0.032672308           15 
 4058000   0.59441848   -5.3917954    1617.7772  0.033221973  0.032663429           31 
 4059000   0.59299849   -5.3777907    1614.9861  0.033156486  0.032654569           25 
 4060000   0.60695821   -5.3957727     1616.044  0.033170032  0.032645695           29 
 4061000    0.6010616   -5.3731821    1617.1043  0.033183623  0.032636815           10 
 4062000   0.59795284   -5.3869735     1615.617  0.033144942  0.032627927           15 
 4063000   0.60151867   -5.3814949    1617.9495  0.033184623  0.032619078            8 
 4064000   0.59969088   -5.4155805    1614.0988  0.033097498  0.032610216            9 
 4065000   0.60190589   -5.3758071    1618.8791  0.033187353  0.032601389           12 
 4066000   0.59635334   -5.4052605    1618.4231  0.033169846  0.032592541            7 
 4067000   0.61533068   -5.3959818    1613.9932  0.033070919   0.03258369           14 
 4068000   0.58838867   -5.4025513    1613.6083  0.033054907   0.03257479           18 
 4069000   0.59858507   -5.3993893    1616.5767  0.033107575  0.032565931            7 
 4070000   0.59199545   -5.3977441    1616.0796  0.033089263   0.03255706            8 
 4071000   0.59357242   -5.4008899    1620.0006  0.033161398  0.032548223           16 
 4072000   0.59007132   -5.3926663     1618.459  0.033121706  0.032539402           18 
 4073000   0.59695142   -5.3892054    1616.1306  0.033065934    0.0325306           13 
 4074000    0.6046697   -5.3630369    1619.3669  0.033124015   0.03252179           16 
 4075000   0.60802296    -5.388192    1619.1216  0.033110872  0.032512983           13 
 4076000   0.61038621   -5.4051617    1616.3704  0.033046499  0.032504159           10 
 4077000   0.59722356   -5.4134475    1619.9492  0.033111544  0.032495315           29 
 4078000   0.59333772   -5.3917007    1611.9925   0.03294083   0.03248646            7 
 4079000   0.60033754    -5.381884    1615.9535  0.033013678  0.032477645           15 
 4080000    0.6015023   -5.3821331    1619.1997  0.033071889  0.032468868           22 
 4081000   0.60558597   -5.3861534    1620.7766  0.033095986  0.032460103           18 
 4082000   0.60371312   -5.3954107    1616.2699  0.032995874  0.032451307           15 
 4083000   0.58858702    -5.403899    1617.4698  0.033012282  0.032442516           11 
 4084000   0.59783214   -5.3772515    1616.0469  0.032975164  0.032433696            7 
 4085000   0.60657665   -5.3810105    1621.1162  0.033070506  0.032424923           12 
 4086000   0.59650812   -5.3896141     1614.566  0.032928823  0.032416129           12 
 4087000   0.59937725   -5.4043217    1613.6665  0.032902425  0.032407327           13 
 4088000   0.59454234   -5.3650245    1619.8261  0.033019938   0.03239852            7 
 4089000   0.59252111   -5.3907084    1619.7015  0.033009323  0.032389741            7 
 4090000   0.59609041   -5.3972505    1619.4889  0.032996921  0.032380943           16 
 4091000   0.61118131   -5.4056416    1619.9292  0.032997824   0.03237214           27 
 4092000   0.59534844   -5.3910639    1618.7788  0.032966332  0.032363347           17 
 4093000   0.58899259   -5.3752822     1614.899  0.032879285  0.032354552           14 
 4094000   0.59889101   -5.3797364    1622.7545  0.033031154   0.03234578            7 
 4095000   0.59728677   -5.4101972    1617.9432  0.032925176  0.032337032           11 
 4096000   0.59750852   -5.3879716    1619.7947  0.032954807  0.032328268           17 
 4097000   0.61367751   -5.3817113    1618.9775  0.032930142  0.032319554            9 
 4098000   0.59328295    -5.384779    1619.8419  0.032939684    0.0323108           12 
 4099000   0.59343289   -5.3866649    1615.7715  0.032848896  0.032302018           18 
 4100000   0.60011686   -5.4069974     1617.646  0.032878985  0.032293241           13 
 4101000   0.59820196   -5.4249844    1617.0463  0.032858779  0.032284451           18 
 4102000   0.59982229   -5.4116042    1616.6533  0.032842786  0.032275632           10 
 4103000   0.59179198   -5.4085555    1618.9661  0.032881755   0.03226681           29 
 4104000   0.59566084   -5.3861684    1613.9475  0.032771839   0.03225799           14 
 4105000    0.5960086   -5.4104011    1618.0728  0.032847601  0.032249206           26 
 4106000   0.60488716    -5.384875    1616.1026  0.032799613  0.032240397           18 
 4107000   0.58863504   -5.3818095    1617.9936  0.032829998  0.032231618           32 
 4108000    0.6070086   -5.4096937     1617.997  0.032822074  0.032222811           27 
 4109000   0.59859184   -5.4207673    1614.3553  0.032740231  0.032213993           12 
 4110000   0.59601806   -5.4355761    1614.9303  0.032743923  0.032205168           21 
 4111000   0.59966146   -5.3899943    1619.5032  0.032828655  0.032196369           24 
 4112000   0.60397657   -5.4167562     1615.053  0.032730484  0.032187577           31 
 4113000   0.59622909   -5.4117226    1614.7588  0.032716565  0.032178798            8 
 4114000   0.59702715   -5.4146974     1616.673  0.032747388  0.032170011           17 
 4115000   0.59603116   -5.3943229    1617.4714  0.032755598  0.032161248           15 
 4116000   0.60157346   -5.3841249    1612.4862  0.032646708  0.032152501           14 
 4117000    0.5817887   -5.3795108    1617.9964  0.032750312  0.032143766           16 
 4118000   0.60001652   -5.4114199     1618.735  0.032757306  0.032135011            7 
 4119000   0.58607904   -5.3950439     1616.722  0.032708627  0.032126243           13 
 4120000   0.61551618   -5.4003309    1617.8127   0.03272275  0.032117496           40 
 4121000   0.59124624   -5.4134227    1618.5577  0.032729874  0.032108769           13 
 4122000   0.56911391   -5.4064291    1620.8832  0.032768948  0.032100017           12 
 4123000   0.58182976   -5.4061453    1616.3516  0.032669407  0.032091272           36 
 4124000   0.58516345   -5.4041351    1618.7107  0.032709156  0.032082549           20 
 4125000   0.59918622   -5.4039895    1616.8194  0.032663019   0.03207385           18 
 4126000    0.5913786   -5.3852845    1622.1871  0.032763513  0.032065164            9 
 4127000   0.58905367     -5.40467    1623.5255  0.032782601  0.032056503           12 
 4128000    0.6061669   -5.3963895    1621.9469  0.032742791  0.032047821           23 
 4129000   0.59531886   -5.4166649     1621.835  0.032732603   0.03203916           11 
 4130000   0.58898286   -5.3856528    1622.9529  0.032747234  0.032030492           16 
 4131000    0.5929011   -5.4283302    1621.4034  0.032708048  0.032021849           24 
 4132000   0.59259412   -5.4107454    1620.6488  0.032684914   0.03201322           19 
 4133000   0.58734496   -5.4082242    1619.1354  0.032646491  0.032004596            9 
 4134000   0.60950017   -5.4128777    1618.0066  0.032615839  0.031995919           23 
 4135000   0.57548458   -5.4221557    1621.0293  0.032668869  0.031987254           24 
 4136000   0.60857537   -5.3990472     1621.501  0.032670474  0.031978626           29 
 4137000   0.59153465   -5.4078765    1623.5237  0.032703321  0.031970015           23 
 4138000   0.59147747      -5.3927    1621.5444  0.032655558   0.03196137           12 
 4139000   0.60622838   -5.4045802    1620.9736  0.032636177  0.031952749           17 
 4140000   0.58903029   -5.4136496    1621.5614  0.032640125  0.031944119           14 
 4141000   0.58785039   -5.4280996    1617.8532  0.032557619  0.031935439           10 
 4142000   0.59400005   -5.4011035    1621.7019  0.032627191  0.031926779           15 
 4143000   0.57965584   -5.4100044    1618.3048  0.032550986  0.031918167           15 
 4144000   0.59501934   -5.3970695    1620.5803   0.03258889  0.031909534           11 
 4145000   0.60311099   -5.3851348    1623.2478  0.032634657  0.031900933           10 
 4146000   0.58695646   -5.4394585    1618.1732  0.032524786  0.031892326           18 
 4147000   0.59113219   -5.4235394    1621.0433  0.032574619  0.031883707           16 
 4148000   0.59896496   -5.4184908    1622.8071  0.032602199  0.031875095           19 
 4149000   0.59091688   -5.3946561    1623.2657  0.032603553  0.031866463           11 
 4150000   0.59629244   -5.4270924    1619.1893  0.032513842  0.031857871           12 
 4151000   0.59089336   -5.4172948    1622.8665   0.03257983  0.031849246           12 
 4152000   0.58980005   -5.4181597     1621.831    0.0325512  0.031840639           39 
 4153000   0.57294983   -5.4296213    1620.7967  0.032522607  0.031831983           29 
 4154000   0.58549073   -5.4016242     1619.837  0.032495527  0.031823362            9 
 4155000   0.59885347   -5.4283352    1617.0584  0.032431977  0.031814757            9 
 4156000   0.57857525   -5.4132281    1624.5182  0.032573753  0.031806122            8 
 4157000   0.58936084    -5.421537    1619.8147  0.032471627  0.031797487           18 
 4158000   0.59141032   -5.4334227    1615.1265   0.03236986  0.031788846           24 
 4159000   0.57612149   -5.4057122    1621.4929  0.032489639  0.031780193           15 
 4160000   0.58095727   -5.4148701    1618.2217    0.0324163  0.031771516           16 
 4161000   0.58875816   -5.4139895    1617.4751  0.032393557  0.031762918           13 
 4162000   0.58204114   -5.4066325    1619.4535  0.032425386  0.031754293           18 
 4163000   0.58165825   -5.4157764     1620.881  0.032446173  0.031745675           12 
 4164000   0.57548534   -5.4312823    1622.3904  0.032468588   0.03173708           24 
 4165000   0.59306808   -5.4148441    1624.7425  0.032507853   0.03172848           15 
 4166000   0.58190483   -5.4069964    1625.1216  0.032507634  0.031719886           11 
 4167000   0.57677025   -5.3947625     1625.344   0.03250428  0.031711311            7 
 4168000   0.57949072   -5.4478362    1623.0965  0.032451546  0.031702763           15 
 4169000   0.58492717   -5.4113595    1623.6307  0.032454439  0.031694208           14 
 4170000   0.58939427   -5.4175194    1622.0977  0.032416021  0.031685664           10 
 4171000   0.57051998   -5.4021332    1623.1023  0.032428321  0.031677146            8 
 4172000   0.56242479   -5.4108047    1622.2756  0.032404036  0.031668605           13 
 4173000   0.59019412    -5.424825    1618.9403  0.032329665  0.031660058           11 
 4174000   0.57896713   -5.4261763    1625.6263  0.032455404  0.031651506            9 
 4175000   0.58400482   -5.4153111    1625.6646  0.032448395  0.031642964           19 
 4176000   0.57888766   -5.4314304    1620.8667  0.032344881  0.031634409           14 
 4177000   0.57109048   -5.4326536    1627.0633  0.032460763  0.031625854           11 
 4178000   0.57687709   -5.4257809    1623.4701  0.032381326  0.031617336           22 
 4179000   0.57900506   -5.4237687    1620.4537  0.032313426  0.031608798           70 
 4180000   0.57912982   -5.4166159    1623.1464  0.032359379  0.031600278           32 
 4181000   0.58014571   -5.4196944    1623.4607  0.032357902   0.03159175           12 
 4182000   0.58496516   -5.4175503    1623.7745  0.032356418  0.031583221           11 
 4183000   0.57340421   -5.4080538    1622.6603  0.032326485    0.0315747           14 
 4184000   0.58170497   -5.4449474    1621.1372  0.032288423  0.031566162            8 
 4185000   0.57921306   -5.4256729    1618.9755  0.032237665  0.031557595           11 
 4186000   0.58705615   -5.4357994    1622.1245  0.032292652  0.031549048           12 
 4187000   0.59628352   -5.4329299    1623.7338   0.03231697  0.031540515           21 
 4188000   0.57820588   -5.4507444    1620.5208   0.03224532  0.031531983           19 
 4189000   0.57293165   -5.4183876    1620.5969  0.032239137  0.031523411           17 
 4190000   0.58709452    -5.428302    1621.5873   0.03225114  0.031514875            5 
 4191000   0.58076949    -5.443598    1623.4903  0.032281283  0.031506318           19 
 4192000   0.57537188   -5.4491302    1621.0343   0.03222476  0.031497748           22 
 4193000   0.58256635   -5.4364529    1623.2863  0.032261832  0.031489198           17 
 4194000   0.57900369   -5.4422612    1622.5603  0.032239714  0.031480663            8 
 4195000   0.59627486   -5.4348388    1621.9106  0.032219121  0.031472153           14 
 4196000   0.58271274   -5.4170493    1623.6724  0.032246433  0.031463627           10 
 4197000   0.58494856   -5.4396895    1622.6337  0.032218126  0.031455135           26 
 4198000   0.57577232   -5.4260261    1620.8325  0.032174696  0.031446654           13 
 4199000   0.57993849   -5.4076293    1624.7346  0.032244475  0.031438157           20 
 4200000   0.58142906   -5.4154793    1623.6445  0.032215169  0.031429668           13 
 4201000    0.5697512    -5.420164    1623.2386  0.032199449  0.031421168            8 
 4202000   0.57508981   -5.4407195    1620.1339  0.032130213  0.031412632            6 
 4203000   0.58944125   -5.4397157    1624.7927  0.032214939  0.031404099           21 
 4204000   0.57862604   -5.4085417    1624.3308  0.032198121  0.031395619           10 
 4205000   0.57233289   -5.4321679    1626.2143  0.032227791  0.031387149           13 
 4206000   0.57598964   -5.4503651    1620.3326  0.032103594  0.031378665           23 
 4207000   0.58525186   -5.4343101    1618.5056  0.032059773  0.031370178           13 
 4208000    0.5792129   -5.4162191    1623.7688  0.032156385  0.031361713            9 
 4209000   0.59214621   -5.4488803    1622.3363  0.032120382  0.031353232           17 
 4210000   0.57535566   -5.4324953    1619.3507  0.032053656  0.031344718           24 
 4211000   0.58013851   -5.4302849    1618.1376  0.032022037  0.031336187           15 
 4212000   0.57741927   -5.4585765    1620.7031  0.032065193  0.031327665           20 
 4213000   0.58319762   -5.4340181    1620.7611  0.032058729  0.031319151           12 
 4214000   0.58612916   -5.4502308    1620.4714  0.032045392  0.031310629           22 
 4215000   0.57662382   -5.4566489    1621.9531  0.032067083  0.031302114           20 
 4216000   0.57250414   -5.4511312    1624.6894  0.032113563  0.031293614           15 
 4217000   0.56770783    -5.435424    1621.5137  0.032043193  0.031285115           17 
 4218000   0.55241049   -5.4507329     1626.425  0.032132626  0.031276617           21 
 4219000   0.57709986   -5.4483036     1621.207  0.032021944  0.031268128           13 
 4220000   0.56582728   -5.4323395    1625.6005  0.032101116  0.031259645           10 
 4221000   0.57498723   -5.4225807    1625.0321  0.032082289  0.031251164            8 
 4222000   0.57506055   -5.4387471    1624.1893  0.032058055  0.031242712           13 
 4223000    0.5717507   -5.4493984    1624.8352  0.032063209  0.031234247           14 
 4224000   0.57822567   -5.4419852     1623.173  0.032022825  0.031225779           14 
 4225000   0.57232314   -5.4298573    1617.6579  0.031906468  0.031217296           21 
 4226000   0.58384444   -5.4414595    1623.0899  0.032006032  0.031208849           24 
 4227000   0.56782467   -5.4184348    1625.6781  0.032049486   0.03120043           15 
 4228000   0.58182004   -5.4290665    1625.2334  0.032033141   0.03119199           31 
 4229000   0.56143106   -5.4559234    1620.4756  0.031931813  0.031183536           16 
 4230000   0.57734318   -5.4488669    1622.4626  0.031963409  0.031175055           21 
 4231000   0.57183186    -5.451547    1621.7823  0.031942455  0.031166575           27 
 4232000   0.57499517    -5.428743    1628.5491  0.032068154  0.031158114           34 
 4233000   0.57278536   -5.4413433    1621.7501  0.031926728  0.031149701           12 
 4234000   0.56993247   -5.4414361    1622.1301  0.031926667  0.031141281           14 
 4235000    0.5829621   -5.4276769    1624.9839  0.031975283  0.031132818           25 
 4236000   0.56857648   -5.4438455    1620.2243  0.031874101  0.031124374           28 
 4237000   0.56627193   -5.4557319    1622.6155  0.031913609  0.031115894           16 
 4238000   0.57454558   -5.4291174     1619.033  0.031835634  0.031107433           12 
 4239000    0.5680672   -5.4464937    1618.9373  0.031826242  0.031098976           41 
 4240000   0.56612635    -5.448804    1617.4826  0.031790145  0.031090476           21 
 4241000   0.56795642   -5.4454805    1620.1839   0.03183573  0.031082028           13 
 4242000   0.58189914   -5.4527112    1619.7838  0.031820364  0.031073536           17 
 4243000   0.57805364    -5.451945    1624.1429  0.031898478  0.031065038            9 
 4244000   0.56998862    -5.440265    1621.4002  0.031837107  0.031056555           14 
 4245000   0.58119615   -5.4577442    1621.8411  0.031838263  0.031048084            6 
 4246000   0.57103419   -5.4253259    1628.0604  0.031952827  0.031039644            7 
 4247000   0.56386263   -5.4456563    1626.2633  0.031910041   0.03103122           16 
 4248000   0.57158191   -5.4259994    1621.1752  0.031802715  0.031022768            9 
 4249000   0.59035433   -5.4290699    1626.3023  0.031895785  0.031014316           18 
 4250000   0.58001896     -5.44246    1626.4124  0.031890439  0.031005881           20 
 4251000   0.56766797   -5.4407322    1617.6302  0.031710777  0.030997431           39 
 4252000   0.56411068   -5.4588433    1619.8975  0.031747757  0.030988962           18 
 4253000   0.57087169    -5.477078    1618.7482  0.031717772  0.030980485           26 
 4254000   0.57660241   -5.4583114    1620.4905  0.031744446   0.03097197           23 
 4255000   0.56871988   -5.4687278    1617.8067  0.031684425  0.030963468           27 
 4256000   0.56192673   -5.4598736    1618.5757  0.031692036  0.030954976           26 
 4257000   0.57920081   -5.4736269    1618.3475  0.031680124   0.03094647           12 
 4258000   0.57483449   -5.4586187    1618.3116  0.031671983  0.030937982           28 
 4259000   0.57664037   -5.4553308    1621.0152  0.031717446  0.030929501           17 
 4260000   0.58008668   -5.4623002     1620.672  0.031703287  0.030921025           17 
 4261000   0.57719524   -5.4485904    1623.1337   0.03174399  0.030912566           17 
 4262000   0.56493246   -5.4436892    1620.2178  0.031679529   0.03090414           11 
 4263000   0.57724037   -5.4650292    1618.7023  0.031642472  0.030895715           37 
 4264000   0.55928523    -5.437878    1618.2438   0.03162609  0.030887301           13 
 4265000   0.56390372   -5.4521634    1623.5759  0.031722859  0.030878902           25 
 4266000   0.57862329   -5.4367798     1621.866   0.03168202  0.030870529           14 
 4267000   0.57312525   -5.4358699    1625.5407  0.031746362  0.030862122           25 
 4268000   0.57512103   -5.4346847    1625.0657  0.031729649  0.030853708            7 
 4269000   0.57304244    -5.462571    1619.4798  0.031613177  0.030845317           29 
 4270000   0.57584051   -5.4521385    1623.7806  0.031689708   0.03083692           12 
 4271000   0.56573216   -5.4360279    1623.4124  0.031675103  0.030828516           19 
 4272000   0.58235088   -5.4466429    1622.9181  0.031658047  0.030820118           12 
 4273000   0.56250618   -5.4343576    1626.5014   0.03172052  0.030811737           34 
 4274000    0.5681878   -5.4491791    1621.1271  0.031608312   0.03080338           39 
 4275000    0.5698322   -5.4492055    1621.9929  0.031617795  0.030794998           37 
 4276000   0.56553613   -5.4416413    1622.8027  0.031626183  0.030786607           30 
 4277000   0.56087927   -5.4597545    1619.8901  0.031562038  0.030778211           24 
 4278000   0.56869693   -5.4735122    1619.1362  0.031539977  0.030769839           15 
 4279000   0.55824626   -5.4424141     1620.417  0.031557549  0.030761433           18 
 4280000   0.57277166   -5.4678712     1620.585  0.031553445  0.030753027           38 
 4281000   0.56412938   -5.4586878    1625.0112  0.031632236  0.030744644           33 
 4282000   0.56713355   -5.4353638    1620.3409  0.031533958  0.030736259           35 
 4283000   0.57614153   -5.4622447    1621.7646  0.031554297  0.030727854           26 
 4284000   0.56933047   -5.4528058     1623.266  0.031576136  0.030719451           17 
 4285000   0.56955749   -5.4509155    1622.7582  0.031558892  0.030711091           20 
 4286000   0.56936311   -5.4629321    1618.2968  0.031464785   0.03070276           33 
 4287000   0.56667916   -5.4589035     1621.061  0.031511177  0.030694401           22 
 4288000   0.56348489   -5.4596086    1624.9981  0.031580342  0.030686064            8 
 4289000   0.57074589   -5.4493781    1622.7581  0.031529456  0.030677747           31 
 4290000   0.56643329   -5.4590781     1620.437   0.03147702  0.030669399           18 
 4291000   0.56159404   -5.4445681    1624.1992  0.031542749  0.030661051           12 
 4292000   0.56924834   -5.4677919    1622.0307  0.031493296  0.030652703           12 
 4293000   0.56323659   -5.4668218    1622.1111  0.031487521  0.030644366           33 
 4294000   0.58429035    -5.462765    1624.2306  0.031521321  0.030636021           21 
 4295000   0.55264497   -5.4722772    1620.4873  0.031441351  0.030627683           32 
 4296000   0.57305053   -5.4673389    1621.1843  0.031447554  0.030619337           56 
 4297000   0.56538177   -5.4781338    1622.3215   0.03146229  0.030610984           27 
 4298000   0.55701117   -5.4644105    1620.0065  0.031410085  0.030602611           32 
 4299000   0.55572015   -5.4430495    1623.9292  0.031478817  0.030594239           25 
 4300000   0.57230325   -5.4793296    1622.4233  0.031442313  0.030585876           20 
 4301000   0.56696406   -5.4501913    1625.1484  0.031487802  0.030577529            7 
 4302000   0.57159918   -5.4701178    1618.4781  0.031351272  0.030569153           11 
 4303000   0.55245491   -5.4363081     1622.471  0.031421314  0.030560788           12 
 4304000    0.5649196   -5.4579312    1621.5539  0.031396256  0.030552442           15 
 4305000   0.56273411   -5.4609675    1618.1887  0.031323822  0.030544069           27 
 4306000   0.56178644   -5.4482046    1620.2535  0.031356508  0.030535731           31 
 4307000   0.55189011   -5.4680954    1619.4592  0.031333859  0.030527373           19 
 4308000   0.57964349   -5.4798627    1618.3377  0.031304892  0.030518967           25 
 4309000   0.56914691   -5.4598745    1621.0613    0.0313503  0.030510553           22 
 4310000   0.56083032   -5.4806038     1622.812  0.031376876  0.030502141           15 
 4311000   0.56598111   -5.4595194    1619.8845  0.031313008  0.030493763           15 
 4312000   0.57589938   -5.4935954    1622.6911  0.031359985  0.030485388           30 
 4313000   0.56454469    -5.471836    1620.0348  0.031301391  0.030477015           31 
 4314000   0.56497508   -5.4660677    1623.3196  0.031357588  0.030468662           24 
 4315000   0.56368675   -5.4736654    1623.9728  0.031362935  0.030460321           26 
 4316000    0.5625924   -5.4663741    1621.8733  0.031315132  0.030451981           21 
 4317000   0.56785074    -5.455927    1618.7701  0.031247975  0.030443649           10 
 4318000   0.56397955   -5.4585729    1623.8281  0.031338352  0.030435327           12 
 4319000   0.55658314   -5.4820404    1622.1295  0.031298324  0.030426999           15 
 4320000   0.55459735   -5.4817979    1617.6602  0.031204865  0.030418624           33 
 4321000   0.55028493    -5.478504    1621.5398  0.031272465  0.030410252           65 
 4322000   0.56485147   -5.4788444    1621.6908  0.031268139  0.030401888           14 
 4323000   0.56946127   -5.4814129    1618.4044  0.031197556  0.030393516           50 
 4324000   0.55433236   -5.4949856    1623.8414  0.031295125  0.030385152           45 
 4325000   0.56505684   -5.4843517    1620.8334   0.03122993  0.030376748           48 
 4326000    0.5590336   -5.5032944    1616.4791  0.031138832  0.030368358           18 
 4327000   0.56304337    -5.507579    1619.6752   0.03119319  0.030359993           26 
 4328000   0.54973479   -5.4738485    1625.5389  0.031298886  0.030351643           34 
 4329000    0.5514619   -5.4898142    1619.3557  0.031172628   0.03034331           25 
 4330000   0.56354058   -5.4856587    1622.2186  0.031220528  0.030334975           20 
 4331000   0.55641273   -5.4968113    1619.3242  0.031157627  0.030326611           21 
 4332000   0.56615286   -5.4849809    1619.7416  0.031158464  0.030318243           25 
 4333000   0.55241514   -5.4960563    1621.4569  0.031184263  0.030309867           34 
 4334000   0.56130854   -5.4963791    1621.8575   0.03118477  0.030301513           23 
 4335000   0.55850949   -5.4852311    1623.4174  0.031207562  0.030293161           11 
 4336000   0.55413422   -5.4879465    1618.2164  0.031100407  0.030284807           39 
 4337000   0.57805595   -5.4980756    1619.6495  0.031120774   0.03027645           10 
 4338000   0.56057632   -5.4882519    1618.1718  0.031085213  0.030268092           10 
 4339000   0.54751519   -5.4762869    1616.3855  0.031043741  0.030259744           27 
 4340000   0.55889445    -5.487393    1619.0509  0.031087768  0.030251369           20 
 4341000    0.5553232   -5.4994298    1619.4684  0.031088621  0.030243015           25 
 4342000   0.56119296   -5.4740183    1624.2274  0.031172796  0.030234681           15 
 4343000   0.55692083   -5.4823505     1621.619   0.03111557  0.030226352           15 
 4344000    0.5621292   -5.4756695     1613.892  0.030960175  0.030218031           11 
 4345000   0.56844098   -5.4932978    1619.5451   0.03106147  0.030209694           10 
 4346000    0.5481672   -5.4865568    1622.5482  0.031111907  0.030201354           17 
 4347000   0.55452771   -5.4828731    1620.8694  0.031072567  0.030193036           16 
 4348000   0.56272884   -5.4925033    1620.6967   0.03106211  0.030184713           23 
 4349000   0.54248358   -5.4777501    1621.0779  0.031062273  0.030176401           19 
 4350000   0.55833199   -5.5003835     1620.161  0.031037566  0.030168074           12 
 4351000   0.54827667   -5.4894774    1617.7081  0.030983454  0.030159753           58 
 4352000   0.56489522   -5.4931622    1622.4395  0.031066933  0.030151431           41 
 4353000    0.5459474    -5.497915    1620.8668  0.031029689   0.03014311           65 
 4354000    0.5514277   -5.4950848    1624.7651  0.031097173  0.030134818           52 
 4355000   0.55342803   -5.4690264    1623.3894  0.031063708  0.030126521           83 
 4356000   0.55391807   -5.4826555    1619.0028  0.030972658  0.030118224           37 
 4357000   0.56092981   -5.5029075     1620.689  0.030997801  0.030109909           65 
 4358000   0.56135853   -5.4841299     1620.983  0.030996309  0.030101619           32 
 4359000    0.5656912   -5.4896416    1619.9068  0.030968624  0.030093311           50 
 4360000   0.55901471    -5.504909    1619.7033  0.030957633  0.030085019           43 
 4361000   0.53972137     -5.49504    1621.1823  0.030978795  0.030076738           46 
 4362000    0.5598648   -5.5093161    1621.6596  0.030980812  0.030068454           25 
 4363000   0.56338147   -5.4938909    1621.5849  0.030972284  0.030060167           41 
 4364000   0.54865632   -5.5040768    1621.0709  0.030955371  0.030051921           41 
 4365000   0.55426673   -5.5175505     1620.604  0.030939366  0.030043639           57 
 4366000   0.55768055    -5.505443    1616.4316  0.030852642  0.030035354           37 
 4367000   0.56037745   -5.5068353    1617.7707   0.03087113  0.030027088           62 
 4368000   0.55534347   -5.5004536    1622.1985  0.030948537  0.030018845           37 
 4369000   0.55905637   -5.4922343    1622.8129  0.030953173  0.030010586           21 
 4370000   0.54422031   -5.4890328    1620.4455  0.030900945  0.030002303           28 
 4371000   0.55705151   -5.4694387    1621.3601  0.030911311  0.029994075           22 
 4372000    0.5489936   -5.4793541     1622.945  0.030934451  0.029985856           18 
 4373000   0.55253273   -5.5053665    1622.0337   0.03091001  0.029977608           24 
 4374000   0.57302187   -5.4749316    1621.9485   0.03090132  0.029969363           12 
 4375000   0.54816245   -5.4769918    1623.8616  0.030930697  0.029961141           10 
 4376000   0.55808028   -5.4975413    1623.2065  0.030911154  0.029952914           13 
 4377000   0.54181422   -5.4891003    1619.1767  0.030827368   0.02994465           29 
 4378000   0.55446748   -5.4751496    1625.4381  0.030939511   0.02993639           21 
 4379000   0.54895046   -5.4895359    1623.1801  0.030889475  0.029928124           37 
 4380000   0.55537512   -5.5195396    1619.3339  0.030809244  0.029919864           50 
 4381000   0.55303553    -5.514719    1621.2932  0.030839481  0.029911614           41 
 4382000   0.55379465   -5.4977496    1622.3114  0.030851807  0.029903347           36 
 4383000    0.5596885   -5.5190508    1621.7638  0.030834356  0.029895068           38 
 4384000   0.55919476   -5.5051485    1622.2223  0.030836038  0.029886808           23 
 4385000   0.55466338   -5.5174419    1616.7327  0.030724681  0.029878532           46 
 4386000   0.55653457   -5.4953077    1620.7109   0.03079326  0.029870259           66 
 4387000   0.55419781   -5.5136065    1620.2511  0.030777507  0.029861983           53 
 4388000   0.54840771    -5.540358    1619.4858   0.03075596  0.029853697           64 
 4389000    0.5372808   -5.5205531    1620.1756  0.030762049  0.029845434           33 
 4390000   0.54364288   -5.5032383    1622.0911  0.030791404  0.029837173           25 
 4391000   0.54249973   -5.5031367    1618.7874  0.030721692  0.029828909           78 
 4392000    0.5543312   -5.5216905    1618.5547  0.030710281  0.029820686           16 
 4393000   0.55153505   -5.5184273    1618.9726  0.030711219  0.029812416           71 
 4394000    0.5547762   -5.5229345    1617.3204  0.030672896   0.02980414           79 
 4395000   0.54587166   -5.5090403    1619.2629  0.030702748  0.029795869           14 
 4396000   0.55011984    -5.511162    1616.6498  0.030646228  0.029787615           27 
 4397000   0.53685497   -5.5086901    1620.9524  0.030720802   0.02977938           19 
 4398000   0.53914111   -5.5187531     1619.068  0.030678111  0.029771136           12 
 4399000   0.55094611    -5.495872    1620.4412  0.030697151  0.029762907           16 
 4400000   0.55891037   -5.5164506     1618.012  0.030644167  0.029754654           28 
 4401000   0.54134448   -5.5158449    1618.8231  0.030652562  0.029746382           27 
 4402000   0.54574544   -5.5116841    1620.5666  0.030678605  0.029738118           37 
 4403000   0.55360461   -5.5117464    1618.3528  0.030629737  0.029729875           35 
 4404000   0.54458352   -5.5108225    1619.2182  0.030639158  0.029721619           13 
 4405000   0.53323428   -5.5017042    1619.9281  0.030645632  0.029713363           15 
 4406000   0.54973872   -5.5026571    1617.1221  0.030585605  0.029705129           43 
 4407000   0.54555518   -5.4940701    1618.3074  0.030601079  0.029696879           14 
 4408000   0.54719396   -5.5196026    1617.6466  0.030581643  0.029688616           49 
 4409000   0.55211192   -5.5078194     1618.636  0.030593408   0.02968038           31 
 4410000   0.54455078   -5.5277211    1618.3111   0.03058033  0.029672152           64 
 4411000   0.53807128   -5.5246691    1616.1815  0.030533165  0.029663895           27 
 4412000    0.5404978   -5.5428924    1615.1766  0.030507263  0.029655628           24 
 4413000   0.52933201   -5.5205451    1617.8387  0.030550621   0.02964737           43 
 4414000   0.53049483   -5.5078316    1616.5773  0.030519886  0.029639134           34 
 4415000   0.54520828   -5.5093972    1619.9219  0.030576102  0.029630896           17 
 4416000   0.54835855   -5.5185732    1617.7492  0.030528177  0.029622666           21 
 4417000   0.53920094   -5.5158575    1621.5383  0.030592752  0.029614427           56 
 4418000    0.5345386   -5.5216429    1615.1765   0.03046583   0.02960621           10 
 4419000   0.54954174   -5.5033637    1621.3378  0.030575126  0.029598008           13 
 4420000   0.55171017   -5.5144067      1622.12  0.030582956  0.029589836           24 
 4421000   0.54429469   -5.5205291    1620.4364  0.030544304  0.029581681           34 
 4422000   0.54199644   -5.5117209    1622.5447  0.030577128  0.029573524           12 
 4423000   0.53556029   -5.5193628    1619.7461  0.030517487  0.029565338           48 
 4424000   0.55003595   -5.5163092    1618.6143  0.030489268   0.02955715           15 
 4425000   0.55016537   -5.5094237    1618.5851  0.030481828  0.029548955           19 
 4426000    0.5421943   -5.4973496     1620.142  0.030504255  0.029540778           23 
 4427000   0.54039532   -5.4994856     1615.948  0.030418418  0.029532595           23 
 4428000   0.54663327   -5.5361997    1618.7264  0.030463836  0.029524412           19 
 4429000   0.53231188   -5.5184636    1620.0895  0.030482605  0.029516215           25 
 4430000   0.54266642   -5.5100371    1620.4499  0.030482505  0.029508052           17 
 4431000   0.54318905   -5.5265249    1620.2328  0.030471542  0.029499897           17 
 4432000   0.53950718   -5.5200308    1618.1819  0.030426104  0.029491733           14 
 4433000   0.54369182   -5.5209443    1617.4209  0.030404934  0.029483544           22 
 4434000   0.52934409   -5.5263583    1620.5207  0.030456335  0.029475372           28 
 4435000   0.54212604   -5.5101417    1618.9752  0.030420428  0.029467216           30 
 4436000   0.54332917   -5.5287033    1616.7188  0.030371183  0.029459039           13 
 4437000   0.54233571   -5.5201556    1621.4635   0.03045345  0.029450869           18 
 4438000   0.55060426   -5.5170791    1619.3542  0.030406982   0.02944269           28 
 4439000   0.54334398   -5.5352297    1621.2851  0.030436379  0.029434525           14 
 4440000   0.54835032   -5.5106955    1619.2924  0.030392124  0.029426377           17 
 4441000   0.54751246   -5.5106788    1622.9679   0.03045425  0.029418244           17 
 4442000   0.54029418   -5.5204025    1618.1211  0.030356467  0.029410103           12 
 4443000   0.53204029   -5.4932851    1618.5563  0.030357797  0.029401958           33 
 4444000   0.53141287   -5.5159262    1621.2301  0.030401105  0.029393817           13 
 4445000   0.55206155   -5.5379421    1620.5796  0.030382071   0.02938568           15 
 4446000   0.52401135   -5.5273067    1621.5273     0.030393  0.029377534           29 
 4447000   0.54756613   -5.5097741    1621.0465  0.030377156  0.029369416           18 
 4448000   0.53221375   -5.5226851    1622.2337  0.030392568  0.029361283           53 
 4449000   0.53143004   -5.5259921    1618.0912  0.030308144  0.029353121           34 
 4450000   0.53468973   -5.5254677    1620.0304  0.030337647  0.029344956           29 
 4451000   0.54449433   -5.5152682    1620.2126  0.030334244  0.029336791           73 
 4452000     0.544387   -5.5234073    1617.0268  0.030267798  0.029328645           27 
 4453000   0.53176689   -5.5346867    1620.4904  0.030325818   0.02932049           32 
 4454000   0.55086569   -5.5303955    1618.9659  0.030290487  0.029312358           35 
 4455000   0.53160496   -5.5249848    1621.2773  0.030326922  0.029304255           41 
 4456000   0.54916426   -5.5154268    1617.5119  0.030249699  0.029296128           33 
 4457000   0.52760032   -5.5259565    1620.6645  0.030301856  0.029287998           38 
 4458000   0.54212935   -5.5494234    1617.8585  0.030242607  0.029279843           33 
 4459000   0.54341935   -5.5313656    1616.9461  0.030218772  0.029271685           20 
 4460000   0.54359493   -5.5158183    1615.6093  0.030187019  0.029263544           16 
 4461000   0.53666444    -5.512882    1618.0135  0.030225164  0.029255394           42 
 4462000   0.53364972   -5.5221399    1617.0047  0.030199551  0.029247238           47 
 4463000   0.52960564   -5.5254303    1620.0254  0.030249186  0.029239082           37 
 4464000   0.53550578    -5.542185     1617.066  0.030187165  0.029230929           78 
 4465000   0.53741019   -5.5476447    1616.2856  0.030165837   0.02922278           66 
 4466000   0.53524702   -5.5389675    1620.3383  0.030234705  0.029214623          126 
 4467000   0.53447773   -5.5585948    1616.7116  0.030160279  0.029206488           74 
 4468000   0.53676755    -5.551014    1621.9654  0.030251519  0.029198374          103 
 4469000    0.5411789   -5.5393561    1618.9062  0.030187704  0.029190254           36 
 4470000   0.54175026   -5.5238522    1620.9658  0.030219347  0.029182137           53 
 4471000   0.53882686    -5.526153     1619.629  0.030187673  0.029174053           44 
 4472000   0.53592459   -5.5268175    1621.5304  0.030216353  0.029165976           35 
 4473000   0.54235813   -5.5486288    1618.2092  0.030147724  0.029157873           33 
 4474000   0.53959493   -5.5240056    1618.8345  0.030152632  0.029149791           48 
 4475000   0.53021146   -5.5103116    1618.4902  0.030139482  0.029141725           37 
 4476000   0.53262024   -5.5458861     1621.058  0.030180555  0.029133671           23 
 4477000    0.5425722   -5.5203424    1620.0231  0.030154551  0.029125584           30 
 4478000   0.53751239   -5.5352248    1617.8414  0.030107217  0.029117504           45 
 4479000   0.53471163   -5.5192701    1619.1622   0.03012507  0.029109413           46 
 4480000   0.53828832   -5.5360344    1621.1126  0.030154625  0.029101338           33 
 4481000   0.53597034   -5.5410329    1620.2935  0.030132662  0.029093226           65 
 4482000   0.54190882   -5.5306911    1618.7635  0.030097492  0.029085126           48 
 4483000   0.54985803   -5.5308917    1614.7639  0.030016431  0.029077012           28 
 4484000   0.53384136   -5.5509571    1620.9098  0.030123956  0.029068925           20 
 4485000   0.52708546   -5.5581085    1616.0096  0.030026192  0.029060797           40 
 4486000    0.5258271   -5.5483628    1618.5883    0.0300674  0.029052666           32 
 4487000   0.53446171    -5.534646     1615.757  0.030008117   0.02904453           36 
 4488000   0.52666161   -5.5482241    1618.0404  0.030043827    0.0290364           49 
 4489000   0.54169985   -5.5459689    1615.5481  0.029990868  0.029028283           27 
 4490000   0.54873235   -5.5561969    1617.1942   0.03001474  0.029020171           17 
 4491000   0.52521782   -5.5253379    1619.5078  0.030050988  0.029012073           24 
 4492000   0.52879006   -5.5500274     1615.992  0.029979073  0.029003984           11 
 4493000   0.52707668   -5.5283484     1617.509  0.030000538  0.028995915           23 
 4494000   0.53687111   -5.5332822    1620.6858  0.030052771   0.02898782           17 
 4495000   0.52782069   -5.5490359    1619.6176   0.03002628  0.028979738            9 
 4496000   0.51966423   -5.5213111    1618.5583  0.029999968  0.028971666           11 
 4497000   0.53321263   -5.5200249    1618.1718  0.029986136  0.028963603           23 
 4498000   0.53087254   -5.5169476    1620.3172  0.030019217  0.028955566           35 
 4499000   0.51649597   -5.5237085    1620.5064  0.030016048  0.028947515           16 
 4500000   0.52771502   -5.5565277    1616.5688  0.029936458  0.028939455           10 
 4501000   0.52041037   -5.5246204    1619.4607  0.029983349  0.028931416           16 
 4502000   0.54511529   -5.5249633    1617.3022  0.029936735  0.028923393           15 
 4503000   0.53013499    -5.534011    1619.6666  0.029973844  0.028915365           15 
 4504000   0.52950301   -5.5353926    1617.3564  0.029924444  0.028907339           22 
 4505000   0.54042647   -5.5319197    1621.1858  0.029988638  0.028899303           30 
 4506000    0.5336447     -5.53915    1619.7389  0.029955225  0.028891256           23 
 4507000   0.53490241    -5.526918    1617.2692  0.029902914  0.028883221           18 
 4508000   0.52126975   -5.5391869    1624.2054    0.0300245  0.028875207           22 
 4509000   0.52688087   -5.5438874    1616.9207  0.029883209  0.028867177           12 
 4510000    0.5381889   -5.5428809    1618.2115  0.029900435   0.02885915           24 
 4511000   0.53715977    -5.536129    1621.9324  0.029962544  0.028851109           14 
 4512000   0.52758706   -5.5384611    1617.7846  0.029879296  0.028843064            8 
 4513000   0.52821004   -5.5352584    1616.4238  0.029847549  0.028835028           19 
 4514000   0.53102828   -5.5259057    1618.1804  0.029873365  0.028826996           12 
 4515000   0.51947574   -5.5346909    1617.6195  0.029856394  0.028818952           15 
 4516000   0.52716527   -5.5488489    1618.7466  0.029870582  0.028810912           20 
 4517000    0.5394627   -5.5410966    1617.5216   0.02984137  0.028802867           37 
 4518000   0.53141591   -5.5523687    1618.7357  0.029857159  0.028794832           16 
 4519000   0.53537533   -5.5381008    1618.9128  0.029853817  0.028786793           19 
 4520000   0.52686482   -5.5588786    1621.2939  0.029891112  0.028778766            9 
 4521000   0.52712677   -5.5543735    1616.6949  0.029799728  0.028770731           23 
 4522000   0.53482273   -5.5531199    1621.2547  0.029877169  0.028762685           19 
 4523000   0.52538636   -5.5518531    1619.8449  0.029844588  0.028754662           25 
 4524000      0.53388   -5.5471893    1615.7067  0.029761765  0.028746637           18 
 4525000    0.5409507   -5.5580752    1618.2511  0.029802046   0.02873862           15 
 4526000   0.53718409   -5.5529878    1621.1626  0.029849068   0.02873062           29 
 4527000   0.52184858   -5.5413879    1619.4068  0.029810154  0.028722616           18 
 4528000   0.52886664   -5.5303552    1619.3469  0.029802468  0.028714636           18 
 4529000   0.52685096   -5.5324062    1618.9607  0.029788781  0.028706627           13 
 4530000   0.52015787   -5.5330801    1619.8019  0.029797681   0.02869863           19 
 4531000    0.5271356   -5.5414398    1614.9319  0.029701535  0.028690625           40 
 4532000   0.52680339   -5.5475522    1616.7322  0.029728086  0.028682609           19 
 4533000    0.5263386   -5.5452989    1620.6553  0.029793648  0.028674597           32 
 4534000   0.53957541   -5.5253628    1618.0155  0.029738558  0.028666607           13 
 4535000   0.51342937   -5.5539308    1622.3103  0.029810921  0.028658611           22 
 4536000    0.5179978   -5.5584639    1614.2297  0.029655895  0.028650587           24 
 4537000   0.53095268   -5.5510967    1617.7359  0.029713759  0.028642562           16 
 4538000   0.52620732   -5.5537136    1617.5567   0.02970392  0.028634552           35 
 4539000   0.54431138   -5.5500196    1616.7689  0.029682912  0.028626539           43 
 4540000   0.53240037   -5.5629056    1617.8259  0.029695777  0.028618527           82 
 4541000   0.52451469   -5.5639212    1617.2674  0.029678989  0.028610501           68 
 4542000   0.52652907   -5.5365909    1619.2598  0.029709009  0.028602497           17 
 4543000   0.53223776   -5.5417834    1621.4318  0.029742311  0.028594491           29 
 4544000   0.51981257   -5.5427767    1615.1683  0.029620898   0.02858651           32 
 4545000    0.5240084   -5.5333997    1618.2386  0.029670675   0.02857852           20 
 4546000   0.50979688   -5.5764976     1618.329  0.029665805  0.028570517           23 
 4547000   0.53112958   -5.5676207    1615.9822  0.029616271  0.028562497           31 
 4548000   0.52325207   -5.5831125    1616.1324  0.029612511  0.028554456           25 
 4549000   0.51840222   -5.5679747    1616.6408  0.029615314  0.028546406           20 
 4550000   0.52102104   -5.5678672    1615.4759   0.02958747   0.02853838           19 
 4551000   0.52474069   -5.5613297    1613.6038   0.02954669   0.02853037           23 
 4552000   0.53103365   -5.5665124    1616.4873  0.029592987  0.028522377           25 
 4553000   0.53719648   -5.5548676    1615.1712  0.029562398  0.028514374           35 
 4554000   0.52687316   -5.5479134    1618.4785  0.029616427  0.028506355           31 
 4555000    0.5165522   -5.5640873    1614.8419  0.029543394  0.028498344           18 
 4556000   0.52053584   -5.5580335    1613.5718  0.029513678  0.028490324           30 
 4557000   0.51884667   -5.5661211    1615.4985  0.029542436  0.028482295           14 
 4558000    0.5300714   -5.5667057    1614.8689  0.029524443  0.028474281           20 
 4559000   0.53141908   -5.5491522    1613.6532  0.029495746  0.028466268           18 
 4560000   0.52618674   -5.5666109    1615.7294  0.029527219  0.028458268           44 
 4561000   0.51637851   -5.5696295    1615.9734  0.029525203  0.028450248           39 
 4562000    0.5278963   -5.5775197    1614.0263  0.029483163  0.028442238           28 
 4563000   0.52820474   -5.5638713    1615.8766  0.029510494  0.028434243           25 
 4564000   0.52529556   -5.5688459    1616.3686  0.029513012  0.028426246           25 
 4565000   0.52156067   -5.5741706    1616.2825  0.029504974   0.02841823           30 
 4566000     0.529072   -5.5447703     1613.213  0.029442492  0.028410225           27 
 4567000   0.53803712   -5.5538948    1618.5424   0.02953329  0.028402228           30 
 4568000   0.52363244   -5.5636429    1616.4379  0.029488433   0.02839425           55 
 4569000   0.52297384   -5.5536317    1615.4836  0.029464574  0.028386262           57 
 4570000   0.52380211   -5.5711368    1614.5734  0.029441527   0.02837829           17 
 4571000   0.52669631   -5.5738123    1613.3046  0.029411956  0.028370294           30 
 4572000   0.51227754   -5.5577957     1612.145  0.029384387  0.028362314           37 
 4573000   0.52033658   -5.5664845    1613.9215  0.029410335  0.028354353           35 
 4574000   0.52681732   -5.5660027    1616.4909  0.029450717  0.028346391          120 
 4575000   0.52826978   -5.5695723    1614.5819  0.029409507   0.02833841           51 
 4576000   0.52599878   -5.5595278    1615.8759  0.029426644  0.028330441           23 
 4577000    0.5271432   -5.5526226    1615.4677  0.029412783  0.028322497           62 
 4578000   0.51651327   -5.5692853    1614.8426  0.029394979  0.028314541           97 
 4579000   0.51312124   -5.5816258    1613.8577  0.029370635  0.028306601           54 
 4580000   0.50929473   -5.5792998    1613.1944  0.029352153  0.028298634           33 
 4581000   0.52181202   -5.5686662    1616.6822  0.029409193  0.028290678           37 
 4582000   0.51731483   -5.5716549    1617.2453  0.029413017  0.028282725           51 
 4583000    0.5191583    -5.562831    1614.8173  0.029362449  0.028274766           26 
 4584000    0.5172199   -5.5595302    1614.7793  0.029355354  0.028266808           21 
 4585000   0.51726784   -5.5661705    1616.2934  0.029376471  0.028258866           76 
 4586000   0.52023171   -5.5627766    1618.6315  0.029412552  0.028250939           87 
 4587000   0.52158864   -5.5677061    1613.8865  0.029319935   0.02824301           53 
 4588000   0.51543735   -5.5658819     1613.168  0.029300495   0.02823507           46 
 4589000    0.5256586   -5.5855532    1613.8057   0.02930569  0.028227149           38 
 4590000   0.51533163   -5.5887767    1615.5189  0.029330409  0.028219215           72 
 4591000   0.51405547   -5.5764023    1615.1805  0.029317878  0.028211272           33 
 4592000   0.50097711   -5.5602962    1614.1037  0.029291951  0.028203331           50 
 4593000   0.51323671   -5.5879703    1614.6641  0.029295741  0.028195417           56 
 4594000   0.53038295   -5.5674006    1617.2827  0.029336865  0.028187511           61 
 4595000   0.50684386   -5.5567002    1615.1496  0.029291796  0.028179614           64 
 4596000   0.50485774   -5.5747663    1615.2914  0.029287992  0.028171687           90 
 4597000   0.52193973   -5.5874733    1613.4653   0.02924852  0.028163761           72 
 4598000   0.50659983   -5.5679464    1612.3373  0.029221714  0.028155855           81 
 4599000   0.52848017   -5.5653925    1613.8968  0.029243618   0.02814795           69 
 4600000   0.51069482   -5.5868305      1616.37  0.029282066  0.028140049           75 
 4601000   0.52527242   -5.5704529     1616.107  0.029270938  0.028132144           48 
 4602000   0.51385538   -5.5729771    1614.9797  0.029244163  0.028124242           70 
 4603000   0.52172067    -5.581986    1614.7361  0.029233401   0.02811634           49 
 4604000   0.52371844   -5.5713456    1615.5466  0.029241722  0.028108453           62 
 4605000   0.51308074    -5.579237     1615.101  0.029227307  0.028100554           40 
 4606000   0.51483196   -5.5768552    1617.1331  0.029257727  0.028092675           38 
 4607000   0.52688174   -5.5870814    1614.3727  0.029201446  0.028084798           36 
 4608000   0.51303546   -5.5996826     1618.735  0.029273998   0.02807691           48 
 4609000   0.51374691   -5.5986004      1616.33  0.029224162  0.028069007           23 
 4610000   0.51883722   -5.5962921     1618.111  0.029250018  0.028061119           52 
 4611000   0.52020268   -5.5744753    1616.5322  0.029215142  0.028053242           53 
 4612000   0.52125543   -5.5924157    1615.8334  0.029196181  0.028045368           64 
 4613000   0.52435224   -5.5850289    1615.3881  0.029181807  0.028037491           92 
 4614000   0.49733012   -5.6094442    1613.9805   0.02915006  0.028029591           81 
 4615000   0.50534257   -5.5806018    1612.8099  0.029122605  0.028021681           34 
 4616000   0.51249189   -5.6023976    1615.3924  0.029162918  0.028013798           46 
 4617000   0.52037846   -5.5890733    1612.3782  0.029102198  0.028005911           63 
 4618000   0.51568839   -5.5847348    1615.1308  0.029145568   0.02799803           66 
 4619000   0.50955449   -5.5844391    1615.1117  0.029138914  0.027990155           74 
 4620000   0.50799525   -5.5780609     1618.502  0.029193759   0.02798227           29 
 4621000   0.50551221   -5.6053708    1612.9887  0.029088016  0.027974395           26 
 4622000   0.51136013   -5.5793695    1614.0677  0.029101177  0.027966513           38 
 4623000   0.51699122   -5.5970937    1613.9452  0.029092674  0.027958632           42 
 4624000   0.51604396   -5.5996954    1615.3826  0.029112287  0.027950763           38 
 4625000   0.51172455   -5.5928947    1614.9868  0.029098861  0.027942881           21 
 4626000   0.50936282   -5.6011253    1616.1579  0.029113667  0.027935018           53 
 4627000   0.50975324   -5.5935891    1615.0487  0.029087399  0.027927159           20 
 4628000   0.51778596   -5.5869034    1619.3896  0.029159277  0.027919322           19 
 4629000   0.51998662   -5.5790877    1615.5567  0.029083976  0.027911487           27 
 4630000    0.5103881    -5.589376    1615.3795  0.029074506  0.027903644           57 
 4631000   0.51184135   -5.5828683    1613.6033  0.029036265  0.027895806           32 
 4632000   0.50575556   -5.5817291     1617.046  0.029091933  0.027887966           47 
 4633000   0.50320583   -5.5848953     1612.631  0.029006241  0.027880133           66 
 4634000   0.50653464   -5.6080218    1615.1563  0.029045395  0.027872312           97 
 4635000   0.50136871   -5.5852683    1616.1607  0.029057186   0.02786449           39 
 4636000    0.5054223   -5.5923933    1612.7056  0.028988813  0.027856642           40 
 4637000   0.51437355   -5.5966598    1611.8078  0.028966427  0.027848813          127 
 4638000    0.5123112    -5.601427    1613.2199  0.028985553  0.027840988           31 
 4639000   0.50137382   -5.5802367    1615.4593  0.029019531  0.027833166           39 
 4640000   0.50858653   -5.5840984    1614.8729  0.029002745  0.027825357           33 
 4641000   0.51474102   -5.5759894     1616.286  0.029021871  0.027817541           45 
 4642000   0.51255989   -5.6129032    1612.0899  0.028940289  0.027809708           51 
 4643000   0.50466931   -5.5888925    1615.1945  0.028989778  0.027801903           22 
 4644000   0.50942514   -5.6046198    1615.8803  0.028995842  0.027794105           41 
 4645000   0.50950889   -5.5941066    1617.2691  0.029014515  0.027786293           30 
 4646000   0.51251714   -5.5991352    1615.2285  0.028971669  0.027778481           47 
 4647000   0.50566647   -5.6247048    1612.6159  0.028918584  0.027770672           23 
 4648000   0.51522612   -5.6058065    1612.1552  0.028904102  0.027762833           37 
 4649000   0.49364987    -5.604863    1617.1139  0.028986769  0.027754999           61 
 4650000   0.49733318   -5.5770608    1614.6041  0.028935557  0.027747211           33 
 4651000   0.51487059     -5.58667    1613.7588   0.02891419  0.027739414           35 
 4652000   0.51339075    -5.597898    1613.1733  0.028897486  0.027731611           33 
 4653000   0.50785747   -5.5917602    1618.1979  0.028981264  0.027723807           61 
 4654000    0.5141469   -5.6112026    1614.6742  0.028911943   0.02771598           37 
 4655000   0.50364774   -5.5797163    1618.6331  0.028976604   0.02770816           52 
 4656000    0.5075975   -5.5951774    1610.4764  0.028824391  0.027700349           97 
 4657000   0.50188995   -5.5880912    1615.8164  0.028913757  0.027692545           95 
 4658000   0.51391051   -5.5931485    1616.7676  0.028924566  0.027684734           36 
 4659000   0.50698658    -5.588551    1615.9511  0.028903755  0.027676923           56 
 4660000   0.51027292   -5.6037892    1614.1086  0.028864602  0.027669127           37 
 4661000   0.49525876   -5.6081371    1614.9822  0.028874029  0.027661327           54 
 4662000   0.50497445   -5.5930352    1615.0058  0.028868257  0.027653554           29 
 4663000   0.50219664   -5.6017408    1611.9356  0.028807198  0.027645763           51 
 4664000   0.49836745   -5.5993106    1614.7394  0.028851119  0.027637983           23 
 4665000   0.49875083   -5.5939812    1615.3485  0.028855815  0.027630197           22 
 4666000   0.50776241   -5.6059005    1615.9524  0.028860416  0.027622421           27 
 4667000   0.50683443     -5.61875    1612.8059  0.028798048  0.027614627           37 
 4668000   0.49996697     -5.60547    1612.2515  0.028781982  0.027606829           19 
 4669000   0.50322398   -5.6032698    1615.5338    0.0288344  0.027599034           59 
 4670000   0.51678491   -5.6270213    1612.9354   0.02878186  0.027591244           12 
 4671000   0.49711419   -5.5945949    1613.8162  0.028791412  0.027583466           27 
 4672000   0.50625916   -5.6102803    1612.6194  0.028763902  0.027575682           59 
 4673000   0.51143068   -5.6230102    1612.6971  0.028759132  0.027567892           29 
 4674000   0.50350094    -5.600724    1613.0803  0.028759811  0.027560114           34 
 4675000   0.50172604   -5.5975184    1612.8928  0.028750317  0.027552336           62 
 4676000   0.50286844   -5.6001059    1615.2788  0.028786691  0.027544561           92 
 4677000   0.50191258   -5.6109902    1614.0167  0.028758047  0.027536776           49 
 4678000   0.49322429   -5.5981249    1615.3556  0.028775752  0.027529004           37 
 4679000   0.49072725   -5.6205101    1613.8044  0.028741974  0.027521238           69 
 4680000   0.49405672   -5.6040484    1612.8539  0.028718908   0.02751347           63 
 4681000   0.51265442   -5.6069657    1613.9835  0.028732883  0.027505703           69 
 4682000   0.50179994   -5.5997203    1615.2333  0.028748991  0.027497943           48 
 4683000    0.5045506   -5.5900709    1613.9119  0.028719337  0.027490211           15 
 4684000   0.50536705   -5.5970702    1616.1688  0.028753359  0.027482472           35 
 4685000   0.49172105   -5.6071331    1616.7679  0.028757877  0.027474703           27 
 4686000   0.50261953   -5.6237488    1611.7502  0.028662509  0.027466932           27 
 4687000   0.50500755   -5.6142945    1612.0725  0.028662124  0.027459175           42 
 4688000   0.49932031   -5.6119808    1611.9535  0.028653895  0.027451417           38 
 4689000    0.4967673   -5.6107103    1612.6491  0.028660146  0.027443675           59 
 4690000   0.49529859   -5.6124044    1612.6061  0.028653271  0.027435927           60 
 4691000   0.49613323   -5.6043329    1614.1051  0.028673792  0.027428161           36 
 4692000   0.50594893   -5.6028624    1613.4908   0.02865677  0.027420421           33 
 4693000   0.49678544   -5.6229275    1612.5775  0.028634447  0.027412679           55 
 4694000    0.4986657   -5.6145705    1615.7112   0.02868398  0.027404933           29 
 4695000   0.50202338   -5.6173841    1610.7642  0.028590065  0.027397201           42 
 4696000   0.49903868   -5.6163565    1613.8498  0.028638732  0.027389485           35 
 4697000   0.49738193   -5.6123868    1614.6075  0.028646077  0.027381768           39 
 4698000   0.49064571   -5.6248282    1611.8864  0.028591712  0.027374035           47 
 4699000   0.50089172   -5.6207983     1611.524  0.028579202  0.027366288           52 
 4700000   0.51324689   -5.6110414    1612.2959  0.028586806  0.027358539           39 
 4701000   0.49671406   -5.6179395    1612.9497  0.028592316  0.027350792           23 
 4702000   0.48118515   -5.6362768    1609.2958  0.028521477  0.027343034           56 
 4703000   0.50894031   -5.6167821    1612.3486  0.028569505  0.027335279           59 
 4704000   0.49915771    -5.624264    1613.1175  0.028577052   0.02732754           80 
 4705000   0.49506375   -5.6231283    1611.6606  0.028545176  0.027319792           74 
 4706000    0.4921688   -5.6326441    1614.5215  0.028589769  0.027312031           54 
 4707000   0.50538422    -5.629405    1611.1183  0.028523445  0.027304275           59 
 4708000   0.50619436   -5.6331394     1612.752  0.028546304  0.027296521           48 
 4709000   0.50410685   -5.6303219     1609.267  0.028478569   0.02728876           49 
 4710000   0.50018372   -5.6314355    1610.7959  0.028499574  0.027280987           69 
 4711000   0.49882986   -5.6296071    1613.2534  0.028536995   0.02727322           42 
 4712000   0.50704221     -5.62997    1610.3212  0.028479081   0.02726545           85 
 4713000   0.49643614   -5.6356415    1612.8311  0.028517417  0.027257693          138 
 4714000   0.50114781   -5.6288504    1611.3568  0.028485306  0.027249922          161 
 4715000   0.50727259   -5.6536679    1609.7031  0.028450038  0.027242156           30 
 4716000    0.4887442   -5.6571188    1610.0189  0.028449584  0.027234391           50 
 4717000   0.49134036   -5.6360961    1611.4765  0.028469305  0.027226637           84 
 4718000   0.49184384    -5.630142    1613.7687  0.028503757  0.027218887          106 
 4719000   0.50143487   -5.6419114     1610.406  0.028438335  0.027211154           88 
 4720000   0.49674093   -5.6399357     1610.327  0.028430915  0.027203409          123 
 4721000   0.50550663   -5.6318801    1611.0878  0.028438322   0.02719568          114 
 4722000   0.49319108   -5.6220165    1610.3843  0.028419884   0.02718795           99 
 4723000   0.49367128   -5.6343799    1610.7765  0.028420786  0.027180203           89 
 4724000   0.48859608   -5.6426265    1612.3127   0.02844187  0.027172461           80 
 4725000    0.5072213   -5.6251946    1610.3969  0.028402062  0.027164729           54 
 4726000   0.49127846   -5.6407984    1609.4128  0.028378699  0.027156997           54 
 4727000   0.49155941   -5.6315299    1611.8622  0.028415877   0.02714927           39 
 4728000   0.49293236   -5.6308918    1611.0451  0.028395465  0.027141549           82 
 4729000   0.49265875   -5.6245607    1613.4049  0.028431045  0.027133835           58 
 4730000   0.49602351   -5.6347139    1611.7724  0.028396272  0.027126151          167 
 4731000   0.49870696   -5.6300452    1613.6372  0.028423118  0.027118475          106 
 4732000   0.48190973   -5.6264993    1611.6188  0.028381566  0.027110799          128 
 4733000   0.49109973   -5.6273661     1615.542  0.028444645  0.027103135           81 
 4734000   0.47687942   -5.6199771    1611.8745  0.028374076  0.027095472          106 
 4735000    0.4940222   -5.6227386    1610.7131  0.028347643  0.027087811           93 
 4736000   0.49444982   -5.6257518    1615.7422  0.028430149  0.027080169          119 
 4737000   0.49648982   -5.6450128    1610.9842  0.028340444  0.027072511          122 
 4738000       0.4986   -5.6245135     1612.495  0.028361035  0.027064867           72 
 4739000   0.49046623   -5.6220029    1616.0297  0.028417206  0.027057237          123 
 4740000   0.48645346   -5.6253166      1612.18   0.02834353  0.027049594          103 
 4741000   0.50050843   -5.6222358    1613.1683  0.028354924  0.027041954          182 
 4742000   0.48716805   -5.6360669    1614.7426   0.02837661  0.027034323           79 
 4743000   0.50524485   -5.6251137    1612.6828  0.028334436  0.027026692          104 
 4744000    0.4976842   -5.6146688    1614.0537  0.028352546  0.027019073          113 
 4745000   0.50908931   -5.6410486    1612.9412  0.028327032  0.027011447          125 
 4746000   0.50878316   -5.6416171    1611.8155  0.028301297   0.02700381           91 
 4747000   0.49392682   -5.6304509    1612.3588  0.028304874  0.026996186           83 
 4748000   0.48855984   -5.6425671    1611.0925  0.028276687  0.026988547           48 
 4749000   0.49817618   -5.6369958    1609.1377   0.02823643    0.0269809           47 
 4750000   0.49632476   -5.6302028    1607.3039  0.028198314  0.026973258           31 
 4751000   0.49034179    -5.634118    1605.4828  0.028160436   0.02696561           91 
 4752000    0.4895709   -5.6339063    1614.5459  0.028313445  0.026957974           81 
 4753000   0.49225189   -5.6382122    1609.2868  0.028215281  0.026950325           52 
 4754000   0.49190788   -5.6433553    1611.3952  0.028246304  0.026942684           55 
 4755000   0.49593959   -5.6367093    1612.0652  0.028252106  0.026935058           63 
 4756000   0.48667716   -5.6367711    1612.1594  0.028247816  0.026927425          131 
 4757000   0.47615457   -5.6520014    1610.1084  0.028205949   0.02691978           75 
 4758000    0.5074598   -5.6485819    1606.7642  0.028141449   0.02691215           86 
 4759000    0.4884865   -5.6481939    1611.1062  0.028211567  0.026904529           49 
 4760000   0.48135821    -5.631576    1612.6432  0.028232549  0.026896916           78 
 4761000   0.49578184   -5.6456241    1612.3071  0.028220736  0.026889312          180 
 4762000   0.49969687    -5.648111    1612.2386  0.028213611  0.026881712           70 
 4763000   0.49344902   -5.6563071    1611.2479  0.028190354   0.02687411           65 
 4764000   0.48752721   -5.6499282     1612.051  0.028198485  0.026866514          158 
 4765000   0.49425951   -5.6392255    1611.6554  0.028185649  0.026858911          130 
 4766000   0.49141042   -5.6384801    1609.7154  0.028145814  0.026851306           65 
 4767000   0.49625178   -5.6461466    1612.1766  0.028182935   0.02684371           67 
 4768000   0.48494433   -5.6492416    1608.9517  0.028120661  0.026836108          169 
 4769000   0.48335888    -5.633854    1613.5588  0.028195268  0.026828498           76 
 4770000   0.49296597   -5.6454124    1609.9249  0.028125872  0.026820893           88 
 4771000   0.48646898   -5.6421709    1612.9891  0.028173497  0.026813285           98 
 4772000     0.478737   -5.6431986    1609.8624  0.028112993   0.02680569           80 
 4773000    0.4805998   -5.6418643     1610.463  0.028117588  0.026798082           29 
 4774000   0.48845545   -5.6553546     1613.876  0.028171275   0.02679048           27 
 4775000   0.50507932   -5.6450161    1610.6181  0.028108517  0.026782882           51 
 4776000   0.48424077   -5.6494064    1611.8339  0.028123848  0.026775292           42 
 4777000   0.48969558   -5.6547051    1611.7058  0.028115724  0.026767692           70 
 4778000   0.49411927   -5.6591137    1609.2229  0.028066535   0.02676009          105 
 4779000   0.48465212   -5.6476647    1611.5345  0.028100971  0.026752489           89 
 4780000   0.49454739   -5.6483704    1610.0904  0.028069917  0.026744884           61 
 4781000    0.4876219   -5.6491882    1611.9843  0.028097057  0.026737276           65 
 4782000    0.4823235   -5.6506853    1610.6581  0.028068069  0.026729682           90 
 4783000   0.48322091   -5.6648732    1611.2871   0.02807316  0.026722077          109 
 4784000   0.48302595   -5.6564735    1611.7103  0.028074664  0.026714482           67 
 4785000   0.49711762    -5.651341    1606.3173  0.027974874  0.026706881           69 
 4786000   0.48365173   -5.6492625    1611.3119  0.028055996  0.026699302           61 
 4787000   0.48252773    -5.648501    1611.3756  0.028051242  0.026691729          114 
 4788000   0.49437772   -5.6594884    1607.8795  0.027984537  0.026684175          142 
 4789000   0.48202053   -5.6465125     1613.117   0.02806983  0.026676605           67 
 4790000   0.48385742   -5.6691507    1612.1902  0.028047846  0.026669046           66 
 4791000   0.47954651   -5.6504649    1610.0371  0.028004541  0.026661495          136 
 4792000   0.48375041    -5.655958    1608.3817   0.02796991  0.026653937           82 
 4793000   0.49008739   -5.6433065    1607.2155  0.027943798  0.026646392           58 
 4794000   0.47856533   -5.6495657    1612.2201  0.028024963  0.026638835           64 
 4795000   0.49240922   -5.6546956    1610.6684  0.027992152  0.026631286          129 
 4796000   0.48617159   -5.6498191     1610.772  0.027988115  0.026623735          137 
 4797000   0.48798206   -5.6493667    1608.5039   0.02794288  0.026616183           81 
 4798000   0.47741071   -5.6533151    1609.5181  0.027954671  0.026608641          124 
 4799000   0.48752096   -5.6450358    1610.7519   0.02797027  0.026601091          120 
 4800000   0.48838621   -5.6472281    1608.5456  0.027926139   0.02659354          233 
 4801000   0.47241782   -5.6625184    1608.7367   0.02792364  0.026585962          162 
 4802000   0.48662923   -5.6500174    1606.6643   0.02788186  0.026578394          212 
 4803000   0.48466153   -5.6478985     1611.628  0.027962177  0.026570833          123 
 4804000   0.49736692   -5.6601715     1608.843  0.027908045  0.026563289          174 
 4805000   0.48101591   -5.6560705    1609.0565   0.02790594  0.026555754          191 
 4806000   0.47905655   -5.6739188    1609.5393  0.027908504  0.026548205          215 
 4807000   0.47460072   -5.6535429    1613.7862  0.027976322  0.026540684          126 
 4808000   0.49097682   -5.6452216    1613.0256  0.027957321  0.026533155           92 
 4809000   0.47911086   -5.6528036    1609.9923  0.027898945   0.02652562          176 
 4810000   0.48220093   -5.6885898    1609.1214  0.027878056  0.026518082          131 
 4811000   0.48328849   -5.6526809    1611.4605  0.027912778   0.02651055           66 
 4812000    0.4778856    -5.660037    1612.6766  0.027928038  0.026503027           77 
 4813000   0.47802007   -5.6749475    1607.6345  0.027834935   0.02649552          112 
 4814000   0.48458516   -5.6552028    1609.6024  0.027863218  0.026488003           54 
 4815000   0.48224337   -5.6573263    1612.0673  0.027900093  0.026480503           48 
 4816000   0.47636495   -5.6486983    1612.9409  0.027909414  0.026472997           81 
 4817000   0.48216149   -5.6309911      1611.06  0.027871082  0.026465501          222 
 4818000   0.48015563   -5.6546265     1609.373  0.027836118     0.026458          149 
 4819000   0.48234261   -5.6604666    1612.2824  0.027880653    0.0264505           82 
 4820000   0.48305884   -5.6608013     1610.685  0.027847251  0.026443004          116 
 4821000   0.47139533   -5.6489884    1609.8526  0.027827086  0.026435518           76 
 4822000   0.47612684   -5.6577509    1608.7286   0.02780189  0.026428021          160 
 4823000   0.48651872   -5.6545359     1606.875  0.027764099  0.026420519           81 
 4824000   0.47811072   -5.6627629    1608.9475  0.027794145  0.026413024          186 
 4825000   0.48859386   -5.6718778    1611.1488  0.027826405  0.026405526           51 
 4826000   0.47507109   -5.6633984    1612.6122  0.027845908  0.026398007           60 
 4827000    0.4820459   -5.6456439    1609.6806  0.027789527  0.026390504           57 
 4828000    0.4877878   -5.6773955    1609.1856  0.027775228  0.026383005           94 
 4829000   0.47196113   -5.6684105     1609.816  0.027780354  0.026375522           93 
 4830000   0.49388892   -5.6779726    1607.3456  0.027731981  0.026368011           69 
 4831000   0.48822347   -5.6543726    1611.4139  0.027796418  0.026360516          119 
 4832000   0.46252307   -5.6657947    1609.5908  0.027759224  0.026353034          134 
 4833000   0.47331038   -5.6616469    1610.3532  0.027766625  0.026345552           99 
 4834000   0.47309051     -5.65767    1609.2685  0.027742183  0.026338069           64 
 4835000   0.48685941   -5.6776164     1608.746  0.027727439  0.026330583          106 
 4836000   0.47956996    -5.677877     1608.798  0.027722601  0.026323091          253 
 4837000   0.47306113    -5.664104    1609.4317  0.027727788  0.026315606          122 
 4838000    0.4728113   -5.6721354    1609.5571  0.027724216  0.026308129          103 
 4839000   0.47015024   -5.6704531    1608.8402  0.027706141  0.026300651          116 
 4840000    0.4753647   -5.6773316    1606.1527  0.027654144  0.026293166          166 
 4841000    0.4705741   -5.6609946     1610.191  0.027717947  0.026285681           76 
 4842000   0.46985612   -5.6667243    1608.1296  0.027676746   0.02627822          131 
 4843000   0.47520158   -5.6664399    1612.0575  0.027738618  0.026270758          181 
 4844000   0.47831088   -5.6691916    1608.5248  0.027672117    0.0262633          210 
 4845000   0.46374317   -5.6712005     1608.537  0.027666616  0.026255833          227 
 4846000   0.48213334   -5.6871463     1609.002  0.027668902  0.026248371          223 
 4847000   0.46960002   -5.6580632    1610.5436  0.027689698  0.026240928          159 
 4848000   0.47850507   -5.6803786    1608.6223  0.027650961  0.026233476          141 
 4849000   0.46745734   -5.6705644    1605.6922  0.027594902  0.026226032          131 
 4850000   0.47696815   -5.6779925    1606.4111  0.027601566  0.026218583          199 
 4851000    0.4808045   -5.6861011    1607.6056  0.027616396  0.026211139          273 
 4852000   0.47615758   -5.6902357    1607.5683  0.027610063  0.026203682          192 
 4853000   0.48130737   -5.6712873    1606.8948  0.027592808  0.026196227          210 
 4854000    0.4626815   -5.6824129    1608.4837  0.027614402  0.026188784          215 
 4855000    0.4775686   -5.6629078    1609.0019  0.027617609  0.026181342          252 
 4856000   0.48063141   -5.6884477    1610.5514  0.027638513  0.026173913          181 
 4857000   0.47760124   -5.6713269    1607.6462  0.027582976  0.026166464          182 
 4858000   0.47755821   -5.6805064    1606.4545  0.027556857  0.026159021          193 
 4859000   0.47256508   -5.6810982    1607.2151   0.02756423  0.026151578          175 
 4860000   0.48916352   -5.6748818    1603.7598  0.027499311  0.026144145          161 
 4861000   0.46483615   -5.6787712    1606.8178  0.027546078  0.026136712          194 
 4862000   0.47790574   -5.6993927    1605.6679  0.027520703  0.026129257          226 
 4863000   0.47736424   -5.6805841    1606.7091  0.027532886  0.026121795          178 
 4864000   0.46762114   -5.6644807    1606.9111  0.027530686  0.026114346          164 
 4865000   0.47733635   -5.6929684    1608.9616   0.02756015  0.026106888          173 
 4866000   0.47303661   -5.6696482    1605.5954  0.027496838  0.026099453          160 
 4867000   0.46924225   -5.6725299    1610.4087  0.027573604  0.026092018          184 
 4868000    0.4648135   -5.6971806    1608.0649  0.027527817  0.026084581          174 
 4869000   0.46854191   -5.6901691    1607.6773  0.027515529  0.026077158          186 
 4870000   0.46928501    -5.674153      1607.27  0.027502909   0.02606974          174 
 4871000   0.47112165   -5.6647998    1607.3259  0.027498219  0.026062334          204 
 4872000   0.47844164   -5.6913361    1609.2591  0.027525641  0.026054921          189 
 4873000   0.47742699   -5.6689401    1606.6443  0.027475277  0.026047512          158 
 4874000   0.46385627   -5.6793148    1609.2615  0.027514388  0.026040112          171 
 4875000   0.47411063   -5.6708031    1608.8447  0.027501619    0.0260327          206 
 4876000   0.47199801   -5.6748894    1607.7126   0.02747663   0.02602531          202 
 4877000   0.47555946   -5.6791096    1610.0533  0.027510992   0.02601792          212 
 4878000   0.46767878   -5.6911016    1609.2987  0.027492461  0.026010534          221 
 4879000   0.47757394   -5.7001026    1604.6413  0.027407277  0.026003135          215 
 4880000   0.48207186   -5.6758265    1608.7536  0.027471886  0.025995736          184 
 4881000   0.46775214   -5.6757885    1605.9895  0.027419066  0.025988335          164 
 4882000   0.48609093   -5.6931932    1608.4319   0.02745514   0.02598092          193 
 4883000   0.47156912   -5.6907674    1605.9235  0.027406709  0.025973499          281 
 4884000   0.47137684   -5.6975088    1604.2953  0.027373317  0.025966074          306 
 4885000   0.47147968   -5.6853793    1609.5859  0.027457964  0.025958663          381 
 4886000   0.46592809   -5.7015939    1606.1463  0.027393681  0.025951251          413 
 4887000   0.47086091   -5.6975632    1605.3769  0.027374956  0.025943832          434 
 4888000   0.47170817   -5.6922083    1602.6306  0.027322535  0.025936434          204 
 4889000   0.46133058   -5.6852113    1604.8441  0.027354675  0.025929026          326 
 4890000   0.47670959   -5.7093691    1605.0624  0.027352802  0.025921615          225 
 4891000    0.4730211   -5.7008365     1607.627  0.027390905   0.02591422          166 
 4892000   0.45099119   -5.6866358    1606.1641  0.027360386   0.02590683          141 
 4893000   0.46917576   -5.6901806    1604.5337  0.027327027   0.02589944          219 
 4894000   0.46778533    -5.686187    1606.6398  0.027357306  0.025892045          172 
 4895000   0.46959381   -5.7008639    1608.1332  0.027377139  0.025884653          383 
 4896000   0.46266334   -5.6770953    1607.9367  0.027368203  0.025877267          316 
 4897000   0.47369693   -5.6986637     1606.232  0.027333606  0.025869896          385 
 4898000   0.45893052   -5.6867073    1607.4194  0.027348227  0.025862525          346 
 4899000   0.47390847   -5.6864233    1608.0248  0.027352942  0.025855161          253 
 4900000   0.45617416   -5.6940455     1605.385  0.027302466  0.025847799          397 
 4901000   0.47367176   -5.6938281    1606.7547  0.027320184   0.02584043          177 
 4902000   0.46714202   -5.6860143    1607.0845  0.027320218  0.025833075          158 
 4903000   0.47283543   -5.6815567    1606.2726  0.027300846  0.025825727          387 
 4904000   0.47797595   -5.6889932    1606.7493   0.02730338  0.025818384          307 
 4905000   0.46297892   -5.6857712    1605.0835  0.027269513  0.025811036          431 
 4906000    0.4624291   -5.7118638    1608.1161  0.027315465  0.025803667          511 
 4907000   0.46973738   -5.6799663    1606.1776  0.027276979  0.025796317          522 
 4908000   0.46163051   -5.6799089    1609.6156  0.027329794  0.025788967          471 
 4909000   0.45998538   -5.6903936    1607.3956  0.027286542  0.025781627          466 
 4910000   0.45779051   -5.7177692    1606.6375  0.027268118  0.025774273          512 
 4911000   0.46265227   -5.6927903    1604.6635  0.027229068   0.02576692          526 
 4912000   0.46412268   -5.6902126    1604.6865  0.027223915  0.025759576          477 
 4913000   0.47280346   -5.6981067    1607.6253  0.027268223  0.025752224          436 
 4914000   0.46118147   -5.7035678     1607.961  0.027268366  0.025744875          363 
 4915000   0.46071394   -5.7174776    1609.3529  0.027286417  0.025737522          579 
 4916000   0.46981366   -5.6962141    1606.8382  0.027238239  0.025730168          525 
 4917000   0.45569144   -5.7040172    1605.3221  0.027207004  0.025722814          521 
 4918000   0.46565201   -5.6864387    1606.4175  0.027220033  0.025715462          531 
 4919000   0.45217335   -5.6936882    1610.0269  0.027275648  0.025708124          476 
 4920000   0.46308801   -5.7106436    1605.9243  0.027200615  0.025700791          461 
 4921000   0.45622816   -5.7139616    1604.3011    0.0271676  0.025693463          427 
 4922000   0.46077591   -5.7094535     1604.875  0.027171797  0.025686135          430 
 4923000   0.47328727   -5.7132932    1603.5823  0.027144395  0.025678806          318 
 4924000   0.46654173   -5.7115707    1604.6936  0.027157691  0.025671468          467 
 4925000   0.46625246   -5.7210277    1603.1661  0.027126331  0.025664134          475 
 4926000   0.46854749   -5.7086072    1605.6189  0.027162316  0.025656796          409 
 4927000   0.46584131   -5.7027071    1604.5412  0.027138576  0.025649454          374 
 4928000   0.45641387   -5.6994585    1605.4801  0.027148946  0.025642125          473 
 4929000   0.45671569   -5.7154382    1603.6623  0.027112705   0.02563479          262 
 4930000   0.45097835   -5.7252779    1607.3856  0.027170142  0.025627457          444 
 4931000   0.46378969   -5.7022573    1605.3255  0.027129816  0.025620128          409 
 4932000   0.45760222   -5.7174723    1604.4485  0.027109497  0.025612802          451 
 4933000   0.46237164   -5.7231323    1605.0258  0.027113754  0.025605476          443 
 4934000   0.45848216   -5.7006961    1605.0564  0.027108777  0.025598153          335 
 4935000   0.46356182   -5.7244777    1604.1235   0.02708753  0.025590829          478 
 4936000   0.46464932   -5.6955758    1605.6233  0.027107362   0.02558351          327 
 4937000   0.45671167    -5.708757    1607.5493  0.027134381  0.025576211          498 
 4938000   0.46815732   -5.7026282    1605.0918  0.027087414  0.025568916          476 
 4939000   0.46063312   -5.6970265    1604.0397  0.027064177  0.025561626          535 
 4940000   0.46890652   -5.7192686    1604.5478   0.02706727  0.025554332          440 
 4941000   0.45208618   -5.7156805    1607.3193  0.027108535  0.025547037          518 
 4942000   0.46923913   -5.7143264    1606.0905   0.02708233  0.025539742          563 
 4943000    0.4634307   -5.7068501    1606.2808  0.027080059  0.025532449          531 
 4944000   0.45757821   -5.6943004    1604.5701  0.027045747  0.025525165          614 
 4945000   0.46629394   -5.7219203    1602.7849  0.027010193   0.02551787          606 
 4946000   0.46049385   -5.7204273    1601.5766  0.026984375  0.025510572          453 
 4947000   0.46149832   -5.7116878    1605.2843  0.027041377  0.025503277          554 
 4948000   0.46524604   -5.7042236    1606.9998  0.027064803  0.025495983          443 
 4949000   0.45961804      -5.7024    1605.5397  0.027034749  0.025488711          556 
 4950000   0.45376343   -5.7274417    1603.3107  0.026991763  0.025481431          521 
 4951000   0.45438877   -5.7170337    1607.7062  0.027060295  0.025474152          639 
 4952000   0.44856388   -5.6987306    1607.8177  0.027056705  0.025466874          231 
 4953000   0.45769063   -5.7082998    1605.7636  0.027016684  0.025459597          601 
 4954000   0.45843554   -5.7140839    1605.8732  0.027013073  0.025452328          636 
 4955000   0.45809478   -5.7196734    1604.8437  0.026990308  0.025445055          547 
 4956000   0.46054159   -5.7225026    1603.5091   0.02696242  0.025437766          290 
 4957000   0.45920077   -5.7212516    1603.0301  0.026948929  0.025430483          669 
 4958000   0.45139161   -5.7160479    1605.2911  0.026981497  0.025423195          647 
 4959000   0.45091827    -5.741665    1602.6136  0.026931062  0.025415902          668 
 4960000   0.46064937   -5.7136031    1602.7095  0.026927244   0.02540861          622 
 4961000   0.46300119   -5.7350481     1603.469  0.026934573   0.02540133          662 
 4962000   0.46315612   -5.7227262    1603.5567  0.026930618  0.025394039          659 
 4963000   0.46311408   -5.7240764    1600.3357  0.026871108  0.025386762          677 
 4964000   0.45699473   -5.7193859    1601.4188  0.026883878  0.025379478          699 
 4965000   0.45811681   -5.7371549    1600.6649  0.026865809  0.025372194          655 
 4966000   0.45515923   -5.7214638    1604.4621   0.02692412  0.025364907          661 
 4967000   0.45575082   -5.7338149     1604.217  0.026914586  0.025357618          696 
 4968000   0.46180417   -5.7221997    1602.8911  0.026886928  0.025350342          741 
 4969000   0.45149191   -5.7273345    1603.4972  0.026891681  0.025343067          671 
 4970000   0.45837612   -5.7242198    1603.0983  0.026879582  0.025335786          762 
 4971000    0.4698059   -5.7313652    1604.1337  0.026891532  0.025328506          721 
 4972000    0.4571459   -5.7462332    1601.6006  0.026843668  0.025321232          782 
 4973000   0.45096364   -5.7334544    1602.0962  0.026846575  0.025313953          783 
 4974000    0.4619979   -5.7386187    1604.2225  0.026876801  0.025306684          844 
 4975000   0.45160726   -5.7354094    1603.1515  0.026853459  0.025299419          938 
 4976000   0.45372897    -5.748442    1603.3595  0.026851545  0.025292138          858 
 4977000    0.4574084   -5.7297016    1600.6132  0.026800168  0.025284865          893 
 4978000   0.45697542   -5.7452418    1603.7346  0.026847037  0.025277596         1069 
 4979000   0.44403949   -5.7321752    1602.0786  0.026813928  0.025270319         1039 
 4980000   0.46052563   -5.7253964    1604.3902  0.026847225  0.025263047          914 
 4981000   0.45632753   -5.7353698    1597.9744  0.026734498  0.025255781          960 
 4982000   0.45599081    -5.746087    1598.9219  0.026744979  0.025248504          993 
 4983000   0.44245735    -5.728166    1600.5906  0.026767519  0.025241228         1004 
 4984000   0.45314257   -5.7416203     1604.725  0.026831277  0.025233952          975 
 4985000    0.4538076   -5.7409144    1601.2845   0.02676838  0.025226692          996 
 4986000   0.46042527   -5.7272201    1602.5603  0.026784334   0.02521944          982 
 4987000   0.44116499   -5.7338605    1600.3602  0.026742199  0.025212186         1009 
 4988000   0.44632824   -5.7320979    1602.2737  0.026768807  0.025204933          957 
 4989000    0.4533479   -5.7510202     1601.923  0.026757584  0.025197667         1030 
 4990000   0.45178917   -5.7480131    1601.0205   0.02673715  0.025190411          976 
 4991000   0.45260141    -5.737632    1602.6326  0.026758709  0.025183152         1013 
 4992000   0.45135344    -5.748777    1599.7647  0.026705474  0.025175884          990 
 4993000   0.45121436   -5.7327026    1602.3598  0.026743438  0.025168635         1077 
 4994000   0.45366761   -5.7438826    1600.6346  0.026709294  0.025161373          995 
 4995000   0.46226998   -5.7579462    1602.4147  0.026733645  0.025154127         1076 
 4996000   0.45668568    -5.737877    1601.8856  0.026719468  0.025146874         1026 
 4997000   0.45811427   -5.7416511    1600.3934  0.026689236   0.02513962         1065 
 4998000   0.45572651   -5.7294384    1598.1124  0.026645865  0.025132357         1097 
 4999000   0.46156436   -5.7457104    1599.4239  0.026662397  0.025125091         1079 
 5000000   0.45643005   -5.7496855    1599.3969  0.026656615   0.02511783         1042 
 5001000    0.4478044    -5.755673    1596.8544  0.026608918  0.025110582          984 
 5002000   0.45374732   -5.7461192     1600.161  0.026658687  0.025103338         1138 
 5003000   0.45037729   -5.7419744    1599.3536  0.026639909  0.025096081         1022 
 5004000   0.45133231   -5.7497522    1599.5568   0.02663797   0.02508884         1060 
 5005000   0.45026274   -5.7619008    1602.2257  0.026677085  0.025081598         1051 
 5006000   0.45297512   -5.7553006    1598.4788  0.026609381  0.025074353         1102 
 5007000   0.44780727     -5.75623    1599.7751  0.026625643  0.025067119          950 
 5008000   0.44385008   -5.7582828    1601.3825  0.026647073  0.025059892          985 
 5009000   0.45591693   -5.7457684    1597.9561   0.02658475  0.025052644         1119 
 5010000   0.44986344   -5.7483623    1599.2361  0.026600734  0.025045398         1124 
 5011000   0.44722713   -5.7617283    1596.3426  0.026547306  0.025038156         1082 
 5012000   0.45256741   -5.7583768    1601.2966  0.026624378  0.025030923         1133 
Loop time of 12880.2 on 48 procs for 5000000 steps with 4000 atoms

Performance: 67079.528 tau/day, 388.192 timesteps/s
99.4% CPU use with 48 MPI tasks x no OpenMP threads

MPI task timing breakdown:
Section |  min time  |  avg time  |  max time  |%varavg| %total
---------------------------------------------------------------
Pair    | 905.46     | 969.96     | 1037.5     | 113.2 |  7.53
Neigh   | 85.812     | 89.649     | 94.075     |  25.3 |  0.70
Comm    | 816.19     | 880.33     | 943.49     | 113.0 |  6.83
Output  | 14.371     | 14.375     | 14.466     |   0.3 |  0.11
Modify  | 10771      | 10806      | 10825      |  14.6 | 83.90
Other   |            | 120        |            |       |  0.93

Nlocal:        83.3333 ave          91 max          78 min
Histogram: 5 4 3 13 8 4 9 0 1 1
Nghost:        2336.08 ave        2351 max        2315 min
Histogram: 1 1 3 5 6 8 9 6 5 4
Neighs:        15903.2 ave       17737 max       14081 min
Histogram: 1 4 3 7 10 6 11 2 1 3
FullNghs:      31806.5 ave       34860 max       29167 min
Histogram: 2 4 4 8 8 12 4 4 1 1

Total # of neighbors = 1526712
Ave neighs/atom = 381.67800
Neighbor list builds = 269261
Dangerous builds = 1

#clear
#
#next RN
#
#jump SELF
Total wall time: 3:34:43
