
units lj                  # Use reduced LJ style units
atom_style atomic         # Uncharged point particles
atom_modify map hash      # Needed for indexing of clusters etc
                          # Used to be able to find where atoms are in relation to each other.

lattice fcc 1.0 spacing 1 1 1
Lattice spacing in x,y,z = 1.5874011 1.5874011 1.5874011
region box block 0 10 0 10 0 10 units lattice
create_box 2 box
Created orthogonal box = (0.0000000 0.0000000 0.0000000) to (15.874011 15.874011 15.874011)
  3 by 4 by 4 MPI processor grid
create_atoms 1 box
Created 4000 atoms
  using lattice units in orthogonal box = (0.0000000 0.0000000 0.0000000) to (15.874011 15.874011 15.874011)
  create_atoms CPU = 0.003 seconds
set type 1 type/fraction 2 0.76 78393
Setting atom values ...
  3028 settings made for type/fraction
mass 1 1.0
mass 2 1.0
pair_style lj/cut  3.5
pair_modify tail  yes
pair_coeff 1  1  1.0  1.0   # Intearaction between 1 and 1 set with epsilon = 1 and sigma = 1
pair_coeff 1  2  1.5  0.8
pair_coeff 2  2  0.5  0.88

write_data data.0
System init for write_data ...
Neighbor list info ...
  update every 1 steps, delay 10 steps, check yes
  max neighbors/atom: 2000, page size: 100000
  master list distance cutoff = 3.8
  ghost atom cutoff = 3.8
  binsize = 1.9, bins = 9 9 9
  1 neighbor lists, perpetual/occasional/extra = 1 0 0
  (1) pair lj/cut, perpetual
      attributes: half, newton on
      pair build: half/bin/atomonly/newton
      stencil: half/bin/3d
      bin: standard
WARNING: Not all mixed pair coeffs generated from mixing. Use write_data with 'pair ij' option to store all pair coeffs. (../write_data.cpp:312)


#############################
#   M E L T   S Y S T E M   #
#############################

velocity all create 2.4 9622624 mom yes dist gaussian # Assign velocities
                                                    # Temperature 2.4, random number seed, zero linear momentum
                                                                                # Gaussian distribution

timestep 0.002   # simulation timestep
thermo 1000       # output thermodynamic data every 1000 steps bf 100

# Define a fix  in this case with index 1 applied to all
# particles in the simulation. This fix is for simulations
# in the anisotropic NPT ensemble. Note that we use the MTK
# correction.
fix 1 all npt temp 2.4 2.4 0.1 iso 5.68 5.68 0.5 mtk yes tchain 5 pchain 5 # Use NPT ensemble
                                                                         # Set temperature and pressure and damping
                                                                         # Numbers of thermostats in chain and in barostat
run 10000          # run for 10000 steps
Per MPI rank memory allocation (min/avg/max) = 3.642 | 3.644 | 3.648 Mbytes
Step Temp E_pair E_mol TotEng Press Volume 
       0          2.4   -3.9031684            0  -0.30406845   -3.4881309         4000 
    1000    2.3990267   -3.3549897            0   0.24265067    5.7957335    3730.9595 
    2000    2.4106901   -3.3746491            0   0.24048202    5.9089053    3710.7704 
    3000    2.4194139    -3.411737            0   0.21647654    5.4904841    3735.3463 
    4000    2.4113383   -3.3621413            0   0.25396187    5.9997242    3714.6522 
    5000    2.4557883    -3.448664            0   0.23409756    5.5885175    3708.7263 
    6000    2.4207527   -3.4078711            0   0.22235021    5.6383525    3726.9421 
    7000    2.3760628   -3.3594027            0   0.20380055    5.4446635     3758.531 
    8000    2.4122004   -3.3804249            0    0.2369712    5.6066526    3742.0161 
    9000    2.4025608   -3.3508837            0    0.2520565    5.8763151    3736.1465 
   10000    2.4014089   -3.4141516            0   0.18706123    5.5845245     3714.224 
Loop time of 2.58816 on 48 procs for 10000 steps with 4000 atoms

Performance: 667656.003 tau/day, 3863.750 timesteps/s
99.6% CPU use with 48 MPI tasks x no OpenMP threads

MPI task timing breakdown:
Section |  min time  |  avg time  |  max time  |%varavg| %total
---------------------------------------------------------------
Pair    | 1.1475     | 1.2305     | 1.3283     |   3.6 | 47.54
Neigh   | 0.21357    | 0.22128    | 0.2364     |   1.0 |  8.55
Comm    | 0.74523    | 0.87921    | 0.98681    |   5.2 | 33.97
Output  | 0.00024685 | 0.00025363 | 0.00039443 |   0.0 |  0.01
Modify  | 0.21923    | 0.24161    | 0.26779    |   2.7 |  9.34
Other   |            | 0.01534    |            |       |  0.59

Nlocal:        83.3333 ave          92 max          73 min
Histogram: 1 1 3 8 8 11 2 7 6 1
Nghost:        1727.12 ave        1746 max        1708 min
Histogram: 4 1 8 8 4 7 4 1 7 4
Neighs:        10289.2 ave       11831 max        8773 min
Histogram: 1 3 4 7 11 6 7 7 1 1

Total # of neighbors = 493881
Ave neighs/atom = 123.47025
Neighbor list builds = 906
Dangerous builds = 202

# Equilibrate just above the melting temperature to avoid step fn in T

fix 1 all npt temp 1.25 1.25 0.1 iso 5.68 5.68 0.5 mtk yes tchain 5 pchain 5
run 2000
Per MPI rank memory allocation (min/avg/max) = 3.644 | 3.646 | 3.649 Mbytes
Step Temp E_pair E_mol TotEng Press Volume 
   10000    2.4014089   -3.4141516            0   0.18706123    5.5845245     3714.224 
   11000    1.2399732   -4.9734242            0   -3.1139294    5.7032927    2858.4483 
   12000    1.2624225   -5.0076727            0   -3.1145124    6.1235735     2825.712 
Loop time of 0.657805 on 48 procs for 2000 steps with 4000 atoms

Performance: 525383.982 tau/day, 3040.417 timesteps/s
99.7% CPU use with 48 MPI tasks x no OpenMP threads

MPI task timing breakdown:
Section |  min time  |  avg time  |  max time  |%varavg| %total
---------------------------------------------------------------
Pair    | 0.29868    | 0.31648    | 0.35854    |   2.1 | 48.11
Neigh   | 0.041229   | 0.043672   | 0.048999   |   0.6 |  6.64
Comm    | 0.20568    | 0.24763    | 0.27074    |   2.5 | 37.65
Output  | 5.2583e-05 | 5.3735e-05 | 6.9693e-05 |   0.0 |  0.01
Modify  | 0.038639   | 0.045066   | 0.05015    |   1.7 |  6.85
Other   |            | 0.004903   |            |       |  0.75

Nlocal:        83.3333 ave          87 max          75 min
Histogram: 2 1 0 5 4 2 5 4 13 12
Nghost:        2075.67 ave        2098 max        2046 min
Histogram: 2 2 1 4 8 9 6 8 3 5
Neighs:        13519.4 ave       14368 max       12085 min
Histogram: 2 1 4 2 3 5 9 10 7 5

Total # of neighbors = 648930
Ave neighs/atom = 162.23250
Neighbor list builds = 144
Dangerous builds = 16

#############################
# L I N E A R  Q U E N C H  #
#############################

# Define solid atoms. This closely follows ten Wolde  Ruiz-Montero and Frenkel  Faraday Discuss  1996  104  93-110
# Compute components of the per-atom q6 vector
compute q6 all orientorder/atom degrees 1 6 components 6 nnn NULL cutoff 1.3 # compute the Q6 parameter.
                                                                             # Use all neighbours within 1.3 unit cell.

# get number of connections
compute coord_number all coord/atom orientorder q6 0.5

# An atom is solid if it has 8 or more connections (of a possible 14)
variable is_solid atom c_coord_number>=8
group solid dynamic all var is_solid    # Must be dynamic to update
dynamic group solid defined

# do clustering
compute cluster solid cluster/atom 1.3 # Create a cluster where all atoms within are solid and max 1.3 units from another member

# define chunks one chunk per cluster
compute clus_chunks solid chunk/atom c_cluster nchunk every compress yes  # Says which atoms are in which chunk

# count the size of each chunk
compute size_chunks solid property/chunk clus_chunks count


# Find the maximum entry in the vector of chunk sizes
variable max_n equal max(c_size_chunks)


# Thermo style which includes this variable
# thermo_style custom step temp pe vol v_max_n

thermo ${N}  # Print the thermo information every 100 steps
thermo 1000  

# Reset the npt fix at a lower temperature (below freezing)
fix 1  all npt temp  ${temp} ${temp}  0.1  iso  5.68  5.68  0.5  mtk yes tchain  5  pchain  5
fix 1  all npt temp  0.45 ${temp}  0.1  iso  5.68  5.68  0.5  mtk yes tchain  5  pchain  5
fix 1  all npt temp  0.45 0.45  0.1  iso  5.68  5.68  0.5  mtk yes tchain  5  pchain  5

dump dmp2 all dcd ${N} traj.dcd
dump dmp2 all dcd 1000 traj.dcd


compute msd all msd com yes
variable twopoint equal c_msd[4]/6/(step*dt+1.0e-6)
fix 9 all vector 10 c_msd[4]
variable fit equal slope(f_9)/6/(10*dt)
thermo_style custom step temp pe c_msd[4] v_twopoint v_fit v_max_n

fix 1 all npt temp 1.25 ${temp} 0.1 iso 5.68 5.68 0.5 mtk yes tchain 5 pchain 5
fix 1 all npt temp 1.25 0.45 0.1 iso 5.68 5.68 0.5 mtk yes tchain 5 pchain 5
run 5000000 # 5000000  # Run for this many steps
Neighbor list info ...
  update every 1 steps, delay 10 steps, check yes
  max neighbors/atom: 2000, page size: 100000
  master list distance cutoff = 3.8
  ghost atom cutoff = 3.8
  binsize = 1.9, bins = 8 8 8
  4 neighbor lists, perpetual/occasional/extra = 1 3 0
  (1) pair lj/cut, perpetual
      attributes: half, newton on
      pair build: half/bin/atomonly/newton
      stencil: half/bin/3d
      bin: standard
  (2) compute orientorder/atom, occasional
      attributes: full, newton on
      pair build: full/bin/atomonly
      stencil: full/bin/3d
      bin: standard
  (3) compute coord/atom, occasional
      attributes: full, newton on
      pair build: full/bin/atomonly
      stencil: full/bin/3d
      bin: standard
  (4) compute cluster/atom, occasional
      attributes: full, newton on
      pair build: full/bin/atomonly
      stencil: full/bin/3d
      bin: standard
Per MPI rank memory allocation (min/avg/max) = 9.837 | 9.847 | 9.853 Mbytes
Step Temp PotEng c_msd[4] v_twopoint v_fit v_max_n 
   12000    1.2624225   -5.0076727 8.3619256e-31 5.8068925e-33 8.3333333e+20            2 
   13000    1.2497447   -4.9822095   0.72414379 0.0046419472  0.061173339            1 
   14000    1.2580694   -5.0514455    1.4286277  0.008503736  0.060067152            3 
   15000    1.2514198   -5.0374759    2.1302315  0.011834619   0.05956091            2 
   16000    1.2362887   -5.0254041    2.8263032  0.014720329  0.059217261            4 
   17000    1.2246113   -5.0295669    3.5099635  0.017205703   0.05884711            1 
   18000    1.2593942    -5.058559    4.2163867  0.019520308  0.058403749            2 
   19000    1.2442705   -5.0400421    4.9289697  0.021618288  0.058441505            3 
   20000    1.2365646   -5.0291296    5.5969788  0.023320744  0.058259861            3 
   21000    1.2708276   -5.0165644    6.2967944  0.024987279  0.058157448            1 
   22000    1.2238941   -5.0237705    7.0539954  0.026719679   0.05823223            1 
   23000    1.2682953   -5.0089333     7.773814  0.028165992  0.058330986            2 
   24000    1.2276523   -4.9846277    8.4130282  0.029211903  0.058357127            1 
   25000    1.2316249   -5.0024424    8.9973371  0.029991123  0.058074561            4 
   26000    1.2449335   -5.0446587    9.6606564  0.030963642  0.057842114            2 
   27000    1.2192788   -5.0484503    10.434577  0.032205485  0.057774791            5 
   28000    1.2229384   -5.0069415    11.210499  0.033364581  0.057801338            3 
   29000    1.2517792   -5.0258039    11.854298  0.034064075  0.057821455            3 
   30000     1.234668   -5.0355286    12.622769  0.035063245  0.057933868            5 
   31000    1.2676708   -5.0583393    13.439524  0.036127753  0.058157798            1 
   32000     1.251953   -5.0474776    14.216011   0.03702086  0.058437788            5 
   33000    1.2421327   -5.0285519     15.07563  0.038069771  0.058732282            6 
   34000    1.2143665   -5.0218542    15.806277  0.038740874  0.059013119            2 
   35000    1.2122494   -5.0201984    16.348818  0.038925755  0.059169022            2 
   36000    1.2279069   -5.0323787    16.998465  0.039348299  0.059204819            3 
   37000    1.2496736    -5.017982    17.713387  0.039895016   0.05925521            1 
   38000    1.2450025   -5.0722119    18.335701  0.040209869   0.05923309            2 
   39000    1.2385957   -5.0357604    19.017942  0.040636629  0.059187958            3 
   40000    1.2340636   -5.0308007    19.829834  0.041312154  0.059161756            1 
   41000    1.2375905   -5.0166118    20.476103  0.041618094  0.059144255            3 
   42000    1.2285565    -5.065148    21.135071  0.041934664  0.059119663            6 
   43000    1.2407069   -5.0185712    21.699139  0.042052595   0.05906915            3 
   44000    1.2312071   -5.0771726      22.3413  0.042313067  0.058952522            3 
   45000    1.2328918   -5.0006275    23.234283   0.04302645  0.058868948            1 
   46000    1.2341821   -5.0494236    23.686788  0.042910847  0.058793075            2 
   47000    1.2447799   -5.0200408    24.546584  0.043522312  0.058733684            2 
   48000    1.2499328   -5.0351069     25.30552  0.043933194  0.058685057            3 
   49000    1.2655637   -5.0309997    25.890118  0.044030813  0.058643257            1 
   50000    1.2448849   -5.0369011    26.489954  0.044149923  0.058580761            2 
   51000    1.2457245   -5.0271863    27.248144   0.04452311  0.058515066            2 
   52000    1.2299849   -5.0681089    27.947013  0.044786879  0.058448051            1 
   53000    1.2361229    -5.038508    28.795366  0.045275732  0.058433549            2 
   54000      1.21408   -4.9909901    29.671106  0.045788743  0.058446593            3 
   55000    1.2551823   -5.0712006    30.113331  0.045626259  0.058452746            3 
   56000    1.2392054   -5.0295159    30.931285  0.046028698   0.05844961            2 
   57000    1.2373608   -5.0345415    31.517017   0.04607751  0.058428428            3 
   58000    1.2659405   -5.0191709    32.001808  0.045979609  0.058392572            1 
   59000    1.2585024    -5.051827    32.709721   0.04620017  0.058332426            2 
   60000    1.2177516   -5.0264406    33.341252  0.046307294  0.058274427            2 
   61000    1.2372399   -5.0339795    33.897206  0.046307658  0.058193865            3 
   62000    1.2320723   -5.0500415    34.702779   0.04664352  0.058111815            3 
   63000    1.2366568   -5.0537065    35.461539  0.046906798  0.058076117            4 
   64000    1.2395406   -5.0227128    36.186685  0.047118078  0.058052747            6 
   65000    1.2417737    -5.075267    36.678064  0.047023159  0.058011491            3 
   66000    1.2403048   -5.0303108    37.650938  0.047539062  0.057987973            1 
   67000    1.2368744   -5.0769605    38.220512   0.04753795  0.057968418            3 
   68000    1.2467831   -5.0269063    39.099424  0.047915961  0.057952293            2 
   69000    1.2314977   -5.0236682    39.782771  0.048046825   0.05793062            2 
   70000    1.2372679   -5.0138845    40.319561  0.047999477  0.057929698            2 
   71000    1.2612586   -5.0035924    41.115775  0.048257952  0.057922651            7 
   72000    1.2506733   -5.0645955    41.558723  0.048100373  0.057907204            2 
   73000    1.2417966   -5.0215653    42.521828  0.048540899  0.057877486            2 
   74000    1.2354782   -5.0310991      43.0541  0.048484347  0.057857447            2 
   75000    1.2304189   -5.0402679    43.470283  0.048300315  0.057824272            2 
   76000    1.2278956   -5.0328985    44.341151  0.048619683  0.057786754            1 
   77000    1.2144387   -5.0580324    44.895861  0.048588594  0.057750477            4 
   78000    1.2436055   -5.0509204    45.981123  0.049125131  0.057723033            2 
   79000    1.2221252   -5.0352119    46.740196  0.049304004  0.057731397            1 
   80000    1.2494531   -5.0498287    47.220277  0.049187788   0.05773384            3 
   81000    1.2133394   -5.0321032    48.036893  0.049420672  0.057728773            4 
   82000    1.2613946   -4.9996839    48.999377  0.049796114  0.057733926            3 
   83000    1.2728419    -5.055047    49.237289  0.049435029   0.05773776            2 
   84000    1.2284358   -5.0962121    49.895927  0.049499927  0.057732529            2 
   85000    1.2611204   -5.0383703    50.743419   0.04974845  0.057732926            2 
   86000    1.2213344    -5.037151    51.672467   0.05007022  0.057735782            2 
   87000    1.2463673   -5.0727035    52.333739  0.050128103  0.057743387            1 
   88000    1.2454744   -5.0419044    53.073328  0.050258833  0.057758012            3 
   89000    1.2536982   -5.0308259    53.695275  0.050276474  0.057772647            4 
   90000    1.2084549   -5.0718564    54.465263  0.050430799  0.057789463            2 
   91000    1.2335974   -5.0154054    55.040693  0.050403565  0.057803355            2 
   92000     1.245413   -4.9830147    55.983293  0.050709504   0.05781956            2 
   93000    1.2327472   -5.0471533    56.792639  0.050889462  0.057841075            3 
   94000    1.2550556   -5.0437106     57.51331  0.050986977  0.057867872            4 
   95000    1.2242424   -5.0896721    58.156577  0.051014541  0.057899667            1 
   96000    1.2559029   -5.0692298    58.828824  0.051066687  0.057923951            3 
   97000    1.2472658   -5.0429689     59.77803  0.051355695  0.057952266            1 
   98000    1.2352892   -5.0280913    60.252296  0.051234945  0.057973882            2 
   99000    1.2173509   -5.0622682    60.830101  0.051203788  0.057997704            2 
  100000    1.2250557   -5.0572369    61.912199  0.051593499  0.058018145            1 
  101000    1.2431088   -5.0425861    62.349776   0.05144371  0.058042684            1 
  102000    1.2246596   -5.0577984    62.994503  0.051466097  0.058055693            3 
  103000    1.2515436   -5.0404001    63.604706  0.051460118  0.058068276            1 
  104000    1.2403086   -5.0476863     64.52838  0.051705432  0.058083737            1 
  105000    1.2313403   -5.0553818    65.132458  0.051692427  0.058104032            2 
  106000    1.2103102   -5.0483447    66.215103  0.052055898  0.058123367            2 
  107000    1.2663766   -5.0213358    66.813813  0.052035679  0.058148053            5 
  108000    1.2140026    -5.027414    67.477188  0.052065731  0.058176048            4 
  109000    1.2349786   -5.0396895    68.055023  0.052029834  0.058193272            2 
  110000    1.2377303   -5.0875024    68.383083  0.051805365  0.058197498            4 
  111000    1.2337892   -5.0491681    69.513073  0.052186991  0.058206905            3 
  112000    1.2231913   -5.0386534    70.260032  0.052276809  0.058217531            3 
  113000    1.2127306   -5.0158658      71.2453  0.052540782  0.058232108            1 
  114000    1.2322043   -5.0403959    71.750455  0.052449163  0.058259919            2 
  115000    1.2354511   -5.0641554     72.37453  0.052445312  0.058288667            1 
  116000    1.2422091   -5.0520002     73.23925  0.052614404  0.058313229            3 
  117000    1.2083669     -5.08446    74.123256  0.052794342   0.05834501            3 
  118000    1.2193719   -5.0384264    74.812824  0.052833915  0.058372972            3 
  119000    1.2458714   -5.0543679    75.329209  0.052751547  0.058394894            3 
  120000    1.2377413   -5.0534816    76.369252  0.053034202  0.058420376            2 
  121000    1.2018148   -5.0804255     77.11857  0.053111963  0.058448969            2 
  122000    1.2481444   -5.0510845    78.340008  0.053510934  0.058485145            1 
  123000     1.242938   -5.0601905     78.22853  0.053000359   0.05851817            3 
  124000    1.2551132   -5.0594198    78.759812  0.052929981   0.05853445            2 
  125000    1.2342002   -5.0599799    79.539502  0.053026335  0.058542621            3 
  126000    1.2245316   -5.0638171    80.098514  0.052975207  0.058551385            2 
  127000    1.2427895   -5.0586283    80.910574  0.053090928  0.058563458            2 
  128000    1.2251154   -5.0883478    81.970858  0.053366444  0.058573735            2 
  129000    1.2419156   -5.0333079    82.446755  0.053260177  0.058583991            3 
  130000    1.2324726   -5.0676848    83.046361  0.053234846  0.058588389            5 
  131000    1.2150026    -5.063014    83.713981  0.053253168  0.058589722            1 
  132000    1.2374974   -5.0365967    83.928868  0.052985397  0.058587583            1 
  133000    1.2206271    -5.063344    84.056567  0.052667022  0.058571562            2 
  134000    1.2254409   -5.0781427    84.993296  0.052856527   0.05855068            1 
  135000    1.2247764   -5.0766927    85.213269  0.052600783  0.058525352            4 
  136000    1.2244528   -5.0471919    86.583648  0.053053706  0.058500675            2 
  137000    1.2229545   -5.0422099    87.518743  0.053235245  0.058491197            4 
  138000    1.2246836   -5.0544693    88.059043   0.05317575  0.058478292            1 
  139000    1.2286467   -5.0840607    88.469296  0.053039146  0.058463698            2 
  140000    1.1974986   -5.0996798    89.220661  0.053107536  0.058445054            1 
  141000    1.2178512   -5.0561454    90.324953  0.053383542  0.058437703            4 
  142000    1.2302055   -5.0221384    91.449358  0.053667464    0.0584398            3 
  143000    1.2571886   -5.1143946    91.714493  0.053446674  0.058440278            4 
  144000    1.2228616   -5.0566095    92.876195  0.053747798  0.058445913            3 
  145000    1.2129031   -5.0295562      93.7749  0.053893621   0.05846104            2 
  146000    1.2333483   -5.0414545    94.535004  0.053958335  0.058474314            2 
  147000    1.2011139   -5.0932477    95.185414  0.053959985  0.058485185            3 
  148000    1.2488726   -5.0874641    96.043845  0.054078742  0.058497444            5 
  149000    1.2461223   -5.0780557    96.386601  0.053907495  0.058510507            2 
  150000    1.1893622   -5.0382048    97.106949  0.053948305  0.058518548            4 
  151000    1.2183975   -5.0845911    97.136556  0.053607371  0.058520749            2 
  152000    1.2102226   -5.0442475    98.367841  0.053929737  0.058521739            2 
  153000    1.2416695   -5.0947165     99.25912  0.054062702  0.058525916            4 
  154000    1.2315787   -5.0350993    100.08326  0.054157608  0.058533554            2 
  155000    1.2151386   -5.1050278    100.49703   0.05403066  0.058540738            4 
  156000    1.2258227   -5.0489825    101.13449  0.054024832  0.058538137            5 
  157000    1.2560592    -5.021607    101.87408   0.05407329  0.058532925            2 
  158000    1.2255077   -5.0807789    102.55159   0.05408839  0.058530399            1 
  159000    1.2302952    -5.053431    102.75146  0.053852965   0.05852619            2 
  160000    1.2121636   -5.0660569    103.76679  0.054045201  0.058521024            1 
  161000    1.2416396   -5.0624356    104.38507  0.054029537  0.058524688            7 
  162000    1.2248268   -5.0778674    105.17364  0.054101665  0.058521947            2 
  163000    1.2214609   -5.0417594    105.78357   0.05408158   0.05852232            4 
  164000    1.2374488    -5.103555    106.54391  0.054138168  0.058520911            2 
  165000    1.2566031   -5.0891413    107.74761  0.054417983  0.058519445            3 
  166000    1.2267223    -5.046268    107.79937  0.054116151   0.05851751            2 
  167000    1.2155928   -5.1001825    108.28829  0.054036074  0.058512538            1 
  168000    1.2093045   -5.0840147    108.95063  0.054042973  0.058503261            4 
  169000    1.2362325   -5.0626268    109.72493  0.054104997  0.058494589            2 
  170000    1.2423663   -5.0778032    110.52222   0.05417756  0.058483601            3 
  171000    1.2007763   -5.0430894     111.2679  0.054224121  0.058474056            2 
  172000    1.2090217   -5.1164957    111.29547  0.053922222  0.058460509            8 
  173000    1.2175947    -5.026189    112.30592  0.054097263   0.05844678            2 
  174000    1.2379456   -5.0584169    112.71077  0.053980252  0.058432995            1 
  175000     1.229919   -5.0326301    113.59178  0.054091322  0.058415556            2 
  176000      1.22372   -5.0935466    113.40795  0.053696947  0.058398075            2 
  177000    1.2382395   -5.1186889    114.34513  0.053834804  0.058382094            3 
  178000    1.2052239   -5.0800149      115.216  0.053940074  0.058367709            3 
  179000    1.2316523   -5.0443331    116.63765  0.054300581  0.058355266            2 
  180000     1.194539   -5.0568396    117.51574  0.054405437  0.058342685            1 
  181000    1.2155085   -5.0580118    117.90675  0.054284877  0.058331881            1 
  182000    1.2259321   -5.0837869    117.84158  0.053956768  0.058319427            5 
  183000    1.2295078   -5.0655658    119.00058  0.054189697  0.058305432            2 
  184000    1.1974375   -5.0667775    119.73031  0.054225685  0.058293076            3 
  185000    1.2200673    -5.074212    120.28405  0.054182004  0.058280545            3 
  186000    1.2121815   -5.0703165    120.36475  0.053926858  0.058264725            2 
  187000    1.2109511   -5.0664339    121.58792  0.054183563  0.058245476            3 
  188000    1.1914708   -5.0917667    121.82056  0.053998476  0.058231145            2 
  189000    1.2026959   -5.0063617    123.84184  0.054603988  0.058217202            3 
  190000    1.2293658   -5.0944695    122.94499   0.05392324  0.058205511            2 
  191000    1.2286544   -5.0775371    124.15301  0.054167981  0.058194349            3 
  192000    1.2487502   -5.0357154    125.23893  0.054357175  0.058183645            4 
  193000    1.2106756    -5.053701    126.13104  0.054460727  0.058175978            5 
  194000    1.2141204   -5.0882013    127.20187  0.054639978  0.058173931            1 
  195000    1.2114338   -5.0374056     127.6595  0.054555343  0.058174082            1 
  196000    1.2107974    -5.095522    128.14663  0.054484113  0.058167771            1 
  197000    1.2192146   -5.0758018    129.68113  0.054856654  0.058165857            6 
  198000    1.2224576    -5.044804    129.99719  0.054712622  0.058165145            2 
  199000    1.2213977   -5.0948516    130.30584  0.054566933  0.058165659            1 
  200000    1.2231139    -5.073525     130.5153  0.054381373  0.058160882            2 
  201000    1.2264953   -5.0944841    130.64099   0.05416293  0.058153073            5 
  202000    1.2173766   -5.0890104    131.73693  0.054346919  0.058138363            5 
  203000    1.2456511   -5.0697347    131.89976  0.054146043  0.058117724            5 
  204000    1.2205123   -5.0633143    132.44227  0.054102233  0.058098411            2 
  205000    1.2198383   -5.0924873    133.11583  0.054112125  0.058074952            3 
  206000     1.216521   -5.0549524    134.48179  0.054402019   0.05805584            3 
  207000    1.2176087   -5.0932558    134.08497  0.053979458  0.058037854            1 
  208000    1.2199759   -5.0658316    135.87044  0.054435272   0.05802107            3 
  209000    1.2034345   -5.0828483    136.46698  0.054412671   0.05800376            3 
  210000    1.2225863   -5.0688942    137.25753  0.054467274  0.057987926            2 
  211000     1.211797   -5.0743809    137.62676   0.05435496  0.057977852            2 
  212000    1.2209638   -5.0975994    138.56254  0.054466406  0.057964938            2 
  213000    1.2285782   -5.0410003    139.25692  0.054482363  0.057952234            2 
  214000    1.2371854   -5.0818675    139.86942  0.054466286  0.057938093            2 
  215000    1.2239316   -5.0864705      140.166  0.054327905  0.057923243            2 
  216000    1.2174327   -5.1268493    140.86634   0.05434658   0.05791041            5 
  217000     1.210182   -5.0779691    141.97781  0.054522969  0.057901492            2 
  218000    1.2168493   -5.0760248    143.15125  0.054721426  0.057895628            2 
  219000    1.2028656   -5.0671663    144.23234  0.054882931  0.057888481            3 
  220000    1.2240623   -5.1156508    144.24011  0.054636404  0.057882148            2 
  221000    1.2255926   -5.0922451    144.65082  0.054544051  0.057874081            3 
  222000    1.1833846   -5.0792583    145.25363  0.054524635  0.057863951            4 
  223000    1.2104719   -5.0978277    145.98841  0.054554712  0.057851601            5 
  224000    1.2113839     -5.08647    147.02357  0.054696269  0.057842135            2 
  225000    1.2047246   -5.0557239    147.07081  0.054470669   0.05783273            1 
  226000    1.2272579    -5.098761    147.33312  0.054326372  0.057822803            8 
  227000    1.2363397   -5.1000414     148.1429  0.054384325  0.057811255            3 
  228000    1.2238474   -5.0913919    149.32565  0.054578088  0.057800664            2 
  229000    1.2354031   -5.1239083    149.25935  0.054315629  0.057788979            2 
  230000    1.2267238   -5.0755568    150.36866  0.054481399  0.057773659            1 
  231000    1.2060465   -5.0726874    151.35937  0.054602947  0.057759512            2 
  232000    1.2439638   -5.0548747    151.43594  0.054395095  0.057746643            2 
  233000    1.2031917   -5.1153098    152.38645  0.054501592  0.057736976            2 
  234000    1.1990291   -5.0932511    152.83999  0.054430195  0.057726134            5 
  235000    1.1997448   -5.0683564    154.30171   0.05471692   0.05771438            2 
  236000    1.2089896   -5.0814749    154.46834  0.054543905  0.057703459            1 
  237000    1.2266935   -5.0545695    155.26371  0.054593427  0.057694734            4 
  238000     1.228941   -5.1046521     156.1849  0.054686589  0.057685565            2 
  239000    1.2224161   -5.1403933    156.99937   0.05474176  0.057676917            3 
  240000    1.2089763   -5.0900685    157.55425  0.054706335  0.057670023            1 
  241000    1.2254787   -5.1227389    158.56209  0.054827831  0.057667389            2 
  242000    1.2181521    -5.031096    159.85352  0.055045979  0.057663942            2 
  243000    1.2199595   -5.0868109    159.83129  0.054811829  0.057659649            1 
  244000    1.1992464   -5.0701741    160.75421  0.054902393  0.057654189            1 
  245000    1.1829513   -5.1165229    160.94793  0.054744193  0.057646654            4 
  246000    1.1816887   -5.0907668    162.05495  0.054896663  0.057640334            3 
  247000    1.1950945   -5.1213967    162.89695  0.054958484  0.057635667            2 
  248000    1.2336612    -5.079176    164.17519  0.055166395  0.057635195            1 
  249000    1.1881293   -5.0842694     164.5679  0.055076271  0.057637241            1 
  250000    1.2334486   -5.1282912    165.20265  0.055067549  0.057638489            2 
  251000     1.203873   -5.0898688    166.09066   0.05514298  0.057638673            2 
  252000    1.2033252   -5.0510466    167.59222  0.055420709  0.057641686            3 
  253000     1.209023   -5.0724449    168.55434  0.055518558  0.057647326            3 
  254000    1.2041477   -5.0684369    169.09518  0.055477422   0.05765769            1 
  255000    1.2053555   -5.1139092    170.01285  0.055559756  0.057666892            3 
  256000    1.2016891   -5.1174204     170.0183  0.055344497  0.057673391            2 
  257000    1.2075252   -5.0891747    170.28875  0.055216846  0.057679192            3 
  258000    1.2027806   -5.1037716     171.7911  0.055488082  0.057686028            2 
  259000    1.2007197   -5.0748434    172.62188  0.055541146  0.057694196            3 
  260000     1.182086   -5.1034684    173.38035  0.055570624  0.057704028            2 
  261000    1.2139322   -5.0823749    174.63004  0.055756717  0.057712911            1 
  262000    1.2360977   -5.1225425    174.45901  0.055489508  0.057721492            3 
  263000    1.2079869   -5.1125363    175.04654  0.055464684  0.057730131            4 
  264000    1.2325751   -5.0895903    176.04282  0.055569072  0.057738954            3 
  265000    1.2267043   -5.0475929    177.45181  0.055802456  0.057747911            6 
  266000    1.1894803   -5.1297661    177.10601  0.055484338  0.057756002            3 
  267000    1.2342025   -5.0892004    177.71615  0.055466962    0.0577591            2 
  268000    1.2127034   -5.0941723    178.29877  0.055441158  0.057763293            1 
  269000    1.1811579   -5.1051347    179.22025  0.055520523  0.057770344            1 
  270000    1.2116613   -5.1208219    179.95869  0.055542806  0.057775166            2 
  271000    1.2128568   -5.0874721    181.64148  0.055855313  0.057781631            5 
  272000    1.2247063   -5.0992681    181.72394  0.055675228  0.057790409            2 
  273000    1.2225923   -5.1154088    181.46085   0.05539098  0.057795423            3 
  274000    1.1991462   -5.1083104    182.17767  0.055406835  0.057801119            2 
  275000    1.2226023   -5.1293593    183.25185  0.055530864  0.057804033            2 
  276000    1.2095677   -5.0890144    184.62356  0.055743828  0.057807789            4 
  277000    1.2381834   -5.0766189    185.74426  0.055879741  0.057816619            2 
  278000    1.2227742   -5.0884133    186.76311  0.055984145  0.057825243            2 
  279000    1.2162116   -5.1003462    187.75817  0.056080695  0.057834387            2 
  280000    1.2150255   -5.0855989    188.01645  0.055957276  0.057848396            6 
  281000    1.2202177    -5.123289    188.72177  0.055967309  0.057859952            1 
  282000     1.233392    -5.105428    189.81882  0.056093033  0.057870109            3 
  283000    1.2184497   -5.1082469    190.17945  0.056001015  0.057882106            3 
  284000    1.1930782   -5.1082927    191.13614  0.056084548  0.057893863            3 
  285000    1.2294802   -5.1155287    191.84174  0.056094076  0.057907421            3 
  286000    1.1993589    -5.063628    193.77055   0.05645995  0.057921534            3 
  287000    1.1790168   -5.1258484    192.80777  0.055983672  0.057935518            1 
  288000    1.2191813    -5.075016    194.57096  0.056299468  0.057948103            2 
  289000    1.2150644    -5.107054     194.8141  0.056174768  0.057963371            1 
  290000    1.2013242   -5.1161956    196.41398  0.056440799  0.057978228            3 
  291000     1.199107   -5.1010135    197.41499  0.056533502    0.0579966            3 
  292000    1.1949382   -5.1259678    197.40992  0.056338447   0.05801397            3 
  293000    1.2077027   -5.1186041    197.30877  0.056117399  0.058030025            3 
  294000    1.2109934   -5.0767325    199.29305  0.056488959  0.058042993            2 
  295000    1.1818473   -5.1203348    199.24584  0.056284135  0.058055741            1 
  296000    1.2116701   -5.1173728    199.99566  0.056305084  0.058067849            6 
  297000     1.199288   -5.0433641     201.0831  0.056420622  0.058077205            2 
  298000    1.1974149   -5.1320692     200.4029  0.056041079  0.058088719            4 
  299000    1.2107684   -5.0905569    201.70929  0.056217751   0.05809673            2 
  300000    1.1860987   -5.1187752    202.50746  0.056252073  0.058104087            4 
  301000    1.1996864   -5.1113726    203.51843  0.056345081  0.058113402            3 
  302000    1.1801149    -5.115334    203.65079   0.05619503  0.058123424            3 
  303000    1.1861368   -5.1408115    204.01975  0.056111043  0.058128891            6 
  304000    1.1803335   -5.1019989    204.44679  0.056043528  0.058133499            2 
  305000    1.1977706   -5.0680123    205.93828   0.05626729  0.058138421            2 
  306000    1.2322445   -5.1286458    205.69895  0.056018233  0.058142716            2 
  307000    1.2152947   -5.0714441    206.73739  0.056117642  0.058146373            2 
  308000    1.2200594   -5.0574988    207.91622  0.056254389  0.058152098            3 
  309000    1.2396424   -5.1182484    207.69211  0.056011895  0.058153365            3 
  310000    1.2113643    -5.121773    207.15585  0.055687055  0.058151848            1 
  311000    1.1893837   -5.1472138    208.12206  0.055766897  0.058149663            1 
  312000    1.2250084   -5.1033631    209.54872   0.05596921  0.058147591            1 
  313000    1.1890648   -5.1338041    209.07017  0.055662983   0.05814603            2 
  314000    1.1874452   -5.1397437    209.63044  0.055634405  0.058143443            4 
  315000    1.1796708    -5.106876    211.77396  0.056024858  0.058141423            2 
  316000    1.2076524   -5.0938474    211.36196  0.055738913  0.058138791            3 
  317000     1.228948   -5.0986103    213.61351   0.05615497  0.058137453            2 
  318000    1.1782302   -5.0960271    213.34067  0.055906885   0.05813775            2 
  319000    1.2062615   -5.1153232    213.92521  0.055884329  0.058139003            2 
  320000    1.2408277   -5.1272873    214.31104  0.055810166    0.0581391            1 
  321000    1.1952555   -5.1258278    214.96571  0.055806259  0.058139256            3 
  322000    1.1888334   -5.1322417    214.88301  0.055611544  0.058136044            5 
  323000    1.1884399   -5.1499629    216.19712   0.05577841  0.058132054            3 
  324000    1.1640033   -5.1001773    217.92004  0.056049394  0.058130805            3 
  325000    1.2141182   -5.1111981    218.45618  0.056014405  0.058130998            2 
  326000    1.2002024   -5.1193242    219.45815  0.056098709  0.058128762            3 
  327000    1.2337362   -5.1006752    219.48944  0.055935128  0.058125115            2 
  328000    1.2164781   -5.1251173    219.55275  0.055780679  0.058122356            3 
  329000    1.2206827   -5.1462232    219.66253  0.055638937  0.058119247            4 
  330000     1.201527   -5.1162426    220.69388  0.055730779  0.058116114            4 
  331000    1.2236887   -5.1446419    220.48277  0.055509256   0.05811252            2 
  332000    1.1974194   -5.1551796    221.62944  0.055629881  0.058105985            2 
  333000    1.1856782    -5.135621    222.94281  0.055791495  0.058100779            4 
  334000    1.2196487   -5.0724001    223.59827  0.055787992   0.05809565            3 
  335000    1.2188534   -5.1050769    223.88524  0.055692847  0.058089998            3 
  336000    1.2117352   -5.1584666    223.72653   0.05548773   0.05808298            3 
  337000     1.197019   -5.1274593    224.87081  0.055606035  0.058076265            3 
  338000    1.1857483   -5.1557754    226.55335  0.055856349  0.058071526            1 
  339000    1.1851656   -5.1336239    226.66556  0.055719164  0.058065379            1 
  340000    1.2119393   -5.0829277    227.96194  0.055873024  0.058061395            2 
  341000    1.2245518   -5.0878864    229.13472  0.055995777  0.058056443            3 
  342000    1.2025388   -5.1285782    229.29032  0.055869962  0.058051982            2 
  343000    1.2101803   -5.1297999    229.81374  0.055834242  0.058046091            1 
  344000     1.177141   -5.1010135    229.82469  0.055674585  0.058040607            2 
  345000    1.1748013   -5.1229173    230.35503  0.055641311  0.058034542            3 
  346000    1.2004461   -5.1280254    229.89255  0.055369111  0.058027275            1 
  347000    1.2120012   -5.1268417    231.26459  0.055539047  0.058019419            4 
  348000    1.1938746   -5.1035674    233.08435  0.055815218  0.058011665            3 
  349000    1.1863773   -5.1383414    233.32589  0.055712962  0.058006108            4 
  350000    1.2185658   -5.1476859    234.38952   0.05580703  0.058000762            3 
  351000    1.2141554   -5.1222166    235.33182  0.055871752  0.057996609            2 
  352000    1.2106149   -5.0956063     234.8742  0.055604688  0.057992488            2 
  353000    1.1900389   -5.1732465    235.62177  0.055623646  0.057986519            4 
  354000    1.2151435   -5.0806712    237.68583  0.055952408  0.057980714            5 
  355000    1.1960222   -5.1486683    237.32799  0.055710795  0.057978079            2 
  356000    1.1953319    -5.144269    238.59498  0.055850885  0.057974399            2 
  357000    1.1853848   -5.1354164    239.69207  0.055950529  0.057971996            2 
  358000     1.191251    -5.124667    240.85603  0.056065183  0.057970883            3 
  359000    1.1950624   -5.1574569    241.90337  0.056152129  0.057969095            2 
  360000    1.2163745   -5.1314159    241.77545  0.055966539  0.057965846            3 
  361000    1.1855244    -5.136204    242.04073  0.055872744  0.057960524            7 
  362000    1.1937774   -5.0880793    242.52988  0.055831004  0.057954135            2 
  363000    1.1852145    -5.133567    242.91047   0.05576457  0.057949133            5 
  364000    1.1954888   -5.1325119    244.05915  0.055874347  0.057943431            3 
  365000    1.2187703   -5.1462923    244.34345  0.055786176  0.057936716            1 
  366000    1.2089127   -5.1237695     244.7258  0.055720811  0.057930983            3 
  367000    1.1975342   -5.0860808    246.86081   0.05605377  0.057925396            3 
  368000    1.2019154   -5.1289869    246.57347  0.055836385  0.057919641            2 
  369000    1.1797504   -5.1347206    247.37001  0.055864952  0.057915092            3 
  370000    1.1860091   -5.1321604     247.5864  0.055762702   0.05791124            2 
  371000    1.2154447   -5.1781413    248.50701  0.055819184  0.057907932            2 
  372000    1.2111728    -5.094774    250.45832  0.056106253  0.057904274            5 
  373000    1.1965824   -5.1925619    248.84504  0.055595407  0.057900124            3 
  374000    1.2089171   -5.1327436    250.82703  0.055888375  0.057895485            2 
  375000    1.1620104   -5.1233907    251.27048  0.055837884  0.057890423            3 
  376000    1.1888967   -5.1570666    251.23199  0.055680849  0.057884846            3 
  377000     1.184782   -5.1688393    253.16239  0.055959856  0.057881486            4 
  378000    1.1801566   -5.1025264    255.19453  0.056259816  0.057877745            2 
  379000    1.1714863   -5.1440895     254.3462  0.055924846  0.057874007            2 
  380000     1.169107   -5.1301729    255.64634  0.056062794  0.057872132            2 
  381000    1.1841598   -5.1944062    255.19287  0.055816464  0.057868812            3 
  382000    1.2103637   -5.1614929    256.94689  0.056052987  0.057866003            3 
  383000    1.1863601   -5.1428275    256.22299  0.055749126  0.057861467            3 
  384000    1.1898064   -5.1428083    258.19421   0.05603173  0.057857543            2 
  385000    1.1923009   -5.1332364     257.2903  0.055690542   0.05785382            2 
  386000    1.1954697   -5.1680241    258.36602  0.055778502  0.057850275            4 
  387000    1.2006535   -5.1376311    260.20264  0.056029853  0.057847027            2 
  388000    1.2152308    -5.153596    261.00795  0.056058408  0.057844213            2 
  389000    1.1982447   -5.1383828    261.43701  0.056006214  0.057841493            1 
  390000    1.1946788   -5.0988634    261.91047  0.055963775  0.057836264            1 
  391000    1.1712762   -5.1700704    261.93697  0.055826293  0.057830732            4 
  392000    1.1792672    -5.148223    262.35192  0.055772091  0.057823422            2 
  393000    1.1846958   -5.1215254     263.1618  0.055801909  0.057816553            4 
  394000     1.190304   -5.1833072    262.50544  0.055521456  0.057811337            3 
  395000    1.2079677   -5.1513042     263.4045   0.05557057  0.057802963            2 
  396000    1.1913392   -5.1336964       264.82  0.055728113  0.057794309            3 
  397000    1.1835143   -5.1449759    266.33504  0.055905761  0.057785968           10 
  398000     1.201691   -5.1352506    266.47067  0.055793691  0.057779784            4 
  399000    1.1925476   -5.1174192    267.57152  0.055883775  0.057773517            3 
  400000    1.1833987   -5.1108646    268.14002  0.055862504   0.05776773            2 
  401000    1.2102634    -5.164974    267.52421  0.055595221  0.057761135            3 
  402000     1.205019   -5.1586661    268.71877  0.055704553  0.057753818            2 
  403000    1.1947693   -5.1136784    269.55615  0.055739484  0.057746204            4 
  404000    1.2043881   -5.1406149    270.96926  0.055892999  0.057738849            3 
  405000    1.1832663   -5.1189584    270.70112  0.055699818  0.057731769            2 
  406000     1.179803   -5.1572482     270.1331  0.055446039  0.057724421            1 
  407000     1.180993   -5.1135616    272.21114  0.055735286  0.057718376            2 
  408000    1.1995821   -5.1954994    273.10794  0.055781851  0.057712505            2 
  409000    1.1884119   -5.1418693    273.81711  0.055789956  0.057705964            3 
  410000    1.1841196   -5.1547827    274.34389  0.055760954  0.057699254            3 
  411000    1.1885472   -5.1186575    275.37424  0.055834194  0.057693121            3 
  412000    1.1944484   -5.1490243     275.4239  0.055708718  0.057685813            5 
  413000    1.2161634    -5.120006    276.04851  0.055699862  0.057679432            2 
  414000    1.2042616   -5.1714518    275.57524  0.055470057  0.057670497            2 
  415000    1.1862536   -5.1148205    277.46538  0.055715939  0.057662167            2 
  416000    1.1915173   -5.1542788    277.90216  0.055669503  0.057652752            1 
  417000    1.1903433    -5.157032    277.36856  0.055429369  0.057644511            4 
  418000    1.2028751   -5.1359459    279.18902  0.055659693  0.057636549            1 
  419000    1.1768351   -5.1633078    279.65799  0.055620125   0.05762808            4 
  420000    1.1986883   -5.1320557    280.88585   0.05573132  0.057622324            3 
  421000    1.1763343   -5.1154997    280.38496  0.055499795   0.05761476            2 
  422000    1.1852623   -5.1464771    280.68752  0.055428025  0.057605199            3 
  423000    1.1708055   -5.0859749    281.11666  0.055381533  0.057595014            2 
  424000    1.2034414   -5.1911733    281.52745  0.055331653  0.057584197            2 
  425000    1.1921407    -5.134245    282.53473  0.055398967  0.057573325            1 
  426000    1.1855708   -5.1419079    283.17356  0.055393888   0.05756291            2 
  427000     1.163617   -5.1703089    283.96966  0.055419527  0.057551895            4 
  428000    1.1593799   -5.1947418    282.42626  0.054989537  0.057540671            2 
  429000    1.1701146   -5.1506687    285.57021  0.055472069  0.057528153            2 
  430000    1.1702317   -5.1496733    285.68437  0.055365189  0.057516631            2 
  431000    1.1571443    -5.129852    285.63562  0.055227304  0.057504474            1 
  432000    1.1923953   -5.1146896    286.90939  0.055345176  0.057490533            2 
  433000     1.186504   -5.1640154    286.35429  0.055110526  0.057476062            2 
  434000     1.174343   -5.1487581    287.83082  0.055267054  0.057462745            5 
  435000    1.1530827    -5.179863    287.50659  0.055077891  0.057450169            2 
  436000    1.1884165   -5.1119475    289.76889  0.055383962  0.057437884            2 
  437000    1.2054313   -5.1228509    288.85084  0.055082159  0.057425243            5 
  438000    1.2032273   -5.1417268    289.92318  0.055160423  0.057412587            1 
  439000    1.1503996   -5.1322975    290.36479  0.055118601  0.057399304            1 
  440000    1.1693055   -5.1264878    290.68523  0.055054022  0.057385127            2 
  441000    1.1934724   -5.1864889      290.405  0.054876229  0.057370461            1 
  442000    1.1759207    -5.166884    291.54333  0.054966691   0.05735693            3 
  443000    1.1632352   -5.1688267    292.68476  0.055057328  0.057343808            3 
  444000    1.1530876   -5.1358435    293.00919  0.054994216  0.057329945            2 
  445000    1.1940159    -5.172803    293.73281  0.055006144  0.057315519            2 
  446000    1.1788125   -5.1754072    294.86105   0.05509362  0.057300853            2 
  447000     1.173854   -5.1732078    293.74476   0.05476226  0.057285763            2 
  448000    1.1720885   -5.1647549    297.53362  0.055344796  0.057271216            2 
  449000    1.1833307   -5.1908724    294.96671  0.054745121  0.057255244            4 
  450000    1.1824691   -5.1654502    296.43006  0.054894455  0.057238141            3 
  451000    1.1543198   -5.1591966     296.4421  0.054774962  0.057222208            4 
  452000    1.1487244   -5.1670899    298.93915   0.05511415  0.057208118            3 
  453000    1.1640839   -5.1915804    298.52141  0.054915639  0.057193079            3 
  454000    1.1871721   -5.1495536      299.167  0.054913179  0.057178922            4 
  455000    1.1638421   -5.1493081    300.33027  0.055005544  0.057165932            4 
  456000    1.1712085   -5.1345435    302.72662  0.055322846  0.057153214            3 
  457000    1.1841464   -5.1562184    300.77455  0.054845834  0.057138721            1 
  458000    1.1938976   -5.1848308    302.07908  0.054963442  0.057124437            2 
  459000    1.1583131   -5.1398965    303.80318  0.055156714  0.057111384            3 
  460000    1.1653096    -5.167568    302.44288  0.054790376  0.057097535            2 
  461000    1.1520027   -5.1307265    304.01683  0.054956043  0.057082964            5 
  462000    1.1770196   -5.1214474     304.9369  0.055003048  0.057069745            1 
  463000    1.1952336   -5.1806355    304.49459  0.054804642  0.057056256            2 
  464000    1.1968848   -5.1719571    305.52431  0.054871463  0.057041492            2 
  465000    1.1516507    -5.205252     304.9439  0.054649444  0.057026939            4 
  466000    1.1878833   -5.1283892    307.24764  0.054944142  0.057011304            2 
  467000    1.1751789    -5.127601    306.60215  0.054711304  0.056995429            1 
  468000    1.1751157   -5.2079441    306.35791  0.054550909  0.056979749            4 
  469000    1.2030562   -5.1625384    307.67555  0.054668718  0.056963002            4 
  470000    1.1599547   -5.1655869    308.11469  0.054630264  0.056947081            6 
  471000    1.1909096   -5.1558689    309.22501  0.054710723  0.056930896            2 
  472000    1.1885017    -5.164094    310.01976  0.054735126  0.056914171            1 
  473000    1.1614798   -5.1631256    309.87541  0.054593977  0.056897554            2 
  474000    1.1967779    -5.139377    311.72692  0.054804311  0.056881578            4 
  475000    1.1668101   -5.1578564    311.30265    0.0546145  0.056867001            1 
  476000    1.1691386   -5.1707815    312.99607  0.054796231  0.056852121            1 
  477000    1.1567373   -5.1494883    312.54339   0.05460227  0.056837724            1 
  478000    1.1698315   -5.1464281    312.88504  0.054547602  0.056822435            4 
  479000    1.1783057   -5.1601018    314.94399  0.054791925  0.056807088            3 
  480000    1.1653383   -5.1426346    314.71286   0.05463765   0.05679324            3 
  481000    1.2034905   -5.1631405    315.32789  0.054630612  0.056779334            6 
  482000    1.1802751    -5.191338    315.30599  0.054513484  0.056764134            3 
  483000    1.1951249   -5.1659611    316.65807  0.054633897  0.056750172            2 
  484000    1.1957433   -5.1608283    316.93048   0.05456792  0.056735934            2 
  485000    1.1725664   -5.1475981    317.97917  0.054635595  0.056720964            3 
  486000    1.1798588   -5.1724043    317.33342  0.054412452  0.056706353            8 
  487000     1.171727   -5.2389703     317.2004  0.054277961  0.056689883            1 
  488000    1.1686895   -5.2082642    318.71947  0.054426139  0.056673565            3 
  489000    1.1627109   -5.1808495    319.53222  0.054453343  0.056657974            4 
  490000    1.2006505   -5.1790107      319.798  0.054387414  0.056641628            3 
  491000    1.1688122   -5.1749918    320.57873  0.054409153  0.056625456            5 
  492000    1.1910851    -5.184544    321.93777  0.054528756  0.056610296            2 
  493000    1.1828973   -5.1623728    321.88541  0.054409299  0.056594608            2 
  494000     1.173296    -5.159593    324.38239  0.054720376  0.056580013            5 
  495000    1.1803989   -5.1392605    323.84808  0.054519878  0.056565737            3 
  496000    1.1843891   -5.1503113    323.41855  0.054337794  0.056550216            1 
  497000    1.1598285   -5.1670035    324.55194  0.054418501  0.056535428            3 
  498000    1.1697939   -5.1443209    324.72784  0.054338661  0.056520217            2 
  499000     1.165403   -5.1868535    325.63741  0.054381666  0.056505255            4 
  500000    1.1538754   -5.1875406     326.6362  0.054439367  0.056490887            3 
  501000    1.1775013   -5.1473509    328.03649  0.054563621  0.056475878            2 
  502000    1.1621709   -5.1540003    328.32955  0.054503577  0.056462231            2 
  503000    1.1654496   -5.1594821    329.47074  0.054584284  0.056449439            3 
  504000    1.1803193   -5.1613092    330.47303  0.054641705  0.056435866            3 
  505000    1.1719447   -5.1960537    330.43829  0.054527771  0.056422691            3 
  506000     1.163687    -5.168873    331.34551  0.054569418  0.056409457            3 
  507000    1.1771524   -5.1564729    331.40662  0.054471832  0.056395963            2 
  508000    1.1789155   -5.2031979    330.54943  0.054223988  0.056383217            2 
  509000    1.1495556   -5.1819262    332.15913  0.054380998  0.056369273            1 
  510000    1.1504893   -5.1070878    333.20969  0.054446028  0.056355605            2 
  511000    1.1615413    -5.183565     333.5929  0.054401973  0.056341501            2 
  512000    1.1826118   -5.1679642    334.12984  0.054383112  0.056326647            2 
  513000     1.182313   -5.1568912     334.6075  0.054354695  0.056312807            7 
  514000     1.154236   -5.1703192    336.08619  0.054488682  0.056298066            2 
  515000    1.1339761   -5.1580028    335.58023  0.054301007  0.056283279            2 
  516000    1.1580946   -5.1644818    336.42776  0.054332649  0.056268238            3 
  517000    1.1641173   -5.1487416    337.60387  0.054417129  0.056253279            2 
  518000    1.1667058   -5.1827695    337.66029  0.054321153  0.056238763            2 
  519000    1.1592318   -5.1929611    337.57754  0.054203201  0.056222489            2 
  520000     1.175804   -5.1691811    338.41352  0.054232936  0.056207359            2 
  521000    1.1765058   -5.1549135    339.75521  0.054343443  0.056192576            1 
  522000    1.1770174   -5.1930461    339.45032  0.054190665   0.05617831            2 
  523000    1.1463266   -5.2232983    339.01945  0.054018396  0.056162483            2 
  524000    1.1471065   -5.1645568     341.7746  0.054353467  0.056148084            1 
  525000    1.1646697   -5.2049989     340.6938  0.054078382  0.056131882            2 
  526000    1.1664411   -5.1932452    342.59352   0.05427654  0.056117059            2 
  527000    1.1744754   -5.1970592    342.67472  0.054186389  0.056103066            2 
  528000    1.1748202   -5.1675714    342.83495  0.054109051  0.056088365            4 
  529000    1.1734231   -5.1757923    343.07924  0.054045249   0.05607282            1 
  530000    1.1791635    -5.143978    344.98594  0.054243072  0.056056846            2 
  531000    1.1617175   -5.1685614    346.41675  0.054365466   0.05604159            3 
  532000    1.1794422   -5.2011662    344.93155  0.054030632  0.056025085            4 
  533000    1.1777951   -5.1827512    345.19658  0.053970697  0.056008657            3 
  534000    1.1674733   -5.2002478    344.99079  0.053837514  0.055991993            3 
  535000    1.1411235   -5.1729105    346.36978  0.053951679   0.05597553            3 
  536000     1.157278   -5.1637249    348.80295  0.054229315  0.055959524            1 
  537000    1.1779288   -5.1840402     349.9735  0.054309978  0.055945059            2 
  538000    1.1630242    -5.169916    349.06892  0.054068915  0.055930685            2 
  539000    1.1768938   -5.1591362    350.31959  0.054161965  0.055915883            3 
  540000    1.1821102   -5.1247265    351.85092  0.054297981  0.055901719            1 
  541000      1.15728   -5.1797655    351.01162  0.054068333  0.055887876            3 
  542000    1.1913532   -5.1735874    350.70443  0.053921345  0.055873126            3 
  543000    1.1739911   -5.2180584    351.46686  0.053939052  0.055857561            6 
  544000    1.1475378   -5.1977392    351.62175  0.053863626  0.055842386            2 
  545000    1.1921404   -5.1847534    353.79866  0.054097655  0.055826792            3 
  546000    1.1786977   -5.2222962     352.5914  0.053814317  0.055810893            4 
  547000    1.1662674   -5.2052138    353.65316  0.053877691  0.055795281            4 
  548000    1.1515691   -5.1854401     355.0843  0.053997004  0.055780199            1 
  549000     1.166793   -5.1847191    356.03754  0.054043343  0.055765895            2 
  550000    1.1465264   -5.2101591    356.88533  0.054073535  0.055752501            2 
  551000    1.1411285   -5.2010936    357.41932  0.054056159   0.05573874            3 
  552000    1.1574215   -5.1594283    356.66926  0.053844997  0.055723586            2 
  553000    1.1362791   -5.1664248    356.83191  0.053772139  0.055708068            2 
  554000    1.1689466   -5.2341186    357.86867  0.053831028  0.055692815            2 
  555000    1.1579391   -5.1952301    359.51541  0.053981293  0.055678426            4 
  556000     1.139637    -5.200538     359.4826  0.053879286  0.055663874            2 
  557000    1.1520069   -5.1821931    358.87157  0.053691139  0.055648775            4 
  558000     1.151166   -5.2229661     360.5987  0.053852852   0.05563314            4 
  559000    1.1442453   -5.1905984    359.79175  0.053636217  0.055617985            4 
  560000    1.1571744   -5.1523854    362.25548  0.053907065  0.055602279            3 
  561000    1.1612896   -5.1624763    362.98968  0.053920035  0.055587572            2 
  562000    1.1834803   -5.1640137    362.46555  0.053746374  0.055573262            2 
  563000    1.1766938    -5.197341    361.81861  0.053555152  0.055557746            2 
  564000    1.1605222   -5.1714046    364.21055  0.053813615  0.055543323            4 
  565000     1.187923   -5.1989347    365.11214  0.053851348  0.055529073            2 
  566000     1.136814   -5.2045875    364.46494  0.053660916  0.055514631            1 
  567000    1.1997348   -5.1368462    367.26823  0.053978283    0.0555008            2 
  568000    1.1936752   -5.2030828    365.80823  0.053669048  0.055485909            2 
  569000    1.1512674   -5.1800688    366.59835  0.053690444  0.055470298            2 
  570000    1.1708338   -5.1974519    367.62669  0.053746592  0.055454814            1 
  571000     1.169224   -5.1649012    368.58318  0.053792057  0.055439343            3 
  572000    1.1568249   -5.1994388    367.47675  0.053536822  0.055424846            2 
  573000    1.1517947   -5.1877862    368.50109  0.053592363  0.055411295            2 
  574000    1.1655422   -5.1698331    371.27878  0.053902261  0.055397923            3 
  575000    1.1725104   -5.1914133    371.86579  0.053893593  0.055385652            2 
  576000    1.1455727   -5.2128666    371.01536  0.053676991  0.055372063            3 
  577000    1.1610565   -5.1739873    371.03864  0.053587325  0.055359889            2 
  578000    1.1716191   -5.2026866    373.93711  0.053912502  0.055346941            2 
  579000    1.1473036   -5.1822291    373.83669  0.053804935  0.055334693            2 
  580000    1.1566041   -5.2229688     372.6961   0.05354829  0.055320076            1 
  581000    1.1633853   -5.1659197    373.96067  0.053637503  0.055305887            3 
  582000    1.1694675   -5.1594923    373.88806  0.053534946  0.055291637            1 
  583000    1.1613248   -5.2123046    373.80515  0.053431268  0.055276823            2 
  584000    1.1692887   -5.1621082    376.89129  0.053780149  0.055262449            2 
  585000    1.1360261   -5.2028596    374.98262  0.053416327  0.055247861            3 
  586000    1.1334667   -5.1779188    377.02228  0.053615227  0.055232815            2 
  587000    1.1412883   -5.2022925    376.51481  0.053451847  0.055217374            8 
  588000    1.1661936   -5.1805906    377.07446  0.053440258  0.055202651            3 
  589000    1.1801617   -5.2060433    377.42011  0.053398431  0.055188774            2 
  590000    1.1505943   -5.2127765    377.52031  0.053322077  0.055174169            6 
  591000     1.163931   -5.1453878    380.57654  0.053662794  0.055159636            2 
  592000    1.1676784   -5.1823683    379.50102  0.053420752  0.055146941            2 
  593000    1.1691636     -5.19344    381.18171  0.053566851  0.055132881            1 
  594000    1.1659728   -5.2296262    380.20129  0.053339126  0.055118559            2 
  595000    1.1564998   -5.2149836    381.28434  0.053401168  0.055105312            4 
  596000    1.1683394   -5.1830067    384.04231  0.053697191  0.055091325            1 
  597000    1.1210011   -5.2099277    382.56156  0.053400553  0.055078408            2 
  598000    1.1289362   -5.1799575    384.65227  0.053602602  0.055064309            3 
  599000    1.1378755   -5.1730209    383.62712  0.053370495  0.055050742            3 
  600000    1.1666394   -5.1868878    385.70343  0.053569921  0.055038197            2 
  601000    1.1573753   -5.2206668    386.03074   0.05352617  0.055024663            2 
  602000    1.1308581   -5.2392912    384.68429  0.053250871  0.055010313            8 
  603000    1.1703887    -5.222027    386.00013  0.053344407  0.054995731            2 
  604000    1.1504576   -5.2107478    386.67654  0.053349413  0.054981605            3 
  605000    1.1599741   -5.2331284    386.34165  0.053215104  0.054967007            2 
  606000    1.1368374   -5.1898007    386.96648  0.053213213  0.054952733            2 
  607000    1.1522836    -5.202504    388.99071  0.053403447  0.054938688            4 
  608000    1.1669841   -5.2102524    386.57677  0.052984755  0.054924944            3 
  609000    1.1507551   -5.2223462    388.36838  0.053142909  0.054910378            3 
  610000    1.1453476   -5.1996688    390.47864  0.053344076  0.054895906            3 
  611000     1.166421   -5.2173587    391.52045  0.053398861  0.054881016            5 
  612000    1.1533485   -5.1892478    392.44399  0.053437362  0.054866502            2 
  613000    1.1539451   -5.2030927     392.8014  0.053398776  0.054852744            4 
  614000    1.1639641    -5.210212    393.33273  0.053383921   0.05483871            2 
  615000     1.152635   -5.2301837    393.07671  0.053262427  0.054824456            3 
  616000    1.1824725   -5.2242896    392.59846  0.053111264  0.054810322            2 
  617000    1.1325087    -5.197948    393.98572   0.05321255  0.054795863            3 
  618000    1.1387102   -5.2066111    394.60494  0.053209943  0.054780928            2 
  619000     1.139068   -5.2468604    393.07714  0.052918301  0.054765618            1 
  620000    1.1496278   -5.2137321    395.89251  0.053211358  0.054750178            2 
  621000    1.1555567    -5.223908    395.53545  0.053077758  0.054735871            3 
  622000    1.1708392   -5.2490552    396.16908  0.053077315  0.054720964            3 
  623000    1.1655329   -5.2025162    397.58603  0.053181652  0.054706032            2 
  624000    1.1716223   -5.1931355    397.97656  0.053148579  0.054691858            2 
  625000    1.1583816   -5.2066113    397.77922   0.05303723  0.054676605            3 
  626000    1.1427917   -5.1947871    398.99053  0.053113755  0.054661201            3 
  627000    1.1865521   -5.2293527    396.99261  0.052763505   0.05464612            3 
  628000    1.1529687   -5.1986622    399.72432  0.053041974  0.054630912            5 
  629000    1.1154581   -5.1792647    400.79873  0.053099991   0.05461592            1 
  630000    1.1242132   -5.1760364    401.25389  0.053075911  0.054601439            2 
  631000    1.1603468   -5.1937125    402.16446  0.053112052  0.054585525            4 
  632000    1.1338816   -5.2446066    400.55937  0.052816372  0.054569376            2 
  633000    1.1525297   -5.1552815    403.48455  0.053118029   0.05455433            4 
  634000    1.1621947   -5.2278964    401.33757  0.052752047   0.05453954            2 
  635000       1.1435   -5.1945714    401.72778   0.05272018  0.054524222            2 
  636000    1.1494693   -5.2106681    402.81035  0.052779134  0.054509088            3 
  637000     1.185108   -5.2399438    402.23976  0.052621633  0.054493566            1 
  638000    1.1299414   -5.2276849    405.56496   0.05297348  0.054477709            2 
  639000    1.1832817   -5.2273889    405.52626  0.052885532  0.054463035            4 
  640000    1.1418794   -5.2316267    405.67419   0.05282216  0.054448315            2 
  641000    1.1515553   -5.1965036    408.13507  0.053059681  0.054433901            3 
  642000    1.1612083   -5.2563261      406.169  0.052721833  0.054419312            2 
  643000    1.1493681   -5.2459321    405.83303  0.052596298  0.054404647            4 
  644000    1.1689853   -5.2063135    408.93916  0.052916558  0.054390144            4 
  645000    1.1660187   -5.2419717    410.48064  0.053033675  0.054375808            3 
  646000    1.1238576   -5.2340941    409.46541  0.052820615  0.054361867            2 
  647000     1.151866   -5.2041328    410.75904  0.052905596   0.05434801            2 
  648000    1.1254936   -5.2185357    411.11298  0.052869468  0.054333317            2 
  649000    1.1765101   -5.2005803    412.04798  0.052908062  0.054320164            3 
  650000     1.143781    -5.242265    412.46514  0.052880146   0.05430726            2 
  651000    1.1514221   -5.2053289    413.37118  0.052914897  0.054293476            2 
  652000    1.1466079   -5.1605129    415.53969  0.053110901  0.054280393            2 
  653000    1.1403794   -5.2626871    413.76466  0.052803045   0.05426671            7 
  654000    1.1481423    -5.201136    414.35696  0.052797778   0.05425271            2 
  655000    1.1418142   -5.2412482    415.69033  0.052886811  0.054240557            3 
  656000    1.1427461   -5.2222585    416.63599  0.052926319  0.054227717            8 
  657000    1.1461717   -5.2325822    417.83614  0.052997989  0.054215769            5 
  658000     1.151879   -5.2282831    418.21631  0.052965591  0.054203558            3 
  659000    1.1373002   -5.1892282    419.77445  0.053082253  0.054191935            1 
  660000    1.1367847    -5.262414    418.18756   0.05280146  0.054179895            5 
  661000    1.1325035   -5.2288424    421.67274   0.05316096  0.054168285            3 
  662000    1.1393754   -5.2331628    419.90071  0.052857591  0.054156183            3 
  663000    1.1463999   -5.2375375    421.08878  0.052927197  0.054143832            1 
  664000    1.1615161   -5.2166808    422.51904  0.053026989  0.054131425            2 
  665000    1.1455838   -5.2449027    423.20357  0.053033029  0.054119857            4 
  666000    1.1385075   -5.1638848    424.04933  0.053059226  0.054107986            3 
  667000    1.1443925    -5.217461    422.89952  0.052836022  0.054096439            1 
  668000    1.1827692   -5.2444764    422.71298  0.052733655  0.054084781            2 
  669000    1.1516431    -5.210677    425.23525  0.052969014   0.05407313            2 
  670000    1.1388042   -5.2449815    424.72724  0.052826771  0.054061268            1 
  671000    1.1365133   -5.2361959    425.80215  0.052881539  0.054048892            2 
  672000    1.1592528    -5.227548    426.00694  0.052828242  0.054037421            2 
  673000     1.123762    -5.295187    425.44169  0.052679753     0.054026            5 
  674000    1.1496983   -5.2390064    428.20577  0.052943345  0.054014122            2 
  675000    1.1393992     -5.19315    428.24716  0.052870019   0.05400242            2 
  676000     1.149802   -5.2259921    427.08162  0.052648128  0.053989694            2 
  677000    1.1372217   -5.2564055    427.75123  0.052652786   0.05397768            2 
  678000    1.1415264   -5.2084598    428.80962  0.052705214  0.053965502            7 
  679000    1.1498221   -5.2275485    428.35507  0.052571805  0.053953404            2 
  680000    1.1299438   -5.2223297    429.17209  0.052594619  0.053940679            2 
  681000    1.1606662   -5.2260743    428.52314  0.052437976  0.053928259            2 
  682000    1.1417041   -5.1854737    433.35599  0.052951612  0.053915926            2 
  683000    1.1387193   -5.2093284    430.69315  0.052549188  0.053903523            7 
  684000    1.1430678   -5.2424364    433.13797  0.052770221  0.053890349            7 
  685000    1.1286159   -5.2009611    433.50907   0.05273833  0.053878229            3 
  686000    1.1673271   -5.2623437    433.68367  0.052682662  0.053866406            2 
  687000    1.1337409   -5.2342956    434.75524  0.052735959  0.053854393            3 
  688000     1.169466   -5.2059891    435.97501  0.052807051  0.053842691            2 
  689000    1.1319937   -5.2346626    436.49372  0.052793145  0.053830595            2 
  690000    1.1392424   -5.2294459     435.4381  0.052589142  0.053818627            2 
  691000    1.1246105   -5.2449308    437.32617  0.052740735  0.053806209            2 
  692000     1.138293   -5.2619769    435.23511  0.052412706  0.053794509            2 
  693000    1.1298611    -5.264541    436.15962  0.052448247  0.053781639            3 
  694000    1.1286106   -5.2215792    436.83646  0.052453946  0.053769249            6 
  695000    1.1463847   -5.2534947    436.67282  0.052358851  0.053756362            4 
  696000    1.1473205   -5.2010903    438.42832  0.052493812  0.053743808            4 
  697000     1.130072   -5.2242216    439.98419  0.052604518  0.053730659            4 
  698000     1.136468   -5.2189743    439.74637   0.05250076  0.053717962            7 
  699000    1.1330475   -5.1857027    441.36119  0.052618168  0.053705784            2 
  700000    1.1347395   -5.2617477     441.0739  0.052508798  0.053692659            2 
  701000    1.1340742   -5.2464825    440.75205  0.052395631  0.053680165            5 
  702000    1.1705153   -5.2837329    441.93504  0.052461424  0.053667475            3 
  703000    1.1398373   -5.2136272    443.08958  0.052523658   0.05365452            2 
  704000    1.1384038   -5.2343553    443.40687  0.052486609  0.053641124            2 
  705000       1.1091   -5.2482308    442.96089  0.052359443  0.053628253            2 
  706000    1.1270472   -5.2203939    443.65593   0.05236732  0.053615563            1 
  707000    1.1434026   -5.2420342    443.86919  0.052318386  0.053602934            2 
  708000      1.14308   -5.2673727    443.96735  0.052256044  0.053590612            2 
  709000    1.1413478   -5.2499269    444.40314  0.052233561  0.053578452            2 
  710000    1.1535893   -5.1997844    446.21091  0.052372172  0.053565462            4 
  711000    1.1288936    -5.246583    446.18636  0.052295635  0.053552337            3 
  712000    1.1434754   -5.2347946    447.54346  0.052381023  0.053538823            3 
  713000    1.1224194   -5.2019149    449.56311  0.052543608  0.053527138            1 
  714000    1.1504576   -5.2643541    447.06673  0.052178656  0.053514996            5 
  715000    1.1313923   -5.2316836    448.46496  0.052268643  0.053502974            2 
  716000    1.1059769   -5.2563007    449.38338  0.052302534  0.053491112            3 
  717000    1.1626035   -5.2345556     449.5642  0.052250604  0.053479036            2 
  718000    1.1444701   -5.2525425    452.60126  0.052530323  0.053467584            3 
  719000     1.128952   -5.2424392    453.28721  0.052536766  0.053456433            3 
  720000    1.1617286   -5.2430687    451.75427  0.052286373  0.053444762            3 
  721000    1.1257269   -5.2047339    455.24873  0.052617745  0.053433414            1 
  722000    1.1348935    -5.246922    453.69731  0.052365802   0.05342208            2 
  723000    1.1133102   -5.2390655    454.50326  0.052386267  0.053409695            3 
  724000    1.1179152    -5.253934    454.56396  0.052320898  0.053397983            4 
  725000    1.1250487   -5.2660466    455.28868  0.052332032  0.053387246            5 
  726000    1.1566943   -5.2219106    458.27669  0.052602926  0.053376053            1 
  727000     1.127813   -5.2428262    457.32666  0.052421672  0.053364891            4 
  728000    1.1406669   -5.2348723    459.80348  0.052633183  0.053353825            2 
  729000    1.1326681   -5.2116763    458.00669  0.052355589  0.053343173            3 
  730000    1.1393386   -5.2169644    460.26617    0.0525418  0.053332778            2 
  731000    1.1343964    -5.280661    456.67076   0.05206005  0.053321605            5 
  732000    1.1237634    -5.264429    460.41243  0.052414894  0.053310252            2 
  733000    1.1345345   -5.2285187    462.53516  0.052584716  0.053300086            4 
  734000    1.1184799   -5.2698107    459.37525   0.05215432  0.053289083            3 
  735000    1.1217134   -5.2620013    460.71063  0.052234765  0.053277867            4 
  736000    1.1372997    -5.238861    461.70892  0.052276826  0.053267267            5 
  737000    1.1245529   -5.2442939    462.05076  0.052244546  0.053256327            3 
  738000    1.1247986   -5.2425598    463.64795  0.052354105   0.05324512            2 
  739000    1.1314432   -5.2525082    463.01164  0.052211507  0.053234063            2 
  740000    1.1318039    -5.224381    463.52068  0.052198275  0.053222423            1 
  741000    1.1379965   -5.2405614    463.66424  0.052143976  0.053211124            3 
  742000    1.1362082   -5.2367595    465.85761  0.052320037  0.053200004            3 
  743000    1.1354278   -5.2547384    466.61007  0.052334014  0.053189674            2 
  744000     1.149533   -5.2301058    466.24419  0.052222691  0.053178881            2 
  745000    1.1159948   -5.2292227    466.32921  0.052162104  0.053167209            2 
  746000    1.1648895    -5.247705    467.53128  0.052226461  0.053155519            4 
  747000    1.1345699   -5.2689352    467.05661  0.052103594  0.053143453            3 
  748000    1.1586027     -5.22508    466.50696  0.051972701  0.053131545            3 
  749000    1.1226575   -5.2618715    466.87265  0.051943997  0.053120161            3 
  750000    1.1387079    -5.223343    467.78136  0.051975706  0.053108732            3 
  751000    1.1473532   -5.2494627    468.20787  0.051953825  0.053097249            2 
  752000    1.1354329   -5.2641032    468.45559  0.051912189  0.053085017            3 
  753000    1.1116708   -5.2383144    471.32849  0.052161188    0.0530731            3 
  754000    1.1291365   -5.1927217    473.37333  0.052318007  0.053061524            3 
  755000    1.1302232   -5.1998365    471.87689  0.052083542  0.053049525            3 
  756000    1.1258338   -5.2379122    471.33019  0.051954386  0.053037588            1 
  757000    1.1233096      -5.2099    472.20619  0.051982188  0.053025092            4 
  758000    1.1310938    -5.222839     471.2119  0.051804299  0.053012547            7 
  759000    1.1012433   -5.2538429    472.46179  0.051873276   0.05299972            2 
  760000    1.1332852   -5.2242158    472.45562  0.051804344   0.05298641            2 
  761000    1.1367745   -5.2822088    472.29228  0.051718383  0.052972985            3 
  762000    1.1168711   -5.2710908    471.48142  0.051561835  0.052959348            2 
  763000     1.124887   -5.2528757     474.3579  0.051808421  0.052946085            1 
  764000    1.1453289   -5.2785393    473.03902  0.051596751  0.052932708            6 
  765000    1.1192758   -5.2577975    475.24263   0.05176935  0.052919474            4 
  766000    1.1378049   -5.2550037     473.0094  0.051458812  0.052906537            5 
  767000    1.1459887   -5.2750816    475.96719  0.051713081  0.052893362            9 
  768000    1.1528419   -5.2724351    476.36696  0.051689123  0.052880518            2 
  769000    1.1449762   -5.2357943    477.49191  0.051743813  0.052867126            4 
  770000    1.1460905   -5.2587732    476.21612  0.051538542  0.052853369            1 
  771000    1.1283567   -5.2208397    478.87088  0.051758634  0.052840615            7 
  772000    1.1472987   -5.2298106     478.0456  0.051602504  0.052827845            5 
  773000    1.1068651   -5.2517093    479.81257  0.051726236  0.052814354            6 
  774000    1.1583584    -5.233698     480.7399  0.051759249  0.052801098            2 
  775000    1.1243048    -5.259877    480.45523  0.051661853  0.052788804            2 
  776000    1.1189535   -5.2857058    479.18452  0.051458819  0.052775476            3 
  777000    1.1169199   -5.2616054    481.01252  0.051588645  0.052761843            1 
  778000    1.1542884   -5.2548787    482.89367  0.051723829  0.052747911            2 
  779000    1.1509633   -5.2772114    480.66684  0.051419217  0.052734315            2 
  780000     1.128501   -5.2553938    480.06459  0.051288952  0.052721136            2 
  781000    1.1356718   -5.2867624    482.90711   0.05152658  0.052707895            3 
  782000    1.1153301   -5.2821331    482.99179  0.051469713  0.052695048            3 
  783000    1.1344347   -5.2405326    484.36616  0.051550251  0.052681689            7 
  784000    1.1219832   -5.2630887    485.15435  0.051568277  0.052668301            3 
  785000    1.1197307   -5.2441504    486.61856  0.051658021  0.052655432            2 
  786000    1.1461051   -5.2501729    485.59598  0.051483882  0.052642985            5 
  787000    1.1274065   -5.2647146    486.92302  0.051558982  0.052630436            2 
  788000    1.1123906   -5.2659516    487.22984  0.051525998  0.052617353            2 
  789000    1.1385836   -5.2726856    486.50352   0.05138398  0.052604824            6 
  790000    1.1192833   -5.2725255    488.09174   0.05148647  0.052592055            3 
  791000     1.151264   -5.2962926    487.60879  0.051370501  0.052579249            3 
  792000     1.145715   -5.2669059    487.27615  0.051270639  0.052565979            5 
  793000    1.1111048   -5.3039532    489.12693  0.051400476  0.052553063            4 
  794000    1.1338705   -5.2588637    490.21851  0.051450306  0.052539506            3 
  795000    1.1175177   -5.2495933    491.46473  0.051516219  0.052526711            1 
  796000    1.1690326   -5.2888306    490.68116  0.051369469  0.052513249            2 
  797000    1.1086532    -5.247977    490.34223  0.051269576  0.052500179            4 
  798000    1.1322361   -5.2672648    491.65118  0.051342019  0.052486383            4 
  799000    1.1276801   -5.2305067    493.95939  0.051518501   0.05247336            3 
  800000    1.1223849   -5.2601208    495.61916  0.051626996   0.05246041            4 
  801000    1.1252071   -5.2514586    495.07357  0.051505781  0.052447861            2 
  802000    1.1192469   -5.2728132    492.48655   0.05117275  0.052435754            5 
  803000     1.141887   -5.2633884    495.34959  0.051406143  0.052423404            1 
  804000    1.1170572   -5.2494305    496.23811  0.051434298  0.052411093            1 
  805000    1.1084451   -5.2993811    494.15674  0.051154942  0.052398419            1 
  806000    1.1107734   -5.2496165    495.57914  0.051238538  0.052385748            4 
  807000    1.1129103   -5.2291976    498.01974   0.05142707   0.05237301            1 
  808000    1.1192053   -5.2677581    496.66404  0.051223601  0.052360692            2 
  809000    1.1265132   -5.3062299    496.67796  0.051161718  0.052347835            2 
  810000     1.113019   -5.2608403    498.26648  0.051261983  0.052334631            2 
  811000    1.1279115   -5.2284315    501.52785  0.051533894  0.052322698            3 
  812000     1.130075   -5.2936113    498.62952   0.05117298  0.052310666            2 
  813000     1.118324   -5.2889062    499.92807   0.05124314  0.052297866            4 
  814000    1.1305003   -5.2629402    502.21651  0.051414466  0.052285227            3 
  815000    1.1365411   -5.2723411    501.21956  0.051249444  0.052272689            2 
  816000    1.1207496   -5.3057486    499.93237  0.051055184  0.052260156            3 
  817000    1.1279665   -5.2303657    504.25685  0.051433787  0.052247508            3 
  818000    1.1313134    -5.267115     503.1591  0.051259077  0.052234855            2 
  819000    1.1069797   -5.2953975    502.77903  0.051157818  0.052222162            1 
  820000    1.1221831   -5.2649107    504.53994  0.051274384  0.052209519            3 
  821000    1.1263809   -5.2762615    503.52636   0.05110905  0.052196952            2 
  822000    1.1100732   -5.2381347    505.44196  0.051241075  0.052184992            2 
  823000    1.1325757   -5.2721389    504.50194  0.051083631  0.052172851            5 
  824000    1.1551544   -5.2565333    507.18984  0.051293471  0.052160961            2 
  825000    1.1188479   -5.2856053    506.55754  0.051167428  0.052149128            2 
  826000    1.1347993   -5.2606056    507.99176  0.051250178  0.052137149            3 
  827000    1.1315989   -5.2615494     507.5267  0.051141344  0.052125572            5 
  828000     1.113602   -5.2638852    509.14287  0.051242238  0.052113292            3 
  829000    1.1228397   -5.2915771    507.24701  0.050989848  0.052101735            3 
  830000    1.0950633   -5.2860007    509.34837  0.051139395  0.052089883            4 
  831000    1.1067784   -5.3001595    509.03346  0.051046276  0.052078191            4 
  832000    1.1189992   -5.2543156    510.38794  0.051120587  0.052067025            3 
  833000    1.0892617    -5.288205    510.94629  0.051115075  0.052056177            2 
  834000    1.1219722   -5.2727451    513.88464  0.051347386   0.05204493            2 
  835000    1.1351999    -5.258994    513.76753  0.051274205  0.052034276            3 
  836000    1.1274074   -5.2550192    512.73319  0.051109768  0.052023195            6 
  837000    1.1257615   -5.2714147    516.36532  0.051410327  0.052012504            1 
  838000    1.1384493   -5.2481125    515.46415  0.051259363  0.052001287            3 
  839000    1.1238932   -5.2623063    514.45354  0.051097888  0.051989989            5 
  840000    1.1194893   -5.3070733    514.28777  0.051020612  0.051978209            2 
  841000    1.1341124   -5.2539501     516.5064  0.051179786  0.051967232            2 
  842000    1.1283374   -5.3005206    516.84062  0.051152081  0.051955904            4 
  843000    1.1260573   -5.2990995    516.31143  0.051039089  0.051945174            3 
  844000    1.1050883   -5.2544893    518.74876   0.05121927  0.051933945            1 
  845000    1.1270975   -5.2684822    517.97923  0.051082764  0.051923092            2 
  846000    1.1473164   -5.2976671    518.06725  0.051031053  0.051911881            7 
  847000    1.1278766   -5.2444367    520.37978  0.051198325  0.051900736            1 
  848000    1.1078012   -5.2747925    520.82691  0.051181889  0.051889847            7 
  849000    1.1221225   -5.3292462    521.01232  0.051139804  0.051879234            2 
  850000     1.119005   -5.2531587    521.65357  0.051142507  0.051868376            2 
  851000    1.1121529   -5.2718469    521.70608  0.051087551  0.051858149            4 
  852000    1.1201427   -5.2591022    524.13204  0.051264871  0.051848015            2 
  853000    1.1277239   -5.3013823    521.81777   0.05097868  0.051837338            7 
  854000    1.1256596   -5.3007617    525.61257  0.051289282  0.051826936            2 
  855000    1.1055106   -5.2446557     524.3383  0.051105098  0.051816615            6 
  856000    1.1223279   -5.2676738    525.08912  0.051118489  0.051805919            3 
  857000    1.1030713   -5.2916179    522.97339   0.05085311  0.051795038            2 
  858000    1.0964972   -5.2814568    525.33087  0.051022812  0.051784083            2 
  859000    1.1296928   -5.2777613    527.32001  0.051156384  0.051774135            4 
  860000    1.1119104   -5.2819451    527.47878  0.051112285  0.051763736            1 
  861000    1.1079853   -5.3052304    529.54003  0.051252423  0.051753866            2 
  862000    1.1206114   -5.2917806    528.05771  0.051049663  0.051743351            2 
  863000    1.0957851   -5.2778202     528.5033  0.051033536  0.051732719            1 
  864000    1.1138844   -5.2584843    530.41657  0.051159006  0.051721701            2 
  865000    1.1101449   -5.3020238    529.84227  0.051044535  0.051710866            2 
  866000    1.0957386    -5.276365    529.46685  0.050949466  0.051699299            4 
  867000    1.1011124    -5.269041    530.48258  0.050988329   0.05168791            2 
  868000    1.1245587    -5.288958    527.83862  0.050675751  0.051676332            5 
  869000    1.1108828   -5.3002627    530.21604   0.05084542  0.051664879            2 
  870000    1.0942992   -5.2689826    531.13167  0.050874681  0.051653645            2 
  871000     1.146091   -5.2634351    529.78622  0.050687545  0.051641924            4 
  872000    1.1123003   -5.3038464    530.52374  0.050699898  0.051630695            3 
  873000    1.1149156   -5.2458406    534.21857  0.050994517  0.051619773            2 
  874000    1.1227131   -5.2695942    534.74041  0.050985927  0.051608998            2 
  875000    1.1102937   -5.2633036    535.06496  0.050958568  0.051597786            3 
  876000    1.1148101   -5.2605922    535.97791  0.050987244  0.051586506            3 
  877000     1.110077   -5.2406776     536.9256  0.051019156  0.051575586            4 
  878000    1.1247449   -5.3354937    532.30843   0.05052282  0.051564523            3 
  879000     1.111875   -5.2897266    537.27313  0.050936019  0.051553418            3 
  880000    1.0787728   -5.3237884    535.71978  0.050731039  0.051542202            5 
  881000    1.0969823   -5.2940825    535.85724  0.050686458  0.051531599            6 
  882000    1.1066125   -5.3027486    537.61136  0.050794724  0.051520619            3 
  883000     1.120554   -5.2600297    538.66445  0.050836584   0.05150995            3 
  884000    1.0974139   -5.2917569      539.262  0.050835407  0.051499463            1 
  885000    1.1130678   -5.2902929    539.54728  0.050804829  0.051488962            5 
  886000       1.1135   -5.2816802    540.67873  0.050853906  0.051478976            3 
  887000    1.1108091   -5.2759355    540.90564  0.050817892  0.051468645            2 
  888000    1.1308423   -5.2550335    542.96149  0.050953594  0.051457758            2 
  889000     1.120912   -5.3401058    541.58598  0.050767339  0.051447178            8 
  890000    1.1046956   -5.2735584    542.12082  0.050760377  0.051436357            3 
  891000    1.1133996    -5.325073    541.24637  0.050621621  0.051425513            6 
  892000     1.083349   -5.3191979    541.60186  0.050598081  0.051414502            5 
  893000       1.0951   -5.2979812    542.49603  0.050624863   0.05140335            3 
  894000    1.1180111   -5.3410832    541.89199   0.05051193  0.051391967            2 
  895000    1.1168774   -5.3129342    542.72466  0.050533023  0.051380422            2 
  896000    1.1193611   -5.2937749    543.45541  0.050544588  0.051368788            3 
  897000    1.1093284   -5.2955045    545.46145  0.050674605  0.051357845            2 
  898000    1.1075506    -5.335344    543.06497  0.050395785  0.051346227            3 
  899000    1.1021219   -5.3146236    546.57648  0.050665228  0.051334599            7 
  900000    1.0970607   -5.2867702    546.56467  0.050607839  0.051323113            3 
  901000    1.0930048   -5.2863493    545.18808  0.050424351  0.051311666            3 
  902000    1.1264119   -5.2809214    548.87943  0.050709482  0.051299888            4 
  903000    1.0964992   -5.3167691    546.73367  0.050455303   0.05128818            3 
  904000    1.0987085   -5.2958158     549.5581  0.050659855  0.051277035            3 
  905000    1.0795101   -5.3582747    546.18944  0.050293687  0.051265773            5 
  906000    1.1117485   -5.2873311    548.27443  0.050429951  0.051254276            2 
  907000    1.1113554   -5.3671223    546.84574  0.050243085  0.051243029            5 
  908000    1.1349306   -5.3300654    549.37581  0.050419953  0.051232085            2 
  909000    1.0948927    -5.271174    552.55299  0.050655756  0.051221464            1 
  910000    1.0868986   -5.3316047    550.73182  0.050433317  0.051211096            2 
  911000    1.1069957   -5.2856434    552.18887  0.050511239  0.051200013            1 
  912000    1.1083853    -5.309855    551.87132  0.050426839  0.051189187            3 
  913000    1.1352563   -5.3205726    553.21047  0.050493836  0.051178277            4 
  914000    1.1043568   -5.3128904    553.61452   0.05047543  0.051167769            4 
  915000    1.1105906   -5.2777667    555.31722  0.050575339   0.05115704            5 
  916000    1.1392219   -5.3010561    553.15927  0.050323805  0.051146364            2 
  917000    1.1000022   -5.3012328    554.74265  0.050412818  0.051135914            4 
  918000    1.1197748     -5.29886    557.63029  0.050620033  0.051125411            2 
  919000    1.1060383   -5.3276801    557.81044  0.050581288  0.051115035            2 
  920000    1.0779047   -5.2911783     557.6075  0.050507926  0.051104302            4 
  921000    1.1233061   -5.3169912    555.56399  0.050268186  0.051093602            2 
  922000    1.0902579   -5.2908448    557.63242  0.050400616   0.05108298            6 
  923000    1.1009285   -5.2343829    561.13872  0.050662579  0.051072209            1 
  924000    1.0929142   -5.2999435    559.06172  0.050420429    0.0510616            3 
  925000    1.0941053   -5.3277182     558.5858  0.050323045  0.051050634            5 
  926000    1.0912844   -5.3027471    559.65907  0.050365287   0.05104062            1 
  927000    1.1113726   -5.3040618    562.93008  0.050605005  0.051030749            4 
  928000    1.0811938   -5.3168959    561.60496   0.05043148  0.051020314            4 
  929000    1.0860098   -5.2928603    560.83482  0.050308111  0.051010033            2 
  930000     1.122535   -5.3681934    562.37657  0.050392165   0.05099988            5 
  931000    1.1052871   -5.2816153    562.15299  0.050318027   0.05098994            4 
  932000    1.1085772    -5.314138    563.16834  0.050354823  0.050979695            4 
  933000    1.1163676   -5.3125235    563.53065  0.050333212  0.050968891            4 
  934000    1.1424347   -5.2986264    564.82965  0.050395222  0.050959064            3 
  935000    1.1270107    -5.296425    565.62105  0.050411858  0.050948711            2 
  936000    1.1042821   -5.3171079    566.20769  0.050410229  0.050938379            2 
  937000    1.1127773   -5.3149512    564.29406  0.050186238  0.050928168            2 
  938000    1.1162939   -5.3364036    564.79332   0.05017709  0.050917497            2 
  939000    1.1069275   -5.3122685    565.98258  0.050229196  0.050906968            2 
  940000    1.1051933     -5.31755    567.51298  0.050311434  0.050896407            3 
  941000    1.1130815   -5.3531608    565.48797  0.050078637  0.050885432            2 
  942000    1.0931609   -5.3061264    568.56252  0.050297463  0.050874889            4 
  943000    1.0892994   -5.2623242    568.42188  0.050231697  0.050864203            3 
  944000    1.1004785   -5.2935705     571.3796  0.050439583  0.050853647            2 
  945000    1.1060399   -5.3096844    570.13167  0.050276161  0.050842775            3 
  946000    1.1001023   -5.3156519    571.82312  0.050372015  0.050832223            2 
  947000    1.1144161   -5.3042278    571.95133  0.050330106   0.05082125            3 
  948000    1.1104026   -5.2907952    571.22712  0.050213355  0.050810285            3 
  949000    1.0908312   -5.3368296    571.02706  0.050142875  0.050799635            2 
  950000    1.1137156    -5.326562    571.06158  0.050093121  0.050789099            6 
  951000    1.0952193   -5.3141449    573.73001  0.050274273  0.050778207            6 
  952000     1.121864   -5.3139779    572.51662  0.050115251  0.050767485            6 
  953000    1.0757328    -5.293214    572.96171  0.050101584  0.050756639            3 
  954000    1.0741855    -5.299779     572.9223  0.050045623  0.050745898            1 
  955000    1.0976837   -5.2986704    574.43565  0.050125275  0.050734784            2 
  956000    1.1065377   -5.3227968    572.24643  0.049882011  0.050723417            3 
  957000    1.1025988    -5.330171    572.71104  0.049870344  0.050711957            2 
  958000    1.0918824   -5.3328789    576.04927   0.05010867  0.050701108            2 
  959000    1.0969316   -5.3357645    574.58809  0.049929448  0.050690013            5 
  960000    1.0815307   -5.3178674    576.61031  0.050052978  0.050679231            5 
  961000    1.0887557   -5.3408326    574.26122  0.049797192  0.050668629            3 
  962000    1.0922195   -5.3398967    574.92217  0.049802683  0.050657389            2 
  963000    1.1152223   -5.3293795    578.04536  0.050021232  0.050646123            2 
  964000    1.1122503    -5.308402    577.89578  0.049956412  0.050634972            3 
  965000    1.1093804   -5.3514913    578.90169   0.04999151  0.050623828            3 
  966000    1.1016238   -5.3059798    578.52631  0.049907377  0.050612968            4 
  967000    1.1123579   -5.3232451    577.90478  0.049802205   0.05060195            4 
  968000    1.1255397   -5.3478546    578.94861  0.049840617  0.050591008            2 
  969000    1.0998501   -5.3218728     580.6529   0.04993575  0.050579892            2 
  970000    1.0737632   -5.3133349    580.45019  0.049866855  0.050569277            6 
  971000    1.0820732   -5.3178599    582.74468  0.050012417  0.050558875            3 
  972000    1.1082764   -5.2732847    585.16489  0.050168458  0.050548502            5 
  973000     1.109969   -5.3249154    583.60307  0.049983134  0.050537718            3 
  974000    1.1079645   -5.3393992    582.23779  0.049815006  0.050527129            2 
  975000    1.0994793   -5.3168905    584.39999  0.049948717  0.050516889            1 
  976000    1.1342892   -5.3147646    583.83786  0.049849544  0.050506344            2 
  977000    1.0907092   -5.3195841    585.82703  0.049968187  0.050496231            3 
  978000      1.09635   -5.3109074    587.00812  0.050017733  0.050486197            6 
  979000    1.0974612   -5.3204813    587.28503  0.049990213  0.050476304            2 
  980000    1.1016642   -5.3550987    589.17252  0.050099704  0.050466084            3 
  981000    1.0932822    -5.300366    587.66023  0.049920169  0.050456785            3 
  982000    1.0642607   -5.3304042     589.5025  0.050025671  0.050447847            3 
  983000    1.1146924   -5.2880287    591.60362  0.050152901  0.050438072            5 
  984000    1.0749522    -5.311436    590.61318  0.050018054  0.050428479            5 
  985000    1.0840971   -5.3110997     591.0387  0.050003274  0.050418895            2 
  986000    1.1010842   -5.2930845    592.61713  0.050085965  0.050409712            2 
  987000    1.0833402   -5.3119734    591.97989  0.049981415  0.050400635            3 
  988000    1.0664295   -5.3101524     589.8932  0.049754825  0.050391049            3 
  989000    1.1167412   -5.3290851    592.91725  0.049959324   0.05038109            3 
  990000    1.0786914   -5.3264816    590.17826  0.049678305  0.050371096            3 
  991000    1.0922881   -5.3488532    593.55358  0.049912006  0.050360967            3 
  992000    1.1092197   -5.2872186    593.19739   0.04983177   0.05035089            2 
  993000    1.0743234   -5.3470872    591.73496  0.049658859  0.050340972            6 
  994000    1.1006942   -5.2961919    595.37175  0.049913795  0.050330765            3 
  995000    1.0963339   -5.3309459    591.56897   0.04954514  0.050320749            2 
  996000    1.0783148   -5.3478603    592.14904  0.049543929  0.050310196            3 
  997000     1.062903   -5.3116925    595.63569  0.049785664    0.0502996            2 
  998000    1.0612513   -5.2950585    595.54134    0.0497279  0.050289463            2 
  999000    1.0904125   -5.3338112    596.89315  0.049790886  0.050279418            3 
 1000000    1.0922517   -5.2981233     602.1347  0.050177892  0.050269186            3 
 1001000    1.0916765   -5.3687624    596.05312  0.049621471  0.050259332            4 
 1002000    1.0773089   -5.3259391    599.12998  0.049827843  0.050249321            4 
 1003000    1.0841422   -5.3624804    599.49352  0.049808368  0.050239545            2 
 1004000    1.0957516   -5.3158231    600.62522  0.049852691  0.050229515            5 
 1005000    1.0862385   -5.3332153    601.87795  0.049906961  0.050219839            2 
 1006000    1.0613272   -5.3615063    600.11288   0.04971114  0.050209631            3 
 1007000    1.1154489   -5.3471181    599.80045  0.049635919  0.050199514            2 
 1008000    1.0961365   -5.3426348    601.61056  0.049736323  0.050190259            2 
 1009000     1.079243   -5.3451161    601.98549  0.049717996  0.050180406            3 
 1010000    1.0681286   -5.3482602    604.96642  0.049914721  0.050170653            3 
 1011000    1.0945174   -5.3154441    602.37641  0.049651864  0.050161016            2 
 1012000    1.0973461   -5.3178643    605.69089  0.049875732  0.050151295            4 
 1013000    1.0894247   -5.3425027    603.23889  0.049624786  0.050141999            3 
 1014000    1.1045369   -5.3213185    605.24647  0.049740834  0.050132362            7 
 1015000    1.1055877   -5.3528335    605.55363  0.049717046  0.050122492            4 
 1016000    1.0713578   -5.3372048     604.5783  0.049588115  0.050112297            4 
 1017000    1.0836083   -5.3219618    606.79884  0.049721308  0.050102104            5 
 1018000    1.0786561    -5.335712    606.22007  0.049625087  0.050092005            2 
 1019000    1.0968359   -5.3610255    604.14839  0.049406967  0.050081731            3 
 1020000    1.0800343   -5.3372819    606.62141  0.049560573  0.050071287            8 
 1021000    1.1206838   -5.3660499    604.84144  0.049366752  0.050060642            2 
 1022000    1.0943459   -5.3333445     606.7518  0.049474217   0.05005016            4 
 1023000    1.0891594   -5.3121237    607.31734  0.049471924  0.050039533            3 
 1024000    1.0721937   -5.2856955    607.90057  0.049471075   0.05002895            4 
 1025000    1.0966933   -5.3578964    608.08094  0.049437475  0.050018378            5 
 1026000    1.0939724   -5.2996216    608.96108  0.049460776  0.050007722            2 
 1027000    1.0898801   -5.3522769    606.48709   0.04921187  0.049997283            2 
 1028000    1.1176998   -5.3719696    608.71627  0.049344704  0.049985972            2 
 1029000    1.0995153   -5.3687347    607.95576  0.049235161  0.049974693            2 
 1030000    1.0914671    -5.326448    610.52468    0.0493952  0.049963722            5 
 1031000     1.079134   -5.3182679    611.17551  0.049399895  0.049952898            2 
 1032000    1.0824671   -5.3142756    612.39342  0.049450373  0.049941793            2 
 1033000    1.0640488   -5.3262615    611.20685   0.04930678  0.049930878            3 
 1034000    1.0928995   -5.3195779    611.51033  0.049283554  0.049919811            2 
 1035000    1.0686732   -5.3375479    608.70879   0.04901037  0.049908872            1 
 1036000    1.0845395   -5.3293436    612.74417  0.049287658  0.049897769            2 
 1037000    1.0736155   -5.3084513    614.69358  0.049396784  0.049886484            1 
 1038000    1.0909757   -5.3624265    613.04501  0.049216844  0.049874914            3 
 1039000    1.0957463   -5.3631781    613.13567  0.049176746  0.049863152            9 
 1040000    1.0747813   -5.3155357    612.33515  0.049065317  0.049851589            3 
 1041000     1.066758   -5.3328785    612.72688  0.049049542  0.049839841            4 
 1042000    1.0706126   -5.3190022    613.19306  0.049039752  0.049827872            5 
 1043000     1.103442   -5.3308879    613.44993  0.049013257  0.049815941            3 
 1044000    1.0950174   -5.3273616    613.91352  0.049003314  0.049803851            3 
 1045000    1.0642396   -5.3074243    615.54706  0.049086688  0.049792096            3 
 1046000    1.0848282   -5.3760593    613.19054  0.048852019  0.049780447            3 
 1047000    1.0968235   -5.3520604    615.27661  0.048971395  0.049768672            2 
 1048000     1.082404   -5.3612346    614.10779  0.048831726   0.04975664            2 
 1049000    1.0746755   -5.3349426    618.37095  0.049123844  0.049745292            3 
 1050000    1.0865926   -5.4018718    616.21741  0.048906144  0.049733875            4 
 1051000    1.0936155   -5.3509235    618.62475  0.049050488  0.049722086            3 
 1052000    1.1091477    -5.340271    618.97181  0.049031353  0.049710506            5 
 1053000    1.0918717    -5.347816    620.30933   0.04909064   0.04969942            1 
 1054000      1.07638   -5.3498612    620.05488  0.049023947  0.049688134            3 
 1055000    1.0681318   -5.3526047    620.20181  0.048989084  0.049676928            5 
 1056000    1.0845558   -5.3436103    620.53445  0.048968943  0.049665198            1 
 1057000    1.0644646   -5.3690699    620.37836  0.048910309  0.049653533            4 
 1058000    1.0772055   -5.3406781    621.61811  0.048961729   0.04964162            4 
 1059000    1.0733807   -5.3583706    622.08817  0.048952484  0.049629716            3 
 1060000    1.0909459   -5.3599408    623.80022  0.049040898  0.049617953            4 
 1061000    1.0976742   -5.3567161    620.36308  0.048724716  0.049606314            3 
 1062000    1.0933767   -5.3679322    623.78337   0.04894722  0.049594477            3 
 1063000    1.0936806   -5.3816918     620.7994  0.048667247  0.049582137            3 
 1064000    1.0826133   -5.3681262    623.45109   0.04882919  0.049570239            4 
 1065000    1.0961452   -5.3662216    623.37357  0.048777275  0.049558619            2 
 1066000    1.0999776   -5.3827558    624.93408  0.048853508  0.049547149            2 
 1067000    1.0747745   -5.3036591    624.46557  0.048771131  0.049535809            3 
 1068000    1.0821184   -5.3358135    626.75578  0.048904165  0.049524284            2 
 1069000    1.0736954   -5.3625009    626.78085  0.048860372  0.049512728            3 
 1070000    1.0931911   -5.3509204    629.16533  0.049000415  0.049501599            4 
 1071000    1.0737838   -5.3748886    626.23065  0.048726319  0.049490644            2 
 1072000    1.0862751   -5.3619439       626.26  0.048683146  0.049479283            1 
 1073000     1.076274   -5.3291224    629.02344  0.048852395  0.049468298            3 
 1074000    1.0989826   -5.3425831    629.78923  0.048866328  0.049456969            2 
 1075000    1.0628795   -5.3516025    629.17033  0.048772894  0.049446329            3 
 1076000    1.0929163   -5.3479106    629.29718   0.04873739  0.049435244            4 
 1077000    1.0889753   -5.3675475    629.67533  0.048721397  0.049423624            2 
 1078000    1.0654236   -5.3698338    630.92482   0.04877279  0.049412316            2 
 1079000    1.0601316   -5.3756477    630.65627  0.048706848  0.049401266            5 
 1080000    1.1008621    -5.361346    631.62967  0.048736857  0.049390076            2 
 1081000    1.0853404   -5.3375005    633.78877  0.048858215  0.049378732            2 
 1082000    1.0596691   -5.3631346    633.79301  0.048813387  0.049367461            1 
 1083000      1.07358   -5.3446322    631.68774   0.04860632  0.049356156            3 
 1084000    1.1094104   -5.3848051    632.75687  0.048643671  0.049344673            4 
 1085000    1.0820336   -5.3383704    632.89498  0.048609445  0.049333517            1 
 1086000    1.0677438   -5.3472008    634.34282  0.048675784  0.049321983            4 
 1087000    1.0609462   -5.3743602    635.38504  0.048710905  0.049310685            3 
 1088000    1.0769435   -5.3424937    637.01246  0.048790782  0.049299308            2 
 1089000    1.1127428   -5.3469186    636.70674  0.048722585  0.049288025            3 
 1090000    1.0764944   -5.4042314    634.18057  0.048484753  0.049276861            6 
 1091000    1.0642327   -5.3976961    636.72114  0.048634367   0.04926551            2 
 1092000    1.0740891   -5.3823297    636.28323  0.048556413  0.049254587            4 
 1093000    1.0867309   -5.3523868    637.81103  0.048628471  0.049244018            2 
 1094000     1.064094   -5.3614393    637.58828  0.048567053   0.04923339            3 
 1095000    1.0710486   -5.3397724    638.61306   0.04860069  0.049222566            8 
 1096000    1.0963352   -5.3716224    638.71652  0.048564212  0.049211553            5 
 1097000     1.049745   -5.3661712    640.64453  0.048666403  0.049200286            5 
 1098000    1.0848216   -5.3465988    641.13687  0.048659447  0.049189601            5 
 1099000    1.1009088   -5.3798576    640.94029  0.048600265   0.04917862            5 
 1100000    1.0816143   -5.3735442    640.42407  0.048516975  0.049167245            5 
 1101000    1.0687256   -5.3754589    641.93293  0.048587112  0.049156238            2 
 1102000    1.0772251   -5.3885054     641.5234  0.048512054  0.049145251            3 
 1103000    1.0562988    -5.382982    640.70558  0.048406284  0.049133993            2 
 1104000    1.0505899   -5.3610828    643.75114  0.048592326  0.049122706            4 
 1105000     1.075445   -5.3721968    643.32907  0.048516521  0.049111473            6 
 1106000    1.0519904   -5.3416212    645.20262   0.04861382  0.049100164            4 
 1107000    1.0774206   -5.3787785    642.97849  0.048402476  0.049088758            3 
 1108000    1.0841646   -5.3629844    644.67073  0.048486065  0.049077471            2 
 1109000    1.0870031   -5.3605833    645.81188  0.048528094  0.049066045            1 
 1110000    1.0672978   -5.3696749    645.57465  0.048466566  0.049055243            3 
 1111000    1.0851171   -5.3454563    645.25873  0.048399244  0.049044108            3 
 1112000    1.0735287   -5.3573071     646.5514  0.048452593  0.049032645            1 
 1113000    1.0814076   -5.3830815     644.5703   0.04826073  0.049021142            5 
 1114000     1.090133   -5.3560983    647.99869   0.04847387  0.049009806            2 
 1115000    1.0566525     -5.35137    646.39728  0.048310709  0.048998388            4 
 1116000    1.0860202   -5.3558978    649.05789  0.048466091   0.04898729            3 
 1117000    1.0932742   -5.4234245    644.24224  0.048063432  0.048975626            3 
 1118000    1.0743927    -5.383021    647.41217  0.048256721  0.048963883            4 
 1119000    1.0709979    -5.363072    648.73007  0.048311742  0.048952428            2 
 1120000    1.0573239   -5.3743049    647.79097  0.048198733    0.0489411            6 
 1121000    1.0769448   -5.3964709    649.75969  0.048302089  0.048929918            3 
 1122000    1.0767565   -5.3768831    651.74656  0.048406607  0.048918935            2 
 1123000    1.0910025    -5.398784    650.03306   0.04823635  0.048907986            3 
 1124000    1.0696437   -5.3597725    653.76538   0.04847015  0.048897178            2 
 1125000    1.0753584   -5.3609759     652.9128  0.048363911  0.048886701            3 
 1126000    1.0536743   -5.3506193    655.18969  0.048489468  0.048875917            4 
 1127000     1.061649   -5.3574009    653.50256  0.048321692  0.048865245            3 
 1128000    1.0763174   -5.3913968    654.80508   0.04837508  0.048854756            6 
 1129000    1.0736027   -5.3400627     654.9167  0.048340471  0.048844256            3 
 1130000    1.0745239   -5.3680489    655.25293  0.048322487  0.048833611            4 
 1131000     1.088095   -5.3556401    655.49076  0.048297286  0.048822978            2 
 1132000    1.0838457   -5.4038645    655.53019  0.048257523   0.04881247            2 
 1133000    1.0964178   -5.3271299    659.61692  0.048515514  0.048802036            3 
 1134000    1.0610466   -5.3866865    657.28478   0.04830135  0.048791763            5 
 1135000    1.0528356   -5.3878371    657.50323  0.048274834  0.048780676            2 
 1136000    1.0616437   -5.3738896    658.42318  0.048299823  0.048770068            4 
 1137000    1.0637015     -5.39043    657.55539   0.04819374  0.048759478            3 
 1138000    1.0780825   -5.3695945     659.1369  0.048267201  0.048748921            4 
 1139000    1.0626123   -5.4031466    657.77094  0.048124886  0.048737919            6 
 1140000    1.0719616   -5.3535999    657.08635  0.048032628  0.048727126            2 
 1141000    1.0613107   -5.3946419    657.45977  0.048017804  0.048716321            4 
 1142000    1.0519328   -5.3965314    661.80157  0.048292584  0.048705067            7 
 1143000    1.0731603   -5.3942251    659.56915  0.048087573  0.048693906            2 
 1144000      1.05506   -5.3794944    661.12565   0.04815892  0.048683181            4 
 1145000    1.0634139   -5.3995753    660.03358  0.048037379     0.048672            2 
 1146000    1.0937335   -5.3745997    660.20774  0.048008125  0.048661073            4 
 1147000    1.0556797   -5.3093165    666.10262  0.048394552  0.048650365            2 
 1148000     1.064087    -5.379459    663.62012  0.048172192  0.048639642            4 
 1149000    1.0590884   -5.4156659    662.00556  0.048013168  0.048628779            4 
 1150000    1.0537802   -5.4006861    663.14222  0.048053784  0.048617854            2 
 1151000    1.0726017   -5.3661402    666.77976  0.048275395  0.048607294            5 
 1152000    1.0650505   -5.3887847    664.46517  0.048066057  0.048596221            2 
 1153000    1.0794904   -5.3810104    665.46241  0.048096445   0.04858545            1 
 1154000    1.0576413   -5.3673895    664.67851   0.04799816  0.048574497            3 
 1155000     1.059613   -5.3663462    666.18223  0.048065096  0.048563178            5 
 1156000    1.0664324   -5.3675225    665.74119  0.047991723   0.04855246            2 
 1157000    1.0534492   -5.3708516    667.12135  0.048049651  0.048541913            3 
 1158000    1.0477857   -5.3849234    665.49424  0.047891065  0.048530996            2 
 1159000      1.06409   -5.3948196    667.86623  0.048020293  0.048519937            6 
 1160000    1.0849726   -5.3657166    669.10354  0.048067783  0.048509172            7 
 1161000    1.0655992   -5.3938466    669.24034    0.0480362  0.048498164            3 
 1162000    1.0703438   -5.3724596    666.69745  0.047812496  0.048486846            2 
 1163000    1.0733301   -5.3872235    666.67448  0.047769739  0.048475446            3 
 1164000    1.0599059   -5.4186438    670.09064   0.04797327  0.048464171            4 
 1165000    1.0517266    -5.399548    667.23605    0.0477279  0.048453091            2 
 1166000     1.076232   -5.4122617    669.15557  0.047824155  0.048441572            3 
 1167000    1.0910895   -5.3907896     669.1755  0.047784597  0.048430032            3 
 1168000    1.0465484   -5.3977981     670.1344    0.0478121  0.048418509            2 
 1169000    1.0437935   -5.3893484    668.36517  0.047645079  0.048406944            3 
 1170000    1.0477116   -5.3764472    670.56959  0.047761367  0.048395474            3 
 1171000    1.0449594   -5.3875927    670.44515  0.047711724  0.048383433            2 
 1172000    1.0575914   -5.3974776    669.75102   0.04762166  0.048371281            3 
 1173000    1.0533254   -5.3570414    671.54726  0.047708671  0.048359536            6 
 1174000    1.0629436   -5.3803442    670.96786  0.047626907   0.04834807            2 
 1175000    1.0541169   -5.3918552    671.10771  0.047596291    0.0483361            4 
 1176000    1.0365142   -5.3766863    672.48761    0.0476536  0.048324307            2 
 1177000    1.0664355   -5.3743882    675.64452  0.047836627  0.048313082            5 
 1178000    1.0508261   -5.3926373    674.01084   0.04768045  0.048301432            2 
 1179000    1.0467808   -5.4061337    675.43873  0.047740934    0.0482897            3 
 1180000    1.0700785   -5.3730908    674.98508  0.047668438  0.048278431            4 
 1181000    1.0720784   -5.3910842    674.44394  0.047589892  0.048267176            4 
 1182000    1.0523236   -5.4134335    674.52601  0.047555415   0.04825524            2 
 1183000    1.0798471   -5.3659735    676.54124  0.047657174  0.048243974            8 
 1184000    1.0590022   -5.3783382    675.80386  0.047565024  0.048231934            4 
 1185000    1.0552751    -5.378781    676.46126  0.047571116  0.048220113            3 
 1186000    1.0599952   -5.3829875    673.81931   0.04734537   0.04820825            2 
 1187000    1.0391026   -5.4175552    674.74648  0.047370575  0.048195939            8 
 1188000    1.0708835   -5.3772437    676.93507  0.047484222  0.048183853            3 
 1189000    1.0612677    -5.405681    674.82627  0.047296486  0.048171739            4 
 1190000    1.0490243   -5.3968661    676.90138  0.047402057  0.048159358            3 
 1191000    1.0807672   -5.4017306    675.74853  0.047281593   0.04814654            4 
 1192000    1.0632672   -5.4014221    676.99502   0.04732907    0.0481342            4 
 1193000    1.0681334   -5.4058613    678.80609  0.047415905  0.048121653            3 
 1194000    1.0708014   -5.4119651    675.25091  0.047128065  0.048109135            5 
 1195000    1.0548914   -5.4157465    676.65402  0.047186473  0.048096503            9 
 1196000    1.0435902   -5.4080414    677.41301  0.047199903  0.048083784            5 
 1197000    1.0632268   -5.3787369    678.29515  0.047221885  0.048070928            2 
 1198000    1.0655666   -5.4150882    677.74479  0.047144184  0.048057896            6 
 1199000    1.0640275    -5.386029     677.6996  0.047101724  0.048045376            4 
 1200000    1.0550312   -5.3739668    678.67651  0.047130313  0.048032491            2 
 1201000    1.0809213    -5.420392    679.44341  0.047144283  0.048019741            3 
 1202000    1.0541849   -5.3753155    681.09076  0.047219271  0.048007165            3 
 1203000    1.0520357   -5.4083929    679.90151  0.047097638  0.047994368            4 
 1204000    1.0721443   -5.4448583    679.30409  0.047017171  0.047981574            2 
 1205000    1.0394346    -5.419236    677.98279  0.046886777  0.047968368            1 
 1206000    1.0654001   -5.3760556    681.53256  0.047093184  0.047955305            4 
 1207000    1.0749463   -5.3683351    681.16592  0.047028854  0.047942352            3 
 1208000    1.0686673   -5.3599815    681.48248  0.047011761  0.047929633            4 
 1209000    1.0509845   -5.4315192    681.07879  0.046945051  0.047916678            2 
 1210000    1.0782527   -5.4219063    681.10067   0.04690776   0.04790367            5 
 1211000     1.018916   -5.4072228    681.05933   0.04686618  0.047890294            7 
 1212000    1.0683528   -5.4016241    680.70983  0.046803481  0.047877233            3 
 1213000    1.0596443   -5.4088631    683.09112  0.046928491  0.047864285            4 
 1214000    1.0819877   -5.4170646    684.29927  0.046972767   0.04785119            5 
 1215000    1.0700882   -5.3856313    683.58454  0.046885085   0.04783799            2 
 1216000    1.0361431   -5.3997688    683.50665   0.04684119  0.047824869            2 
 1217000    1.0577895   -5.3824874    686.32403  0.046995619  0.047812057            3 
 1218000    1.0759996   -5.4152184    685.47558  0.046898986  0.047799042            2 
 1219000    1.0705574   -5.3984474    685.85832  0.046886678  0.047786025            2 
 1220000    1.0692634   -5.3968227    687.08548  0.046932068  0.047773294            4 
 1221000     1.067601   -5.3966249    685.40001  0.046778597  0.047759963            4 
 1222000    1.0530662    -5.383412     686.4579  0.046812459  0.047746989            4 
 1223000    1.0724423   -5.4430448    686.40695  0.046770711  0.047733833            5 
 1224000    1.0478108   -5.4179037    685.91349  0.046698903  0.047720683            3 
 1225000    1.0624882    -5.455881    687.73568   0.04678474  0.047707599            5 
 1226000     1.052092   -5.4218636    689.33226  0.046855102  0.047694173            2 
 1227000    1.0638181   -5.4263535    687.00183  0.046658641  0.047680991            3 
 1228000    1.0788437   -5.4167738    688.70232  0.046736042  0.047668013            3 
 1229000    1.0529566   -5.4006496    690.36128  0.046810502  0.047655265            2 
 1230000    1.0568918   -5.3990687    691.01661  0.046816843  0.047642828            2 
 1231000     1.056961   -5.4317986    689.79833   0.04669634  0.047629916            3 
 1232000    1.0713809   -5.4070576    692.41168  0.046835206   0.04761694            2 
 1233000    1.0492597   -5.3962188    691.76075  0.046753227   0.04760416            4 
 1234000    1.0615313   -5.4044486    693.01123  0.046799786  0.047591325            4 
 1235000    1.0467585   -5.3892636    691.19611  0.046639413  0.047578469            1 
 1236000    1.0532866   -5.4198632    693.98539  0.046789738  0.047565748            3 
 1237000    1.0730757   -5.4021656    694.34565  0.046776182  0.047552943            3 
 1238000     1.043951   -5.3880339    693.26459  0.046665629  0.047540332            3 
 1239000    1.0482125   -5.3760921    694.64095  0.046720537  0.047527987            7 
 1240000    1.0233864   -5.4164222    694.66657  0.046684581  0.047515494            2 
 1241000    1.0614019   -5.4135116    693.51795  0.046569833  0.047502875            6 
 1242000    1.0690257    -5.435783    694.47069  0.046596262   0.04749034            2 
 1243000    1.0480757   -5.3518289    698.07427  0.046800367  0.047477845            3 
 1244000    1.0712506   -5.4275755    697.89389  0.046750663   0.04746585            4 
 1245000    1.0422262   -5.4198174    698.70932  0.046767692  0.047453826            2 
 1246000    1.0799762   -5.4022113    699.93724  0.046812282  0.047441798            3 
 1247000    1.0670373    -5.390312    703.65418  0.047023134  0.047429831            8 
 1248000    1.0392425   -5.3914573    703.73614  0.046990928  0.047418717            2 
 1249000    1.0611709   -5.3904567    703.27952  0.046922839  0.047407447            5 
 1250000     1.047948   -5.4161843    703.12382  0.046874922  0.047396275            3 
 1251000    1.0283901   -5.4076502     704.3377  0.046918312   0.04738488            2 
 1252000    1.0537653   -5.4141982    704.50348  0.046891871  0.047373829            5 
 1253000    1.0660967   -5.4166647    704.25334  0.046837812  0.047362799            3 
 1254000    1.0455067   -5.4484824    706.73116  0.046965122  0.047351422            4 
 1255000    1.0336135   -5.4143489    704.55637  0.046783292  0.047340015            3 
 1256000    1.0571281   -5.4095659    706.21751  0.046856257  0.047328947            2 
 1257000    1.0822534    -5.417328    707.33603  0.046893134   0.04731751            4 
 1258000    1.0393932   -5.4426731    704.48075  0.046666716  0.047306425            3 
 1259000     1.033582   -5.4373689    708.23566  0.046878188  0.047295127            3 
 1260000    1.0395192   -5.4297302    707.07068  0.046763934  0.047284143            3 
 1261000    1.0744416   -5.4129657    707.69303  0.046767977  0.047273438            5 
 1262000    1.0273007   -5.4204761    709.58261  0.046855693  0.047262374            2 
 1263000    1.0600236   -5.3802596    709.93707  0.046841981  0.047251196            5 
 1264000    1.0458007   -5.4181046    709.53675  0.046778531  0.047239914            3 
 1265000     1.084073   -5.4164145    709.79572  0.046758611  0.047228869            3 
 1266000    1.0338114   -5.3855311    710.70703  0.046781664   0.04721802            2 
 1267000    1.0482474   -5.4131936    712.99432   0.04689518  0.047207208            4 
 1268000    1.0707539   -5.4311647    712.21755  0.046807147  0.047196473            4 
 1269000    1.0419332   -5.4476775    710.25028  0.046641074  0.047185696            2 
 1270000    1.0449084   -5.4383086    710.32059  0.046608963  0.047174793            4 
 1271000    1.0607853   -5.4499471    710.99849  0.046616738  0.047163869            3 
 1272000    1.0252183   -5.3940757    713.40953  0.046738046  0.047153199            5 
 1273000    1.0543009    -5.430535    714.06143  0.046744006  0.047142518            5 
 1274000    1.0790639   -5.4046981    716.11437  0.046841599  0.047131659            5 
 1275000    1.0242894   -5.4278613    716.81986  0.046850971  0.047120978            2 
 1276000    1.0762568   -5.4253347    710.95372  0.046431147   0.04711003            2 
 1277000    1.0586542   -5.4108367    718.99072  0.046919258  0.047099329            2 
 1278000    1.0429059   -5.4095519     716.1073  0.046694529  0.047088914            3 
 1279000    1.0734349   -5.4108834    715.21168  0.046599667  0.047078402            2 
 1280000    1.0394041   -5.4141775    719.02084  0.046811253  0.047067677            4 
 1281000    1.0421843    -5.434969    715.46975  0.046543699  0.047057056            3 
 1282000    1.0713158   -5.3781958    718.57249   0.04670908  0.047046292            5 
 1283000    1.0431474   -5.4274052    719.02349  0.046701968  0.047035271            2 
 1284000    1.0615234   -5.4130094    719.26253  0.046681109  0.047024698            3 
 1285000    1.0472389   -5.4514227    718.18783  0.046575086  0.047014173            2 
 1286000     1.009318   -5.4275603    718.55421   0.04656261  0.047003233            4 
 1287000    1.0214769   -5.4366615    717.84562  0.046480551  0.046992184            8 
 1288000    1.0594763   -5.4390138    720.43185  0.046611791   0.04698075            2 
 1289000    1.0559013   -5.4422288    718.34451  0.046440685  0.046969705            2 
 1290000    1.0568974   -5.4111076    720.62313  0.046551882  0.046958896            5 
 1291000    1.0356038   -5.4342827    721.34827   0.04656263  0.046947974            6 
 1292000    1.0250338   -5.4529201     718.8482  0.046365338  0.046937054            5 
 1293000    1.0592781   -5.4280659    722.03311  0.046534746  0.046926211            5 
 1294000    1.0572414   -5.4233271    722.52873  0.046530702  0.046915048            4 
 1295000    1.0382218   -5.4203212    721.10037  0.046402855  0.046904109            4 
 1296000    1.0236413   -5.4406868    719.97062  0.046294407  0.046892565            5 
 1297000     1.034422   -5.4265265     722.9209  0.046448271  0.046881453            5 
 1298000    1.0499109   -5.3810033    726.49259  0.046641794  0.046870364            4 
 1299000    1.0400629   -5.4128871    724.82126  0.046498669  0.046859499            4 
 1300000    1.0396494   -5.4115623     724.8184  0.046462718  0.046848575            4 
 1301000    1.0426357   -5.4678441    723.30533  0.046330088  0.046837131            3 
 1302000     1.038397   -5.4578156    725.27843   0.04642079  0.046825967            3 
 1303000    1.0759352   -5.4538327     724.4488  0.046332105  0.046814986            7 
 1304000    1.0356463   -5.4329644    725.95167  0.046392617  0.046804074            4 
 1305000    1.0225656   -5.4395272    726.10079  0.046366589  0.046793168            3 
 1306000    1.0483791   -5.3953601    729.28049  0.046533977  0.046782621            2 
 1307000     1.015486   -5.4354702    729.36741  0.046503916  0.046772112            3 
 1308000    1.0494962   -5.4296123    727.86456  0.046372614  0.046761526            4 
 1309000     1.051437   -5.4047604    730.29834  0.046492127  0.046750933            4 
 1310000    1.0495069   -5.4458691    727.92356   0.04630557  0.046740403            2 
 1311000    1.0276864   -5.4366318    730.18318  0.046413881  0.046729565            3 
 1312000    1.0590078   -5.4732917      728.978  0.046301957  0.046718755            8 
 1313000    1.0437364   -5.4069083    730.36697  0.046354847  0.046707593            2 
 1314000    1.0516948   -5.4332773    731.56287  0.046395413  0.046696778            4 
 1315000    1.0473251   -5.4488937    728.05579  0.046137882  0.046685651            4 
 1316000    1.0643175   -5.4207106    732.98149  0.046414735  0.046674949            2 
 1317000    1.0319888   -5.4870019     728.5233  0.046097399  0.046663986            5 
 1318000    1.0362007   -5.4709553    730.60599  0.046194107  0.046653082            3 
 1319000    1.0466732   -5.4247334    733.10691   0.04631709  0.046642376            1 
 1320000     1.031024   -5.4309502    734.73555   0.04638482  0.046631674            4 
 1321000     1.025349   -5.4468986    730.94864  0.046110815  0.046621146            4 
 1322000    1.0424228   -5.4555602    731.34041  0.046100631  0.046610149            6 
 1323000    1.0498836    -5.429489    733.45275  0.046198838  0.046599284            3 
 1324000    1.0350545   -5.4497212    736.09495  0.046330246  0.046588483            3 
 1325000    1.0350548   -5.4297837    736.24568   0.04630476  0.046577873            4 
 1326000    1.0314081   -5.4546028    737.41008  0.046343017  0.046567559            7 
 1327000    1.0504991   -5.4587042    734.54033  0.046127878  0.046556908            6 
 1328000    1.0476075   -5.4449071      737.277  0.046264872  0.046546245            5 
 1329000    1.0230414   -5.4160217     738.3521  0.046297473   0.04653573            2 
 1330000    1.0488918   -5.4237173    736.88741   0.04617089  0.046525111            2 
 1331000    1.0406826   -5.4335379    735.97668  0.046079181    0.0465145            2 
 1332000    1.0345816   -5.4929775    734.77956  0.045969692  0.046503493            3 
 1333000    1.0339762   -5.4556172    737.80309  0.046124224  0.046492519            5 
 1334000    1.0226643   -5.4487919     738.4373  0.046129267  0.046481974            4 
 1335000    1.0366213   -5.4541212    738.64868  0.046107907  0.046471441            6 
 1336000    1.0336784   -5.4562078    738.34577  0.046054501  0.046460997            5 
 1337000    1.0435076   -5.4392439    741.44347   0.04621313  0.046450429            2 
 1338000    1.0415104   -5.4189429     743.6001  0.046312911  0.046439917            4 
 1339000     1.060169   -5.4535232    740.38598  0.046078291  0.046429521            4 
 1340000    1.0562932     -5.40719    741.34702  0.046103671  0.046418867            2 
 1341000    1.0387166    -5.437239    740.98289  0.046046662  0.046408318            5 
 1342000    1.0382968   -5.4573785    740.82804  0.046002734  0.046397643            1 
 1343000    1.0374341   -5.4296276    742.68851  0.046083923  0.046387025            2 
 1344000    1.0641551   -5.4464062     744.0031  0.046131144  0.046376453            5 
 1345000    1.0485313   -5.4269276    742.62072  0.046011197  0.046366049            5 
 1346000    1.0445504   -5.4463031    742.86813  0.045992331  0.046355863            6 
 1347000    1.0501922   -5.4252563    744.57469  0.046063764  0.046345539            4 
 1348000    1.0294255   -5.4407878    744.34248  0.046015237   0.04633538            6 
 1349000    1.0351208   -5.4414053     743.7713  0.045945843  0.046325012            4 
 1350000     1.022678   -5.4361381    745.11043  0.045994471  0.046314538            2 
 1351000    1.0288602   -5.4527419    744.38252  0.045915527  0.046304527            2 
 1352000    1.0279044   -5.4735393     745.9426  0.045977724  0.046294032            3 
 1353000    1.0473415   -5.4405519    745.26848  0.045902222   0.04628365            2 
 1354000    1.0331716   -5.4031793    750.58189   0.04619534  0.046273549            6 
 1355000    1.0575444   -5.4413251    749.59303  0.046100432  0.046263462            3 
 1356000    1.0390277   -5.4664398    749.87496  0.046083761  0.046253287            3 
 1357000    1.0399105   -5.4555961    750.11363  0.046064458  0.046243193            2 
 1358000    1.0312382   -5.4764589     746.9434  0.045835997  0.046233184            5 
 1359000    1.0360821   -5.4585833    748.14699  0.045876072  0.046223133            3 
 1360000    1.0417613   -5.4875524    750.03126  0.045957798   0.04621335            6 
 1361000     1.012631   -5.4514184    751.76705  0.046030311  0.046203286            3 
 1362000    1.0061733   -5.4262912    752.26243  0.046026825  0.046193492            6 
 1363000    1.0390607   -5.4127449    754.99357  0.046160037  0.046183781            2 
 1364000    1.0293678   -5.4278828    753.84845  0.046056235  0.046174064            3 
 1365000    1.0476574   -5.4717029     751.7721  0.045895733  0.046164049            5 
 1366000    1.0197647   -5.4431804    754.27613  0.046014893  0.046153725            5 
 1367000    1.0259726   -5.4822053    753.62586  0.045941591  0.046143746            4 
 1368000    1.0454494   -5.4504086     754.3863  0.045954331  0.046133562            2 
 1369000    1.0252305   -5.4249378    754.02676  0.045898877  0.046123131            4 
 1370000    1.0533419   -5.4596242    751.41948  0.045706781  0.046113004            3 
 1371000    1.0192068   -5.4573576    753.29204  0.045787263  0.046102355            2 
 1372000    1.0336379   -5.4630475    755.45356  0.045885177  0.046092208            5 
 1373000    1.0278083   -5.5084014     751.5395  0.045614196  0.046081451            3 
 1374000    1.0335799   -5.4535452    755.94013  0.045847897  0.046070982            3 
 1375000    1.0445307   -5.4457274    756.74923  0.045863589  0.046060742            6 
 1376000     1.025704   -5.4281206    755.95722  0.045782293  0.046050467            3 
 1377000    1.0141771   -5.5059035    754.49276  0.045660419  0.046040003            4 
 1378000    1.0274254    -5.458616     754.9263  0.045653501   0.04602936            4 
 1379000    1.0235324   -5.4376325    755.34256   0.04564555  0.046018812            6 
 1380000    1.0224025   -5.4615208    757.33839  0.045732994   0.04600808            4 
 1381000    1.0497036   -5.4556591    759.07087  0.045804421  0.045997592            4 
 1382000    1.0156316   -5.4947063    758.78403  0.045753981  0.045987246            2 
 1383000      1.04736   -5.4359839    759.77315  0.045780498  0.045976842            1 
 1384000    1.0281284   -5.4843404    758.01609  0.045641624  0.045966176            3 
 1385000    1.0372593   -5.4735503    757.63211  0.045585566  0.045955537            4 
 1386000    1.0285538   -5.4576388    757.32162  0.045534008  0.045945068            2 
 1387000    1.0194851   -5.4521208    758.13124  0.045549822  0.045934403            4 
 1388000    1.0247014   -5.5066789    754.64376  0.045307623  0.045923517            3 
 1389000    1.0109322   -5.4429842    758.94214  0.045532886  0.045912364            3 
 1390000    1.0215115    -5.448471     758.9513  0.045500678  0.045901373            3 
 1391000    1.0126413   -5.4559164    756.94988  0.045348064  0.045889963            4 
 1392000    1.0130589    -5.461665    760.95359  0.045555172  0.045879013            3 
 1393000    1.0435168   -5.4921008    757.35502  0.045307192  0.045868068            5 
 1394000    1.0098652   -5.4783491     758.1991   0.04532515   0.04585711            2 
 1395000    1.0526911   -5.4289397    762.67224  0.045559871  0.045845999            4 
 1396000    1.0159294   -5.4063617    761.44955  0.045454247  0.045835046            3 
 1397000    1.0104155   -5.4824749    762.22797  0.045468144  0.045824296            2 
 1398000    1.0244699   -5.4698995    758.36274  0.045205218  0.045813211            7 
 1399000    1.0322246   -5.4520383    762.22333  0.045402867  0.045802241            4 
 1400000    1.0376806   -5.4831385    761.57444  0.045331812  0.045790921            6 
 1401000    1.0458844   -5.4430426    763.44363  0.045410637   0.04577974            3 
 1402000    1.0139106   -5.4766033    760.61852  0.045210326  0.045768694            5 
 1403000    1.0169583    -5.502839    759.94549  0.045138126  0.045757589            6 
 1404000    1.0118796   -5.4609347    764.01266   0.04534738   0.04574628            1 
 1405000    1.0189195   -5.4729891    761.45017  0.045163118  0.045735027            3 
 1406000    1.0156375   -5.4630924    763.59241  0.045257967  0.045724128            2 
 1407000    1.0379364   -5.4604246    763.72714   0.04523378  0.045712983            5 
 1408000    1.0428247   -5.4922924    763.31904    0.0451775  0.045701922            2 
 1409000    1.0183029   -5.5021113    762.65122  0.045105939  0.045690659            3 
 1410000    1.0551117   -5.4867248    764.24767  0.045168302  0.045679472            6 
 1411000    1.0144044   -5.4519425    765.14133   0.04518907  0.045668205            3 
 1412000    1.0210049   -5.4371441    766.97766  0.045265443  0.045656911            6 
 1413000    1.0192016   -5.4368346    767.26151  0.045250148   0.04564549            3 
 1414000    1.0303803    -5.464947    765.10415  0.045091004  0.045634013            3 
 1415000    1.0169424   -5.4746089    764.11906  0.045001123  0.045622718            3 
 1416000    1.0255075   -5.4786882    767.34801   0.04515937  0.045611255            5 
 1417000    1.0055761   -5.4495627    768.17365  0.045176056  0.045599951            2 
 1418000    1.0202889   -5.4852745     768.7919   0.04518053  0.045588562            4 
 1419000    1.0312603   -5.5073641    764.51844  0.044897724  0.045577005            3 
 1420000    1.0176138   -5.4874295    769.34187  0.045149171  0.045565541            2 
 1421000     1.016611   -5.5053807    768.40585  0.045062506   0.04555437            4 
 1422000     1.013237   -5.4894824    766.96522  0.044946391  0.045543078            4 
 1423000   0.99805287    -5.463084    767.06605   0.04492071  0.045531672            3 
 1424000    1.0275361    -5.481829    767.95163  0.044940989  0.045519789            7 
 1425000    1.0266468    -5.451915    767.90213  0.044906558  0.045507983            2 
 1426000    1.0167424   -5.4617191    769.41261  0.044963336  0.045496315            3 
 1427000   0.99927726   -5.4623471    768.05211  0.044852377   0.04548447            3 
 1428000    1.0299862   -5.4877183    767.92761  0.044813702   0.04547263            4 
 1429000     1.037914   -5.4692988    769.00531   0.04484519   0.04546055            4 
 1430000    1.0168817   -5.4695002     769.7782  0.044858869  0.045448477            3 
 1431000    1.0243184   -5.4797848    767.71105  0.044707142  0.045436131            4 
 1432000    1.0349415   -5.4945718    767.86964  0.044685151  0.045423907            7 
 1433000    1.0225648   -5.4660952    771.08426  0.044840909  0.045411661            7 
 1434000    1.0060291   -5.4531446    771.07843    0.0448093  0.045399456            3 
 1435000    1.0123327   -5.4928586    768.51428  0.044629168  0.045387547            3 
 1436000    1.0320812   -5.4533595    770.29405  0.044701372  0.045375493            2 
 1437000    1.0111152    -5.471658    769.09445  0.044600699  0.045363524            5 
 1438000    1.0211376    -5.457192    771.97108  0.044736386  0.045351309            2 
 1439000    1.0222226   -5.4888454    770.71677   0.04463266  0.045338891            3 
 1440000    1.0148895   -5.4700356    769.38764  0.044524747  0.045326513            5 
 1441000    1.0537016   -5.4761168    771.26313  0.044602309  0.045313911            3 
 1442000    1.0092643   -5.5099647    769.20528  0.044452455  0.045301437            6 
 1443000    1.0328357   -5.4728875    772.51824  0.044612973   0.04528883            6 
 1444000    1.0281026   -5.4962538    771.88955  0.044545796  0.045276525            5 
 1445000    1.0294258   -5.4656918    774.33117  0.044655777  0.045263761            2 
 1446000    1.0165398   -5.5199415    770.19992  0.044386809   0.04525124            3 
 1447000    1.0303191   -5.4811403    772.78135    0.0445048  0.045238769            6 
 1448000     1.004776   -5.4546943    773.35967  0.044507347   0.04522636            4 
 1449000    1.0361994   -5.4662983       772.89   0.04444962  0.045213729            3 
 1450000    1.0101707   -5.4614594    774.04887  0.044485567  0.045201127            2 
 1451000    1.0099094   -5.4766026    773.32159   0.04441314  0.045188484            3 
 1452000    1.0000359    -5.489108    770.77884  0.044236618  0.045175592            5 
 1453000     1.025246   -5.4640868    774.11605  0.044397571  0.045162932            4 
 1454000    1.0252602   -5.4813531    775.26904  0.044433118  0.045150348            4 
 1455000    1.0191656   -5.5287491    771.87677  0.044208291  0.045137744            4 
 1456000    1.0176808   -5.4638299    777.38448  0.044493159  0.045125314            3 
 1457000    1.0158803   -5.4590978    775.95305  0.044380751  0.045112793            4 
 1458000    1.0164896   -5.4686756    777.56575  0.044442487  0.045100208            7 
 1459000    1.0213688   -5.4609001    776.50257  0.044351301  0.045087969            3 
 1460000    1.0255095   -5.4607094    778.28611  0.044422723  0.045075632            3 
 1461000    1.0216784    -5.457351    778.90004  0.044427335  0.045063329            2 
 1462000   0.99184634   -5.4863976    778.60263  0.044379995  0.045050953           10 
 1463000    1.0005935   -5.4803757    779.37225  0.044393498  0.045038279            4 
 1464000    1.0124107   -5.4966083    776.78114  0.044215684  0.045025713            2 
 1465000    1.0331164   -5.5038471    777.45843  0.044224029  0.045013083            6 
 1466000   0.99237164   -5.5058315    775.66405  0.044091863  0.045000397            5 
 1467000    1.0123832   -5.4951841    778.84194  0.044242328  0.044987641            2 
 1468000    1.0155992   -5.4813197    778.23175  0.044177552  0.044975167            3 
 1469000    1.0128699   -5.5133381    780.67895  0.044286303  0.044962634            6 
 1470000      1.02474   -5.4774104    781.34128  0.044293724  0.044949911            3 
 1471000   0.99969822   -5.4824903    782.18527  0.044311425  0.044937612            3 
 1472000    1.0352357   -5.5201226    780.87105  0.044206921  0.044925267            4 
 1473000    1.0004556   -5.5039214    781.67496   0.04422239  0.044912922            6 
 1474000   0.99782472   -5.4739305    786.21829  0.044449247  0.044901065            2 
 1475000    1.0117979    -5.485598     783.5831  0.044270232   0.04488908            4 
 1476000    1.0251538    -5.473922    784.76858  0.044307169  0.044877121            3 
 1477000    1.0125878   -5.5009851    782.36343  0.044141471  0.044864993            2 
 1478000    1.0038762   -5.5144779    782.17408  0.044100929  0.044852901            2 
 1479000    1.0312993   -5.4817443    784.90184  0.044224805  0.044840962            8 
 1480000   0.99700465   -5.4998447      784.438  0.044168806  0.044828778            7 
 1481000    1.0064533   -5.4631811    787.42089  0.044306825  0.044816806            2 
 1482000    1.0338745   -5.4618385    786.81214  0.044242698   0.04480498            1 
 1483000    1.0052624   -5.4731722    787.95017  0.044276814  0.044793017            3 
 1484000    1.0064891   -5.4952147    786.25584  0.044151833   0.04478115            2 
 1485000    1.0237482   -5.4827513    788.17653  0.044229884  0.044769183            3 
 1486000    0.9939873    -5.483286    790.17675   0.04431229  0.044757425            2 
 1487000    1.0147748   -5.5000557    791.66621  0.044365961  0.044745924            3 
 1488000    1.0159679   -5.5228041      789.264  0.044201613  0.044734317            4 
 1489000    1.0282374   -5.5021517    788.14067  0.044109059  0.044722536           10 
 1490000    1.0314874   -5.5025728    790.47035  0.044209751  0.044710922            5 
 1491000    1.0250227   -5.4843132    793.70409  0.044360837  0.044699394            5 
 1492000    1.0105114   -5.4611861    793.12468  0.044298742  0.044687956            2 
 1493000    1.0079541   -5.5309652    789.89629  0.044088875  0.044676347            4 
 1494000    1.0016184   -5.4996023    790.85274  0.044112714  0.044664647            4 
 1495000     1.005325   -5.4682938     793.4336  0.044227068  0.044653204            4 
 1496000     1.022103   -5.4706917     795.6761  0.044322421  0.044641761            5 
 1497000   0.98402403   -5.5152589     788.9641  0.043919177  0.044630181            4 
 1498000    1.0268741   -5.4806577    797.23637  0.044350043  0.044618581            3 
 1499000    1.0170159   -5.4574461    793.43369  0.044109055  0.044607161            3 
 1500000     1.025821   -5.4698735    794.04394  0.044113552  0.044596062            4 
 1501000     1.007624   -5.5284542    794.16976  0.044091148  0.044584801            3 
 1502000   0.99545672   -5.4599504     797.7967  0.044263021  0.044573464            6 
 1503000    1.0225862   -5.4596478    796.64645  0.044169797  0.044562282            3 
 1504000    1.0254323    -5.523801    794.86284  0.044041602  0.044550851            6 
 1505000    1.0055112   -5.5432002    795.20759  0.044031428  0.044539456           12 
 1506000    1.0145521    -5.499747    799.95321  0.044264786  0.044528111            4 
 1507000    1.0109617     -5.49584    798.56177   0.04415847  0.044517039            3 
 1508000      1.01156   -5.4820748    800.99507  0.044263653  0.044506153            7 
 1509000    1.0187349   -5.5071998    799.26269  0.044138651   0.04449532            4 
 1510000    1.0152623   -5.5342301    800.92753  0.044201299  0.044484338            3 
 1511000    1.0306206   -5.4877115    802.58367  0.044263384  0.044473363            1 
 1512000    1.0304478   -5.4951091     800.8749  0.044139931  0.044462419            2 
 1513000   0.99979058   -5.5087437    800.99729  0.044117498  0.044451358            2 
 1514000    1.0205954   -5.4898486     801.4073  0.044110926   0.04444013            6 
 1515000    1.0232444   -5.4874097    802.57107  0.044145823  0.044429055            4 
 1516000   0.99706394   -5.5148148    799.20072  0.043931438   0.04441777            4 
 1517000   0.99342639    -5.490128     798.6862  0.043874215  0.044406459            4 
 1518000   0.99864626   -5.4726292    801.01567  0.043973192  0.044395074            2 
 1519000    1.0234044   -5.5327511     800.8875  0.043937212  0.044383601            5 
 1520000    1.0140799   -5.5078903    802.17512  0.043978899  0.044372261            2 
 1521000    1.0036795   -5.5295753    802.95801  0.043992878  0.044360955            4 
 1522000    1.0184532   -5.4837956    803.34561  0.043985195  0.044349574            3 
 1523000    1.0224545   -5.4819394    804.01577  0.043992984  0.044338416            5 
 1524000    1.0311883   -5.5080946    803.85292  0.043955212  0.044326834            8 
 1525000    1.0302922    -5.475815    802.00417  0.043825364  0.044315705            2 
 1526000   0.99563908      -5.4909     804.8664  0.043952949  0.044304508            3 
 1527000    0.9930805   -5.4654318    804.45212  0.043901556  0.044293219            6 
 1528000   0.99473914   -5.5127143    805.24437  0.043916032  0.044281766            3 
 1529000    1.0069647   -5.5277764    805.09985  0.043879434  0.044270403            3 
 1530000    1.0211722   -5.5191148    804.35162  0.043810001  0.044258956            1 
 1531000    1.0069457   -5.5218568    806.41893  0.043893911  0.044247675            3 
 1532000    1.0179439   -5.5089478    804.82967  0.043778811  0.044236272            6 
 1533000     1.000052   -5.5313569    802.28139   0.04361173  0.044225047            3 
 1534000   0.97328192   -5.5175404    805.43133  0.043754418  0.044213765            3 
 1535000    1.0232427   -5.5001527    803.52779  0.043622573  0.044202421            2 
 1536000   0.98591139   -5.4887605    807.29874   0.04379876  0.044191117            3 
 1537000    1.0168518   -5.5054405    805.84851  0.043691635  0.044179874            3 
 1538000   0.99051484   -5.4947528    809.70961  0.043872432  0.044168702            6 
 1539000    1.0004283   -5.5049583    808.00495  0.043751622  0.044157773            4 
 1540000    1.0015768   -5.5231481     811.3476  0.043904091  0.044146884            2 
 1541000    1.0150523   -5.5189292    805.21197  0.043543801  0.044136103            5 
 1542000    1.0072245   -5.5077149    811.21167  0.043839801  0.044124906            3 
 1543000    1.0119537   -5.5102385    811.67865  0.043836609  0.044113675            7 
 1544000   0.98936487   -5.5320475    809.10597  0.043669364  0.044102626            6 
 1545000    1.0285662   -5.5490084    809.49737   0.04366221  0.044091439            6 
 1546000    1.0291033   -5.5255428    810.68068  0.043697751  0.044080253            3 
 1547000    1.0055214    -5.545897    809.58978   0.04361074  0.044069017            3 
 1548000    1.0103501   -5.5213896    812.52438  0.043740546  0.044057795            6 
 1549000    1.0014672   -5.5078067    809.58218  0.043554023  0.044046562            6 
 1550000   0.99316827   -5.4958161    816.00822   0.04387141  0.044035799            3 
 1551000   0.99939958   -5.4785178    814.63453  0.043769317  0.044024871            6 
 1552000    1.0260656   -5.4942924    813.29803  0.043669353  0.044013821            5 
 1553000    1.0095087   -5.5085672    816.27545  0.043801001  0.044002988            2 
 1554000    1.0179722   -5.4774398    816.88278  0.043805383   0.04399236            4 
 1555000    1.0110032   -5.5199814    816.24413  0.043742987  0.043981753            6 
 1556000    1.0023256      -5.5329     817.2946  0.043771133  0.043970953            4 
 1557000   0.99040667   -5.5285699    816.17932  0.043683329  0.043960273            4 
 1558000    1.0033025    -5.493544    815.77583  0.043633709  0.043949638            4 
 1559000     1.004901   -5.5006811    816.25483  0.043631325  0.043939172            6 
 1560000    1.0136318    -5.540416    818.36158  0.043715897  0.043928292            3 
 1561000   0.98498273   -5.5121509    816.87429  0.043608493  0.043917526            6 
 1562000    1.0044422   -5.5390655    819.05845    0.0436971  0.043906823            6 
 1563000   0.99302674   -5.5524539    817.88875  0.043606779  0.043896103            6 
 1564000    1.0068284   -5.5291706    819.86316  0.043684099  0.043885543            4 
 1565000    1.0083737   -5.5245348    820.88642  0.043710672  0.043875189            5 
 1566000   0.99991642   -5.5147039    820.97482  0.043687464   0.04386482            2 
 1567000   0.99757268   -5.5040121    822.39836  0.043735288   0.04385407            3 
 1568000   0.99669968   -5.5337676     819.6108  0.043559247  0.043843311            2 
 1569000   0.98095964   -5.5268938    818.48483  0.043471682  0.043832473            2 
 1570000    1.0008351   -5.5408483    820.40362   0.04354584  0.043821697            4 
 1571000   0.99869437   -5.5296534    823.82412  0.043699561  0.043810802            3 
 1572000   0.99577884   -5.5313805    820.40698  0.043490616  0.043800249            3 
 1573000    1.0010636   -5.5169408    821.89001  0.043541535  0.043789583            4 
 1574000   0.99616034   -5.5260391    820.05736  0.043416845  0.043778874            4 
 1575000   0.99844809   -5.5164169    820.81843  0.043429547  0.043768139            5 
 1576000    1.0044778   -5.5176404    822.52803  0.043492387  0.043757372            3 
 1577000    0.9951694   -5.5366085    822.68127  0.043472906  0.043746628            3 
 1578000    1.0113054   -5.5171376    821.83433   0.04340063  0.043735856            2 
 1579000   0.99950394   -5.5383669    824.59033  0.043518594  0.043724898            3 
 1580000    0.9912648   -5.5085756    823.62176  0.043439966  0.043713894            3 
 1581000    1.0039321   -5.5597098    820.34707  0.043239884  0.043702921            3 
 1582000    1.0194709   -5.5090871    821.10907   0.04325269  0.043692003            4 
 1583000     1.006887   -5.5326216    821.97467  0.043270935  0.043680696            4 
 1584000    1.0030775   -5.5245186    823.29038  0.043312836   0.04366956            3 
 1585000   0.99343083    -5.516684    825.48029  0.043400646    0.0436586            2 
 1586000   0.99070194    -5.534138    824.95964  0.043345924  0.043647698            2 
 1587000   0.99127692   -5.5326949        827.4  0.043446755  0.043636677            3 
 1588000    0.9888873   -5.5626139    824.49844   0.04326713  0.043625904            3 
 1589000   0.99947068   -5.5196342    829.15452  0.043484084  0.043614904            3 
 1590000     1.040404   -5.5170346    827.16227   0.04335232  0.043604186            4 
 1591000    1.0154787    -5.520065    824.84548  0.043203723  0.043593217            4 
 1592000    1.0133507   -5.5581713    826.51459  0.043263955  0.043582305            7 
 1593000   0.99329231   -5.5227205    827.33901  0.043279923  0.043571523            2 
 1594000   0.99229054   -5.5290725    825.54499  0.043158981  0.043560415           10 
 1595000   0.96880334   -5.5601191    824.97371  0.043102075  0.043549445            3 
 1596000   0.98046483   -5.5284681    829.24147  0.043297905  0.043538517            6 
 1597000    0.9741638   -5.5441201    826.55249  0.043130479  0.043527545            5 
 1598000   0.98526482   -5.5778208    826.85176  0.043119095  0.043516523            4 
 1599000    1.0007078   -5.5212559    828.27528  0.043166316  0.043505513            4 
 1600000   0.99098941   -5.5251601    829.93154  0.043225601  0.043494711            6 
 1601000    1.0041888   -5.5838948    828.56329  0.043127383  0.043483828            5 
 1602000    1.0194037   -5.5527631    827.38859  0.043039356  0.043472903            3 
 1603000   0.97959578     -5.54742    833.99681  0.043356041  0.043461827            3 
 1604000    1.0109333   -5.4870551    834.52801  0.043356609  0.043450945            5 
 1605000    1.0083873   -5.5435625    831.99113  0.043197878  0.043440081            5 
 1606000   0.98543548   -5.5115127    833.43687  0.043245998   0.04342916            3 
 1607000   0.99345524   -5.5582301    828.83763  0.042980587  0.043418203            4 
 1608000    1.0249526   -5.5166143    835.26085  0.043286736   0.04340733            4 
 1609000   0.97542098   -5.5187081     833.1731  0.043151704  0.043396488            3 
 1610000    1.0184601    -5.514904    835.82642  0.043262237  0.043385745            3 
 1611000    1.0129984   -5.5400454     832.6307  0.043070075  0.043374901            4 
 1612000   0.98935742   -5.4814271     835.8659  0.043210603  0.043363803            4 
 1613000   0.98242245   -5.5064131    834.50805  0.043113662  0.043353233            3 
 1614000   0.99327843   -5.5286638    835.71359  0.043149194  0.043342582            7 
 1615000   0.99732326   -5.5113285     836.2482  0.043150062  0.043331712            4 
 1616000    1.0050071   -5.5246542    834.86099  0.043051825  0.043320813            5 
 1617000   0.97470393   -5.5119673    835.96318  0.043082003  0.043310022            3 
 1618000   0.98332688   -5.5329882    835.89775  0.043052006  0.043299495            4 
 1619000   0.99173147   -5.5316804    836.77186  0.043070407  0.043288729            5 
 1620000    1.0086153   -5.5449868    837.38551  0.043075386  0.043278155            4 
 1621000    1.0061227   -5.5453362    835.20926  0.042936935  0.043267331            2 
 1622000   0.99161082   -5.5471508    835.68624  0.042934969  0.043256645            3 
 1623000   0.98521347   -5.5552077      839.855  0.043122561  0.043246136            7 
 1624000    1.0023753   -5.5222074    842.18557  0.043215598  0.043235496            8 
 1625000   0.99409875   -5.5240576    839.94982   0.04307435  0.043224904            4 
 1626000   0.97193901    -5.545631    837.51643  0.042923146  0.043213884            3 
 1627000   0.99494262   -5.5790212    836.15075  0.042826816  0.043203003            5 
 1628000   0.99228304   -5.5766369    840.02473  0.042998809  0.043192325            4 
 1629000   0.98840123   -5.5083865    843.32384  0.043141183  0.043181585            2 
 1630000    1.0053124   -5.5179887    842.05942  0.043050072  0.043171166            2 
 1631000    1.0012363   -5.5286706    838.34991  0.042834146  0.043160673            4 
 1632000    1.0051227    -5.550812    839.44562  0.042863849  0.043150176            8 
 1633000   0.97135976   -5.5467126    840.32673  0.042882564  0.043139513            2 
 1634000   0.97995763   -5.5553432    841.81744  0.042932346  0.043128853            5 
 1635000    0.9957077   -5.5639771    840.36244  0.042831929  0.043118108            3 
 1636000   0.98488374    -5.557822    840.12146  0.042793473  0.043107214            3 
 1637000   0.98411837   -5.5368246    842.26552  0.042876477  0.043096583            5 
 1638000   0.97936103   -5.5909195    840.72754  0.042772057  0.043086004            4 
 1639000   0.97741577   -5.5595304    843.39246  0.042881455  0.043075399            4 
 1640000   0.99182474   -5.5259009    844.46055  0.042909581  0.043064776            3 
 1641000    0.9806067   -5.5849198    841.12345  0.042713968  0.043054114            5 
 1642000   0.98846766   -5.5345532    843.98693  0.042833279  0.043043303            7 
 1643000   0.98228107   -5.5469598    845.56424   0.04288721  0.043032662            4 
 1644000   0.99574816   -5.4988363    846.13298  0.042889952  0.043022067            4 
 1645000   0.97638437    -5.575001    842.78251   0.04269415  0.043011195            6 
 1646000   0.98721442   -5.5794265    844.93416  0.042777145   0.04300055           11 
 1647000   0.98382457   -5.5109476     846.4476  0.042827747  0.042989983            3 
 1648000    0.9783029   -5.5477798    843.25404  0.042640273  0.042979166            3 
 1649000   0.99238336   -5.5503751    846.45728  0.042776293  0.042968241            5 
 1650000   0.96553952   -5.5892489     842.0475  0.042527652  0.042957187            2 
 1651000   0.98361683   -5.5303832    848.41449  0.042823263  0.042946321            3 
 1652000     0.984199   -5.5408959     847.1651  0.042734317  0.042935414            8 
 1653000   0.97524094   -5.5330398    850.13644   0.04285826  0.042924688            4 
 1654000   0.99050634   -5.5375547    846.00234   0.04262406  0.042913812            2 
 1655000   0.97100265   -5.5596129    846.00764  0.042598572  0.042902912            5 
 1656000   0.99091501   -5.5471815    847.57144  0.042651542  0.042891952            3 
 1657000   0.98723494   -5.5486151    844.03057  0.042447725  0.042881011            9 
 1658000   0.99052488   -5.5630618    846.97257  0.042569993  0.042869896            3 
 1659000   0.97544549   -5.5540152    847.37374  0.042564484   0.04285909            2 
 1660000   0.99603863   -5.5543863    848.76606  0.042608738  0.042848292            5 
 1661000   0.98814759   -5.5693869    847.77822  0.042533525  0.042837264            3 
 1662000   0.97011603   -5.5027677    849.16686   0.04257756  0.042826315            3 
 1663000   0.99160669   -5.5380585    850.53147  0.042620338  0.042815658            3 
 1664000   0.99548215   -5.5441612    849.47107   0.04254162  0.042805059            3 
 1665000   0.98139364    -5.544716    849.32281  0.042508649  0.042794126            3 
 1666000   0.95562442   -5.5652479    848.33313   0.04243363  0.042783168            5 
 1667000   0.97650594   -5.5530865    849.30126  0.042456572  0.042772236            4 
 1668000   0.97723973   -5.5291481    849.40348  0.042436225  0.042761429            5 
 1669000   0.99302063   -5.5558908    850.62929  0.042472004  0.042750361            2 
 1670000   0.97145179   -5.5674282    851.08026  0.042469075  0.042739455            6 
 1671000   0.96647303   -5.5829749    850.18598  0.042399062  0.042728585            2 
 1672000   0.97879098   -5.5219752    854.85684  0.042606501  0.042717878            3 
 1673000   0.96838314   -5.5512004     852.1566  0.042446533  0.042707171           10 
 1674000    1.0103052   -5.5778532    854.65374  0.042545487  0.042696401            3 
 1675000   0.98202085   -5.5639646     850.9248  0.042334567  0.042685631            5 
 1676000   0.99312136   -5.5276667    852.90994  0.042408012  0.042674827            2 
 1677000   0.98919709   -5.5739058    853.66726  0.042420357  0.042664111            4 
 1678000   0.99747722   -5.5746767    853.58096   0.04239079  0.042653294            5 
 1679000   0.97326149   -5.5319816    855.62582  0.042467035  0.042642643            3 
 1680000   0.98690784   -5.5597395    853.97396   0.04235982  0.042631936            2 
 1681000   0.98899741   -5.5518154    857.82167  0.042525365  0.042621269            3 
 1682000   0.96415932    -5.575531     857.8287  0.042500431  0.042610819            2 
 1683000     1.009455    -5.558297    857.02945  0.042435604  0.042600083            8 
 1684000   0.98658838   -5.5633015    856.49597  0.042384005  0.042589438            3 
 1685000   0.96830541   -5.5763335     859.2469  0.042494901  0.042579023            4 
 1686000   0.99255238   -5.5770014    858.08086  0.042412063  0.042568533            3 
 1687000   0.97710833   -5.5714864    857.05748   0.04233637  0.042558165            4 
 1688000   0.96020335   -5.5531425    859.69329  0.042441414  0.042547775            3 
 1689000   0.98419852   -5.5658239    860.04493  0.042433636  0.042537391            5 
 1690000   0.98257158     -5.57423    860.17533  0.042414957  0.042526828            5 
 1691000   0.98374953   -5.5915442    856.22329  0.042195116  0.042516145            8 
 1692000   0.97442674   -5.5839926    858.52915  0.042283745  0.042505456            6 
 1693000   0.98387456   -5.5808715    860.04109   0.04233319  0.042494967            3 
 1694000   0.95440698   -5.5615568    861.20755  0.042365582  0.042484391            4 
 1695000   0.98759377   -5.5396813    861.26342  0.042343334  0.042473953            5 
 1696000   0.97695157   -5.5754658     859.3273  0.042223236  0.042463449            4 
 1697000   0.98538334   -5.5405817    863.34383  0.042395592  0.042452992            2 
 1698000   0.99697919   -5.5500799    862.60983  0.042334601  0.042442519            6 
 1699000   0.98260952   -5.5648918    866.08482  0.042480127  0.042432157            2 
 1700000   0.97395409   -5.5631686    860.61531  0.042187025  0.042421718            3 
 1701000   0.99047143   -5.5682911    863.98088  0.042327106  0.042411152            4 
 1702000   0.97108842   -5.5848194     862.3649  0.042223115  0.042400461            7 
 1703000   0.97956598   -5.5757211     861.6481  0.042163246  0.042390033            8 
 1704000   0.94832194   -5.5729184    861.82913  0.042147356  0.042379603            2 
 1705000   0.96659351   -5.5492641    864.70042  0.042262973  0.042369237            2 
 1706000   0.97333458    -5.562934    864.53342  0.042230042  0.042358862            2 
 1707000   0.99664476   -5.5910129    862.41056  0.042101668  0.042348382            4 
 1708000    0.9729088   -5.5733455    863.14013  0.042112614  0.042338127            2 
 1709000   0.99737823   -5.5507699    864.10462  0.042135002  0.042327745            4 
 1710000    0.9783274   -5.5628811    865.82995  0.042194442  0.042317388            4 
 1711000   0.97528467   -5.6008687    861.99689  0.041983094  0.042306863            3 
 1712000   0.97148758   -5.5806669    863.83613  0.042048098  0.042296334            2 
 1713000   0.97501298   -5.5674458    866.35823  0.042146246  0.042285618            4 
 1714000   0.98825302    -5.589955    865.22507  0.042066563  0.042274997            6 
 1715000   0.97469002   -5.5562114    868.14438  0.042183886  0.042264327            5 
 1716000    0.9541149   -5.5715012     865.9887  0.042054618  0.042253557            4 
 1717000   0.98641854   -5.5631261    865.94258  0.042027887  0.042242756            3 
 1718000    1.0042615   -5.5647621    867.99826  0.042103136  0.042232132            5 
 1719000   0.98187446   -5.5738901     866.5617  0.042009002  0.042221404            5 
 1720000   0.99434941    -5.564703    866.87821  0.041999913  0.042210603            4 
 1721000   0.97758066   -5.5518585    869.12547  0.042084325  0.042199944            2 
 1722000   0.96346115    -5.575617    867.79382  0.041995443    0.0421892            3 
 1723000   0.97647592   -5.5827896    868.30382  0.041995735  0.042178611            5 
 1724000   0.96930853   -5.5602078    868.18799  0.041965777  0.042167971            2 
 1725000   0.97607411   -5.5717993    866.99096  0.041883621  0.042157078            5 
 1726000   0.97698147   -5.5831488    867.96503  0.041906384  0.042146074            2 
 1727000   0.99122105   -5.5807299    866.83995   0.04182783  0.042135121            3 
 1728000   0.98382169   -5.6021971    866.30757   0.04177795  0.042124062            5 
 1729000   0.95739689   -5.5861209    867.71807  0.041821769  0.042113095            8 
 1730000    0.9793057   -5.5616323    868.23856  0.041822667  0.042102217            3 
 1731000   0.98480612   -5.5462594    868.63399  0.041817542  0.042091442            3 
 1732000   0.97402733   -5.5609198    869.82935  0.041850912  0.042080626            2 
 1733000    1.0139766   -5.5843937    870.09346  0.041839462  0.042069837            4 
 1734000    0.9816168   -5.5805965    870.77565  0.041848119  0.042058977            3 
 1735000    0.9831675   -5.5647588    870.71944  0.041821299  0.042048052            2 
 1736000   0.97323734   -5.5717916    870.37488  0.041780668  0.042037334            4 
 1737000   0.97042917   -5.5774316    871.54858  0.041812924  0.042026509            3 
 1738000   0.94288829   -5.5976874    872.76112  0.041847004  0.042015707            3 
 1739000   0.99399466   -5.5880213    870.45323  0.041712346  0.042004737            3 
 1740000   0.97760234   -5.5848673    875.07218  0.041909587  0.041994161            3 
 1741000   0.97032676   -5.6005114    869.87502  0.041636752  0.041983383            2 
 1742000   0.96353354    -5.604482    872.49308  0.041738092  0.041972817            3 
 1743000   0.98667803    -5.558481    872.65311  0.041721797   0.04196219            8 
 1744000   0.97044425   -5.6095045    872.58131  0.041694443  0.041951539            3 
 1745000   0.98511233   -5.5815164    876.31408   0.04184881  0.041940844            5 
 1746000   0.98195695   -5.5851615    875.19704  0.041771527  0.041930265            3 
 1747000   0.95186528    -5.566724     877.1061  0.041838681  0.041919623            2 
 1748000   0.96521699   -5.5830449     876.4748  0.041784649  0.041909169            3 
 1749000   0.96371864     -5.55693    874.43152  0.041663404  0.041898345            4 
 1750000     0.974928   -5.5815008      878.369  0.041827095  0.041887815            4 
 1751000   0.97510677   -5.5669014    875.74283  0.041678223  0.041877267            5 
 1752000   0.95610087   -5.6214024    875.80557  0.041657419  0.041866752            3 
 1753000   0.98915976   -5.5880654    874.47003  0.041570167  0.041856047            2 
 1754000   0.98699104   -5.5754138    874.62765  0.041553955  0.041845411            5 
 1755000    0.9925959   -5.5922573    876.96286  0.041641161  0.041834774            5 
 1756000   0.98608469   -5.5913934    876.43064  0.041592191  0.041824134            5 
 1757000   0.96005966   -5.5862274    879.54266  0.041716119  0.041813449            5 
 1758000   0.95940273   -5.6326113    873.96178  0.041427843  0.041802712            9 
 1759000   0.96675417   -5.6145068    877.67273  0.041580099  0.041791925            5 
 1760000   0.96397116    -5.657739    872.74283   0.04132305  0.041781175            5 
 1761000   0.97010734   -5.6265411    877.42173  0.041520998  0.041770325            3 
 1762000   0.97847009   -5.5642354    877.69747  0.041510474  0.041759575            6 
 1763000   0.97517413   -5.6338862    877.41245  0.041473456  0.041748982            7 
 1764000   0.96004739   -5.6149855    879.22378  0.041535515  0.041738291            8 
 1765000   0.95504333    -5.577489    879.69358  0.041534163  0.041727684            6 
 1766000   0.98292764   -5.5788788    882.15182  0.041626643  0.041717278            6 
 1767000   0.99200451   -5.5858606    882.76704    0.0416321  0.041706876            4 
 1768000   0.98848945   -5.6052747     882.9032   0.04161497  0.041696411            5 
 1769000   0.95943295   -5.6086877    884.63521  0.041673036  0.041686009            4 
 1770000   0.96618167   -5.5814224    882.18349  0.041534063  0.041675348            4 
 1771000   0.96739584   -5.5740489      880.654  0.041438641  0.041665068            5 
 1772000   0.96974181   -5.5870065    882.94117  0.041522816  0.041654798            3 
 1773000   0.96126681   -5.5550652    884.62105  0.041578354  0.041644275            3 
 1774000    0.9591049   -5.5973543     882.8538    0.0414719  0.041633703            4 
 1775000   0.97253582   -5.5606274    884.75262  0.041537682  0.041623153            2 
 1776000   0.97390144   -5.6068238    884.30957  0.041493504  0.041612705            4 
 1777000   0.97203196   -5.6105109    886.26028  0.041561634  0.041602381            5 
 1778000   0.97164562   -5.5916995    883.28953  0.041399022  0.041591885            5 
 1779000   0.97482552    -5.636855    883.74786   0.04139722  0.041581311            6 
 1780000   0.97323356   -5.6279255    886.55933  0.041505586   0.04157055            5 
 1781000   0.95914229   -5.5903304    885.98019  0.041455184  0.041560112            2 
 1782000   0.97038806   -5.6115707    885.77464  0.041422308  0.041549624           11 
 1783000   0.96391167   -5.5792419    887.20406  0.041465884   0.04153936            4 
 1784000   0.97179091   -5.6017494     886.9581  0.041431152  0.041528988            4 
 1785000   0.95110571   -5.5982384    887.78385  0.041446492  0.041518391            5 
 1786000   0.97358113    -5.641334    883.58438  0.041227341  0.041507898            5 
 1787000   0.95770778   -5.5807675     885.7976   0.04130748  0.041497328            5 
 1788000   0.95219668   -5.6196024    887.54826   0.04136597   0.04148654            5 
 1789000   0.96310784   -5.6037739    885.74404  0.041258805  0.041475944            5 
 1790000   0.98825998   -5.6148177     885.0569  0.041203766  0.041465022            8 
 1791000   0.95649681   -5.6137114    886.22221  0.041234981  0.041454316            3 
 1792000   0.95680614   -5.6185668    887.73193  0.041282177  0.041443531            6 
 1793000   0.95531491   -5.6136486    884.40512  0.041104533  0.041432844           10 
 1794000   0.98178099   -5.5768596    886.20968  0.041165444  0.041422189            5 
 1795000   0.95370529   -5.6051252    886.78324  0.041169138  0.041411573            4 
 1796000   0.97030714    -5.586963    889.29743  0.041262873  0.041400885            5 
 1797000   0.94271197    -5.564148    892.86856  0.041405516  0.041390213            4 
 1798000   0.94967673   -5.5806776    888.66273  0.041187557  0.041379468            1 
 1799000   0.98084111   -5.5734492    892.96482  0.041363944  0.041369002            3 
 1800000   0.97422179      -5.5984    889.00476  0.041157628  0.041358672            3 
 1801000   0.94680857   -5.5609736    890.72468  0.041214357  0.041348078            5 
 1802000   0.96699723   -5.5649503    892.17455  0.041258535   0.04133755            3 
 1803000   0.98211138   -5.5549014    892.55467   0.04125322  0.041327106            4 
 1804000    0.9606316   -5.6372671     889.2402  0.041077245  0.041316736            3 
 1805000   0.98167828   -5.6169677     888.6611  0.041027752  0.041306065           14 
 1806000   0.96414269   -5.6243784    889.72244  0.041054007  0.041295534            6 
 1807000   0.95750927   -5.6360696    892.99552  0.041182232  0.041284962            3 
 1808000    0.9830895   -5.6017463    892.88919  0.041154554  0.041274495            4 
 1809000   0.96747963   -5.6074176    893.21869  0.041146982  0.041264273            3 
 1810000   0.95042085   -5.6211224    892.72423  0.041101484  0.041254001            4 
 1811000   0.96341479   -5.6025087    894.91882  0.041179773  0.041243726            4 
 1812000   0.96383481   -5.5897461    898.41665  0.041317911  0.041233601            3 
 1813000   0.92949291   -5.5877838    896.25917  0.041195954   0.04122342            3 
 1814000   0.95984812   -5.6288504    892.24871  0.040989007  0.041212943            5 
 1815000   0.97305869   -5.5831965    893.32626  0.041015898  0.041202617            6 
 1816000   0.97440922   -5.6158274    893.72328  0.041011531  0.041192343            5 
 1817000   0.96467146   -5.6496197    892.01639  0.040910677  0.041181902            3 
 1818000   0.96008165   -5.6078972    895.56982  0.041051055  0.041171389            3 
 1819000   0.95483251   -5.6106557    894.70146  0.040988705  0.041160921            4 
 1820000   0.96155344   -5.5839448    898.91155  0.041158954  0.041150783            4 
 1821000   0.96078782   -5.6239107     894.3648  0.040928281  0.041140361            6 
 1822000   0.94703405   -5.6064466    896.94369  0.041023769  0.041130157            3 
 1823000   0.96681324   -5.6326798    898.13971  0.041055939  0.041119611            2 
 1824000   0.94408379   -5.5981996    895.93557  0.040932729  0.041109152            6 
 1825000   0.96266671   -5.5854507    894.80061  0.040858475  0.041098672            4 
 1826000   0.95695029   -5.6355302     899.0316  0.041029189  0.041088162            2 
 1827000   0.95826247   -5.5976773    895.69837  0.040854697   0.04107766            4 
 1828000   0.95660101   -5.6103899    899.01883  0.040983717  0.041067058            3 
 1829000   0.96031201   -5.6345269    897.87894  0.040909374  0.041056454            3 
 1830000   0.96212328    -5.606453    898.99448  0.040937818  0.041045673            3 
 1831000    0.9563242   -5.5746015    901.45709  0.041027539  0.041035123            3 
 1832000   0.93966231   -5.6170066    899.02051   0.04089431  0.041024523            2 
 1833000   0.96536192   -5.6531214    897.46817  0.040801426  0.041013623            4 
 1834000    0.9536254   -5.6147003    900.65675  0.040924061  0.041003146            5 
 1835000   0.96744839   -5.6151968    899.95827   0.04087004  0.040992562            4 
 1836000   0.95882681    -5.591591    899.55652  0.040829544  0.040982235            3 
 1837000   0.96098608   -5.6227355    900.11618  0.040832706  0.040971717            8 
 1838000   0.94682178   -5.6442045    902.36236   0.04091233   0.04096132            4 
 1839000   0.94285872   -5.6250041    900.01497  0.040783713  0.040950748            4 
 1840000   0.93659601   -5.6476101    900.14065   0.04076724  0.040940188            3 
 1841000   0.96604699   -5.6067134    903.16267  0.040881888  0.040929701            5 
 1842000   0.96472474   -5.6202003    902.45656  0.040827749  0.040919075            5 
 1843000    0.9462945   -5.6395221    898.68016  0.040634842  0.040908376            6 
 1844000   0.95385831   -5.6396398    901.88928  0.040757831  0.040897844            3 
 1845000   0.95676293   -5.6120173     902.2469  0.040751892  0.040887278            4 
 1846000   0.96104731   -5.6136071    900.81272  0.040665074  0.040876691            3 
 1847000   0.96318696   -5.6337365    901.03626  0.040653143  0.040866149            3 
 1848000    0.9544167     -5.62746    899.32208  0.040553846  0.040855681            6 
 1849000   0.96331702   -5.6199461    904.82379  0.040779871   0.04084514            3 
 1850000   0.97008991    -5.616699    899.81012  0.040531987  0.040834495            7 
 1851000   0.96136621   -5.6156911    903.01322  0.040654296  0.040823791            4 
 1852000    0.9474792   -5.5732491    909.15931  0.040908896  0.040813237            5 
 1853000   0.97529509   -5.6166773    905.11277  0.040704837  0.040802716            4 
 1854000   0.95662033   -5.6503701    900.76555  0.040487484  0.040792076            3 
 1855000   0.96570557   -5.6082558    904.52872  0.040634714  0.040781351            3 
 1856000   0.96509301   -5.6300021    904.31159  0.040603071  0.040770703            3 
 1857000   0.94935127   -5.6126707    905.45326  0.040632439  0.040760037            4 
 1858000   0.95482559   -5.6112414    905.55125  0.040614964  0.040749508            7 
 1859000    0.9520426   -5.6395946    904.45724  0.040544076   0.04073891            5 
 1860000   0.94264347   -5.6276942    905.82939  0.040583754  0.040728277            5 
 1861000   0.95601224     -5.62493    905.77922    0.0405597  0.040717804           10 
 1862000   0.94334072   -5.6359305    908.38656  0.040654608  0.040707506            4 
 1863000    0.9579631   -5.6258665    906.73761  0.040559027   0.04069708            2 
 1864000   0.94901762   -5.6446936    905.72932  0.040492191  0.040686668            5 
 1865000   0.91262178   -5.6439627    904.90692  0.040433732   0.04067623            7 
 1866000   0.96591274   -5.6608572    910.90336  0.040679857  0.040665656            8 
 1867000   0.94495799   -5.6153797    909.97456  0.040616611  0.040655217            2 
 1868000   0.94459093   -5.6323691    907.89246  0.040501983  0.040644828           11 
 1869000   0.93817912   -5.6447857    911.42509  0.040637823  0.040634306            1 
 1870000   0.96738474   -5.6230359     908.0607  0.040466163  0.040623713            3 
 1871000   0.94591776   -5.6377347    906.68827  0.040383408  0.040613219            4 
 1872000   0.95385446   -5.6236903    906.33535  0.040346125  0.040602692            7 
 1873000   0.97461748   -5.6150598    911.23935  0.040542772  0.040592282            3 
 1874000   0.94264063   -5.6576373    910.17884  0.040473979  0.040581907            8 
 1875000   0.95150064   -5.6519427    909.92524  0.040441122  0.040571499            2 
 1876000   0.95503258   -5.6449049    908.81667  0.040370321  0.040561006            6 
 1877000   0.94526875   -5.6702399    909.95944  0.040399549  0.040550363            4 
 1878000   0.94713252   -5.6044505    911.90056  0.040464171  0.040539827            3 
 1879000   0.96153009   -5.6280141    910.12598  0.040363934  0.040529403            3 
 1880000   0.95374584   -5.6069819    913.63067  0.040497814  0.040518925            4 
 1881000   0.95463803   -5.6318117    913.09653  0.040452619  0.040508607            6 
 1882000   0.95027891   -5.6206122    910.48693  0.040315574  0.040498208            2 
 1883000   0.94258617   -5.6569444    909.27845  0.040240682  0.040487716            3 
 1884000   0.96430174   -5.6668653    913.55725  0.040408583  0.040477127            3 
 1885000   0.94060659   -5.6258259    911.15474  0.040280935  0.040466434            8 
 1886000   0.95152348   -5.6294095    910.06513  0.040211432   0.04045578            7 
 1887000   0.94563111   -5.6282594    909.17045  0.040150612  0.040445111            3 
 1888000   0.94392073   -5.6127582    911.95506  0.040252254  0.040434638            4 
 1889000    0.9312685    -5.628858    913.62804  0.040304748   0.04042412            4 
 1890000   0.94046324   -5.6443564    910.99342  0.040167258  0.040413652            4 
 1891000   0.96588181   -5.6366308    913.38922  0.040251596  0.040403067            2 
 1892000    0.9457526   -5.6236267    914.24836  0.040268162   0.04039243            9 
 1893000   0.95703735   -5.6537797    910.78888  0.040094598  0.040381841            3 
 1894000   0.93992856   -5.6418806     913.2711  0.040182642  0.040371315           10 
 1895000   0.94276508   -5.6568353    909.89369  0.040012915  0.040360695            5 
 1896000   0.94449713   -5.6567192     914.1574  0.040179211  0.040350137            9 
 1897000   0.93011327   -5.6616973    913.50822  0.040129512  0.040339401            2 
 1898000   0.95307896   -5.6210656    917.87356  0.040300033  0.040328919            2 
 1899000   0.96996497   -5.6465406    913.98555  0.040108195  0.040318427            3 
 1900000   0.92536686   -5.6405902    913.76306  0.040077327  0.040307835            6 
 1901000   0.94818167   -5.6577834    915.46706  0.040130943  0.040297207            6 
 1902000   0.95939699   -5.6335807    914.86803  0.040083597  0.040286454            3 
 1903000   0.93498545   -5.6398452    915.62776  0.040095803   0.04027564            5 
 1904000   0.97596847   -5.6579234     912.1653  0.039923201  0.040264777            9 
 1905000   0.91790363   -5.6275641    915.54444  0.040050063  0.040253995            5 
 1906000   0.95228174   -5.6336636    915.17705  0.040012987  0.040243278            9 
 1907000   0.93978415   -5.6817417    915.72734  0.040016052  0.040232451            4 
 1908000   0.96860608   -5.6632583    914.55998  0.039944094  0.040221699            4 
 1909000   0.95003603    -5.669893    915.12778  0.039947956  0.040210756            7 
 1910000   0.95143542    -5.634135    919.67043  0.040125237  0.040200051            5 
 1911000   0.94960266   -5.6282116    917.48961   0.04000914  0.040189276            2 
 1912000   0.94905241   -5.6358454    917.45481  0.039986698  0.040178622            4 
 1913000   0.95461841   -5.6132365    919.60564  0.040059489  0.040168026            5 
 1914000    0.9820336   -5.6441128    917.15996  0.039932078  0.040157401            3 
 1915000   0.96037314   -5.6580458    916.98224  0.039903492  0.040146695            7 
 1916000   0.96765443   -5.6276313    919.57226  0.039995314  0.040136068            5 
 1917000   0.94871238   -5.6429011    923.13091  0.040129148  0.040125256            3 
 1918000   0.92530515   -5.6043614    921.01151  0.040016142  0.040114765            3 
 1919000   0.94263941   -5.6391375    917.33833  0.039835779  0.040104223            3 
 1920000    0.9550343   -5.6393368    919.47701  0.039907856  0.040093555            6 
 1921000   0.94853061   -5.6638025    918.38495  0.039839708  0.040082755            3 
 1922000   0.94448566   -5.6444652    922.30087  0.039988765   0.04007202           10 
 1923000   0.94081868   -5.6509577    924.42242  0.040059907  0.040061172            4 
 1924000   0.95388449   -5.6253099    920.62541  0.039874628  0.040050584            4 
 1925000   0.95545053   -5.6231204     921.4694   0.03989045  0.040039964            2 
 1926000    0.9278352   -5.6308508    921.22692  0.039859247  0.040029268            2 
 1927000   0.91831881   -5.6543733    918.52495  0.039721715  0.040018607            5 
 1928000   0.95170201   -5.6684157    920.70084  0.039795161  0.040007911            3 
 1929000   0.94037046   -5.6709128    921.69085    0.0398173  0.039997232            5 
 1930000   0.92521074   -5.6568866    923.16506  0.039860322  0.039986443            6 
 1931000   0.91359357   -5.6487489    921.90296  0.039785213  0.039975784            4 
 1932000   0.94602077   -5.6862049    922.91311  0.039808191  0.039965177            2 
 1933000   0.94414498   -5.6863425    919.92112   0.03965861  0.039954615           11 
 1934000   0.93004206   -5.6373691    924.31604  0.039827475  0.039943984            4 
 1935000   0.94738357   -5.6459469    921.54334  0.039687482  0.039933327            7 
 1936000   0.93973036   -5.6448102    921.51475  0.039665752  0.039922603            7 
 1937000   0.92804212   -5.6783332    923.68447  0.039738619  0.039911944            4 
 1938000   0.93239267   -5.6439722    927.98569  0.039903065  0.039901157            3 
 1939000   0.93896821   -5.6392451    922.03199  0.039626611  0.039890637            4 
 1940000    0.9490138   -5.6287137    928.06792   0.03986546  0.039880148            5 
 1941000   0.93202379   -5.6512404    923.31811  0.039640997  0.039869704            5 
 1942000   0.97201121   -5.6326988    924.75462  0.039682227  0.039859052            4 
 1943000   0.95943685   -5.6661743    926.38719  0.039731823  0.039848591            4 
 1944000   0.92456852   -5.6678976    926.49208  0.039715881  0.039837901            3 
 1945000   0.94491251   -5.6418998    925.82879  0.039667043  0.039827225            3 
 1946000   0.93481221   -5.6635879    925.18132  0.039618933  0.039816584            4 
 1947000   0.94714356   -5.6756613    925.87719  0.039628368  0.039806026            5 
 1948000   0.95796102   -5.6543668    929.19059  0.039749768  0.039795456            5 
 1949000   0.95257088   -5.6234482    927.93726  0.039675785  0.039784889            5 
 1950000    0.9180186   -5.6300285    930.91211  0.039782569  0.039774426            6 
 1951000   0.93303864   -5.6612739    930.03626  0.039724768  0.039764068            5 
 1952000    0.9381073   -5.6560449    928.82321   0.03965263  0.039753676            2 
 1953000   0.93759809   -5.6357428     929.3899  0.039656507  0.039743324            5 
 1954000    0.9449549    -5.660405    928.87989  0.039614462  0.039732998            6 
 1955000   0.94202171   -5.6707635    930.77805  0.039675109  0.039722627            5 
 1956000    0.9517978   -5.6453058    934.06226  0.039794745  0.039712314            6 
 1957000   0.96172014   -5.6604794    931.55476  0.039667636  0.039702118            3 
 1958000   0.94994206   -5.6948443    930.83524  0.039616753  0.039691627            5 
 1959000   0.92405219   -5.6265548     931.2863  0.039615718  0.039681328            5 
 1960000    0.9445039   -5.6488353     933.0959  0.039672445  0.039671092            4 
 1961000   0.94280681   -5.6378916    931.83408  0.039598592  0.039660716            4 
 1962000   0.94798134    -5.620794     932.6191  0.039611752  0.039650474            5 
 1963000   0.93349293   -5.6775765    927.42491  0.039371069  0.039640118            7 
 1964000   0.91827061   -5.6809037    932.05029   0.03954728  0.039629833            5 
 1965000    0.9161134   -5.6896564    930.42895  0.039458395  0.039619473            3 
 1966000   0.93535074   -5.6575591    936.25977  0.039685477  0.039609142            5 
 1967000   0.93242616   -5.6606983    931.63853  0.039469519  0.039598949            3 
 1968000   0.95478574   -5.6494859    935.34292  0.039606323  0.039588667            5 
 1969000   0.93409068   -5.6990006    933.48961  0.039507771  0.039578538            3 
 1970000   0.94506523   -5.6694798    936.13528  0.039599631  0.039568324            2 
 1971000   0.92514612   -5.7166202     929.9724  0.039318975  0.039557995            5 
 1972000   0.91873888   -5.6744079    933.39125  0.039443511   0.03954767            3 
 1973000   0.94570102   -5.6615294    934.69928  0.039478767  0.039537414            4 
 1974000   0.92008705   -5.6633957    931.53995  0.039325395  0.039527166            4 
 1975000   0.94601057   -5.6963145    933.78675  0.039400285  0.039516858           10 
 1976000    0.9506961   -5.6712564      934.059  0.039391827  0.039506283            6 
 1977000   0.93692116   -5.6667422    934.67429  0.039397837  0.039495774            5 
 1978000   0.91390149   -5.6683387    935.28579  0.039403682   0.03948535            4 
 1979000    0.9336571   -5.6665397    934.03004  0.039330893  0.039475041            3 
 1980000    0.9457318   -5.6974005    934.12683  0.039315102  0.039464684            3 
 1981000   0.94804149   -5.6625521    933.80843  0.039281862  0.039454455            3 
 1982000   0.90540976   -5.7041088    937.43641  0.039414582  0.039444051           10 
 1983000   0.94100707    -5.700011    936.36243  0.039349572  0.039433853            3 
 1984000   0.93578822   -5.6801443    937.33468  0.039370576  0.039423459            7 
 1985000   0.94493151   -5.6531717    937.73224  0.039367432  0.039413373            3 
 1986000     0.928543    -5.688088    936.13929  0.039280769  0.039403302            4 
 1987000   0.93906951   -5.6362243     939.2562  0.039391721  0.039393139            6 
 1988000   0.93142794   -5.6621161    941.28682  0.039457026  0.039382981            2 
 1989000   0.92508902   -5.6561492    938.25944   0.03931035  0.039372727            4 
 1990000   0.95151595   -5.6766833    941.85654  0.039441229  0.039362485            3 
 1991000   0.93864649   -5.6617442    940.43946  0.039362107  0.039352259            6 
 1992000   0.92232314   -5.6699494    940.03556   0.03932545  0.039342125            4 
 1993000   0.92975356   -5.6516916    942.15094  0.039394169  0.039331853            3 
 1994000   0.92694825   -5.6870915    937.84818  0.039194591  0.039321581            8 
 1995000   0.94042984   -5.6627537    942.91478  0.039386582  0.039311338            5 
 1996000   0.92294638   -5.7106629    939.38689   0.03921956   0.03930128            5 
 1997000   0.93208518   -5.6932723    943.32029  0.039364058  0.039291152            4 
 1998000    0.9373982   -5.6512446    942.43619  0.039307482  0.039281123            3 
 1999000   0.93930156   -5.6662937    945.24031  0.039404715  0.039271095            9 
 2000000   0.91556575   -5.6705997     942.7115  0.039279646  0.039261168            5 
 2001000    0.9315554   -5.6998085    945.61693  0.039381015  0.039251192            5 
 2002000   0.91996495   -5.6525884    943.68684  0.039281004  0.039241306            6 
 2003000   0.93396767   -5.6707935    946.50514  0.039378646  0.039231395            3 
 2004000   0.93747644   -5.6761285    942.74079  0.039202461  0.039221421            6 
 2005000   0.91479205    -5.664862    948.33585  0.039415455  0.039211416            3 
 2006000   0.92488422   -5.6947147    944.89044  0.039252677  0.039201285            4 
 2007000   0.93627584   -5.6601106    947.05666  0.039323063  0.039191314            4 
 2008000   0.95202538   -5.6471163    942.73031  0.039123934  0.039181252            2 
 2009000   0.90390603   -5.6777889    945.76141   0.03923019   0.03917118            8 
 2010000   0.93958464   -5.6474973    944.72792  0.039167824  0.039161113            5 
 2011000   0.91378022   -5.6786504    945.84919  0.039194811  0.039151097            5 
 2012000     0.921861   -5.6738665    944.89965  0.039136003  0.039140879            3 
 2013000   0.94389802   -5.6580576     946.5545  0.039185068  0.039130895            4 
 2014000   0.92395036   -5.6635757    948.84926  0.039260562   0.03912096            3 
 2015000   0.92092496   -5.7224078     944.8027  0.039073726  0.039110784            8 
 2016000   0.93209901   -5.6783462    945.81145  0.039096042  0.039100581            3 
 2017000   0.93253335   -5.6843861     949.1956  0.039216477  0.039090468            8 
 2018000   0.92562477   -5.6798761    944.59855  0.039007208  0.039080315            8 
 2019000   0.90527626   -5.6635751    945.78826  0.039036993  0.039070355            4 
 2020000   0.92644169   -5.7076928    949.46108  0.039169186  0.039060376            3 
 2021000   0.93781216   -5.6709505    946.92065  0.039045054  0.039050416            4 
 2022000   0.93371437   -5.6854791    947.05475  0.039031271  0.039040358            6 
 2023000   0.96281123   -5.7066388    948.65215  0.039077778    0.0390302            3 
 2024000   0.93466601   -5.6841407    948.73421   0.03906185  0.039019981            4 
 2025000   0.94061526   -5.6741676    948.62287  0.039037978  0.039009894            6 
 2026000   0.93368735   -5.6988258    947.51984   0.03897334  0.038999732            6 
 2027000   0.94306413   -5.6509841    951.56484  0.039120409  0.038989769            3 
 2028000   0.89892001   -5.6844619    949.45678  0.039014496  0.038979828            4 
 2029000   0.92054139   -5.6826943    949.82905  0.039010557  0.038969861            3 
 2030000   0.91523003   -5.6972182    950.47031  0.039017665  0.038959767            8 
 2031000    0.9358745   -5.6806652    952.78988  0.039093627  0.038949786            6 
 2032000   0.94880764   -5.6602511    955.46152  0.039183953    0.0389399            3 
 2033000    0.9292246   -5.7040637     950.2396  0.038950631  0.038929965            5 
 2034000   0.92191254   -5.6725728     949.7834  0.038912791  0.038919954            3 
 2035000   0.93534219   -5.6195439      952.157  0.038990868  0.038909916            3 
 2036000   0.90453234   -5.7006799    950.77038  0.038914963   0.03889998            4 
 2037000   0.93673178   -5.6581546    951.79989  0.038937976  0.038890006            5 
 2038000   0.93328517   -5.7186436    947.68032  0.038750422  0.038879868            4 
 2039000   0.91202695   -5.6641681    950.44786  0.038844526  0.038869658            5 
 2040000   0.90732513   -5.6647247    953.21914   0.03893869  0.038859375            7 
 2041000   0.92159394   -5.7047356    949.32491  0.038760612  0.038849268            5 
 2042000   0.93102312   -5.7018534    949.27106  0.038739433  0.038838843            3 
 2043000    0.9127912     -5.71224    951.37859  0.038806436   0.03882862            7 
 2044000   0.92769716    -5.659446    952.10011  0.038816867  0.038818425            4 
 2045000   0.94656083   -5.6887766    950.00545  0.038712528  0.038808134            4 
 2046000   0.92187383   -5.6964785    952.09538   0.03877873  0.038797852            3 
 2047000   0.93463992   -5.6936468     953.9521  0.038835373  0.038787603            5 
 2048000   0.93661539   -5.6932009    952.30928  0.038749564  0.038777356            4 
 2049000   0.89404639   -5.6943024    953.02616  0.038759808     0.038767            5 
 2050000   0.93495089   -5.7222797    950.17026  0.038624807  0.038756522            5 
 2051000   0.90767537   -5.6812941    954.19131  0.038769353  0.038746062            4 
 2052000   0.92228558   -5.6670949    954.72824  0.038772264  0.038735902            5 
 2053000   0.92353263   -5.6799097    950.82658  0.038595007  0.038725639            8 
 2054000   0.91945111   -5.6747844     952.9933  0.038664123  0.038715344            7 
 2055000   0.90652439   -5.6833308    953.17345  0.038652614  0.038705047            5 
 2056000   0.91170535   -5.7121753    951.16439  0.038552383  0.038694752            3 
 2057000   0.92130835   -5.7027129    952.23032  0.038576824  0.038684246            5 
 2058000   0.90845816   -5.6852482    952.71208  0.038577587  0.038673913            4 
 2059000    0.9404921    -5.691605    953.32463  0.038583642  0.038663601            8 
 2060000   0.92436311   -5.6856712    956.51096  0.038693809  0.038653331            6 
 2061000   0.91169839   -5.6832453    955.07018  0.038616779  0.038643068            4 
 2062000   0.91808679   -5.6855722    956.13279  0.038640995  0.038632698            4 
 2063000   0.92400673   -5.7010942     954.1074  0.038540451  0.038622422            7 
 2064000   0.93663065   -5.7022007    955.00377  0.038557969  0.038612107            3 
 2065000   0.92244948   -5.6931927    956.41394  0.038596204  0.038601879            4 
 2066000   0.89710801   -5.6874355    956.14396  0.038566633  0.038591706            2 
 2067000   0.91398696   -5.6415223    958.70002  0.038651025  0.038581576           13 
 2068000   0.92375291   -5.6860542    957.62599  0.038589055  0.038571469            2 
 2069000   0.92535662   -5.7020882    954.76128  0.038455022  0.038561282            5 
 2070000   0.92564034   -5.6835809    961.12169  0.038692499  0.038551202            2 
 2071000   0.93829092   -5.7332845    955.39331  0.038443317  0.038541019            7 
 2072000   0.93021185   -5.7171808    958.50598  0.038549951  0.038530884            3 
 2073000   0.91304735   -5.6628387    958.15973  0.038517436  0.038520664            8 
 2074000   0.93922744   -5.7007889    957.18555  0.038459721   0.03851034            5 
 2075000   0.91900988   -5.7062245    956.06941  0.038396362  0.038499935            4 
 2076000   0.90791049   -5.7142178    958.87611  0.038490531    0.0384897            3 
 2077000   0.90328342   -5.7080729     957.1815  0.038404008   0.03847932            5 
 2078000   0.91326351   -5.6744056     962.4095  0.038595184  0.038469233            3 
 2079000   0.91938624   -5.6914922    960.54056  0.038501706  0.038459213            2 
 2080000   0.93087975   -5.6821931    960.41842  0.038478302  0.038449222            2 
 2081000   0.90744852   -5.7497824    956.59932  0.038306877  0.038438941            4 
 2082000   0.92047324   -5.7253104    956.71842  0.038293245  0.038428557            2 
 2083000   0.92049904   -5.7215987    960.07799  0.038409265   0.03841845            2 
 2084000   0.93324905   -5.6832646    962.58287  0.038490998   0.03840828            4 
 2085000   0.92278439   -5.6935074    959.01168  0.038329804  0.038398059            3 
 2086000   0.92458316   -5.7259574    958.37831  0.038286126  0.038387797            5 
 2087000   0.90550549   -5.7347114    958.73861  0.038282168  0.038377636            6 
 2088000   0.92516678   -5.6968563    962.40439  0.038410137  0.038367349            4 
 2089000   0.92460897   -5.6978721    961.23852  0.038345242  0.038357248            6 
 2090000   0.92506658   -5.7063634    958.79165  0.038229332  0.038347114            5 
 2091000    0.8999701   -5.7015034    958.88439  0.038214745  0.038337043            3 
 2092000   0.90733642   -5.7250991    963.70929  0.038388675  0.038326939            6 
 2093000   0.91745713   -5.7333724    961.53718   0.03828385  0.038316676            8 
 2094000   0.90623872   -5.6843844    962.73863  0.038313381  0.038306611            7 
 2095000   0.91777648   -5.7095548    960.50286   0.03820616   0.03829649            8 
 2096000   0.91030916   -5.7265676    962.10441  0.038251607  0.038286223            7 
 2097000   0.90138635   -5.7058765    963.58917  0.038292369  0.038276003            8 
 2098000   0.92119374    -5.731315    962.12619  0.038216007  0.038265842            5 
 2099000   0.91274977   -5.7016087    965.38942  0.038327355  0.038255722            4 
 2100000   0.91970838   -5.7109075    963.35876  0.038228522   0.03824564            7 
 2101000   0.92441149   -5.6919025    965.86476  0.038309724  0.038235555            7 
 2102000   0.91091933   -5.7055404    960.80915   0.03809107   0.03822541            8 
 2103000   0.91496646   -5.6925286     966.1339  0.038283956  0.038215339           18 
 2104000    0.9208106   -5.7252865    964.93029  0.038218088  0.038205139            5 
 2105000   0.89839007   -5.6901084    966.29732  0.038254051     0.038195            4 
 2106000   0.93181196   -5.6973438    963.66689  0.038131802  0.038184764            3 
 2107000   0.92860466   -5.7015219    962.69868  0.038075411  0.038174482            5 
 2108000   0.91533591   -5.7161452    964.64455  0.038134272  0.038164323            5 
 2109000   0.93682261   -5.7145398    964.47747  0.038109589  0.038154248            3 
 2110000   0.91907908   -5.7042785    966.87415  0.038186183  0.038144068            5 
 2111000   0.91515614   -5.7026483    967.30591  0.038185138  0.038133878            4 
 2112000   0.90556027   -5.7179744    964.05316  0.038038714  0.038123579            4 
 2113000   0.91246899    -5.720392    965.96406  0.038096074    0.0381132           10 
 2114000   0.91654183   -5.7052557    966.14057  0.038085012   0.03810294            6 
 2115000   0.93187856   -5.7227967    964.90684  0.038018394  0.038092704           10 
 2116000   0.92002239   -5.7323136    963.25814  0.037935497  0.038082478            3 
 2117000   0.90343605   -5.7204172    967.50025  0.038084563  0.038072132            5 
 2118000    0.9130658   -5.7085237    965.01365  0.037968746  0.038061714            4 
 2119000   0.92059527   -5.7460668    961.58696  0.037816067  0.038051383            5 
 2120000    0.9087895   -5.7095028    968.10348  0.038054382  0.038040999            2 
 2121000   0.89901709    -5.749715    967.38004  0.038008017  0.038030717            5 
 2122000   0.92703518   -5.7193083    966.13561  0.037941235  0.038020457            3 
 2123000   0.94723733   -5.7209403    966.10197  0.037922043  0.038010155            4 
 2124000   0.90804438   -5.7249953    966.31292  0.037912465  0.037999831            2 
 2125000   0.90173494   -5.7451958    964.49748  0.037823431  0.037989512           11 
 2126000   0.91319231   -5.7226426    968.48816  0.037962063  0.037979193            7 
 2127000   0.90247777    -5.714887    968.06693  0.037927712  0.037968968            4 
 2128000    0.9255457   -5.6985972    971.12625  0.038029693   0.03795865            5 
 2129000   0.90245197   -5.7075805    965.92909  0.037808404  0.037948413           11 
 2130000   0.89411194   -5.7344316    968.15648  0.037877796  0.037938049           10 
 2131000   0.90198608    -5.736025    969.30071  0.037904767  0.037927707            4 
 2132000   0.91215737     -5.73883    967.11492  0.037801552  0.037917421            4 
 2133000   0.90935724      -5.7508    966.31538  0.037752593  0.037907093            5 
 2134000    0.9072386   -5.7469932    968.14209  0.037806236  0.037896703            6 
 2135000   0.90969719    -5.771095    963.86147  0.037621447  0.037886235            3 
 2136000    0.9168643   -5.7433792    969.57387  0.037826696  0.037875808            4 
 2137000    0.8963929   -5.7231226    968.69485  0.037774717  0.037865345            7 
 2138000   0.91882036   -5.7095134    968.58978  0.037752954  0.037854952            5 
 2139000   0.91251995   -5.7245881    971.55395  0.037850785   0.03784469            5 
 2140000   0.90557262   -5.7357158    968.72815  0.037723059  0.037834355            8 
 2141000   0.92695059   -5.7491657    971.96923  0.037831591  0.037824103            7 
 2142000   0.90404043   -5.7271523     972.3619  0.037829206  0.037813878            9 
 2143000   0.92444194   -5.7085347      972.272  0.037808057  0.037803721            4 
 2144000   0.91680745   -5.7376765    971.28416  0.037752027  0.037793462            6 
 2145000    0.9314549   -5.7265188    968.68368  0.037633399  0.037783177            4 
 2146000   0.91731757   -5.7053379    975.79018  0.037891821  0.037772903            5 
 2147000   0.90992252   -5.7226917    972.98232  0.037765189  0.037762795            3 
 2148000   0.90997446   -5.7354246    972.76793   0.03773929  0.037752563            4 
 2149000   0.89498731   -5.7490471    971.78972  0.037683796   0.03774207            5 
 2150000   0.90607205   -5.7645449    971.31612  0.037647912  0.037731646            7 
 2151000   0.89976527   -5.7393387    975.27627  0.037783832  0.037721252            5 
 2152000    0.9112315   -5.7355097    971.96113    0.0376379  0.037710979           11 
 2153000    0.9295429   -5.7174617    975.94857  0.037774755  0.037700737            5 
 2154000   0.90775142   -5.7488817    970.92192  0.037562748   0.03769042            4 
 2155000   0.90002892   -5.7492239    972.23372  0.037596045  0.037680024            3 
 2156000   0.91140511   -5.7207165    972.40479  0.037585219  0.037669604            7 
 2157000   0.91201334   -5.7211859    974.12659  0.037634314  0.037659277            4 
 2158000   0.89070155    -5.695255    974.86225  0.037645283  0.037648927            4 
 2159000   0.92436495   -5.7356768     973.4227  0.037572283  0.037638532            7 
 2160000    0.9174271   -5.7415451    973.46373  0.037556471  0.037628231            6 
 2161000    0.8953999   -5.7364021    975.48507   0.03761704  0.037617773            4 
 2162000   0.91827787    -5.739065    974.15905  0.037548529   0.03760739            6 
 2163000   0.91861352   -5.7461456    973.94539  0.037522939  0.037597041            4 
 2164000   0.89519179   -5.7258425     975.1752  0.037552957  0.037586673           10 
 2165000   0.89836659   -5.7227294    972.16959  0.037419923  0.037576331            4 
 2166000   0.89642524   -5.7049799    976.99109  0.037588146  0.037566026            2 
 2167000   0.89565203   -5.7387214    972.55215  0.037400098  0.037555582            6 
 2168000   0.91238058    -5.757075    974.36156  0.037452397  0.037545231            6 
 2169000   0.90754247   -5.7476492    975.01016  0.037460049  0.037534846            9 
 2170000   0.90073522   -5.7161538    976.86385  0.037513973  0.037524566           10 
 2171000   0.92910383   -5.7207982    978.51836  0.037560201  0.037514248            3 
 2172000   0.89065388   -5.7785724    975.54476   0.03742882  0.037503965            7 
 2173000   0.89250774   -5.7688731    973.07843  0.037317013  0.037493471            8 
 2174000    0.8977977   -5.7399857    977.56648  0.037471883  0.037483007            2 
 2175000   0.90998681   -5.7256462    974.38095  0.037332604  0.037472452            7 
 2176000   0.89414721   -5.7872658    973.26578   0.03727274  0.037461902            6 
 2177000   0.91311489   -5.7613079    975.85246  0.037354634  0.037451326            4 
 2178000   0.89071408   -5.7225726    974.20564  0.037274474  0.037440915           12 
 2179000   0.89589448   -5.7416305    977.65786  0.037389393  0.037430465            8 
 2180000   0.88039183    -5.746388    974.78055  0.037262253  0.037420005            4 
 2181000   0.90840001   -5.7325114    975.89448   0.03728773  0.037409519            6 
 2182000   0.89772407   -5.7246796    976.78102    0.0373045  0.037399029            4 
 2183000   0.91752431   -5.7114914     979.7755  0.037401722  0.037388555            2 
 2184000   0.90218909   -5.7841311    973.52437  0.037146076   0.03737802            4 
 2185000   0.88916269   -5.7578608    974.26123  0.037157179  0.037367401           10 
 2186000   0.91101963   -5.7696095    974.10821  0.037134348  0.037356699            3 
 2187000   0.90296564   -5.7344326    976.67856  0.037215309  0.037346047            3 
 2188000    0.9000382    -5.744036    976.67854  0.037198299  0.037335459            6 
 2189000   0.89012641   -5.7506435    975.04157  0.037118988  0.037324886            3 
 2190000    0.8940991   -5.7528027    978.97265  0.037251623  0.037314404            4 
 2191000   0.91469365   -5.7556097    975.92896  0.037118856  0.037303923            4 
 2192000   0.90122628   -5.7556608    976.44616  0.037121585  0.037293468            7 
 2193000   0.90459834   -5.7706432    979.07093  0.037204398  0.037283041            4 
 2194000    0.8934771   -5.7431183     978.3939  0.037161725  0.037272574            5 
 2195000   0.89498452   -5.7477302     976.8563   0.03708642  0.037262058            4 
 2196000   0.90345556   -5.7426181    977.46806  0.037092747  0.037251439            3 
 2197000   0.89226064    -5.760141    979.62579  0.037157707  0.037240896            3 
 2198000   0.90879734    -5.745896    977.65139  0.037065946  0.037230466            4 
 2199000   0.89883354   -5.7188443    979.94457  0.037135993  0.037219998            4 
 2200000     0.920425   -5.7108066    981.04825  0.037160919  0.037209442            4 
 2201000   0.90341824   -5.7205006    979.80921  0.037097123  0.037198988            9 
 2202000   0.89743665   -5.7495634    978.79902  0.037042046  0.037188425            3 
 2203000   0.90787084   -5.7568315    980.66592  0.037095851  0.037177764            4 
 2204000   0.89375993   -5.7485398     976.8421  0.036934441   0.03716711            5 
 2205000   0.90779885    -5.739862    981.52178  0.037094549  0.037156613            4 
 2206000    0.8998807   -5.7346406    979.89375  0.037016234  0.037146085            6 
 2207000   0.88562682   -5.7373788    982.13976  0.037084268  0.037135498            4 
 2208000   0.89572874   -5.7438731    981.44158  0.037041123  0.037124964           10 
 2209000   0.90410142   -5.7329958    980.48738  0.036988358  0.037114339            5 
 2210000   0.89229978   -5.7784268    976.78352  0.036831958  0.037103727            9 
 2211000   0.89935304   -5.7549276     980.1767  0.036943189  0.037093058            6 
 2212000   0.87912818   -5.7511917     983.3858  0.037047385  0.037082474            4 
 2213000   0.88481973   -5.7767222    979.62751  0.036889121  0.037071975            3 
 2214000   0.89990445   -5.7890422    980.25348  0.036896021  0.037061524            7 
 2215000   0.89510298   -5.7251317     983.0947  0.036986256  0.037051038            4 
 2216000   0.88558959   -5.7428609    982.35179  0.036941629  0.037040434            3 
 2217000   0.89552946   -5.7535639    984.42741  0.037002985  0.037029923           10 
 2218000   0.90440432   -5.7562398    983.84398  0.036964382  0.037019397            7 
 2219000   0.89705469   -5.7648178    980.30941  0.036814985  0.037008964            5 
 2220000   0.89795354   -5.7198522    982.63159   0.03688557  0.036998456            5 
 2221000   0.93371292    -5.750348    983.97021  0.036919188  0.036988062            6 
 2222000   0.87738342   -5.7551661    981.95875  0.036827136  0.036977633            5 
 2223000   0.90372588   -5.7808494    983.05066  0.036851502  0.036967131            6 
 2224000   0.88723655   -5.7428649    988.15219  0.037026086  0.036956623            4 
 2225000   0.89321515   -5.7027217    985.05482  0.036893439  0.036946166            8 
 2226000   0.89445673   -5.7410341    984.89866  0.036871019  0.036935734            4 
 2227000   0.89764181    -5.760609    983.62644  0.036806857  0.036925275            5 
 2228000   0.91859039   -5.7265425    986.32435  0.036891246  0.036914824            4 
 2229000   0.87568802   -5.7726901    983.28985  0.036761248  0.036904236            7 
 2230000   0.88920315   -5.7217967    986.02345  0.036846915  0.036893631           14 
 2231000   0.88168598   -5.7458072    985.26538  0.036802084  0.036883161            7 
 2232000   0.88740034   -5.7669814    984.36477   0.03675197  0.036872714            4 
 2233000   0.90010889   -5.7759168    982.79506  0.036676932  0.036862244            3 
 2234000   0.89673961   -5.7521201    983.79046  0.036697645  0.036851868            5 
 2235000   0.89200372   -5.7706533    984.07722  0.036691917  0.036841338           10 
 2236000   0.89294988   -5.7364592    986.82884  0.036778058  0.036830863            7 
 2237000   0.88223377   -5.7689919    984.71999  0.036683057  0.036820471            4 
 2238000   0.89183777   -5.7691289    984.51259  0.036658944  0.036809975            8 
 2239000    0.8998931   -5.7475129    985.58927  0.036682644  0.036799485            6 
 2240000   0.89324773    -5.756502    985.48078  0.036662231  0.036789025            5 
 2241000   0.88442336   -5.7433235    986.31352  0.036676838   0.03677859            4 
 2242000     0.888443   -5.7546084    985.85053   0.03664327  0.036768013            5 
 2243000   0.89338749   -5.7771338    986.26674  0.036642396  0.036757458            6 
 2244000   0.88836741    -5.775397    987.06766   0.03665581  0.036746818            8 
 2245000   0.87479341   -5.7342332    989.76417  0.036739576  0.036736339            7 
 2246000   0.89427616   -5.7362288    991.75542  0.036797099   0.03672593            4 
 2247000   0.89717923   -5.7674617    986.72439   0.03659414  0.036715513            6 
 2248000   0.87625996   -5.7574512     988.9929  0.036661955  0.036705077            7 
 2249000   0.89655868    -5.768284    987.60862  0.036594361  0.036694636            3 
 2250000   0.91193579   -5.7213212    991.84797   0.03673511  0.036684476            7 
 2251000    0.9176532    -5.774548    989.06479  0.036615755  0.036674178           10 
 2252000   0.88064708   -5.7928572    989.21825  0.036605175  0.036663847            4 
 2253000   0.88499215   -5.7872635    985.79401  0.036462273  0.036653398            4 
 2254000   0.90145642   -5.7565338    987.48576  0.036508643  0.036642981            4 
 2255000   0.87717912   -5.7382476    992.90257   0.03669263  0.036632576            6 
 2256000   0.89116446   -5.7866155    987.39434    0.0364729   0.03662219            5 
 2257000   0.89583577   -5.7489446    991.19738  0.036597156  0.036611825            7 
 2258000   0.90436324    -5.775702    993.58354  0.036669012   0.03660143           10 
 2259000   0.88028618   -5.7857957     993.4407   0.03664751  0.036591057            7 
 2260000   0.88758058   -5.7522532     991.0264  0.036542272  0.036580654            3 
 2261000   0.88573455   -5.7605247    991.58988  0.036546878  0.036570217            3 
 2262000   0.89108873   -5.7682057    989.44097  0.036451554  0.036559852            5 
 2263000    0.8937448   -5.7813254    989.75289  0.036446932  0.036549296            4 
 2264000   0.88899007   -5.7703936    988.18647  0.036373177  0.036538868            2 
 2265000   0.88052548   -5.7818909    991.82957  0.036491154  0.036528437            7 
 2266000   0.86096485   -5.7849343    988.55995  0.036354808  0.036517894            9 
 2267000   0.89085703    -5.778836    988.01755  0.036318834  0.036507382            3 
 2268000   0.87927471   -5.7719503    990.42956  0.036391445  0.036496933            5 
 2269000   0.89900519   -5.7700221    991.47914  0.036413954  0.036486516            3 
 2270000   0.89064818   -5.7749098    988.05216  0.036272106  0.036476115            4 
 2271000   0.87141229   -5.7587207      995.214  0.036518934  0.036465676            6 
 2272000    0.8799329   -5.7737947    992.45293  0.036401589  0.036455303            5 
 2273000   0.90421732   -5.7755387    991.35655  0.036345379  0.036444881            8 
 2274000   0.89874476   -5.7669484    992.45197  0.036369539  0.036434519           10 
 2275000   0.88123498   -5.7786397    998.81066  0.036586471   0.03642421            5 
 2276000   0.88336378   -5.7885213    992.81209  0.036350765  0.036413995            6 
 2277000   0.88970119   -5.7904775    991.37327  0.036282143  0.036403709            4 
 2278000   0.88668338   -5.7834106    992.22331  0.036297312  0.036393503            7 
 2279000   0.87692515   -5.7478442    1001.1185  0.036606644  0.036383291            4 
 2280000   0.89999859    -5.737978    998.93847  0.036510909  0.036373241            4 
 2281000   0.88904193   -5.7478025    997.73139  0.036450803  0.036363137            7 
 2282000   0.90515646   -5.7743788    994.76234  0.036326407  0.036352976            7 
 2283000   0.87973055   -5.7993076    994.53166  0.036302075  0.036342755            3 
 2284000   0.88041901   -5.7551508    997.27325   0.03638621  0.036332513            4 
 2285000   0.86500488   -5.7883223    994.80907  0.036280418  0.036322298            5 
 2286000    0.8738279   -5.7642084    998.83172  0.036411188   0.03631206            7 
 2287000   0.89852015   -5.7733671    994.49726  0.036237329  0.036301906            5 
 2288000   0.84738854   -5.7662066    997.92067  0.036346178  0.036291686            7 
 2289000   0.89372338   -5.7714292    995.38987  0.036238163  0.036281479            9 
 2290000   0.86279111   -5.8007798    996.05701  0.036246616  0.036271223            5 
 2291000   0.90670501    -5.783935      997.029   0.03626615  0.036261036            5 
 2292000   0.89370741   -5.7821037    999.85993  0.036353255  0.036250805            9 
 2293000   0.89557137   -5.7634976    998.74353  0.036296828  0.036240654            7 
 2294000   0.87491919   -5.8004128    995.64838  0.036168569  0.036230493            4 
 2295000   0.89689532   -5.7770527    998.35683  0.036251156  0.036220323            4 
 2296000   0.88293425   -5.7896398    999.21548  0.036266532  0.036210182            4 
 2297000   0.90021139   -5.8069757    998.56649  0.036227198  0.036200045           12 
 2298000   0.86282303   -5.7969659    997.27424  0.036164572  0.036189827            5 
 2299000   0.88323343    -5.782593    997.03694   0.03614024  0.036179634            5 
 2300000   0.89286379   -5.7716341     999.4139  0.036210648  0.036169401            3 
 2301000   0.89616597   -5.8093729    998.19045  0.036150603  0.036159318           10 
 2302000   0.89177835   -5.7778707    998.98653  0.036163718  0.036149074            3 
 2303000   0.87754268   -5.7751725    999.96382  0.036183378   0.03613888            3 
 2304000    0.8928887   -5.7789269    1002.1337  0.036246157  0.036128744            5 
 2305000   0.88463067   -5.7685302     1000.012  0.036153725  0.036118759            7 
 2306000   0.89245865    -5.808804    998.32149  0.036076955  0.036108685            5 
 2307000   0.87830824   -5.8039477    999.85582  0.036116739  0.036098576            5 
 2308000   0.88199671   -5.7481016    1002.1636  0.036184418  0.036088534            7 
 2309000   0.88725834   -5.8223213    1000.9426   0.03612468  0.036078345            4 
 2310000   0.87988514   -5.7835191    1003.9804  0.036218629  0.036068228            5 
 2311000    0.8861547   -5.7775624    1002.5666  0.036151977  0.036058321            4 
 2312000   0.88734577   -5.7872468    1003.1992   0.03615914  0.036048354            5 
 2313000   0.86755868   -5.7607973    1001.3453  0.036076714  0.036038288            6 
 2314000   0.88815347    -5.795601    1000.7573  0.036039948  0.036028305            3 
 2315000   0.88303089   -5.8039818    1001.0145  0.036033638  0.036018272            6 
 2316000   0.86844127   -5.7865425    1003.2257  0.036097642  0.036008159            7 
 2317000   0.87964137   -5.8225968    1001.9616  0.036036599  0.035998042            4 
 2318000   0.87122793   -5.7915375    1000.6508  0.035973927  0.035987842            6 
 2319000   0.87408043   -5.7964288    1002.5343  0.036026099    0.0359777            6 
 2320000   0.89428168   -5.7835388    1001.7275  0.035981591  0.035967576            8 
 2321000    0.8872003   -5.8110955    1002.8017  0.036004656  0.035957411            3 
 2322000   0.89215228   -5.7992884    1001.6036  0.035946153  0.035947164            3 
 2323000   0.87809674   -5.7797538    1003.4825  0.035998082  0.035936892            9 
 2324000   0.87700195   -5.8001106    1004.7455  0.036027879  0.035926701           12 
 2325000   0.86834828    -5.819196    1000.6492  0.035865562   0.03591635            3 
 2326000   0.89287501   -5.7994951    1000.8224  0.035856349  0.035906097            5 
 2327000   0.86648705   -5.7953083    1001.2028  0.035854563  0.035895791            6 
 2328000   0.88577331   -5.7920818    1002.3433  0.035879986   0.03588553            7 
 2329000   0.85315259   -5.8005601    1001.1312  0.035821212  0.035875308            8 
 2330000   0.87193671    -5.801759    1004.5019  0.035926391  0.035865119            4 
 2331000   0.89682977   -5.7832148    1006.9399  0.035998136  0.035854952            3 
 2332000   0.88943743   -5.7376858    1003.7339  0.035868135  0.035844852            8 
 2333000   0.88275221   -5.7891049    1006.9788  0.035968667  0.035834743            7 
 2334000   0.86953713   -5.8016996    1005.9246  0.035915616  0.035824626            6 
 2335000   0.87507392   -5.7896978    1004.5724  0.035851978  0.035814405            9 
 2336000   0.87193073    -5.773308    1004.4887  0.035833645  0.035804264            4 
 2337000   0.88565833   -5.7855871    1005.0681  0.035838971  0.035794152            5 
 2338000   0.88353005   -5.7935327    1004.2407   0.03579415  0.035784044            3 
 2339000   0.88112878   -5.8206319    1004.1941  0.035777186  0.035773906            4 
 2340000   0.88758862   -5.8221685    1006.0227  0.035827019  0.035763845            5 
 2341000   0.87670761   -5.8021197    1008.3551  0.035894741   0.03575377            6 
 2342000    0.8953983   -5.7997519    1004.5487  0.035743975  0.035743705            4 
 2343000   0.86828741   -5.8128895     1004.701  0.035734139  0.035733616            4 
 2344000   0.86227316    -5.825069    1004.8967  0.035725851  0.035723517            7 
 2345000   0.84770383   -5.7982976    1008.1332  0.035825629  0.035713548            3 
 2346000   0.88818269   -5.7945293    1005.1405  0.035704053  0.035703468            4 
 2347000   0.87619672   -5.8047685    1006.7091  0.035744535  0.035693424            4 
 2348000   0.88155596   -5.8076074    1006.3014  0.035714841  0.035683523            6 
 2349000   0.87806814   -5.8156582    1006.9297  0.035721927  0.035673609            6 
 2350000   0.87902993   -5.8558411    1008.8633  0.035775295  0.035663471            7 
 2351000   0.88073921   -5.8099435    1005.7086  0.035648255  0.035653488            8 
 2352000   0.87833844   -5.8164604    1010.2127  0.035792684   0.03564356            3 
 2353000   0.86826062   -5.7845654    1010.0789  0.035772733  0.035633613            5 
 2354000   0.85787976   -5.8161228      1008.07  0.035686421   0.03562371            7 
 2355000   0.87119957   -5.7996854    1012.3653  0.035823259  0.035613743            4 
 2356000   0.84772053   -5.7888878    1009.8088  0.035717629   0.03560382            4 
 2357000   0.87268776   -5.8092041    1012.1422  0.035784974  0.035593896            7 
 2358000   0.85670455   -5.7575341    1016.3929  0.035920022  0.035584108            6 
 2359000   0.87962384    -5.829648    1007.4673  0.035589491  0.035574111            5 
 2360000    0.8735881   -5.7794362    1010.8745  0.035694723  0.035564153            2 
 2361000   0.88425074   -5.8033033    1011.4549  0.035700087  0.035554244            5 
 2362000   0.91030134   -5.7938198    1012.7904  0.035732092  0.035544343           12 
 2363000   0.87165356   -5.7883396    1009.9449   0.03561662  0.035534396            5 
 2364000   0.87282265   -5.8277399    1009.1522   0.03557361  0.035524514            4 
 2365000   0.88664281   -5.8356646    1011.3514  0.035636062  0.035514641            5 
 2366000    0.8601077   -5.8296675    1009.2457  0.035546834  0.035504746            5 
 2367000   0.86250164    -5.812023    1013.9004  0.035695692  0.035494932            6 
 2368000   0.88115363   -5.7808174    1014.2844  0.035694131  0.035485101            5 
 2369000   0.87370671   -5.8062431    1014.2023  0.035676176  0.035475324            4 
 2370000   0.87625369   -5.8182872    1012.4246  0.035598614  0.035465498            7 
 2371000   0.88383791   -5.7871039    1014.4464  0.035654661  0.035455661            7 
 2372000   0.89088583    -5.793107    1013.0814  0.035591673  0.035445888            3 
 2373000    0.8762524   -5.8431422    1010.7626  0.035495245  0.035436138            3 
 2374000   0.89773036   -5.7799111    1011.2618  0.035497816  0.035426285            5 
 2375000   0.88603859   -5.8044808     1012.354  0.035521193  0.035416524            5 
 2376000   0.87924962   -5.7754932    1017.6065  0.035690464  0.035406782            6 
 2377000   0.86800216   -5.7887354    1017.5049  0.035671887  0.035397081            3 
 2378000    0.8817377   -5.8400622    1013.8334  0.035528223  0.035387307            3 
 2379000   0.86550656   -5.8388087     1012.747  0.035475234  0.035377526            8 
 2380000    0.8635723   -5.8090543     1015.332  0.035550842   0.03536776            9 
 2381000   0.87779923   -5.8168417    1013.7815  0.035481642  0.035357991            4 
 2382000   0.87436261    -5.818557    1016.0766   0.03554704  0.035348207           11 
 2383000   0.87251949   -5.7883117    1016.3738  0.035542515  0.035338382           11 
 2384000   0.86867869   -5.7925241    1014.2971  0.035455015  0.035328664            3 
 2385000   0.88795126   -5.8275611    1014.6455  0.035452324  0.035318776            4 
 2386000     0.875913   -5.8454086    1015.7838  0.035477221  0.035309044            4 
 2387000   0.88497614   -5.8251224    1015.6046  0.035456104  0.035299118            3 
 2388000   0.85819083   -5.8470401    1013.0592  0.035352427  0.035289243            4 
 2389000   0.88752744   -5.8298437    1015.4091  0.035419599  0.035279385           12 
 2390000   0.86466437   -5.8247021    1014.3084  0.035366402  0.035269578            6 
 2391000    0.8835699   -5.8278008    1017.4451  0.035460932  0.035259728            4 
 2392000   0.86965397   -5.7910905    1020.0158  0.035535667  0.035249993            7 
 2393000   0.87911939   -5.8236705    1015.0194  0.035346824  0.035240253            3 
 2394000   0.86774638   -5.8203607    1015.1477  0.035336524  0.035230503            9 
 2395000   0.85761128   -5.8469342    1014.8136  0.035310147  0.035220693            4 
 2396000   0.86543877   -5.7989044    1018.2918  0.035416383  0.035210815            4 
 2397000    0.8458701   -5.8410761    1014.9579    0.0352857  0.035201106            7 
 2398000   0.88096297   -5.7911329    1017.7683  0.035368652  0.035191414            4 
 2399000   0.88039139   -5.8093327    1019.3921  0.035410313  0.035181657            6 
 2400000   0.86714389   -5.8364594     1014.975  0.035242188  0.035171891            7 
 2401000   0.85935657   -5.8259876    1020.7535  0.035428067  0.035162066            6 
 2402000   0.86141691   -5.8091001    1019.7006  0.035376789  0.035152349            7 
 2403000   0.87798106   -5.8339223    1017.3049  0.035278987  0.035142643            5 
 2404000   0.86443656    -5.816191    1016.9713   0.03525275  0.035133004            5 
 2405000   0.86108258    -5.815934    1021.8303  0.035406457  0.035123351           13 
 2406000   0.88963958   -5.8120716    1019.1453  0.035298743   0.03511371            9 
 2407000   0.85948848   -5.8372895    1016.5512  0.035194267  0.035103922            3 
 2408000   0.86759034   -5.7955368    1020.5611   0.03531842  0.035094215            9 
 2409000   0.86997467   -5.8097709    1021.8201  0.035347314  0.035084519            3 
 2410000   0.84322641    -5.814602    1020.1572  0.035275144  0.035074853            6 
 2411000   0.87905803   -5.8042513    1022.5524    0.0353433  0.035065212            5 
 2412000   0.87411098   -5.8390603    1019.5745  0.035225762  0.035055455            7 
 2413000   0.86735911   -5.8229316    1022.5787  0.035314915   0.03504581            3 
 2414000   0.86277823   -5.8321742    1022.0806  0.035283092  0.035036085            5 
 2415000   0.88241342   -5.7925092    1022.1605  0.035271238  0.035026387            4 
 2416000    0.8684695   -5.8724399     1017.314  0.035089473  0.035016621            5 
 2417000    0.8653895   -5.8428895     1021.715  0.035226693  0.035006796            5 
 2418000   0.86176482    -5.794163    1025.3512  0.035337443  0.034997063            6 
 2419000    0.8683688   -5.8520858    1018.2611  0.035078584  0.034987477            6 
 2420000   0.87439665    -5.848651    1020.3347  0.035135494  0.034977667           10 
 2421000   0.86094543   -5.8169105    1023.1635  0.035218349  0.034968012            6 
 2422000   0.87431404   -5.8572992    1023.1611  0.035203728  0.034958271            6 
 2423000   0.87363546   -5.7975391    1024.1061  0.035221698  0.034948562            8 
 2424000   0.85954084     -5.82632    1021.2769  0.035109906  0.034938867            5 
 2425000   0.85251131   -5.8525383    1022.1781  0.035126396  0.034929159            5 
 2426000   0.85226547   -5.8350775    1023.6894  0.035163829   0.03491948            6 
 2427000   0.85390734   -5.8565586    1020.8104  0.035050489   0.03490981            4 
 2428000   0.87478079   -5.8362048    1023.5172  0.035128955  0.034900182            4 
 2429000   0.85271459   -5.8369924    1021.8925  0.035058751  0.034890578           11 
 2430000   0.87648385    -5.833106    1022.9147   0.03507938  0.034880969            4 
 2431000   0.86592218   -5.8480658    1024.6694    0.0351251  0.034871414            5 
 2432000   0.87695381   -5.8432782    1026.4053  0.035170136  0.034861849            6 
 2433000   0.85739388   -5.8190381    1023.1677   0.03504479  0.034852429            6 
 2434000   0.82589397   -5.8441019     1025.187  0.035099529  0.034842927            7 
 2435000   0.85452432   -5.8563258    1021.0239  0.034942638  0.034833335            4 
 2436000   0.84735851   -5.8315376    1025.9836  0.035097962    0.0348238            5 
 2437000    0.8555306    -5.812267    1025.8616  0.035079389  0.034814196            7 
 2438000   0.87966855   -5.8224612    1026.3937  0.035083185  0.034804684            4 
 2439000     0.865372   -5.8483213    1028.6012  0.035144225  0.034795228            4 
 2440000   0.87164272   -5.8372549    1028.6575  0.035131745  0.034785637            6 
 2441000   0.85407322   -5.8216692    1024.1843  0.034964643   0.03477615            4 
 2442000   0.84426606   -5.8299065    1029.4435  0.035129795  0.034766668            6 
 2443000   0.87096894   -5.8208359    1028.7176  0.035090654  0.034757129            3 
 2444000   0.85390477   -5.8435459    1028.3176  0.035062656  0.034747669            6 
 2445000   0.85694827   -5.8433267    1028.4491  0.035052799   0.03473817            4 
 2446000   0.86761601   -5.8256343    1029.3909  0.035070554  0.034728683            6 
 2447000   0.85268531   -5.8285601    1027.9737  0.035007958  0.034719273            5 
 2448000   0.86385925   -5.8779347    1026.4506  0.034941808  0.034709865           11 
 2449000   0.87509376    -5.843131    1026.3476  0.034924038  0.034700263            5 
 2450000   0.88243646   -5.8562603    1028.7316  0.034990872  0.034690732            5 
 2451000   0.88155599   -5.8209562    1026.2411  0.034891918   0.03468125            7 
 2452000   0.87023375   -5.8374629    1029.1512  0.034976589   0.03467187            4 
 2453000   0.86138547   -5.8519687    1028.9557  0.034955691   0.03466235           11 
 2454000   0.86273523    -5.798852    1031.8569  0.035039967  0.034652884            6 
 2455000   0.86980271   -5.8346233    1031.9108  0.035027521  0.034643475            4 
 2456000   0.87835638   -5.8244266    1031.0594  0.034984372  0.034634021            8 
 2457000   0.86207024    -5.832832    1028.6101  0.034887062  0.034624643            6 
 2458000   0.84494074   -5.8330683    1029.3139  0.034896728  0.034615144            4 
 2459000   0.87537207    -5.847569    1030.9536  0.034938106  0.034605595            5 
 2460000   0.84996297   -5.8448467    1030.0113  0.034891981  0.034596107           11 
 2461000   0.85749281     -5.86307    1029.6631  0.034866012   0.03458667            6 
 2462000   0.87111444   -5.8870207    1028.6328  0.034816979  0.034577214            7 
 2463000   0.87224985   -5.8372666    1032.1313  0.034921212  0.034567824           12 
 2464000    0.8640155   -5.8641195     1027.877  0.034763155  0.034558341            6 
 2465000    0.8613188   -5.8232468    1032.2173  0.034895785  0.034548943            5 
 2466000   0.84937477   -5.8590862    1030.1898  0.034813119  0.034539416           10 
 2467000   0.86142688   -5.8319804    1029.5376  0.034776978  0.034529897            5 
 2468000   0.86860283   -5.8535339    1031.4665  0.034828014  0.034520415            2 
 2469000   0.85459496   -5.8456782    1031.5315  0.034816103  0.034511001           10 
 2470000   0.86216327    -5.883261    1029.7713  0.034742622   0.03450154            8 
 2471000     0.854849   -5.8560127    1033.0559  0.034839333  0.034492074            6 
 2472000   0.87215958   -5.8619759     1034.084  0.034859896  0.034482633            7 
 2473000   0.82721287   -5.8517975    1030.0081  0.034708455  0.034473213            2 
 2474000   0.86180201   -5.8381654    1035.1413  0.034867332  0.034463764           11 
 2475000   0.85051307   -5.8543721    1032.5877  0.034767262    0.0344544            8 
 2476000   0.86337453    -5.847428    1033.5397  0.034785262  0.034444958           13 
 2477000   0.87806176    -5.855496    1028.2823  0.034594344  0.034435461           10 
 2478000   0.85109973   -5.8293606    1035.3138  0.034816849  0.034426021            4 
 2479000   0.85547906   -5.8667677    1037.8068  0.034886606  0.034416595            7 
 2480000   0.84995412   -5.8278839    1032.8918  0.034707386  0.034407165            5 
 2481000   0.85720656   -5.8632435    1034.2028   0.03473743  0.034397906            7 
 2482000   0.84420088   -5.8255877    1036.3154  0.034794365  0.034388554            6 
 2483000   0.85630367   -5.8352568    1035.7835  0.034762502  0.034379243            4 
 2484000    0.8567523   -5.8716578    1033.4744  0.034671043  0.034369802            4 
 2485000   0.84770797   -5.8643955    1035.4594  0.034723656  0.034360401            8 
 2486000   0.88064299    -5.849362    1035.1995  0.034700975  0.034351002            5 
 2487000   0.84922519   -5.8304592    1035.7643  0.034705948  0.034341642            4 
 2488000   0.85124056   -5.8601002    1032.9992  0.034599382  0.034332336            5 
 2489000   0.86482697   -5.8417164    1034.6566  0.034640975  0.034322929           13 
 2490000   0.85256734   -5.8367621    1034.5367  0.034623048  0.034313586            2 
 2491000   0.86763926    -5.832273    1034.7205  0.034615298  0.034304194            5 
 2492000    0.8464619   -5.8401002    1035.3044  0.034620933  0.034294838            4 
 2493000   0.86122717   -5.8769074    1035.0262  0.034597747  0.034285399            4 
 2494000   0.85345591   -5.8813809    1034.0862  0.034552466  0.034275965           11 
 2495000   0.85591345   -5.8610432    1036.0765  0.034605093  0.034266539            9 
 2496000   0.84364339   -5.8558781    1036.5391  0.034606675  0.034257071            6 
 2497000   0.85251381   -5.8267925    1035.0083  0.034541727  0.034247694            8 
 2498000   0.84075671   -5.9067181    1034.5943  0.034514087  0.034238148            3 
 2499000   0.83435035   -5.8683735    1036.7501  0.034572165  0.034228685            6 
 2500000   0.85764993   -5.8430138    1035.6131  0.034520436  0.034219175            7 
 2501000   0.83391003   -5.8840078    1039.7576  0.034644727  0.034209806            6 
 2502000   0.84743011   -5.8659476    1037.3831  0.034551794  0.034200349            8 
 2503000   0.86407142   -5.8656222    1036.8638  0.034520701  0.034190988           17 
 2504000   0.85753531   -5.8876366    1033.6094  0.034398608  0.034181578            9 
 2505000   0.88003791   -5.8867595    1037.4413  0.034512354   0.03417215            6 
 2506000   0.86254188   -5.8594848    1037.5158  0.034501058  0.034162898            6 
 2507000   0.83229535   -5.8347879    1037.9268  0.034500957  0.034153583            9 
 2508000   0.86108702   -5.8625596    1038.2967  0.034499492  0.034144305           13 
 2509000   0.83530175   -5.8812025    1038.6548  0.034497635  0.034134997            4 
 2510000   0.87344528   -5.8423153    1037.0681  0.034431211  0.034125725            8 
 2511000   0.85825745   -5.8772888    1036.2289  0.034389648  0.034116469            4 
 2512000   0.85612128   -5.8949678    1037.3417  0.034412873  0.034107006            4 
 2513000   0.84274045   -5.8681448    1037.1867  0.034394042  0.034097571            7 
 2514000   0.84705541   -5.8560342    1038.8676  0.034436078  0.034088192            4 
 2515000   0.85557334    -5.881751      1036.42  0.034341287  0.034078677            4 
 2516000   0.85614367   -5.8631321    1038.4605   0.03439522  0.034069313            8 
 2517000   0.85278501   -5.8379156    1039.7856  0.034425426  0.034059985            5 
 2518000   0.84340829   -5.8682897    1039.1713  0.034391424  0.034050561            5 
 2519000   0.86136403   -5.8962378     1036.572  0.034291781  0.034041096            5 
 2520000   0.85569464   -5.9077916    1036.1692  0.034264856  0.034031605            5 
 2521000    0.8457778   -5.8823653    1037.4717  0.034294318  0.034022088            5 
 2522000   0.83647144   -5.8667995    1036.5138  0.034249067  0.034012556            5 
 2523000   0.84694872   -5.8595586    1039.9718   0.03434971  0.034003047            8 
 2524000   0.83526644   -5.8586596    1039.8394  0.034331728  0.033993609            6 
 2525000   0.83943293    -5.897371     1038.331   0.03426835  0.033984157            5 
 2526000   0.83871602   -5.8758149    1038.6893  0.034266602  0.033974729            8 
 2527000     0.842748   -5.8617425    1039.0204  0.034263964  0.033965315            7 
 2528000   0.84213808   -5.8395476    1042.3194  0.034359157  0.033955969            7 
 2529000   0.85677691   -5.8335395    1042.8661  0.034363584  0.033946556           13 
 2530000   0.84401336   -5.8427488    1042.2927  0.034331116  0.033937241            7 
 2531000   0.86362402   -5.8556941    1043.3289  0.034351668  0.033927863            4 
 2532000    0.8451686    -5.860405    1040.7629  0.034253649  0.033918527            4 
 2533000   0.82920892   -5.8847735    1041.0547  0.034249728  0.033909157            7 
 2534000   0.83522256   -5.9274526    1038.4995   0.03415218  0.033899706            6 
 2535000   0.84806752   -5.8302533    1044.9322  0.034350172  0.033890372           13 
 2536000   0.84773973   -5.8763258    1040.3682  0.034186653  0.033881116            7 
 2537000   0.83946153   -5.8527365    1041.4596  0.034209025  0.033871761           15 
 2538000   0.85249888   -5.8867193    1040.6259  0.034168172  0.033862395           10 
 2539000   0.83924702   -5.8673001    1040.0365  0.034135371  0.033853116           11 
 2540000   0.85678782   -5.8549342    1041.6832  0.034175957  0.033843785            6 
 2541000   0.84100097    -5.880197    1041.3589  0.034151874  0.033834541            6 
 2542000    0.8475818    -5.865882    1042.0723  0.034161823  0.033825224            7 
 2543000   0.83680651    -5.869653    1040.5706  0.034099182  0.033815809            7 
 2544000   0.86693136   -5.8902488    1042.8834  0.034161538  0.033806419            5 
 2545000   0.84871971   -5.8573574    1040.9143  0.034083638  0.033797065            3 
 2546000   0.85758482   -5.8684679    1043.9231  0.034168731  0.033787682            4 
 2547000   0.85710787   -5.8861279    1041.7993  0.034085831   0.03377825            8 
 2548000   0.84492163   -5.8913711     1040.827  0.034040652  0.033768784           12 
 2549000   0.86076177   -5.8835979    1042.1857  0.034071719   0.03375934            4 
 2550000   0.85461579   -5.8789409     1042.134  0.034056667  0.033749937            3 
 2551000   0.83899735   -5.9051668    1043.2476  0.034079695   0.03374057            6 
 2552000   0.84188901   -5.8705402    1043.1856  0.034064315  0.033731171            5 
 2553000   0.85830117   -5.8983861     1043.354   0.03405647  0.033721896            7 
 2554000   0.84219141     -5.87968    1042.9671  0.034030509  0.033712518            8 
 2555000   0.83780699   -5.9097986    1044.4482    0.0340655  0.033703142            5 
 2556000   0.84567298    -5.916494    1041.9634  0.033971158   0.03369377            7 
 2557000   0.84087734   -5.9051084    1046.4225  0.034103197  0.033684345            8 
 2558000   0.87083405   -5.8845277    1044.3346  0.034021845  0.033675022            9 
 2559000   0.83919796   -5.8513519    1045.6966  0.034052903  0.033665721            7 
 2560000   0.84484596   -5.8686754    1043.1508  0.033956731  0.033656375            4 
 2561000   0.84809349   -5.8689118    1043.5955  0.033957942   0.03364708            7 
 2562000   0.84271722   -5.8939268    1044.0497  0.033959462  0.033637729            5 
 2563000   0.84186222   -5.9029575    1043.5926   0.03393135   0.03362837            7 
 2564000   0.83990986    -5.892045    1047.7924  0.034054615  0.033619061            3 
 2565000   0.82991223   -5.8998251    1044.9157  0.033947877  0.033609766            4 
 2566000   0.85061073    -5.864494    1043.8195  0.033899047   0.03360042            3 
 2567000   0.85367074   -5.9058176    1043.4438  0.033873648  0.033591134            2 
 2568000   0.87160836   -5.9015701    1043.5185   0.03386288  0.033581794           12 
 2569000    0.8554842    -5.875994     1047.383  0.033975055  0.033572443            7 
 2570000   0.82355455   -5.9106371    1046.8872  0.033945757   0.03356309            4 
 2571000   0.84872749   -5.9316416    1043.4665   0.03382168  0.033553679            6 
 2572000   0.85599687   -5.8786719    1044.5498  0.033843629  0.033544327            6 
 2573000   0.83423122   -5.8850373    1047.7958  0.033935606   0.03353498            6 
 2574000     0.822097   -5.9143165     1046.838  0.033891415  0.033525575            7 
 2575000   0.84283557   -5.8672398    1046.7926  0.033876783   0.03351624            6 
 2576000   0.83344087   -5.8992883     1046.441  0.033852258  0.033506883           13 
 2577000   0.84748201   -5.8834889    1051.0397  0.033987832  0.033497576           13 
 2578000   0.84205992   -5.8843756    1050.9987  0.033973322    0.0334883            4 
 2579000   0.84004507   -5.8645925    1048.3125  0.033873351  0.033479078            9 
 2580000   0.85383213    -5.893361    1048.6647    0.0338716  0.033469858            6 
 2581000   0.85791039   -5.9071893    1048.1954  0.033843324  0.033460633            6 
 2582000   0.84134261   -5.8742051    1047.4561  0.033806354  0.033451352            8 
 2583000   0.85208865   -5.8909746    1049.6932   0.03386544  0.033442074            7 
 2584000   0.83296559   -5.8968175    1049.6019  0.033849392  0.033432775            6 
 2585000   0.82516048   -5.8882861     1051.688  0.033903546  0.033423479            7 
 2586000    0.8244519   -5.8951402    1044.3769  0.033654838  0.033414206            5 
 2587000   0.82326757   -5.9103563    1048.3855  0.033770954   0.03340492            6 
 2588000   0.85020242   -5.8907514     1049.298  0.033787287  0.033395633            4 
 2589000    0.8497952   -5.9047825     1046.563  0.033686204  0.033386358            7 
 2590000    0.8338723   -5.9179278    1049.1152  0.033755317  0.033376987            8 
 2591000   0.84179008   -5.8714687    1051.2719  0.033811651  0.033367697           14 
 2592000    0.8395265   -5.9188619    1048.3013  0.033703103  0.033358493            5 
 2593000   0.82788946   -5.8987425    1050.2802  0.033753701  0.033349208            5 
 2594000   0.84032798   -5.8994195    1050.6645  0.033753035  0.033340029            6 
 2595000   0.82456431   -5.8637324    1050.7823  0.033743811  0.033330918            7 
 2596000   0.83489316   -5.9026449    1051.6418  0.033758403  0.033321821            9 
 2597000   0.85287825      -5.8902    1052.6308  0.033777141  0.033312677            4 
 2598000   0.82062437   -5.9017299    1050.4453  0.033694037  0.033303555            4 
 2599000   0.82943825   -5.9094945    1052.9746   0.03376217  0.033294295            7 
 2600000   0.84490345    -5.921845    1049.4446  0.033636046  0.033285043            8 
 2601000   0.86045522   -5.8827381     1053.649  0.033757816  0.033275846           15 
 2602000   0.84710359   -5.9043977    1055.1752  0.033793723  0.033266751            5 
 2603000   0.82575077   -5.9049945    1049.1561  0.033588044   0.03325763            6 
 2604000   0.82829376   -5.8723964    1053.4927  0.033713924   0.03324854           13 
 2605000   0.83982235   -5.9088999    1054.1599  0.033722327  0.033239449            4 
 2606000   0.83663363   -5.9134111    1051.6964  0.033630609  0.033230404            3 
 2607000   0.82870571   -5.8902938    1052.7729   0.03365212   0.03322134            5 
 2608000   0.82538096    -5.880988    1055.2877   0.03371957  0.033212245            7 
 2609000   0.85426058   -5.8673903     1056.552  0.033747029  0.033203248            5 
 2610000   0.83167465   -5.9117805    1055.4599   0.03369923  0.033194274            6 
 2611000   0.85059718   -5.8656333    1055.7612   0.03369594  0.033185265            4 
 2612000   0.82186599   -5.9244094      1050.28  0.033508169  0.033176185            6 
 2613000   0.82762049   -5.8810686    1056.6665   0.03369902  0.033167066            5 
 2614000    0.8371061   -5.9464833    1051.6209  0.033525276  0.033157903           10 
 2615000   0.82700706   -5.9048519    1053.8153  0.033582386  0.033148742           10 
 2616000   0.81873757    -5.897717    1052.5775   0.03353012  0.033139625           11 
 2617000   0.83213873   -5.9089822    1053.6548  0.033551612  0.033130391            8 
 2618000   0.82422286    -5.886084    1053.1742  0.033523498  0.033121286            8 
 2619000   0.82525817   -5.9071051    1053.8373  0.033531798  0.033112096           12 
 2620000     0.843099   -5.9191304     1056.839  0.033614472  0.033102979            8 
 2621000   0.81089913   -5.8985214    1052.9906   0.03347929   0.03309386           11 
 2622000   0.83706473   -5.9009908     1054.544  0.033515892  0.033084754            8 
 2623000    0.8184902    -5.920448    1055.5556  0.033535252    0.0330756            4 
 2624000   0.82506542    -5.899569    1054.2763  0.033481843  0.033066476           23 
 2625000   0.82178861   -5.9141087    1052.4935  0.033412493  0.033057241           10 
 2626000    0.8342911   -5.9113143    1054.1302  0.033451707   0.03304802            3 
 2627000   0.83533746    -5.919957    1053.4136  0.033416242   0.03303882           14 
 2628000    0.8458684   -5.9180864     1053.063  0.033392408  0.033029591            7 
 2629000   0.83100315   -5.9296987    1053.7659  0.033401987  0.033020404            5 
 2630000   0.82540505   -5.8770874    1055.1577  0.033433386  0.033011207           10 
 2631000   0.82895685   -5.9406422    1050.4743  0.033272338  0.033002035            8 
 2632000   0.82433436   -5.9333031    1053.1872  0.033345591  0.032992805            7 
 2633000   0.79972237   -5.9146297     1056.631  0.033441924  0.032983609            5 
 2634000   0.83595927   -5.8919903    1056.2899  0.033418436  0.032974485            5 
 2635000   0.83508449   -5.9224628    1056.1216  0.033400431  0.032965325           11 
 2636000    0.8127196   -5.9575765    1053.6466  0.033309516   0.03295614            4 
 2637000   0.81730641   -5.8970064    1056.7556  0.033395134  0.032946908            4 
 2638000   0.83093606   -5.8796677    1059.2494  0.033461252  0.032937803            4 
 2639000   0.81171732   -5.9137457    1056.8854  0.033373923  0.032928671            9 
 2640000   0.83359969   -5.9384791    1053.1083  0.033242056   0.03291944            5 
 2641000   0.82308932   -5.8929646    1058.5805  0.033402136  0.032910268            4 
 2642000   0.82232231   -5.9044482    1057.0998  0.033342791  0.032901188            9 
 2643000   0.84131768   -5.9125684    1058.2332   0.03336591  0.032892167            7 
 2644000   0.83761168    -5.908148    1056.5234  0.033299402   0.03288315           14 
 2645000   0.82582133   -5.8801786     1058.666  0.033354316   0.03287409           17 
 2646000   0.82640031   -5.8891694    1057.7375  0.033312468  0.032865018            9 
 2647000   0.81581285   -5.9386227    1055.2802  0.033222524  0.032855938            4 
 2648000   0.81965769   -5.9188894    1055.0645  0.033203187  0.032846847            8 
 2649000   0.82035431   -5.9166858    1052.6307   0.03311409  0.032837735            9 
 2650000   0.83405762   -5.9063613    1059.2375  0.033309354  0.032828679            7 
 2651000   0.80942462   -5.9181615    1056.0539  0.033196716  0.032819575           13 
 2652000    0.8457417   -5.9252988     1057.724  0.033236678  0.032810534            5 
 2653000   0.82909602   -5.8860715    1060.7836  0.033320253  0.032801605            9 
 2654000   0.83319325   -5.9117308    1055.8232  0.033151948   0.03279257            6 
 2655000   0.82703131   -5.9431388    1058.2705  0.033216273   0.03278357           10 
 2656000   0.84704989   -5.9269171    1058.7129  0.033217648  0.032774497            4 
 2657000   0.84155007   -5.9458597    1056.5087  0.033136016   0.03276544            8 
 2658000   0.82838317   -5.9187379     1059.035  0.033202751  0.032756319            7 
 2659000   0.84152248    -5.899317    1061.5145  0.033267972  0.032747269            5 
 2660000   0.81564304   -5.8914698    1060.8625  0.033235042  0.032738283            6 
 2661000   0.85330002   -5.9199714    1059.0273  0.033165078  0.032729282            7 
 2662000   0.83756642    -5.948522    1057.8327  0.033115224  0.032720178            6 
 2663000   0.81744998    -5.917332    1060.2916  0.033179735  0.032711126            6 
 2664000   0.82410557   -5.9079844    1062.8989  0.033248839  0.032702101            7 
 2665000   0.82698287   -5.9173515    1061.1384  0.033181313  0.032693136            7 
 2666000   0.84754651    -5.934717    1057.7736  0.033063691  0.032684083            8 
 2667000   0.82877876   -5.8897263    1060.7344  0.033143807  0.032675102            4 
 2668000   0.82126942   -5.9315926    1058.4358  0.033059589  0.032666019            4 
 2669000   0.82606853   -5.9333964    1057.6248   0.03302188    0.0326569            4 
 2670000   0.81905322   -5.8980437    1058.3715  0.033032818  0.032647793            4 
 2671000   0.81621963   -5.9179155    1057.5415  0.032994557  0.032638646            6 
 2672000   0.82083524   -5.9215301    1059.4923  0.033043047  0.032629557            4 
 2673000   0.82876703   -5.9226054    1059.1123  0.033018839  0.032620375            6 
 2674000   0.82493108   -5.9224619    1061.2765  0.033073939  0.032611174            5 
 2675000    0.8362763    -5.913139    1060.1253   0.03302571  0.032602151            9 
 2676000   0.82226622   -5.9430501    1063.0073  0.033103118  0.032593043            9 
 2677000   0.82526985   -5.9382763    1059.7871  0.032990507  0.032584062            4 
 2678000   0.81893968   -5.9292335    1061.2481  0.033023653  0.032574994            4 
 2679000   0.81500986   -5.9156808    1063.2319  0.033073033  0.032565904            7 
 2680000   0.83170045   -5.9326398     1063.615  0.033072606  0.032556877            7 
 2681000   0.81969701   -5.9309297    1061.1725   0.03298435  0.032547883            5 
 2682000   0.83145953   -5.9188321    1061.5413   0.03298351  0.032538821           10 
 2683000   0.82642218   -5.9136227     1064.513  0.033063517  0.032529894            4 
 2684000   0.82741987    -5.929493    1062.8259  0.032998816  0.032520993            9 
 2685000   0.81732289   -5.8973212    1062.0383  0.032962082  0.032511994            5 
 2686000   0.82600861    -5.945159    1064.2516  0.033018478  0.032503056            4 
 2687000   0.82768891   -5.9473423    1062.7993  0.032961149  0.032494121            6 
 2688000   0.81223999   -5.9281704    1063.2354  0.032962408  0.032485122            7 
 2689000   0.81985715   -5.9280732    1062.8304  0.032937596  0.032476139            3 
 2690000   0.84753555   -5.9375789    1062.9569  0.032929271  0.032467188            6 
 2691000   0.83165266   -5.9200045    1064.9122  0.032977587  0.032458299           17 
 2692000   0.82155768   -5.9508072    1062.8795   0.03290241  0.032449268            7 
 2693000   0.81383612   -5.8952823    1066.4262  0.032999945  0.032440252            3 
 2694000   0.81235253   -5.9224236    1063.6727  0.032902521  0.032431207            5 
 2695000   0.80404472   -5.8992755    1064.4643  0.032914789    0.0324222            9 
 2696000   0.81598386   -5.9400478     1061.075  0.032797819  0.032413116            9 
 2697000   0.82929231   -5.9328151    1064.2953  0.032885158  0.032404053            7 
 2698000   0.81740817   -5.9143295    1063.0331  0.032833984  0.032395075           10 
 2699000   0.81362282   -5.9352528    1066.0054  0.032913592  0.032386064            4 
 2700000   0.82053512   -5.9335989    1065.5391   0.03288701  0.032377069            4 
 2701000   0.83597259   -5.9456322    1063.2842  0.032805263  0.032368033            6 
 2702000   0.80949719   -5.9464661     1066.502  0.032892365  0.032359017            4 
 2703000   0.81633886   -5.9462762    1063.7921  0.032796647  0.032350119            7 
 2704000    0.8318544   -5.9553862    1062.4293   0.03274252  0.032341124            6 
 2705000   0.82182557   -5.9513565    1064.0166  0.032779315  0.032332136            8 
 2706000   0.82110973   -5.9183232    1065.6811  0.032818461  0.032323162            8 
 2707000   0.82936425   -5.9555414    1065.1925  0.032791297  0.032314157            5 
 2708000   0.81776395   -5.9576807    1064.8178  0.032767657  0.032305139            7 
 2709000   0.80510898   -5.9554338    1065.2619  0.032769223  0.032296094           14 
 2710000   0.82454643   -5.9374571    1065.5531  0.032766086  0.032287046            9 
 2711000   0.83778441   -5.9467696    1064.6859  0.032727342  0.032277963            4 
 2712000   0.83923219   -5.9403491    1063.9324   0.03269212  0.032268934            7 
 2713000   0.82033648   -5.9266383    1067.5249  0.032790419   0.03225997            5 
 2714000   0.82145984   -5.9405831    1064.3173  0.032679848  0.032251014           11 
 2715000   0.82284156   -5.9531274    1067.6574  0.032770331  0.032242064            5 
 2716000   0.80119928   -5.9618308    1066.1398  0.032711703  0.032233138           12 
 2717000   0.83559755   -5.9474213    1066.6046  0.032713917  0.032224241           11 
 2718000   0.83091729   -5.9714989    1064.7405  0.032644728  0.032215327            5 
 2719000   0.80922385   -5.9461232    1066.5388  0.032687838  0.032206421           11 
 2720000   0.82410115   -5.9489648    1067.0128  0.032690343  0.032197502            8 
 2721000   0.82054535   -5.9420478    1066.5511   0.03266419    0.0321886            4 
 2722000   0.80718162   -5.9284964    1069.4659  0.032741424  0.032179733            4 
 2723000   0.82097805   -5.9667276     1066.645  0.032643071  0.032170844            5 
 2724000   0.80932583   -5.9618928    1070.1229  0.032737485  0.032161948            8 
 2725000   0.81940903   -5.9511305     1067.709   0.03265165  0.032153054           10 
 2726000   0.79837117   -5.9658849    1065.8588  0.032583115   0.03214418            4 
 2727000   0.81189291   -5.9611781    1066.7357   0.03259796  0.032135248            9 
 2728000   0.82018059   -5.9430713     1068.656  0.032644673  0.032126368            5 
 2729000   0.83117492   -5.9516658    1068.8501  0.032638638  0.032117456            5 
 2730000   0.81618203   -5.9334752    1066.8434  0.032565426  0.032108547            7 
 2731000    0.8138406   -5.9360693    1068.8964  0.032616149  0.032099625            7 
 2732000   0.80195085   -5.9844538    1067.3791  0.032557928  0.032090701            7 
 2733000   0.81272967   -5.9657429    1064.5509  0.032459779  0.032081749           11 
 2734000   0.83129036   -5.9244382    1070.6504  0.032633821  0.032072765            5 
 2735000   0.83684868   -5.9170826    1071.3162  0.032642176   0.03206392            8 
 2736000    0.8009965   -5.9123423    1073.6774  0.032702163  0.032055081            3 
 2737000    0.8246059   -5.9653495    1067.8412   0.03251252  0.032046184           16 
 2738000   0.81319836   -5.9438505    1067.7651   0.03249833  0.032037304            9 
 2739000   0.82126046   -5.9428202    1067.9171  0.032491089  0.032028417            4 
 2740000   0.81624765   -5.9507087    1068.3006  0.032490893  0.032019516           15 
 2741000   0.82977272   -5.9334529    1068.1116  0.032473293  0.032010542            6 
 2742000   0.81835366   -5.9656265    1067.4582  0.032441595  0.032001614            9 
 2743000    0.8133219   -5.9251432    1069.0612  0.032478467  0.031992713            5 
 2744000   0.81089201   -5.9629373    1069.7158  0.032486509  0.031983732            6 
 2745000   0.80384989   -5.9639165    1065.2097  0.032337878  0.031974661            7 
 2746000   0.83205119   -5.9573487    1066.7055  0.032371494  0.031965675            4 
 2747000   0.82093585   -5.9889136    1065.1827  0.032313514  0.031956598            5 
 2748000   0.80661275   -5.9843618    1065.2252  0.032303046  0.031947482            9 
 2749000   0.82579323   -5.9720239    1069.0626  0.032407622  0.031938421           10 
 2750000   0.80827203   -5.9327973    1069.6122   0.03241249  0.031929385           12 
 2751000   0.80442514   -5.9526512    1071.6896  0.032463638  0.031920409            3 
 2752000   0.81324069   -5.9267321    1071.9784  0.032460586  0.031911514            8 
 2753000   0.80337603   -5.9820107    1069.6063  0.032376991  0.031902631            6 
 2754000   0.80952125   -5.9228336    1071.8025  0.032431689  0.031893732            6 
 2755000   0.81101675   -5.9252188    1071.4682  0.032409806  0.031884882            5 
 2756000   0.80398903    -5.949288     1070.975  0.032383132   0.03187595            7 
 2757000   0.82365219    -5.963561    1070.5385  0.032358194  0.031866967           16 
 2758000   0.81111293    -5.930817     1069.252  0.032307589   0.03185804           11 
 2759000   0.81352391   -5.9452543     1069.996  0.032318352  0.031849125            5 
 2760000   0.80683523   -5.9673572    1068.8302  0.032271444  0.031840201            7 
 2761000   0.81445884   -5.9330482     1072.728  0.032377399  0.031831319            4 
 2762000   0.81428438   -5.9229308    1071.1577  0.032318299  0.031822415            4 
 2763000   0.81072503   -5.9556004    1072.9912  0.032361902  0.031813532            4 
 2764000   0.81522476   -5.9679265     1070.774  0.032283345  0.031804582           15 
 2765000   0.80669602   -5.9439666    1072.1778   0.03231398  0.031795648            9 
 2766000   0.78773566    -5.997797    1068.0553  0.032178095  0.031786595            8 
 2767000   0.82411065   -5.9441715    1071.1871  0.032260784  0.031777633            5 
 2768000   0.81595622   -5.9658875     1073.372  0.032314909  0.031768734           11 
 2769000   0.79281764   -5.9879751    1071.5369  0.032248009  0.031759797            6 
 2770000   0.80078675   -5.9321192    1072.6019  0.032268409  0.031750865            7 
 2771000   0.81743573   -5.9601143    1070.5335  0.032194559  0.031741929            7 
 2772000   0.81012151    -5.954035    1072.8823  0.032253556  0.031732974            5 
 2773000   0.79913185   -5.9809174    1067.9574  0.032093923  0.031723958            5 
 2774000    0.7990104   -5.9652469    1073.3607  0.032244673  0.031714976            5 
 2775000   0.79722718   -5.9398193     1070.867  0.032158169  0.031706074            5 
 2776000   0.81409605   -5.9699871    1074.8849  0.032267197  0.031697189            5 
 2777000   0.81277045    -5.965327    1071.2669  0.032147009  0.031688215            5 
 2778000   0.80249728   -6.0053833    1070.8898  0.032124123  0.031679192           10 
 2779000   0.81206785   -5.9397294    1073.9609  0.032204657  0.031670212            6 
 2780000   0.82298943    -5.953512    1071.8814  0.032130739  0.031661338            5 
 2781000   0.82127791   -5.9681602    1073.8978  0.032179605  0.031652484            9 
 2782000   0.81784109   -5.9510811    1074.0901  0.032173799  0.031643639            7 
 2783000   0.81684708   -5.9618357    1073.5689  0.032146631  0.031634819            4 
 2784000   0.83221058    -5.953235    1074.1456  0.032152346  0.031625989            7 
 2785000   0.80199854    -5.957691    1073.7434  0.032128767  0.031617186            9 
 2786000   0.79563426   -5.9738087    1073.9894  0.032124592  0.031608345           16 
 2787000   0.80293569   -5.9743828    1076.2517  0.032180711  0.031599474            9 
 2788000    0.8148744   -5.9928054     1072.911  0.032069315  0.031590693           16 
 2789000   0.78644861   -5.9744352    1074.5747  0.032107526  0.031581868           11 
 2790000   0.79007307   -5.9573295    1076.2397   0.03214575  0.031573049            8 
 2791000    0.7989059   -5.9390992    1076.5021  0.032142067  0.031564268            3 
 2792000   0.79868692    -5.961001    1074.9422  0.032083995   0.03155549           11 
 2793000   0.79436945   -5.9570674    1074.3918  0.032056086  0.031546693            4 
 2794000    0.8112779   -5.9827392    1076.0316  0.032093521  0.031537895            7 
 2795000   0.80721485   -5.9720718    1075.4823  0.032065663  0.031529134           10 
 2796000   0.83332123   -5.9764821    1080.6068  0.032206928  0.031520421            8 
 2797000   0.78821138   -5.9819241    1076.1841  0.032063642  0.031511748            7 
 2798000   0.81065013   -5.9598863    1079.7797  0.032159272  0.031503059            5 
 2799000   0.81505832   -5.9704816    1076.5172  0.032050648  0.031494402            6 
 2800000   0.82360824   -5.9621364    1076.5451  0.032040032  0.031485632           18 
 2801000   0.81121477   -5.9392027    1077.4261  0.032054805  0.031476875            6 
 2802000   0.81036012   -5.9626177     1081.241  0.032156822  0.031468237            9 
 2803000   0.78657516   -5.9776789    1079.1575  0.032083407  0.031459583            8 
 2804000   0.79381221   -5.9646799    1079.3905  0.032078891  0.031450915            7 
 2805000   0.79093238   -6.0118782    1077.5993  0.032014239  0.031442241            7 
 2806000   0.80252246   -5.9991641    1076.5152  0.031970634  0.031433513           12 
 2807000   0.81107873    -5.980708     1078.093  0.032006086  0.031424795            9 
 2808000    0.7993106   -5.9386687    1079.5899  0.032039112  0.031416139            5 
 2809000   0.80801802   -5.9483872    1080.0773  0.032042164  0.031407555            5 
 2810000   0.79885419   -5.9522094    1081.0056  0.032058293  0.031398974            7 
 2811000   0.79675421   -5.9603826    1081.5473  0.032062946  0.031390383           13 
 2812000   0.79757524   -5.9711755    1082.6519  0.032084279  0.031381742           10 
 2813000     0.820011   -5.9735807    1082.1611  0.032058332  0.031373087            6 
 2814000   0.79731287   -5.9660441    1082.0127  0.032042547  0.031364462            9 
 2815000   0.81286272   -5.9602413    1081.0773  0.032003472  0.031355881           11 
 2816000   0.79901014   -5.9753309    1079.1055  0.031933756  0.031347248            9 
 2817000   0.80566865   -5.9973468    1079.4527  0.031932691  0.031338541            4 
 2818000   0.82113711   -5.9829591    1083.2292  0.032033037  0.031329957            6 
 2819000   0.80502458   -5.9749153    1080.7036  0.031947016  0.031321456            5 
 2820000   0.79728592    -5.971566    1079.6665  0.031905038  0.031312842            6 
 2821000   0.80422805    -5.963376    1083.9028  0.032018871  0.031304276           12 
 2822000   0.79205871   -5.9655025    1080.8331  0.031916876  0.031295753            5 
 2823000   0.80856456   -5.9933922    1080.9394  0.031908709  0.031287136           11 
 2824000    0.8082071   -5.9774272    1082.1463  0.031933024  0.031278562           11 
 2825000   0.80771351   -5.9654118    1082.2124   0.03192367  0.031269933            4 
 2826000   0.81976043   -5.9672081    1079.9011  0.031844218   0.03126137           10 
 2827000   0.80853328   -5.9832883    1081.2055  0.031871405  0.031252838            6 
 2828000   0.80133626   -5.9443579    1083.3897  0.031924495  0.031244225            5 
 2829000    0.7979919   -6.0002394    1082.6846  0.031892441   0.03123559           17 
 2830000   0.79060049   -6.0032883     1080.926  0.031829387   0.03122695            6 
 2831000   0.79218724   -5.9890173    1082.1754  0.031854921  0.031218343            3 
 2832000   0.78900762   -5.9537704      1084.65  0.031916489  0.031209816           10 
 2833000    0.8060864   -5.9740067    1082.3693  0.031838136  0.031201302            9 
 2834000    0.7651087   -5.9828135    1082.9307  0.031843412  0.031192863            6 
 2835000    0.7886249   -5.9839588    1087.3018  0.031960664  0.031184286            4 
 2836000   0.79838749     -6.00783     1080.315  0.031744095  0.031175746            9 
 2837000   0.78660973   -5.9992002    1085.4581  0.031883977  0.031167161            6 
 2838000   0.79213845   -5.9871055    1085.3535   0.03186967  0.031158576            5 
 2839000   0.79278773   -5.9830014    1085.0103  0.031848372  0.031149992            9 
 2840000   0.80507513    -5.968081    1080.2759  0.031698237  0.031141435            5 
 2841000   0.81430992   -5.9861769    1085.1055  0.031828744  0.031132913            6 
 2842000    0.7995611   -5.9833464    1084.2437  0.031792274  0.031124416           15 
 2843000   0.80004385   -5.9796933    1085.8315  0.031827632  0.031115907            4 
 2844000    0.8041712   -5.9963426    1086.5326  0.031836983  0.031107398            4 
 2845000   0.77894899   -5.9985774    1086.8053   0.03183378  0.031098913            7 
 2846000   0.79737705   -5.9960502    1085.7339  0.031791224  0.031090488            6 
 2847000   0.79038053   -5.9914265    1087.1973  0.031822893  0.031082038            4 
 2848000   0.80717922   -6.0024074    1087.0444  0.031807244  0.031073602            4 
 2849000    0.8069868   -6.0017105    1086.7563  0.031787655  0.031065126            5 
 2850000   0.80274165   -5.9671067    1086.4651  0.031767986  0.031056657            5 
 2851000   0.80270613   -5.9777332    1087.8483  0.031797273  0.031048247           16 
 2852000   0.80312073   -5.9816381     1085.191  0.031708479  0.031039843           10 
 2853000   0.81296248    -5.995503    1085.6988  0.031712198  0.031031416           10 
 2854000   0.80758479   -6.0030609    1086.4235  0.031722247  0.031023048            7 
 2855000   0.79441777   -5.9953437    1086.6945  0.031719045  0.031014653            4 
 2856000   0.79549961   -5.9832475    1089.9335  0.031802448  0.031006247            3 
 2857000   0.79934232   -6.0000985    1089.1037  0.031767114  0.030997901            7 
 2858000   0.80023606   -6.0032781    1087.7437  0.031716343  0.030989517            6 
 2859000   0.78342894   -5.9948281    1087.6427  0.031702306  0.030981154           14 
 2860000   0.79033425   -6.0050323    1087.6296  0.031690838  0.030972788            9 
 2861000   0.78357794   -6.0031121    1088.5943  0.031707861  0.030964415            8 
 2862000    0.7795192   -6.0011711    1088.7748  0.031702037  0.030956083            6 
 2863000   0.78437165   -5.9944564    1087.1308  0.031643113  0.030947706            3 
 2864000   0.79600893   -5.9980622    1088.9172  0.031684044  0.030939362            3 
 2865000   0.80769472   -6.0022865    1089.8929  0.031701365  0.030931015            6 
 2866000   0.78350048   -6.0107698    1084.8346  0.031543226   0.03092258            9 
 2867000   0.80460298   -5.9977282    1089.5505  0.031669298  0.030914201            7 
 2868000   0.77994785   -5.9984637    1090.5195  0.031686411   0.03090584            5 
 2869000   0.80029227    -5.995845    1088.5426  0.031617945  0.030897501            8 
 2870000   0.79681115   -6.0224578    1084.7179  0.031495873  0.030889124            6 
 2871000   0.80772092   -6.0148779    1088.7856  0.031602973  0.030880705           16 
 2872000   0.80425742   -6.0130781    1086.1385  0.031515161  0.030872248            7 
 2873000   0.79468326   -6.0168001    1088.7726  0.031580595   0.03086387           10 
 2874000   0.82046514   -6.0005884    1088.5435  0.031562963  0.030855451            4 
 2875000   0.79019792   -6.0144031    1090.1642  0.031598963  0.030847036            9 
 2876000   0.79335313   -6.0030839    1089.6865  0.031574133  0.030838669            4 
 2877000   0.79386178    -6.015723    1090.2116  0.031578369  0.030830304            7 
 2878000   0.78665685   -5.9869596    1091.5045  0.031604831  0.030822039            7 
 2879000   0.79039415   -5.9923443    1088.6464  0.031511127   0.03081372            6 
 2880000   0.79013646    -6.024692     1086.626  0.031441724  0.030805338            9 
 2881000   0.79559031   -5.9949447    1092.3933  0.031597632  0.030796981            4 
 2882000   0.79612384   -6.0033838    1090.5065  0.031532111  0.030788603            8 
 2883000   0.79647742   -6.0117775     1088.273  0.031456615  0.030780259            7 
 2884000   0.79929263   -6.0049771    1089.4946  0.031481004  0.030771887            9 
 2885000   0.77672226   -6.0107349    1092.7342  0.031563667   0.03076358            6 
 2886000   0.78594791   -6.0130248    1090.3385  0.031483557  0.030755261            8 
 2887000   0.79122086   -6.0015425     1091.563  0.031507997  0.030746918            4 
 2888000   0.78990689   -5.9865627    1090.7714  0.031474244  0.030738544            6 
 2889000   0.77623013   -5.9786994    1090.9578  0.031468727  0.030730235            4 
 2890000   0.79725383   -6.0091414    1093.3678  0.031527329  0.030721915            4 
 2891000   0.81130614   -6.0221139    1093.4009  0.031517379  0.030713633            4 
 2892000   0.77745336   -6.0133175    1091.5726  0.031453799  0.030705304            5 
 2893000    0.7948709   -6.0126674    1091.3558  0.031436681   0.03069695           12 
 2894000   0.78883575   -6.0034192    1089.2053  0.031363894  0.030688655            9 
 2895000   0.79843967   -6.0360169     1088.508  0.031332987  0.030680325            6 
 2896000   0.78367683   -6.0203522    1089.9093  0.031362492  0.030671877           14 
 2897000   0.78821837   -6.0187697    1089.9861  0.031353874  0.030663499           10 
 2898000   0.78552699   -6.0304784    1089.3356  0.031324349  0.030655068           12 
 2899000   0.78307571   -6.0232331    1091.6156  0.031379086  0.030646668            6 
 2900000    0.7935119   -6.0204234    1090.7688  0.031343931  0.030638257           13 
 2901000   0.76658951   -6.0087524    1090.3513  0.031321133  0.030629855            6 
 2902000   0.79514026   -6.0143854    1091.3972  0.031340374  0.030621487            5 
 2903000   0.80448415   -6.0468344    1090.2693    0.0312972  0.030613045           16 
 2904000   0.78016806   -6.0280028    1091.3711   0.03131804  0.030604595            6 
 2905000   0.78475162   -6.0641228    1089.1238  0.031242795  0.030596215           12 
 2906000   0.79656442   -6.0176007     1092.793  0.031337262  0.030587795           11 
 2907000   0.79118011   -5.9948221    1091.3367  0.031284734  0.030579424            5 
 2908000   0.78734412   -6.0097592     1093.787  0.031344194  0.030571071            8 
 2909000   0.79212943   -6.0044445     1093.443  0.031323566  0.030562781            5 
 2910000   0.78446607   -6.0178073     1091.009  0.031243099  0.030554514            7 
 2911000    0.7760441   -6.0101097    1088.7428  0.031167492  0.030546221            5 
 2912000   0.79483539   -5.9897867    1092.1761  0.031255039  0.030537894           11 
 2913000    0.8019516   -5.9845403    1095.5582  0.031341064  0.030529586            4 
 2914000   0.78581853   -6.0369225    1092.9799  0.031256576  0.030521291            6 
 2915000   0.78013182     -6.00138    1095.0308  0.031304482  0.030512913            7 
 2916000   0.79818614   -6.0261401    1090.7262  0.031170731  0.030504552            8 
 2917000   0.79912388   -6.0042052    1094.1825  0.031258785  0.030496207            7 
 2918000   0.77819899    -6.017144    1097.9446  0.031355513  0.030487902            5 
 2919000   0.76979466   -6.0103541    1091.5129  0.031161154  0.030479643            4 
 2920000   0.77863003   -6.0106785    1091.4936  0.031149931  0.030471332            6 
 2921000   0.77463231    -6.009166    1093.5101  0.031196795  0.030462995            6 
 2922000   0.80596674    -6.034752     1093.467  0.031184891  0.030454651            8 
 2923000   0.77230542   -6.0173172    1092.4623  0.031145577  0.030446353           15 
 2924000   0.78047775   -6.0260809    1095.4981  0.031221445  0.030438014            4 
 2925000    0.7853359   -5.9970057    1096.8627  0.031249649  0.030429646           12 
 2926000   0.77644251   -5.9871269    1093.2776  0.031136865  0.030421255            8 
 2927000   0.77989716   -6.0417354     1091.945  0.031088287  0.030412842           10 
 2928000    0.8040724   -6.0407684    1091.5681  0.031066942  0.030404506            7 
 2929000   0.79206037   -6.0277932    1096.4384  0.031194902   0.03039617            6 
 2930000   0.76279023   -6.0140847    1094.1405  0.031118898  0.030387819           10 
 2931000   0.79141213   -6.0376712    1093.8341  0.031099572  0.030379371           10 
 2932000   0.78497335   -5.9975575    1096.8097  0.031173535  0.030371026           11 
 2933000   0.78500273   -6.0273024    1097.3021  0.031176899  0.030362679           14 
 2934000   0.79966451   -6.0344508    1095.9757  0.031128597  0.030354315           14 
 2935000   0.78099527   -6.0314954    1091.8462  0.031000743  0.030345965            6 
 2936000    0.7857382   -6.0105874    1093.8095  0.031045911  0.030337588            7 
 2937000   0.79709269   -6.0115676    1095.1053  0.031072105  0.030329265           10 
 2938000   0.78337912   -6.0271948    1094.8102  0.031053161  0.030320952            7 
 2939000   0.78792281   -6.0181734    1096.7584  0.031097833  0.030312623            5 
 2940000   0.79304605   -6.0203149    1097.2701  0.031101759  0.030304312            7 
 2941000   0.78657584   -5.9762674    1097.2405  0.031090345  0.030295993            6 
 2942000   0.78380758   -6.0361239    1096.1879  0.031049964  0.030287666           10 
 2943000   0.77557855   -6.0253034    1094.5191  0.030992159  0.030279303            4 
 2944000   0.79102662   -6.0749924    1092.5085   0.03092472  0.030270898            8 
 2945000   0.76438778   -6.0312655    1094.7892  0.030978755  0.030262469            4 
 2946000   0.76578086   -6.0397608    1095.4148  0.030985936   0.03025412            6 
 2947000     0.770723   -6.0510211    1092.9787  0.030906535  0.030245723            8 
 2948000   0.79903115   -6.0282399    1094.2896  0.030933106  0.030237354           13 
 2949000   0.76749232    -6.033511    1095.7818  0.030964785  0.030228967            9 
 2950000   0.78344216   -6.0158255    1096.7443  0.030981477  0.030220627            7 
 2951000   0.78166014   -6.0241968    1094.5653  0.030909445  0.030212225            4 
 2952000   0.77869118   -6.0607617    1093.1975  0.030860362  0.030203845            9 
 2953000   0.77765792   -6.0176261    1094.0768  0.030874726  0.030195545            7 
 2954000   0.78306191   -5.9938687    1099.3402  0.031012757  0.030187174            5 
 2955000   0.77483765   -6.0278961    1095.9609  0.030906963  0.030178898            7 
 2956000   0.78516905   -6.0682834    1092.6585   0.03080341  0.030170532            6 
 2957000   0.77616475   -6.0097243    1096.0731  0.030889219  0.030162203            8 
 2958000   0.78870603   -6.0429732     1097.876  0.030929569   0.03015394            8 
 2959000   0.77181193   -6.0379218    1097.8903   0.03091952  0.030145689            7 
 2960000   0.77795285   -6.0431205    1097.6749  0.030903008   0.03013742           10 
 2961000   0.78202328   -6.0446753    1096.7034   0.03086523  0.030129126           11 
 2962000   0.77809854   -6.0503555    1098.5843  0.030907727  0.030120837            5 
 2963000   0.78456949   -6.0363514    1097.6022  0.030869677  0.030112573            9 
 2964000   0.77072707   -6.0613776    1097.2466  0.030849263  0.030104286           10 
 2965000   0.76961737   -6.0548065     1095.963  0.030802782  0.030095954            4 
 2966000   0.78979131   -6.0655445    1093.6413  0.030727166  0.030087643            4 
 2967000   0.77217249   -6.0255101    1102.1444  0.030955633  0.030079381            6 
 2968000   0.78096047   -6.0343061     1099.202  0.030862591  0.030071132           10 
 2969000   0.79466807   -6.0153425     1098.617  0.030835776    0.0300629            8 
 2970000   0.78310829   -6.0652383    1097.7614  0.030801385  0.030054687            9 
 2971000   0.78521439   -6.0269795    1099.2717  0.030833382  0.030046391            7 
 2972000   0.77971088   -6.0246539    1099.5249  0.030830107  0.030038146            8 
 2973000   0.76630119   -6.0223716    1101.1308  0.030864749  0.030029952            7 
 2974000   0.75385098   -6.0106052    1098.5792  0.030782875  0.030021781           12 
 2975000   0.78483669   -6.0509678    1098.9061  0.030781684  0.030013601           11 
 2976000   0.77108668    -6.040855    1098.7644  0.030767371  0.030005367            8 
 2977000    0.7941253   -6.0551396    1098.9763  0.030762969  0.029997161            7 
 2978000   0.78211277   -6.0162247    1101.4076  0.030820674  0.029989032            4 
 2979000   0.78318044   -6.0184644    1101.5794  0.030815133  0.029980891           10 
 2980000   0.75915012   -6.0820161    1098.5464  0.030719979  0.029972681            4 
 2981000   0.77037698   -6.0547563    1098.8164   0.03071722  0.029964413            8 
 2982000   0.77847058    -6.076389    1097.4104  0.030667629  0.029956171            7 
 2983000   0.77657133   -6.0524816    1099.7113  0.030721625  0.029948014           26 
 2984000   0.79452643   -6.0197689    1101.6168  0.030764544  0.029939842            6 
 2985000   0.76966933   -6.0368166    1100.6543  0.030727366  0.029931661            5 
 2986000   0.78283622   -6.0673922    1102.3822    0.0307653  0.029923447           15 
 2987000   0.78059295   -6.0268347    1104.4858  0.030813687  0.029915277            7 
 2988000   0.75681948   -6.0222546    1102.7006  0.030753586  0.029907155           10 
 2989000   0.74541023   -6.0422119    1101.3874  0.030706686  0.029898989            7 
 2990000   0.76756618   -6.0411598    1098.8253  0.030625009  0.029890717            4 
 2991000   0.78946548   -6.0440051    1100.2856  0.030655454  0.029882507           12 
 2992000   0.78847837   -6.0581848    1102.3301  0.030702153  0.029874229           10 
 2993000   0.77732219   -6.0736226    1100.3236  0.030636028   0.02986595            7 
 2994000   0.78597447   -6.0459471    1099.5284  0.030603664   0.02985763            6 
 2995000   0.77951945   -6.0813658    1100.7424  0.030627224  0.029849346           15 
 2996000   0.76211724   -6.0564052     1097.196  0.030518359  0.029840998           11 
 2997000   0.77048887   -6.0434038    1099.5322  0.030573135  0.029832762            8 
 2998000   0.75592191   -6.0643994    1098.1958   0.03052579  0.029824484           17 
 2999000   0.77513787   -6.0263377    1103.1984  0.030654617  0.029816269           11 
 3000000   0.74446174   -6.0636764    1098.8665   0.03052407  0.029808014            6 
 3001000   0.77737553   -6.0413708    1100.6365  0.030563049  0.029799758            7 
 3002000   0.77790928   -6.0703787    1097.6453  0.030469833  0.029791513            5 
 3003000   0.76480009   -6.0797198    1099.9377    0.0305233   0.02978317            8 
 3004000     0.789676   -6.0409467    1101.6676  0.030561129  0.029774903            5 
 3005000   0.78175026   -6.0756166    1096.4192  0.030405413  0.029766622            6 
 3006000   0.76931148   -6.0598215    1102.3387  0.030559401   0.02975831           10 
 3007000   0.78251286   -6.0352734     1100.653  0.030502522  0.029750024            5 
 3008000   0.76258925   -6.0720475    1098.0043  0.030419002  0.029741797            8 
 3009000   0.77888597   -6.0546034    1103.3652   0.03055736  0.029733535            7 
 3010000   0.75328136    -6.040214    1102.2694   0.03051687  0.029725226            5 
 3011000   0.76233544   -6.1012645    1100.9515  0.030470261  0.029716872            5 
 3012000   0.77989956   -6.0359492    1101.5717  0.030477305  0.029708575            8 
 3013000   0.76120585    -6.031556    1103.1361  0.030510457  0.029700313            8 
 3014000   0.77769575   -6.0415528    1101.1781    0.0304462  0.029692047           10 
 3015000   0.76914076   -6.0689759    1098.6201  0.030365397  0.029683834            7 
 3016000   0.76911238   -6.0550203    1101.1168  0.030424314  0.029675575           18 
 3017000   0.76699172   -6.0597345    1100.5256  0.030397901  0.029667337            7 
 3018000   0.78342654   -6.0690126    1100.7376  0.030393681  0.029659019           16 
 3019000   0.78193688   -6.0364667    1103.1098  0.030449095  0.029650754            5 
 3020000   0.77585999   -6.0784812    1101.7826  0.030402388  0.029642473            6 
 3021000    0.7685222   -6.0633186    1100.6853  0.030362057  0.029634194            7 
 3022000   0.78613966   -6.0559096    1102.1106  0.030391313  0.029625952           11 
 3023000   0.76011593   -6.0609201    1103.5869  0.030421957  0.029617761            3 
 3024000   0.75996599   -6.0295887    1104.6258  0.030440526  0.029609512            8 
 3025000   0.79613213     -6.06778    1102.6159  0.030375093  0.029601296            8 
 3026000   0.76861471   -6.0490502    1107.9228  0.030511202  0.029593082           10 
 3027000   0.76723147   -6.0764274    1102.6488  0.030355931  0.029584892            4 
 3028000   0.77153391   -6.0878617    1103.1032  0.030358409   0.02957672           10 
 3029000   0.76900645   -6.0563492    1103.1443  0.030349518  0.029568537           10 
 3030000   0.76383592   -6.0359318    1104.1397  0.030366879   0.02956038           12 
 3031000    0.7569712   -6.0496411    1103.9085  0.030350503  0.029552253            9 
 3032000    0.7676339   -6.0310246    1102.9476  0.030314083  0.029544139           15 
 3033000   0.76742956   -6.0500375    1105.2626  0.030367695  0.029535929            6 
 3034000   0.75345589   -6.0800509    1105.2342  0.030356906  0.029527778            7 
 3035000   0.74923608   -6.0622203    1104.2096   0.03031877   0.02951969            7 
 3036000   0.76826828   -6.0769656    1105.0342  0.030331416  0.029511578            6 
 3037000   0.76804414   -6.0404426    1106.5433   0.03036284  0.029503472            8 
 3038000   0.76417471   -6.0572993    1107.6578  0.030383415  0.029495342            6 
 3039000   0.77134082   -6.0539555    1106.2399  0.030334537  0.029487241            6 
 3040000   0.77564625   -6.0454179    1108.0203  0.030373364  0.029479145            7 
 3041000   0.75172613    -6.075733    1105.2558  0.030287619  0.029471023            7 
 3042000   0.76445669   -6.0837567     1105.485  0.030283942  0.029462865           14 
 3043000   0.75878376   -6.0519439    1107.6328  0.030332806  0.029454756            9 
 3044000    0.7568233   -6.0331068    1106.0552  0.030279654  0.029446638            9 
 3045000   0.77279887   -6.0598614    1106.5599  0.030283521  0.029438533            7 
 3046000    0.7790607   -6.0749697     1105.357  0.030240671  0.029430413            8 
 3047000   0.78282817   -6.0410808    1108.5009  0.030316729  0.029422367            8 
 3048000   0.75360914   -6.0902182    1107.0152  0.030266163  0.029414295            5 
 3049000   0.77003202    -6.039522     1105.302  0.030209413  0.029406187            8 
 3050000   0.76764301   -6.0528691    1105.8069  0.030213303   0.02939807           10 
 3051000   0.77130971   -6.0509769    1105.2795  0.030188995  0.029389958            6 
 3052000   0.75918631   -6.0775935    1103.8888  0.030141131  0.029381838           12 
 3053000   0.77489063   -6.0704415    1107.0227  0.030216801  0.029373685            6 
 3054000   0.75180511   -6.0412218    1108.4315  0.030245348  0.029365518            5 
 3055000    0.7597338   -6.0866493    1106.6991  0.030188193  0.029357361            7 
 3056000   0.76684629   -6.0572209    1106.2345  0.030165643  0.029349181            8 
 3057000   0.77399254   -6.0648999    1104.2175  0.030100792  0.029340979            6 
 3058000   0.76212351   -6.0653671    1106.1432  0.030143426  0.029332824            7 
 3059000   0.76064744   -6.0679449    1106.3607  0.030139497  0.029324674            8 
 3060000   0.74744733   -6.0832836    1106.5812  0.030135653  0.029316467            5 
 3061000   0.75948006    -6.047568    1106.7672  0.030130872  0.029308264            8 
 3062000   0.73815745   -6.0762953    1104.8205  0.030068053  0.029300082            7 
 3063000   0.75414429   -6.0593063    1106.4196  0.030101741  0.029291955            9 
 3064000   0.75443275    -6.060625    1106.0896  0.030082941  0.029283831            8 
 3065000    0.7517562   -6.0781273    1103.5651   0.03000449  0.029275696            5 
 3066000   0.75047016   -6.0916512    1104.3061  0.030014844  0.029267556           11 
 3067000    0.7598879   -6.0891507    1104.4017  0.030007655  0.029259366           10 
 3068000   0.76904277   -6.0898583    1104.5614  0.030002211  0.029251205            9 
 3069000   0.76022123   -6.0782164    1104.4748  0.029990083  0.029242967            7 
 3070000   0.78213125   -6.0768997    1109.2209  0.030109144  0.029234776            9 
 3071000     0.751559   -6.0940525    1105.5456  0.029999608  0.029226609            6 
 3072000   0.77009483   -6.0796604    1105.1974  0.029980399  0.029218453            8 
 3073000   0.77542163   -6.0475934    1106.5239  0.030006615  0.029210326            7 
 3074000   0.76824426   -6.0665684    1106.0671  0.029984469  0.029202161            7 
 3075000   0.75942861   -6.0844806    1109.2281  0.030060382   0.02919402            4 
 3076000   0.74015473   -6.1025529    1105.4318  0.029947762  0.029185879           13 
 3077000   0.76013769   -6.1028471    1106.1428  0.029957286  0.029177697           10 
 3078000   0.76445331   -6.0714446    1104.8827  0.029913437   0.02916955            9 
 3079000   0.75826997   -6.0863551    1107.8384  0.029983718  0.029161369            6 
 3080000   0.75760422   -6.0824327    1104.9072  0.029894675  0.029153153           10 
 3081000   0.75670432   -6.0560262    1109.4293  0.030007285  0.029144983            8 
 3082000   0.77477111   -6.0780874    1109.3581  0.029995621   0.02913687           21 
 3083000   0.76130296   -6.0694856    1108.2936  0.029957119  0.029128797            6 
 3084000   0.75036083    -6.093289    1108.9329  0.029964681  0.029120644           13 
 3085000   0.76227762   -6.0784507    1106.4566  0.029888077  0.029112434            9 
 3086000   0.75911673   -6.1109301    1106.9684  0.029892213  0.029104269            5 
 3087000   0.76356439   -6.0899861    1109.1002  0.029940077  0.029096085           10 
 3088000    0.7673146    -6.100199    1108.6536   0.02991833  0.029087904           10 
 3089000   0.76189684   -6.0797062    1107.5858  0.029879838  0.029079744            5 
 3090000    0.7581714   -6.0839476    1107.6553  0.029872042  0.029071593            5 
 3091000   0.76629709   -6.1077819    1107.6562  0.029862402  0.029063424            5 
 3092000   0.75466654   -6.0752818    1110.2817  0.029923504  0.029055264            4 
 3093000   0.75772326   -6.0833832    1108.2965  0.029860343  0.029047107            5 
 3094000   0.76009619   -6.1077314    1106.1252   0.02979221  0.029038963            8 
 3095000    0.7505237   -6.1080818    1106.0835  0.029781462  0.029030768            9 
 3096000   0.77465156   -6.1046625    1104.2112  0.029721446  0.029022579           11 
 3097000   0.77841669    -6.116431    1107.3687   0.02979681  0.029014397           10 
 3098000   0.76003661   -6.1249608    1107.1771  0.029782039  0.029006171            7 
 3099000   0.74720917   -6.1012536    1106.6173  0.029757375  0.028997958           10 
 3100000   0.75639962   -6.1091267    1106.8793   0.02975482  0.028989796           11 
 3101000   0.74868174   -6.0793686    1109.1846  0.029807174  0.028981702            7 
 3102000   0.74785531   -6.0841662    1107.2822  0.029746459  0.028973634           13 
 3103000   0.74762243   -6.0751475    1106.5576  0.029717414  0.028965475            6 
 3104000   0.77453936   -6.1089993    1107.4459  0.029731688  0.028957361            6 
 3105000   0.76284586    -6.104875    1107.9614  0.029735948  0.028949266           11 
 3106000   0.74769295   -6.0737703     1111.549  0.029822629   0.02894117            8 
 3107000   0.74678881   -6.0904421    1106.8014  0.029685695  0.028933055            8 
 3108000    0.7484925   -6.0879578    1109.8319  0.029757398  0.028924931           13 
 3109000   0.75378624   -6.0883736    1109.7649   0.02974603  0.028916763            8 
 3110000    0.7458435   -6.1022311    1108.3095  0.029697469   0.02890861            6 
 3111000   0.74964523   -6.0856419    1109.3738  0.029716432  0.028900492            9 
 3112000   0.76654029   -6.1456251    1106.8039  0.029638064  0.028892348            7 
 3113000   0.73467764   -6.1018304    1107.7282  0.029653289  0.028884197           11 
 3114000   0.76395964   -6.0898749    1111.5297  0.029745496  0.028876116           12 
 3115000   0.75355462   -6.1002914    1110.2241  0.029701019  0.028868021           11 
 3116000   0.74358427   -6.1128378    1111.0287  0.029713006  0.028859913           13 
 3117000   0.74970914   -6.0707826    1112.0755  0.029731459  0.028851866            6 
 3118000   0.73909652   -6.0738009    1112.0405  0.029720987  0.028843852            8 
 3119000   0.74071263   -6.0975716    1111.7956  0.029704916  0.028835843            9 
 3120000   0.75724206   -6.1040421    1113.1893   0.02973262  0.028827802           23 
 3121000   0.77600703   -6.1065937    1109.0422  0.029612362  0.028819846            5 
 3122000   0.75521348   -6.0945901    1111.3241  0.029663786  0.028811803            7 
 3123000   0.75310488   -6.0876809    1109.0982  0.029594894  0.028803741            7 
 3124000   0.76030355   -6.1029599    1113.6589  0.029707076  0.028795694           13 
 3125000   0.75106005   -6.1268871    1112.0923  0.029655794  0.028787643           12 
 3126000    0.7564264   -6.1068873    1108.6499   0.02955454  0.028779631           16 
 3127000   0.75953705   -6.1100299    1111.0366  0.029608693  0.028771565            5 
 3128000   0.74040088   -6.1009383    1113.2428  0.029658003   0.02876352            7 
 3129000   0.74665996   -6.0985746    1110.0421   0.02956328  0.028755483            6 
 3130000   0.74834872   -6.0833865    1112.5209  0.029619832  0.028747419           11 
 3131000   0.74773441   -6.0833369    1112.3525  0.029605891  0.028739357            8 
 3132000   0.76396039    -6.106347    1109.3001  0.029515221   0.02873125            5 
 3133000   0.75606424   -6.1052658    1112.2529   0.02958434    0.0287232            3 
 3134000   0.74962712   -6.1134689    1110.1317  0.029518498  0.028715145           10 
 3135000   0.73837418   -6.1182586    1113.2948  0.029593162  0.028707008            5 
 3136000   0.76055914    -6.137098    1111.8284  0.029544759  0.028698879            9 
 3137000    0.7329468   -6.1200004     1112.116  0.029542981  0.028690774           11 
 3138000   0.76494247   -6.0909192    1109.1695   0.02945532  0.028682686            7 
 3139000   0.75281045   -6.1077158    1110.1929  0.029473105  0.028674634           19 
 3140000   0.76440487   -6.1080472    1109.5398  0.029446387   0.02866658            8 
 3141000   0.73809418   -6.1184946    1109.2482  0.029429274  0.028658485           22 
 3142000   0.74381487    -6.122984    1113.7908  0.029540387  0.028650415           11 
 3143000   0.75644174   -6.1094599    1111.3818  0.029467117  0.028642326           15 
 3144000    0.7528205   -6.1172393    1114.7224  0.029546288  0.028634324            9 
 3145000   0.75139349    -6.130323    1112.1286  0.029468167  0.028626285            4 
 3146000   0.74951585   -6.1271699    1109.9616  0.029401399  0.028618255            9 
 3147000   0.75703024   -6.1308966    1111.2178  0.029425319  0.028610228            7 
 3148000   0.74618288   -6.1079386    1109.8391  0.029379476  0.028602195           16 
 3149000   0.76598622   -6.0792121    1113.2222  0.029459675  0.028594154           13 
 3150000   0.73631128   -6.1281031    1108.1168   0.02931526  0.028586142            8 
 3151000   0.73949084   -6.1108669    1114.9601  0.029486937   0.02857818           14 
 3152000   0.75288823   -6.0825969    1110.9683  0.029372048  0.028570197           12 
 3153000   0.72822282   -6.1150815    1112.2084  0.029395508  0.028562214            6 
 3154000   0.74193866   -6.1129441    1111.9761   0.02938005  0.028554186            5 
 3155000   0.75797337   -6.1096457    1114.5574  0.029438917  0.028546158            8 
 3156000    0.7348236   -6.1030214    1115.2429  0.029447688  0.028538153            5 
 3157000   0.76414336   -6.1046294    1111.4476  0.029338179  0.028530138            9 
 3158000   0.74924951   -6.0879107    1112.9688  0.029369031  0.028522101            9 
 3159000   0.75118061   -6.1107471    1113.4993  0.029373729  0.028514099           26 
 3160000   0.74499564   -6.1124365    1113.6474  0.029368339  0.028506125           10 
 3161000   0.74116811    -6.082624    1114.1672  0.029372751  0.028498176            8 
 3162000   0.72452682   -6.1010629    1115.5476  0.029399841  0.028490211            8 
 3163000    0.7456191    -6.090245    1113.3674  0.029333106  0.028482212           11 
 3164000   0.75003764    -6.095113    1113.4419  0.029325797  0.028474244           14 
 3165000   0.74991144   -6.1092305     1113.053  0.029306294  0.028466281            7 
 3166000   0.74394947   -6.1234529    1112.2908  0.029276973  0.028458242            5 
 3167000   0.73219545   -6.1197802    1115.3658  0.029348643  0.028450222            8 
 3168000   0.73635992    -6.069994    1116.9545  0.029381168  0.028442248           11 
 3169000    0.7294286    -6.092087    1112.7963  0.029262552   0.02843427           10 
 3170000   0.73819342   -6.1315221    1112.6539  0.029249576  0.028426222           10 
 3171000   0.75145971   -6.1138033    1114.0371  0.029276704   0.02841821            6 
 3172000   0.75125641   -6.1140975    1110.4863  0.029174188  0.028410213           14 
 3173000   0.75239065    -6.103169    1115.2706  0.029290644   0.02840223           12 
 3174000   0.74541572   -6.1245344    1114.8143  0.029269437  0.028394271            5 
 3175000   0.75101258    -6.113126    1117.8931  0.029341026  0.028386317           12 
 3176000   0.76035646   -6.1214658    1116.3667  0.029291738   0.02837837            7 
 3177000   0.74847793   -6.1408312    1118.0451  0.029326544  0.028370403           11 
 3178000    0.7354006   -6.1506675    1113.0364  0.029185975  0.028362402           15 
 3179000   0.72844528   -6.1137213    1114.3024  0.029209982  0.028354393            9 
 3180000    0.7296392   -6.1501692    1114.5942  0.029208444   0.02834638            6 
 3181000    0.7554412   -6.1508764    1113.5014  0.029170633  0.028338354           10 
 3182000   0.73421343   -6.1411834    1114.3001  0.029182381  0.028330313           10 
 3183000   0.74994194   -6.1345782    1114.6682  0.029182851  0.028322333            8 
 3184000   0.72940166   -6.1264935    1115.0343  0.029183269  0.028314368            9 
 3185000   0.72798144    -6.124348     1116.625  0.029215724  0.028306411            8 
 3186000   0.73602926   -6.1406902     1117.101  0.029219004  0.028298418            6 
 3187000   0.74877741   -6.1283729    1115.2313  0.029160949  0.028290476           14 
 3188000   0.74594021   -6.1025471    1113.3152  0.029101714  0.028282551           10 
 3189000   0.74636653   -6.1202549     1115.404  0.029147173  0.028274588           24 
 3190000   0.72426175   -6.0963179    1117.9225  0.029203828  0.028266623           13 
 3191000   0.73584493   -6.1262237    1114.8771  0.029115145  0.028258661            6 
 3192000   0.73903922   -6.1320974     1114.035  0.029084037  0.028250676           13 
 3193000   0.73744017   -6.1145816    1114.7806  0.029094388  0.028242756           15 
 3194000   0.75358358   -6.1155132    1116.3781  0.029126961  0.028234824            5 
 3195000    0.7326848   -6.0960138      1116.02  0.029108503  0.028226941            7 
 3196000   0.74663284   -6.1325323    1115.2521  0.029079372  0.028219007            7 
 3197000   0.72742292   -6.1065241    1113.6876  0.029029497  0.028211113           12 
 3198000    0.7353247    -6.119256      1117.73  0.029125756  0.028203182            7 
 3199000     0.734729   -6.1023124    1116.3146  0.029079779  0.028195265            7 
 3200000   0.72890381   -6.1207302    1114.3435  0.029019363  0.028187345            6 
 3201000   0.74425892   -6.1162636    1115.7029  0.029045686  0.028179427            9 
 3202000    0.7368858   -6.0926373    1119.3287  0.029130978  0.028171557           13 
 3203000   0.73239136    -6.134681    1115.9223  0.029033258  0.028163671            8 
 3204000   0.74633047   -6.1381919    1119.6625  0.029121475  0.028155738            5 
 3205000   0.73534256   -6.1302033    1114.6196   0.02898127  0.028147808            6 
 3206000   0.73387787   -6.1484786    1115.1411  0.028985784   0.02813987            8 
 3207000   0.73160723   -6.1276327    1116.4383  0.029010455  0.028131946            8 
 3208000   0.75542382   -6.1219631     1118.846  0.029063955  0.028124056            8 
 3209000   0.73897162   -6.1185416    1118.3681  0.029042487  0.028116149           19 
 3210000   0.73818789   -6.1327161    1118.0599  0.029025439  0.028108266            9 
 3211000   0.71096669   -6.1290011    1119.7442  0.029060111   0.02810032           16 
 3212000   0.73865239   -6.1172427    1117.6817  0.028997554  0.028092365           10 
 3213000   0.73563589   -6.1476099    1115.8848  0.028941923  0.028084437            7 
 3214000   0.74362466    -6.112201    1118.4497  0.028999421  0.028076506           10 
 3215000   0.73641249   -6.1458733    1117.4672  0.028964936  0.028068554            8 
 3216000   0.72326198   -6.1466108    1119.4777  0.029008025  0.028060609           12 
 3217000   0.73329063   -6.1447464    1117.7638   0.02895461  0.028052704            9 
 3218000    0.7340809   -6.1143961    1118.7266  0.028970545  0.028044812           17 
 3219000   0.73498464   -6.1365082    1116.1762  0.028895523  0.028036897           16 
 3220000   0.72373251   -6.1199447    1115.6733  0.028873532  0.028028975            6 
 3221000   0.73591532   -6.1078617     1116.174  0.028877524   0.02802108           10 
 3222000   0.74506918    -6.148768    1116.3863  0.028874051  0.028013168            7 
 3223000   0.73033745   -6.1224016    1119.9357  0.028956865  0.028005247           23 
 3224000   0.73653458   -6.1378992    1120.1048  0.028952253  0.027997316            9 
 3225000   0.71777893   -6.1437496    1115.2619  0.028818138  0.027989372           15 
 3226000   0.73860521   -6.1619565     1117.497   0.02886694  0.027981422            9 
 3227000   0.74198013   -6.1251011    1117.0463  0.028846358  0.027973511           10 
 3228000   0.73391393   -6.1516315    1120.1064  0.028916418  0.027965603            9 
 3229000   0.74535123   -6.1754225    1117.1611  0.028831453  0.027957683           21 
 3230000   0.73889132   -6.1407499    1115.0099  0.028767026   0.02794973            4 
 3231000   0.73343745   -6.1387121    1117.2126  0.028814934   0.02794179           13 
 3232000   0.74183045   -6.0870491    1119.8758  0.028874686  0.027933905           10 
 3233000   0.72918696   -6.1197839    1117.8258  0.028812913  0.027926014           10 
 3234000   0.73460881    -6.133829    1118.4696  0.028820595  0.027918105           12 
 3235000   0.71529967   -6.1510938     1115.981  0.028747578  0.027910197            9 
 3236000   0.74125477   -6.1511789    1118.8406  0.028812335  0.027902333           11 
 3237000   0.74570156   -6.1483789    1118.2993    0.0287895  0.027894475           11 
 3238000   0.73199158   -6.1585314    1116.5806  0.028736375  0.027886535            8 
 3239000   0.72916506    -6.175616    1118.0941  0.028766442  0.027878591            9 
 3240000   0.73952848   -6.1540506    1118.2779  0.028762291  0.027870699           13 
 3241000   0.73094977   -6.1234776    1118.3642  0.028755636  0.027862778           15 
 3242000   0.72950463   -6.1640602    1116.5781  0.028700857  0.027854846           20 
 3243000   0.71581913   -6.1569983    1117.5786  0.028717715   0.02784692            6 
 3244000   0.72013253   -6.1562965     1114.177  0.028621481  0.027838948           13 
 3245000   0.74032273    -6.129744    1115.2321  0.028639756  0.027830971           14 
 3246000   0.71615853   -6.1836625    1118.1971  0.028707053   0.02782302            6 
 3247000   0.73744116   -6.1638036    1116.9245   0.02866555  0.027815092           24 
 3248000   0.74195287   -6.1407775    1117.7772  0.028678601  0.027807181           11 
 3249000   0.72778253   -6.1459707    1118.4924   0.02868812  0.027799243           10 
 3250000   0.72981219   -6.1661238    1119.6837  0.028709838  0.027791331            8 
 3251000   0.74633155   -6.1500139     1117.697  0.028650081  0.027783405            8 
 3252000   0.73361644   -6.1307225    1117.3575  0.028632572  0.027775494           10 
 3253000   0.73723494   -6.1813702    1116.0486  0.028590239  0.027767598           14 
 3254000   0.73963513   -6.1514836     1120.958  0.028707181  0.027759719            6 
 3255000   0.73496995   -6.1372609    1117.8832   0.02861964  0.027751853           10 
 3256000   0.73104562   -6.1342691    1121.3021  0.028698355  0.027744031            9 
 3257000   0.72975149   -6.1348228    1119.4701  0.028642669  0.027736107            6 
 3258000    0.7248353   -6.1513798     1121.856  0.028694906  0.027728221           15 
 3259000   0.73797963   -6.1628696    1118.0148   0.02858788  0.027720311           15 
 3260000   0.73381754   -6.1587255    1118.6247  0.028594702  0.027712415           18 
 3261000   0.73865526   -6.1214946    1120.3289  0.028629482  0.027704568           14 
 3262000   0.71402145   -6.1488227    1123.3214  0.028697154  0.027696729            7 
 3263000   0.73497335   -6.1273162     1123.058  0.028681633  0.027688931           23 
 3264000   0.72660988   -6.1544582    1121.3206  0.028628488  0.027681103           19 
 3265000   0.73632432   -6.1306078    1121.4383  0.028622722  0.027673332            9 
 3266000   0.72916412   -6.1671598    1118.7258  0.028544749   0.02766552           15 
 3267000   0.71601341   -6.1550599    1120.4806  0.028580773  0.027657719            8 
 3268000   0.72304059   -6.1790663    1117.1884  0.028488076   0.02764985            7 
 3269000    0.7265193   -6.1606628    1119.7361  0.028544307   0.02764198            6 
 3270000   0.72659402   -6.1279133    1120.3109  0.028550227  0.027634093           21 
 3271000   0.72416884   -6.1694473    1123.6603   0.02862683  0.027626294           16 
 3272000   0.73940376   -6.1393063    1119.4697   0.02851135  0.027618492           29 
 3273000   0.72946175   -6.1727371    1120.8976  0.028538995  0.027610659           12 
 3274000   0.74339386    -6.151168    1123.0505  0.028585077  0.027602823            7 
 3275000   0.74001052    -6.168403    1122.7783  0.028569421  0.027595044            6 
 3276000   0.71935425   -6.1728271    1120.2031  0.028495196   0.02758725            7 
 3277000   0.73400234   -6.1612076    1122.2404  0.028538309  0.027579464            9 
 3278000    0.7278807   -6.1638483    1120.8022   0.02849304  0.027571731           16 
 3279000   0.72901597   -6.1781871    1119.9249  0.028462053  0.027563935           14 
 3280000   0.73066851   -6.1727022    1119.6082   0.02844533  0.027556144           23 
 3281000   0.72859649   -6.1288812    1122.2602  0.028504019  0.027548377           10 
 3282000   0.72858506   -6.1754142    1118.7905  0.028407235  0.027540598           10 
 3283000   0.71894344   -6.1842933     1117.453   0.02836463  0.027532791           19 
 3284000   0.73250574     -6.19425     1120.104  0.028423265  0.027524959           10 
 3285000   0.71673417   -6.1437254    1123.8407  0.028509403  0.027517124            8 
 3286000   0.72721058   -6.1722021    1122.2464  0.028460297  0.027509347           17 
 3287000    0.7295612    -6.134201    1123.1131  0.028473612  0.027501614           11 
 3288000   0.73428543    -6.149535    1123.4765  0.028474162   0.02749386           11 
 3289000   0.72138971   -6.1357017    1125.2743  0.028511055  0.027486157           10 
 3290000   0.72504881   -6.1505001    1122.7414  0.028438233  0.027478408           15 
 3291000   0.70818044   -6.1539467    1124.6965  0.028479096  0.027470625           22 
 3292000   0.74387914    -6.135857    1125.2773  0.028485147  0.027462897            8 
 3293000   0.73095158   -6.1641892    1124.7759   0.02846381  0.027455137            9 
 3294000   0.71765063   -6.1527874    1121.1212  0.028362711  0.027447332           11 
 3295000   0.73882786   -6.1514988     1125.557  0.028466287  0.027439591            7 
 3296000   0.71090869   -6.1516052    1121.6057  0.028357749  0.027431806           13 
 3297000   0.73113314     -6.16476    1120.2234  0.028314209  0.027424021           16 
 3298000   0.72756815   -6.1577801    1124.9577   0.02842525  0.027416266            9 
 3299000   0.71568068   -6.1487915    1122.0675  0.028343628  0.027408518            8 
 3300000   0.72198901   -6.1609458    1121.5964  0.028323141  0.027400782            8 
 3301000   0.73058261   -6.1619497    1123.2612  0.028356588  0.027392998           16 
 3302000   0.74592727   -6.1678047    1123.6962  0.028358978  0.027385251           15 
 3303000   0.70932918   -6.1677821    1124.7594  0.028377219  0.027377435           11 
 3304000   0.73186597   -6.1574861    1121.0168  0.028274233  0.027369669           13 
 3305000   0.73932512   -6.1880977    1123.5781   0.02833026  0.027361892            9 
 3306000   0.70517333   -6.1876569    1122.5736  0.028296371  0.027354081            7 
 3307000   0.72222167   -6.1511618      1125.24  0.028355004   0.02734629            9 
 3308000    0.7366372   -6.1660441     1123.295  0.028297437  0.027338561           15 
 3309000   0.71505781   -6.1575022    1124.0635  0.028308238   0.02733078            6 
 3310000   0.73686936   -6.1974664    1122.7338  0.028266209  0.027322992            7 
 3311000   0.71515607   -6.1863174    1121.7273  0.028232338  0.027315187           19 
 3312000   0.71457532   -6.1809131    1122.5046  0.028243371  0.027307354           18 
 3313000   0.72197794   -6.1770881    1120.3491  0.028180628  0.027299538            7 
 3314000   0.72708622   -6.1714537    1124.7579  0.028282989  0.027291769            7 
 3315000   0.72081659   -6.1880215    1121.8247  0.028200722   0.02728404           10 
 3316000   0.73628289   -6.1788959    1122.8384  0.028217691  0.027276307           12 
 3317000   0.73093059   -6.1680333    1124.8519  0.028259771  0.027268557           14 
 3318000   0.71052712   -6.1430365    1125.6309  0.028270819  0.027260834            8 
 3319000    0.7231901   -6.1898862    1121.5002  0.028158587    0.0272531           17 
 3320000   0.71868855   -6.1540854    1127.0993  0.028290644  0.027245366           12 
 3321000   0.73165462   -6.1966681    1121.9652  0.028153297  0.027237619            9 
 3322000   0.73707147   -6.1843378    1124.0945  0.028198236  0.027229804            7 
 3323000   0.70820858   -6.2196881     1121.232  0.028117966  0.027221965            8 
 3324000   0.72359015   -6.2092384    1122.8112  0.028149097  0.027214112           10 
 3325000   0.71505766   -6.1967977    1117.5691   0.02800925  0.027206305            8 
 3326000   0.72142453   -6.1895725    1122.1668  0.028116024  0.027198521           10 
 3327000   0.71718341   -6.2006598    1122.4006  0.028113431  0.027190726           15 
 3328000   0.73318131   -6.1928528    1123.7124  0.028137831  0.027182978           16 
 3329000   0.71386174   -6.2064219    1121.1707  0.028065753  0.027175213           23 
 3330000   0.73131855   -6.2066783    1122.9213  0.028101134  0.027167442            6 
 3331000   0.72166888   -6.1861597    1123.7482  0.028113384  0.027159702           10 
 3332000   0.71642935   -6.1949956    1124.0265  0.028111906   0.02715198           12 
 3333000   0.72410101    -6.193186    1121.1882  0.028032507  0.027144201           10 
 3334000   0.71710981   -6.2111931    1122.4438  0.028055483  0.027136436           17 
 3335000    0.7233349   -6.1942575    1121.9124  0.028033792  0.027128603           20 
 3336000   0.70426276   -6.1924204    1121.9076  0.028025269  0.027120826            5 
 3337000   0.73206948   -6.2055193     1121.675  0.028011063   0.02711309           11 
 3338000   0.72110543    -6.153045    1126.2186  0.028116103  0.027105418            7 
 3339000   0.71223961   -6.1750619    1127.4859   0.02813931  0.027097761            7 
 3340000   0.71988735   -6.1750657    1127.8832  0.028140799  0.027090083           11 
 3341000    0.7240067   -6.2257795    1122.7165  0.028003503  0.027082353            6 
 3342000   0.70889861   -6.1837864    1125.5168  0.028064951  0.027074613            6 
 3343000   0.70750273   -6.1869678    1125.2634  0.028050239  0.027066913            7 
 3344000    0.7208001   -6.1716555    1128.5974  0.028124936  0.027059268           26 
 3345000   0.70766988   -6.1841761    1125.3397  0.028035369   0.02705161            6 
 3346000   0.71196787   -6.1986193    1124.4329  0.028004406  0.027043903           24 
 3347000   0.71125217   -6.1790951     1128.104  0.028087441  0.027036197           26 
 3348000   0.72984531   -6.1801528    1124.3697  0.027986103  0.027028517           15 
 3349000   0.70832282   -6.1723967    1125.3487  0.028002108  0.027020813            7 
 3350000   0.69987705   -6.1906192    1123.6665  0.027951904  0.027013114            6 
 3351000    0.7030557   -6.1823804    1123.5556  0.027940804  0.027005405            9 
 3352000   0.70705855   -6.1856077    1126.8582  0.028014574  0.026997686           10 
 3353000   0.71617789   -6.1822786    1125.2949  0.027967365  0.026990008           12 
 3354000   0.71840668   -6.1502679    1128.3067  0.028033857  0.026982374            7 
 3355000   0.72058938   -6.1995348    1127.4537  0.028004315   0.02697479            5 
 3356000   0.71967464   -6.1488292    1125.4351  0.027945846   0.02696714            8 
 3357000   0.69906837   -6.2031709    1127.4977  0.027988721   0.02695947           21 
 3358000   0.70887909    -6.184093    1125.3894  0.027928067  0.026951792           18 
 3359000   0.72011018   -6.1964389     1126.094  0.027937234  0.026944117            7 
 3360000   0.70861094   -6.1795985    1128.1623  0.027980216  0.026936447            8 
 3361000   0.70658171   -6.1830803    1127.1617  0.027947081  0.026928776           11 
 3362000   0.71801045   -6.2052219    1123.3473  0.027844222   0.02692111            8 
 3363000   0.69680569   -6.1777502    1125.7797  0.027896215  0.026913507            8 
 3364000   0.72089663   -6.1589868    1127.4735  0.027929882  0.026905862           17 
 3365000   0.72228044   -6.1650297     1128.363  0.027943611  0.026898221            6 
 3366000   0.70980706    -6.210708    1123.4126  0.027812751  0.026890537            4 
 3367000   0.72900057   -6.1821969    1127.5309  0.027906416  0.026882878            7 
 3368000   0.70564086   -6.1839441    1126.9984  0.027884956  0.026875248           10 
 3369000   0.71347608   -6.1748897    1124.8966  0.027824691  0.026867608            8 
 3370000   0.71507386   -6.1618525    1130.3984  0.027952482  0.026860007            9 
 3371000   0.71295482   -6.1833227    1127.0431  0.027861246  0.026852367            8 
 3372000    0.7144983   -6.2050801    1127.4432   0.02786287  0.026844747           11 
 3373000   0.70401209    -6.201322    1124.2142  0.027774834  0.026837121            7 
 3374000   0.68637447   -6.1976443    1126.2161  0.027816047  0.026829481            9 
 3375000    0.7071764   -6.1630873    1125.7788  0.027797006  0.026821849           16 
 3376000   0.69691583   -6.1806573    1125.7897  0.027789044  0.026814206            5 
 3377000   0.73028713   -6.1730677    1129.9065  0.027882402   0.02680654           19 
 3378000   0.70637242   -6.1873185    1128.2101  0.027832299  0.026798916            9 
 3379000   0.70508353   -6.2067311    1128.2741  0.027825642   0.02679129           13 
 3380000   0.70974172    -6.186389    1126.1396  0.027764783  0.026783636           10 
 3381000   0.70240566   -6.1646666    1129.7352  0.027845194  0.026776008           12 
 3382000   0.72265677   -6.1970393    1127.1763  0.027773908  0.026768365           12 
 3383000   0.70850068     -6.20027    1130.1315  0.027838493   0.02676074           16 
 3384000   0.70012876   -6.2098164    1127.4203  0.027763501  0.026753139           11 
 3385000   0.68403521   -6.2134255    1128.8027  0.027789334   0.02674549           10 
 3386000   0.72868878   -6.1993808    1128.5658  0.027775294  0.026737835           12 
 3387000   0.72703623   -6.2258011    1124.4959  0.027666958  0.026730193            7 
 3388000   0.71817913    -6.185804    1128.4447   0.02775592   0.02672261            7 
 3389000   0.72692187   -6.2033507    1129.3003   0.02776877  0.026715034           28 
 3390000   0.69884407   -6.2114925    1127.9337  0.027726984  0.026707404           13 
 3391000    0.7009667    -6.169196    1130.8197  0.027789729  0.026699836            5 
 3392000   0.72017288   -6.2066904    1129.2025  0.027741807  0.026692245            7 
 3393000   0.70129699   -6.1666944    1130.8454   0.02777398   0.02668471            7 
 3394000   0.71832653    -6.195176    1127.8001  0.027691027  0.026677147            8 
 3395000   0.71368961   -6.2104811    1127.6408  0.027678958  0.026669561           26 
 3396000   0.71666112   -6.2115756     1127.428  0.027665586  0.026661994           13 
 3397000    0.7144552   -6.1941088     1130.635  0.027736114  0.026654445           27 
 3398000   0.71815551   -6.2138408    1132.7283   0.02777929  0.026646939           18 
 3399000   0.70063513   -6.1867301    1131.8736  0.027750162   0.02663944            8 
 3400000   0.70768831   -6.2214403    1129.2502  0.027677702  0.026631913            6 
 3401000    0.7049071   -6.2348246    1128.9898  0.027663182  0.026624369            8 
 3402000    0.6997362   -6.2032223    1128.1874  0.027635396  0.026616837           11 
 3403000   0.68604462   -6.1976868    1133.2748  0.027751857  0.026609289           15 
 3404000   0.68660672   -6.1840742    1130.8822   0.02768513  0.026601794            9 
 3405000   0.73281819   -6.2235246    1132.4118  0.027714436  0.026594283            7 
 3406000    0.7075145   -6.2131357    1131.1053  0.027674331  0.026586816            7 
 3407000   0.72076705   -6.2239563     1129.744  0.027632914  0.026579306           10 
 3408000   0.71315249   -6.2091315    1131.0868  0.027657638  0.026571837           26 
 3409000   0.72161069   -6.2041968    1131.9828  0.027671429  0.026564364            9 
 3410000   0.69578599   -6.2037325    1129.9218  0.027612946  0.026556924           11 
 3411000   0.70038987   -6.2058052    1130.1005  0.027609217  0.026549467           22 
 3412000   0.69283478   -6.2246574    1128.4498   0.02756081  0.026541949           10 
 3413000   0.70493437   -6.2255743    1131.0469  0.027616146  0.026534463           15 
 3414000   0.71349765   -6.2243665    1128.7312  0.027551534   0.02652697            9 
 3415000   0.69356148   -6.2509526    1128.8889  0.027547314  0.026519488           19 
 3416000   0.71328786   -6.2251826    1129.0818  0.027543954  0.026511979            8 
 3417000   0.70073463   -6.2208429    1132.2128  0.027612253  0.026504495           12 
 3418000   0.68824203   -6.2031763    1132.0179  0.027599423  0.026497018            9 
 3419000   0.69335909   -6.2155688    1131.3997  0.027576283  0.026489517           10 
 3420000   0.71192145   -6.2323916    1130.7479  0.027552336  0.026482019           11 
 3421000   0.71103449   -6.2188076    1132.4376  0.027585443  0.026474522           14 
 3422000   0.71254742   -6.2055214    1131.0415  0.027543385  0.026467068           11 
 3423000   0.70279861   -6.2052523    1131.8879  0.027555942   0.02645967           11 
 3424000   0.70584261   -6.2414858    1130.0589  0.027503381  0.026452248           11 
 3425000   0.71713824   -6.2170452    1131.9207  0.027540649   0.02644478           21 
 3426000   0.70240127    -6.211502    1128.2377  0.027443026  0.026437297            9 
 3427000   0.71131388    -6.221578    1133.8522  0.027571544  0.026429808           12 
 3428000   0.70642366   -6.2189434    1130.8257  0.027489929  0.026422324           10 
 3429000   0.70208124   -6.2416558    1131.0533  0.027487442  0.026414868           32 
 3430000   0.68334646   -6.2147668    1133.3293  0.027534725  0.026407422            8 
 3431000   0.69822327   -6.2545312    1132.1821  0.027498837  0.026399999            9 
 3432000   0.70281976   -6.2283082    1132.8692  0.027507507  0.026392562           18 
 3433000   0.69053988   -6.2093332    1134.0664  0.027528557  0.026385141           12 
 3434000   0.70418938   -6.2348573    1130.5177  0.027434422  0.026377689           10 
 3435000   0.69032984   -6.2131132    1133.2153  0.027491881   0.02637026            8 
 3436000   0.70027281   -6.2243001    1135.9552  0.027550329  0.026362804            9 
 3437000   0.70372732   -6.2320997    1133.8379  0.027490979  0.026355379           14 
 3438000    0.6942917    -6.249578     1130.165  0.027393954  0.026347923           17 
 3439000   0.70982841   -6.2216619    1128.6133  0.027348388  0.026340465           10 
 3440000   0.70480034   -6.2689129    1128.9115  0.027347663  0.026332949           16 
 3441000   0.70086957    -6.266173    1128.6824  0.027334165  0.026325438           18 
 3442000    0.7132318   -6.2449609    1128.5841  0.027323844  0.026317917           30 
 3443000   0.69071298   -6.2198094    1134.1649  0.027450985  0.026310419            7 
 3444000   0.70683673   -6.2391335    1133.6688  0.027431009  0.026302969            8 
 3445000   0.71086095   -6.2310258    1131.9131  0.027380577  0.026295522           18 
 3446000   0.71034634   -6.2290501    1130.7786  0.027345197  0.026288103           15 
 3447000   0.71273169   -6.2201983    1134.4218   0.02742534  0.026280706            8 
 3448000   0.69113087   -6.2339237    1134.7041  0.027424209  0.026273308           15 
 3449000   0.70251604   -6.2229536     1132.391  0.027360369  0.026265933           10 
 3450000   0.70737497   -6.2401764    1133.1338  0.027370381  0.026258529           10 
 3451000   0.68744635   -6.2300344    1135.2677  0.027413979  0.026251105           15 
 3452000   0.69200126   -6.2228443    1134.6659  0.027391509  0.026243742           11 
 3453000   0.70902974   -6.2111078    1131.2288  0.027300628  0.026236368            7 
 3454000   0.69020319   -6.2491674    1134.2337  0.027365221  0.026229008           18 
 3455000   0.71102653   -6.2487137    1136.2167   0.02740513  0.026221662           13 
 3456000   0.69721482   -6.2663763    1135.5908  0.027382107  0.026214289           13 
 3457000    0.7046734   -6.2459821    1131.3832   0.02727276  0.026206907           25 
 3458000   0.69794445    -6.266163    1132.9831   0.02730343   0.02619954           20 
 3459000   0.70355045   -6.2436313    1133.6305  0.027311132  0.026192179           14 
 3460000   0.70613702   -6.2348848    1136.1061  0.027362865  0.026184855            6 
 3461000   0.71086055   -6.2297368    1136.6667  0.027368456  0.026177522            5 
 3462000   0.69099332   -6.2140978    1139.6612  0.027432631  0.026170236            8 
 3463000   0.68897528   -6.2239894    1135.0401  0.027313506  0.026162951            7 
 3464000   0.69934886   -6.2039797    1137.3961  0.027362301  0.026155674            8 
 3465000   0.70140746   -6.2314304    1135.6192   0.02731167  0.026148364           11 
 3466000   0.68953434   -6.2229815    1133.9711  0.027264164  0.026141034           16 
 3467000   0.70575261    -6.199545    1135.6761  0.027297281  0.026133768           11 
 3468000   0.68135012   -6.2283397    1136.0644   0.02729874  0.026126479           11 
 3469000   0.69295727   -6.2193067    1136.7607  0.027307598  0.026119194           14 
 3470000   0.69190201   -6.2332793    1136.6647  0.027297423  0.026111912            8 
 3471000   0.68869094   -6.2591189    1133.0925  0.027203796  0.026104616            9 
 3472000   0.69758884   -6.2659779    1134.3467  0.027226064  0.026097273           10 
 3473000   0.69750184   -6.2383324    1133.8288  0.027205798  0.026089932           14 
 3474000   0.68167326   -6.2515476    1132.4537   0.02716498  0.026082578           12 
 3475000   0.70125382   -6.2535452    1134.8452  0.027214512  0.026075229           30 
 3476000   0.69775009   -6.2546627    1136.6411  0.027249739  0.026067861           28 
 3477000   0.68185862   -6.2386935    1134.7218  0.027195902  0.026060507           18 
 3478000   0.70282669   -6.2504032     1133.187  0.027151309  0.026053152           17 
 3479000   0.68198215   -6.2449987    1134.0865   0.02716505   0.02604581           12 
 3480000   0.70412364   -6.2389038    1137.4284  0.027237271  0.026038488            8 
 3481000   0.70189316   -6.2700879    1134.9986  0.027171277  0.026031177           17 
 3482000   0.67474367   -6.2674388    1132.1935  0.027096341  0.026023804            8 
 3483000   0.69458955   -6.2773148     1136.112  0.027182313  0.026016434           11 
 3484000    0.7220627   -6.2494297    1135.9439  0.027170492  0.026009111           21 
 3485000   0.68596516   -6.2284627    1135.8275  0.027159911  0.026001799           13 
 3486000   0.68981575   -6.2639379    1135.8395  0.027152407   0.02599452           23 
 3487000   0.70178045   -6.2522694    1138.5835  0.027210197  0.025987232           12 
 3488000   0.71449118   -6.2596388    1134.0566  0.027094242  0.025979946           13 
 3489000   0.69188547   -6.2650704    1135.2544  0.027115086  0.025972666           14 
 3490000   0.69898343   -6.2281548    1136.3824   0.02713425  0.025965415           19 
 3491000   0.70400356   -6.2350751    1137.1011  0.027143634  0.025958176           20 
 3492000   0.69451518   -6.2554715    1137.2249  0.027138815  0.025950892           11 
 3493000    0.6809572   -6.2528729    1136.0498   0.02710301  0.025943583           19 
 3494000   0.68478554   -6.2626408    1137.1214  0.027120811  0.025936271           27 
 3495000   0.68907528   -6.2480368    1135.7549  0.027080469  0.025928958           12 
 3496000    0.6806431   -6.2669034    1135.6368  0.027069909  0.025921632           16 
 3497000   0.70049226    -6.261364    1135.1152  0.027049738  0.025914318           12 
 3498000   0.71453973   -6.2255723    1135.6781  0.027055415  0.025907012           13 
 3499000   0.69527865   -6.2260976    1135.8511  0.027051804  0.025899687           13 
 3500000   0.69802793   -6.2508673    1134.9596  0.027022848  0.025892369           14 
 3501000   0.68076287   -6.2355351     1134.055  0.026993596  0.025885065            9 
 3502000   0.69099568   -6.2499086    1135.8378  0.027028313  0.025877724           13 
 3503000     0.694878   -6.2357849    1135.7384  0.027018231  0.025870413           45 
 3504000   0.68410332   -6.2226723    1136.4503  0.027027451  0.025863141            6 
 3505000   0.68676152    -6.210285    1139.7403  0.027097961   0.02585591            8 
 3506000   0.67904235   -6.2419591    1135.0841  0.026979561   0.02584872           25 
 3507000   0.69303454   -6.2121737    1140.2074  0.027093609  0.025841503           11 
 3508000   0.69245115   -6.2395148    1133.5898  0.026928682  0.025834268            7 
 3509000   0.69130881   -6.2526772    1138.4772  0.027037076   0.02582699           10 
 3510000   0.68340517   -6.2290213    1136.4195   0.02698052  0.025819697            8 
 3511000   0.68361512   -6.2645644    1134.8806  0.026936311  0.025812417           12 
 3512000   0.69590191   -6.2636375    1137.3106  0.026986299   0.02580514           15 
 3513000   0.69727882   -6.2508061    1136.5306  0.026960114  0.025797893           14 
 3514000   0.68549848   -6.2483791    1136.5629  0.026953208  0.025790666           18 
 3515000   0.68813094   -6.2402643    1139.5327  0.027015949  0.025783412            7 
 3516000   0.69252452   -6.2628022    1137.1004  0.026950617  0.025776152           13 
 3517000   0.68826709   -6.2552134    1137.3827  0.026949642  0.025768865           22 
 3518000   0.68862496   -6.2423725    1135.7361  0.026902977  0.025761547           10 
 3519000   0.70837249   -6.2615094    1135.0907  0.026880049   0.02575426           10 
 3520000   0.69643382   -6.2505996    1139.6246   0.02697975  0.025746963           11 
 3521000   0.69169769   -6.2807033    1132.4004  0.026801108  0.025739631           15 
 3522000   0.70540739   -6.2674903    1136.8628  0.026899081  0.025732306           19 
 3523000   0.69132413   -6.2588626    1136.9951  0.026894577  0.025725004           12 
 3524000   0.68495861   -6.2478172    1137.6023  0.026901302  0.025717663           37 
 3525000   0.69537317   -6.2544823    1138.4545  0.026913819  0.025710382            9 
 3526000   0.67909021   -6.2712342    1132.9677   0.02677651  0.025703098           32 
 3527000   0.67847213   -6.2643358     1133.271  0.026776084  0.025695761           17 
 3528000    0.7004136   -6.2581325    1134.0277  0.026786369  0.025688408            7 
 3529000   0.69757127   -6.2602696    1136.8118  0.026844521  0.025681082           14 
 3530000    0.6802563   -6.2922811    1135.4614  0.026805037  0.025673762           19 
 3531000   0.68520412   -6.2594254    1138.0641  0.026858872  0.025666452           19 
 3532000   0.66659949   -6.2734818    1135.3013  0.026786081  0.025659135           15 
 3533000   0.69259358   -6.2602048    1135.9777  0.026794455  0.025651824           21 
 3534000   0.68935842   -6.2579322     1136.395  0.026796714  0.025644558           16 
 3535000   0.68656023   -6.2566327    1135.5719   0.02676973  0.025637278           25 
 3536000   0.67628233   -6.2741565    1137.2855  0.026802542  0.025629973            8 
 3537000   0.67983269   -6.2810185    1134.9237   0.02673932  0.025622669           29 
 3538000   0.67498238   -6.2579866    1133.9408   0.02670861  0.025615365           22 
 3539000   0.68170185   -6.2779033    1133.3239  0.026686539  0.025608054            8 
 3540000   0.68085372   -6.2838963    1134.2261  0.026700237  0.025600754           21 
 3541000   0.68878914   -6.2780862    1135.2593  0.026717014  0.025593454           12 
 3542000   0.69806843   -6.2792156    1135.8018  0.026722232  0.025586153           12 
 3543000   0.67148569   -6.2480015    1135.6354  0.026710776  0.025578871           16 
 3544000   0.69124077   -6.2702172    1137.1192   0.02673813  0.025571578           16 
 3545000   0.70415777    -6.291492    1136.9853   0.02672744  0.025564272           17 
 3546000   0.67654017   -6.2723448    1135.6793  0.026689212  0.025556988           26 
 3547000   0.68098006   -6.2569357    1136.5384  0.026701869  0.025549681           13 
 3548000    0.6781998   -6.2512727    1138.0559  0.026729986  0.025542381            9 
 3549000   0.68724592   -6.2868578    1135.6702  0.026666436  0.025535086           12 
 3550000   0.67555758   -6.2532222    1137.4714  0.026701206  0.025527793           25 
 3551000   0.69074469   -6.2834361    1134.3295  0.026619955  0.025520487           26 
 3552000   0.68282821   -6.2566819    1135.6497  0.026643432  0.025513198           26 
 3553000   0.67269503   -6.2666163    1135.8157  0.026639829  0.025505887           16 
 3554000   0.67854347   -6.2598309    1137.1152  0.026662804  0.025498602           23 
 3555000   0.68999553   -6.2528914    1136.5118  0.026641157  0.025491326           17 
 3556000     0.681295   -6.2550904    1135.4311  0.026608341  0.025484044           21 
 3557000   0.68362904   -6.2709664    1138.3657  0.026669612  0.025476722            8 
 3558000   0.68806437   -6.2604407    1136.2162  0.026611772  0.025469421           24 
 3559000   0.68433778   -6.2870082    1136.6145  0.026613621  0.025462103           22 
 3560000   0.67274163   -6.2833287    1134.7253  0.026561922    0.0254548           10 
 3561000   0.68516301   -6.2761754    1134.2905  0.026544289  0.025447478           15 
 3562000   0.67537745    -6.289616      1134.45  0.026540567  0.025440143           20 
 3563000   0.67425283    -6.255942    1136.6683  0.026585001  0.025432857           14 
 3564000   0.67839981   -6.2634214    1133.8463  0.026511558  0.025425563           28 
 3565000   0.69259547   -6.2884788    1136.8083  0.026573358  0.025418277           13 
 3566000    0.6824012   -6.2763323    1138.0131  0.026594063  0.025410991            7 
 3567000   0.69284919   -6.3084247    1135.4228  0.026526091  0.025403672           12 
 3568000   0.69643521   -6.2565786     1136.199  0.026536784  0.025396375            9 
 3569000    0.6799787   -6.2813957    1135.5092  0.026513243   0.02538909           11 
 3570000    0.6720498   -6.2858155    1133.3528   0.02645548  0.025381813           31 
 3571000   0.68682386   -6.2823304    1138.4916  0.026567993  0.025374545           11 
 3572000    0.6628496   -6.2671028    1137.2928  0.026532587  0.025367306           10 
 3573000   0.68110429   -6.3061453    1136.5127  0.026506967  0.025360051           15 
 3574000   0.68760829   -6.2805492    1137.8625  0.026531022  0.025352758            9 
 3575000    0.6691664   -6.2877747    1137.2821  0.026510071  0.025345491           13 
 3576000   0.68697208   -6.2717482    1137.5748   0.02650948  0.025338223            7 
 3577000   0.67098586   -6.2885941    1134.8103  0.026437665  0.025330925           17 
 3578000   0.67804682   -6.2785945    1139.1273  0.026530821  0.025323638           68 
 3579000   0.67588885   -6.2804207    1138.4261  0.026507081  0.025316335           30 
 3580000   0.67206965   -6.2934257    1134.4503  0.026407131  0.025309027           12 
 3581000   0.67055739   -6.2807832    1137.5077  0.026470904   0.02530172           14 
 3582000   0.68754376   -6.2634056    1140.0085  0.026521694  0.025294459           15 
 3583000   0.66535328   -6.2891734    1137.6598  0.026459666  0.025287208            7 
 3584000   0.66585097   -6.2663182     1139.959  0.026505743  0.025279945           11 
 3585000   0.68759945   -6.3089913    1136.3253  0.026413885  0.025272696            6 
 3586000   0.68412556   -6.2885598    1136.4423  0.026409238  0.025265443            6 
 3587000   0.68086293   -6.2756798    1135.9113  0.026389538   0.02525818            8 
 3588000   0.68493794   -6.2581315    1137.8927  0.026428202  0.025250962           14 
 3589000   0.68249992    -6.297309     1138.649    0.0264384  0.025243727           10 
 3590000   0.68077888   -6.3006415    1135.4302  0.026356318  0.025236467           12 
 3591000   0.68080829   -6.2994827    1135.9586   0.02636124  0.025229188           20 
 3592000   0.66433981   -6.2792629    1137.5827  0.026391581  0.025221926           24 
 3593000   0.66518439   -6.2852729    1135.0627  0.026325788  0.025214655            9 
 3594000    0.6841677   -6.3097615    1136.5223  0.026352308  0.025207388           16 
 3595000   0.67291813    -6.271177    1138.9414  0.026401053   0.02520014           33 
 3596000     0.674528   -6.2957614    1137.6488  0.026363757  0.025192914           10 
 3597000   0.67558607   -6.3054713    1135.3911  0.026304121  0.025185654           39 
 3598000   0.66085878   -6.2838342    1137.6815  0.026349858  0.025178413           44 
 3599000   0.66851276   -6.3031968    1137.2697  0.026333003  0.025171165           10 
 3600000   0.68973191   -6.3360578    1135.2248  0.026278352  0.025163902           15 
 3601000   0.67609729   -6.3059474    1133.2664  0.026225733  0.025156632           15 
 3602000   0.68234753   -6.3173334    1137.4154  0.026314442  0.025149383           11 
 3603000   0.66809972   -6.3094952    1133.9134  0.026226141  0.025142138           17 
 3604000   0.67708842   -6.3163211    1135.9904  0.026266889  0.025134886           18 
 3605000    0.6703957   -6.3152515    1138.0215  0.026306553  0.025127688           11 
 3606000   0.67489512   -6.3271219    1136.5556  0.026265381  0.025120478            6 
 3607000   0.68256404   -6.3006669    1136.4032  0.026254578  0.025113265           27 
 3608000   0.66941708    -6.307788    1139.2262  0.026312506  0.025106054            9 
 3609000   0.66610256   -6.3058207    1138.0782  0.026278706  0.025098801           10 
 3610000   0.66783726   -6.3036104    1135.1895  0.026204745   0.02509159            8 
 3611000   0.67417679   -6.2841315    1139.7355  0.026302397  0.025084379           21 
 3612000   0.67452812   -6.2882922    1139.7815  0.026296178   0.02507719            8 
 3613000   0.66250506   -6.2992421    1137.2291  0.026230029  0.025069978           13 
 3614000   0.67373279   -6.2900611    1135.0327  0.026172125  0.025062772           15 
 3615000   0.66844833   -6.2862838     1137.812  0.026228954  0.025055574           19 
 3616000   0.65945341   -6.3081712    1135.6766  0.026172487  0.025048349           10 
 3617000   0.67564755   -6.2865655    1137.4927  0.026207094  0.025041124            7 
 3618000   0.66909632   -6.2952248     1139.802  0.026253039  0.025033964           16 
 3619000   0.67000924   -6.3012315      1139.63  0.026241825  0.025026771           16 
 3620000   0.66059566    -6.277366    1140.7331  0.026259969  0.025019562           10 
 3621000   0.67232693   -6.2957814    1137.1286  0.026169765  0.025012357            9 
 3622000   0.67797924   -6.3083125    1136.8628  0.026156424  0.025005128           10 
 3623000   0.66545656   -6.2586612    1140.3375  0.026229127  0.024997921            9 
 3624000   0.66831228   -6.3122042    1139.6592  0.026206292  0.024990733           13 
 3625000   0.66111326   -6.2863261    1138.0853   0.02616288   0.02498355           15 
 3626000   0.67069099   -6.3002797    1138.0351  0.026154511  0.024976305           17 
 3627000   0.68242335   -6.2959602    1138.5078  0.026158162  0.024969108           12 
 3628000    0.6666012   -6.2947547    1139.4708  0.026173071  0.024961891           23 
 3629000   0.66663066    -6.322564    1134.0144  0.026040561  0.024954654           15 
 3630000   0.65621237   -6.3111996    1136.7661  0.026096559  0.024947421           18 
 3631000   0.67052886   -6.3064256    1138.4981  0.026129121  0.024940189           31 
 3632000   0.66317152   -6.3234288    1134.6901  0.026034557  0.024932946           14 
 3633000   0.67596556   -6.2997346    1136.1184  0.026060153  0.024925718           10 
 3634000   0.67876817   -6.3003291    1137.9327  0.026094585  0.024918534           28 
 3635000   0.67889133   -6.2959118    1140.6709  0.026150181  0.024911377           14 
 3636000   0.66931019    -6.296504    1137.0646  0.026060337  0.024904239           13 
 3637000   0.68527052   -6.3025394    1137.2726  0.026057938  0.024897054           13 
 3638000   0.66242797   -6.2868386    1139.2232  0.026095455  0.024889906           13 
 3639000   0.66825354   -6.2978705    1139.3034  0.026090122   0.02488277           17 
 3640000   0.66503109   -6.3208823     1138.626  0.026067446  0.024875591           11 
 3641000   0.68236497   -6.3066383    1138.1107  0.026048492  0.024868411           15 
 3642000   0.66894911   -6.3209243    1138.0691  0.026040388  0.024861229           11 
 3643000   0.66757733   -6.2979355    1136.8116  0.026004474  0.024854067           10 
 3644000   0.67088402   -6.3282318    1135.7762  0.025973659  0.024846868           11 
 3645000   0.66584441   -6.3251587      1134.76  0.025943301  0.024839669           13 
 3646000   0.67674654   -6.3094281    1138.6281  0.026024595   0.02483247           11 
 3647000   0.67759602   -6.3126691    1137.8127  0.025998829  0.024825295           20 
 3648000     0.655553   -6.3372884    1139.2164  0.026023767  0.024818107            9 
 3649000   0.66842815   -6.3087008    1137.5386  0.025978318  0.024810948            7 
 3650000   0.65767142   -6.2909791    1140.1876  0.026031679  0.024803842           19 
 3651000   0.65822269   -6.3201709    1140.4638  0.026030855  0.024796733           16 
 3652000   0.67688361   -6.2903506    1140.4321  0.026023003  0.024789636           10 
 3653000    0.6784914   -6.3208975    1141.9862  0.026051332   0.02478254           25 
 3654000   0.66454587   -6.3203934    1139.3134  0.025983246  0.024775445           15 
 3655000   0.65346474   -6.3199997    1140.6015  0.026005506  0.024768363           30 
 3656000   0.67718533   -6.3256991    1139.2618  0.025967857  0.024761276           26 
 3657000   0.66344857   -6.3176091    1141.4669  0.026011005  0.024754181           17 
 3658000   0.66387905   -6.3190076    1138.8382   0.02594401  0.024747057           16 
 3659000   0.66422225   -6.3182948    1141.9583  0.026007977  0.024739973           10 
 3660000   0.68749544   -6.3154509    1141.5219  0.025990936  0.024732873           20 
 3661000   0.67017199   -6.3287982    1137.6586  0.025895899  0.024725785           12 
 3662000   0.66679775   -6.3090686    1143.2085   0.02601512  0.024718708           16 
 3663000    0.6576281   -6.3114079    1141.7993  0.025975961  0.024711637           14 
 3664000   0.65430449   -6.3094426     1141.807  0.025969045  0.024704589           10 
 3665000   0.65204569   -6.3171657    1138.6527  0.025890238  0.024697523           12 
 3666000   0.65243371   -6.3421896    1142.4419  0.025969311  0.024690435           10 
 3667000   0.66152764   -6.3314831    1139.8187  0.025902615  0.024683313           11 
 3668000   0.65147693   -6.3305796    1141.2477   0.02592802  0.024676207           18 
 3669000   0.68287414   -6.3394498     1139.849  0.025889185  0.024669113           19 
 3670000   0.66097333   -6.3313492    1139.6855  0.025878417  0.024662014           21 
 3671000   0.66600309   -6.3087359    1139.4194  0.025865327  0.024654934           12 
 3672000    0.6562428   -6.3122364    1142.1234  0.025919648  0.024647841           21 
 3673000   0.65059057   -6.3378006    1140.1292  0.025867347  0.024640721           34 
 3674000   0.65726476   -6.3158964    1138.8999  0.025832424  0.024633615           27 
 3675000   0.67512748   -6.3213834    1139.1289  0.025830588   0.02462655           37 
 3676000   0.66894896   -6.3322583    1140.9381  0.025864575  0.024619485           18 
 3677000   0.65462715   -6.3161208    1141.5486  0.025871376  0.024612387           19 
 3678000    0.6647258     -6.34398     1140.564  0.025842034  0.024605295           23 
 3679000    0.6810155   -6.3088157    1140.7657  0.025839577  0.024598215           16 
 3680000   0.66459676   -6.3088677    1143.9645  0.025904994  0.024591177           15 
 3681000   0.65909456   -6.3007436    1140.7392  0.025824938  0.024584148           30 
 3682000   0.67612258   -6.3447817    1139.7761  0.025796128  0.024577082           24 
 3683000   0.67313978   -6.3187794    1140.6677  0.025809296  0.024569995           18 
 3684000   0.66640073   -6.3413144    1138.4763  0.025752721  0.024562916            7 
 3685000   0.66645393   -6.3449286    1143.6028  0.025861665  0.024555812           42 
 3686000   0.66238036   -6.3702544     1137.542  0.025717625  0.024548701           33 
 3687000   0.67139881   -6.3381535    1143.5632  0.025846742  0.024541613           17 
 3688000   0.65604458   -6.3159097    1140.2234  0.025764266  0.024534524           15 
 3689000   0.65219547   -6.3326154    1139.3178  0.025736826  0.024527429           11 
 3690000   0.67064836    -6.315049    1141.3596  0.025775963  0.024520363           17 
 3691000   0.66375371   -6.3247473    1141.6923  0.025776491  0.024513318           14 
 3692000   0.65913443   -6.3348433    1140.8807  0.025751191  0.024506246           28 
 3693000   0.65937381     -6.33608     1139.395  0.025710691   0.02449917           14 
 3694000    0.6690071   -6.3458896    1137.2257  0.025654794  0.024492088            8 
 3695000   0.67152739   -6.3508325    1141.4452  0.025743014   0.02448503           18 
 3696000   0.66882896   -6.3171991    1138.7018  0.025674194  0.024478003           11 
 3697000   0.65991856   -6.3553977    1143.4916  0.025775214  0.024470923           16 
 3698000   0.65960072   -6.3533112    1139.3538     0.025675  0.024463884           22 
 3699000   0.66087249   -6.3414358    1142.1013  0.025729957  0.024456853           46 
 3700000   0.65372038   -6.3088521    1142.6032  0.025734305  0.024449809           20 
 3701000   0.66398312   -6.3471442    1141.3226  0.025698518  0.024442728           12 
 3702000   0.66161105   -6.3200648    1142.3285  0.025714219  0.024435659           27 
 3703000   0.65156398   -6.3123748     1140.573   0.02566777  0.024428615           20 
 3704000   0.65117623    -6.348471     1140.123  0.025650716  0.024421552           10 
 3705000   0.65219078   -6.3368199    1139.5696  0.025631344  0.024414507           18 
 3706000   0.65520049   -6.3285694    1140.7964  0.025652014  0.024407491           24 
 3707000   0.65931733   -6.3314854    1140.3416  0.025634871  0.024400469           33 
 3708000   0.66374038   -6.3366567     1140.558  0.025632821  0.024393443           16 
 3709000    0.6673591   -6.3287696    1141.7936  0.025653671  0.024386411           17 
 3710000   0.66253039   -6.3581876    1141.3192    0.0256361  0.024379402           37 
 3711000   0.64420904   -6.3338124    1141.1994  0.025626503  0.024372364           21 
 3712000   0.65959023   -6.3290746    1140.8391  0.025611509  0.024365353           26 
 3713000   0.66256142   -6.3460077    1141.2735  0.025614362  0.024358341           13 
 3714000   0.64654043   -6.3396636     1139.295  0.025563072  0.024351351           20 
 3715000   0.65327603   -6.3461026    1139.9596    0.0255711  0.024344343           28 
 3716000   0.64073137   -6.3434147    1145.3064  0.025684123  0.024337334           31 
 3717000   0.64756422   -6.3043565    1144.6347  0.025662153  0.024330361           29 
 3718000   0.65694017   -6.3286354    1140.1946  0.025555733  0.024323381           21 
 3719000   0.65089473   -6.3345439    1142.4746   0.02559995    0.0243164           16 
 3720000   0.66119044   -6.3093796    1142.8837  0.025602234  0.024309432           16 
 3721000   0.65920323     -6.34424     1141.376  0.025561587  0.024302437           17 
 3722000   0.65297086   -6.3195395    1141.8076  0.025564383  0.024295487           16 
 3723000   0.66533802   -6.3222833     1142.343  0.025569501  0.024288546           21 
 3724000   0.66103778   -6.3480276    1143.4501  0.025587408  0.024281543           20 
 3725000   0.64977265   -6.3339398    1143.2331  0.025575685  0.024274553           16 
 3726000    0.6479467   -6.3249007     1142.386  0.025549875  0.024267565           11 
 3727000   0.64786167   -6.3407931    1142.3615  0.025542472  0.024260577           13 
 3728000     0.653858   -6.3321988      1140.33   0.02549021  0.024253583           21 
 3729000   0.65785784   -6.3522173    1140.3705  0.025484279  0.024246574           22 
 3730000   0.64758674   -6.3744569    1142.3395  0.025521437  0.024239568           10 
 3731000   0.65073215   -6.3439163    1143.4301  0.025538955  0.024232557           13 
 3732000   0.65847916   -6.3438462    1144.1431  0.025548032   0.02422556           13 
 3733000   0.65066253   -6.3311765    1142.4442  0.025503263   0.02421857           13 
 3734000   0.66980501   -6.3654222    1140.8032  0.025459812  0.024211562           16 
 3735000   0.65576586   -6.3445447    1142.8458  0.025498568  0.024204558            9 
 3736000   0.65851569   -6.3585748    1141.6666   0.02546544  0.024197564           11 
 3737000   0.65317337   -6.3624746      1140.42  0.025430827  0.024190562           10 
 3738000   0.64653884    -6.360006    1141.0064  0.025437097  0.024183565           21 
 3739000   0.65396501   -6.3418021    1142.4249  0.025461909  0.024176597           11 
 3740000   0.64069865   -6.3688529    1141.5902  0.025436502   0.02416962           23 
 3741000    0.6625983   -6.3782045    1139.6842  0.025387244  0.024162636           12 
 3742000   0.65778863   -6.3586762    1142.1785  0.025436008  0.024155654           14 
 3743000    0.6456486   -6.3649955    1138.8705  0.025355563  0.024148689           10 
 3744000   0.63666318   -6.3672832    1141.1336  0.025399163  0.024141727           19 
 3745000    0.6493639   -6.3453551    1139.6048  0.025358363  0.024134751           28 
 3746000   0.65887127   -6.3670873    1140.5724  0.025373117  0.024127774           12 
 3747000   0.65088328   -6.3479636    1142.4601  0.025408329  0.024120808           22 
 3748000   0.63442394   -6.3365002    1141.4657  0.025379439  0.024113837           15 
 3749000   0.65402877   -6.3501751    1141.7011  0.025377902  0.024106871            8 
 3750000   0.65663163    -6.369889    1142.1533  0.025381185  0.024099919           13 
 3751000   0.64662782   -6.3285346    1144.0296  0.025416103  0.024092992           25 
 3752000   0.64981217   -6.3412479     1144.662  0.025423374   0.02408606           13 
 3753000   0.66654574   -6.3555389    1143.7691  0.025396773   0.02407913           15 
 3754000   0.65707502   -6.3462363    1143.5286  0.025384669  0.024072193           12 
 3755000   0.65439125   -6.3596415    1144.2737  0.025394446  0.024065281           18 
 3756000   0.64691339   -6.3360798    1141.3986  0.025323896  0.024058355           13 
 3757000    0.6453586    -6.360022    1143.3224  0.025359827  0.024051419           12 
 3758000   0.66319004    -6.364884     1140.952  0.025300514  0.024044479           17 
 3759000   0.64360802   -6.3541912    1141.3043  0.025301593  0.024037549           12 
 3760000   0.65443656   -6.3423283    1143.4118  0.025341574   0.02403061           26 
 3761000   0.64211371   -6.3805505    1138.4546  0.025224997  0.024023648           12 
 3762000   0.64050359   -6.3466051    1142.8539  0.025315743  0.024016656           12 
 3763000   0.66118831   -6.3626938    1142.6086  0.025303583  0.024009686           24 
 3764000    0.6504011   -6.3712628    1142.0564  0.025284635  0.024002723            9 
 3765000   0.66336927   -6.3763918    1143.7443   0.02531528  0.023995767            8 
 3766000   0.62381998   -6.3443383    1142.5076   0.02528119  0.023988801            8 
 3767000   0.62878645   -6.3753194    1140.4452  0.025228856  0.023981812           16 
 3768000   0.64919098   -6.3938703    1139.2159  0.025194973  0.023974793           14 
 3769000   0.65283965   -6.3713164    1139.1097   0.02518594  0.023967814           26 
 3770000   0.65166947    -6.361447    1140.2124  0.025203634  0.023960841            9 
 3771000   0.65746818   -6.3699539     1140.713  0.025208013  0.023953859           11 
 3772000    0.6483477   -6.3682428    1142.9725  0.025251249  0.023946898           15 
 3773000    0.6421225   -6.3499261    1143.3112  0.025252036  0.023939959           15 
 3774000   0.65458202   -6.3538366    1140.0503  0.025173341  0.023933031           44 
 3775000   0.66468455   -6.3917455    1140.9188  0.025185846  0.023926062           23 
 3776000   0.63813344   -6.3599506    1142.5876  0.025216005  0.023919134           37 
 3777000   0.66443312   -6.3684439    1143.9426  0.025239225  0.023912191           24 
 3778000   0.63096506   -6.3686664    1142.7324  0.025205849  0.023905235           21 
 3779000   0.65060548   -6.3469467    1140.4554  0.025148968   0.02389827           17 
 3780000   0.63447858   -6.3498091    1141.1083  0.025156709  0.023891321           18 
 3781000   0.63423238   -6.3584793    1142.8792  0.025189086  0.023884403           15 
 3782000   0.63660906    -6.376684    1140.8545  0.025137814  0.023877477           23 
 3783000   0.64738518   -6.3688652    1140.5595  0.025124669  0.023870544           29 
 3784000   0.65341412    -6.349386    1141.8827   0.02514717  0.023863611           21 
 3785000   0.63571383   -6.3899608     1142.305  0.025149824  0.023856672           20 
 3786000   0.63141948   -6.3879176    1141.6823  0.025129476  0.023849749           17 
 3787000   0.65500518   -6.3528854    1144.7754  0.025190904  0.023842837           11 
 3788000    0.6421941   -6.3888317    1140.9896  0.025100969  0.023835909           52 
 3789000   0.64783352   -6.3745594    1141.4091   0.02510357  0.023828997           17 
 3790000   0.64453898   -6.3788867    1143.0658  0.025133372  0.023822117           14 
 3791000   0.64675747    -6.379619    1141.1782   0.02508525  0.023815204            6 
 3792000   0.63703702   -6.3897853    1140.0732   0.02505435  0.023808311           11 
 3793000   0.63217446   -6.3601834    1142.3149  0.025096997  0.023801388           13 
 3794000   0.64521591   -6.3489581    1144.7117  0.025143027  0.023794484           11 
 3795000   0.63984493    -6.351137    1142.1207  0.025079506  0.023787597           17 
 3796000   0.63917575   -6.3941978    1142.0363  0.025071047  0.023780708           19 
 3797000   0.63045765   -6.3592959    1143.0452  0.025086587  0.023773813           10 
 3798000   0.64135479   -6.3621345    1143.4337  0.025088504  0.023766908           10 
 3799000   0.65283804   -6.3978585    1143.0452  0.025073378  0.023760011           17 
 3800000   0.64304044   -6.3637999    1141.0935  0.025023981   0.02375309           14 
 3801000   0.63889464   -6.3720406    1142.4923  0.025048064  0.023746159           24 
 3802000   0.64407299   -6.3896754     1139.918  0.024985052  0.023739205           35 
 3803000   0.65467082   -6.3748709    1142.5908   0.02503705  0.023732268           32 
 3804000   0.63134505   -6.3978724    1139.6059  0.024965077  0.023725344           24 
 3805000   0.64097062   -6.3944559    1138.9443  0.024944028  0.023718405           60 
 3806000   0.64051216   -6.3918105    1139.3647  0.024946679  0.023711439           87 
 3807000   0.64921668   -6.4020646    1142.0759  0.024999472  0.023704493           71 
 3808000   0.63716304   -6.3949425    1142.6572  0.025005629  0.023697559           57 
 3809000   0.65080807   -6.3959792    1141.2398  0.024968054  0.023690633           16 
 3810000   0.62940543   -6.3743833    1140.5229   0.02494582  0.023683698           23 
 3811000   0.64196016    -6.373037     1138.897  0.024903722  0.023676808           11 
 3812000   0.64310608   -6.4045395     1140.804  0.024938877  0.023669899           16 
 3813000   0.62582908   -6.4062154    1142.6032  0.024971657  0.023662993           12 
 3814000   0.63259354   -6.4070934     1142.748  0.024968275   0.02365613           19 
 3815000   0.64493487   -6.3679825    1146.7578  0.025049319    0.0236493           13 
 3816000   0.63472647    -6.379947    1143.2127  0.024965336  0.023642447           14 
 3817000   0.64112509   -6.3755846    1142.3295  0.024939515  0.023635562           11 
 3818000   0.64239588   -6.3487439    1143.7276  0.024963497  0.023628705           14 
 3819000   0.65473644   -6.3693862    1143.6733  0.024955775  0.023621874           18 
 3820000   0.64952695   -6.3895092    1142.7214  0.024928478   0.02361501           15 
 3821000   0.64282636   -6.3836771    1143.8411  0.024946373  0.023608177           15 
 3822000   0.63818676    -6.392925    1140.9564  0.024876949  0.023601332           11 
 3823000   0.63255823    -6.381279    1141.2506  0.024876855  0.023594515           10 
 3824000   0.63532918   -6.3667219    1142.4503  0.024896495  0.023587686           11 
 3825000   0.62929122    -6.383141    1142.4826  0.024890689  0.023580876           17 
 3826000   0.63151532   -6.3913823    1142.9321  0.024893974  0.023574042           16 
 3827000   0.62980331   -6.3648814    1143.2681  0.024894784  0.023567183           13 
 3828000   0.63719145   -6.3812073    1143.6622  0.024896861  0.023560334           26 
 3829000   0.64534003   -6.3716252    1145.2029  0.024923891  0.023553484           25 
 3830000    0.6332064    -6.410698    1143.9466  0.024890048  0.023546643           10 
 3831000   0.63850437   -6.3973724    1141.3241  0.024826506  0.023539795           20 
 3832000   0.63668382   -6.4006407    1145.6413  0.024913911   0.02353293           15 
 3833000   0.62965929   -6.3873474    1144.6329  0.024885489  0.023526081           20 
 3834000   0.64344582   -6.3803752    1142.2383   0.02482695  0.023519232           23 
 3835000   0.63068618   -6.3877908    1144.5763   0.02487128  0.023512427           26 
 3836000    0.6202614   -6.3671212    1147.3617  0.024925305  0.023505624           28 
 3837000   0.64811594   -6.4104669     1142.939  0.024822757  0.023498756           32 
 3838000   0.63137906    -6.382234    1144.0709  0.024840866  0.023491897           40 
 3839000   0.63224245    -6.404488    1139.4056  0.024733125  0.023485036           20 
 3840000   0.63091087   -6.4120819    1143.7408  0.024820765  0.023478161           27 
 3841000   0.64721073   -6.3871303     1142.808  0.024794065  0.023471306           43 
 3842000   0.62691571   -6.3847859    1141.5883  0.024761155  0.023464439           16 
 3843000   0.62990736   -6.3961454    1142.9398  0.024784018  0.023457579           24 
 3844000   0.63208851   -6.3940148    1144.3752  0.024808688  0.023450745           30 
 3845000    0.6227347   -6.3696726    1142.8847  0.024769934  0.023443915           12 
 3846000   0.63298053   -6.4016116    1143.7232  0.024781661  0.023437087           15 
 3847000   0.62862661   -6.3954029    1145.8255  0.024820758  0.023430277           18 
 3848000   0.63074767   -6.3874744    1144.3715   0.02478282  0.023423431           26 
 3849000   0.64194674    -6.416036    1144.6295  0.024781968  0.023416602           12 
 3850000   0.63827784   -6.3742958    1144.1846  0.024765899  0.023409767           21 
 3851000    0.6398165   -6.3705012    1144.9181  0.024775343  0.023402984           12 
 3852000   0.63504721   -6.3543436    1142.7991  0.024723069  0.023396202           19 
 3853000   0.64625941   -6.3705332     1147.038  0.024808332  0.023389416           32 
 3854000   0.62771474   -6.3901549     1143.801  0.024731902  0.023382634           24 
 3855000   0.63296665   -6.3777566    1143.5327  0.024719687  0.023375836           43 
 3856000   0.63847034   -6.4301447    1144.5068  0.024734328   0.02336903           13 
 3857000   0.64866835   -6.3933122    1144.9605  0.024737717  0.023362215           34 
 3858000   0.62757846   -6.3978565    1145.4255   0.02474135  0.023355427           21 
 3859000   0.62959795   -6.4055031     1145.386  0.024734085  0.023348641           20 
 3860000   0.63981783   -6.4108824    1145.9716  0.024740319  0.023341836           22 
 3861000   0.61908551   -6.3853788    1143.2835  0.024675894  0.023335032           29 
 3862000   0.63458531   -6.3828946    1146.2111  0.024732675  0.023328258           10 
 3863000   0.63866117   -6.4007522    1143.9186  0.024676819  0.023321494            9 
 3864000   0.63534379   -6.3722751    1143.2347  0.024655683  0.023314739           10 
 3865000   0.63019938    -6.421825    1144.3002  0.024672276  0.023307954           30 
 3866000   0.63249814   -6.4111116    1141.7363  0.024610629  0.023301129           38 
 3867000   0.63931249   -6.4105849     1144.768  0.024669598  0.023294305           23 
 3868000   0.62786566   -6.4119349    1142.7924  0.024620657  0.023287492           39 
 3869000   0.64053434   -6.4134987    1141.3264  0.024582718  0.023280706           31 
 3870000   0.63656152   -6.4115121     1141.648   0.02458329  0.023273888           31 
 3871000    0.6205602   -6.4190551    1140.1576  0.024544856  0.023267072           57 
 3872000     0.638322   -6.4040715    1143.3375  0.024606953  0.023260282           19 
 3873000   0.63497905   -6.4245957     1142.251  0.024577222  0.023253487           27 
 3874000   0.62972839   -6.4039767    1144.1762   0.02461229  0.023246689           19 
 3875000   0.64706823   -6.3875799    1142.1173  0.024561662  0.023239915           15 
 3876000   0.63051399   -6.3933867    1144.3337  0.024602979  0.023233145           10 
 3877000    0.6350634   -6.4267419    1144.3708  0.024597429  0.023226379           20 
 3878000    0.6258878   -6.4187497    1142.9527  0.024560613  0.023219592           23 
 3879000   0.61666652   -6.4104016    1141.1318  0.024515163  0.023212807           10 
 3880000    0.6253002   -6.4026685    1143.0541  0.024550131  0.023206019           34 
 3881000   0.63723884   -6.4178003    1138.8653  0.024453864  0.023199222           27 
 3882000   0.63225233   -6.4058158    1144.6161  0.024571015  0.023192415           45 
 3883000   0.63692902   -6.4188463    1142.3817  0.024516734  0.023185609           50 
 3884000   0.64285116   -6.4066154    1143.5243  0.024534936  0.023178832           32 
 3885000   0.62191882   -6.3957235    1141.1742  0.024478211  0.023172076           26 
 3886000   0.62501035   -6.3895256    1144.0934  0.024534513  0.023165318           54 
 3887000   0.62013031   -6.4024597    1146.5325  0.024580492  0.023158566           49 
 3888000   0.63111057   -6.4093818    1147.5648  0.024596296  0.023151821           43 
 3889000   0.63315326   -6.4143558    1144.1268  0.024516303  0.023145052           23 
 3890000   0.64298337   -6.4266199    1142.5968  0.024477223   0.02313829           52 
 3891000   0.62611623   -6.4247057    1144.4808  0.024511282  0.023131518           32 
 3892000   0.61401105   -6.4142011    1143.6448  0.024487085  0.023124766           22 
 3893000   0.62288168     -6.40016    1145.0613  0.024511117  0.023118028           31 
 3894000   0.63990347    -6.416974    1141.9776   0.02443883  0.023111258           23 
 3895000   0.61864647   -6.4135596    1142.2844  0.024439118  0.023104489           10 
 3896000   0.63354483   -6.4126417    1145.3164  0.024497699   0.02309772           23 
 3897000   0.62151488   -6.4008874    1144.6041   0.02447618  0.023090958           31 
 3898000   0.62784295   -6.4366244    1141.3751  0.024400871   0.02308419           18 
 3899000   0.63391239   -6.4331767    1144.4725  0.024460813  0.023077404           34 
 3900000   0.62247919    -6.423783    1145.3234  0.024472723  0.023070636           64 
 3901000   0.63719218   -6.4296109    1138.9274  0.024329817  0.023063871           26 
 3902000   0.62817114   -6.4118044    1143.1221  0.024413166  0.023057119           14 
 3903000    0.6307271   -6.4193071    1143.5781  0.024416647  0.023050375            9 
 3904000   0.62234994   -6.4133813    1143.6427  0.024411772  0.023043633           17 
 3905000   0.62686039   -6.4268003    1145.1541  0.024437774    0.0230369           19 
 3906000   0.60942592   -6.3991529    1143.6247  0.024398888  0.023030157           16 
 3907000   0.63017836   -6.4013896    1145.4881  0.024432389  0.023023411           34 
 3908000   0.62190198   -6.4178238    1141.2856  0.024336523  0.023016655           48 
 3909000   0.62858905   -6.3971015    1143.9553   0.02438721  0.023009905           70 
 3910000   0.62723962   -6.4316816    1143.1871  0.024364602  0.023003174           50 
 3911000   0.62435111   -6.4254633    1143.0849  0.024356194  0.022996444           53 
 3912000   0.62201796   -6.4381731    1142.7945  0.024343782   0.02298972           41 
 3913000   0.63212133   -6.4416474    1141.5478  0.024311011  0.022982992           28 
 3914000    0.6379845    -6.421976    1142.4494  0.024323994  0.022976257           24 
 3915000   0.62058662   -6.4112322    1144.1384  0.024353733  0.022969535           14 
 3916000   0.63214683   -6.4221681    1144.8597  0.024362863  0.022962841           14 
 3917000   0.63777422   -6.4037023    1143.4775  0.024327239  0.022956116           15 
 3918000   0.62455789   -6.4409849    1144.6084  0.024345083  0.022949362           16 
 3919000   0.63465167    -6.439904    1142.7745  0.024299874  0.022942602           35 
 3920000   0.62796618   -6.4487772    1142.7547  0.024293256  0.022935866           26 
 3921000    0.6254619   -6.4528049    1143.7639  0.024308507  0.022929101           38 
 3922000   0.62450908   -6.4576286    1142.5179  0.024275835   0.02292235           25 
 3923000   0.62823258   -6.4269639    1142.7973  0.024275582    0.0229156           23 
 3924000   0.62151705   -6.4235661    1144.9422  0.024314947  0.022908883           21 
 3925000   0.63047957   -6.4194382    1143.5512  0.024279218   0.02290218           40 
 3926000   0.61435949    -6.423985    1144.6483  0.024296321   0.02289549           17 
 3927000   0.60692466   -6.4443386    1143.2429  0.024260312  0.022888805           31 
 3928000   0.62862479   -6.4260718    1145.2974  0.024297722  0.022882133           24 
 3929000   0.61986528   -6.4479848    1142.4712  0.024231594  0.022875436           28 
 3930000   0.61856856   -6.4560629    1143.7712  0.024252993  0.022868741           20 
 3931000   0.62995676   -6.4359474     1142.833  0.024226935  0.022862035           38 
 3932000   0.62272551   -6.4361817    1144.1022  0.024247673  0.022855359           36 
 3933000   0.63300825   -6.4217015     1145.606  0.024273371  0.022848693           21 
 3934000   0.62008324   -6.4274865    1145.5665  0.024266364  0.022842047           13 
 3935000   0.61609501   -6.4362274    1144.6125  0.024239994  0.022835383           32 
 3936000   0.62392856   -6.4193204    1145.7919  0.024258805  0.022828738           21 
 3937000   0.62934206   -6.3947514    1150.2525  0.024347059  0.022822099           47 
 3938000    0.6224128   -6.4411922    1144.9129  0.024227885  0.022815452           21 
 3939000   0.60318419    -6.465966    1145.5048  0.024234256  0.022808785           23 
 3940000   0.61521788   -6.4161115    1145.6134  0.024230402   0.02280211           47 
 3941000   0.62376879   -6.4504358    1145.2825  0.024217257  0.022795441           11 
 3942000    0.6356164   -6.4459732    1145.5011  0.024215734  0.022788753           24 
 3943000   0.62176416    -6.475165    1143.7437  0.024172452  0.022782081           11 
 3944000   0.61995017   -6.4499584    1145.2011  0.024197116   0.02277539           13 
 3945000   0.62952313   -6.4590362    1142.4565  0.024133006  0.022768704           33 
 3946000   0.61618128   -6.4507992    1144.0649  0.024160857  0.022762027           20 
 3947000    0.6328606   -6.4554361    1145.5261  0.024185586  0.022755382            9 
 3948000   0.62020484   -6.4119707    1144.5482  0.024158818  0.022748749           17 
 3949000   0.62684477   -6.4329078    1142.8041  0.024115897  0.022742127           18 
 3950000   0.61688766   -6.4530456    1143.8345   0.02413153  0.022735463           26 
 3951000   0.63663376    -6.436257     1142.836  0.024104362  0.022728815           45 
 3952000   0.61907379    -6.440873    1143.4745  0.024111727  0.022722174           14 
 3953000   0.62779837   -6.4247219    1143.5912  0.024108087   0.02271553           26 
 3954000   0.59852012   -6.4372683    1143.3352  0.024096593  0.022708871            8 
 3955000   0.62277815   -6.4439563    1143.2329  0.024088345  0.022702221           16 
 3956000   0.62163141   -6.4223853    1146.6253  0.024153719  0.022695567           12 
 3957000   0.62178328   -6.4326715     1147.534  0.024166751  0.022688917           15 
 3958000    0.6228524   -6.4298806    1145.9713  0.024127744  0.022682289           10 
 3959000   0.61401197   -6.4244837    1147.7531  0.024159154  0.022675678           14 
 3960000    0.6289322   -6.4350129     1142.641  0.024045475  0.022669061           18 
 3961000   0.61422082   -6.4165512    1147.9457  0.024151008  0.022662462           19 
 3962000   0.61243626   -6.4218757    1143.3002  0.024047202  0.022655849           23 
 3963000   0.62199188   -6.4264693    1145.2991  0.024083168  0.022649241           30 
 3964000   0.61639749   -6.4353979    1143.6886  0.024043235  0.022642615           15 
 3965000   0.61708212   -6.4391127    1146.2601  0.024091217  0.022635996           21 
 3966000   0.62244767   -6.4630898    1145.8951  0.024077473  0.022629361           28 
 3967000   0.61873555   -6.4375901    1144.3903  0.024039793  0.022622731           30 
 3968000   0.61427483   -6.4544726     1145.146  0.024049605  0.022616099           36 
 3969000   0.62911551   -6.4328761    1145.3809  0.024048477  0.022609473           22 
 3970000   0.62423037   -6.4545282    1144.5721  0.024025443  0.022602858           12 
 3971000   0.61491017   -6.4331597    1145.4138  0.024037055  0.022596251           29 
 3972000   0.60876786   -6.4392208    1145.4026  0.024030769  0.022589659           53 
 3973000   0.62112929    -6.448646    1141.3246  0.023939185  0.022583038           48 
 3974000    0.6084776   -6.4483785    1144.1444  0.023992292  0.022576442           52 
 3975000   0.62970435   -6.4369887    1146.1083  0.024027429  0.022569848          105 
 3976000   0.59924512   -6.4692061    1144.0298  0.023977821  0.022563224           51 
 3977000   0.60883088   -6.4301418     1144.888  0.023989774  0.022556599           29 
 3978000   0.62125051   -6.4792791       1145.5  0.023996564  0.022549982           36 
 3979000   0.59217295   -6.4626238    1140.4993  0.023885802  0.022543357           32 
 3980000   0.62321331   -6.4383798    1143.2596  0.023937595   0.02253673           25 
 3981000    0.6161103   -6.4538204    1145.6878  0.023982412  0.022530127           23 
 3982000   0.62924419   -6.4765135    1143.1427  0.023923127  0.022523484           58 
 3983000   0.62067343    -6.452742    1143.2031  0.023918385  0.022516853           32 
 3984000   0.61393442   -6.4564003    1146.3622  0.023978459  0.022510227           34 
 3985000    0.5935053   -6.4425817    1146.1687  0.023968395  0.022503617           19 
 3986000   0.61708289   -6.4528305    1144.1669  0.023920533  0.022497015           22 
 3987000    0.6097827   -6.4428216    1145.9992  0.023952831  0.022490407           38 
 3988000    0.6223527   -6.4736438    1143.6446  0.023897623  0.022483762           31 
 3989000   0.61179006   -6.4746813    1141.3672  0.023844053  0.022477111           24 
 3990000   0.62627646   -6.4926727    1143.3474  0.023879437  0.022470472           32 
 3991000   0.62903329   -6.4634833    1142.2089  0.023849681  0.022463838           55 
 3992000   0.61628471   -6.4679018    1146.5782  0.023934917   0.02245721           38 
 3993000   0.62281743   -6.4610174    1144.8093  0.023892005   0.02245059           44 
 3994000   0.60883547   -6.4586345    1144.7359  0.023884492  0.022443971           33 
 3995000   0.61799312   -6.4806891    1142.8443  0.023839054   0.02243735           46 
 3996000   0.62326905   -6.4830969    1143.7066  0.023851072  0.022430723           40 
 3997000   0.61864574   -6.4568856    1146.3997  0.023901253  0.022424111           58 
 3998000   0.61866047   -6.4718328    1143.2158  0.023828911  0.022417524           51 
 3999000   0.61426602   -6.4654718    1142.7486  0.023813215   0.02241092           45 
 4000000   0.60617323   -6.4629796    1143.4127  0.023821098  0.022404311           57 
 4001000   0.61262042   -6.4717724    1143.6667  0.023820434  0.022397701           23 
 4002000    0.6168523   -6.4606022    1146.0287  0.023863665  0.022391117           32 
 4003000   0.62384906   -6.4551025    1142.8629    0.0237918  0.022384516           29 
 4004000   0.58940631   -6.4545025     1143.916  0.023807775   0.02237795           26 
 4005000   0.62662995   -6.4555481    1144.2091   0.02380793  0.022371372           33 
 4006000   0.60576935   -6.4402186     1144.785  0.023813967  0.022364787           20 
 4007000    0.6033302   -6.4821516    1144.1817  0.023795477  0.022358202           81 
 4008000   0.60242142    -6.455717    1144.5226  0.023796628  0.022351602           61 
 4009000   0.61264812   -6.4727853    1143.3002  0.023765282  0.022345006           70 
 4010000   0.61177689   -6.4905918    1144.9572  0.023793789  0.022338403           46 
 4011000   0.61160886    -6.478128    1143.8586  0.023765034  0.022331771           73 
 4012000   0.62130781   -6.4950748    1142.0372  0.023721277  0.022325172           49 
 4013000   0.61284431   -6.4935407     1143.505  0.023745847  0.022318559           61 
 4014000   0.60298672   -6.4956003    1141.9982  0.023708648   0.02231194           36 
 4015000   0.59814993   -6.4729093    1142.5692  0.023714595  0.022305319           64 
 4016000   0.61660579    -6.466189    1143.8479  0.023735224   0.02229869           41 
 4017000   0.60563794   -6.5128518    1143.1729  0.023715311  0.022292046           37 
 4018000   0.61898903   -6.5076586    1138.8557  0.023619872  0.022285416           29 
 4019000   0.60226168   -6.5128266    1141.3125  0.023664935  0.022278772           36 
 4020000   0.61844826   -6.5051508    1140.8646  0.023649763  0.022272143           48 
 4021000   0.60694799   -6.4834721    1141.4808  0.023656652  0.022265499           55 
 4022000     0.609641    -6.510412    1142.8191  0.023678498  0.022258845           72 
 4023000   0.61016897   -6.5010318    1140.5687  0.023625998  0.022252216           28 
 4024000   0.60203828   -6.4963191    1142.0573  0.023650955  0.022245592           47 
 4025000   0.60362245   -6.4747519    1146.0151   0.02372702     0.022239           33 
 4026000   0.59885671   -6.4932871    1143.4277   0.02366757  0.022232414           57 
 4027000   0.60860242   -6.5079953    1143.4958  0.023663104  0.022225807           50 
 4028000   0.60643989   -6.4724967    1145.6332  0.023701448  0.022219222           73 
 4029000   0.60506721   -6.4912809    1143.9213  0.023660159  0.022212622           49 
 4030000   0.60908433   -6.5018107    1144.1765  0.023659564  0.022206022           32 
 4031000    0.6025519   -6.4797945    1144.8572  0.023667767  0.022199446           32 
 4032000   0.60364913   -6.4863105    1143.5694   0.02363528  0.022192873           79 
 4033000   0.60601774   -6.4724709    1144.7078  0.023652942  0.022186304           62 
 4034000   0.61169507    -6.499269    1143.8041  0.023628412  0.022179742           44 
 4035000    0.6063603    -6.498357    1144.4894  0.023636708  0.022173173           32 
 4036000   0.60340222   -6.4992962    1143.4536  0.023609464  0.022166598           44 
 4037000   0.59812531   -6.4946676     1140.061  0.023533585  0.022160003           32 
 4038000   0.60476295   -6.4819229    1143.6401   0.02360162   0.02215343           55 
 4039000   0.59655629   -6.4838862    1144.6189  0.023615971  0.022146886           23 
 4040000   0.60421369    -6.471438      1142.49  0.023566213  0.022140346           58 
 4041000   0.62238873   -6.4693599    1145.4689  0.023621812  0.022133824           31 
 4042000   0.60991427   -6.4774463    1143.8978  0.023583576  0.022127293           24 
 4043000   0.61125621   -6.4874786    1143.1479  0.023562286  0.022120755           42 
 4044000   0.62789426   -6.4659401    1145.7942  0.023610991  0.022114232           19 
 4045000   0.61395756   -6.4714257    1143.6874  0.023561751   0.02210772           23 
 4046000   0.61085284   -6.4853778    1143.7165  0.023556528  0.022101213           25 
 4047000   0.58813365   -6.4662057    1146.1008  0.023599803  0.022094675           45 
 4048000   0.59727922   -6.4824662    1143.6378  0.023543268  0.022088129           15 
 4049000    0.5965851    -6.483982    1145.0229   0.02356596  0.022081611           19 
 4050000   0.60885491   -6.4823802    1143.3225  0.023525155  0.022075104           25 
 4051000   0.59360495   -6.4759146    1144.9305  0.023552425  0.022068593           51 
 4052000   0.59929025   -6.4843663    1142.2399  0.023491279  0.022062067           19 
 4053000   0.61529378   -6.4959051    1139.9216  0.023437815  0.022055548           32 
 4054000   0.61470855   -6.4629533    1144.6204  0.023528622  0.022049043           27 
 4055000   0.58782374   -6.4927923    1142.8528  0.023486493  0.022042525           27 
 4056000   0.59054378   -6.4920806    1141.8244  0.023459574  0.022035991           36 
 4057000   0.60745216   -6.4871817    1143.3257   0.02348463  0.022029474           31 
 4058000   0.59053523    -6.470401    1144.9392  0.023511977  0.022022951           45 
 4059000   0.60333322   -6.5072614    1141.0704  0.023426755   0.02201644           31 
 4060000   0.60046967   -6.4613484    1145.6205  0.023514378  0.022009923           39 
 4061000   0.59861618   -6.4879551    1144.2693  0.023480861   0.02200343           22 
 4062000   0.59811678   -6.4611475    1143.8751  0.023466994  0.021996933           58 
 4063000   0.59056241   -6.4808852    1144.8066  0.023480322   0.02199041           59 
 4064000   0.61873697   -6.4624354    1146.3207  0.023505592  0.021983915           44 
 4065000   0.59416556   -6.4818483    1146.3252  0.023499901  0.021977395           47 
 4066000   0.59692145   -6.4731741    1143.1412  0.023428864  0.021970878           90 
 4067000    0.6020363   -6.4700725    1144.3815  0.023448519  0.021964388           88 
 4068000   0.59395539    -6.458612    1145.1948  0.023459414  0.021957903          143 
 4069000   0.58975228   -6.4970618    1141.9582  0.023387364   0.02195141          134 
 4070000   0.59133312   -6.4969726    1144.0428  0.023424301  0.021944892          154 
 4071000   0.60421929   -6.4844633     1144.193  0.023421621  0.021938376           90 
 4072000   0.60428527   -6.4944482    1142.1425  0.023373906  0.021931861          135 
 4073000   0.61267336   -6.4586535    1142.9577  0.023384845   0.02192535           40 
 4074000   0.60001731   -6.4984706    1141.5535  0.023350382  0.021918832           45 
 4075000   0.60473517   -6.4651477    1145.0946  0.023417068  0.021912306           42 
 4076000   0.60215806   -6.4920162    1144.7334  0.023403939    0.0219058           26 
 4077000   0.60294825   -6.4647586    1144.0302  0.023383823  0.021899309           26 
 4078000   0.58689342   -6.4676147    1144.4921  0.023387528  0.021892817           38 
 4079000   0.59633175   -6.4967567    1143.7219  0.023366061  0.021886318           39 
 4080000   0.59905331   -6.4921861    1143.6813  0.023359503   0.02187983           40 
 4081000   0.58711586   -6.4924172    1142.7835  0.023335447   0.02187334           28 
 4082000   0.59583532   -6.4992928    1141.4219  0.023301933  0.021866837           37 
 4083000   0.60201658   -6.4807013    1143.0533  0.023329523  0.021860322           27 
 4084000   0.59662052   -6.4759013    1144.0026  0.023343181  0.021853802           33 
 4085000   0.60001114    -6.496872    1141.4929  0.023286268  0.021847273           34 
 4086000   0.59591766   -6.5128313    1140.4329  0.023258951  0.021840746           21 
 4087000   0.60538755   -6.5022989    1140.1969  0.023248449  0.021834212           42 
 4088000   0.58578816     -6.49587    1140.2552   0.02324395  0.021827664           37 
 4089000    0.5911388   -6.5182988    1143.7649  0.023309792  0.021821136           24 
 4090000   0.60121011   -6.4944436    1140.8652  0.023245012  0.021814598           44 
 4091000   0.60683056   -6.4984634    1141.7466  0.023257284  0.021808072           23 
 4092000   0.58142223   -6.5034134    1142.9898  0.023276919  0.021801524           31 
 4093000   0.58379198   -6.5055071    1141.0603  0.023231947  0.021794995           21 
 4094000   0.60224949    -6.495965    1141.3253  0.023231666  0.021788477           37 
 4095000   0.59919592   -6.4997005    1142.0342  0.023240419  0.021781945           30 
 4096000   0.60366325   -6.4851317    1143.1574  0.023257596  0.021775427           54 
 4097000   0.60070564   -6.4741504    1141.8959  0.023226261  0.021768918          110 
 4098000   0.59668294    -6.499921    1141.2057  0.023206558  0.021762408           32 
 4099000   0.58709164   -6.4622271    1142.3585  0.023224333  0.021755925           49 
 4100000   0.58382213    -6.508452    1141.8032  0.023207381  0.021749434           63 
 4101000   0.58742762   -6.5096042    1140.4105  0.023173423  0.021742924           75 
 4102000   0.59180659   -6.5106736    1140.7069  0.023173795  0.021736413           79 
 4103000   0.60399277   -6.4951578    1140.5138  0.023164226  0.021729911           33 
 4104000   0.58277156   -6.5152104    1139.5288   0.02313858  0.021723399          146 
 4105000   0.58724284   -6.5061118    1142.2966  0.023189132   0.02171688           91 
 4106000   0.58843027   -6.5018961    1142.8316  0.023194342  0.021710365           38 
 4107000   0.58577058   -6.5006707    1143.1531  0.023195217   0.02170386           51 
 4108000    0.5920676   -6.4868094    1144.5852  0.023218622  0.021697373           81 
 4109000   0.59515791   -6.5012757    1140.2368  0.023124783  0.021690861           66 
 4110000   0.59201694   -6.5094362    1141.1693  0.023138064  0.021684357           70 
 4111000   0.59161342   -6.5230114     1140.566  0.023120206  0.021677863           51 
 4112000   0.58104483   -6.5022691    1141.0244  0.023123873  0.021671367           29 
 4113000   0.58683204   -6.5028213    1141.6809  0.023131553  0.021664872           18 
 4114000   0.61341523     -6.50903     1139.566  0.023083089  0.021658373          104 
 4115000   0.59309247   -6.4984509    1139.7021  0.023080238  0.021651847          107 
 4116000   0.59153265   -6.5182086    1142.7571  0.023136482  0.021645356           59 
 4117000   0.58975181   -6.5029144     1143.381  0.023143491  0.021638872           60 
 4118000   0.59843136   -6.5187892    1140.1317  0.023072117  0.021632385           26 
 4119000   0.58671129   -6.5121506     1140.193  0.023067756  0.021625904           20 
 4120000   0.58854666   -6.4989771    1141.2384  0.023083302  0.021619424           24 
 4121000   0.59444105   -6.4856922    1142.5816  0.023104861  0.021612956           33 
 4122000    0.5987176    -6.507346    1141.4344  0.023076063  0.021606492           16 
 4123000   0.58272759   -6.5062819    1142.5004  0.023092012  0.021600033           15 
 4124000   0.59713267   -6.5113973    1142.2473  0.023081299  0.021593567           15 
 4125000   0.59917022    -6.531427    1141.5812  0.023062246  0.021587103           24 
 4126000   0.59948803   -6.5094154    1141.7985  0.023061046  0.021580631           23 
 4127000   0.61584079   -6.5043211    1138.8085  0.022995082  0.021574178           17 
 4128000   0.59173625   -6.4896956    1142.0228    0.0230544  0.021567717           20 
 4129000   0.58113791   -6.5017398    1140.7763   0.02302366  0.021561251           39 
 4130000   0.59529504   -6.5216846    1140.0527  0.023003484  0.021554796           22 
 4131000   0.58978095   -6.5217929    1139.5919   0.02298862   0.02154832           29 
 4132000   0.58445482   -6.5079834    1141.3008  0.023017523  0.021541849           13 
 4133000   0.58510778   -6.4784306    1141.6662  0.023019319  0.021535386           52 
 4134000    0.5890735   -6.5275682    1141.0695  0.023001723   0.02152893           26 
 4135000   0.59693777   -6.5217148    1142.0298  0.023015515   0.02152246           58 
 4136000   0.58502898    -6.527489    1140.3425  0.022975953  0.021516001           15 
 4137000   0.58836533     -6.52199    1140.4101  0.022971761  0.021509526           25 
 4138000   0.59349334   -6.5079832    1141.4975  0.022988108  0.021503063           15 
 4139000   0.59527043   -6.5145362    1144.3344  0.023039671  0.021496618           19 
 4140000   0.57665083   -6.4855215    1141.5642  0.022978345  0.021490162           16 
 4141000   0.59067975   -6.5228102    1142.5675  0.022992986  0.021483707           31 
 4142000   0.58761786   -6.5222674    1140.1513  0.022938824  0.021477241           39 
 4143000   0.58755715   -6.5333397    1139.7999  0.022926218  0.021470769           17 
 4144000   0.59520057   -6.5359892    1140.8378  0.022941558  0.021464295           38 
 4145000   0.58831288   -6.5160588    1140.1971  0.022923142    0.0214578           18 
 4146000   0.59620938   -6.5370487    1140.8433  0.022930602  0.021451318           32 
 4147000   0.59184033   -6.5104142    1138.5407  0.022878803  0.021444836           41 
 4148000   0.59059778   -6.5287104    1138.8744   0.02287999  0.021438345           23 
 4149000   0.59497402    -6.555618    1138.1798  0.022860524  0.021431843           34 
 4150000   0.58997595   -6.5548948    1138.5282  0.022862013  0.021425346           21 
 4151000   0.57915215   -6.5328046     1139.074  0.022867462  0.021418849           50 
 4152000   0.58855479   -6.5375083    1141.2898  0.022906427  0.021412349           66 
 4153000    0.5856055   -6.5499849    1137.8375  0.022831637   0.02140586           44 
 4154000    0.5968932   -6.5382129    1138.6535  0.022842511   0.02139938           54 
 4155000   0.58404396   -6.5375962    1140.6244  0.022876543  0.021392901           59 
 4156000   0.58658384   -6.5142954    1140.3958  0.022866454  0.021386428           50 
 4157000   0.58075337   -6.5486727     1138.065  0.022814229  0.021379966           54 
 4158000   0.58780252   -6.5378559    1142.5222  0.022898072  0.021373515           45 
 4159000   0.57900762   -6.5373922    1138.4336  0.022810643  0.021367052           40 
 4160000   0.59007299   -6.5289135    1140.9581  0.022855731   0.02136057           82 
 4161000   0.59042506   -6.5418122     1136.968  0.022770327  0.021354114           39 
 4162000    0.5945682    -6.527517    1140.6059  0.022837696  0.021347661           69 
 4163000   0.59595351   -6.5162561    1140.5701  0.022831493  0.021341217           96 
 4164000   0.58545513   -6.5182757    1141.4413  0.022843445  0.021334763           58 
 4165000   0.58285225   -6.5426759    1137.8431  0.022765968   0.02132831           76 
 4166000   0.57658077   -6.5339826    1141.6282  0.022836217  0.021321839           45 
 4167000   0.59453646   -6.5483088    1138.7539  0.022773256  0.021315378           75 
 4168000   0.56967572   -6.5390591    1136.7151  0.022727029  0.021308902           76 
 4169000   0.58201023    -6.531772     1137.483  0.022736928  0.021302438          100 
 4170000   0.59225207   -6.5373371    1138.7238   0.02275627  0.021295973           58 
 4171000   0.59209922    -6.540167    1138.7249  0.022750838  0.021289502           92 
 4172000   0.57835373   -6.5277238    1141.0402  0.022791631  0.021283053           91 
 4173000   0.59473346   -6.5432502    1139.4293  0.022753999  0.021276603           68 
 4174000   0.59062898   -6.5201857    1139.8702  0.022757352  0.021270173           21 
 4175000   0.58323648   -6.5150746    1137.5708  0.022706005  0.021263722           43 
 4176000   0.58590873   -6.5480843     1138.486  0.022718829  0.021257278           44 
 4177000   0.59439731   -6.5220452     1141.428  0.022772085   0.02125084           50 
 4178000   0.58346156    -6.543334    1138.3826  0.022705892  0.021244407           32 
 4179000   0.58517038   -6.5438546    1139.0892  0.022714549  0.021237948           65 
 4180000   0.59820424   -6.5537775    1138.6997  0.022701349  0.021231474           47 
 4181000   0.58168862   -6.5604877     1138.674  0.022695408  0.021225012           39 
 4182000   0.58245431   -6.5440016     1139.759  0.022711602   0.02121855           51 
 4183000   0.57794903   -6.5539908    1136.3772  0.022638799  0.021212082           52 
 4184000   0.58467954   -6.5377177    1136.2004  0.022629868  0.021205618           45 
 4185000   0.57801987   -6.5583686    1139.1807  0.022683805  0.021199152           48 
 4186000   0.58783292   -6.5400149    1136.6528  0.022628062  0.021192688           46 
 4187000   0.58906695    -6.538635    1138.1313  0.022652084  0.021186249           77 
 4188000   0.57801095   -6.5123412    1139.3717  0.022671357  0.021179833           56 
 4189000   0.56940935   -6.5384178    1137.8836  0.022636342  0.021173421           57 
 4190000   0.58952076   -6.5161685    1138.1878  0.022636989  0.021167005           43 
 4191000   0.57173314   -6.5295759    1138.0637   0.02262912  0.021160599           53 
 4192000   0.57029664   -6.5486036    1140.1144  0.022664487  0.021154192           67 
 4193000   0.57677659   -6.5216973    1142.2658   0.02270184  0.021147769           51 
 4194000   0.58398999   -6.5594438    1138.3097   0.02261782  0.021141341           49 
 4195000   0.57919208   -6.5364864    1140.1173  0.022648337  0.021134903           45 
 4196000   0.58846508   -6.5424249    1137.7687  0.022596295  0.021128465           43 
 4197000   0.58141485   -6.5391361    1142.0069  0.022675063  0.021122033           53 
 4198000   0.57124756    -6.564203    1137.3883  0.022577979  0.021115614          172 
 4199000   0.58576275   -6.5550315    1137.3621  0.022572083  0.021109188          125 
 4200000   0.58075602   -6.5303281     1142.577  0.022670179  0.021102759           59 
 4201000   0.57873459   -6.5630752    1139.1807  0.022597411  0.021096336           86 
 4202000   0.57955376   -6.5609376    1138.1263  0.022571122  0.021089888          145 
 4203000   0.59108784   -6.5747848      1138.12  0.022565627  0.021083445          107 
 4204000   0.58487374   -6.5334561    1137.4534  0.022547047  0.021077017           62 
 4205000    0.5713193   -6.5645306    1136.3523  0.022519863  0.021070594          122 
 4206000   0.57589705   -6.5570572     1139.165  0.022570237  0.021064173          114 
 4207000   0.57557177   -6.5346839    1139.5721  0.022572936  0.021057743          111 
 4208000    0.5823955   -6.5367005     1140.378  0.022583531  0.021051328          125 
 4209000   0.57326925   -6.5414127    1139.3072  0.022556965  0.021044925           80 
 4210000   0.58506455    -6.554397    1139.8952  0.022563247  0.021038526           70 
 4211000   0.57109779   -6.5355946    1137.5549  0.022511574  0.021032128           52 
 4212000   0.57712574   -6.5506655    1136.6555  0.022488437  0.021025723           57 
 4213000   0.57214778   -6.5534762    1138.8509  0.022526524  0.021019316           59 
 4214000   0.57843316   -6.5621244    1139.5763  0.022535522  0.021012903           74 
 4215000   0.57273898   -6.5691318    1136.2371  0.022464158  0.021006491           60 
 4216000   0.57663019    -6.546895    1138.7755  0.022509003  0.021000089           40 
 4217000   0.56786849   -6.5410812    1138.3465  0.022495188  0.020993691           77 
 4218000   0.57818205   -6.5451529    1139.6783  0.022516167  0.020987287           91 
 4219000    0.5859762    -6.560003    1138.0372  0.022478416  0.020980902           62 
 4220000   0.57213863   -6.5322705    1139.4006  0.022500012   0.02097452           67 
 4221000   0.57834685   -6.5435772    1138.7179  0.022481204  0.020968158           45 
 4222000   0.57954312   -6.5376528    1138.1017  0.022463715  0.020961782           67 
 4223000   0.57729568   -6.5259791    1138.0263  0.022456908   0.02095542          106 
 4224000   0.56986438   -6.5352586    1141.4113  0.022518373  0.020949063           75 
 4225000   0.57713119   -6.5361166    1140.7112  0.022499235  0.020942703           54 
 4226000   0.56299765    -6.542016    1139.1124  0.022462384  0.020936314          103 
 4227000   0.58194783   -6.5376014    1140.1639  0.022477799   0.02092994           71 
 4228000   0.57987629   -6.5710085    1138.7381   0.02244438  0.020923578           84 
 4229000   0.57524158   -6.5577922    1135.8009  0.022381196  0.020917197           80 
 4230000   0.58217799   -6.5644513    1139.5059  0.022448894  0.020910809          116 
 4231000   0.57515919   -6.5770145    1138.0073  0.022414073  0.020904425           83 
 4232000   0.57497773   -6.5609668    1137.6494   0.02240173  0.020898034           84 
 4233000   0.57597793   -6.5616484    1136.1548  0.022367012  0.020891657           83 
 4234000   0.56854098   -6.5885993    1136.3521  0.022365613  0.020885256           91 
 4235000    0.5710777   -6.5579551     1135.682  0.022347147  0.020878849          129 
 4236000   0.57268672   -6.5775242     1137.681  0.022381198  0.020872455           75 
 4237000   0.58204705   -6.5586529    1138.7092  0.022396137  0.020866066           75 
 4238000   0.57503564   -6.5760055    1136.7876  0.022353067  0.020859678           91 
 4239000   0.56489512   -6.5807973    1135.9409   0.02233115  0.020853287          114 
 4240000   0.58090711   -6.5509982     1137.806  0.022362539  0.020846916           42 
 4241000   0.57551264   -6.5590527    1139.1722  0.022384112  0.020840549          106 
 4242000   0.56464935   -6.5821324    1138.4535  0.022364715   0.02083419           80 
 4243000   0.57892554   -6.5521794    1138.8493  0.022367218  0.020827829           97 
 4244000   0.57976913    -6.564411    1136.8494  0.022322679  0.020821467           88 
 4245000   0.58411146   -6.5472392    1139.1532  0.022362647  0.020815105          103 
 4246000   0.57427913   -6.5671402    1137.0334  0.022315776  0.020808745           89 
 4247000   0.57390883   -6.5779711     1136.292  0.022295973  0.020802371           65 
 4248000   0.56908807   -6.5806539     1134.769  0.022260848  0.020795995           42 
 4249000   0.55378432   -6.5455289    1136.6482  0.022292465  0.020789633           65 
 4250000   0.57003517   -6.5645771    1136.9223  0.022292595  0.020783274           58 
 4251000   0.57594778   -6.5806974    1137.4204  0.022297114  0.020776892           44 
 4252000   0.56087195    -6.573173    1136.2539  0.022269008  0.020770532          113 
 4253000   0.58084441    -6.566955    1135.0464  0.022240113  0.020764175          116 
 4254000   0.57163328   -6.5738434    1138.5781  0.022304068  0.020757791          240 
 4255000    0.5738166    -6.581433    1136.9544  0.022267028  0.020751408          112 
 4256000   0.58772629   -6.5463644     1137.394  0.022270402  0.020745044          112 
 4257000   0.57101406   -6.5843831    1136.1392  0.022240608  0.020738677           75 
 4258000   0.55926874   -6.5718862    1134.2899  0.022199192  0.020732312           57 
 4259000   0.57370707   -6.5873824    1137.8624  0.022263881  0.020725967           81 
 4260000   0.56129387    -6.568553    1137.5823  0.022253174  0.020719634           80 
 4261000   0.56851796    -6.576409    1137.7057  0.022250365  0.020713304          146 
 4262000   0.56807867    -6.574499    1134.9951  0.022192146  0.020706972          100 
 4263000   0.55007535   -6.5567205    1137.8445   0.02224264  0.020700642          128 
 4264000   0.57554347   -6.5829517    1139.1654  0.022263238  0.020694307          141 
 4265000   0.56802732   -6.5705906    1136.6207  0.022208299  0.020687971           70 
 4266000   0.56025286   -6.5636927    1136.5922  0.022202535  0.020681638          101 
 4267000   0.57628748   -6.5587707    1136.4663  0.022194874  0.020675324           83 
 4268000   0.56389271    -6.567752    1139.6361  0.022251564  0.020668999           81 
 4269000   0.56348746   -6.5724181    1138.0558  0.022215503  0.020662677           48 
 4270000   0.57237157   -6.5611514    1138.1474  0.022212089  0.020656358           65 
 4271000   0.57768169   -6.5834069    1134.8813  0.022143161  0.020650027           62 
 4272000   0.57172343   -6.5754006    1135.3707  0.022147525  0.020643706           57 
 4273000    0.5728654   -6.5637546    1137.0348  0.022174795  0.020637384          104 
 4274000    0.5730974   -6.5860635    1137.8039  0.022184603  0.020631074           96 
 4275000   0.56756358   -6.5677194    1136.5008  0.022154012  0.020624753          100 
 4276000   0.55867029   -6.5805538    1134.0959  0.022101962  0.020618449          102 
 4277000   0.57506335    -6.582743    1135.5683  0.022125483  0.020612131           90 
 4278000   0.57114172   -6.5793779    1136.7782  0.022143879  0.020605815          179 
 4279000   0.57107864   -6.5837045     1136.961  0.022142265  0.020599503          319 
 4280000   0.57691851   -6.6102626    1134.6976  0.022093021   0.02059318          156 
 4281000   0.57638649   -6.5766879    1136.1695  0.022116513  0.020586868          158 
 4282000   0.57057068   -6.5636423    1136.0313  0.022108658  0.020580555          131 
 4283000   0.56718845   -6.5886787    1138.5474  0.022152451  0.020574273          145 
 4284000    0.5625025   -6.6003574    1135.5245  0.022088479   0.02056798          170 
 4285000   0.56994434   -6.6022514    1135.2337  0.022077668  0.020561683          134 
 4286000   0.56597625   -6.5677295     1138.855  0.022142927  0.020555401          218 
 4287000   0.54906176    -6.565418    1137.1229  0.022104092  0.020549123          141 
 4288000   0.56826152   -6.5710027    1136.2756  0.022082471  0.020542851          196 
 4289000   0.55445419   -6.5823058    1136.3946  0.022079633  0.020536569          244 
 4290000   0.55043649   -6.5874773     1138.198  0.022109519  0.020530293           87 
 4291000   0.56583609   -6.5823483    1134.3512  0.022029659  0.020524017          140 
 4292000    0.5711012   -6.6111787    1135.9227  0.022055039  0.020517734          180 
 4293000    0.5588977   -6.6014923    1138.4005  0.022097999  0.020511448          168 
 4294000   0.57532476   -6.5689007    1138.0298  0.022085659  0.020505169          172 
 4295000    0.5735087   -6.6033024    1135.8881  0.022038961  0.020498896          156 
 4296000   0.56198626   -6.5948028    1136.7711  0.022050961  0.020492607          185 
 4297000   0.56104252    -6.604556    1137.2401  0.022054923  0.020486306          208 
 4298000   0.56270025   -6.5843559    1136.6699  0.022038736  0.020480014          206 
 4299000   0.57495477   -6.6039784     1137.524  0.022050167  0.020473716          191 
 4300000   0.56092084   -6.5810608    1137.7352  0.022049132  0.020467417          109 
 4301000   0.55954798   -6.5966864    1135.9417  0.022009256  0.020461137          119 
 4302000   0.56800792   -6.6233614    1134.2994  0.021972327   0.02045484          284 
 4303000   0.56150211   -6.6185523    1134.6497  0.021974004  0.020448544          149 
 4304000   0.56092484   -6.6122691    1137.8988  0.022031808  0.020442262          121 
 4305000   0.55262832   -6.6054815     1136.257  0.021994909  0.020435956          131 
 4306000   0.55476419   -6.6239344    1134.9835  0.021965155   0.02042965          113 
 4307000   0.55980472   -6.6178078    1133.2967  0.021927419  0.020423335          173 
 4308000   0.56924999   -6.6267654    1134.1392  0.021938625  0.020417032          164 
 4309000   0.57173522   -6.6171156    1133.7941  0.021926861  0.020410729          203 
 4310000   0.57542063   -6.5971821     1135.168  0.021948338   0.02040444          195 
 4311000   0.57325046   -6.6010968    1136.2595  0.021964344  0.020398159          202 
 4312000   0.56734305   -6.5951161    1136.9956  0.021973478  0.020391866           67 
 4313000    0.5626152   -6.5964937    1136.0387  0.021949894  0.020385578          185 
 4314000   0.54992829   -6.5942785    1137.3765  0.021970648  0.020379294           94 
 4315000   0.55377425   -6.6129304     1133.757  0.021895655   0.02037302          161 
 4316000   0.57031587   -6.5973326    1135.8213  0.021930438  0.020366752          112 
 4317000   0.56636504    -6.594253     1135.479  0.021918752   0.02036048          158 
 4318000   0.56033054   -6.6168109    1133.9767  0.021884682    0.0203542          186 
 4319000   0.55921417   -6.6164541    1136.2223  0.021922943  0.020347929           81 
 4320000   0.55436043   -6.5988587    1136.7083  0.021927244  0.020341669          101 
 4321000    0.5615014   -6.6163725    1136.0333   0.02190915  0.020335405           68 
 4322000   0.55906219     -6.58683    1133.2047  0.021849543  0.020329145          138 
 4323000   0.55857272   -6.6265859    1134.1051  0.021861846  0.020322879          197 
 4324000   0.55926993   -6.6183689    1134.2202  0.021859008  0.020316611          150 
 4325000   0.56237313   -6.6064824    1136.3662  0.021895303  0.020310348          148 
 4326000   0.56309757   -6.6126911    1135.1908    0.0218676   0.02030408          162 
 4327000   0.54402636   -6.6055044     1135.271  0.021864091  0.020297832          225 
 4328000   0.57144508   -6.6139489    1135.1949  0.021857573  0.020291577          146 
 4329000   0.55460208   -6.6121631    1137.5385  0.021897638  0.020285306          115 
 4330000   0.55434343   -6.6185103    1135.5101  0.021853543  0.020279045          130 
 4331000   0.56897555   -6.6221133     1134.611  0.021831198  0.020272792          120 
 4332000   0.55585683   -6.6169593    1136.2874  0.021858407  0.020266544          157 
 4333000   0.54459989   -6.6103954    1134.3657  0.021816403  0.020260299          114 
 4334000   0.55840879    -6.620531    1135.0174  0.021823901  0.020254044          274 
 4335000   0.57124908   -6.6165569    1133.5489  0.021790637  0.020247801          260 
 4336000    0.5433405   -6.6411008     1134.213  0.021798375  0.020241546          160 
 4337000   0.55869274   -6.6454199    1132.9759  0.021769578  0.020235291          179 
 4338000    0.5524791   -6.6189662    1135.4055  0.021811231  0.020229031          296 
 4339000    0.5461285   -6.6270919     1133.821  0.021775774  0.020222778          163 
 4340000   0.56329827   -6.6344723    1132.7117  0.021749456  0.020216525          139 
 4341000   0.55994043   -6.6403892     1133.633  0.021762131  0.020210271          148 
 4342000   0.55068072   -6.6437693    1134.2027  0.021768054  0.020204012          162 
 4343000   0.55896858   -6.6143492    1133.9905   0.02175897  0.020197769          143 
 4344000   0.55304184   -6.6281854    1130.9942  0.021696481  0.020191512          187 
 4345000   0.54780295   -6.6418404    1132.5771  0.021721847  0.020185264          370 
 4346000   0.57288497   -6.6196369    1133.8196  0.021740673  0.020179022          200 
 4347000   0.55013298   -6.6557364    1132.5137  0.021710637  0.020172769          364 
 4348000   0.56316447   -6.6339949    1133.9577  0.021733319  0.020166533          165 
 4349000   0.56850348   -6.6326517    1133.7857  0.021725027  0.020160286          131 
 4350000   0.55400332     -6.63945    1133.0713  0.021706346   0.02015404          197 
 4351000   0.55384549   -6.6389454    1131.8929  0.021678788  0.020147795          435 
 4352000    0.5497513   -6.6402475    1132.8747  0.021692607  0.020141562          302 
 4353000   0.56177347   -6.6459457    1132.4597  0.021679679  0.020135329          151 
 4354000   0.56621893   -6.6163746    1135.7505  0.021737683   0.02012911          178 
 4355000   0.54732461   -6.6235187     1134.457  0.021707942  0.020122899          167 
 4356000   0.54673816   -6.6338344    1134.2829  0.021699628  0.020116686          304 
 4357000   0.55028001   -6.6332824    1134.2963  0.021694902  0.020110477          250 
 4358000   0.56997699   -6.6338912    1133.4397  0.021673544  0.020104256          188 
 4359000   0.55499545   -6.6314305    1134.9267     0.021697  0.020098025          409 
 4360000   0.54590017   -6.6479468    1133.4182  0.021663191  0.020091813          443 
 4361000   0.54784009    -6.641144    1132.4352  0.021639441  0.020085597          487 
 4362000   0.55646386   -6.6316898    1134.4805  0.021673555  0.020079368          494 
 4363000   0.56952129   -6.6213711    1136.0161  0.021697916  0.020073161          238 
 4364000    0.5545945   -6.6421189    1134.6328  0.021666528  0.020066949          448 
 4365000   0.54295762   -6.6216164    1133.0545  0.021631434  0.020060734          411 
 4366000   0.55106603   -6.6593268    1132.8828  0.021623201  0.020054505          529 
 4367000   0.54398026   -6.6451094    1133.1041  0.021622473  0.020048283          447 
 4368000   0.55259365   -6.6726937    1134.3468  0.021641232  0.020042051          505 
 4369000   0.56199867    -6.655206    1131.9203  0.021589996  0.020035817          464 
 4370000   0.55321382   -6.6608963    1132.6136  0.021598277  0.020029592          563 
 4371000    0.5577707   -6.6405536      1134.41  0.021627583  0.020023388          475 
 4372000   0.56248524   -6.6406442    1131.6383  0.021569807  0.020017186          501 
 4373000   0.55745274   -6.6336538    1131.7961   0.02156788  0.020010969          532 
 4374000   0.55697461   -6.6364818    1135.0674  0.021625274  0.020004766          423 
 4375000   0.55730631   -6.6257401    1134.3295  0.021606276  0.019998568          437 
 4376000   0.55971474   -6.6217267    1134.1884  0.021598651  0.019992363          477 
 4377000   0.55476957    -6.640603    1133.5387  0.021581348  0.019986164          380 
 4378000   0.54343744   -6.6437717    1131.4342   0.02153636  0.019979958          269 
 4379000   0.54852229   -6.6279122    1134.1068  0.021582303  0.019973753          445 
 4380000   0.54347429   -6.6113168    1133.4019  0.021563962   0.01996755          331 
 4381000   0.55278706   -6.6296915    1134.8228  0.021586069  0.019961364          270 
 4382000   0.55034563    -6.636922    1130.9623  0.021507726  0.019955174          408 
 4383000   0.55772086   -6.6425552    1132.0527  0.021523552  0.019948987          386 
 4384000   0.55010593   -6.6363432    1131.7316  0.021512538  0.019942793          409 
 4385000   0.55292676   -6.6541887    1130.3674  0.021481707  0.019936602          467 
 4386000   0.55095909   -6.6433959     1130.552  0.021480315  0.019930394          547 
 4387000   0.55896549   -6.6148602    1131.2161  0.021488034   0.01992421          413 
 4388000    0.5483414   -6.6346089      1133.16  0.021520054  0.019918024          351 
 4389000   0.53712113   -6.6317859    1133.5748  0.021523028  0.019911826          351 
 4390000   0.55222783   -6.6345546    1129.6844  0.021444276  0.019905631          502 
 4391000   0.54887071   -6.6358144    1131.5353  0.021474519  0.019899439          463 
 4392000   0.55504679   -6.6431118    1131.9842  0.021478146  0.019893261          258 
 4393000   0.55108803    -6.653648    1129.1598  0.021419679  0.019887088          505 
 4394000   0.55212009   -6.6406395    1133.5853  0.021498735  0.019880902          241 
 4395000   0.53771084   -6.6667534    1131.6854  0.021457819  0.019874734          444 
 4396000   0.55543776   -6.6631075    1132.6694  0.021471591  0.019868564          354 
 4397000   0.55715905   -6.6344099    1132.5733  0.021464887  0.019862385          390 
 4398000   0.54769218   -6.6588466    1134.8253  0.021502678  0.019856235          415 
 4399000    0.5493479   -6.6686888    1133.4218  0.021471201  0.019850066          461 
 4400000   0.54714473   -6.6547551    1129.8962  0.021399549  0.019843891          490 
 4401000   0.55995809   -6.6543058    1133.7785  0.021468199  0.019837743          451 
 4402000   0.53322644   -6.6545924    1131.7164  0.021424285  0.019831598          470 
 4403000    0.5428673   -6.6466045     1134.253  0.021467428  0.019825447          515 
 4404000   0.55759169   -6.6572631    1132.3627  0.021426784  0.019819302          391 
 4405000   0.55328541   -6.6307331    1132.8446  0.021431037  0.019813163          600 
 4406000   0.54221763    -6.647789    1132.3709  0.021417214  0.019807029          583 
 4407000   0.54368365   -6.6505222    1131.3933  0.021393868  0.019800884          572 
 4408000   0.54909716   -6.6528379    1132.0853  0.021402097  0.019794731          580 
 4409000   0.54982575   -6.6440142    1131.2144  0.021380782  0.019788592          599 
 4410000   0.53658198   -6.6534472    1131.3641  0.021378763  0.019782443          627 
 4411000    0.5496732   -6.6587655    1133.4654  0.021413614  0.019776297          568 
 4412000   0.55162733    -6.655616    1130.1526  0.021346189  0.019770145          440 
 4413000   0.55002661   -6.6496321    1130.9862  0.021357093   0.01976401          577 
 4414000   0.54403028   -6.6535383    1132.8802  0.021388011  0.019757876          637 
 4415000   0.54192946   -6.6665829    1133.5693  0.021396174  0.019751736          361 
 4416000   0.53085037   -6.6422177    1132.1529    0.0213646  0.019745596          569 
 4417000   0.54730786   -6.6251544    1132.9474  0.021374753  0.019739469          555 
 4418000   0.55208172   -6.6386965    1133.0258  0.021371394  0.019733349          528 
 4419000   0.54263853   -6.6620776    1131.5957  0.021339588  0.019727219          543 
 4420000   0.54828985   -6.6534773    1134.1007   0.02138199  0.019721093          541 
 4421000   0.54666996   -6.6477372    1134.0289  0.021375799  0.019714964          260 
 4422000   0.55793792   -6.6703126    1131.3954  0.021321337  0.019708849          575 
 4423000   0.54609531   -6.6403537    1134.4678  0.021374403  0.019702739          271 
 4424000   0.54896439   -6.6429441    1133.6454   0.02135408  0.019696632          482 
 4425000    0.5372471   -6.6654985    1133.4544  0.021345658  0.019690519          302 
 4426000   0.54239373   -6.6460674    1132.3309  0.021319681  0.019684408          579 
 4427000   0.54762661    -6.666472    1134.1546  0.021349195  0.019678299          505 
 4428000   0.54073541   -6.6532824    1133.0837  0.021324219  0.019672194          401 
 4429000   0.54867932   -6.6497456     1132.313  0.021304904  0.019666082          650 
 4430000   0.54402092   -6.6533588    1131.4738  0.021284307  0.019659969          574 
 4431000   0.54172828   -6.6501884    1129.9241   0.02125036   0.01965384          569 
 4432000    0.5461356    -6.651426    1131.9487  0.021283632  0.019647711          669 
 4433000   0.53219305   -6.6536399    1133.7111  0.021311962  0.019641584          600 
 4434000   0.53763357   -6.6636641     1130.466  0.021246165  0.019635477          707 
 4435000   0.53202416   -6.6464069    1130.1147  0.021234775  0.019629357          682 
 4436000   0.54489539   -6.6553227    1129.5437  0.021219261  0.019623237          650 
 4437000   0.53533308   -6.6748914    1131.3096  0.021247645  0.019617124          695 
 4438000   0.54226201   -6.6725603    1131.6635  0.021249503  0.019610998          696 
 4439000   0.55209888   -6.6639489    1131.3219  0.021238303  0.019604889          757 
 4440000   0.54069949   -6.6512938    1131.8985  0.021244342  0.019598797          663 
 4441000   0.53260521   -6.6619001    1133.7894   0.02127504  0.019592699          688 
 4442000   0.54585741   -6.6762369    1133.1559  0.021258366  0.019586583          712 
 4443000   0.54265835   -6.6864713    1130.3387  0.021200741  0.019580479          685 
 4444000   0.53749952   -6.6940034    1129.0597  0.021171987  0.019574373          814 
 4445000   0.54890701    -6.681768    1130.1188  0.021187078  0.019568279          712 
 4446000   0.54255174   -6.6676926    1129.7337  0.021175095  0.019562168          816 
 4447000   0.54023644   -6.6698957    1130.4557  0.021183863   0.01955607          790 
 4448000   0.54435268   -6.6767878    1132.8166  0.021223332  0.019549981          822 
 4449000    0.5452195   -6.6925901    1129.1731  0.021150316  0.019543889          770 
 4450000   0.53869465   -6.6928761    1129.6968   0.02115537  0.019537793          823 
 4451000    0.5335297   -6.6783729    1131.1789  0.021178366  0.019531704          757 
 4452000   0.54508172   -6.6676237    1128.4681  0.021122869  0.019525617          850 
 4453000   0.54385173   -6.6652751    1133.0431  0.021203741  0.019519537          757 
 4454000   0.53948118   -6.6576329    1133.5247  0.021207991  0.019513457          743 
 4455000   0.53062312   -6.6558767     1131.852  0.021171941   0.01950738          674 
 4456000    0.5260555   -6.6639989    1132.6803   0.02118268  0.019501307          739 
 4457000   0.53518983   -6.6713834    1131.5231  0.021156292  0.019495218          768 
 4458000   0.52223866   -6.6802061    1131.7149  0.021155132  0.019489146          762 
 4459000    0.5430533   -6.6784591    1131.1221  0.021139308  0.019483064          791 
 4460000   0.53895586   -6.6811687    1131.1902  0.021135841  0.019476982          681 
 4461000   0.54201494    -6.671373    1130.9663  0.021126921  0.019470915          751 
 4462000   0.54388493   -6.6824385    1127.1878  0.021051618  0.019464848          863 
 4463000   0.54781226   -6.6754617    1130.3987  0.021106854  0.019458793          766 
 4464000   0.54422812   -6.6834342    1129.2978  0.021081575  0.019452728          761 
 4465000   0.52696521   -6.6872536    1128.7905  0.021067386  0.019446654          828 
 4466000   0.52095929   -6.6700014     1129.029  0.021067117  0.019440581          800 
 4467000   0.53550082     -6.69365    1129.4946  0.021071089  0.019434508          815 
 4468000   0.53995449   -6.6893742    1131.6757  0.021107053  0.019428429          732 
 4469000    0.5409475   -6.6839413    1129.8013  0.021067377  0.019422361          901 
 4470000   0.52799796   -6.6760036    1131.3163  0.021090908  0.019416289          847 
 4471000    0.5351562   -6.6817391    1130.0717  0.021062992  0.019410229          826 
 4472000   0.53206044   -6.6794518    1129.5624  0.021048793  0.019404166          776 
 4473000   0.55867226    -6.682744     1129.756  0.021047694  0.019398113          758 
 4474000   0.54442381   -6.6820032    1129.8984  0.021045641  0.019392059          809 
 4475000   0.53004967   -6.6804691    1130.5928   0.02105387  0.019386006          802 
 4476000   0.54154479   -6.6840366    1129.5118   0.02102904  0.019379956          777 
 4477000   0.54653492   -6.6917767    1130.0275  0.021033942  0.019373907          780 
 4478000   0.53539739    -6.670908    1130.0262   0.02102922   0.01936786          717 
 4479000   0.52757565   -6.6941785    1131.1738  0.021045878  0.019361817          860 
 4480000   0.53508486     -6.68874    1130.8407  0.021034984   0.01935577          831 
 4481000   0.53151985   -6.7068338    1129.7455  0.021009922  0.019349731          886 
 4482000   0.53795652    -6.710058    1130.5567  0.021020317  0.019343686          805 
 4483000   0.54830424   -6.6912455      1128.23  0.020972377  0.019337643          885 
 4484000    0.5335508   -6.6901529    1130.8443  0.021016287  0.019331597          934 
 4485000   0.53490589   -6.6872491    1128.7644  0.020972954  0.019325548          788 
 4486000   0.53265252   -6.7111843    1128.6518  0.020966187    0.0193195          801 
 4487000   0.54132998   -6.6927337    1131.1756  0.021008387   0.01931346          827 
 4488000   0.52680595   -6.6842165    1130.4092  0.020989476  0.019307421          856 
 4489000   0.54153174   -6.6930224    1129.6335  0.020970401  0.019301379          763 
 4490000   0.53329492    -6.693837    1127.7173  0.020930165  0.019295344          808 
 4491000   0.54482931   -6.7040996    1128.9273  0.020947957  0.019289303          795 
 4492000   0.52607525    -6.720343    1128.5043  0.020935446  0.019283267          882 
 4493000    0.5299956   -6.7119337       1127.9  0.020919578  0.019277222          896 
 4494000   0.53735858   -6.7074991    1124.8246  0.020857896  0.019271189          935 
 4495000     0.532471     -6.69872    1128.2984  0.020917656  0.019265154          858 
 4496000   0.54121556   -6.7074847    1129.6214  0.020937525  0.019259121          916 
 4497000   0.53531063   -6.7060593    1127.5195   0.02089392  0.019253095          860 
 4498000    0.5351306   -6.6997178     1129.571  0.020927283  0.019247069          790 
 4499000   0.52426928   -6.7194004    1128.5568  0.020903845  0.019241033          964 
 4500000   0.53671786   -6.7080864    1128.3898  0.020896108  0.019234999          934 
 4501000   0.52769261   -6.7007967    1130.2636  0.020926156  0.019228991          902 
 4502000   0.52357462   -6.6886812    1130.9267  0.020933784  0.019222985          916 
 4503000   0.52730918   -6.7141364    1128.6337    0.0208867   0.01921697          821 
 4504000   0.54019686   -6.6920531    1129.9265  0.020905982  0.019210955          859 
 4505000   0.53143781   -6.6883888    1129.1226  0.020886471   0.01920494          768 
 4506000   0.52168855   -6.7094606    1126.9795  0.020842201  0.019198919          910 
 4507000   0.54081869   -6.7040477    1128.4482  0.020864732  0.019192902          914 
 4508000   0.53752439   -6.7193847    1130.6732  0.020901234  0.019186888          889 
 4509000   0.52829723   -6.7116195    1127.6816  0.020841311  0.019180881          864 
 4510000    0.5318823   -6.6847557    1126.7636  0.020819726  0.019174872          915 
 4511000   0.53824369   -6.7063268    1130.2292  0.020879132  0.019168864         1019 
 4512000   0.51648569   -6.6916423      1127.29  0.020820221  0.019162849          901 
 4513000   0.52764176   -6.7129693    1128.8418  0.020844261   0.01915684          910 
 4514000   0.52232451   -6.7322683    1126.9905  0.020805466  0.019150826          921 
 4515000   0.54056673   -6.7027039    1128.2571  0.020824237  0.019144813          849 
 4516000   0.53279931   -6.7222317    1127.1953  0.020800031  0.019138803          852 
 4517000   0.51400557   -6.7055053    1127.8567  0.020807628  0.019132796          942 
 4518000    0.5266289   -6.7156063    1128.8766  0.020821835  0.019126791          948 
 4519000   0.51839709   -6.7225568    1129.2824   0.02082471  0.019120792         1026 
 4520000   0.53035787   -6.7160604    1127.5596   0.02078834  0.019114792          977 
 4521000   0.52568875   -6.7302872    1127.4577  0.020781864  0.019108788          978 
 4522000   0.53952198   -6.7134034    1128.6817  0.020799825  0.019102789          951 
 4523000   0.52598762   -6.7162751    1127.5254  0.020773923  0.019096786          903 
 4524000   0.52725186   -6.7222962    1125.8893  0.020739193  0.019090791          842 
 4525000   0.51741133   -6.7415762    1126.0721  0.020737976  0.019084792          928 
 4526000   0.52696653   -6.7130182    1127.6437  0.020762331  0.019078796          976 
 4527000   0.51934492   -6.7247856    1127.9523  0.020763426  0.019072805         1061 
 4528000   0.52497609   -6.7219105    1126.9749  0.020740852   0.01906681         1077 
 4529000   0.52621136   -6.7134303    1128.0994  0.020756962  0.019060818         1014 
 4530000   0.52286502   -6.7351042    1127.9588  0.020749794  0.019054829         1004 
 4531000   0.53171627   -6.6998307    1130.2961  0.020788201  0.019048841          911 
 4532000   0.53023649   -6.7160721    1125.6564  0.020698301   0.01904286          936 
 4533000   0.51685815   -6.7213922    1128.0742  0.020738184  0.019036882          966 
 4534000   0.53159161   -6.7082548     1128.447  0.020740462  0.019030902         1007 
 4535000   0.51055409   -6.7221488    1127.6322  0.020720914   0.01902492          961 
 4536000   0.52054684   -6.7278548    1126.4197  0.020694071  0.019018943          998 
 4537000   0.52875043   -6.7272584    1126.2596   0.02068657  0.019012959         1044 
 4538000   0.52559345   -6.7100096    1125.9725  0.020676739  0.019006991          995 
 4539000   0.52980961    -6.723924    1125.8189  0.020669364  0.019001005          995 
 4540000   0.52532065   -6.7228338    1127.8697  0.020702455  0.018995028          992 
 4541000   0.53106347   -6.7146912    1128.4054  0.020707726  0.018989062          946 
 4542000   0.52765304   -6.7325618    1128.1714  0.020698874  0.018983093          891 
 4543000    0.5121851    -6.719176    1125.4834   0.02064501  0.018977129         1037 
 4544000   0.51688909     -6.73673    1127.6068  0.020679409  0.018971163         1019 
 4545000   0.52326473   -6.7031803    1128.9549  0.020699577  0.018965211          967 
 4546000   0.51698139   -6.7195744    1127.4098    0.0206667  0.018959251         1111 
 4547000   0.53078994   -6.7306548    1128.3957  0.020680223  0.018953291         1080 
 4548000   0.52350976   -6.7435023    1125.5368  0.020623292  0.018947336         1013 
 4549000   0.51902856   -6.7296828    1124.9519  0.020608044  0.018941364         1135 
 4550000   0.51639423   -6.7050742    1126.3547  0.020629207  0.018935406         1081 
 4551000   0.52118248   -6.7189952    1126.9787    0.0206361  0.018929442         1071 
 4552000   0.52343202   -6.7081337    1127.7449  0.020645594  0.018923488         1111 
 4553000   0.53300666    -6.724193    1125.0904  0.020592474  0.018917545         1106 
 4554000   0.52015078   -6.7272758    1127.7074   0.02063584  0.018911601         1080 
 4555000   0.51826035   -6.7416072      1124.02  0.020563849  0.018905655         1135 
 4556000   0.52166138    -6.727942    1124.2119  0.020562845  0.018899696         1102 
 4557000    0.5179648   -6.7140559    1128.6213  0.020638968  0.018893755         1060 
 4558000    0.5197988   -6.7302661    1126.4787  0.020595267  0.018887811         1012 
 4559000   0.51562613   -6.7237425    1128.6091  0.020629691   0.01888187         1012 
 4560000   0.51873566   -6.7313969    1127.9978  0.020613995   0.01887594         1079 
 4561000   0.53135418   -6.7118491    1125.9301  0.020571697  0.018870011         1120 
 4562000   0.51880831    -6.732194     1127.234  0.020591005  0.018864078         1055 
 4563000   0.50831447   -6.7296223    1128.8419  0.020615857  0.018858153         1085 
 4564000   0.52773894   -6.7354914    1125.2321  0.020545431  0.018852227         1070 
 4565000    0.5224453   -6.7057358    1128.3173  0.020597249  0.018846311         1071 
 4566000   0.52975499   -6.7361642    1126.5582  0.020560633  0.018840403          977 
 4567000   0.51689067   -6.7173143    1125.2872  0.020532939  0.018834492         1107 
 4568000     0.526611    -6.740633    1126.8832  0.020557561  0.018828578         1066 
 4569000   0.51847589   -6.7255108    1127.4801  0.020563947  0.018822681         1056 
 4570000    0.5163099   -6.7271173    1127.8442  0.020566088  0.018816781         1070 
 4571000   0.51993825   -6.7238712    1126.3253  0.020533896   0.01881087         1143 
 4572000   0.51610394    -6.736765    1127.3532  0.020548141  0.018804963         1056 
 4573000   0.52307329   -6.7318817    1124.7489   0.02049619  0.018799057         1020 
 4574000   0.52086388   -6.7181124    1127.4382  0.020540704  0.018793149         1028 
 4575000   0.51563167    -6.745038    1126.4041  0.020517379  0.018787243         1114 
 4576000   0.52217289   -6.7512122    1126.2147  0.020509447  0.018781355         1026 
 4577000   0.51924687   -6.7174626    1127.0492  0.020520159  0.018775457         1038 
 4578000   0.51962415   -6.7343891    1128.4643  0.020541435  0.018769568         1008 
 4579000   0.51708992    -6.724553    1126.3338  0.020498176   0.01876367         1041 
 4580000   0.52084236    -6.732752    1127.3208   0.02051166  0.018757775          976 
 4581000   0.51506409   -6.7434408    1126.6596  0.020495154  0.018751876         1053 
 4582000   0.51205374    -6.735021    1125.7489  0.020474118   0.01874599         1070 
 4583000   0.51645997   -6.7261901     1128.862  0.020526256  0.018740111         1031 
 4584000   0.51591691   -6.7370816    1126.9879   0.02048771   0.01873423         1105 
 4585000   0.52580373   -6.7222119    1127.0391  0.020484172  0.018728349         1013 
 4586000   0.50657403   -6.7407309    1126.8553  0.020476364  0.018722465         1103 
 4587000   0.51211825   -6.7301739    1127.3677  0.020481209  0.018716582         1037 
 4588000   0.51662315   -6.7431135    1128.2372  0.020492539    0.0187107         1103 
 4589000   0.52068942   -6.7438773    1125.1468  0.020431953  0.018704819          997 
 4590000   0.50654628   -6.7470445    1125.3975  0.020432054  0.018698937         1081 
 4591000   0.51837884   -6.7228779    1127.6558  0.020468595   0.01869306         1034 
 4592000   0.52119161   -6.7416591    1125.6726  0.020428147  0.018687181         1109 
 4593000   0.51216497   -6.7363039    1126.4672  0.020438116    0.0186813         1120 
 4594000   0.50925875   -6.7423983    1126.5439  0.020435058  0.018675423         1180 
 4595000   0.50858449   -6.7139412    1126.4128  0.020428233  0.018669546         1084 
 4596000    0.5135623   -6.7392658    1126.0881  0.020417902  0.018663672         1050 
 4597000   0.51774568   -6.7408671    1128.2675  0.020452967    0.0186578         1166 
 4598000   0.51371447   -6.7372081    1124.6595  0.020383129  0.018651938         1129 
 4599000   0.50310998   -6.7259174    1127.3982  0.020428322  0.018646065         1128 
 4600000   0.52814557   -6.7434284    1125.8526  0.020395881  0.018640199         1163 
 4601000   0.52603058    -6.732968    1125.7823  0.020390174  0.018634341         1102 
 4602000   0.52246534   -6.7317195    1126.3383  0.020395811  0.018628481         1120 
 4603000   0.52219054   -6.7415743    1124.5524  0.020359048  0.018622616         1175 
 4604000   0.51500888   -6.7335628    1125.2917  0.020368007  0.018616751         1188 
 4605000   0.51574826   -6.7423288    1123.3919  0.020329206  0.018610891         1238 
 4606000   0.51495969   -6.7434081    1127.4201  0.020397672  0.018605035         1220 
 4607000   0.52419043   -6.7534671    1126.1955  0.020371094  0.018599176         1171 
 4608000   0.51350484    -6.750219    1127.0369  0.020381888  0.018593325         1157 
 4609000   0.51704356   -6.7469377    1125.7554  0.020354297  0.018587471         1190 
 4610000    0.5155891   -6.7555288    1124.7593  0.020331874  0.018581631         1193 
 4611000   0.51057638    -6.754673     1126.682  0.020362214  0.018575788         1166 
 4612000   0.51463032   -6.7462922    1126.7919  0.020359784  0.018569939         1189 
 4613000    0.5100814   -6.7561981    1126.9139  0.020357574  0.018564091         1197 
 4614000   0.50812964   -6.7551729    1124.1908  0.020303981  0.018558247         1180 
 4615000   0.51838889   -6.7632264    1125.8379  0.020329324  0.018552404         1257 
 4616000   0.51748358   -6.7487143     1125.449  0.020317898  0.018546561         1152 
 4617000   0.51106919   -6.7263301    1126.4615  0.020331772  0.018540725         1102 
 4618000   0.50526294   -6.7574212    1124.9725  0.020300499  0.018534895         1215 
 4619000     0.522108   -6.7606202    1125.0144  0.020296862  0.018529055         1241 
 4620000   0.52035547   -6.7563339     1125.533  0.020301821  0.018523222         1176 
 4621000   0.52577614   -6.7505445    1124.5235  0.020279223  0.018517388         1233 
 4622000    0.5246712   -6.7356885    1124.0413  0.020266142   0.01851157         1100 
 4623000   0.51380379   -6.7555371     1123.904  0.020259284  0.018505748         1102 
 4624000   0.50418836   -6.7265505    1124.9806  0.020274305  0.018499925         1177 
 4625000   0.51660582   -6.7601913     1123.898  0.020250414  0.018494113         1219 
 4626000    0.5180294   -6.7616796     1125.325  0.020271743  0.018488287         1255 
 4627000   0.51171442   -6.7489509    1127.1281  0.020299837  0.018482467         1209 
 4628000    0.5049957   -6.7595258    1122.0826  0.020204598  0.018476645         1248 
 4629000   0.51486599   -6.7450916    1126.4559  0.020278964  0.018470831         1213 
 4630000   0.51584388   -6.7517491    1123.2127  0.020216211  0.018465014         1225 
 4631000   0.51461089   -6.7599525    1124.1075  0.020227947  0.018459205         1135 
 4632000   0.50483961   -6.7543538    1123.8532  0.020219005  0.018453394         1177 
 4633000   0.50977825   -6.7420651    1124.6467  0.020228914  0.018447586         1183 
 4634000   0.51292825     -6.76941    1123.3531  0.020201285  0.018441777         1326 
 4635000   0.52185781    -6.756875    1127.3465  0.020268725  0.018435969         1265 
 4636000   0.50338563   -6.7580131      1125.13  0.020224512  0.018430159         1303 
 4637000   0.51955487   -6.7708202    1123.9033  0.020198105  0.018424337         1220 
 4638000   0.51521126    -6.757414    1125.5754  0.020223792  0.018418524         1309 
 4639000   0.50647208   -6.7506621    1124.0627  0.020192259  0.018412719         1200 
 4640000   0.51241881   -6.7678959    1122.6838  0.020163144  0.018406915         1211 
 4641000   0.51902494   -6.7819908    1124.0774  0.020183821   0.01840111         1205 
 4642000   0.50556045   -6.7560891    1120.8865   0.02012219  0.018395306         1182 
 4643000   0.50723468   -6.7528755    1124.0653   0.02017491  0.018389507         1253 
 4644000   0.50530754   -6.7621769    1122.7244  0.020146504   0.01838371         1148 
 4645000   0.50486978   -6.7447146    1126.1851  0.020204253  0.018377922         1099 
 4646000   0.52032042   -6.7612956    1126.5879   0.02020713  0.018372139         1135 
 4647000   0.50904953   -6.7574749    1125.2315  0.020178457  0.018366359         1079 
 4648000   0.50257034   -6.7465483    1122.4073  0.020123481  0.018360577         1110 
 4649000   0.51576104   -6.7532572    1125.7213  0.020178557  0.018354803         1181 
 4650000   0.49996605   -6.7599419    1125.8993  0.020177407  0.018349022         1215 
 4651000   0.50527808    -6.768488    1125.9132  0.020173318  0.018343246         1159 
 4652000   0.50223569   -6.7387987    1125.0822  0.020154096  0.018337465         1232 
 4653000   0.50545198   -6.7690342    1125.0816  0.020149753  0.018331691         1204 
 4654000   0.50630906   -6.7616591    1124.8732  0.020141692  0.018325914         1190 
 4655000   0.51319119   -6.7477163    1123.4397  0.020111702  0.018320141         1198 
 4656000   0.49567019     -6.75295     1123.656  0.020111254  0.018314364         1190 
 4657000    0.5054886   -6.7662382    1124.5745  0.020123372  0.018308599         1161 
 4658000   0.51089307   -6.7616663    1123.6684  0.020102842  0.018302828         1216 
 4659000   0.51363987   -6.7666767    1123.4042    0.0200938  0.018297067         1271 
 4660000   0.51554106   -6.7756896    1122.9669  0.020081669  0.018291308         1165 
 4661000   0.49952571   -6.7505696     1124.788  0.020109919  0.018285547         1279 
 4662000   0.51210786   -6.7813283    1125.0872  0.020110954  0.018279779         1219 
 4663000   0.51050209   -6.7734807    1123.1101  0.020071307  0.018274029         1224 
 4664000    0.5138481   -6.7796861    1121.3998  0.020036445   0.01826827         1171 
 4665000   0.50382898   -6.7764157     1122.172  0.020045944  0.018262512         1249 
 4666000   0.50089292   -6.7716389    1125.8695  0.020107685  0.018256749         1191 
 4667000    0.5051284   -6.7780318    1125.0976  0.020089594  0.018250992         1210 
 4668000   0.50142683   -6.7607313    1122.7851  0.020044007  0.018245243         1176 
 4669000   0.50578156   -6.7621496    1122.9508  0.020042672  0.018239485         1256 
 4670000   0.51039281   -6.7717862    1122.4185  0.020028882  0.018233735         1239 
 4671000   0.50012837   -6.7727965    1123.4363   0.02004275  0.018227994         1171 
 4672000   0.50012292   -6.7733368    1123.1389  0.020033157  0.018222244         1265 
 4673000   0.49485103   -6.7667059    1122.9016  0.020024638  0.018216486         1262 
 4674000   0.49533752   -6.7872939    1122.4141  0.020011663  0.018210737         1283 
 4675000   0.50087353   -6.7585639    1123.8427  0.020032846  0.018204988         1222 
 4676000   0.50704473   -6.7705641    1123.5214  0.020022836  0.018199255         1190 
 4677000   0.50744851   -6.7710324    1122.4582  0.019999612  0.018193516         1158 
 4678000   0.51035936   -6.7806509    1123.4897  0.020013712  0.018187778         1206 
 4679000   0.49888966   -6.7724233    1123.3415  0.020006794  0.018182046         1194 
 4680000   0.50563392   -6.7566323    1124.6605  0.020026007   0.01817632         1165 
 4681000   0.48716128   -6.7552635    1125.1134   0.02002979  0.018170593         1159 
 4682000   0.49102256   -6.7810758    1121.4551    0.0199604  0.018164858         1242 
 4683000   0.49131526   -6.7769012    1124.2633  0.020006108  0.018159136         1168 
 4684000    0.5137697   -6.7775812    1123.3004  0.019984707  0.018153418         1203 
 4685000   0.50648794   -6.7723329    1123.9564   0.01999211  0.018147694         1295 
 4686000   0.49213661   -6.7738303    1122.9219  0.019969446  0.018141978         1153 
 4687000   0.50278105   -6.7662922    1123.1788  0.019969753  0.018136259         1238 
 4688000   0.49707023   -6.7626889    1121.7957  0.019940908  0.018130538         1212 
 4689000   0.50285447   -6.7751717    1123.2596  0.019962671  0.018124826         1254 
 4690000   0.50090752   -6.7783302    1123.3765  0.019960492  0.018119115         1181 
 4691000   0.50351374     -6.76394    1123.8306  0.019964304  0.018113401         1203 
 4692000   0.49886093   -6.7809083    1122.8032  0.019941802  0.018107687         1180 
 4693000   0.50508273   -6.7638656    1123.6454  0.019952507  0.018101978         1164 
 4694000   0.50626321   -6.7950336    1124.9519   0.01997145  0.018096265         1286 
 4695000   0.51651964   -6.7840955    1123.7481  0.019945831  0.018090557         1243 
 4696000   0.49588016    -6.780505    1123.9644  0.019945422  0.018084862         1214 
 4697000   0.50926309   -6.7651402    1123.2178   0.01992793  0.018079163         1261 
 4698000   0.50127707   -6.7816875    1124.5252  0.019946877  0.018073461         1256 
 4699000   0.50047196   -6.7686774     1124.659  0.019945006  0.018067763         1284 
 4700000   0.49401867   -6.7883567    1122.7419  0.019906771  0.018062073         1265 
 4701000   0.50531917   -6.7857931    1119.3006  0.019841534  0.018056381         1225 
 4702000    0.5011613   -6.7929276    1123.2625  0.019907531  0.018050685         1242 
 4703000   0.50293337   -6.7886561     1123.048  0.019899496  0.018044995         1231 
 4704000   0.51025765   -6.7779255    1122.2986  0.019881991  0.018039308         1296 
 4705000   0.50616693   -6.7878378    1123.4965  0.019898981  0.018033616         1290 
 4706000   0.49447752   -6.7857209    1122.7378  0.019881318  0.018027922         1296 
 4707000   0.49449176   -6.7874693    1123.1692  0.019884733  0.018022232         1300 
 4708000   0.50721241    -6.786928    1122.1965  0.019863291  0.018016548         1295 
 4709000   0.49666023   -6.7726783    1124.8596    0.0199062  0.018010861         1324 
 4710000   0.49688801    -6.771451    1122.0351  0.019852002  0.018005177         1328 
 4711000   0.50373097   -6.7717627     1121.198  0.019832979  0.017999489         1287 
 4712000   0.50145268   -6.7775948    1123.5636  0.019870607  0.017993808         1360 
 4713000    0.4792969   -6.7683652    1123.4464  0.019864319  0.017988116         1306 
 4714000   0.50989932   -6.8067914    1121.3977  0.019823887  0.017982437         1233 
 4715000   0.50649151   -6.7910691    1122.0956  0.019832018  0.017976769         1333 
 4716000   0.49945124   -6.7757412    1122.8762  0.019841606  0.017971095         1315 
 4717000   0.49673708   -6.7789178    1124.1222  0.019859413  0.017965424         1202 
 4718000    0.4933765   -6.7828949    1123.0749  0.019836705  0.017959758         1246 
 4719000   0.49937832   -6.7865708     1123.372  0.019837748  0.017954087         1299 
 4720000   0.49904039   -6.7913721    1123.0972  0.019828694   0.01794842         1227 
 4721000   0.50886789   -6.7720744    1124.2419    0.0198447  0.017942765         1298 
 4722000   0.50558525   -6.8056795    1122.5127   0.01980998  0.017937113         1355 
 4723000   0.49537474   -6.7949007    1122.4929  0.019805436  0.017931453         1295 
 4724000   0.50084219   -6.7877523    1122.1887  0.019795878   0.01792578         1272 
 4725000   0.49746053   -6.7923089    1123.1905  0.019809356  0.017920121         1305 
 4726000   0.50885072   -6.7833069    1122.5544  0.019793948  0.017914464         1258 
 4727000   0.50557735   -6.7853808     1123.311  0.019803098  0.017908809         1226 
 4728000   0.49617166   -6.7862811    1121.1957  0.019761627  0.017903159         1292 
 4729000   0.49439095   -6.7927635    1121.4596    0.0197621   0.01789751         1301 
 4730000   0.49608197   -6.7831135    1123.0515  0.019785967  0.017891866         1210 
 4731000   0.48898661   -6.7911846    1121.0688  0.019746861  0.017886215         1292 
 4732000   0.49600387   -6.7891924    1120.4213  0.019731286  0.017880565         1197 
 4733000   0.49955727   -6.7877746    1121.4035   0.01974441  0.017874922         1289 
 4734000   0.48613335   -6.7921268    1120.2366  0.019719698  0.017869274         1326 
 4735000   0.48853785   -6.7998012    1122.1544  0.019749286   0.01786363         1324 
 4736000   0.49766846    -6.804025     1120.312  0.019712698  0.017857983         1353 
 4737000   0.48831524   -6.7884766     1121.609  0.019731353  0.017852338         1343 
 4738000   0.49460872   -6.8135333    1122.2161  0.019737865  0.017846709         1318 
 4739000   0.48044395   -6.7806342    1122.8157  0.019744244   0.01784108         1359 
 4740000   0.48292096   -6.7810097    1121.0542  0.019709111  0.017835444         1350 
 4741000   0.49705286   -6.8023692    1119.6622  0.019680485  0.017829808         1363 
 4742000   0.48808038   -6.8048119    1121.3852  0.019706615  0.017824169         1317 
 4743000   0.49235507   -6.7912133    1122.1415  0.019715749  0.017818534         1385 
 4744000   0.48387309   -6.8016694    1119.2798  0.019661322  0.017812902         1377 
 4745000    0.4976994   -6.7872053    1121.2579   0.01969192  0.017807261         1332 
 4746000   0.49106941   -6.8036717    1120.4545  0.019673663  0.017801633         1376 
 4747000   0.49478944    -6.798185    1119.8947  0.019659693  0.017796008         1380 
 4748000    0.4851068   -6.8169912    1119.8652  0.019655033  0.017790384         1362 
 4749000   0.47548676   -6.8004952    1120.5175  0.019662341   0.01778476         1452 
 4750000   0.50004761   -6.7995494    1121.4609  0.019674753  0.017779128         1491 
 4751000   0.48808792   -6.8224533    1119.9349  0.019643846  0.017773505         1415 
 4752000   0.48140501   -6.8023063    1121.2282  0.019662392  0.017767879         1470 
 4753000   0.49203043   -6.8162151    1119.9851  0.019636459  0.017762265         1500 
 4754000   0.49388629   -6.8023837    1122.4681  0.019675854  0.017756652         1373 
 4755000   0.50286807   -6.8050006    1121.7609  0.019659322  0.017751034         1420 
 4756000   0.48999373   -6.8078643    1120.9083  0.019640249  0.017745414         1352 
 4757000   0.49471464   -6.8203632    1119.8182  0.019617023  0.017739802         1350 
 4758000   0.49345019   -6.7995599    1120.9873  0.019633376  0.017734189         1422 
 4759000   0.49390728   -6.7803377    1121.1489  0.019632082  0.017728578         1341 
 4760000   0.48517418    -6.799097    1119.0035  0.019590397  0.017722961         1503 
 4761000   0.49323669   -6.7989661    1120.5661  0.019613634  0.017717351         1401 
 4762000   0.48924593   -6.8050837    1121.3687  0.019623561  0.017711744         1429 
 4763000   0.48550135   -6.8064069    1120.0098  0.019595664  0.017706143         1458 
 4764000   0.47678983   -6.8022441      1119.22  0.019577736  0.017700543         1349 
 4765000   0.49488287   -6.8096017    1118.9974  0.019569734  0.017694946         1401 
 4766000   0.49249105   -6.8055101     1120.651  0.019594541  0.017689345         1472 
 4767000   0.48888007   -6.7922522    1120.9141   0.01959503  0.017683756         1335 
 4768000   0.48257095   -6.8028743    1122.0576  0.019610906  0.017678172         1338 
 4769000   0.49001705   -6.8040578    1119.3865   0.01956012  0.017672591         1355 
 4770000   0.49152628   -6.8061385    1119.7739  0.019562786  0.017667004         1342 
 4771000   0.48513103   -6.8109998    1120.9741   0.01957965  0.017661422         1374 
 4772000   0.47557992   -6.8186647    1120.4697  0.019566738  0.017655837         1397 
 4773000   0.48638598   -6.7983124    1121.5744  0.019581926  0.017650261         1340 
 4774000   0.48422939   -6.8009097    1123.7565  0.019615914  0.017644686         1310 
 4775000   0.48722569   -6.8100292    1120.3233  0.019551891  0.017639112         1386 
 4776000   0.47551838   -6.7975359    1121.7343  0.019572416  0.017633546         1345 
 4777000    0.4865574   -6.8077456    1120.4337  0.019545631  0.017627986         1282 
 4778000   0.49460504   -6.8129923    1120.1655  0.019536862  0.017622421         1310 
 4779000   0.48421428   -6.8079374    1118.3486  0.019501092  0.017616854         1279 
 4780000   0.48435373   -6.7916793     1119.732   0.01952113   0.01761129         1210 
 4781000   0.47981027   -6.8135891    1122.3528  0.019562727  0.017605733         1382 
 4782000   0.49116049   -6.7988472    1119.0657  0.019501353  0.017600178         1359 
 4783000   0.48750541   -6.7984601    1120.4573  0.019521522  0.017594624         1385 
 4784000   0.49838087   -6.7988699    1122.6804  0.019556167  0.017589073         1362 
 4785000    0.4993955   -6.8001438    1121.0328  0.019523386  0.017583517         1381 
 4786000   0.48280169   -6.8030995    1121.0046  0.019518814  0.017577965         1381 
 4787000   0.47870144   -6.8216739    1119.9064   0.01949562  0.017572413         1432 
 4788000   0.48621289   -6.8023454    1120.3957  0.019500064  0.017566869         1422 
 4789000   0.49096603   -6.8206322    1123.3103  0.019546709  0.017561323         1471 
 4790000   0.48362434   -6.8127187    1119.2488   0.01947197  0.017555773         1396 
 4791000   0.48645234    -6.812866    1121.1856  0.019501593  0.017550221         1378 
 4792000   0.49076538   -6.8078751    1120.4138  0.019484103   0.01754468         1333 
 4793000   0.49247505   -6.8227168     1121.356  0.019496418  0.017539136         1356 
 4794000   0.47715576   -6.8088805    1120.7458  0.019481745  0.017533605         1350 
 4795000   0.49889425   -6.8028704    1120.6826  0.019476583  0.017528069         1376 
 4796000   0.48377051   -6.8052526    1121.8648  0.019493063  0.017522542         1428 
 4797000    0.4855315   -6.8280721    1119.4475  0.019447007   0.01751701         1369 
 4798000   0.47778537   -6.8176627    1120.4694  0.019460702   0.01751148         1289 
 4799000   0.48151051   -6.8078068    1120.2168  0.019452261  0.017505957         1343 
 4800000   0.48082519   -6.8155353    1121.6828   0.01947366  0.017500434         1347 
 4801000    0.4826866   -6.8031862    1120.7859  0.019454036  0.017494911         1309 
 4802000      0.48366   -6.8039333    1118.2451  0.019405891  0.017489389         1320 
 4803000   0.48532406   -6.8141513    1118.2656  0.019402206  0.017483867         1394 
 4804000   0.48757959    -6.804525    1119.8257  0.019425231  0.017478349         1324 
 4805000   0.48589951   -6.7980007    1120.3498  0.019430278  0.017472833         1398 
 4806000   0.49345129   -6.8136563    1119.2247  0.019406726  0.017467319         1401 
 4807000   0.48878019   -6.8222541    1119.5454  0.019408248  0.017461805         1376 
 4808000   0.48686977   -6.8124695    1119.7249  0.019407323  0.017456295         1372 
 4809000   0.49278294   -6.8168147     1120.855  0.019422871  0.017450785         1398 
 4810000   0.48288478   -6.8186037    1119.2429  0.019390903  0.017445273         1446 
 4811000   0.48541997   -6.8267885    1119.4633  0.019390689  0.017439758         1412 
 4812000   0.48030163   -6.8340186    1119.5094  0.019387458  0.017434246         1456 
 4813000   0.48543098    -6.817304    1116.8124  0.019336733  0.017428735         1384 
 4814000   0.48847169   -6.8209044    1119.2062  0.019374155   0.01742323         1376 
 4815000   0.49051534   -6.8179103    1118.7726  0.019362628  0.017417727         1361 
 4816000   0.47445065   -6.8396765    1118.1372  0.019347612  0.017412218         1450 
 4817000   0.47667078   -6.8233011     1118.741  0.019354042  0.017406712         1478 
 4818000   0.47549558   -6.8088548    1120.0631  0.019372891  0.017401217         1461 
 4819000   0.48755781   -6.8291615    1120.5837  0.019377874  0.017395719         1402 
 4820000   0.48430035   -6.8295373    1117.6551  0.019323221  0.017390217         1360 
 4821000   0.48648625   -6.8207979    1118.4979   0.01933378  0.017384717         1440 
 4822000   0.47663841   -6.8275997    1117.7962  0.019317645   0.01737922         1390 
 4823000   0.48149653    -6.818738     1119.672  0.019346051  0.017373725         1338 
 4824000   0.49007955   -6.8323287    1118.8408  0.019327681  0.017368236         1480 
 4825000   0.48240092   -6.8329844    1118.1442  0.019311643  0.017362743         1394 
 4826000   0.47917668   -6.8358479    1119.4528  0.019330239  0.017357257         1359 
 4827000   0.49352853   -6.8288726    1119.2212  0.019322236  0.017351772         1408 
 4828000   0.47637219   -6.8008033     1119.965  0.019331073  0.017346293         1404 
 4829000    0.4706079   -6.8118797    1119.8087  0.019324373  0.017340828         1409 
 4830000   0.47398968   -6.8174469    1119.4948  0.019314954  0.017335354         1525 
 4831000   0.48116245   -6.8128454    1116.1329  0.019252965  0.017329885         1491 
 4832000   0.47476963   -6.8290331    1119.7261  0.019310949  0.017324415         1459 
 4833000   0.47967061   -6.8419248    1118.0121  0.019277401  0.017318945         1500 
 4834000   0.47813065   -6.8171849    1118.8577   0.01928799  0.017313471         1554 
 4835000   0.47885688   -6.8326393    1119.2497  0.019290756  0.017308009         1466 
 4836000   0.47696738   -6.8265084    1119.5829  0.019292509  0.017302545         1442 
 4837000   0.47364294   -6.8289861    1119.6826  0.019290238  0.017297078         1400 
 4838000   0.47848587   -6.8241883    1120.0348  0.019292318  0.017291613         1473 
 4839000   0.47690396   -6.8309034    1119.7057  0.019282663  0.017286153         1455 
 4840000   0.47175116   -6.8312834    1118.9932  0.019266413  0.017280686         1465 
 4841000   0.47000403   -6.8192584    1118.9793  0.019262193  0.017275228         1413 
 4842000   0.46298806   -6.8185115    1120.0703  0.019276992  0.017269777         1498 
 4843000   0.47809131   -6.8228237    1119.9451  0.019270857  0.017264324         1540 
 4844000   0.47846098   -6.8149567    1117.0349  0.019216812  0.017258876         1525 
 4845000   0.47217813   -6.8122893    1119.2274  0.019250557  0.017253426         1515 
 4846000   0.48096325   -6.8266933    1120.7375  0.019272554  0.017247981         1568 
 4847000   0.46998471   -6.8407253    1119.4932  0.019247184  0.017242536         1510 
 4848000   0.47071605   -6.8308762    1118.5977  0.019227821  0.017237092         1467 
 4849000   0.48091599   -6.8310812    1119.2118   0.01923441  0.017231647         1523 
 4850000   0.46400909   -6.8401807    1118.9215  0.019225456  0.017226202         1524 
 4851000   0.47200069   -6.8332032    1117.8385  0.019202888  0.017220766         1566 
 4852000   0.47136216   -6.8357613     1119.428  0.019226229  0.017215328         1548 
 4853000    0.4739631   -6.8451724     1117.948  0.019196853  0.017209887         1516 
 4854000   0.48682091   -6.8200329    1118.3876  0.019200446  0.017204453         1604 
 4855000   0.46347988   -6.8286544    1117.0041  0.019172744  0.017199028         1578 
 4856000   0.48240755    -6.830568    1119.2044  0.019206555  0.017193592         1551 
 4857000   0.47042192   -6.8337088    1116.9226  0.019163452   0.01718817         1543 
 4858000   0.47194552   -6.8415573    1117.3947  0.019167605  0.017182741         1556 
 4859000   0.48162294   -6.8352418    1118.8196  0.019188098  0.017177311         1561 
 4860000   0.47045771   -6.8356982    1118.2316  0.019174068  0.017171885         1572 
 4861000   0.47573305   -6.8254318    1116.5239  0.019140847  0.017166456         1536 
 4862000   0.48043935   -6.8427938    1117.2715  0.019149725  0.017161029         1561 
 4863000   0.47104865   -6.8487728    1116.4646  0.019131959    0.0171556         1627 
 4864000   0.47389588   -6.8458702    1118.6073  0.019164736  0.017150182         1582 
 4865000   0.46886026   -6.8366329    1118.3292  0.019156033  0.017144761         1580 
 4866000   0.47637987   -6.8420973     1118.324  0.019152007  0.017139345         1530 
 4867000   0.46872067   -6.8483578    1119.3632  0.019165865  0.017133933         1520 
 4868000   0.47437464   -6.8411688    1117.3249  0.019127035  0.017128522         1629 
 4869000   0.47737507    -6.848902    1117.0622  0.019118611  0.017123116         1557 
 4870000   0.47216173   -6.8380009    1119.6392  0.019158781  0.017117706         1685 
 4871000   0.46988153   -6.8376352    1118.3414  0.019132646  0.017112294         1634 
 4872000   0.48779465   -6.8283179    1117.1318  0.019108029  0.017106887         1683 
 4873000   0.47097514   -6.8456858    1118.9033  0.019134402  0.017101485         1538 
 4874000    0.4681234   -6.8432476    1117.7693  0.019111087  0.017096088         1656 
 4875000   0.47019265   -6.8411173    1117.5286  0.019103054  0.017090691         1627 
 4876000   0.46368543   -6.8508922    1117.6634   0.01910144  0.017085295         1660 
 4877000   0.46957462   -6.8364381    1117.4378  0.019093668  0.017079899         1601 
 4878000   0.46795797   -6.8368704    1116.9634   0.01908165  0.017074507         1597 
 4879000   0.47197168   -6.8401357    1119.7215  0.019124847  0.017069117         1531 
 4880000   0.47363537   -6.8471377    1114.5178  0.019032066  0.017063728         1582 
 4881000   0.46757127   -6.8513989    1117.3859  0.019077135   0.01705834         1646 
 4882000   0.46755841   -6.8349989    1119.7343  0.019113313  0.017052956         1605 
 4883000   0.46959587   -6.8464224    1118.0129  0.019080021  0.017047576         1547 
 4884000   0.46497471   -6.8542328    1115.4422  0.019032251  0.017042189         1552 
 4885000   0.46825426   -6.8167192    1115.7149  0.019033008  0.017036805         1617 
 4886000   0.46295209   -6.8385415    1116.7226  0.019046298  0.017031423         1630 
 4887000   0.47263058   -6.8559126    1117.4527  0.019054851  0.017026041         1567 
 4888000   0.46102758   -6.8515266    1117.5808  0.019053138  0.017020659         1627 
 4889000   0.47513403   -6.8587634    1116.6367  0.019033148  0.017015278         1598 
 4890000    0.4645657   -6.8514369     1117.018  0.019035754  0.017009899         1524 
 4891000   0.46708784   -6.8554209    1117.4459  0.019039152  0.017004526         1571 
 4892000   0.46239128   -6.8603617    1117.4833  0.019035897  0.016999153         1613 
 4893000   0.46450128   -6.8560754    1117.4608  0.019031623  0.016993781         1607 
 4894000   0.46666919   -6.8424959    1117.6783  0.019031438  0.016988411         1627 
 4895000   0.46205931   -6.8607521    1113.5678  0.018957572  0.016983042         1623 
 4896000   0.47389019   -6.8449772    1115.5712  0.018987799   0.01697767         1640 
 4897000   0.46752363   -6.8536076    1117.1112  0.019010128  0.016972307         1603 
 4898000   0.46498798   -6.8452291    1119.2324  0.019042336  0.016966947         1577 
 4899000   0.47383142   -6.8537161    1116.6313  0.018994205  0.016961585         1629 
 4900000   0.47231702   -6.8554379    1117.4429   0.01900413  0.016956233         1655 
 4901000   0.47235138   -6.8435384    1118.3752  0.019016105  0.016950885         1668 
 4902000   0.47238965   -6.8379501    1116.0742   0.01897311  0.016945536         1655 
 4903000    0.4740436    -6.836627    1118.2693  0.019006548   0.01694019         1691 
 4904000    0.4576622   -6.8434363    1116.1606  0.018966841  0.016934844         1660 
 4905000   0.47554866   -6.8655728    1117.4912   0.01898558    0.0169295         1682 
 4906000   0.47293244   -6.8472923    1118.0855  0.018991804  0.016924159         1511 
 4907000   0.46348866   -6.8391795    1117.8394  0.018983754  0.016918821         1566 
 4908000   0.46759425   -6.8501842    1114.8468  0.018929076  0.016913489         1530 
 4909000   0.47403533   -6.8474668    1116.4473  0.018952388  0.016908151         1566 
 4910000     0.477925   -6.8784642    1115.9674  0.018940384  0.016902816         1588 
 4911000   0.46398697   -6.8414308    1118.1475   0.01897352  0.016897486         1624 
 4912000   0.45498836   -6.8593455    1117.5699  0.018959859  0.016892152         1702 
 4913000   0.45922296    -6.845201    1115.7263  0.018924729  0.016886825         1661 
 4914000    0.4630046   -6.8652851    1117.1291  0.018944667  0.016881501         1697 
 4915000   0.46260219   -6.8488866    1115.1815   0.01890779   0.01687617         1588 
 4916000   0.46257715   -6.8483367    1116.8498  0.018932225  0.016870841         1621 
 4917000   0.46279696   -6.8527734    1117.5724   0.01894062  0.016865523         1590 
 4918000   0.46814734    -6.856988    1115.4647  0.018901055  0.016860202         1651 
 4919000   0.46464686   -6.8495159    1116.4203  0.018913402  0.016854878         1658 
 4920000   0.45947461   -6.8422614    1118.8071  0.018949984  0.016849562         1594 
 4921000   0.46615022   -6.8804833    1116.7204  0.018910797   0.01684425         1713 
 4922000   0.47206629   -6.8591931      1116.13   0.01889696  0.016838936         1673 
 4923000   0.46329973   -6.8693952    1115.8426  0.018888255  0.016833619         1595 
 4924000   0.45145408   -6.8634164      1117.17  0.018906884  0.016828306         1642 
 4925000   0.46026044   -6.8461463     1117.068   0.01890132  0.016822992         1673 
 4926000    0.4693136   -6.8597806     1115.794   0.01887593   0.01681768         1626 
 4927000   0.47221219   -6.8483177    1115.7896  0.018872024  0.016812373         1616 
 4928000   0.46223591   -6.8435774    1116.7394  0.018884257  0.016807066         1597 
 4929000   0.46719025   -6.8656496    1116.8578  0.018882427  0.016801765         1695 
 4930000   0.46605645    -6.865855    1115.7532  0.018859926  0.016796463         1747 
 4931000   0.45927944   -6.8635989    1114.7157  0.018838568  0.016791164         1707 
 4932000   0.44764718   -6.8639899     1117.692  0.018885037  0.016785864         1607 
 4933000   0.45689255    -6.868089    1118.1882   0.01888959   0.01678057         1609 
 4934000   0.46300266   -6.8376744    1116.7353  0.018861222  0.016775285         1623 
 4935000   0.46548231   -6.8605663    1116.8847  0.018859924  0.016769995         1652 
 4936000    0.4621874   -6.8584249    1115.2677  0.018828803  0.016764707         1676 
 4937000   0.45553527   -6.8742456    1117.0327  0.018854783  0.016759422         1744 
 4938000   0.45982668   -6.8548071    1116.3424  0.018839315   0.01675414         1703 
 4939000   0.45612586   -6.8774955    1117.5594  0.018856033  0.016748861         1629 
 4940000   0.46331684   -6.8645477    1115.2355  0.018813015  0.016743577         1689 
 4941000   0.46527481   -6.8541317    1116.6593   0.01883322  0.016738297         1681 
 4942000     0.463079    -6.863253    1116.0441  0.018819035  0.016733018         1648 
 4943000   0.46313424   -6.8723417    1116.4283  0.018821706  0.016727738         1756 
 4944000   0.45912905   -6.8861612    1113.9868  0.018776746   0.01672246         1711 
 4945000   0.45793496   -6.8656145    1114.5178  0.018781898  0.016717184         1705 
 4946000   0.46224637   -6.8749006    1115.0787  0.018787551  0.016711908         1765 
 4947000   0.45703559   -6.8634994     1117.815  0.018829846   0.01670663         1782 
 4948000   0.46659504    -6.862624    1115.2302  0.018782508  0.016701353         1691 
 4949000   0.46236916   -6.8741137    1116.6683  0.018802927  0.016696083         1721 
 4950000   0.45877125   -6.8711603     1113.626  0.018747912  0.016690814         1736 
 4951000   0.45355432   -6.8719987     1115.038  0.018767892  0.016685548         1741 
 4952000   0.45918741   -6.8658976     1114.416  0.018753636  0.016680292         1718 
 4953000   0.46376883   -6.8689942    1114.3433  0.018748625  0.016675036         1772 
 4954000   0.45180102    -6.855595    1117.2908  0.018794423  0.016669788         1792 
 4955000   0.45971715   -6.8593159    1116.2673  0.018773416  0.016664535         1628 
 4956000   0.46798837   -6.8708108    1114.9217  0.018747002  0.016659278         1656 
 4957000   0.45645987    -6.870549    1116.3922  0.018767941  0.016654028         1678 
 4958000   0.46412573   -6.8790804    1117.2012  0.018777753  0.016648776         1656 
 4959000   0.45521174   -6.8727003    1116.9946  0.018770496  0.016643529         1713 
 4960000   0.45410919   -6.8676697    1113.8432  0.018713764  0.016638282         1669 
 4961000    0.4621782   -6.8848008    1114.9737   0.01872898  0.016633034         1751 
 4962000   0.45868067   -6.8631549    1115.7285  0.018737883  0.016627791         1718 
 4963000   0.44354213   -6.8677851    1115.7621  0.018734671  0.016622553         1705 
 4964000   0.46194204   -6.8902627    1115.6838  0.018729583  0.016617314         1745 
 4965000   0.45330515    -6.881476    1116.0058  0.018731216  0.016612071         1746 
 4966000   0.46163933   -6.8581005    1115.9282  0.018726141  0.016606832         1714 
 4967000   0.44446543   -6.8734009    1114.2738  0.018694614  0.016601595         1661 
 4968000   0.45580787   -6.8827242    1114.9821  0.018702732  0.016596358         1734 
 4969000   0.45298821   -6.8671314    1115.3232   0.01870469  0.016591131         1693 
 4970000   0.44994503    -6.877652     1115.624  0.018705969  0.016585904         1755 
 4971000   0.46290863   -6.8864054     1114.494  0.018683264  0.016580677         1755 
 4972000    0.4616639   -6.8932992    1113.7797  0.018667532   0.01657545         1752 
 4973000   0.45387952   -6.8647613    1115.0242  0.018684634  0.016570223         1825 
 4974000    0.4481455   -6.8557145    1114.8916  0.018678656  0.016564999         1808 
 4975000   0.45468721   -6.8706976     1114.734  0.018672262  0.016559774         1794 
 4976000   0.44827917   -6.8811971    1115.6438  0.018683745  0.016554556         1857 
 4977000   0.45825669   -6.8716257    1115.6809  0.018680612  0.016549336         1802 
 4978000   0.45654703   -6.8877339    1114.9341  0.018664358   0.01654412         1749 
 4979000   0.45497638   -6.8713581    1116.3381  0.018684107  0.016538907         1742 
 4980000     0.458017   -6.8831187    1115.2895  0.018662809  0.016533696         1765 
 4981000   0.45529243   -6.8868581    1113.7021  0.018632505  0.016528478         1731 
 4982000   0.44989233   -6.8881289    1113.6775  0.018628354  0.016523263         1758 
 4983000   0.45128806   -6.8799002     1114.349  0.018635845  0.016518053         1679 
 4984000   0.44982531   -6.8813464    1115.3023  0.018648046  0.016512843         1663 
 4985000   0.44054069   -6.8746698    1115.1946  0.018642504  0.016507637         1686 
 4986000   0.44762528   -6.8925766      1117.17  0.018671782  0.016502434         1691 
 4987000   0.45527849   -6.8849287    1115.5017   0.01864016  0.016497233         1696 
 4988000   0.44496762   -6.8785529    1114.9721  0.018627574  0.016492039         1718 
 4989000   0.44581822   -6.8889572    1115.2532  0.018628536  0.016486842         1771 
 4990000   0.45341453    -6.885328    1115.3111  0.018625771  0.016481646         1756 
 4991000   0.44830033   -6.8705866    1115.0776  0.018618138  0.016476452         1707 
 4992000   0.45033373   -6.8714825     1114.827  0.018610227  0.016471259         1758 
 4993000   0.44952867   -6.8754422     1113.678  0.018587322  0.016466066         1849 
 4994000   0.45161158   -6.8709495    1115.1527  0.018608209  0.016460866         1741 
 4995000   0.45624503   -6.8834843    1114.3419  0.018590956  0.016455674         1747 
 4996000   0.45371971   -6.8860376    1113.4489  0.018572339  0.016450487         1782 
 4997000   0.44067366    -6.894102    1113.8131  0.018574696  0.016445302         1736 
 4998000    0.4492292   -6.8784227    1114.8041  0.018587504  0.016440121         1745 
 4999000   0.44996806   -6.8704041    1112.4414    0.0185444  0.016434939         1633 
 5000000   0.45407246   -6.8864581    1116.4231  0.018607052  0.016429762         1712 
 5001000    0.4485979   -6.8906407    1114.1873  0.018566075  0.016424584         1777 
 5002000   0.45858228   -6.8862347    1114.3304  0.018564748   0.01641941         1794 
 5003000   0.46146675   -6.8703321    1113.0407  0.018539554  0.016414239         1818 
 5004000   0.44781924    -6.895474    1114.1229  0.018553872  0.016409073         1796 
 5005000   0.44694924   -6.8802875     1115.082  0.018566134    0.0164039         1770 
 5006000   0.44873766   -6.8932047    1113.8769  0.018542364  0.016398728         1793 
 5007000   0.46479605   -6.8862625    1114.1575  0.018543332  0.016393565         1751 
 5008000   0.45255903   -6.8794402     1115.998  0.018570254  0.016388404         1773 
 5009000   0.45894642   -6.8928758     1114.273  0.018537848   0.01638324         1767 
 5010000   0.44250954   -6.8873916    1115.2828  0.018550945  0.016378082         1793 
 5011000    0.4590384   -6.8836266    1115.9021  0.018557542  0.016372926         1767 
 5012000   0.44323398   -6.8869885    1115.0189  0.018539154  0.016367776         1814 
Loop time of 13040.1 on 48 procs for 5000000 steps with 4000 atoms

Performance: 66257.396 tau/day, 383.434 timesteps/s
99.4% CPU use with 48 MPI tasks x no OpenMP threads

MPI task timing breakdown:
Section |  min time  |  avg time  |  max time  |%varavg| %total
---------------------------------------------------------------
Pair    | 955.66     | 1006.6     | 1087.3     |  94.8 |  7.72
Neigh   | 89.672     | 92.584     | 96.518     |  17.8 |  0.71
Comm    | 807.22     | 897.84     | 967.42     | 112.8 |  6.89
Output  | 15.423     | 15.428     | 15.541     |   0.4 |  0.12
Modify  | 10867      | 10902      | 10932      |  16.9 | 83.60
Other   |            | 125.9      |            |       |  0.97

Nlocal:        83.3333 ave          90 max          76 min
Histogram: 1 1 5 4 7 13 5 10 1 1
Nghost:        2399.67 ave        2423 max        2384 min
Histogram: 3 4 7 13 8 4 4 3 1 1
Neighs:        16565.1 ave       18971 max       13903 min
Histogram: 3 3 5 8 3 5 6 9 3 3
FullNghs:      33129.4 ave       36030 max       30135 min
Histogram: 1 2 2 9 11 7 6 7 2 1

Total # of neighbors = 1590209
Ave neighs/atom = 397.55225
Neighbor list builds = 268134
Dangerous builds = 1

#clear
#
#next RN
#
#jump SELF
Total wall time: 3:37:23
