
units lj                  # Use reduced LJ style units
atom_style atomic         # Uncharged point particles
atom_modify map hash      # Needed for indexing of clusters etc
                          # Used to be able to find where atoms are in relation to each other.

lattice fcc 1.0 spacing 1 1 1
Lattice spacing in x,y,z = 1.5874011 1.5874011 1.5874011
region box block 0 10 0 10 0 10 units lattice
create_box 2 box
Created orthogonal box = (0.0000000 0.0000000 0.0000000) to (15.874011 15.874011 15.874011)
  3 by 4 by 4 MPI processor grid
create_atoms 1 box
Created 4000 atoms
  using lattice units in orthogonal box = (0.0000000 0.0000000 0.0000000) to (15.874011 15.874011 15.874011)
  create_atoms CPU = 0.003 seconds
set type 1 type/fraction 2 0.46 78393
Setting atom values ...
  1843 settings made for type/fraction
mass 1 1.0
mass 2 1.0
pair_style lj/cut  3.5
pair_modify tail  yes
pair_coeff 1  1  1.0  1.0   # Intearaction between 1 and 1 set with epsilon = 1 and sigma = 1
pair_coeff 1  2  1.5  0.8
pair_coeff 2  2  0.5  0.88

write_data data.0
System init for write_data ...
Neighbor list info ...
  update every 1 steps, delay 10 steps, check yes
  max neighbors/atom: 2000, page size: 100000
  master list distance cutoff = 3.8
  ghost atom cutoff = 3.8
  binsize = 1.9, bins = 9 9 9
  1 neighbor lists, perpetual/occasional/extra = 1 0 0
  (1) pair lj/cut, perpetual
      attributes: half, newton on
      pair build: half/bin/atomonly/newton
      stencil: half/bin/3d
      bin: standard
WARNING: Not all mixed pair coeffs generated from mixing. Use write_data with 'pair ij' option to store all pair coeffs. (../write_data.cpp:312)


#############################
#   M E L T   S Y S T E M   #
#############################

velocity all create 2.4 9622624 mom yes dist gaussian # Assign velocities
                                                    # Temperature 2.4, random number seed, zero linear momentum
                                                                                # Gaussian distribution

timestep 0.002   # simulation timestep
thermo 1000       # output thermodynamic data every 1000 steps bf 100

# Define a fix  in this case with index 1 applied to all
# particles in the simulation. This fix is for simulations
# in the anisotropic NPT ensemble. Note that we use the MTK
# correction.
fix 1 all npt temp 2.4 2.4 0.1 iso 5.68 5.68 0.5 mtk yes tchain 5 pchain 5 # Use NPT ensemble
                                                                         # Set temperature and pressure and damping
                                                                         # Numbers of thermostats in chain and in barostat
run 10000          # run for 10000 steps
Per MPI rank memory allocation (min/avg/max) = 3.642 | 3.644 | 3.648 Mbytes
Step Temp E_pair E_mol TotEng Press Volume 
       0          2.4   -5.5244938            0   -1.9253938   -4.2019961         4000 
    1000    2.3643056   -4.9276192            0   -1.3820475     5.876207    3768.5642 
    2000    2.3880437   -4.9864086            0   -1.4052386    5.8053878    3752.1015 
    3000    2.4365291   -4.9365634            0   -1.2826835    5.9233564    3763.8284 
    4000    2.4246029   -5.0128544            0   -1.3768593    5.8590064    3744.0819 
    5000    2.3993506   -4.9423954            0   -1.3442693    6.0023513    3757.1764 
    6000    2.3780876   -4.9381433            0   -1.3719037    5.6589203    3790.0465 
    7000    2.4007401   -4.9175771            0   -1.3173673    5.8632669    3779.5295 
    8000    2.4040324    -4.951962            0   -1.3468149    5.8225125    3770.8661 
    9000    2.4196116   -5.0291191            0    -1.400609    5.5962318    3744.8165 
   10000    2.3591282   -4.9902335            0   -1.4524259    5.8046501    3741.4209 
Loop time of 2.61482 on 48 procs for 10000 steps with 4000 atoms

Performance: 660847.852 tau/day, 3824.351 timesteps/s
99.5% CPU use with 48 MPI tasks x no OpenMP threads

MPI task timing breakdown:
Section |  min time  |  avg time  |  max time  |%varavg| %total
---------------------------------------------------------------
Pair    | 1.154      | 1.2115     | 1.2871     |   2.7 | 46.33
Neigh   | 0.21294    | 0.21983    | 0.22849    |   0.7 |  8.41
Comm    | 0.7691     | 0.89434    | 0.99079    |   4.9 | 34.20
Output  | 0.00024788 | 0.00025225 | 0.0003237  |   0.0 |  0.01
Modify  | 0.23138    | 0.27347    | 0.33297    |   5.4 | 10.46
Other   |            | 0.01541    |            |       |  0.59

Nlocal:        83.3333 ave          91 max          76 min
Histogram: 5 2 9 3 4 5 4 5 7 4
Nghost:        1718.60 ave        1754 max        1687 min
Histogram: 2 2 8 6 9 9 3 6 2 1
Neighs:        10198.5 ave       11374 max        9077 min
Histogram: 5 7 2 6 6 1 7 7 3 4

Total # of neighbors = 489527
Ave neighs/atom = 122.38175
Neighbor list builds = 910
Dangerous builds = 231

# Equilibrate just above the melting temperature to avoid step fn in T

fix 1 all npt temp 1.25 1.25 0.1 iso 5.68 5.68 0.5 mtk yes tchain 5 pchain 5
run 2000
Per MPI rank memory allocation (min/avg/max) = 3.644 | 3.645 | 3.649 Mbytes
Step Temp E_pair E_mol TotEng Press Volume 
   10000    2.3591282   -4.9902335            0   -1.4524259    5.8046501    3741.4209 
   11000    1.2493409   -7.0620549            0   -5.1885121    5.5869207    2956.0283 
   12000    1.2638119   -7.1487783            0   -5.2535343    5.5572825    2936.2278 
Loop time of 0.630125 on 48 procs for 2000 steps with 4000 atoms

Performance: 548462.554 tau/day, 3173.973 timesteps/s
99.7% CPU use with 48 MPI tasks x no OpenMP threads

MPI task timing breakdown:
Section |  min time  |  avg time  |  max time  |%varavg| %total
---------------------------------------------------------------
Pair    | 0.27956    | 0.30427    | 0.35138    |   2.6 | 48.29
Neigh   | 0.039494   | 0.042107   | 0.048537   |   0.8 |  6.68
Comm    | 0.18152    | 0.23473    | 0.26214    |   3.4 | 37.25
Output  | 5.2648e-05 | 5.3837e-05 | 6.9101e-05 |   0.0 |  0.01
Modify  | 0.040128   | 0.044101   | 0.047877   |   1.0 |  7.00
Other   |            | 0.004865   |            |       |  0.77

Nlocal:        83.3333 ave          94 max          77 min
Histogram: 3 7 10 7 10 4 3 3 0 1
Nghost:        2020.58 ave        2053 max        2001 min
Histogram: 2 6 11 11 4 10 1 1 1 1
Neighs:        13008.5 ave       14817 max       11692 min
Histogram: 3 7 7 7 8 3 6 3 3 1

Total # of neighbors = 624408
Ave neighs/atom = 156.10200
Neighbor list builds = 142
Dangerous builds = 7

#############################
# L I N E A R  Q U E N C H  #
#############################

# Define solid atoms. This closely follows ten Wolde  Ruiz-Montero and Frenkel  Faraday Discuss  1996  104  93-110
# Compute components of the per-atom q6 vector
compute q6 all orientorder/atom degrees 1 6 components 6 nnn NULL cutoff 1.3 # compute the Q6 parameter.
                                                                             # Use all neighbours within 1.3 unit cell.

# get number of connections
compute coord_number all coord/atom orientorder q6 0.5

# An atom is solid if it has 8 or more connections (of a possible 14)
variable is_solid atom c_coord_number>=8
group solid dynamic all var is_solid    # Must be dynamic to update
dynamic group solid defined

# do clustering
compute cluster solid cluster/atom 1.3 # Create a cluster where all atoms within are solid and max 1.3 units from another member

# define chunks one chunk per cluster
compute clus_chunks solid chunk/atom c_cluster nchunk every compress yes  # Says which atoms are in which chunk

# count the size of each chunk
compute size_chunks solid property/chunk clus_chunks count


# Find the maximum entry in the vector of chunk sizes
variable max_n equal max(c_size_chunks)


# Thermo style which includes this variable
# thermo_style custom step temp pe vol v_max_n

thermo ${N}  # Print the thermo information every 100 steps
thermo 1000  

# Reset the npt fix at a lower temperature (below freezing)
fix 1  all npt temp  ${temp} ${temp}  0.1  iso  5.68  5.68  0.5  mtk yes tchain  5  pchain  5
fix 1  all npt temp  0.45 ${temp}  0.1  iso  5.68  5.68  0.5  mtk yes tchain  5  pchain  5
fix 1  all npt temp  0.45 0.45  0.1  iso  5.68  5.68  0.5  mtk yes tchain  5  pchain  5

dump dmp2 all dcd ${N} traj.dcd
dump dmp2 all dcd 1000 traj.dcd


compute msd all msd com yes
variable twopoint equal c_msd[4]/6/(step*dt+1.0e-6)
fix 9 all vector 10 c_msd[4]
variable fit equal slope(f_9)/6/(10*dt)
thermo_style custom step temp pe c_msd[4] v_twopoint v_fit v_max_n

fix 1 all npt temp 1.25 ${temp} 0.1 iso 5.68 5.68 0.5 mtk yes tchain 5 pchain 5
fix 1 all npt temp 1.25 0.45 0.1 iso 5.68 5.68 0.5 mtk yes tchain 5 pchain 5
run 5000000 # 5000000  # Run for this many steps
Neighbor list info ...
  update every 1 steps, delay 10 steps, check yes
  max neighbors/atom: 2000, page size: 100000
  master list distance cutoff = 3.8
  ghost atom cutoff = 3.8
  binsize = 1.9, bins = 8 8 8
  4 neighbor lists, perpetual/occasional/extra = 1 3 0
  (1) pair lj/cut, perpetual
      attributes: half, newton on
      pair build: half/bin/atomonly/newton
      stencil: half/bin/3d
      bin: standard
  (2) compute orientorder/atom, occasional
      attributes: full, newton on
      pair build: full/bin/atomonly
      stencil: full/bin/3d
      bin: standard
  (3) compute coord/atom, occasional
      attributes: full, newton on
      pair build: full/bin/atomonly
      stencil: full/bin/3d
      bin: standard
  (4) compute cluster/atom, occasional
      attributes: full, newton on
      pair build: full/bin/atomonly
      stencil: full/bin/3d
      bin: standard
Per MPI rank memory allocation (min/avg/max) = 9.832 | 9.840 | 9.844 Mbytes
Step Temp PotEng c_msd[4] v_twopoint v_fit v_max_n 
   12000    1.2638119   -7.1487783 3.9443045e-34 2.7391003e-36 8.3333333e+20            2 
   13000    1.2292822   -7.1201304   0.44589353 0.0028582918  0.036264445            2 
   14000    1.2437315   -7.1518546   0.85858084 0.0051106001  0.034486974            1 
   15000    1.2468791   -7.0971127     1.239263 0.0068847943  0.034090297            2 
   16000    1.2414728    -7.119743    1.6587375 0.0086392577  0.033738576            3 
   17000    1.2855325   -7.1498964    2.0625623  0.010110599  0.033667942            1 
   18000    1.2354576   -7.1535666    2.5117939  0.011628675  0.033863802            2 
   19000     1.242482   -7.1272769    2.9210922  0.012811808  0.034233192            2 
   20000    1.2335012   -7.0993566    3.3290936  0.013871223  0.034368679            1 
   21000    1.2456392   -7.1544088    3.7441936  0.014857911  0.034444446            2 
   22000    1.2535239   -7.1457031    4.0853722  0.015474894  0.034313679            3 
   23000    1.2390537    -7.199754    4.4625645  0.016168712  0.034037016            3 
   24000    1.2469881   -7.0631473    4.8994758  0.017012069  0.033882161            4 
   25000     1.241828   -7.1357522    5.3079739  0.017693246  0.033793925            1 
   26000    1.2159098   -7.1897465    5.6997406  0.018268399  0.033709355            2 
   27000    1.2357015   -7.1322701    6.0450554  0.018657578  0.033646603            2 
   28000    1.2277566   -7.1201797    6.4509544  0.019199269  0.033493702            1 
   29000    1.2478278   -7.1111908    6.7617499  0.019430315  0.033335162            2 
   30000    1.2514972   -7.1775626    7.1649543  0.019902651  0.033183509            2 
   31000    1.2723879   -7.1536619     7.600164  0.020430548   0.03313438            2 
   32000     1.211855   -7.1110451    8.0320906  0.020916902  0.033101554            1 
   33000    1.2408577   -7.1135262     8.465329  0.021377093  0.033136782            1 
   34000    1.2551248   -7.1455593    8.8171922  0.021610765  0.033157747            1 
   35000    1.2586925   -7.1429496    9.2615613  0.022051336  0.033141588            2 
   36000    1.2340195   -7.1537926    9.6867705  0.022423079  0.033154415            4 
   37000    1.2782641   -7.1552804    10.069199  0.022678375  0.033179096            2 
   38000    1.2333127   -7.1377276    10.541871  0.023118139  0.033231666            2 
   39000    1.2552546   -7.1690498    10.820696  0.023121145  0.033234661            1 
   40000    1.2526341   -7.1669268    11.264107   0.02346689  0.033233855            2 
   41000    1.2550116   -7.1540614    11.622585   0.02362314  0.033213752            1 
   42000    1.2690686   -7.1771363    11.970723  0.023751435  0.033182733            3 
   43000    1.2433412   -7.0962732    12.434501  0.024097869  0.033169395            1 
   44000    1.2386626    -7.160664    12.745989  0.024140131  0.033148516            4 
   45000    1.2482058   -7.1357353    13.093507  0.024247235  0.033092115            1 
   46000    1.2091731   -7.1259987    13.557285  0.024560298   0.03306285            2 
   47000    1.2371241    -7.086968    14.079932  0.024964418  0.033069693            1 
   48000    1.2278635   -7.1574432    14.426054  0.025045232  0.033085458            1 
   49000    1.2374192   -7.1402609    14.986237  0.025486797  0.033137054            2 
   50000    1.2582062   -7.1575157    15.278775  0.025464625  0.033177434            2 
   51000     1.257037   -7.1611517    15.686338  0.025631271  0.033198127            2 
   52000    1.2449955   -7.1546494    16.076029  0.025762866  0.033211191            1 
   53000    1.2345236    -7.151355    16.435478  0.025841947  0.033217436            2 
   54000    1.2326115   -7.1581373      16.7188  0.025800617  0.033202758            1 
   55000    1.2434209   -7.2150488     17.08308  0.025883454  0.033185578            2 
   56000    1.2333637   -7.2127805    17.596133  0.026184722  0.033181617            3 
   57000    1.2442951   -7.1873001    17.910229  0.026184546  0.033179466            1 
   58000    1.2174471   -7.1594802    18.355023  0.026372159  0.033156959            2 
   59000    1.2229313   -7.1763535    18.640395  0.026328241  0.033138492            1 
   60000    1.2284277   -7.1851396    18.938455   0.02630341  0.033108884            1 
   61000    1.2257543   -7.1801756    19.516093   0.02666133  0.033084914            5 
   62000    1.2248619   -7.1454656    19.772578  0.026576045  0.033064492            1 
   63000    1.2536084   -7.1502285    20.149969  0.026653398  0.033026211            1 
   64000    1.2244068   -7.1605301    20.639839   0.02687479  0.033005401            1 
   65000     1.232569   -7.1304389    21.047053  0.026983401  0.032999037            3 
   66000    1.2415856   -7.2061482    21.460871  0.027097059  0.032990474            1 
   67000    1.2287301   -7.1717765    21.890112  0.027226507   0.03298436            3 
   68000    1.2243704   -7.1987663    22.152921  0.027148187  0.032974233            1 
   69000    1.2300587   -7.1490714    22.682109  0.027393851  0.032971665            2 
   70000    1.2471998   -7.1294168    23.090648  0.027488866  0.032978658            3 
   71000    1.2628355   -7.1714279    23.412875    0.0274799  0.032972686            1 
   72000    1.2465369   -7.1904432     23.60355  0.027318923  0.032948185            1 
   73000    1.2317743   -7.1223321    24.291209   0.02772969  0.032934227            1 
   74000     1.258709   -7.1500701    24.634336  0.027741369  0.032934864            2 
   75000    1.2282057   -7.1827207    25.098331  0.027887034  0.032941208            4 
   76000    1.2561199   -7.2150529    25.388074  0.027837801  0.032946777            3 
   77000    1.2287948   -7.1231268    25.928711  0.028061375  0.032951556            2 
   78000    1.2381992    -7.151031    26.309252  0.028108175  0.032954731            1 
   79000    1.2318633   -7.1887219    26.725766  0.028191736  0.032965428            1 
   80000    1.2441395   -7.2219669    26.942995   0.02806562  0.032968166            3 
   81000    1.2433054   -7.1828861    27.379666   0.02816838  0.032963934            3 
   82000    1.2720409   -7.1705216    27.678657  0.028128716  0.032956022            2 
   83000    1.1933979   -7.1498227    28.228343   0.02834171  0.032944268            2 
   84000    1.2470793   -7.1769853    28.557003   0.02833036  0.032934461            2 
   85000    1.2415142   -7.1523616    29.050245  0.028480632  0.032929363            2 
   86000    1.2434942   -7.1752358    29.383693  0.028472571  0.032926247            1 
   87000    1.2304514   -7.1781974    29.692719  0.028441302  0.032922324            4 
   88000    1.2387574   -7.2098253    29.952056  0.028363689   0.03291539            2 
   89000    1.2408423   -7.2067117    30.431441  0.028493858    0.0329052            2 
   90000     1.243565   -7.1832641     30.95797  0.028664787   0.03290248            1 
   91000    1.2201141   -7.1925699    31.419755  0.028772669  0.032903532            1 
   92000    1.2465229   -7.1560637    31.698086  0.028712034  0.032909133            2 
   93000    1.2556706    -7.155997    32.147793  0.028806266  0.032907614            3 
   94000    1.2042885   -7.1474339    32.561817  0.028866859   0.03290553            2 
   95000     1.230572   -7.1929279     32.69709  0.028681658  0.032905178            2 
   96000     1.207471   -7.1426192    33.200604  0.028819969  0.032895672            2 
   97000    1.2111526   -7.1745096    33.594668  0.028861398  0.032884802            1 
   98000    1.2482095   -7.1416467    34.113779  0.029008315  0.032875055            1 
   99000     1.228817   -7.2141132    34.347888  0.028912363  0.032871546            1 
  100000    1.2412003   -7.1722393    34.785768   0.02898814  0.032860117            1 
  101000    1.2672831    -7.161333    35.197985  0.029041242  0.032852123            2 
  102000    1.2162422   -7.1829644    35.394851  0.028917361  0.032843173            1 
  103000    1.2175178   -7.1800838    35.896589  0.029042547  0.032830254            1 
  104000    1.2374971   -7.1497363    36.242295    0.0290403  0.032818815            3 
  105000    1.2413431   -7.1796838    36.636396  0.029076505  0.032810011            2 
  106000    1.2350573   -7.1481978    37.102376  0.029168535  0.032805479            3 
  107000    1.2293202   -7.1647158    37.460871  0.029175133  0.032802823            2 
  108000    1.2263179   -7.1690236    38.007699  0.029326928  0.032800226            3 
  109000    1.2122102   -7.1791732    38.493154  0.029429016  0.032802438            2 
  110000    1.2424643   -7.1798695    38.886612  0.029459554  0.032808036            1 
  111000     1.231015    -7.153331    39.135783  0.029381218  0.032806923            2 
  112000    1.2378431   -7.1803724    39.273189  0.029221122  0.032800432            1 
  113000    1.2401298   -7.1762178    39.595039  0.029199881  0.032789083            3 
  114000    1.2300167   -7.1697663    40.200527   0.02938635  0.032775919            1 
  115000    1.2221955   -7.1782642    40.552866  0.029386135  0.032769544            1 
  116000    1.2272123   -7.1700044    41.129388  0.029546974  0.032770025            1 
  117000    1.2106782   -7.1440995    41.738729  0.029728439  0.032777099            3 
  118000    1.2062033   -7.1415552    42.303922  0.029875651  0.032790651            1 
  119000    1.2366416    -7.170601     42.38907  0.029684222  0.032802012            1 
  120000    1.2460623   -7.1790995    42.826414  0.029740565  0.032805368            4 
  121000    1.2147687   -7.2308849    43.355912  0.029859444  0.032812669            1 
  122000    1.2174129    -7.177869    43.721874  0.029864668  0.032822027            3 
  123000     1.247335    -7.216405    43.942237  0.029771163  0.032828142            2 
  124000    1.2125336   -7.1822434     44.40326    0.0298409   0.03283374            1 
  125000    1.2281598   -7.2113273    44.981197  0.029987464  0.032839401            1 
  126000    1.2113207   -7.1832839    45.221118  0.029908146  0.032848031            2 
  127000    1.2311445   -7.1751868    45.515104  0.029865554  0.032854114            2 
  128000    1.2291656   -7.1930995     45.88069  0.029870241  0.032856998            1 
  129000    1.2246961   -7.1546099    46.453208  0.030008532  0.032859554            1 
  130000    1.2422839   -7.1537913    46.820953  0.030013432  0.032863126            3 
  131000     1.223726   -7.2181221    47.007288  0.029902855  0.032862819            2 
  132000    1.2015478   -7.2130504    47.297948  0.029859815  0.032859762            1 
  133000    1.2286443   -7.1587961    47.578608  0.029811158  0.032855353            2 
  134000    1.2700613   -7.1926601    48.128593  0.029930717  0.032848479            1 
  135000    1.2431976     -7.21183    48.426732  0.029893045  0.032840335            1 
  136000    1.2172243   -7.1798639    48.869751    0.0299447  0.032833364            3 
  137000    1.2187351    -7.260571    49.170795  0.029909242  0.032827097            1 
  138000     1.230311   -7.2114126    49.548893  0.029920829  0.032821003            3 
  139000    1.2244978   -7.1960157    49.870321  0.029898274  0.032812428            1 
  140000    1.2163397   -7.1666554    50.276251   0.02992634  0.032802269            3 
  141000    1.2299625   -7.1993856    50.374216  0.029771995  0.032791527            3 
  142000    1.2071639    -7.171637    50.993149  0.029925557  0.032781262            1 
  143000    1.2541302   -7.1406579    51.622372  0.030082967  0.032775157            3 
  144000    1.2137845   -7.1666701    51.715204   0.02992778  0.032768178            3 
  145000     1.227638   -7.1407553    52.010079   0.02989085   0.03275513            2 
  146000    1.2115721     -7.20794    52.467909  0.029947436  0.032743811            2 
  147000    1.1911246   -7.1531053    52.725328  0.029889642  0.032729555            1 
  148000    1.2245912   -7.1773269    53.050885  0.029870994  0.032714115            2 
  149000    1.2359447   -7.2007019    53.558274  0.029954292  0.032700521            2 
  150000    1.2389795   -7.1839273    53.902412  0.029945784  0.032687312            3 
  151000    1.2395808   -7.1832218    54.313898  0.029974558  0.032675664            1 
  152000    1.2423219   -7.1712371    54.782626  0.030034334  0.032667192            2 
  153000    1.2116829   -7.2132728    54.909377  0.029907068   0.03265364            1 
  154000    1.2190944   -7.2182925    55.294259  0.029921136  0.032638964            3 
  155000    1.2566757   -7.1660419    55.667142  0.029928571  0.032620162            5 
  156000    1.2275616   -7.1441258    56.010699  0.029920245  0.032604533            3 
  157000    1.2411245   -7.1708049    56.530885  0.030005778  0.032589334            2 
  158000    1.2445084   -7.2399837    56.577275  0.029840335  0.032574031            1 
  159000    1.2303638   -7.2131162    57.189116  0.029973331  0.032558982            1 
  160000    1.2314833   -7.1678864    57.747971  0.030077068  0.032550287            1 
  161000    1.2055911   -7.2205154    57.850607  0.029943378  0.032535944            3 
  162000    1.1887271   -7.2217969    58.130174  0.029902353  0.032519897            1 
  163000    1.2356074     -7.14402     58.81226  0.030067618  0.032505285            3 
  164000    1.2492765   -7.1802988    59.297908  0.030131051  0.032493766            1 
  165000    1.2276881   -7.1883679    59.350093  0.029974794  0.032481301            1 
  166000    1.1965005   -7.2029624     60.01894   0.03012999  0.032467246            1 
  167000    1.2419611   -7.2045592    60.409264  0.030144343  0.032456472            2 
  168000    1.2413674   -7.2091996    60.605671  0.030062337  0.032442507            2 
  169000    1.2253636   -7.2186326    60.691596  0.029926822  0.032427765            1 
  170000    1.2069418   -7.2029115    61.120384  0.029960973  0.032411521            2 
  171000     1.224516    -7.186419    61.377334  0.029910981  0.032396587            2 
  172000    1.2560506   -7.2007507    61.779591  0.029931972    0.0323827            2 
  173000     1.231704   -7.1993401     62.35753  0.030037346  0.032370658            1 
  174000    1.2237022    -7.218083    62.553861  0.029958745  0.032359873            2 
  175000    1.2340451   -7.1970695    63.100772  0.030047987  0.032347732            1 
  176000    1.2426098   -7.2468699    63.605781  0.030116373  0.032336802            1 
  177000    1.1935616   -7.2079236    64.005938  0.030134622  0.032327513            2 
  178000    1.2306686   -7.2155944    64.629166    0.0302571  0.032321076            1 
  179000    1.2376024   -7.2186484    64.958602  0.030241435  0.032314605            2 
  180000    1.2502212   -7.2181194    65.196645  0.030183632  0.032306948            4 
  181000    1.2181048    -7.207471    65.531286  0.030170942  0.032299489            1 
  182000    1.2133973   -7.1396311    66.013406  0.030225918  0.032292253            5 
  183000     1.230016   -7.2068152    66.106421  0.030103106  0.032284856            1 
  184000    1.2218658   -7.1963225    66.774428  0.030242041  0.032275552            2 
  185000    1.2264186   -7.1747956     67.19085  0.030266148  0.032269294            2 
  186000    1.2335428   -7.2254334    67.323811  0.030162998  0.032263287            2 
  187000    1.2559146   -7.2173529    67.944298  0.030278207  0.032257539            1 
  188000    1.2346533     -7.23309    68.318082  0.030282837   0.03225336            2 
  189000    1.2584665   -7.2218436    68.720362  0.030299983  0.032250767            3 
  190000    1.2403652   -7.1913546    69.076094  0.030296532  0.032248244            1 
  191000    1.2204221   -7.2443505    69.651326  0.030388886  0.032246504            1 
  192000    1.2264996      -7.1538    69.971589  0.030369613  0.032245139            1 
  193000    1.2313742   -7.2361652    70.187915  0.030305663  0.032241906            2 
  194000    1.2105665   -7.2205286     70.60412   0.03032823  0.032238701            3 
  195000    1.2218209   -7.2335168    70.973685  0.030330635  0.032234185            2 
  196000    1.2265302   -7.1915035    71.615118  0.030448604  0.032231777            1 
  197000     1.200583   -7.2224872    71.962297  0.030440904  0.032229443            4 
  198000    1.2075086   -7.1828739    72.302606   0.03043039  0.032225766            3 
  199000    1.2202232   -7.1851009    72.606435  0.030404705  0.032221839            3 
  200000    1.2135312   -7.2306284     72.80103  0.030333762  0.032216737            2 
  201000    1.1910606   -7.1873813    73.149218  0.030327205   0.03221152            1 
  202000    1.2146613   -7.1978283    73.862144  0.030471182    0.0322076            2 
  203000    1.2125412   -7.2203358     73.92126  0.030345345  0.032201476            3 
  204000    1.2470097   -7.2305794    73.990371  0.030224825   0.03219404            2 
  205000    1.2194463   -7.2167143    74.465072  0.030270354  0.032183467            2 
  206000    1.2046715   -7.1670349     75.05603  0.030362472  0.032172347            4 
  207000    1.1983789   -7.2132208    75.353714  0.030335634  0.032163942            1 
  208000    1.2043202   -7.2385119     75.51677  0.030255116  0.032156479            1 
  209000    1.2239885    -7.189519    76.155932  0.030365204  0.032150008            1 
  210000    1.1982401   -7.2099295    76.496167  0.030355622  0.032142114            3 
  211000    1.1944005   -7.1971525    76.853167  0.030352752  0.032136968            2 
  212000    1.1976126   -7.2161973    77.635422  0.030517069  0.032133347            3 
  213000    1.2206581   -7.1869793    77.805022  0.030440149  0.032129674            2 
  214000    1.2321056   -7.2781829    77.781621  0.030288793  0.032124836            1 
  215000    1.2329625   -7.1942515    78.591341   0.03046176  0.032120313            3 
  216000    1.2460624   -7.2174083    78.685039  0.030356882  0.032117188            1 
  217000     1.218367   -7.1994616     79.40175  0.030492223  0.032113983            2 
  218000    1.2286896   -7.2328877    79.542232  0.030406052  0.032110364            2 
  219000    1.2303736   -7.1800395    80.032579  0.030453797  0.032104761            1 
  220000    1.1997799   -7.2661651    79.958567  0.030287336  0.032099119            3 
  221000    1.2287657   -7.2426587    80.507534   0.03035729  0.032093875            3 
  222000    1.2064773   -7.1915631    81.368691  0.030543803  0.032089419            2 
  223000    1.2094481   -7.1991436    81.708842  0.030533947  0.032085516            3 
  224000    1.2061524   -7.2468058    82.008891   0.03050926  0.032081518            4 
  225000    1.2065543   -7.2307069    81.942725  0.030349157  0.032076042            2 
  226000     1.213593   -7.2180123    82.057649  0.030257245  0.032069015            1 
  227000    1.2177686   -7.2316262    82.646478  0.030340117  0.032062154            1 
  228000    1.2086738   -7.1992823     83.58163  0.030548841  0.032057503            2 
  229000    1.2167651   -7.2403119    83.634908  0.030434828   0.03205345            2 
  230000    1.2152749   -7.2005482    84.620709  0.030659677  0.032050421            1 
  231000     1.209601   -7.2718403    84.117285  0.030345341  0.032047874            1 
  232000    1.1854098   -7.2629435    84.701593  0.030424423  0.032041276            1 
  233000    1.2076862   -7.2909265      84.6546  0.030277039  0.032035009            3 
  234000    1.2018797    -7.218699    85.271388  0.030367303  0.032026786            1 
  235000    1.2069715   -7.2531977    85.419689   0.03029067  0.032019492            1 
  236000    1.2098441   -7.2344686    85.774411  0.030287574  0.032011631            2 
  237000     1.216296   -7.2285665    86.202354  0.030310251  0.032003563            1 
  238000    1.2342238   -7.2107734    86.486012  0.030282217  0.031995954            1 
  239000    1.2335132   -7.2111997    86.840912  0.030279258  0.031987018            1 
  240000    1.2044929   -7.2619587    86.930673  0.030184261  0.031977497            1 
  241000    1.2002518   -7.2349505    87.593564  0.030288231  0.031966849            3 
  242000    1.2294608   -7.2033569    88.395775  0.030439316  0.031958429            1 
  243000    1.2015273   -7.2279365    88.597513  0.030383235  0.031950671            3 
  244000    1.1866943   -7.2753061    88.942647  0.030376587    0.0319432            2 
  245000    1.2296121   -7.2595212    89.102775  0.030307066  0.031936979            2 
  246000    1.1896899   -7.2788284     89.63633   0.03036461  0.031930991            1 
  247000    1.2050433   -7.2759821    89.809556   0.03030012  0.031923486            3 
  248000    1.2126954   -7.2612754    90.474728  0.030401454  0.031917097            1 
  249000    1.2315442   -7.2374731    90.739251  0.030367889  0.031910587            2 
  250000    1.2072234   -7.2483945    90.910298  0.030303433  0.031902037            1 
  251000    1.1874691   -7.2005334    91.295365  0.030310546  0.031892911            2 
  252000    1.1853222   -7.2227032    91.710107  0.030327416  0.031884249            2 
  253000    1.2123401   -7.2204169    91.811451  0.030240926  0.031874595            1 
  254000      1.24082   -7.2361116    92.226012  0.030257878  0.031865729            1 
  255000    1.1844898   -7.1836539    92.947873  0.030375122  0.031857772            1 
  256000    1.1883018   -7.2528639    92.958886  0.030260054  0.031848987            2 
  257000    1.1951061   -7.2121365    93.369029  0.030275301  0.031839148            2 
  258000    1.2038662    -7.205051    93.420963   0.03017473  0.031828449            2 
  259000    1.2342996   -7.2307939    93.829668  0.030189726  0.031818339            1 
  260000    1.1649907   -7.2562834    94.480909  0.030282343  0.031808634            2 
  261000      1.23708   -7.2714421    94.890606  0.030297128  0.031800008            2 
  262000    1.2001301   -7.2630944    95.522493  0.030382472  0.031791968            1 
  263000    1.2018508   -7.2245656    95.814973  0.030359624  0.031784649            3 
  264000    1.2074813   -7.2456397     96.37753    0.0304222  0.031779732            3 
  265000    1.2363291   -7.2324011    96.999676  0.030503043  0.031774811            1 
  266000    1.2142649    -7.253142    97.213166  0.030455252  0.031769682            2 
  267000    1.1971075   -7.2925324    97.127222  0.030314364  0.031764627            1 
  268000     1.209654   -7.2268173    97.604336  0.030349607  0.031758826            3 
  269000    1.2338701   -7.2042742    98.418852  0.030489111  0.031753324            2 
  270000     1.202513   -7.3257304    98.080266  0.030271687   0.03174757            1 
  271000    1.1983769   -7.2413189    98.570704  0.030310795  0.031739878            2 
  272000    1.2192405   -7.2307297    98.883047  0.030295051  0.031732435            2 
  273000    1.2002727   -7.2515159    99.543428  0.030385662  0.031725365            4 
  274000    1.2130633    -7.239824    99.709769  0.030325355  0.031717806            2 
  275000    1.2224841   -7.2647808    99.427434  0.030129525  0.031709476            3 
  276000    1.2069676   -7.2410831    100.07897   0.03021708  0.031700234            2 
  277000    1.2251305   -7.2087516    100.58107  0.030259046  0.031689932            1 
  278000    1.1910724    -7.220297    100.46369  0.030115016  0.031678713            2 
  279000    1.1898679   -7.2519505    100.95318   0.03015328  0.031667818            1 
  280000    1.1897138   -7.2911059    101.45945  0.030196266  0.031657269            3 
  281000    1.2106496   -7.2778501    101.90987   0.03022238   0.03164853            1 
  282000     1.206296   -7.2628942    102.13798  0.030182619  0.031640036            1 
  283000    1.2017029   -7.2448091    102.50487  0.030184002  0.031631645            2 
  284000    1.1894987   -7.2313767    102.82239   0.03017089  0.031622386            3 
  285000    1.1703653   -7.2248646    102.74601  0.030042694  0.031612407            1 
  286000     1.213145   -7.2729845    103.28705  0.030095294  0.031601574            2 
  287000    1.2331817    -7.243917    103.58105  0.030075798  0.031590388            3 
  288000    1.2011794   -7.2647709    103.69621   0.03000469  0.031579012            2 
  289000    1.1905562    -7.238411    104.53111  0.030141611  0.031566875            1 
  290000    1.2202518   -7.2464676    104.77419  0.030107525  0.031554652            1 
  291000    1.1905956   -7.2967816    104.86673  0.030030564  0.031542698            2 
  292000    1.2224621   -7.2380081     105.5131  0.030112186  0.031531299           10 
  293000    1.1890059   -7.2280743    105.68553  0.030058455  0.031521264            3 
  294000    1.2036704   -7.2866164    106.01231   0.03004884  0.031509551            1 
  295000    1.2031963   -7.2943862    106.09776  0.029971118  0.031497369            2 
  296000     1.202881   -7.2425196    106.91579  0.030100166  0.031486451            2 
  297000    1.1915754   -7.2611833    107.13664  0.030060786  0.031476873            2 
  298000      1.23362   -7.2425102    107.74129  0.030128997  0.031467483            1 
  299000    1.2002471   -7.2372363    108.36633  0.030202432    0.0314586            2 
  300000    1.2018394   -7.2372015    108.46036  0.030127878  0.031449342            1 
  301000    1.2023435   -7.2590117    108.90759  0.030151604  0.031440478            6 
  302000    1.1837385   -7.2680868    109.03365  0.030086547   0.03143032            1 
  303000    1.1967954   -7.2373372    109.61955   0.03014839  0.031422003            2 
  304000    1.1797965   -7.2357349    110.34271  0.030247452  0.031414422            1 
  305000    1.2070915    -7.251783    110.65153   0.03023266  0.031408097            1 
  306000    1.1947964   -7.2353897    111.08366  0.030251542  0.031401899            4 
  307000    1.2033402   -7.2664638    111.22446   0.03019122   0.03139511            3 
  308000    1.1787836   -7.2922719    111.34974  0.030127094  0.031388132            1 
  309000    1.2108073   -7.2299334    112.33856  0.030296267  0.031382258            2 
  310000    1.1849479     -7.22169    112.75011   0.03030917  0.031377417            2 
  311000    1.2027436   -7.2516842    113.11955  0.030310704  0.031372094            2 
  312000    1.2050814   -7.2332137    113.51974  0.030320443  0.031366853            2 
  313000    1.1974909   -7.2970404     113.2286  0.030146059  0.031360437            3 
  314000     1.195901   -7.2649607    113.56645  0.030139716  0.031354105            2 
  315000    1.2090149   -7.2345581    114.53362  0.030299899  0.031349088            2 
  316000    1.2113494   -7.2583472    114.80109   0.03027455  0.031343997            2 
  317000    1.1862888   -7.2808075    114.48843  0.030096853  0.031336527            2 
  318000    1.2021611   -7.2813123    114.95975  0.030125721  0.031328103            1 
  319000    1.2001685   -7.2612189    115.33513  0.030129343   0.03131997            1 
  320000    1.1970512   -7.2650509     115.5448  0.030089792  0.031312619            1 
  321000    1.1778932   -7.2873815    115.48429  0.029980344  0.031304168            1 
  322000    1.2128941   -7.2245092    116.74783  0.030214243  0.031295507            1 
  323000    1.1999105   -7.2711792    116.76881  0.030126113  0.031287687            1 
  324000    1.1819119   -7.2235581    117.19285  0.030142194  0.031280117            2 
  325000    1.1901717   -7.2541861    118.04966  0.030269144  0.031272843            3 
  326000    1.2151997   -7.2884394    117.26365  0.029975372  0.031265487            3 
  327000    1.2003338   -7.2512706    118.05026  0.030084165   0.03125692            2 
  328000     1.184667    -7.229939    118.72031  0.030162681  0.031248867            1 
  329000    1.1907525   -7.2887908    118.52753   0.03002217  0.031241113            2 
  330000    1.1929251   -7.2795449     118.7914  0.029997828  0.031231153            1 
  331000    1.1879061   -7.2684772     118.9888  0.029956898  0.031222476            2 
  332000    1.1937655   -7.2633388    119.71036   0.03004778  0.031214038            2 
  333000     1.202806   -7.2770204    119.99794  0.030029515  0.031205439            3 
  334000    1.1846134   -7.2543211    120.69983  0.030114729  0.031197306            1 
  335000    1.1899059   -7.2612845    120.95799  0.030089053  0.031189369            2 
  336000    1.1843588    -7.291738    121.14622  0.030046185  0.031181312            3 
  337000    1.1908491   -7.2713654    121.76596  0.030110278  0.031171996            1 
  338000    1.2033189    -7.301102    121.37193  0.029924047  0.031162896            3 
  339000    1.1863957   -7.2632623    122.32745  0.030070662  0.031155398            3 
  340000    1.2039695   -7.2774096     122.9354  0.030131225   0.03114939            2 
  341000    1.2042748   -7.2647199     123.5178   0.03018519  0.031142852            1 
  342000    1.1859769   -7.2738785    123.93278  0.030198046  0.031137158            3 
  343000    1.2237398    -7.247105    124.49342  0.030246215  0.031133356            2 
  344000    1.2035254   -7.2638287    124.72103  0.030213428    0.0311284            3 
  345000    1.1990835   -7.2581297      124.774  0.030138647  0.031123489            2 
  346000    1.2103749   -7.2932966    124.92222  0.030087239  0.031118087            2 
  347000    1.2115485   -7.2497435    125.65311  0.030176058  0.031112548            3 
  348000    1.2036371   -7.2760023    125.96407  0.030163809  0.031106802            2 
  349000    1.2013838    -7.226284    126.50445  0.030206411  0.031100557            2 
  350000    1.1959621   -7.2250915    126.91064  0.030216819  0.031095045            1 
  351000    1.2003611   -7.3263289     126.5957  0.030055958  0.031089104            1 
  352000    1.1863736   -7.2455754    127.32362  0.030142903   0.03108311            2 
  353000    1.1880045   -7.3046462    127.43986  0.030084952  0.031077069            1 
  354000    1.1715398   -7.2811315    127.98339  0.030127916  0.031071335            2 
  355000    1.2028538   -7.2673015    127.98361    0.0300431   0.03106525            4 
  356000    1.2071299   -7.2873795    128.25371  0.030021937   0.03105772            1 
  357000    1.2087877   -7.2824033    128.82246  0.030070603  0.031050652            1 
  358000    1.1523207   -7.2745154    129.21034  0.030076895  0.031043489            1 
  359000    1.1773418    -7.272407    129.45295  0.030049431  0.031036991            1 
  360000    1.1969943   -7.2765796    130.09239  0.030113979  0.031029422            1 
  361000    1.1922114   -7.2849114     129.9559  0.029999054  0.031021907            1 
  362000    1.2305193   -7.3008414    129.93376  0.029911086  0.031014561            2 
  363000     1.195764   -7.2707695    131.01743  0.030077464  0.031006838            2 
  364000    1.1904627   -7.3089133     130.9549  0.029980518   0.03099966            1 
  365000    1.1880916   -7.3079022    131.40326  0.030000744  0.030993093            5 
  366000    1.1996206   -7.3310357    131.24239  0.029882147  0.030986048            2 
  367000    1.2192348   -7.2838763     131.9062  0.029951454  0.030979544            2 
  368000    1.1671074   -7.2863812    133.07244  0.030134156  0.030973837            3 
  369000    1.2051269   -7.2987257    132.91186  0.030016228  0.030968258            9 
  370000    1.1814366   -7.2664263     133.7846  0.030131667  0.030962454            2 
  371000    1.1936006   -7.2968045    133.58755  0.030006189  0.030957486            3 
  372000    1.1560912   -7.2790878     133.7144  0.029953942  0.030952166            2 
  373000    1.2070334   -7.2962463    134.75038  0.030105089   0.03094676            1 
  374000    1.1876405   -7.3552463    134.00977  0.029859574  0.030940156            1 
  375000    1.2032401   -7.2843728    135.29738  0.030066085  0.030934904            2 
  376000    1.1573535   -7.3049288     135.4091  0.030010881  0.030929208            1 
  377000    1.2110257   -7.2839227    136.04991  0.030072924  0.030923769            5 
  378000    1.2072449   -7.2741278    135.96722  0.029975137   0.03091856            2 
  379000    1.1994395   -7.2618182    137.03376  0.030130553  0.030912925            2 
  380000    1.2049338    -7.256385    137.49418  0.030152233  0.030908227            4 
  381000    1.1917599   -7.3078114    137.41659  0.030056123  0.030902043            3 
  382000    1.1950618   -7.3392845    137.43204  0.029980812  0.030895783            1 
  383000    1.1953793   -7.3131257    137.73736  0.029968965  0.030888959            1 
  384000    1.1806462   -7.3120226    137.98094  0.029943781  0.030882161            2 
  385000    1.2022012   -7.2861865     138.8365  0.030051191  0.030875824            2 
  386000    1.2030167   -7.3315992    138.77826  0.029960764  0.030870445            2 
  387000    1.1815744   -7.3194868    139.36848  0.030010439  0.030864856            2 
  388000    1.1775166   -7.3022824    139.49993  0.029961326  0.030858756            2 
  389000    1.1935004   -7.2984429    139.99614  0.029990604  0.030853197            2 
  390000    1.1937429   -7.2887121    140.19656   0.02995653  0.030847828            2 
  391000    1.2022883   -7.2900641      140.631  0.029972506  0.030841219            2 
  392000      1.19546   -7.2764401    140.54169   0.02987706  0.030835164            1 
  393000    1.1984698   -7.3241891    141.01207  0.029900779  0.030827283            1 
  394000     1.225404   -7.2775098    141.66895  0.029963821  0.030820392            3 
  395000    1.2005468   -7.2579853     142.0448  0.029967257  0.030812986            2 
  396000    1.1761241   -7.3010593    141.75945  0.029831534  0.030804523            1 
  397000    1.1958126   -7.2474251     142.4634  0.029904157  0.030797075            2 
  398000    1.1609964   -7.2747277    142.48855  0.029834286  0.030789793            2 
  399000    1.2354585   -7.3223882    142.83894  0.029832694   0.03078289            1 
  400000    1.1887001   -7.2902435    143.45419  0.029886289  0.030776233            3 
  401000    1.1509926   -7.3045166    143.62835  0.029847953  0.030769333            2 
  402000    1.1715093   -7.2767438    144.11554  0.029874696  0.030762384            1 
  403000     1.218553   -7.2434778    144.62795  0.029906524  0.030755651            7 
  404000     1.199538   -7.3090452    144.72156  0.029851807   0.03074902            1 
  405000     1.185715   -7.2599201    145.54516  0.029947563  0.030742298            1 
  406000    1.1886834    -7.318645    145.75291  0.029916444  0.030736206            1 
  407000    1.1805009   -7.3464166    145.95681  0.029884686  0.030729693            4 
  408000    1.1932042   -7.3072857     146.4952  0.029921406  0.030723338            3 
  409000    1.1781746   -7.2666736    146.85856  0.029922281   0.03071656            1 
  410000    1.1789581   -7.2880982    146.49251  0.029774901  0.030710245            3 
  411000    1.1779475   -7.2889566    146.61072  0.029726424  0.030703832            3 
  412000     1.182887   -7.2831713    147.68979   0.02987253  0.030697061            2 
  413000    1.1793542   -7.3067554     147.4488  0.029751574  0.030690413            2 
  414000    1.2005534   -7.3603632    148.02024  0.029794734  0.030682816            1 
  415000    1.1729439    -7.304142     148.5553  0.029830381  0.030675344            2 
  416000    1.1775253   -7.2885847    149.06978  0.029861735  0.030668778            1 
  417000    1.2137834   -7.2843688    149.81943  0.029939935  0.030662487            1 
  418000    1.1819727   -7.3187486    149.59379  0.029823323  0.030656689            2 
  419000    1.2024425   -7.3056365    150.27559  0.029887746  0.030650307            1 
  420000    1.2047424   -7.3152878     150.7074  0.029902261  0.030644128            3 
  421000    1.1851817   -7.2882323    150.70569  0.029830896  0.030638822            1 
  422000    1.2027092   -7.3232767    151.47122  0.029911378  0.030633296            3 
  423000    1.1910915   -7.2917948    151.98457  0.029941798  0.030627716            2 
  424000    1.1812652   -7.2813101    152.48261  0.029969067  0.030622749            2 
  425000    1.2041027   -7.3486997    152.38492  0.029879396  0.030618335            1 
  426000    1.1843578   -7.2618691    153.60694  0.030048306  0.030614562            2 
  427000    1.1676457   -7.3080408     153.9798  0.030050702  0.030610865            1 
  428000     1.190531   -7.2861253    154.06108  0.029996316  0.030607217            1 
  429000    1.1649343   -7.2869739    154.15208  0.029944071  0.030603306            1 
  430000     1.157938   -7.2931467    153.86528  0.029818852  0.030599277            6 
  431000    1.1994841    -7.303614     154.4588  0.029864424  0.030593965            1 
  432000    1.1783746   -7.3520292    154.23231  0.029751604  0.030588367            1 
  433000    1.1811039   -7.2874221    155.09382  0.029848695  0.030581913            2 
  434000     1.180357   -7.2507149    155.66486  0.029889566  0.030576739            4 
  435000    1.1872027    -7.305939    155.56677  0.029802063  0.030570877            2 
  436000    1.1987168   -7.2501809    156.96941  0.030001798  0.030565698            1 
  437000    1.2112422   -7.2693967    157.03342  0.029945351  0.030561435            2 
  438000    1.1849881    -7.285442    156.36467  0.029749747  0.030556475            3 
  439000    1.1629986   -7.2741933    157.52777  0.029902766  0.030551244            1 
  440000    1.2321097   -7.3183709    157.48219  0.029826173  0.030545959            2 
  441000     1.195432    -7.299808    157.83389  0.029824998  0.030539906            6 
  442000    1.1904343   -7.2746984    159.01446  0.029980101  0.030534791            2 
  443000    1.1835664   -7.3064022    158.31425  0.029780709  0.030529086            1 
  444000    1.1894613   -7.3330406    158.52168  0.029752568  0.030523539            3 
  445000    1.1821968    -7.340816     159.2096  0.029814531   0.03051826            2 
  446000    1.1752535   -7.3178233    159.58364  0.029817572  0.030513672            2 
  447000    1.1676998   -7.3412324    160.07134  0.029841786  0.030509016            1 
  448000    1.1666613    -7.324375    160.40598  0.029837421  0.030504015            1 
  449000    1.2055662   -7.2815804    161.24946  0.029927517  0.030499611            4 
  450000    1.1564014   -7.3227463    160.77439  0.029773035  0.030495036            1 
  451000    1.1687967   -7.3663271    161.44435  0.029830811  0.030490102            1 
  452000    1.1656865   -7.3045316    162.05213  0.029876868  0.030485597            1 
  453000    1.2185898   -7.3348188    161.94593  0.029791378   0.03048108            2 
  454000    1.1663379   -7.3056513    162.07207  0.029748911  0.030476008            2 
  455000    1.1963917   -7.2799495      162.992  0.029852015  0.030471965            2 
  456000    1.1947447   -7.2603494    163.43036  0.029866659  0.030467548            1 
  457000    1.1726475   -7.3288242    163.72336  0.029854734  0.030462769            1 
  458000    1.1676017   -7.3158938     164.0914  0.029856514  0.030458104            1 
  459000     1.148277   -7.2819269    164.68202  0.029898697  0.030454033            2 
  460000    1.1701168   -7.3856855    163.70486  0.029656678  0.030449409            2 
  461000    1.1805229   -7.3374374    164.62837  0.029759285  0.030445278            2 
  462000     1.183711   -7.3088722     165.5296  0.029857431  0.030440466            5 
  463000    1.1988615   -7.2973887    166.23178  0.029919328  0.030436131            1 
  464000    1.1990706   -7.3152214    166.10875  0.029832749  0.030432035            2 
  465000    1.1859605   -7.3585727    166.15931  0.029777655  0.030427863            1 
  466000    1.1673606   -7.3228538    166.47544  0.029770286  0.030423371            3 
  467000    1.1625965   -7.2958697    167.17333  0.029831073  0.030419108            2 
  468000    1.1728764   -7.3039002    167.90188  0.029897058  0.030415726            3 
  469000    1.1497198   -7.2947828    168.33699  0.029910624    0.0304121            4 
  470000    1.1812511   -7.3226374    168.30546  0.029841394  0.030408899            1 
  471000    1.2072411    -7.336727    168.33445  0.029783165  0.030405334            1 
  472000    1.1872908   -7.3212541    168.85806   0.02981251  0.030401559            2 
  473000     1.202385   -7.3056504    169.91698  0.029936044  0.030398576            2 
  474000    1.1569628   -7.2653671    170.14652  0.029913243  0.030395901            2 
  475000    1.1557681   -7.3297003    170.18033  0.029856198  0.030392626            3 
  476000    1.2102363   -7.3535234     170.5472  0.029857703  0.030389585            2 
  477000    1.1772222   -7.3262092     170.5347  0.029792924  0.030386294            3 
  478000    1.1730208   -7.3208018    171.33722  0.029870506   0.03038344            2 
  479000    1.1605884   -7.3324707    171.71077  0.029873133  0.030380259            3 
  480000    1.1606589   -7.3565522    172.00097   0.02986128  0.030377144            2 
  481000    1.1882228   -7.2991397    171.87721  0.029777757  0.030373846            2 
  482000    1.1435902   -7.3047323    172.45369  0.029815645  0.030369912            2 
  483000    1.2065465   -7.3507592    172.56945  0.029773887  0.030365464            2 
  484000    1.1835946   -7.3385484    172.49644    0.0296998  0.030360765            5 
  485000    1.1698142   -7.3055285    173.11346  0.029744581  0.030355902            2 
  486000    1.1834319   -7.3218862    173.59169  0.029765379  0.030351086            3 
  487000    1.1728031   -7.3583952    173.17412  0.029632807  0.030345388            2 
  488000     1.176971   -7.3059847    174.43347  0.029787136  0.030340028            7 
  489000    1.1515662    -7.300718     174.8223  0.029792484   0.03033574            2 
  490000    1.1700663   -7.3578929    174.37442  0.029655513  0.030330499            2 
  491000    1.1785917   -7.3103679    174.88735   0.02968217  0.030325059            2 
  492000    1.1936539    -7.367235    174.94433  0.029631493  0.030319369            2 
  493000    1.1813851    -7.373296    174.62953  0.029518177  0.030313309            4 
  494000     1.153447   -7.3571474    175.52053  0.029608727  0.030306971            1 
  495000    1.1864163   -7.3363584    175.71848  0.029582235  0.030301061            5 
  496000    1.1579586   -7.3858077    175.92212  0.029556808  0.030295157            1 
  497000    1.1802334   -7.3382758    176.26271  0.029554445  0.030288673            3 
  498000    1.1555735   -7.2893796    177.20606  0.029652955  0.030282366            6 
  499000    1.1548278   -7.3162933    177.57248  0.029654723   0.03027668            1 
  500000    1.1573243   -7.3543874    177.41532  0.029569219  0.030270933            2 
  501000    1.1603671    -7.379807    177.82495  0.029578335  0.030264529            2 
  502000    1.1371209   -7.3226235    178.51633  0.029634186  0.030258229            2 
  503000    1.1821174   -7.3636174    178.53716  0.029578721  0.030252573            2 
  504000    1.1668478   -7.3122264    178.94458  0.029587398  0.030246876            2 
  505000    1.1781752    -7.338819     178.7845  0.029502393  0.030240742            1 
  506000    1.1726156   -7.3207901    179.89132  0.029626371  0.030234085            1 
  507000    1.1527078   -7.3663068    179.14851  0.029445843  0.030227535            2 
  508000    1.1733053   -7.3319886    180.06154  0.029537654  0.030221054            1 
  509000    1.1952426   -7.2842739     180.6486  0.029575737  0.030215023            4 
  510000    1.1660257    -7.311578    180.26409  0.029454917  0.030208874            2 
  511000    1.1756903   -7.2933694    181.12805  0.029538169  0.030203434            2 
  512000    1.1558558   -7.2994095    181.42119  0.029528189  0.030197443            2 
  513000    1.1680756   -7.3165595    181.94158  0.029555162  0.030191638            2 
  514000    1.1730164   -7.3319844    181.98144  0.029504125  0.030185513            2 
  515000    1.1539093   -7.3361203    181.76493  0.029411801  0.030179096            2 
  516000    1.1787362   -7.3456489    182.76743  0.029516703  0.030172661            2 
  517000     1.187251   -7.3417772    182.48437  0.029413986  0.030166556            2 
  518000     1.173722   -7.3366221    183.09815  0.029455944  0.030159927            3 
  519000    1.1667163   -7.3022823    183.48041  0.029460566  0.030153216            2 
  520000    1.1603588   -7.3281423     183.4711   0.02940242  0.030145678            3 
  521000    1.1557012   -7.2942511    184.40553  0.029495447  0.030138737            1 
  522000    1.1699498   -7.3137491    183.91411  0.029360491  0.030131342            4 
  523000    1.1716439   -7.3068609    184.12024  0.029337195  0.030123306            1 
  524000    1.1698369   -7.3840455    183.74005  0.029220746  0.030115097            4 
  525000    1.1668863   -7.3056335    184.86935   0.02934434  0.030107236            2 
  526000    1.1555994   -7.3426981    185.24507  0.029348078  0.030099601            3 
  527000    1.1771412    -7.376013    185.40203  0.029317209  0.030091707            2 
  528000    1.1733554   -7.3361906     185.9895  0.029354404  0.030084631            2 
  529000    1.1813494    -7.333646    186.24668  0.029339426  0.030077483            3 
  530000    1.1837224   -7.3295887    186.92869  0.029391304      0.03007            2 
  531000    1.1596174   -7.3523861    186.90755  0.029332634  0.030063062            2 
  532000    1.1588449   -7.3071923    187.14024  0.029313948  0.030055747            4 
  533000    1.1595217   -7.3369825    187.10303  0.029253132  0.030048463            4 
  534000    1.1725891   -7.3139832    187.50066  0.029260403  0.030040949            2 
  535000    1.1578785   -7.3460989    187.27159   0.02917003  0.030033089            5 
  536000    1.1559581   -7.3750609    187.53464  0.029156505  0.030024744            3 
  537000    1.1720603   -7.3555199    188.63084  0.029272322  0.030016984            1 
  538000    1.1285495   -7.3248105    188.82629  0.029248186  0.030009191            3 
  539000    1.1202421   -7.3596706     188.4275  0.029132267  0.030000802            2 
  540000    1.1504387   -7.3601191    188.88646  0.029149145  0.029992246            3 
  541000     1.151654   -7.3858648     189.1472  0.029135428  0.029983725            2 
  542000    1.1956529   -7.3857001    189.01399  0.029061192  0.029975119            2 
  543000    1.1503408   -7.3704219    190.21691  0.029192283  0.029966442            3 
  544000    1.1624832   -7.3494784    190.11517  0.029123034  0.029958562            1 
  545000    1.1537931   -7.3528711    190.76265  0.029168602  0.029950405            4 
  546000    1.1965874   -7.3890223    190.65834  0.029099258  0.029941753            2 
  547000    1.1815785   -7.3845297    191.56624  0.029184375  0.029933714            3 
  548000    1.1575609    -7.381774    191.83366  0.029171785   0.02992655            1 
  549000    1.1754702   -7.3198715    193.37937  0.029353275  0.029919556            2 
  550000    1.1817119   -7.3666692    192.52308  0.029170164  0.029912534            2 
  551000     1.158117   -7.3235608    193.63625  0.029285579  0.029905117            1 
  552000    1.1627475   -7.3309923    193.46269  0.029206325  0.029897819            1 
  553000    1.1645104   -7.3567864     193.7577  0.029197965  0.029890885            2 
  554000    1.1549228    -7.362936    193.84174  0.029157902  0.029884274            1 
  555000    1.1745662   -7.3200208     193.9842  0.029126757  0.029877475            1 
  556000    1.1687237   -7.3598417    194.49836  0.029151433  0.029870607            4 
  557000    1.1760405   -7.3784709    195.17008  0.029199593  0.029863328            1 
  558000    1.1635751   -7.4005583    194.97962  0.029118821  0.029856134            2 
  559000     1.138901   -7.3628658    195.29315  0.029113469  0.029848752            1 
  560000    1.1632517   -7.3454961    196.04831  0.029173856  0.029841128            1 
  561000    1.1501696   -7.3660618    195.11079  0.028982589  0.029833591            1 
  562000    1.1717379   -7.3279596    196.68947  0.029165106  0.029826294            4 
  563000    1.1326472   -7.3165958    196.76851  0.029125001   0.02981917            1 
  564000    1.1514939   -7.3120608     197.3777  0.029163372   0.02981205            2 
  565000    1.1485736   -7.3382333    197.39894  0.029114888  0.029804103            3 
  566000    1.1765289   -7.3997351    197.30515  0.029049639  0.029796638            2 
  567000    1.1665186   -7.3493973      198.036  0.029105821  0.029789458            3 
  568000     1.160221   -7.3394977     197.8286  0.029024149  0.029781931            2 
  569000    1.1604892   -7.3401813    198.16992  0.029023128  0.029774247            2 
  570000    1.1773758   -7.3552816    199.14158  0.029114266  0.029766858            2 
  571000    1.1765196   -7.3359784    199.69508  0.029144057   0.02975982            1 
  572000    1.1519131   -7.3399173    199.58425   0.02907696  0.029752228            2 
  573000    1.1545559   -7.3744779    200.07611  0.029097747  0.029744872            2 
  574000    1.1395769   -7.3695505    199.92092  0.029024524   0.02973738            2 
  575000    1.1700968   -7.3408478    200.44583   0.02905012  0.029729646            1 
  576000    1.1422264   -7.3863422    200.62304  0.029025324  0.029722026            5 
  577000    1.1649976   -7.3610036    200.63644  0.028976955  0.029714303            1 
  578000    1.1454868   -7.3873602    201.47463  0.029047669  0.029706792            1 
  579000    1.1740255   -7.3763748    202.50332  0.029145556  0.029699805            4 
  580000     1.147898   -7.3606013    202.26335  0.029060826  0.029693167            2 
  581000    1.1624627   -7.3886958    202.28002  0.029013199   0.02968557            3 
  582000    1.1692617   -7.3915021    202.42808  0.028984547  0.029678233            2 
  583000    1.1502208   -7.4092197    202.43692  0.028936095  0.029671036            3 
  584000    1.1573312   -7.3767867    203.15776  0.028989406  0.029663744            1 
  585000    1.1635284   -7.3450021    203.65499  0.029010683  0.029656716            1 
  586000    1.1517856   -7.4046854    204.06111  0.029018929  0.029649601            3 
  587000    1.1814569   -7.3602748    204.41082  0.029019139  0.029642318            1 
  588000    1.1411423   -7.4105124     204.0557  0.028919458  0.029634919            7 
  589000    1.1388248   -7.4507993    204.09548  0.028875987  0.029627212            1 
  590000    1.1439456   -7.4110521    204.39341  0.028869126  0.029619677            2 
  591000    1.1516636   -7.4071232    205.11946  0.028922654   0.02961211            2 
  592000     1.146191   -7.3993548    205.16252   0.02887986   0.02960449            3 
  593000     1.166096   -7.4074139    205.52298  0.028881812  0.029596304            1 
  594000     1.134815   -7.3928812    205.59945  0.028843918  0.029588248            3 
  595000    1.1699355   -7.3734034    205.82709  0.028827324  0.029580386            3 
  596000    1.1571925   -7.3811515    206.45378   0.02886658  0.029572665            2 
  597000    1.1762867   -7.4266649    206.79595  0.028865989  0.029564379            2 
  598000    1.1637355   -7.3523106    206.87965  0.028829383  0.029556282            2 
  599000    1.1539481   -7.3898613    206.44679  0.028721033  0.029548509            3 
  600000    1.1519435    -7.384432    207.77473  0.028857601  0.029540651            2 
  601000    1.1658094   -7.3607664    208.87812  0.028962579  0.029533191            2 
  602000    1.1263859   -7.3730163    208.60725  0.028876973  0.029525501            2 
  603000    1.1707078   -7.3988196    208.25581  0.028780515  0.029517685            3 
  604000    1.1523642   -7.4222207     208.4846  0.028764432  0.029509633            2 
  605000    1.1841468   -7.3909009    208.80534  0.028761066  0.029501269            1 
  606000    1.1378138    -7.393086    209.73908  0.028842008   0.02949339            3 
  607000    1.1495309   -7.3600528    209.64077  0.028780996  0.029485882            2 
  608000    1.1715758   -7.3558092    210.63571  0.028870025  0.029478666            1 
  609000    1.1640522   -7.3697906    210.19662  0.028762537  0.029470762            3 
  610000    1.1565878   -7.3698159    211.03126  0.028829408  0.029462799            1 
  611000    1.1707616   -7.3691494    210.57163  0.028719535  0.029454841            2 
  612000    1.1525262   -7.3739321    211.35467  0.028779231  0.029446604            2 
  613000    1.1547432   -7.3799471    211.47387  0.028748488  0.029438442            2 
  614000     1.164304   -7.3741538    211.29247  0.028677045  0.029430261            2 
  615000    1.1570393   -7.3415884    211.70478  0.028686284  0.029421898            1 
  616000    1.1455233   -7.3990206    211.30889  0.028586159  0.029413131            3 
  617000     1.155372   -7.3960805    211.71211  0.028594288  0.029404116            2 
  618000    1.1566591   -7.4019093    212.28373  0.028625099  0.029395517            1 
  619000    1.1487355   -7.3621236    212.32109  0.028583883  0.029386828            2 
  620000    1.1562797   -7.3707111    212.79487  0.028601461  0.029378456            2 
  621000    1.1548409   -7.4207146    213.65543  0.028670885  0.029369809            1 
  622000    1.1532013   -7.3868723    214.14439  0.028690298  0.029361327            3 
  623000    1.1413749   -7.3707307    213.93515  0.028616258  0.029353514            1 
  624000    1.1238482   -7.3991872    214.15753  0.028600098  0.029345185            1 
  625000    1.1516156   -7.3647082     215.6287  0.028750493   0.02933689            1 
  626000    1.1527428    -7.419775    214.53627  0.028559142  0.029327868            1 
  627000    1.1281881    -7.376365    215.05721  0.028582829  0.029318852       -1e+20 
  628000    1.1420172   -7.3854218    215.23068  0.028560334  0.029309487            2 
  629000     1.161209   -7.3486732    215.64609  0.028569964  0.029300609            2 
  630000    1.1622561   -7.3514197    215.18334  0.028463405  0.029291607            1 
  631000    1.1379449   -7.4233417    215.22288  0.028423519  0.029282572            2 
  632000    1.1627315   -7.3956978    216.20772  0.028508401  0.029273831            2 
  633000    1.1573414   -7.3787855    216.50427  0.028502405  0.029265168            2 
  634000     1.177959   -7.3293663    217.09736  0.028535405  0.029256578            3 
  635000    1.1248315   -7.4142118    216.69471  0.028437626  0.029247767            1 
  636000    1.1357323   -7.3724532    217.31634  0.028474364  0.029238896            3 
  637000    1.1544341    -7.354427    219.32651  0.028692636  0.029230685            2 
  638000    1.1671845   -7.3731894    218.10558   0.02848819  0.029222334            2 
  639000    1.1339338   -7.3819413    218.73358  0.028525506  0.029213654            1 
  640000    1.1280389   -7.3794386    218.77883  0.028486826  0.029204475            2 
  641000    1.1650421   -7.3995914    219.12182  0.028486976  0.029195252            5 
  642000    1.1366877   -7.3885426    218.20242  0.028323263  0.029185803            2 
  643000    1.1458922   -7.4088792    218.44371  0.028310487  0.029175944            1 
  644000    1.1332163   -7.3608328    219.09108  0.028350295  0.029166012            2 
  645000    1.1827804   -7.4349771    219.20538  0.028321109  0.029156583            3 
  646000    1.1494336   -7.3622854    220.31936   0.02842097  0.029147382            2 
  647000     1.117767   -7.4088206    220.49893  0.028400172  0.029138131            1 
  648000    1.1291188   -7.3686424    221.31002  0.028460651  0.029129053            5 
  649000    1.1107261   -7.4458532    221.00855  0.028378089  0.029120254            1 
  650000    1.1606159    -7.388794    221.82565  0.028439186   0.02911171            3 
  651000    1.1419209   -7.4302283    221.65787  0.028374023  0.029103022            1 
  652000    1.1710733   -7.3852451    221.98329  0.028372097  0.029094485            3 
  653000     1.194316   -7.3633227    223.06167  0.028466268  0.029086351            1 
  654000    1.1332031   -7.4264795    222.72296  0.028379582  0.029078548            2 
  655000    1.1499372    -7.414934    223.96316  0.028494041  0.029070521            1 
  656000    1.1399014   -7.4090899    223.54269  0.028397191  0.029062374            2 
  657000    1.1582011    -7.411831    224.27432  0.028446768  0.029054405            3 
  658000     1.154539   -7.4334847    224.06027  0.028376427  0.029046213            4 
  659000    1.1337726    -7.417862    224.13983  0.028343428  0.029038157            2 
  660000    1.1380195   -7.4110677    225.26781  0.028442906  0.029029958            3 
  661000     1.147718   -7.3899783    224.96704  0.028361957  0.029022022            4 
  662000    1.1340135   -7.4226942    225.38452  0.028371666  0.029013848            2 
  663000    1.1695149   -7.3883096    226.49129  0.028467985   0.02900591            3 
  664000     1.138661   -7.3407418    226.69132  0.028450216  0.028997652            1 
  665000    1.1402213   -7.4156257    226.15533  0.028340266  0.028989474            2 
  666000    1.1550362   -7.4051609    226.56404  0.028348854  0.028981152            1 
  667000    1.1537766   -7.3739857    226.81342  0.028337509  0.028973151            1 
  668000    1.1503045   -7.3828374    227.78489  0.028416279  0.028965781            1 
  669000    1.1396622   -7.3855955    228.39988  0.028450409  0.028958426            1 
  670000     1.126058   -7.4380777    227.82789  0.028336802    0.0289507            1 
  671000    1.1508343   -7.3669826    229.29851  0.028477212  0.028943446            3 
  672000    1.1361946   -7.3664871    228.76549  0.028368737  0.028936267            3 
  673000    1.1291775   -7.4266282    228.21499  0.028258418  0.028928784            5 
  674000    1.1260358   -7.4242809    228.83768  0.028293481  0.028921218            4 
  675000    1.1627807   -7.3802098    229.74017  0.028362984  0.028913582            6 
  676000     1.149358   -7.3762337    230.31501   0.02839189  0.028906146            2 
  677000    1.1380182   -7.3625967    231.01735  0.028436405  0.028898975            3 
  678000    1.1559571   -7.3850131    231.00751  0.028393253  0.028891728            3 
  679000    1.1500363    -7.377378    231.50663  0.028412693  0.028884783            1 
  680000    1.1577765     -7.39081    231.33004  0.028349269   0.02887811            3 
  681000     1.172987   -7.4024635    231.83213  0.028369081  0.028871225            3 
  682000    1.1606016   -7.4130572    230.99922  0.028225712  0.028864057            1 
  683000    1.1352481   -7.4377437    231.98541   0.02830471  0.028856586            3 
  684000    1.1549893   -7.3859546    231.56176  0.028211715  0.028849296            1 
  685000    1.1589332   -7.4088133    232.00761  0.028224771  0.028841739            2 
  686000    1.1411158   -7.4214577    232.33147  0.028222967   0.02883413            4 
  687000    1.1384359   -7.4433235    232.53523  0.028206603   0.02882618            2 
  688000    1.1191213   -7.4325621    233.69455  0.028306026  0.028818504            3 
  689000    1.1482071   -7.3728441    233.59293  0.028252652  0.028810878            1 
  690000    1.1390145   -7.4301487    233.47263  0.028197178  0.028803127            2 
  691000    1.1578271   -7.3734729    234.32043  0.028258615  0.028795246            5 
  692000    1.1600089   -7.3898963    233.92973  0.028170728  0.028787218            1 
  693000    1.1331747   -7.4209768    233.28577  0.028052641  0.028779069            2 
  694000    1.1355252   -7.3913139    233.98144  0.028095755  0.028770627            5 
  695000    1.1450992   -7.4568071    234.18152  0.028079319  0.028762773            1 
  696000    1.1242187   -7.3986916    235.80113  0.028232894  0.028755345            3 
  697000     1.162249   -7.4253562    235.66026  0.028175546  0.028747256            3 
  698000    1.1400572   -7.4361864    235.28361  0.028090211  0.028739128            2 
  699000    1.1119363   -7.4049251    235.88008  0.028121134  0.028730684            4 
  700000    1.1643252    -7.454788    236.15007  0.028113103  0.028722477            3 
  701000    1.1339873   -7.3842011    237.41014  0.028222793   0.02871444            1 
  702000    1.1424292   -7.4155429    236.77087  0.028106703  0.028706201            1 
  703000    1.1390901   -7.3938892    236.48935  0.028033351   0.02869786            2 
  704000    1.1449111   -7.4226257    236.48598  0.027993132    0.0286892            3 
  705000    1.1306265   -7.4396097    236.19362  0.027918868  0.028680079            2 
  706000    1.1417517   -7.3978708     237.7515  0.028063209   0.02867126            2 
  707000    1.1252921   -7.4081039    237.34928  0.027976106   0.02866268            2 
  708000    1.1356545   -7.4744437    237.42019  0.027944938  0.028654145            1 
  709000     1.156405   -7.4117348    238.18958  0.027995954  0.028645618            1 
  710000    1.1662193   -7.4091187    239.11432  0.028065061   0.02863744            3 
  711000    1.1579447   -7.3909428    239.05767  0.028018949  0.028629294            1 
  712000    1.1226092    -7.399315    240.26263  0.028120626  0.028621114            2 
  713000    1.1187362   -7.4072772    239.26805  0.027964943  0.028612721            1 
  714000    1.1183769   -7.4650967     240.0855  0.028021184  0.028604401            4 
  715000    1.1355616   -7.4529615    240.01503   0.02797378  0.028595792            4 
  716000    1.1331304   -7.4542524    239.94286   0.02792631  0.028587113            5 
  717000    1.1252371   -7.3841729    240.89684  0.027998238    0.0285787            1 
  718000    1.1217066   -7.3946164    241.37143  0.028014326  0.028570266            2 
  719000    1.1474437   -7.4498167    240.58969  0.027884758    0.0285613            1 
  720000    1.1267193   -7.4561201    240.65765  0.027853895   0.02855238            1 
  721000    1.1191805   -7.4226836     240.6528  0.027814701  0.028543606            2 
  722000    1.1222157   -7.4062913    241.47274  0.027870815  0.028534932            2 
  723000    1.1250426   -7.3863108    243.03956  0.028012859  0.028526451            2 
  724000    1.1313876   -7.4523862    242.03592  0.027858646  0.028517963            2 
  725000    1.1530532   -7.4150369    242.58148  0.027882929  0.028509563            2 
  726000    1.1222028   -7.3951262     242.8309  0.027873152  0.028500513            2 
  727000    1.1557563   -7.4271667    242.79044  0.027830174  0.028491412            2 
  728000    1.1285345   -7.4297634    242.88363  0.027802613  0.028482575            2 
  729000    1.1261164   -7.3840959    243.40212  0.027823745  0.028473689            2 
  730000    1.1535525   -7.3848154    243.85733  0.027837594  0.028464715            1 
  731000    1.1245186   -7.4436413    243.27043  0.027732607  0.028455876            2 
  732000     1.129011   -7.4038223    244.49408  0.027834025  0.028447382            2 
  733000    1.1252135   -7.4795597    243.87208  0.027725339   0.02843858            2 
  734000    1.1641227   -7.3928472    244.67601  0.027778839  0.028429676            2 
  735000    1.1209242   -7.4264821    244.45402  0.027715875  0.028420942            2 
  736000    1.1488195   -7.4094506    244.87721  0.027726133  0.028412257            3 
  737000    1.1394251   -7.4082475    246.15101  0.027832543  0.028403555            2 
  738000     1.146075   -7.4408095    246.08874  0.027787798  0.028395141            1 
  739000     1.127955   -7.4270522    247.57541   0.02791784  0.028386741            2 
  740000     1.165265   -7.4013992    246.56621  0.027766465  0.028378339            8 
  741000    1.1495185   -7.4415034    246.53001  0.027724923  0.028369736            3 
  742000    1.1349273   -7.4447368    246.79713  0.027717557  0.028361157            1 
  743000    1.1330498   -7.4543679    247.24972  0.027731014  0.028352367            5 
  744000     1.114607    -7.414875    247.71211  0.027745532  0.028343999            2 
  745000    1.1599498   -7.4311003    247.16826  0.027647456  0.028335783            2 
  746000    1.1249035   -7.4325441    247.67437  0.027666932  0.028327026            2 
  747000    1.1229179   -7.4076473    248.79629  0.027755052  0.028318047            4 
  748000    1.1373532   -7.4424078    248.50271  0.027685239  0.028309019            3 
  749000    1.1201317   -7.4616087    248.45147  0.027642576  0.028300357            1 
  750000    1.1536738   -7.4442414    248.75475  0.027639417  0.028291845            2 
  751000    1.1378087   -7.4842545    249.44999  0.027679759  0.028283236            1 
  752000     1.119772   -7.4553136    249.06673   0.02760048  0.028274728            2 
  753000    1.1549612   -7.4717508      249.177  0.027576029  0.028266159            1 
  754000    1.1679441   -7.4467745    249.81412  0.027609872  0.028257365            2 
  755000    1.1281883   -7.4387208    250.09905  0.027604751  0.028248461            4 
  756000    1.1253438   -7.4295967    251.73501  0.027748568  0.028239411            2 
  757000    1.1584698   -7.4603561    250.33856  0.027558186  0.028230706            1 
  758000    1.1470127   -7.4393532    250.85221  0.027578299  0.028221856            2 
  759000    1.1047245    -7.436773    251.48571  0.027611518  0.028213415            2 
  760000    1.1079001   -7.4535873    251.49826  0.027576564  0.028205029            2 
  761000    1.1139627   -7.4385471    252.34415  0.027632955  0.028196867            2 
  762000    1.0934327   -7.4227658     252.9788  0.027666098  0.028188841            3 
  763000    1.1146786   -7.3768622    253.96904  0.027737991  0.028181153            1 
  764000    1.0970338   -7.4312465    252.98176  0.027593997  0.028173465            2 
  765000    1.1290769    -7.431915    253.89077  0.027656946  0.028165852            3 
  766000    1.1606988   -7.4803808     254.0506  0.027638229  0.028157841            3 
  767000    1.1208861   -7.4685004    253.90334  0.027586195   0.02814969            1 
  768000       1.1257    -7.436868    254.60423  0.027626327  0.028141328            3 
  769000    1.1270975   -7.4272623    254.88731  0.027621078  0.028132977            3 
  770000    1.1339925   -7.4326871    255.04988  0.027602801  0.028124405            3 
  771000    1.1180426   -7.4833966    253.55493  0.027405419  0.028115748            6 
  772000    1.1456912    -7.435058    254.82728  0.027507262  0.028107306            2 
  773000    1.1212712    -7.427014    255.81846  0.027578532  0.028098845            3 
  774000    1.1148136   -7.4543813    255.66172  0.027526025  0.028090482            3 
  775000    1.1176608   -7.4347612    256.98637  0.027632943  0.028082269            8 
  776000     1.104185   -7.4281693    256.93353  0.027591659  0.028074435            3 
  777000    1.1235855   -7.4235437    257.21302  0.027586124  0.028066341            2 
  778000    1.1227174   -7.4381291     256.6806  0.027493638  0.028058067            4 
  779000    1.1200225   -7.4582583    257.76329  0.027574165  0.028049782            1 
  780000    1.1450418   -7.4223148    257.66037  0.027527817  0.028041798            1 
  781000    1.1107266   -7.4377803    257.79689  0.027507138  0.028033848            4 
  782000    1.1040727   -7.4204673    257.93263  0.027486427  0.028025467            1 
  783000    1.1455847    -7.448627    257.53736  0.027409255  0.028017052            3 
  784000    1.1291679   -7.4519339    257.79164  0.027401323  0.028008283            1 
  785000    1.1149135   -7.4613697    258.55903   0.02744788  0.027999553            1 
  786000    1.1238127   -7.4666379    258.27346  0.027382683   0.02799078            1 
  787000    1.1142979   -7.4511622    258.72268  0.027395455  0.027982272            2 
  788000    1.1329211   -7.4190544    259.28639  0.027420304  0.027974181            1 
  789000    1.1377746     -7.41707    259.18955  0.027375322  0.027965767            1 
  790000    1.1212385   -7.4565932     258.9203  0.027312268  0.027957116            4 
  791000    1.1416473   -7.4611845    259.90859  0.027381858  0.027947985            3 
  792000    1.1269898   -7.4621389    259.43531  0.027297487  0.027938923            2 
  793000    1.0976093   -7.4017485    260.16455  0.027339697  0.027929922            5 
  794000    1.1427652    -7.451028    259.83926  0.027271123  0.027920743            1 
  795000    1.1233883   -7.4493861    259.95927  0.027249399  0.027911534            5 
  796000    1.1305845   -7.4768431    260.43515  0.027264986  0.027902047            1 
  797000    1.1252266   -7.4418264    261.06038   0.02729615  0.027893046            2 
  798000    1.1339889    -7.452419    260.79896  0.027234645  0.027883917            1 
  799000    1.1212426   -7.4410149    261.69203  0.027293704  0.027874522            2 
  800000    1.1251861   -7.4381331    261.99704  0.027291358  0.027865544            5 
  801000    1.1212167   -7.4550018    262.33609   0.02729256  0.027856748            1 
  802000    1.1265395   -7.4686687    262.33782  0.027258709  0.027847914            1 
  803000    1.1076654   -7.3910683    262.76099  0.027268679    0.0278392            2 
  804000    1.1417222   -7.4427762    263.01886   0.02726149  0.027829992            1 
  805000    1.1355527   -7.4533496     262.4671  0.027170507  0.027820672            1 
  806000    1.0960753   -7.4703009    262.37046  0.027126805  0.027811396            1 
  807000    1.1370778   -7.4191745    262.84323   0.02714201  0.027801831            2 
  808000    1.1452052   -7.4733038      263.348  0.027160478  0.027792595            6 
  809000    1.1322267   -7.4727544    263.60322  0.027153195  0.027783186            3 
  810000    1.1389352   -7.4433139    264.78626  0.027241385  0.027774249            1 
  811000    1.1264065   -7.4268541    265.02583  0.027232411   0.02776534            2 
  812000    1.1219883    -7.411619    264.96169  0.027192291  0.027756637            4 
  813000    1.1167344   -7.5037251    263.93866  0.027053983  0.027747958            4 
  814000    1.0971965   -7.4626329    265.23037  0.027152986  0.027739072            2 
  815000    1.1061074    -7.456598    265.40897  0.027137931  0.027730142            1 
  816000    1.1262051   -7.4433591    266.38282  0.027204128  0.027721506            2 
  817000    1.1407455   -7.4310909    265.94769  0.027126447  0.027712692            1 
  818000    1.1245023   -7.4755998    266.10782  0.027109599  0.027703855            1 
  819000    1.1245525   -7.4902093     266.4292  0.027109199  0.027695139            2 
  820000    1.1648189   -7.4729997     266.8056   0.02711439  0.027686336            1 
  821000    1.1190784   -7.4729075    267.28121  0.027129639   0.02767749            3 
  822000    1.1301726   -7.4736022    267.88896  0.027158248  0.027668835            4 
  823000    1.1330586   -7.4190813    268.35758  0.027172699  0.027660418            2 
  824000    1.1148097   -7.4961865    267.42106   0.02704501  0.027651848            2 
  825000    1.1353645   -7.4855323    267.98854  0.027069549  0.027643075            1 
  826000    1.1230607   -7.4683395    269.22198  0.027161217   0.02763448            2 
  827000    1.1009152   -7.4725042    268.23269  0.027028687  0.027626042            2 
  828000    1.1311313   -7.4547197    269.58703  0.027132351  0.027617255            3 
  829000    1.1305192    -7.442602    269.33776  0.027074564  0.027608506            3 
  830000    1.1387752   -7.4533059    269.79419   0.02708777   0.02759963            1 
  831000     1.116468   -7.4651661    269.09359  0.026984917  0.027590818            3 
  832000    1.1199397    -7.473354    269.74625  0.027017854  0.027581868            2 
  833000    1.1274617   -7.5037264    268.27708  0.026838443  0.027572764            3 
  834000    1.1362876   -7.4632929    270.12667  0.026991074  0.027563596            2 
  835000    1.0971985   -7.5106093    269.20699  0.026866965  0.027554582            2 
  836000    1.1286344   -7.4936424    270.63101  0.026976775  0.027545287            2 
  837000    1.1088509    -7.469865     269.7954   0.02686135  0.027536049            2 
  838000    1.0981434   -7.4752554    271.20737  0.026969707  0.027527129            2 
  839000    1.1268926    -7.470325       271.34  0.026950735  0.027517944            2 
  840000    1.1242219   -7.4460334    271.09731  0.026894574  0.027508638            2 
  841000    1.1012462   -7.4489116     271.2802  0.026880717   0.02749927            1 
  842000    1.0991593   -7.4456025    270.61558  0.026783014  0.027490006            1 
  843000    1.1136932   -7.5154632    270.69191  0.026758789  0.027480437            1 
  844000     1.101918   -7.4576567    271.28368  0.026785514  0.027471042            2 
  845000    1.1501917   -7.4766397    272.03339   0.02682775  0.027461663            2 
  846000    1.1192383    -7.437742    273.00589  0.026891834  0.027452323            2 
  847000    1.1208419   -7.4431186    271.99045  0.026760178  0.027443174            1 
  848000    1.1333598   -7.4729208    273.06592  0.026834308  0.027433881            2 
  849000    1.0984656   -7.4418811     274.3609   0.02692981  0.027424488            1 
  850000    1.0970411   -7.5051916    273.13752  0.026778189   0.02741537            2 
  851000    1.1051742   -7.4912255     273.1779  0.026750675  0.027405839            2 
  852000    1.1407179   -7.4680225    273.71555  0.026771865  0.027396581            4 
  853000    1.1273534   -7.4788321    273.88818  0.026757345  0.027387248            3 
  854000     1.109965   -7.4534223    274.12501  0.026749123  0.027378104            1 
  855000    1.1208358   -7.4184194    276.01711  0.026902253  0.027369139            4 
  856000    1.1126682   -7.4282527    275.80949  0.026850612  0.027360613            2 
  857000    1.1198025   -7.4260773    276.47137  0.026883641  0.027351827            3 
  858000    1.0910347   -7.5055359    274.68401  0.026678711  0.027342871            3 
  859000    1.1244859   -7.4848069    275.32908  0.026710233  0.027333645            1 
  860000    1.1064072   -7.4701498    276.48986  0.026791653  0.027324326            2 
  861000    1.1045048    -7.508505    275.45646  0.026660516  0.027315091            2 
  862000    1.1271431   -7.5014497    276.85833  0.026765113  0.027305858            4 
  863000    1.1107505   -7.5173778    275.77887  0.026629864  0.027296824            2 
  864000    1.1181624   -7.4545815    277.94531  0.026807996  0.027287851            4 
  865000    1.1100739   -7.4643712    276.65612  0.026652806  0.027278761            2 
  866000    1.1184079   -7.4857524    277.76401  0.026728638  0.027269426            4 
  867000    1.1183982   -7.5383059    276.42312  0.026568928  0.027259995            3 
  868000    1.1117706   -7.4405761    278.43638  0.026731603   0.02725036            1 
  869000    1.0845106   -7.4984801    278.16591  0.026674905  0.027240806            4 
  870000    1.1266766   -7.4627015    277.61425  0.026591404  0.027231152            4 
  871000    1.1074341    -7.486115    278.63916  0.026658932  0.027221628            1 
  872000    1.1173399   -7.4854465    278.79496   0.02664325   0.02721214            2 
  873000     1.111582   -7.4584175    278.84514   0.02661752  0.027202789            3 
  874000     1.126566   -7.4941787    278.84718   0.02658726   0.02719334            1 
  875000    1.1275483   -7.5024547    278.87814  0.026559823  0.027183823            3 
  876000    1.1313153   -7.4672081    279.50707  0.026589334  0.027174592            3 
  877000    1.1229188   -7.4923809    279.66249  0.026573783  0.027165136            2 
  878000    1.1083893   -7.4662089    280.11708  0.026586663  0.027155703            2 
  879000     1.156886   -7.4864381    279.74199  0.026520856   0.02714628            1 
  880000    1.0971978   -7.4774287    280.91886  0.026602165  0.027137054            3 
  881000     1.117122   -7.5220388    280.78777   0.02655957  0.027127734            3 
  882000    1.1255124   -7.5194434    280.68154   0.02651942  0.027118325            2 
  883000    1.1021558   -7.5172914    280.40092  0.026462903  0.027108808            2 
  884000    1.1054605   -7.5211503     280.7684  0.026467609  0.027099299            2 
  885000    1.0841974   -7.5130012     280.8697  0.026447241   0.02708985            1 
  886000    1.1139206   -7.4792888    281.35413  0.026462954  0.027080355            2 
  887000    1.0977898   -7.4609978    282.44145  0.026535273  0.027071063            2 
  888000    1.1228434   -7.4602479    282.39369  0.026500909  0.027061667            2 
  889000    1.0974216   -7.5426351    282.11346  0.026444831  0.027052385            2 
  890000     1.090572   -7.5224771    282.60899  0.026461515  0.027043051            3 
  891000    1.1189995   -7.4893536    283.21637  0.026488624  0.027033818            2 
  892000    1.1204989   -7.4674601    284.00812  0.026532896  0.027024693            2 
  893000    1.1132992   -7.4666273    284.12787  0.026514359  0.027015545            2 
  894000    1.1099317   -7.5004622    283.77539  0.026451844  0.027006304            2 
  895000    1.1124553   -7.5005648    283.29834  0.026377872  0.026996969            1 
  896000    1.1104923   -7.4796753    284.31122  0.026442636  0.026987642            2 
  897000    1.1224786   -7.5127905    283.41636  0.026330022  0.026978108            1 
  898000    1.1147435   -7.5264857    283.37056  0.026296451  0.026968568            3 
  899000    1.1107789   -7.4791507    284.70349  0.026390758   0.02695906            3 
  900000    1.1169203   -7.4798758    283.89056  0.026286163  0.026949234            3 
  901000    1.1052262   -7.4892191    285.08179  0.026367165  0.026939636            2 
  902000    1.0921144   -7.4649784    284.79801  0.026311716  0.026930088            2 
  903000     1.103095   -7.4892823    285.42123  0.026340091  0.026920573            2 
  904000    1.1107689   -7.5230473    285.18968  0.026289609  0.026910785            1 
  905000    1.0944903   -7.5100851    284.74936  0.026220015  0.026901099            2 
  906000    1.0717073   -7.4736976    284.92987  0.026207678  0.026891277            3 
  907000    1.1024379   -7.4722298    285.54544   0.02623534  0.026881471            4 
  908000    1.1176747   -7.5049479    285.81183  0.026230894   0.02687145            4 
  909000    1.1125547   -7.4463499    286.43988  0.026259615  0.026861722            2 
  910000    1.0961648   -7.5431793    285.53865  0.026148228  0.026851988            4 
  911000    1.1185095   -7.4994935    286.25861  0.026185383  0.026841975            1 
  912000    1.1149754   -7.5136438    286.84102  0.026209889  0.026832199            3 
  913000    1.0878982   -7.4822796    287.08534  0.026203482  0.026822577            1 
  914000    1.1163092   -7.5137246    287.12162   0.02617812  0.026812966            4 
  915000    1.1082082   -7.4903351    287.76939  0.026208505  0.026803366            3 
  916000    1.0840312   -7.5075959    286.70191  0.026082779  0.026793341            2 
  917000    1.1073107   -7.5052479    287.70696  0.026145671  0.026783433            2 
  918000    1.1298857   -7.5201042    288.25492  0.026166932  0.026773621            2 
  919000    1.1009651   -7.4695908    288.97155  0.026203441  0.026764042            1 
  920000    1.1233941   -7.4867026    288.78344   0.02615792  0.026754481            1 
  921000    1.0918865   -7.5090119    288.59795  0.026112735  0.026744752            4 
  922000    1.1421265   -7.5481743    287.62465  0.025996444  0.026734976            3 
  923000    1.0914909   -7.5165955    289.45764   0.02613377  0.026725415            7 
  924000    1.1153434   -7.4888981    289.58385   0.02611687  0.026715816            2 
  925000    1.0870295   -7.5078415    289.55549   0.02608608  0.026706106            2 
  926000    1.1113963    -7.499847    289.41718  0.026045462  0.026696313            3 
  927000      1.13309    -7.501487    291.98001  0.026247754  0.026686775            1 
  928000    1.1151005    -7.497202     290.4106  0.026078538  0.026677147            2 
  929000    1.1181007   -7.5238171    290.61662  0.026068947  0.026667483            2 
  930000    1.1039072   -7.5155842     291.3584  0.026107383   0.02665805            3 
  931000    1.0855909    -7.521591    291.47627  0.026089891  0.026648789            2 
  932000    1.1008092   -7.5164933    292.36502  0.026141365  0.026639605            2 
  933000    1.0833663   -7.5045882    292.22832  0.026101136  0.026630551            2 
  934000    1.1156352   -7.5455265    291.85781  0.026040133  0.026621481            2 
  935000    1.0988382   -7.5171663    292.39453  0.026060118  0.026612135            4 
  936000    1.1259858   -7.5043718    293.28229  0.026111315  0.026602908            1 
  937000    1.0855993   -7.5002612     294.3488    0.0261783  0.026593856            1 
  938000    1.0721391   -7.5487794    293.04432  0.026034499  0.026584668            2 
  939000    1.1113923    -7.480478    294.36328  0.026123826  0.026575485            4 
  940000    1.1035386   -7.5063162    293.73267   0.02604013  0.026566525            4 
  941000    1.1085678   -7.5059557    294.55901  0.026085636  0.026557628            4 
  942000     1.125923   -7.5302957    295.16418  0.026111481  0.026548881            1 
  943000    1.0824947   -7.5374987    294.29257  0.026006766  0.026540002            2 
  944000    1.1064021   -7.5230856    295.71108  0.026104439  0.026531087            3 
  945000    1.0953407   -7.5114057    295.89702  0.026093212  0.026522247            2 
  946000    1.0774643   -7.5293424    295.13758   0.02599873  0.026513319            2 
  947000     1.107424   -7.5223852    295.57853  0.026010078  0.026504643            4 
  948000    1.0933072    -7.541795    295.39825  0.025966794  0.026495412            1 
  949000    1.1024992   -7.5230187    295.72089  0.025967763  0.026486165            1 
  950000    1.1064501   -7.5275484      296.407  0.026000614  0.026477126            1 
  951000     1.119193   -7.5246198    295.71795  0.025912894  0.026467927            2 
  952000    1.0816313   -7.4831776    297.37459  0.026030689  0.026458901            2 
  953000    1.1232685   -7.5228887    297.10977  0.025980217  0.026450054            2 
  954000    1.0923059   -7.5180607    298.02582  0.026033003  0.026441151            2 
  955000    1.0922232    -7.522438    297.16838  0.025930923  0.026432371            2 
  956000    1.1383313   -7.5280852    296.75023  0.025867349  0.026423573            3 
  957000    1.1156322   -7.4722674    298.40084  0.025984051  0.026414671            1 
  958000     1.100555   -7.5076366    298.41417  0.025958087  0.026405914            1 
  959000     1.078024   -7.5162131    298.69158  0.025955126  0.026397297            1 
  960000    1.1119163   -7.4871219     299.5774  0.026004983  0.026388549            2 
  961000    1.1075885   -7.4736378    299.76632  0.025994305   0.02637983            3 
  962000     1.084868   -7.4814022    299.24536  0.025922155  0.026371196            3 
  963000    1.1158916   -7.4939332    299.45543  0.025913416  0.026362342            6 
  964000    1.0870802   -7.5055403    299.40962  0.025882575    0.0263534            1 
  965000    1.1105684   -7.5222705    300.40874  0.025942032  0.026344578            3 
  966000    1.0868497   -7.5371224    300.11169  0.025889552  0.026335716            2 
  967000    1.0958232   -7.5367409    299.57307  0.025816362   0.02632698            4 
  968000    1.0924327   -7.5349743    299.60942  0.025792822  0.026317957            3 
  969000    1.0864928   -7.5339645    301.14986  0.025898681  0.026309055            3 
  970000    1.1175906   -7.5275704     300.5515  0.025820576  0.026300113            1 
  971000     1.108598   -7.5379314    300.54618  0.025793527  0.026290972            2 
  972000    1.0808989   -7.5368983     300.1214  0.025730572  0.026281749            3 
  973000     1.084379   -7.5489525    301.06279  0.025784754  0.026272546            3 
  974000    1.0952389    -7.535075    301.01442  0.025754142  0.026263084            4 
  975000    1.0843805   -7.5258375    301.39506  0.025760262  0.026253842            2 
  976000    1.0986303   -7.5226038    302.61508  0.025838037  0.026244965            7 
  977000    1.0872939   -7.5020809    302.71121  0.025819789  0.026236005            2 
  978000     1.105129   -7.5004918    302.54741  0.025779432   0.02622703            4 
  979000    1.0837065   -7.5000289    302.02053  0.025708251  0.026218086            1 
  980000    1.1097431   -7.5073497    303.43957  0.025802685  0.026209151            3 
  981000    1.0931712   -7.5167317    303.49444  0.025781043  0.026200372            4 
  982000    1.0969508   -7.5598752    303.35119  0.025742633  0.026191683            3 
  983000    1.0964364   -7.5184643    304.02338   0.02577343  0.026183117            2 
  984000    1.0784234   -7.5655679    304.44829  0.025783222  0.026174514            1 
  985000    1.0846334   -7.5726096    304.21008  0.025736894  0.026165869            2 
  986000    1.0915943   -7.5597379    304.57887   0.02574196  0.026157339            2 
  987000    1.1185503   -7.4873596    305.84987   0.02582319   0.02614892            1 
  988000     1.120892   -7.5640044     304.2078  0.025658553   0.02614061            3 
  989000    1.1099842   -7.5740322    304.40071  0.025648863  0.026131774            5 
  990000    1.0838799   -7.5432851    305.86814  0.025746476  0.026123285            4 
  991000    1.0923289   -7.5607954    306.15393  0.025744528  0.026114843            4 
  992000    1.0872249   -7.5009571    306.78508  0.025771596  0.026106317            3 
  993000    1.1228498   -7.4690451    307.09205  0.025771404     0.026098            4 
  994000     1.081615   -7.5042131    307.31742  0.025764371  0.026089623            4 
  995000    1.1153941   -7.5105015    306.98995  0.025711051  0.026081136            5 
  996000    1.0813512   -7.5116042    306.80454  0.025669724  0.026072715            2 
  997000    1.0888398   -7.4915641    307.54451  0.025705827  0.026064497            6 
  998000    1.1181974   -7.5338583    307.43993  0.025671337  0.026056144            1 
  999000    1.1139338   -7.5358214    307.66288  0.025664237   0.02604787            1 
 1000000    1.0877611   -7.5243166    307.57954  0.025631629  0.026039386            3 
 1001000    1.0904432   -7.5283571    307.35312  0.025587173  0.026030707            1 
 1002000     1.059529   -7.5699185    307.16334  0.025545854  0.026021825            1 
 1003000    1.0569191   -7.5305475    308.01266  0.025590949  0.026013093            3 
 1004000    1.0851379   -7.5391253    307.56787  0.025528541  0.026004432            2 
 1005000    1.0931257   -7.5507511    308.03013   0.02554147  0.025995658            2 
 1006000    1.1058675   -7.5334641    308.05397  0.025518056  0.025986886            2 
 1007000    1.0948024   -7.5085758    308.53562  0.025532573  0.025977918            1 
 1008000    1.1048689   -7.5877651    307.64716  0.025433793  0.025968788            3 
 1009000    1.0834309   -7.5111839     308.7598  0.025500479  0.025959651            1 
 1010000    1.1090843   -7.5145813    308.54875  0.025457818  0.025950505            2 
 1011000    1.0825366   -7.5387872    308.84419  0.025456989  0.025941217            1 
 1012000    1.0807867   -7.5586061    308.16302  0.025375743  0.025931921            1 
 1013000    1.0918278   -7.5311639    308.62348  0.025388572  0.025922643            1 
 1014000    1.1050395   -7.5333818    308.91632    0.0253876  0.025913533            5 
 1015000    1.1155118   -7.5374073    309.91042  0.025444205  0.025904563            2 
 1016000    1.0835211   -7.5400767    309.81674  0.025411478  0.025895529            7 
 1017000    1.0829798   -7.5686479    310.65689  0.025455333  0.025886339            2 
 1018000    1.1262079    -7.564234    310.02503  0.025378605  0.025877194            1 
 1019000    1.1002143   -7.5157313    311.38511  0.025464925  0.025868261            5 
 1020000    1.0769866   -7.5564848    310.64562  0.025379544  0.025859401            3 
 1021000    1.0718741   -7.5267819    311.12953  0.025394183   0.02585032            2 
 1022000    1.0817404   -7.4980986    311.48966    0.0253987   0.02584121            1 
 1023000    1.0696552   -7.5433576    311.74929  0.025395022  0.025832207            3 
 1024000    1.0850399   -7.5561722    311.10711  0.025317961  0.025823047            2 
 1025000    1.1024195   -7.5653193    311.36233   0.02531401  0.025813877            3 
 1026000    1.0987313   -7.5091102    311.48365  0.025299192  0.025804744            3 
 1027000    1.0804278   -7.5871794    310.80526  0.025219511  0.025795401            2 
 1028000    1.0930842   -7.5569635    311.69124    0.0252668  0.025786222            6 
 1029000      1.09297   -7.5391822    312.50726   0.02530833  0.025777035            2 
 1030000    1.0967463   -7.5100057    312.66461  0.025296489  0.025767778            3 
 1031000    1.0714994   -7.5503679    312.69829  0.025274676  0.025758456            4 
 1032000    1.0811019   -7.5467178    313.26794  0.025296183   0.02574917            1 
 1033000    1.1105776   -7.5539624    313.24554  0.025269889  0.025739931            1 
 1034000    1.0878703   -7.5639751    313.35171  0.025254006  0.025730694            4 
 1035000    1.0534379   -7.5362527    314.58508  0.025328911  0.025721622            2 
 1036000     1.098745    -7.579901    314.20182  0.025273634  0.025712455            6 
 1037000    1.0903817   -7.5782426    313.73559  0.025211796  0.025703263            1 
 1038000    1.0898867   -7.5351643    314.32281  0.025234651  0.025694052            1 
 1039000    1.0940196   -7.5301914    315.64276   0.02531623   0.02568517            3 
 1040000    1.1077044   -7.5206769     316.4448  0.025356154  0.025676309            1 
 1041000    1.0611575   -7.5784316    314.39189  0.025167458  0.025667458            3 
 1042000    1.0888533    -7.569659    314.81334  0.025177011   0.02565834            2 
 1043000    1.0854907   -7.5710814    315.06527     0.025173  0.025649251            3 
 1044000    1.0967413   -7.5667801     315.5151  0.025184794  0.025640202            6 
 1045000    1.0887495   -7.5514509    315.45743  0.025156095  0.025631257            4 
 1046000    1.1012278   -7.5556593    316.73004  0.025233432  0.025622368            3 
 1047000    1.0817451   -7.5528492    315.90604  0.025143747  0.025613533            1 
 1048000    1.0669634    -7.572502    317.06781  0.025212135   0.02560484            2 
 1049000    1.0790148   -7.5644599    316.87125  0.025172486  0.025595994            2 
 1050000    1.0799099   -7.5732525    317.01615  0.025160012   0.02558699            2 
 1051000    1.0810732   -7.5402628    317.43199  0.025169045  0.025578225            1 
 1052000    1.0680107    -7.572885    317.59754  0.025158234  0.025569368            3 
 1053000    1.0803519   -7.5771816    318.09386   0.02517362  0.025560523            3 
 1054000      1.08488   -7.5696727    316.95199  0.025059455  0.025551608            4 
 1055000    1.0842763   -7.5615334    319.10734  0.025205951  0.025542798            3 
 1056000    1.1086926   -7.5485963    318.70171  0.025150071  0.025534076            2 
 1057000    1.0875031   -7.5777904    319.11142  0.025158579  0.025525511            3 
 1058000    1.0919532   -7.5459346     319.9538   0.02520115  0.025516953            3 
 1059000    1.0745521   -7.5066228    319.97365  0.025178915  0.025508437            1 
 1060000    1.0789269   -7.5424609    320.62468  0.025206343  0.025500032            2 
 1061000    1.0906464   -7.5643533    320.02272  0.025135306  0.025491494            3 
 1062000    1.0793528   -7.5752505    320.98249   0.02518695  0.025483134            3 
 1063000    1.0787775   -7.5777811    319.96142  0.025083209  0.025474605            2 
 1064000    1.1055007    -7.539951    321.32553  0.025166473  0.025465973            2 
 1065000    1.0614109   -7.5395484    320.59603  0.025085761  0.025457441            3 
 1066000    1.0844473    -7.541491    321.23476  0.025112161   0.02544903            2 
 1067000     1.091862   -7.5971028    321.43075  0.025103932  0.025440688            2 
 1068000    1.0736652   -7.5620256    322.26232  0.025145312  0.025432402            2 
 1069000     1.065839   -7.5391606    321.11065  0.025032012  0.025424095            1 
 1070000     1.062085   -7.5635693    322.06101  0.025082633  0.025415801            1 
 1071000    1.1020151   -7.5352475    322.38369  0.025084321  0.025407514            2 
 1072000     1.065425   -7.5982272    322.52496  0.025071903  0.025399217            2 
 1073000    1.1053227   -7.6170112    322.41005  0.025039612  0.025390911            4 
 1074000    1.0851521     -7.56591     323.6946  0.025115968  0.025382663            5 
 1075000    1.0786632   -7.5345031    323.63554  0.025088026  0.025374682            8 
 1076000     1.068764   -7.5738855    324.39508  0.025123534  0.025366732            2 
 1077000    1.0707619   -7.5711037    324.60133  0.025116166  0.025358796            3 
 1078000    1.0595127   -7.5538039    324.66661  0.025097913   0.02535094            3 
 1079000    1.0697821   -7.5250914    325.13626  0.025110926    0.0253431            2 
 1080000    1.0861938   -7.5646164    325.66631  0.025128574  0.025335118            1 
 1081000    1.0726442   -7.5936772    324.52799  0.025017575  0.025326903            4 
 1082000    1.0904659   -7.5620874    326.32214  0.025132635  0.025318743            6 
 1083000    1.0774023   -7.5810501    325.23925  0.025026105  0.025310595            1 
 1084000    1.0787092    -7.570973    325.90408  0.025054127  0.025302305            2 
 1085000    1.0678965   -7.5683736    326.92416  0.025109383  0.025294208            6 
 1086000    1.0499518   -7.5638296    325.75927  0.024996875  0.025286006            2 
 1087000    1.0700223   -7.5670369    325.85586  0.024981283  0.025277914            2 
 1088000    1.0796984   -7.5887794    327.26624  0.025066348  0.025269823            3 
 1089000    1.0998855   -7.5918757    326.52315  0.024986467  0.025261766            3 
 1090000    1.0728786   -7.6039788    326.74452  0.024980468  0.025253651            2 
 1091000    1.0650011   -7.5685606    327.35936  0.025004534  0.025245735            2 
 1092000    1.0762338    -7.583959    327.08063  0.024960366  0.025237679            2 
 1093000    1.0759126   -7.5681083    328.89871  0.025076145  0.025229718            1 
 1094000    1.0787824   -7.5423902    329.34104  0.025086916  0.025221917            1 
 1095000    1.0773209   -7.5998089     327.5801  0.024929992  0.025214009            3 
 1096000    1.0757652   -7.5900621    329.28579  0.025036937  0.025206172            1 
 1097000    1.0487433   -7.5721215    329.40431  0.025023117  0.025198199            3 
 1098000    1.0700059   -7.5857848    328.50754  0.024932267  0.025190261            1 
 1099000    1.0787284   -7.5965295    330.05511  0.025026927  0.025182395            4 
 1100000    1.0654933   -7.5699183    329.21739  0.024940712  0.025174476            1 
 1101000    1.0614537   -7.5783867    329.69311  0.024954065   0.02516668            1 
 1102000    1.0843323   -7.5905716    330.45966  0.024989388  0.025158788            2 
 1103000    1.1058721   -7.5623964     329.9847  0.024930847  0.025150963            3 
 1104000    1.0857971   -7.5829172      331.416  0.025016304  0.025143273            3 
 1105000    1.0618564   -7.5435275    331.77725  0.025020909   0.02513577            2 
 1106000    1.0690987   -7.5758874    331.00411  0.024940033  0.025128198            2 
 1107000    1.0575802   -7.6223629    330.82404  0.024903948  0.025120477            2 
 1108000    1.0906626   -7.5892563    331.83852  0.024957771  0.025112804            2 
 1109000    1.0793239   -7.5801024    332.85696  0.025011794  0.025105244            2 
 1110000    1.0728675   -7.5721773    332.54421  0.024965781  0.025097808            1 
 1111000    1.0942915   -7.5588705     333.0936  0.024984519  0.025090466            1 
 1112000    1.0695553   -7.5912797    333.17702  0.024968302  0.025083028            2 
 1113000    1.0661422   -7.6053072    332.82783  0.024919724  0.025075575            2 
 1114000    1.0884212   -7.6207497    333.18998  0.024924445  0.025068062            6 
 1115000    1.0554234   -7.6038207    332.31143   0.02483643  0.025060223            2 
 1116000    1.0503018   -7.5924582    333.39929  0.024895407    0.0250526            2 
 1117000    1.0855206   -7.5353209    333.77262  0.024900971  0.025045007            3 
 1118000    1.0597085   -7.5899922    333.79142    0.0248801   0.02503745            1 
 1119000    1.0612863   -7.6472485    331.87123  0.024714866  0.025029799            4 
 1120000    1.0787722   -7.5617301    334.30722  0.024874049  0.025022139            3 
 1121000    1.0694648   -7.6098261    334.07706   0.02483475  0.025014525            2 
 1122000    1.0695886   -7.5576298    335.62532  0.024927608  0.025006958            2 
 1123000    1.0570783   -7.5851831    334.66584  0.024834212  0.024999355            2 
 1124000    1.0713687   -7.5791153    334.72231  0.024816304  0.024991693            6 
 1125000    1.0741503   -7.6130971    333.98764  0.024739825  0.024983949            1 
 1126000    1.0618574    -7.581001    335.84204  0.024855095  0.024976427            1 
 1127000    1.0745373   -7.5869364    336.20602  0.024859954  0.024968989            3 
 1128000     1.047874   -7.5968722    336.31979   0.02484632  0.024961711            3 
 1129000    1.0906923   -7.6172797    337.05913  0.024878884  0.024954345            2 
 1130000    1.0786263   -7.5744731    337.08877  0.024859054  0.024947012            2 
 1131000    1.0701725   -7.6073648    336.86285  0.024820428  0.024939779            2 
 1132000    1.0645596   -7.6300293    336.79575  0.024793562  0.024932351            3 
 1133000     1.060193   -7.5841933    339.13215  0.024943524  0.024925093            1 
 1134000    1.0599521   -7.5773018    338.70253  0.024889957  0.024918001            4 
 1135000    1.0597652   -7.5998029    337.14754  0.024753857  0.024910896            8 
 1136000    1.0532778   -7.5903863    338.97528  0.024866144  0.024903675            2 
 1137000    1.0608711   -7.5766933     338.0432   0.02477596  0.024896317            4 
 1138000    1.0837444   -7.6201799    337.53261  0.024716799  0.024889044            4 
 1139000    1.0627593   -7.5919307    338.10029  0.024736632  0.024881745            2 
 1140000    1.0809761   -7.6424958    337.74715  0.024689119    0.0248743            7 
 1141000    1.0642159   -7.5942961    337.97184  0.024683892   0.02486688            2 
 1142000    1.0541622    -7.634046    338.26889  0.024683953  0.024859512            2 
 1143000    1.1026813   -7.5895052    339.17507  0.024728424  0.024852094            1 
 1144000    1.0949953   -7.5938275    339.68814  0.024744183  0.024844829            2 
 1145000    1.0609656   -7.5538135    340.03427  0.024747763    0.0248375            3 
 1146000    1.0516264    -7.581977    340.96117  0.024793569  0.024830294            4 
 1147000    1.0548226   -7.5640115    339.32419  0.024653022  0.024823107            2 
 1148000     1.074044   -7.5737096    340.72097  0.024732939  0.024815987            1 
 1149000    1.0669049   -7.6095436    340.33052  0.024683096  0.024808929            5 
 1150000    1.0464281   -7.5634657    341.38684  0.024738177  0.024801799            3 
 1151000    1.0650489   -7.5562701    341.50248  0.024725057   0.02479479            2 
 1152000    1.0569106   -7.5887624    341.86193  0.024729596  0.024787803            7 
 1153000    1.0550582   -7.5759594    341.74075  0.024699389   0.02478074            3 
 1154000    1.0510734   -7.6071283    342.23825  0.024713912  0.024773558            1 
 1155000    1.0567644   -7.6204079    342.77504  0.024731244  0.024766358            5 
 1156000    1.0686429    -7.570263    342.74391  0.024707606  0.024759363            2 
 1157000    1.0509145   -7.6127714    343.31644  0.024727487  0.024752318            3 
 1158000    1.0786107    -7.647654    342.05379   0.02461527  0.024745306            2 
 1159000    1.0519169   -7.6470195    343.10279  0.024669455  0.024738136            3 
 1160000    1.0697249   -7.6408056    343.35527  0.024666327  0.024730975            2 
 1161000    1.0855963   -7.6383733    342.49803  0.024583551  0.024723771            6 
 1162000     1.060387   -7.6105839    343.39184  0.024626494  0.024716499            2 
 1163000    1.0951614   -7.5915376    344.77627  0.024704519  0.024709399            1 
 1164000    1.0878842   -7.6195732    343.86653  0.024618165  0.024702387            4 
 1165000    1.0962054   -7.6113337    345.18956  0.024691671  0.024695428            2 
 1166000    1.0757882   -7.6077835    344.75527  0.024639456  0.024688513            3 
 1167000    1.0385631   -7.6323949     343.9566  0.024561311  0.024681472            1 
 1168000    1.0711757   -7.6240569    344.82003  0.024601886  0.024674211            2 
 1169000    1.0708278   -7.5705929    345.63321  0.024638809  0.024667132            2 
 1170000    1.0699791   -7.6114934    345.09888  0.024579692  0.024660005            3 
 1171000    1.0560597    -7.601612    344.99486  0.024551299  0.024653016            2 
 1172000    1.0546587   -7.5941608     346.7029  0.024651799  0.024645978            4 
 1173000     1.063989   -7.6303371    345.79898  0.024566566  0.024638816            5 
 1174000    1.0490205     -7.63197    345.65859  0.024535675  0.024631805            4 
 1175000     1.056052   -7.6083364    347.85539  0.024670595   0.02462477            2 
 1176000    1.0327067   -7.6147113    346.77603  0.024573131  0.024617825            6 
 1177000     1.067803   -7.6339791    345.30371  0.024448011  0.024610684            4 
 1178000    1.0505801    -7.583955    347.46021  0.024579811  0.024603632            5 
 1179000    1.0811128   -7.5823464    347.40987  0.024555405  0.024596595            2 
 1180000    1.0544966   -7.6688771    347.10121  0.024512797  0.024589518            2 
 1181000    1.0876951     -7.60883    346.49504  0.024449269  0.024582267            3 
 1182000    1.0431146   -7.6406767    347.23942  0.024481065  0.024575163            3 
 1183000    1.0292988   -7.6574778    346.35647  0.024398173  0.024567974            1 
 1184000     1.071924   -7.6636738    347.96411  0.024490717  0.024560797            5 
 1185000    1.0502383   -7.5793704    348.57599   0.02451308  0.024553938            7 
 1186000    1.0441837   -7.6150882    348.60877  0.024494714  0.024547053            3 
 1187000    1.0690659    -7.638576    348.44607  0.024462656  0.024539958            5 
 1188000    1.0592322   -7.6265082    348.96104  0.024478187  0.024532924            3 
 1189000    1.0762807   -7.5859835    349.75105  0.024512969  0.024525945            1 
 1190000    1.0360679   -7.5999933     349.9071  0.024503298  0.024519087            4 
 1191000    1.0525435   -7.5973323    350.29294  0.024509721  0.024512305            2 
 1192000    1.0448799   -7.6122215    351.00907  0.024539225  0.024505489            2 
 1193000    1.0327508   -7.6057473    351.64346  0.024562969  0.024498883            2 
 1194000    1.0828148   -7.6500036    350.44231  0.024458564  0.024492207            2 
 1195000    1.0440671   -7.6434298    350.86018  0.024467237  0.024485524            2 
 1196000    1.0665852   -7.6216612    351.68915  0.024504539  0.024478736            6 
 1197000    1.0684548   -7.6281457    352.64859  0.024550862  0.024471967            2 
 1198000    1.0392213   -7.6365982    352.51803  0.024521288  0.024465331            3 
 1199000    1.0541204   -7.6012414    352.97376  0.024532511  0.024458619            2 
 1200000    1.0651482   -7.6049341    353.01874  0.024515191  0.024451996            2 
 1201000    1.0810285   -7.6171982    352.95821  0.024490578  0.024445374            2 
 1202000    1.0484782   -7.6502277    352.36999  0.024429422  0.024438755            2 
 1203000    1.0716761   -7.5849598    354.39213  0.024549192   0.02443215            2 
 1204000    1.0875792   -7.6201409    353.92718  0.024496621  0.024425599            4 
 1205000    1.0530542   -7.6522192    353.26118  0.024430234     0.024419            2 
 1206000     1.052728   -7.6116658    353.30459  0.024412976  0.024412261            4 
 1207000    1.0612716   -7.6273697    354.72433  0.024490771  0.024405661            5 
 1208000    1.0234901   -7.6397764    352.80473  0.024338075  0.024399008            3 
 1209000    1.0805942   -7.5992512    354.35909  0.024425082  0.024392415            2 
 1210000    1.0636327   -7.6471153    353.70553  0.024359885  0.024385727            2 
 1211000    1.0544228   -7.5737216    355.99795  0.024497519  0.024379025            3 
 1212000     1.063857   -7.6146367    355.53134  0.024445224  0.024372407            1 
 1213000    1.0440317   -7.6546082     354.5905  0.024360436  0.024365718            2 
 1214000    1.0260377   -7.6671455    354.67235  0.024345988  0.024358956            3 
 1215000    1.0464131   -7.6145953    354.51859  0.024315404  0.024352241            1 
 1216000    1.0601932   -7.6485852    355.15443  0.024338982  0.024345577            4 
 1217000    1.0250508   -7.6248371    355.44175  0.024338657  0.024338771            2 
 1218000    1.0690567   -7.6032595    356.42975  0.024386272  0.024332006            3 
 1219000    1.0547462   -7.6348566    355.57444  0.024307796  0.024325204            1 
 1220000    1.0561074   -7.6145363    356.31868  0.024338708   0.02431828            1 
 1221000    1.0571691   -7.6818266    354.97952  0.024227376   0.02431116            2 
 1222000    1.0673541   -7.6374987    355.77236  0.024261618   0.02430409            1 
 1223000    1.0546748   -7.6298871    356.09277  0.024263612  0.024297027            3 
 1224000    1.0575599    -7.705178    355.07435  0.024174452  0.024289906            1 
 1225000    1.0509218   -7.6465034    356.99461  0.024285348  0.024282864            5 
 1226000    1.0615592   -7.6552536     356.4367  0.024227617  0.024275846            2 
 1227000     1.056329   -7.6096349    357.19719  0.024259521  0.024268848            2 
 1228000    1.0581672   -7.6284558    357.06556  0.024230833  0.024261847            2 
 1229000    1.0516927   -7.6173735    358.22221  0.024289545  0.024254926            3 
 1230000    1.0331956   -7.6231603    356.76963  0.024171384  0.024248011            3 
 1231000     1.016923   -7.6215568    357.71231  0.024215564  0.024240983            4 
 1232000    1.0343438   -7.6710238    356.76489  0.024131824  0.024233959            2 
 1233000    1.0424585   -7.5704655    359.21718  0.024277992  0.024226919            2 
 1234000    1.0573676   -7.6016413    357.92073  0.024170768  0.024219993            3 
 1235000    1.0589558   -7.6501082    357.26275  0.024106798  0.024212922            4 
 1236000    1.0460229   -7.6385527    358.12851  0.024145665  0.024205643            2 
 1237000    1.0662486   -7.6514613    357.75297  0.024100847  0.024198463            4 
 1238000    1.0630116   -7.5882275    358.68097  0.024143846  0.024191395            3 
 1239000     1.051755   -7.6312293     358.7284  0.024127549  0.024184344            1 
 1240000    1.0473526   -7.6021233    359.50575  0.024160333  0.024177442            5 
 1241000    1.0391279   -7.6544642    358.64776   0.02408325  0.024170447            2 
 1242000    1.0672154   -7.6310626    359.34506  0.024110646  0.024163214            2 
 1243000    1.0670899   -7.6110524    359.95853  0.024132376  0.024156304            2 
 1244000    1.0665019    -7.669565    360.12175  0.024123911  0.024149467            4 
 1245000    1.0557142   -7.6300845     360.7275   0.02414508  0.024142743           11 
 1246000     1.053779   -7.6194448    361.44776  0.024173874  0.024136274            4 
 1247000    1.0406691   -7.6343284    360.16818  0.024068977  0.024129673            2 
 1248000    1.0632556   -7.6034575    360.90348   0.02409879  0.024123016            2 
 1249000    1.0714451   -7.6374948    361.74801  0.024135843  0.024116421            1 
 1250000    1.0626466     -7.69476    361.33848  0.024089232  0.024109712            6 
 1251000     1.038194   -7.6376624    361.97657  0.024112481  0.024102873            1 
 1252000    1.0574171   -7.6209306     361.8057  0.024081849  0.024096049            2 
 1253000    1.0381557   -7.6327612    362.20417  0.024089131  0.024089263            2 
 1254000    1.0633078    -7.629643    362.17373  0.024067898  0.024082437            1 
 1255000    1.0449471   -7.6068726     363.1587  0.024114124  0.024075731            2 
 1256000    1.0526857   -7.6355743    363.41066  0.024111641  0.024069109            5 
 1257000    1.0406661   -7.6442119    364.04525   0.02413453  0.024062405            3 
 1258000    1.0456765   -7.6470459     363.7271   0.02409427  0.024055488            5 
 1259000    1.0757155   -7.6135222    364.38667   0.02411879  0.024048912            2 
 1260000    1.0261393   -7.6269289    364.53402  0.024109393  0.024042152            5 
 1261000    1.0229968   -7.6328204     363.8109  0.024042486  0.024035422            2 
 1262000     1.068966   -7.6716344    362.44429  0.023933194  0.024028501            3 
 1263000    1.0303855   -7.6196751    363.76523  0.024001401  0.024021524            5 
 1264000    1.0331605   -7.6900535    362.51659  0.023900091  0.024014523            1 
 1265000    1.0424837   -7.6407536    364.44858   0.02400847   0.02400751            2 
 1266000    1.0435926   -7.6186039    364.40366  0.023986549  0.024000613            3 
 1267000    1.0510913   -7.6518811    364.82911    0.0239956   0.02399377            2 
 1268000    1.0323366   -7.6577778    364.80371  0.023975007  0.023986891            8 
 1269000     1.033262   -7.6601147    365.54934  0.024005078  0.023980047            5 
 1270000    1.0399349   -7.6757123    364.26876   0.02390215  0.023973143            2 
 1271000    1.0439411   -7.6951454     365.1587  0.023941693  0.023966263            5 
 1272000    1.0360883   -7.6320003    365.57838  0.023950366  0.023959453            2 
 1273000    1.0401328   -7.6461352    367.06125  0.024028623   0.02395282            3 
 1274000    1.0542315   -7.6564758    366.14031  0.023949523  0.023946201            2 
 1275000    1.0365727   -7.6363013    367.93972  0.024048348  0.023939695            2 
 1276000    1.0331175   -7.6483939    367.64328  0.024010141  0.023933199            4 
 1277000    1.0352152   -7.6782482    367.09209   0.02395537  0.023926562            5 
 1278000    1.0479762   -7.6697171    366.77189  0.023915747  0.023919974            2 
 1279000    1.0446941   -7.5938617    368.07365  0.023981864  0.023913394            2 
 1280000    1.0405405   -7.6500483    366.61078  0.023867889  0.023906955            5 
 1281000    1.0354282   -7.6492109    368.07667  0.023944618   0.02390017            3 
 1282000    1.0583597    -7.681465    367.31034  0.023876127  0.023893403            2 
 1283000    1.0284731   -7.6767528    366.71226  0.023818671  0.023886563            2 
 1284000    1.0330378   -7.6717775    367.46083  0.023848704  0.023879735            2 
 1285000    1.0428695   -7.6441896    368.34403  0.023887421  0.023872825            5 
 1286000    1.0410194   -7.6696028    367.38099   0.02380644  0.023865823            2 
 1287000    1.0579069   -7.6156439    368.53052  0.023862375  0.023858783            2 
 1288000     1.047652   -7.6706661    367.85831  0.023800356  0.023851962            3 
 1289000    1.0411654   -7.6581841    368.25651  0.023807636  0.023845012            4 
 1290000    1.0578019   -7.6434951    368.18215  0.023784377  0.023837931            1 
 1291000    1.0583005   -7.6507923    367.89517  0.023747429  0.023830883            3 
 1292000    1.0353743   -7.6458627    368.63723  0.023776911  0.023823859            3 
 1293000     1.018619   -7.6159642    369.12684  0.023790077  0.023816857            3 
 1294000    1.0698411   -7.6567856    369.73411    0.0238108  0.023809858            1 
 1295000    1.0482416    -7.642869     370.1636  0.023820051  0.023802831            3 
 1296000    1.0127359   -7.6492138    369.72487  0.023773462  0.023795743            4 
 1297000    1.0444141   -7.6837857    369.78205  0.023758806  0.023788789            2 
 1298000    1.0468873   -7.6432996    370.53654  0.023788941  0.023781952            3 
 1299000    1.0530085   -7.6535755     370.5311  0.023770278  0.023774988            3 
 1300000    1.0635308   -7.6260519    371.55466  0.023817607  0.023768203            4 
 1301000    1.0300408   -7.6527266    370.10988  0.023706756    0.0237615            2 
 1302000    1.0303461   -7.6474414    370.80987   0.02373335  0.023754644            2 
 1303000     1.024289   -7.6174513    371.74502  0.023774944  0.023747876            3 
 1304000    1.0442109   -7.6344823    371.95658  0.023770232  0.023741142            3 
 1305000    1.0376617    -7.638012    372.01219  0.023755568  0.023734386            3 
 1306000    1.0389729   -7.6504977    371.87515  0.023728634  0.023727594            2 
 1307000    1.0525161   -7.6848192    371.70741  0.023699784  0.023720744            4 
 1308000    1.0399206   -7.7081684    371.90366  0.023694168  0.023713976            3 
 1309000    1.0279394    -7.652252    373.48878  0.023776978   0.02370728            2 
 1310000    1.0215637   -7.6665217    372.67523  0.023707076  0.023700483            4 
 1311000    1.0324469   -7.6764897    372.90892  0.023703847  0.023693631            2 
 1312000    1.0501971   -7.6319953    373.59987  0.023729666  0.023686835            3 
 1313000    1.0296121   -7.6930788    372.49545  0.023641499  0.023680001            2 
 1314000    1.0433284   -7.6665387    372.37881  0.023616109  0.023673065            2 
 1315000    1.0530865   -7.6655628    373.85186  0.023691499  0.023666144            4 
 1316000    1.0341873   -7.6614996    373.77957  0.023668919  0.023659259            2 
 1317000    1.0439657   -7.6839146    372.27853  0.023555969  0.023652359            2 
 1318000    1.0535028   -7.6857907    372.42875  0.023547594  0.023645447            5 
 1319000    1.0324464   -7.6832241     372.9237  0.023561012  0.023638646            2 
 1320000     1.037258   -7.6433438    374.88937  0.023667258   0.02363188            2 
 1321000    1.0409727   -7.6558831    375.04292  0.023659029  0.023625107            1 
 1322000    1.0586018   -7.6338429    375.55944  0.023673691   0.02361848            4 
 1323000    1.0337531   -7.6561611    375.37552  0.023644213   0.02361202            2 
 1324000    1.0039731   -7.6611955    377.38691  0.023752953  0.023605582            2 
 1325000    1.0518306   -7.6435262     376.3263  0.023668321  0.023599103            1 
 1326000    1.0136912   -7.6706544    376.31479  0.023649748  0.023592603            2 
 1327000    1.0309489   -7.6790135    375.25423  0.023565324  0.023585838            3 
 1328000    1.0147449    -7.689018    376.57958  0.023630746  0.023579129            2 
 1329000    1.0358246   -7.6647923    377.17715  0.023650436  0.023572505            2 
 1330000    1.0333926   -7.6793563    377.38902  0.023645929  0.023566082            2 
 1331000     1.046703   -7.6824591    376.82405  0.023592791  0.023559564            2 
 1332000    1.0129725   -7.6533773    378.15711  0.023658478  0.023552993            2 
 1333000    1.0223712   -7.6628688    377.59571  0.023605633  0.023546484            3 
 1334000    1.0400506   -7.6668092    377.46719  0.023579909   0.02353989            3 
 1335000    1.0362218   -7.6614864    376.96251  0.023530743  0.023533224            3 
 1336000    1.0130364   -7.6528243    378.30987  0.023597172  0.023526691            1 
 1337000    1.0371505   -7.6703269    378.75586  0.023607321  0.023520276            2 
 1338000    1.0466606   -7.6570665    379.77105  0.023652905  0.023513797            2 
 1339000    1.0321264   -7.6672809    378.17921  0.023536172  0.023507386            2 
 1340000     1.038761   -7.6753141    380.05383  0.023635188  0.023501016            2 
 1341000    1.0522748   -7.7059332    378.41909  0.023515976  0.023494532            2 
 1342000    1.0354431   -7.6800151    380.40178  0.023621571  0.023488017            2 
 1343000    1.0411378   -7.6849682     379.0031  0.023517194  0.023481691            3 
 1344000    1.0454048   -7.6555931    379.35245  0.023521358  0.023475153            2 
 1345000    1.0695547   -7.6871677    379.89685  0.023537599  0.023468719            2 
 1346000    1.0333397    -7.686625    381.25561  0.023604235  0.023462355            4 
 1347000    1.0074306   -7.7468386    379.22636   0.02346117  0.023455885            3 
 1348000    1.0478714   -7.6856495    381.18053  0.023564573  0.023449452            2 
 1349000    1.0214601   -7.6956448    380.92231  0.023531153  0.023443053            3 
 1350000    1.0527169   -7.6827554    381.46462  0.023547199  0.023436643            1 
 1351000    1.0284698   -7.6982584    380.60044  0.023476464  0.023430289            3 
 1352000    1.0100064   -7.6998954    381.07576  0.023488397  0.023423775            7 
 1353000    1.0076485    -7.682822    381.64396  0.023506034  0.023417275            3 
 1354000     1.025315   -7.6834893    381.30875  0.023468042  0.023410859            2 
 1355000    1.0516711   -7.7385881    380.79419  0.023419077  0.023404327            3 
 1356000    1.0520011   -7.6960448    381.27759  0.023431513  0.023397651            6 
 1357000    1.0253202   -7.6769562    382.05291  0.023461859  0.023391192            2 
 1358000    1.0648154   -7.6554739    382.02726  0.023443008  0.023384756            2 
 1359000    1.0289672   -7.7054797    382.22707   0.02343801  0.023378307            5 
 1360000    1.0146718   -7.7023073    382.09495  0.023412681   0.02337184            4 
 1361000    1.0495297     -7.70515    382.53821  0.023422619  0.023365224            5 
 1362000    1.0415713   -7.6797832    383.62705  0.023472041  0.023358617            1 
 1363000    1.0168084   -7.7031251    383.80159  0.023465492  0.023352137            2 
 1364000    1.0469449   -7.6971411     382.9859  0.023398455  0.023345619            4 
 1365000    1.0270534   -7.6360315    385.04469  0.023507002   0.02333926            2 
 1366000    1.0254349    -7.690812    383.72196    0.0234091  0.023332882            1 
 1367000    1.0389075   -7.6570744    384.84687   0.02346055  0.023326339            2 
 1368000    1.0159429   -7.6559148     384.9547  0.023449969  0.023319908            4 
 1369000     1.025175   -7.6803245    384.98059  0.023434416  0.023313533            3 
 1370000    1.0320937     -7.68179    384.43781  0.023384295  0.023307032            1 
 1371000    1.0428642   -7.6914578     383.8187  0.023329607   0.02330059            2 
 1372000    1.0341894   -7.6516848    385.14331  0.023393058  0.023294225            3 
 1373000    1.0113155   -7.6474037    384.56841  0.023341127  0.023287743            2 
 1374000    1.0485285     -7.65263    385.56531  0.023384601  0.023281318            3 
 1375000    1.0503322   -7.6717427    387.27442  0.023471177  0.023274909            2 
 1376000    1.0432818   -7.7290736    384.77456  0.023302723   0.02326846            2 
 1377000    1.0202746   -7.7203669    384.15624  0.023248381  0.023261944            2 
 1378000     1.032927   -7.6407757    386.64625   0.02338209  0.023255538            2 
 1379000    1.0341455   -7.7159662    385.35417  0.023287054  0.023249205            1 
 1380000       1.0558   -7.7110195    386.29438  0.023326955  0.023242776            3 
 1381000    1.0039365   -7.7138298    386.60766  0.023328968  0.023236306            5 
 1382000     1.040194   -7.6568062    386.40946  0.023300136    0.0232299            2 
 1383000    1.0193085    -7.687081    386.79839  0.023306724  0.023223648            2 
 1384000      1.05373   -7.6802936    387.15104  0.023311118  0.023217387            4 
 1385000    1.0069746   -7.6991548    387.68146  0.023326201  0.023211092            1 
 1386000    1.0339817   -7.7607479     386.1159  0.023215241    0.0232046            5 
 1387000    1.0413408   -7.6793802     388.3227  0.023331092  0.023198236            2 
 1388000    1.0287608    -7.684669    388.12273  0.023302277  0.023192029            5 
 1389000    1.0259883   -7.6761465    388.83492  0.023328229  0.023185844            2 
 1390000     1.029129   -7.7067651    388.42839  0.023287074  0.023179692            3 
 1391000    1.0460898   -7.6892216    389.20275  0.023316723  0.023173492            4 
 1392000    1.0586195   -7.7500217    389.58723  0.023322991  0.023167425            1 
 1393000    1.0448348   -7.7151823     389.2939  0.023288699  0.023161163            3 
 1394000    1.0262697   -7.7050422    389.57603  0.023288859  0.023154872            5 
 1395000    1.0217637   -7.7248185    390.28431  0.023314475   0.02314864            2 
 1396000    1.0007275   -7.6887219     390.8142  0.023329405  0.023142593            2 
 1397000     1.032686   -7.7119698     389.9679  0.023262222  0.023136487            3 
 1398000    1.0425145   -7.6541251    390.85541  0.023298487  0.023130403            3 
 1399000    1.0416332   -7.7032809    391.34702  0.023311116   0.02312435            3 
 1400000    1.0345244   -7.7519604    390.00951  0.023214852  0.023118257            2 
 1401000    1.0269156   -7.6853727    391.45945  0.023284526  0.023112071            4 
 1402000    1.0220289   -7.6881097    391.60232   0.02327641  0.023105946            4 
 1403000    1.0250728   -7.7083002    392.32732  0.023302882  0.023099967            2 
 1404000    1.0226156   -7.7090016    392.03996  0.023269228  0.023093931            3 
 1405000    1.0201437   -7.6944137     391.9681  0.023248405  0.023088044            3 
 1406000    1.0263032   -7.6720439    392.10827  0.023240177  0.023082091            4 
 1407000    1.0280814    -7.735291    391.53724  0.023189839  0.023076105            2 
 1408000    1.0171208   -7.6900187    393.34918   0.02328061  0.023070101            3 
 1409000    1.0561107   -7.7263662    392.90285  0.023237689  0.023064034            2 
 1410000    1.0340071   -7.6788221    394.26821  0.023301903  0.023057962            6 
 1411000    1.0407681   -7.7567371    392.16797  0.023161349  0.023051851            3 
 1412000    1.0394323    -7.711352    393.16266  0.023203651  0.023045686            4 
 1413000    1.0279694   -7.7250662    393.13898  0.023185833  0.023039509            2 
 1414000    1.0167629   -7.6745498    393.86123  0.023212001  0.023033455            2 
 1415000   0.99178703   -7.6758876     395.1358  0.023270659  0.023027456            2 
 1416000    1.0126251   -7.7148648    394.20953  0.023199713   0.02302141            5 
 1417000    1.0437727   -7.6786386    393.93917  0.023167441  0.023015246            2 
 1418000    1.0413619    -7.693473    394.55247  0.023187146  0.023009136            2 
 1419000    1.0280211   -7.7701553    392.98385  0.023078685  0.023003057            5 
 1420000    1.0455621   -7.7320779    395.60425  0.023216212  0.022996899            6 
 1421000    1.0257489    -7.706338    395.63447  0.023201646  0.022990863            3 
 1422000    1.0174568   -7.7111279    393.85214   0.02308088  0.022984707            6 
 1423000    1.0403211   -7.6908421     394.4391  0.023099034  0.022978598            2 
 1424000    1.0254812   -7.7265536    395.37053   0.02313732   0.02297241            2 
 1425000    1.0195363   -7.7314957    394.66301  0.023079708  0.022966283            4 
 1426000     1.035046   -7.6923404    396.20604  0.023153696  0.022960118            1 
 1427000    1.0288573   -7.7192558     396.3008  0.023143004  0.022954027            6 
 1428000    1.0416127   -7.7010293    396.71421  0.023150923  0.022947986            4 
 1429000    1.0085019   -7.7639519    394.89442  0.023028599  0.022941911            3 
 1430000     1.045771   -7.7167298    396.85537   0.02312677   0.02293582            5 
 1431000    1.0326634   -7.7007099    397.02287  0.023120363  0.022929855            2 
 1432000    1.0315566   -7.6666142    399.10415  0.023225335  0.022923885            3 
 1433000    1.0163709   -7.7562408    397.27416  0.023102708  0.022917945            3 
 1434000     1.007899   -7.6977607    396.70153   0.02305332    0.0229119            2 
 1435000    1.0240378   -7.6907533    398.03504  0.023114694  0.022905949            3 
 1436000    1.0175919   -7.7306892    398.50603   0.02312593  0.022899931            2 
 1437000    1.0214079   -7.7383628    396.85125  0.023013874   0.02289392            2 
 1438000    1.0085056    -7.700691    397.89972   0.02305863  0.022887903            2 
 1439000    1.0082354   -7.7051108    398.48767  0.023076654  0.022881971            2 
 1440000    1.0244395   -7.7032518    398.08807  0.023037504  0.022876078            3 
 1441000    1.0229682   -7.7399415    398.81678  0.023063658    0.0228701            3 
 1442000    1.0399556   -7.6890462    398.43239   0.02302545  0.022864089            2 
 1443000    1.0177426   -7.7345252    398.08094  0.022989197   0.02285812            2 
 1444000    1.0328719   -7.7612065    398.32667  0.022987458  0.022852052            6 
 1445000    1.0046811    -7.743623    398.99592  0.023010145  0.022845903            2 
 1446000     1.030499   -7.7697065    398.49501  0.022965365  0.022839813            3 
 1447000     1.025512   -7.7123316    399.00648  0.022978949  0.022833737            1 
 1448000    1.0133145   -7.6980901    400.46651  0.023047106  0.022827702            1 
 1449000    1.0085276   -7.7123964    400.22341  0.023017219  0.022821629            8 
 1450000    1.0112133   -7.7334116    400.22353  0.023001352  0.022815522            4 
 1451000    1.0201902   -7.7472448     399.0975   0.02292083  0.022809534            1 
 1452000    1.0034081   -7.6975389    401.80593  0.023060487  0.022803577            5 
 1453000    1.0105216   -7.7848621      398.986  0.022882886  0.022797455            2 
 1454000    1.0229966   -7.7359446    400.31178  0.022943133  0.022791341           10 
 1455000    1.0094536   -7.6927006    401.07547  0.022971104  0.022785249            2 
 1456000    1.0176699    -7.731059    401.44678  0.022976578  0.022779179            2 
 1457000    1.0235009   -7.7254239    401.56001  0.022967285  0.022773037            2 
 1458000    1.0221677    -7.711018    401.39722  0.022942228  0.022766964            2 
 1459000    1.0317152   -7.7234436    401.24853   0.02291801  0.022760879            1 
 1460000    1.0123842   -7.7058149    401.39898  0.022910901  0.022754818            1 
 1461000    1.0268207   -7.7518575     401.3849  0.022894416  0.022748739            6 
 1462000    1.0220871   -7.7002363    402.65727  0.022951281  0.022742759            3 
 1463000    1.0204259   -7.7584189    401.00302  0.022841366  0.022736743            4 
 1464000    1.0144112   -7.7219444    401.43798  0.022850522  0.022730558            4 
 1465000    1.0147814   -7.7479948    402.17773  0.022877004  0.022724364            2 
 1466000    1.0183273   -7.7533777    401.61585  0.022829459  0.022718247            4 
 1467000    1.0181065   -7.7063689     402.6679   0.02287366  0.022712088            2 
 1468000    1.0138018   -7.7230018    401.50088   0.02279183  0.022705942            2 
 1469000    1.0124562   -7.7082843    403.31421  0.022879182  0.022699908            2 
 1470000    1.0153227   -7.7453903    403.06975  0.022849759  0.022693764            2 
 1471000    1.0044748   -7.7454485     403.1427  0.022838358  0.022687495            2 
 1472000   0.98471066   -7.7332514    403.04522  0.022817325  0.022681254            2 
 1473000    1.0112831   -7.7426733    402.75348  0.022785329  0.022675052            4 
 1474000    1.0302081   -7.7096758    402.29516   0.02274396  0.022668922            4 
 1475000    1.0091771   -7.6994472     404.7147  0.022865237  0.022662759            2 
 1476000   0.99796185   -7.7133785     402.9617  0.022750773  0.022656573            3 
 1477000    1.0020806   -7.7424233    404.77316  0.022837574  0.022650306            1 
 1478000    1.0091291   -7.7731401    402.13018  0.022673105  0.022644074            2 
 1479000    1.0196941     -7.73351    404.61492  0.022797776  0.022637751            1 
 1480000    1.0236894   -7.7380098    403.93896  0.022744311  0.022631421            2 
 1481000   0.99938309   -7.7226214    404.55572  0.022763657  0.022625176            2 
 1482000    1.0055524   -7.7488625    404.77938  0.022760874  0.022618935            2 
 1483000    1.0250538    -7.744036    404.61621  0.022736357  0.022612802            2 
 1484000   0.99200356   -7.7007047    404.37589  0.022707541  0.022606713            2 
 1485000    1.0176011   -7.7521084    405.59159  0.022760471  0.022600476            9 
 1486000    1.0083837   -7.7396338    404.62599  0.022691004  0.022594305            1 
 1487000    1.0313802   -7.7205711     405.2536  0.022710917  0.022588106            1 
 1488000    1.0328987   -7.7546041     404.6522  0.022661973  0.022581967            1 
 1489000    1.0041262   -7.7797194    404.28535  0.022626223    0.0225757            3 
 1490000    1.0156838   -7.7487594    405.33758  0.022669887  0.022569416            7 
 1491000    1.0133848   -7.7083214    405.70345  0.022675132  0.022563134            4 
 1492000    1.0060415   -7.7302794    406.00739   0.02267691   0.02255684            3 
 1493000    1.0107305   -7.7875199    403.08647  0.022498687  0.022550396            5 
 1494000    1.0006547   -7.7494176    405.08424   0.02259506  0.022544005            5 
 1495000     1.009926   -7.7923815    405.24065  0.022588665  0.022537574            9 
 1496000    1.0282479   -7.7590038    405.19524  0.022571036   0.02253112            3 
 1497000    1.0200526   -7.7295246    405.64842  0.022581186  0.022524623            9 
 1498000    1.0029358   -7.7623937    405.31211  0.022547403  0.022518028            3 
 1499000    1.0159258    -7.711318    406.92088  0.022621797  0.022511579            6 
 1500000     1.008274   -7.7538648    406.07969  0.022559983  0.022505164            3 
 1501000   0.99846011   -7.7652688    406.81503  0.022585778  0.022498772            3 
 1502000   0.99990098   -7.7539475    406.75621  0.022567477  0.022492288            3 
 1503000    1.0220188   -7.7796118     405.3534  0.022474684  0.022485816            1 
 1504000   0.99697999   -7.7238506    407.01917  0.022552038  0.022479406            2 
 1505000    1.0217658   -7.7348781    408.13701  0.022598949  0.022473034            9 
 1506000    1.0129817   -7.7231144     408.8386  0.022622764   0.02246679            2 
 1507000    1.0087156    -7.767818    407.49579  0.022533499  0.022460441            3 
 1508000    1.0093395   -7.7393762    408.22255  0.022558717  0.022454107            5 
 1509000    1.0139759    -7.781768    408.17251  0.022541005  0.022447668            6 
 1510000    1.0120331   -7.7676587    408.35835  0.022536333  0.022441167            1 
 1511000    1.0188105   -7.7548556    407.57622  0.022478282  0.022434776            2 
 1512000    1.0004545   -7.7518237    407.58412  0.022463852  0.022428395            3 
 1513000    1.0404546   -7.7733316    408.80755  0.022516389  0.022421999            1 
 1514000     1.023534   -7.7490885    408.71847  0.022496613  0.022415655            3 
 1515000     1.007598   -7.7440143    409.75407  0.022538728  0.022409328            2 
 1516000    1.0269858   -7.7112205    411.30861  0.022609312   0.02240313            2 
 1517000    1.0111074    -7.729073    410.06028  0.022525834  0.022397035            1 
 1518000    1.0049411   -7.7411882    410.08395  0.022512294  0.022390879            3 
 1519000    1.0187116   -7.7059482     411.4679  0.022573398  0.022384687            2 
 1520000    1.0197618   -7.7279758    410.44981  0.022502731  0.022378523            3 
 1521000    1.0263914   -7.7256338    411.81743  0.022562866  0.022372341            5 
 1522000    1.0054574   -7.7491442    410.27992  0.022463859  0.022366081            2 
 1523000    1.0175136   -7.7823779     410.4487  0.022458344  0.022359857            4 
 1524000    1.0449285   -7.7582788    410.27732  0.022434237   0.02235363            2 
 1525000    1.0145464   -7.7079381    412.71133  0.022552532  0.022347476            2 
 1526000    1.0284915   -7.7729395    410.71453   0.02242871  0.022341365            3 
 1527000     1.007151   -7.7719592    410.60219  0.022407891  0.022335079            3 
 1528000    1.0301159   -7.7009479    412.06626  0.022473072  0.022328901            2 
 1529000    0.9857523   -7.7840144    410.11044  0.022351779  0.022322581            2 
 1530000    1.0187853   -7.7673775    411.87918  0.022433507  0.022316194            2 
 1531000    1.0100393   -7.7635317    411.33153  0.022389045  0.022309895            1 
 1532000   0.99931125   -7.7124601    413.13124  0.022472326  0.022303652            3 
 1533000    1.0037467   -7.7759085    412.19808  0.022406941  0.022297475            2 
 1534000   0.99692774   -7.7529502    412.75415  0.022422542  0.022291189            2 
 1535000    1.0277636   -7.8048824    412.27028  0.022381666  0.022284972            5 
 1536000    1.0102514   -7.7680169     413.1428  0.022414431  0.022278648            2 
 1537000    1.0242754   -7.7461609    413.83597  0.022437431   0.02227241            6 
 1538000     1.015233   -7.7477974    413.20939  0.022388892   0.02226622            2 
 1539000    1.0068947   -7.7546041    413.22148  0.022374999  0.022260052            4 
 1540000    1.0210759   -7.7641339    414.83535    0.0224478  0.022253937            3 
 1541000   0.99221956   -7.7730768    413.61308  0.022367136  0.022247741            5 
 1542000    1.0076284   -7.7607479    414.45496  0.022398128  0.022241626            5 
 1543000   0.98686106   -7.7798223    413.74797  0.022345429  0.022235379            1 
 1544000    1.0004381   -7.7513593    415.39427  0.022419812  0.022229189            8 
 1545000   0.99055673   -7.7662616    413.97607  0.022328807   0.02222302            6 
 1546000   0.99466443   -7.7472331    414.38577  0.022336447  0.022216882            2 
 1547000    1.0160793   -7.7353877    415.92299  0.022404815  0.022210693            3 
 1548000    1.0018413   -7.7723167    414.77305  0.022328437  0.022204527            4 
 1549000   0.98684263   -7.7719087    414.05225  0.022275245  0.022198234            3 
 1550000   0.97070267    -7.747806    414.32335  0.022275449  0.022191889            3 
 1551000   0.99834241   -7.7731575    414.93281  0.022293832  0.022185717            9 
 1552000     1.028031   -7.7809257    414.98704   0.02228238  0.022179432            1 
 1553000     1.007212     -7.80156    415.04888   0.02227135   0.02217314            1 
 1554000   0.97791136   -7.7680775    415.44671  0.022278352  0.022166876            6 
 1555000    1.0210453   -7.7897048    414.89469  0.022234442  0.022160631            3 
 1556000    0.9854621   -7.7901403     416.6543  0.022314391   0.02215439            4 
 1557000   0.98962823   -7.7391514    416.42723  0.022287906  0.022148149            2 
 1558000    1.0018719   -7.7748584    416.37745  0.022270938  0.022141831            6 
 1559000   0.99665114   -7.7984422    414.56365  0.022159699  0.022135502            2 
 1560000    1.0080334    -7.763963    414.95015  0.022166141  0.022129161            5 
 1561000    1.0025741   -7.7689792    416.30416  0.022224224  0.022122919            3 
 1562000   0.99844195   -7.7529879    417.10589  0.022252768  0.022116691            3 
 1563000   0.97772187   -7.7608843    416.58457  0.022210736  0.022110374            3 
 1564000    1.0092958   -7.7593116    415.84748  0.022157261  0.022104066            2 
 1565000   0.98582125   -7.7746111    417.03498  0.022206336  0.022097806            1 
 1566000   0.99680748   -7.7982643    416.08384  0.022141541  0.022091522            1 
 1567000    1.0013975   -7.7005237    416.50284  0.022149694  0.022085218            4 
 1568000    1.0004009    -7.793915    416.18879  0.022118877   0.02207895            2 
 1569000    1.0126687   -7.7408269    418.34639  0.022219375  0.022072655            1 
 1570000    1.0092904   -7.7523409    417.36118  0.022152929  0.022066382            3 
 1571000    1.0026793   -7.7710077     418.3266  0.022190038   0.02206011            4 
 1572000   0.99016377   -7.7737516    418.88254  0.022205393  0.022053806            2 
 1573000   0.99966171   -7.7826812    418.42302  0.022166932  0.022047529            3 
 1574000   0.98868559   -7.8052569    418.02884   0.02213198  0.022041248            4 
 1575000    1.0041762   -7.7637191    418.52642  0.022144255  0.022034956            3 
 1576000    1.0014462   -7.8058584    417.18412  0.022059228   0.02202863            4 
 1577000   0.99606827   -7.7897572    418.89931  0.022135876  0.022022333            5 
 1578000   0.99319935   -7.7747342    418.29159  0.022089754  0.022016081            9 
 1579000    1.0037151   -7.7734682     419.1156  0.022119252  0.022009872            2 
 1580000    1.0138244   -7.7724523    419.88982  0.022146087  0.022003548            2 
 1581000    1.0053334   -7.7619983    419.43943   0.02210834  0.021997194            3 
 1582000     1.005013   -7.8034354    419.58353  0.022101956  0.021990888            4 
 1583000    1.0003597   -7.8111225    418.42616  0.022027067   0.02198449            5 
 1584000   0.98863198   -7.7669601    419.49423  0.022069351  0.021978084            3 
 1585000    0.9922182   -7.7742812    420.18322  0.022091652  0.021971776            3 
 1586000    1.0094041   -7.7433346    420.60823  0.022100054  0.021965452            2 
 1587000    1.0007888   -7.8058818    420.00082  0.022054233  0.021959173            1 
 1588000    1.0090843    -7.792661    420.69498  0.022076773  0.021952938            4 
 1589000   0.97401358   -7.7669771    421.78375  0.022119978  0.021946657            3 
 1590000    1.0028531   -7.7827483    419.92374  0.022008582  0.021940437            3 
 1591000   0.99735493   -7.7552877    421.38193  0.022071126  0.021934362            3 
 1592000   0.98306036   -7.7876805    422.04248  0.022091839  0.021928345            1 
 1593000    1.0127174    -7.773966    422.28217  0.022090509   0.02192233            7 
 1594000    1.0070646   -7.7646162     423.2605  0.022127797  0.021916289            3 
 1595000    1.0093186   -7.7748617    422.39733  0.022068826  0.021910207            2 
 1596000   0.98015372   -7.7600906    422.20883  0.022045156  0.021904117            4 
 1597000    1.0134882   -7.8062779    422.25939  0.022033991  0.021897904            1 
 1598000     1.003277   -7.8231291    422.22954  0.022018645  0.021891734            4 
 1599000    1.0191267   -7.8210562    421.17021  0.021949667  0.021885403            4 
 1600000   0.99191201   -7.8076484    420.95146  0.021924555  0.021879151            2 
 1601000   0.99174808   -7.8055653    422.13623  0.021972529  0.021872884            2 
 1602000   0.99244984   -7.7945495    421.36762  0.021918831  0.021866548            2 
 1603000   0.98180162   -7.7974763    421.56313  0.021915322  0.021860239            3 
 1604000    1.0021943   -7.8047942    422.87467  0.021969798  0.021853848            2 
 1605000    1.0215394   -7.7917067    421.83402  0.021902078  0.021847443            1 
 1606000    1.0032627   -7.8338434    421.19427  0.021855245  0.021840989            2 
 1607000    0.9927775   -7.7845317    423.17105  0.021944153  0.021834644            7 
 1608000    1.0002939   -7.7813046    423.61491  0.021953509  0.021828247            2 
 1609000   0.99425738   -7.7801836    422.47707  0.021880934  0.021821801            1 
 1610000     0.997931   -7.7985252    422.49798  0.021868426  0.021815343            2 
 1611000   0.98213009   -7.8109256    422.18752  0.021838792  0.021808822            1 
 1612000    1.0113876   -7.7608309    423.67759  0.021902274  0.021802355            3 
 1613000   0.99369783   -7.7935315    423.74062  0.021891952  0.021795953            1 
 1614000    1.0075972     -7.77562    422.88844  0.021834389  0.021789556            1 
 1615000    1.0032902   -7.7725589    423.78368  0.021867063  0.021783194            1 
 1616000   0.98744135   -7.8147474    423.28303  0.021827714  0.021776837            2 
 1617000   0.99541603   -7.7972963    423.23219  0.021811595  0.021770458            1 
 1618000   0.98076531    -7.812236    423.45466  0.021809572  0.021764032            2 
 1619000    0.9841671   -7.7798728    424.69219    0.0218598  0.021757634            3 
 1620000   0.98950352   -7.8233027    423.81651  0.021801261  0.021751265            2 
 1621000    1.0175433   -7.7978779    425.38021  0.021868199  0.021744776            4 
 1622000   0.99752755   -7.7914293    425.78439  0.021875482  0.021738467            2 
 1623000   0.99489401   -7.8301479    424.98187  0.021820799  0.021732111            3 
 1624000   0.99604353   -7.8018001    425.28061  0.021822692  0.021725654            4 
 1625000   0.99790755    -7.764131    425.52506  0.021821798  0.021719342            2 
 1626000   0.98327441   -7.8280507    425.33257  0.021798512   0.02171289            2 
 1627000   0.99094817   -7.8272856    425.35003  0.021786009  0.021706495            2 
 1628000    1.0085025   -7.7957985    426.21842  0.021817077  0.021700152            9 
 1629000    1.0196477   -7.7963877    427.06972  0.021847233  0.021693972            2 
 1630000   0.98904638   -7.7707217    426.82254  0.021821193  0.021687723            2 
 1631000    1.0011323   -7.7505671    426.40402  0.021786431  0.021681427            2 
 1632000     1.003037   -7.7647774     427.0473  0.021805928  0.021675143            1 
 1633000   0.99984345   -7.8307367    425.12358  0.021694406   0.02166878            5 
 1634000     0.980572   -7.8121871    426.70495  0.021761778  0.021662396            2 
 1635000   0.97478067    -7.805266     428.7372  0.021852049  0.021656115            2 
 1636000   0.95749724   -7.8211227    427.50668  0.021776013    0.0216498            1 
 1637000   0.99097521   -7.8061803    427.40418  0.021757492   0.02164348            4 
 1638000   0.98668611   -7.8062643    426.81029  0.021713995  0.021637133            1 
 1639000    1.0093324     -7.83022    427.50571  0.021736105  0.021630737            3 
 1640000    0.9711928   -7.7906217     427.6707  0.021731235  0.021624417            1 
 1641000    0.9783954       -7.853    427.84107  0.021726644  0.021618023            2 
 1642000   0.99368106   -7.7849509    428.47017  0.021745339  0.021611657            4 
 1643000   0.99402041   -7.8024336     426.9503  0.021655016  0.021605401            5 
 1644000   0.96561021   -7.8601155    427.05595  0.021647199   0.02159906            2 
 1645000   0.98609157   -7.7868617    427.82125  0.021672809  0.021592639            3 
 1646000    1.0072849   -7.8422027    425.92952  0.021563868  0.021586177            2 
 1647000   0.99905778   -7.7734994    428.82495  0.021697275  0.021579659            3 
 1648000    1.0162865   -7.8170293    427.10703  0.021597241  0.021573188            1 
 1649000   0.99706059   -7.7858229    429.40194  0.021700118  0.021566777            4 
 1650000    0.9993138   -7.7873599    428.33573  0.021633117  0.021560388            1 
 1651000   0.97756388   -7.7985801    429.63063  0.021685374  0.021553997            2 
 1652000   0.99205802    -7.818703    428.29356    0.0216048   0.02154766            3 
 1653000   0.99178533   -7.8111842    428.11791  0.021582875  0.021541202            3 
 1654000     1.006004   -7.8087063    428.80556  0.021604472  0.021534868            3 
 1655000   0.98195212   -7.8072024    427.52918  0.021527149  0.021528402            3 
 1656000   0.97607747   -7.8313834    428.02198  0.021538948   0.02152197            2 
 1657000   0.99525153   -7.7751659    430.14431  0.021632685  0.021515534            1 
 1658000   0.96958932   -7.7871896    429.44413  0.021584445  0.021509139            3 
 1659000   0.99645142   -7.8058809    429.50786  0.021574636  0.021502731            3 
 1660000    0.9845889   -7.7999853    430.75889  0.021624442  0.021496271            2 
 1661000    1.0219117   -7.8364251     429.2751  0.021536981  0.021489783            2 
 1662000    1.0097648   -7.8471471    429.16994  0.021518749  0.021483312            3 
 1663000   0.96421769   -7.8097571    430.31073  0.021562975  0.021476887            1 
 1664000    1.0024593   -7.8611176    430.09965  0.021539445  0.021470495            1 
 1665000    1.0106884   -7.8823123    430.60975  0.021552039   0.02146418            4 
 1666000   0.99233037   -7.8117896    431.05154  0.021561202  0.021457987            3 
 1667000   0.97898475   -7.8511967    431.91075  0.021591219  0.021451782            3 
 1668000   0.97432917   -7.8522468    431.32708  0.021549115  0.021445437            3 
 1669000     0.973955   -7.8505682    431.15178   0.02152745  0.021439151            4 
 1670000   0.97499817   -7.8672537    432.51593  0.021582631  0.021432891            4 
 1671000   0.99196668   -7.8077836    431.89923   0.02153896  0.021426656            4 
 1672000    1.0031058   -7.8524596    431.65745  0.021514027   0.02142045            4 
 1673000   0.97385167    -7.828768    431.88331  0.021512418  0.021414195            2 
 1674000   0.97382853   -7.8389536    431.67716  0.021489305  0.021407984            3 
 1675000   0.97546456   -7.8496271    431.48384  0.021466858  0.021401686            2 
 1676000   0.99599984   -7.8122118    432.83138  0.021521051  0.021395475            4 
 1677000   0.97024322   -7.7827564    433.62648  0.021547728  0.021389316            2 
 1678000    1.0023374   -7.8080385    433.07167  0.021507334  0.021383107            2 
 1679000   0.96554872   -7.7879584    432.99113  0.021490527  0.021376958            3 
 1680000   0.97443313   -7.8072991    433.90233  0.021522933  0.021370879            4 
 1681000   0.98131188   -7.7899146    433.47459  0.021488925  0.021364716            3 
 1682000    1.0012016    -7.841575    434.52445  0.021528164  0.021358592            1 
 1683000    0.9696936   -7.8425206    434.45633  0.021511999  0.021352507            2 
 1684000   0.98979488   -7.8498991    432.84159  0.021419318  0.021346393            2 
 1685000    0.9669929   -7.7914902    435.24685  0.021525561  0.021340263            2 
 1686000   0.96871007   -7.8091105    434.19144  0.021460629  0.021334164            5 
 1687000   0.97367625   -7.8099116    435.61743  0.021518348  0.021328189            3 
 1688000   0.98969766   -7.7903184    436.42013  0.021545227  0.021322223            3 
 1689000   0.99549689   -7.8358211    435.12937  0.021468787  0.021316273            4 
 1690000   0.98045406   -7.8618224    435.36047  0.021467479  0.021310149            6 
 1691000   0.97560333   -7.8339208    436.65582  0.021518619  0.021304058            3 
 1692000   0.98119279   -7.8589335    436.62988  0.021504624  0.021297928            4 
 1693000   0.99230067   -7.8532438    435.94803   0.02145836  0.021291858            2 
 1694000   0.97506787   -7.8465771    436.74694  0.021484993  0.021285814            2 
 1695000    1.0121495   -7.7747564    437.47537   0.02150813  0.021279862            3 
 1696000    1.0129473   -7.8204614     437.1635  0.021480125  0.021273917            2 
 1697000   0.99194712   -7.8251264    437.40022  0.021479091  0.021267972            2 
 1698000   0.98025857   -7.8030453    438.36812  0.021513944  0.021262054            3 
 1699000   0.98439686    -7.850605    436.04012  0.021387097  0.021256201            1 
 1700000    0.9939859   -7.8168575    437.79576  0.021460577  0.021250255            2 
 1701000    1.0055117   -7.8718917     436.5335  0.021386121  0.021244205            3 
 1702000   0.98519501   -7.8683674    437.09107  0.021400855  0.021238158            2 
 1703000   0.97390293     -7.89726    437.45125  0.021405913  0.021232129            5 
 1704000   0.96164337    -7.840375    437.64547   0.02140285  0.021226059            4 
 1705000   0.98326735   -7.8313948    437.27884  0.021372377  0.021220004            3 
 1706000   0.96060528   -7.8372029    438.90241  0.021439156  0.021213978            5 
 1707000   0.97365168   -7.8409886    438.99225  0.021430983  0.021208033            2 
 1708000   0.96605781   -7.8307219    438.76242  0.021407222  0.021202145            4 
 1709000   0.97032659   -7.8535564    437.56204  0.021336163  0.021196152            7 
 1710000   0.99042958   -7.8238887    439.37638  0.021412104  0.021190213            2 
 1711000   0.98561037   -7.8238156    439.13355  0.021387763   0.02118427            4 
 1712000   0.98282014   -7.8349954    439.13625  0.021375402  0.021178343            2 
 1713000   0.97703553   -7.8204889    439.87278  0.021398754  0.021172412            2 
 1714000   0.96360303   -7.8656955    439.50922  0.021368593  0.021166376            3 
 1715000   0.97025688   -7.8424156    439.99835    0.0213799  0.021160385            2 
 1716000   0.99127286   -7.8813483    438.96227  0.021317127   0.02115439            2 
 1717000   0.97593794   -7.8999287    438.61262  0.021287741  0.021148321            2 
 1718000    0.9800246   -7.8374304    440.21415  0.021353034  0.021142314            3 
 1719000   0.95894455   -7.8243102     441.3904  0.021397634  0.021136382            3 
 1720000   0.97867321   -7.8522739     440.1824  0.021326667  0.021130391            5 
 1721000    0.9655466   -7.8246951    440.25443  0.021317762  0.021124471            2 
 1722000   0.95895375   -7.8544847    439.75241  0.021281088  0.021118539            2 
 1723000   0.98258837   -7.8581628    440.53986  0.021306822  0.021112588            3 
 1724000    0.9530336   -7.8545188    440.43078  0.021289191  0.021106641            2 
 1725000   0.97884549   -7.8552008    440.55686   0.02128294  0.021100647            3 
 1726000    0.9487143   -7.8142038     440.6781  0.021276463  0.021094665            2 
 1727000   0.94515631   -7.8857914     440.7175  0.021266044  0.021088653            6 
 1728000   0.98642856   -7.8395376    441.00758  0.021267727  0.021082585            4 
 1729000   0.97645624   -7.8425367    441.28658  0.021268873  0.021076606            1 
 1730000   0.97394714   -7.8782134    440.19379   0.02120394  0.021070537            3 
 1731000   0.98592342   -7.8638108    440.37717  0.021200519  0.021064386            3 
 1732000   0.99095319   -7.8261733    441.72366  0.021253063  0.021058365            1 
 1733000   0.96948531   -7.8860331    440.85854  0.021199199  0.021052311            3 
 1734000   0.97676939   -7.8277938     441.8598  0.021235092  0.021046214            7 
 1735000   0.99240839   -7.8455136    441.67532  0.021213992  0.021040163            2 
 1736000   0.95149237    -7.824244    442.21519  0.021227687  0.021034154            2 
 1737000   0.96129195   -7.8521816    441.13132  0.021163468  0.021028104            3 
 1738000    1.0052956   -7.8085356    441.12866  0.021151163  0.021022044            2 
 1739000    1.0004679   -7.7872867    442.57979  0.021208539  0.021015914            1 
 1740000   0.96872746   -7.8904523    441.69881  0.021154157  0.021009817            2 
 1741000   0.98232363   -7.8178104    441.58894  0.021136748    0.0210037            2 
 1742000   0.95797673   -7.8523169    440.90368  0.021091833   0.02099757            2 
 1743000   0.94515513   -7.8265146    441.74151  0.021119789  0.020991406            3 
 1744000   0.97501414   -7.8951202    440.41612  0.021044348   0.02098521            3 
 1745000   0.96620503   -7.8751032    440.09153  0.021016787  0.020978938            6 
 1746000   0.95040377    -7.854637    442.92539  0.021140005  0.020972786            4 
 1747000   0.95812525   -7.8244534    442.25135  0.021095752  0.020966645            1 
 1748000   0.95156044   -7.8317928    443.41335   0.02113908  0.020960508            3 
 1749000   0.97092904   -7.8278388    443.61068  0.021136396  0.020954471            4 
 1750000   0.96276552   -7.8904957    442.69584  0.021080754   0.02094838            2 
 1751000   0.97003112   -7.8108694    442.40158  0.021054711  0.020942274            3 
 1752000    0.9634077   -7.8302027    444.64457   0.02114938  0.020936227            4 
 1753000   0.98093941     -7.86275    444.29907  0.021120891  0.020930132            3 
 1754000   0.97899332   -7.8688348    442.92903  0.021043759  0.020924058            4 
 1755000   0.97923356    -7.846566     442.4265  0.021007906  0.020917918            2 
 1756000   0.96081732   -7.8275076    445.65733  0.021149266  0.020911877            2 
 1757000    0.9800743   -7.8033309    445.37887  0.021124022  0.020905875            3 
 1758000   0.95340325   -7.8622945    444.85416  0.021087133  0.020899921            3 
 1759000   0.97373943   -7.8448136     444.8727  0.021076023  0.020893882            4 
 1760000   0.97683626   -7.8650038    445.23114   0.02108102  0.020887812            1 
 1761000   0.98295565   -7.8447058    443.99392  0.021010502  0.020881767            5 
 1762000   0.95447591   -7.8652271    443.95492  0.020996733  0.020875689            3 
 1763000   0.96599248   -7.8260189    444.80824  0.021025158  0.020869563            2 
 1764000   0.97119316   -7.8507117    445.25129  0.021034169  0.020863502            3 
 1765000   0.97762735     -7.84394    444.57732   0.02099043  0.020857483            3 
 1766000   0.96102786   -7.8914335    444.72562  0.020985543  0.020851409            4 
 1767000    0.9842992   -7.8714605    445.30864  0.021001162  0.020845304            5 
 1768000   0.96394584   -7.8755388    445.80042  0.021012463  0.020839205            5 
 1769000   0.97681739   -7.8700497    445.15578  0.020970218  0.020833051            2 
 1770000   0.97361959   -7.8960399    445.01177   0.02095159   0.02082687            3 
 1771000   0.97346594   -7.8697413    445.59121  0.020967025  0.020820759            3 
 1772000   0.95991287   -7.8671372    446.18666  0.020983195  0.020814727            3 
 1773000   0.96734441   -7.8545728    445.36657  0.020932815  0.020808642            2 
 1774000   0.96587966   -7.8898398    445.39575  0.020922386  0.020802557            1 
 1775000   0.98886342       -7.859     446.7254  0.020973024  0.020796492            4 
 1776000   0.98619163   -7.8824863    446.89081  0.020968975  0.020790462            3 
 1777000   0.96514171   -7.8432287    447.43087  0.020982502  0.020784521            2 
 1778000   0.97068573   -7.9059026    445.71593  0.020890323  0.020778441            2 
 1779000   0.96132361   -7.8643319    447.36381  0.020955771  0.020772301            3 
 1780000   0.95361767     -7.90332    447.45058  0.020948061  0.020766213            3 
 1781000   0.95883094    -7.867366    445.93448   0.02086536  0.020760131            1 
 1782000   0.96136051   -7.8868152    446.09094  0.020860968  0.020753971            2 
 1783000   0.96186729   -7.8730973    448.21627  0.020948601  0.020747859            3 
 1784000   0.96840033   -7.8736035    446.42793  0.020853323  0.020741716            4 
 1785000   0.96292957   -7.9225266    446.18915  0.020830493   0.02073555            3 
 1786000   0.93808983   -7.8999216    447.76722  0.020892461  0.020729497            2 
 1787000   0.94988271   -7.8733072    447.76962  0.020880881  0.020723332            5 
 1788000   0.95898313   -7.8653674    448.35463  0.020896468  0.020717203            3 
 1789000   0.98244754   -7.8661505     448.0488  0.020870542  0.020711147            7 
 1790000   0.96213629     -7.88853    447.85359  0.020849795   0.02070515            4 
 1791000   0.98596244   -7.9019782    447.44914  0.020819335  0.020699161            4 
 1792000    0.9553334   -7.9143734    447.53019  0.020811486  0.020693141            3 
 1793000   0.95356642   -7.8902861    448.55185  0.020847362  0.020687133            3 
 1794000   0.95400944   -7.8705926    448.31496  0.020824738  0.020681137            2 
 1795000   0.98411861   -7.8755291    449.22298  0.020855291  0.020675074            3 
 1796000   0.96331032   -7.8852928    448.29614  0.020800675  0.020669019            4 
 1797000   0.98380738   -7.8615824    449.19438  0.020830754  0.020662927            2 
 1798000   0.99386013   -7.8712054    449.74468  0.020844674  0.020656899            2 
 1799000   0.94879168   -7.8945542    448.59117  0.020779654  0.020650912            9 
 1800000   0.95919498   -7.8662645    449.29362  0.020800631  0.020644895            6 
 1801000   0.95880144   -7.9175238    449.65482  0.020805794  0.020638861            4 
 1802000   0.96382209   -7.9111262    448.13384   0.02072391   0.02063268            5 
 1803000   0.97670583   -7.8581476    450.27427  0.020811346  0.020626646            2 
 1804000   0.97568219   -7.9251952    449.48086  0.020763159  0.020620562            4 
 1805000   0.95798555    -7.873146    449.96093   0.02077382  0.020614434            1 
 1806000    0.9655288   -7.8834143    450.19338  0.020773043   0.02060834            7 
 1807000   0.96717638   -7.8666352    451.24821  0.020810193  0.020602227            3 
 1808000   0.96497286   -7.8916568    450.80043  0.020778044  0.020596143            1 
 1809000   0.94768543   -7.9137491    450.17326  0.020737666  0.020590053            4 
 1810000   0.95668667   -7.8847468    451.05873  0.020766976  0.020584035            1 
 1811000   0.96804534   -7.8914771    450.14448   0.02071344  0.020577916            3 
 1812000   0.96261013   -7.8849673    450.64845  0.020725186   0.02057175            2 
 1813000   0.95207443   -7.9175543    449.79539  0.020674544  0.020565648            3 
 1814000   0.96910066   -7.8607438    451.05417  0.020720974  0.020559562            2 
 1815000   0.98077048   -7.8544003    452.15511  0.020760106  0.020553493            2 
 1816000   0.95272463   -7.8794501    451.02758  0.020696934  0.020547389            4 
 1817000   0.94478998   -7.8949873    451.29102  0.020697625   0.02054135            3 
 1818000   0.94311087   -7.9082008     451.4185  0.020692084  0.020535334            2 
 1819000   0.95788303   -7.8742087    451.80588  0.020698455  0.020529306            4 
 1820000   0.95814977   -7.8840639    451.58839  0.020677124   0.02052326            5 
 1821000   0.96024674   -7.8564644    451.85001  0.020677741  0.020517236            3 
 1822000   0.94228602     -7.88991    452.24527  0.020684471  0.020511134            3 
 1823000   0.95276677   -7.9205412    451.34984  0.020632192  0.020505125            7 
 1824000   0.95251141   -7.8727259    452.64264  0.020679945   0.02049906            4 
 1825000   0.97532104   -7.8994069    451.81626  0.020630879  0.020492896            3 
 1826000   0.95370253   -7.9053064    452.95777  0.020671676  0.020486829            5 
 1827000   0.96142295   -7.8947015    453.74194   0.02069613  0.020480768            5 
 1828000   0.98106806   -7.8862017    453.16921  0.020658698  0.020474684            1 
 1829000   0.96046855   -7.9199719    453.63436  0.020668597  0.020468628            5 
 1830000   0.95896855   -7.8969223    452.82185  0.020620303  0.020462583            3 
 1831000   0.96838794   -7.8710252    454.85571  0.020701607  0.020456633            4 
 1832000   0.95890529    -7.901452    452.70392  0.020592427  0.020450666            3 
 1833000   0.96148972   -7.9041497    453.72421  0.020627578  0.020444624            2 
 1834000   0.96586899   -7.9221631    453.44694  0.020603732   0.02043855            5 
 1835000   0.95493128   -7.9246731    453.41623  0.020591109  0.020432393            3 
 1836000    0.9610447   -7.8968474    452.46525  0.020536731  0.020426265            1 
 1837000   0.94848864   -7.8897315    453.63478  0.020578606  0.020420196            3 
 1838000   0.96611015   -7.8781685    454.04398  0.020585962  0.020414146            2 
 1839000   0.96672649   -7.9108181    453.51557  0.020550823  0.020408076            2 
 1840000   0.97063403   -7.8967088    453.97256  0.020560351  0.020402006            5 
 1841000   0.96933166   -7.8788991    453.69121  0.020536448   0.02039598            1 
 1842000   0.95844463   -7.9141619    453.97678  0.020538218  0.020389908            2 
 1843000   0.95260699   -7.8776702    454.28394  0.020540963  0.020383809            1 
 1844000   0.96448425   -7.8858489    454.64234   0.02054602  0.020377744            4 
 1845000   0.93808296   -7.9207413    455.44507  0.020571141  0.020371687            2 
 1846000   0.95577778   -7.9010027     455.7787  0.020575059  0.020365656            3 
 1847000   0.93202964   -7.8800372    455.32945   0.02054365  0.020359659           12 
 1848000   0.95905854   -7.9080465    455.54485  0.020542246  0.020353644            2 
 1849000   0.94908343   -7.8861638    456.34695  0.020567286  0.020347652            3 
 1850000   0.94871076   -7.8582262    454.99926  0.020495462  0.020341608            4 
 1851000   0.96265244   -7.9142432    455.54871  0.020509126   0.02033562            2 
 1852000   0.95699375   -7.9006507    457.15828  0.020570477  0.020329619            2 
 1853000   0.94692706   -7.8959369    455.40435  0.020480498  0.020323626            3 
 1854000   0.94246187   -7.9247168    455.45064  0.020471532  0.020317654            2 
 1855000   0.96236241   -7.9155724    456.47252  0.020506403  0.020311644            1 
 1856000   0.96034623    -7.902375    455.22036  0.020439133  0.020305588            2 
 1857000   0.94153279   -7.9404931    456.05407  0.020465539  0.020299589            2 
 1858000    0.9386947    -7.916814    457.77403  0.020531666  0.020293617            3 
 1859000    0.9418628    -7.907304    457.38891  0.020503358  0.020287677            4 
 1860000   0.94041952   -7.9196523    456.93954  0.020472202  0.020281686            3 
 1861000   0.96657268   -7.9059689    456.45134   0.02043934  0.020275679            3 
 1862000   0.95624839   -7.9478286    455.29658  0.020376682  0.020269609            8 
 1863000   0.95432747   -7.9067909    456.97586   0.02044086  0.020263543            4 
 1864000   0.95052478    -7.897996    457.23271  0.020441376  0.020257489            4 
 1865000   0.96128188   -7.8885503    456.31434  0.020389381  0.020251471            1 
 1866000   0.94605559   -7.8870658    457.87883  0.020448322  0.020245379            4 
 1867000   0.96419211   -7.9180354    457.42093  0.020416932  0.020239301            4 
 1868000   0.95732392    -7.931088    456.29092  0.020355591  0.020233166            8 
 1869000   0.94672412   -7.9151055    458.19868  0.020429761  0.020227107            2 
 1870000   0.94237657   -7.9479068    456.86429  0.020359371  0.020221073            3 
 1871000   0.96380978   -7.9051279    458.42259  0.020417895  0.020215034            1 
 1872000      0.95955     -7.86926    458.73867  0.020421059  0.020209043            2 
 1873000   0.94538461   -7.9277783    457.87779  0.020371854  0.020203075            2 
 1874000   0.96315173   -7.8968387    459.07702  0.020414311  0.020197075            6 
 1875000   0.95767849   -7.9038663     458.6308  0.020383591  0.020191129            2 
 1876000   0.94199194    -7.903032    458.58043  0.020370488  0.020185199            2 
 1877000   0.94971392   -7.8885553    459.78886  0.020413286  0.020179256            2 
 1878000   0.96924533   -7.8552721     459.0963  0.020371685  0.020173344            3 
 1879000   0.94697305   -7.8865933    459.33716  0.020371526   0.02016739            2 
 1880000   0.94387597   -7.8628209    458.70145  0.020332511   0.02016143            3 
 1881000   0.96460561   -7.9154731    459.36931   0.02035129   0.02015551            2 
 1882000   0.98856063   -7.8783883    459.59719  0.020350566  0.020149582            7 
 1883000   0.96311547   -7.9166838    459.09935  0.020317727  0.020143647            5 
 1884000   0.96088652    -7.865555    459.04079  0.020304352  0.020137621            5 
 1885000   0.93799783   -7.9229798    459.16869  0.020299235  0.020131566            3 
 1886000   0.93684106   -7.9074212    458.84974  0.020274379  0.020125534            2 
 1887000   0.94397409   -7.8985059    459.68631  0.020300579   0.02011948            1 
 1888000   0.94580386   -7.8896894    459.70211  0.020290524  0.020113508            3 
 1889000   0.97540609   -7.9398005    458.11403  0.020209724  0.020107494            3 
 1890000   0.93220457    -7.911739    460.75711  0.020315569   0.02010154            3 
 1891000   0.95733985   -7.9054194    459.83394  0.020264143  0.020095544            3 
 1892000   0.93430178   -7.9384709    460.42366  0.020279407  0.020089485            7 
 1893000   0.95571316   -7.9357997    459.39314  0.020223329  0.020083434            3 
 1894000   0.95395853   -7.9532572    460.11135  0.020244251  0.020077296            3 
 1895000   0.95883202   -7.9177058      461.122  0.020278012  0.020071217            1 
 1896000   0.94435993   -7.9361696     460.2313  0.020228169   0.02006514            3 
 1897000   0.91996488   -7.9150695    460.50716  0.020229624  0.020058989            5 
 1898000   0.94074584   -7.9124776    460.44657  0.020216305  0.020052848            1 
 1899000   0.95993505   -7.9064963    460.52069  0.020208912  0.020046789            2 
 1900000   0.96561043   -7.9622556    458.54751  0.020111733  0.020040622            9 
 1901000   0.93548355   -7.9431352    459.17146  0.020128505  0.020034476            7 
 1902000   0.93430353   -7.9351678    458.59084  0.020092484  0.020028301           10 
 1903000   0.95035744   -7.9059047    460.60318  0.020170046  0.020022184            6 
 1904000   0.94578046   -7.9142193    462.06329  0.020223358  0.020016137            2 
 1905000   0.94212473   -7.9464328    459.56779  0.020103578  0.020009986            1 
 1906000   0.95109827    -7.936276    460.10667  0.020116591   0.02000389            3 
 1907000   0.94204628   -7.9058213    461.94523  0.020186385  0.019997768            3 
 1908000   0.94082852   -7.9550766    460.90065  0.020130182  0.019991647            3 
 1909000   0.95060035   -7.9140953    461.86029  0.020161528  0.019985559            3 
 1910000   0.96430756   -7.9308621    461.45903  0.020133466  0.019979526            1 
 1911000   0.93324404   -7.9325725    462.13225  0.020152287  0.019973412            3 
 1912000    0.9429344   -7.9550328    461.26525   0.02010396  0.019967341            2 
 1913000   0.95387388   -7.9578622    460.54189   0.02006194  0.019961195            3 
 1914000   0.94912888   -7.9767367    462.43649  0.020133947  0.019955118            2 
 1915000    0.9301244   -7.9190338    462.26344  0.020115902  0.019949049            2 
 1916000    0.9334342   -7.9409996    461.09401  0.020054541   0.01994294            7 
 1917000   0.95709762   -7.9546373    461.59869  0.020066019  0.019936847            4 
 1918000   0.93567546   -7.9359801    461.34978  0.020044742   0.01993076            5 
 1919000   0.96252433   -7.9428021    461.83544  0.020055386   0.01992463            4 
 1920000   0.93726222   -7.9186167    462.05795  0.020054599  0.019918517            8 
 1921000   0.95415475   -7.9257303    463.24176  0.020095513  0.019912418            4 
 1922000   0.94616503   -7.9480395    461.06567  0.019990707  0.019906284            4 
 1923000   0.94363651   -7.9520119    462.41902  0.020038959  0.019900162            1 
 1924000    0.9363876   -7.9794863    462.11021  0.020015168  0.019894059            3 
 1925000   0.93800973   -7.9426069      463.179  0.020051039  0.019887929            3 
 1926000   0.93556647   -7.9295281    462.79043  0.020023816  0.019881889            3 
 1927000    0.9379045   -7.9098592    463.94091  0.020063177  0.019875871            5 
 1928000   0.95835915    -7.935927     463.5865  0.020037453  0.019869921            2 
 1929000   0.93947177     -7.93379    463.24671  0.020012386  0.019863916            2 
 1930000   0.96056626   -7.9444604    463.71042  0.020022039  0.019857951            2 
 1931000   0.93687754   -7.9533862    462.97405  0.019979892  0.019851954            2 
 1932000   0.95313993   -7.9379136    463.89797  0.020009402  0.019845968            3 
 1933000   0.92363255   -7.9638746    463.22244  0.019969928  0.019839918            5 
 1934000   0.92832818   -7.8744101    465.89355  0.020074696  0.019833893            2 
 1935000   0.94645251   -7.9136172    464.51773   0.02000507  0.019827895            3 
 1936000   0.93612613   -7.9590414    464.30857  0.019985734  0.019821837            4 
 1937000    0.9422585   -7.9670515    464.02603  0.019963261  0.019815784            2 
 1938000   0.93479058   -7.9076389    464.85179  0.019988467  0.019809809            3 
 1939000   0.92600865    -7.928509    464.22565  0.019951248  0.019803757            3 
 1940000   0.92701546   -7.9640864     463.5545  0.019912135  0.019797716            4 
 1941000   0.95024352   -7.9495372    464.70419  0.019951236  0.019791695            2 
 1942000   0.96995597   -7.9148543    465.69114  0.019983314  0.019785704           10 
 1943000   0.93820259   -7.9448395    465.77666  0.019976697  0.019779647            2 
 1944000   0.94044003   -7.9510544     465.1181   0.01993819  0.019773649            3 
 1945000   0.95553001   -7.9706376    466.06268  0.019968409  0.019767677            2 
 1946000   0.97562627   -7.9327165    465.27528  0.019924429  0.019761718            7 
 1947000   0.93668624   -7.9448418    466.70144  0.019975237  0.019755753            6 
 1948000   0.93149703   -7.9818108    465.83808  0.019928049  0.019749745            4 
 1949000   0.94196122   -7.9554513    466.26461  0.019936062  0.019743742            3 
 1950000   0.92903956    -7.998903     465.1419  0.019877859  0.019737737            2 
 1951000   0.92864243   -7.9502723    465.44069  0.019880433  0.019731694            6 
 1952000    0.9340546   -7.9072615    465.68716   0.01988077  0.019725698           12 
 1953000   0.94049661   -7.9222954     465.9139  0.019880266   0.01971963            3 
 1954000   0.94337383   -7.9294334     464.6734  0.019817187   0.01971357            8 
 1955000   0.94240613   -7.9244991    467.62526  0.019932876  0.019707533            3 
 1956000   0.95313511   -7.9689837    465.69879   0.01984061  0.019701431            2 
 1957000   0.95175461   -7.9456413    466.29063  0.019855673  0.019695371            4 
 1958000   0.94318503   -7.9753842    466.35429  0.019848242  0.019689272            7 
 1959000   0.91903684   -7.9383818    465.98947  0.019822591  0.019683205            3 
 1960000   0.92865602   -7.9523576      465.449  0.019789498  0.019677111            3 
 1961000    0.9358818    -7.951783    466.66788  0.019831203  0.019671046           13 
 1962000   0.93896996   -7.9480086    466.30309  0.019805602  0.019664944            4 
 1963000    0.9325599   -7.9294774    467.04527   0.01982702  0.019658853            4 
 1964000    0.9496063   -7.9548224    466.08825  0.019776317  0.019652769            5 
 1965000   0.93708108   -7.9399248    467.27752  0.019816689  0.019646688            5 
 1966000   0.94286197   -7.9490349    467.42909  0.019813034   0.01964055            1 
 1967000   0.94091083   -7.9381565    468.21503  0.019836258  0.019634459            4 
 1968000   0.92530609   -7.9481711    468.34497  0.019831681  0.019628352            4 
 1969000   0.93789135   -7.9626204    465.68132  0.019708876  0.019622218            4 
 1970000   0.93512791   -7.9366051     466.8437  0.019748041  0.019616091            2 
 1971000   0.91132578   -7.8947916    467.84421  0.019780323  0.019609972            5 
 1972000   0.93557224   -7.9403271    467.12509  0.019739904  0.019603894            7 
 1973000   0.93659956    -7.987963    466.48382  0.019702814   0.01959776            5 
 1974000   0.95626301   -7.9727586    465.49455   0.01965107  0.019591628            7 
 1975000   0.95333404   -7.9526489    466.91451  0.019701034  0.019585474            4 
 1976000   0.94710764   -7.9744309    467.48034  0.019714927  0.019579364            3 
 1977000    0.9320491   -7.9480448    467.87794  0.019721714   0.01957328            1 
 1978000    0.9275802   -7.9184807    467.45939   0.01969411  0.019567139            9 
 1979000   0.93009276   -7.9523203    467.10454  0.019669216  0.019561012            4 
 1980000   0.93691695    -7.995362    467.45595  0.019674072  0.019554836            2 
 1981000   0.94928001   -7.9478101     469.1035  0.019733447  0.019548711            4 
 1982000   0.94029364   -7.9248416    467.71897  0.019665278  0.019542605            3 
 1983000   0.92690492   -7.9577379    468.21953  0.019676396  0.019536498            3 
 1984000   0.94502724   -7.9702063    469.74818  0.019730686  0.019530386            2 
 1985000   0.93015382   -7.9441251    469.48943  0.019709884  0.019524362            3 
 1986000     0.933522    -7.960189    468.58723  0.019662103  0.019518335            2 
 1987000   0.93752097   -7.9615147    468.70234  0.019657035  0.019512227            6 
 1988000   0.92073605   -7.9969938     466.7007  0.019563242  0.019506112            3 
 1989000   0.93241908   -8.0030652    468.46042  0.019627133  0.019499966            6 
 1990000   0.93299071   -8.0008033    468.64792  0.019625122  0.019493744            4 
 1991000   0.92162742   -7.9825482    467.20192  0.019554743  0.019487474            1 
 1992000    0.9325123   -7.9725904    467.74396  0.019567602   0.01948123            2 
 1993000   0.95256523    -7.935949    470.95375  0.019691995  0.019475079            4 
 1994000    0.9285752   -7.9492776    468.62314  0.019584719  0.019468931            2 
 1995000   0.93674185   -7.9704167    467.86724  0.019543327  0.019462801            3 
 1996000   0.93188001   -7.9541175    469.43371  0.019598936  0.019456652            3 
 1997000   0.92167905   -7.9912343     466.9097  0.019483796  0.019450413            4 
 1998000    0.9347485   -8.0026768    467.03676  0.019479345  0.019444138            2 
 1999000   0.93185917   -7.9554664     468.6218  0.019535676  0.019437881            3 
 2000000   0.93893818   -7.9288028     470.0821  0.019586754  0.019431672            7 
 2001000   0.92074913    -7.989142     468.0092  0.019490638  0.019425434            7 
 2002000   0.93942854   -7.9615352    468.40893  0.019497541  0.019419205            4 
 2003000   0.92835841   -7.9691461    469.03163  0.019513714  0.019413036            4 
 2004000    0.9397272   -7.9898934    468.95973  0.019500987  0.019406791            2 
 2005000   0.92957892   -7.9859488    467.75345  0.019441124  0.019400571            3 
 2006000   0.94222999   -7.9585699    470.04853  0.019526775  0.019394433            5 
 2007000   0.93869004   -7.9941516    468.50768  0.019453068  0.019388269            3 
 2008000   0.93772424   -7.9706174    469.55561   0.01948687  0.019382044            2 
 2009000   0.92180179   -7.9850931    469.06185  0.019456689  0.019375773            3 
 2010000    0.9243134   -7.9787531    469.29248  0.019456571  0.019369535            5 
 2011000   0.91632748   -7.9487703     470.6258  0.019502147  0.019363358            3 
 2012000   0.93113936   -8.0057899    469.47615  0.019444837  0.019357164            6 
 2013000   0.94854096   -7.9596345      471.377  0.019513868  0.019350929            6 
 2014000   0.93404207   -7.9427135    469.86324  0.019441544  0.019344758            8 
 2015000    0.9171161   -7.9561784    469.66815  0.019423828  0.019338552            3 
 2016000    0.9020358   -7.9573595    470.20721  0.019436475  0.019332383            4 
 2017000   0.90394171   -7.9341648     471.5546  0.019482507  0.019326188            5 
 2018000   0.92331871    -7.993942    469.28223  0.019379015  0.019319922            8 
 2019000   0.91001259   -7.9925826    470.26719  0.019410071  0.019313592            7 
 2020000   0.94457548    -7.931496    469.96556  0.019388018  0.019307293            7 
 2021000   0.92398963   -7.9847268    469.26449  0.019349517  0.019301039            3 
 2022000   0.94340916   -7.9747283    469.09702  0.019333046  0.019294727            2 
 2023000   0.90390297   -7.9959765     469.1989  0.019327686  0.019288388            4 
 2024000     0.939987   -8.0063529    470.09971  0.019355225  0.019282064            4 
 2025000   0.93446742   -8.0068411    469.61529  0.019325732  0.019275683            3 
 2026000   0.92418685   -8.0222066    468.03578  0.019251225  0.019269403            7 
 2027000   0.93434593   -7.9959948     469.9447  0.019320206   0.01926311            2 
 2028000   0.94145253   -7.9311816     472.1856  0.019402762  0.019256895            3 
 2029000   0.90959487   -7.9811616    471.45864  0.019363342  0.019250707            1 
 2030000   0.92975195     -7.97255    469.73076  0.019282872  0.019244499            5 
 2031000   0.93771958   -7.9575431    471.27819   0.01933687  0.019238212            5 
 2032000   0.91304624   -7.9933443    469.89418  0.019270595  0.019231865            4 
 2033000    0.9276098   -7.9754897    471.43684   0.01932435  0.019225555            3 
 2034000   0.93174189   -7.9650896    472.07284  0.019340906  0.019219269            2 
 2035000   0.94057185   -7.9818551    471.30089  0.019299791  0.019213034            3 
 2036000   0.94549334   -7.9560949    471.42025  0.019295197  0.019206795            3 
 2037000   0.91389145   -7.9918103    471.51133   0.01928945  0.019200572            3 
 2038000   0.93562164   -8.0015328     471.3359  0.019272812  0.019194322            3 
 2039000   0.92331227   -7.9795642    471.85117  0.019284419  0.019188034            3 
 2040000   0.91510602   -7.9899847    471.30646  0.019252715  0.019181755            6 
 2041000   0.92933044   -7.9784439    472.34382  0.019285637  0.019175465            6 
 2042000   0.92644532    -8.009616    471.24623    0.0192314  0.019169168            3 
 2043000   0.91997072   -7.9872516    472.08984  0.019256398  0.019162817            2 
 2044000   0.91244003   -7.9941948    471.42358  0.019219813  0.019156473            4 
 2045000   0.90702473   -7.9826315    472.37537    0.0192492  0.019150136            5 
 2046000   0.92977137   -8.0051786    471.28956  0.019195567  0.019143854            4 
 2047000   0.92812808   -7.9910016    470.83158  0.019167545  0.019137529            2 
 2048000   0.94365923   -7.9899262    471.30588  0.019177485  0.019131213            3 
 2049000   0.92135717   -8.0055202    471.57406  0.019179033  0.019124921            4 
 2050000   0.91820526   -8.0018353    471.71169  0.019175272  0.019118617            5 
 2051000   0.95257206   -7.9815646    471.39791  0.019153174  0.019112329            2 
 2052000    0.9103881   -7.9785375    472.75651  0.019199013  0.019106062            6 
 2053000   0.91953876    -7.965466    473.79261  0.019231718  0.019099882            4 
 2054000   0.92720376   -8.0224071    472.07452   0.01915265  0.019093604            2 
 2055000   0.92453918   -7.9753825    473.03851  0.019182421  0.019087327            4 
 2056000   0.90976789   -7.9749931    474.16004  0.019218549  0.019081104            4 
 2057000   0.93780054    -8.023924    472.83087  0.019155358  0.019074881            5 
 2058000   0.93907843   -8.0096389    472.23251  0.019121822  0.019068601            4 
 2059000   0.92292068    -8.010339    473.93509  0.019181443  0.019062346            6 
 2060000   0.92769174   -8.0244837    473.03805  0.019135844  0.019056132            3 
 2061000   0.91407052   -8.0038447    473.48654  0.019144693  0.019049919            1 
 2062000   0.90890855   -8.0161099    473.30221  0.019127959  0.019043732            2 
 2063000   0.89336789   -7.9964028    475.10064  0.019191333  0.019037521            3 
 2064000   0.91812699   -8.0378456    473.50151  0.019117471  0.019031278            2 
 2065000   0.93502732   -8.0437274    474.26076  0.019138852   0.01902501            3 
 2066000   0.96462216   -8.0000667    473.53085  0.019100147  0.019018844            3 
 2067000    0.9344657   -8.0154484    474.43589  0.019127394  0.019012664            2 
 2068000   0.89986429    -7.991165    475.57929   0.01916422  0.019006517            4 
 2069000   0.90193203   -8.0204701    474.85773  0.019125895  0.019000329            3 
 2070000   0.92579896   -8.0140645    475.06083  0.019124832  0.018994147            5 
 2071000    0.9466122   -8.0138798    475.25577  0.019123441  0.018987979            1 
 2072000   0.89831303   -8.0120657     474.6789  0.019091011  0.018981803            4 
 2073000   0.91421698   -7.9511348    476.50504  0.019155211  0.018975631            3 
 2074000   0.91337107   -7.9827695    474.19641  0.019053215  0.018969537            2 
 2075000   0.91648941   -8.0261514    475.61431  0.019100976  0.018963414            3 
 2076000   0.89648248   -7.9535268    475.48166  0.019086451  0.018957333            2 
 2077000    0.9103645   -8.0048197    475.68577   0.01908545  0.018951192            4 
 2078000   0.92438397   -8.0065789    475.68258  0.019076138  0.018945122            3 
 2079000   0.92281325   -7.9761432    476.49082  0.019099359  0.018939039            3 
 2080000   0.91710199   -8.0412846    474.75888  0.019020789  0.018932838            2 
 2081000   0.90804162   -8.0059625    475.47669  0.019040393  0.018926659            3 
 2082000   0.92022112   -8.0040386     476.0088  0.019052546  0.018920497            2 
 2083000   0.95645199   -7.9863984     476.4544  0.019061226  0.018914397            4 
 2084000    0.8997666   -7.9740292    476.50847  0.019054242  0.018908297            1 
 2085000   0.92733782    -7.959579    476.09114  0.019028423  0.018902228            5 
 2086000   0.91956843   -7.9830251    476.87331  0.019050548  0.018896093            3 
 2087000    0.9255065   -8.0052626    475.66494  0.018993169  0.018889951            6 
 2088000   0.91345503   -8.0280954    476.06641  0.019000096  0.018883774            2 
 2089000   0.90858817   -8.0251289    476.26318   0.01899885  0.018877577            5 
 2090000   0.92916511   -8.0187447    475.97553  0.018978291  0.018871427            6 
 2091000   0.91779507   -8.0184277    476.50064  0.018990142  0.018865228            2 
 2092000   0.90307324   -8.0346425     474.6559  0.018907581  0.018858944            7 
 2093000   0.93044836   -8.0062145    475.81085  0.018944532  0.018852637            3 
 2094000   0.92146555   -8.0095061    475.46027  0.018921532  0.018846327            5 
 2095000   0.90138627   -7.9995481    475.24523  0.018903947    0.0188401            2 
 2096000   0.91248996   -8.0476064     475.8179  0.018917696  0.018833844            2 
 2097000   0.91646393   -8.0048192    476.89095  0.018951317  0.018827551            2 
 2098000   0.91187359   -8.0111006    477.17306   0.01895349  0.018821256            3 
 2099000   0.92281617   -8.0374451    476.07219  0.018900754  0.018814951            3 
 2100000   0.90351014   -8.0684122    475.51552  0.018869664  0.018808634            6 
 2101000   0.90792328   -8.0584206    476.39106  0.018895409  0.018802304            3 
 2102000   0.90914957   -8.0083234    476.02681  0.018871979   0.01879604            4 
 2103000   0.92283676   -8.0359297    476.21644   0.01887052  0.018789815            3 
 2104000    0.9140347   -8.0261803    476.38939  0.018868401  0.018783622            1 
 2105000   0.89386107   -8.0231496    476.89187   0.01887933  0.018777412            2 
 2106000    0.9283465   -7.9694397    477.63774  0.018899879  0.018771252            3 
 2107000   0.90253361   -8.0129591    476.71775  0.018854522  0.018765056            2 
 2108000    0.8974808   -8.0554068    478.04118  0.018897896  0.018758838            2 
 2109000   0.90780543   -8.0492058    476.30051  0.018820156  0.018752556            6 
 2110000   0.89106758   -8.0055943    478.33243  0.018891486  0.018746305            4 
 2111000   0.92314016   -7.9989447    478.46416  0.018887737  0.018740152            1 
 2112000   0.91257637   -8.0111591    479.97437  0.018938383  0.018734051            7 
 2113000   0.92055645   -8.0096727    477.37121  0.018826755   0.01872788            2 
 2114000   0.90689993   -8.0194871    477.90527  0.018838902  0.018721702            4 
 2115000   0.90863135   -8.0266158    476.96507   0.01879295  0.018715536            3 
 2116000   0.92364909   -8.0065723    478.14428  0.018830509   0.01870935            4 
 2117000   0.90129485   -8.0364041    476.42481  0.018753929  0.018703198            3 
 2118000   0.90652107   -8.0222786     477.7091  0.018795605  0.018696982            4 
 2119000   0.91399608   -8.0537472    477.80039  0.018790325  0.018690815            2 
 2120000   0.93829284   -8.0384353    479.37237  0.018843254  0.018684629            3 
 2121000   0.90440283   -8.0051087    479.00521  0.018819944  0.018678516            1 
 2122000   0.92206341   -7.9968243    478.34822  0.018785274  0.018672403            3 
 2123000   0.89332121   -7.9993582    479.04738  0.018803869  0.018666247            6 
 2124000   0.88366584   -8.0158113    478.56204  0.018775975  0.018660109            1 
 2125000   0.90272315    -8.033287    478.94348  0.018782097  0.018653962            2 
 2126000   0.91959993   -8.0238961    479.24148  0.018784943  0.018647849            9 
 2127000   0.89673967   -8.0216612    480.15509  0.018811906  0.018641752            3 
 2128000   0.91333762   -8.0447728    477.93244  0.018716026  0.018635537            6 
 2129000   0.90861049   -8.0023716    479.09337  0.018752676  0.018629329            2 
 2130000   0.91740856   -8.0546073     478.0395  0.018702641  0.018623138            3 
 2131000   0.91263392   -8.0207007    479.79241  0.018762412  0.018616945            6 
 2132000   0.90998162   -8.0412178    479.99988  0.018761721  0.018610776            2 
 2133000   0.91540908   -8.0046329    480.31203  0.018765121  0.018604638            2 
 2134000   0.92530177   -7.9926978    480.80753  0.018775677  0.018598561            8 
 2135000   0.90708647   -8.0289388    480.33444  0.018748417  0.018592446            2 
 2136000   0.93265449   -8.0227981    479.83052   0.01871998   0.01858634            6 
 2137000   0.90005011   -8.0451655    479.76745   0.01870876  0.018580242           10 
 2138000   0.91703508   -8.0328232    479.86922  0.018703977   0.01857418            5 
 2139000   0.91280992   -8.0376493    479.49188  0.018680531  0.018568124            2 
 2140000   0.92403492   -8.0325492      479.965  0.018690226  0.018561975            1 
 2141000   0.89168197   -8.0382148    479.35505  0.018657755  0.018555788            2 
 2142000    0.9084388   -8.0661886    478.65664  0.018621874  0.018549636            6 
 2143000    0.9123503   -8.0116587    478.88841  0.018622197  0.018543494            5 
 2144000   0.91097226    -8.016176    480.30438  0.018668547  0.018537391            6 
 2145000   0.92145177   -7.9945484    481.44178  0.018704032  0.018531277            3 
 2146000   0.89362917   -8.0177777    479.84305  0.018633234  0.018525128            4 
 2147000    0.8993932   -8.0378199    478.68996    0.0185798  0.018518927            4 
 2148000   0.93716633   -8.0615644    478.84209  0.018577052  0.018512727            2 
 2149000   0.91921751   -8.0434972    479.85936  0.018607855   0.01850651            1 
 2150000   0.90365246   -8.0391875    479.86905  0.018599576  0.018500331            5 
 2151000   0.89131018    -8.029319    481.65554   0.01866014  0.018494209            6 
 2152000   0.90602285   -8.0070574    481.17713  0.018632943  0.018488139            2 
 2153000   0.91181739    -8.044758    481.37683  0.018632018  0.018481972            3 
 2154000    0.9356658   -8.0317212    481.38331  0.018623619  0.018475814            4 
 2155000   0.91452268   -8.0239724    481.81285  0.018631587  0.018469693            2 
 2156000   0.91757045   -8.0412992    481.66301  0.018617154  0.018463589            2 
 2157000   0.90489488   -8.0504427    480.76078  0.018573666  0.018457432            4 
 2158000   0.91225683   -8.0749055    480.67229  0.018561643  0.018451265            4 
 2159000   0.89801205   -7.9967024    482.14022  0.018609704  0.018445221            5 
 2160000   0.91539276    -8.038427    481.07185  0.018559871   0.01843914            3 
 2161000   0.91537728   -8.0415123    481.34086  0.018561656  0.018432993            3 
 2162000   0.91836643   -8.0704593    481.18102  0.018546909  0.018426862            2 
 2163000   0.90226715   -8.0566356     480.9143  0.018528059   0.01842067            2 
 2164000    0.9038034    -8.060096    481.23643  0.018531902  0.018414475            4 
 2165000   0.88654577   -8.0281136    481.73776  0.018542639  0.018408299            3 
 2166000    0.8965513   -8.0282698    481.12747  0.018510598  0.018402122            3 
 2167000   0.91587869   -8.0245891    480.79407  0.018489235  0.018395911            2 
 2168000   0.91393337   -8.0586685    480.65346  0.018475302  0.018389714            5 
 2169000   0.91059985   -8.0727356    481.72457  0.018507937  0.018383495            3 
 2170000   0.90003804   -8.0543413    479.85761  0.018427712  0.018377288            3 
 2171000   0.90118373   -8.0306148    482.65377  0.018526553  0.018371092            3 
 2172000   0.88908639    -8.015646    481.73899  0.018482926   0.01836494            4 
 2173000   0.91357931   -8.0588585    480.90791  0.018442549  0.018358754            4 
 2174000   0.90366541   -8.0614406    480.60819  0.018422577  0.018352575            4 
 2175000     0.895986   -8.0121056    482.13475  0.018472596  0.018346395            4 
 2176000   0.91224967   -8.0317046     482.4076  0.018474556  0.018340199            2 
 2177000   0.90876917   -8.0422842     481.0205  0.018412973  0.018334035            2 
 2178000   0.90470604   -8.0374911    481.46865  0.018421665  0.018327814            2 
 2179000   0.90146802   -8.0402326    481.75484  0.018424156  0.018321624            3 
 2180000   0.91176935   -8.0191735    483.64589  0.018487993  0.018315419            2 
 2181000   0.89546913   -8.0231641    482.03681  0.018418035  0.018309227            1 
 2182000   0.88783129   -8.0340879    481.66579  0.018395424  0.018303025            5 
 2183000   0.88884217   -8.0459171    482.35542  0.018413324  0.018296855            5 
 2184000   0.89641994   -8.0673492    480.87161  0.018348276  0.018290667            7 
 2185000   0.90293993   -8.0372343     482.9772  0.018420183  0.018284469            2 
 2186000   0.89115476   -8.0416225    482.67455  0.018400219  0.018278276            2 
 2187000   0.90694538   -8.0521495    483.12042  0.018408795   0.01827211            4 
 2188000   0.92244614   -8.0593099    482.19709  0.018365215  0.018265921           12 
 2189000   0.90210205   -8.0343082    481.99036  0.018348955  0.018259726            4 
 2190000   0.90028488    -8.030933    482.43841  0.018357626  0.018253537            3 
 2191000   0.89773133   -8.0276119    483.48705  0.018389132  0.018247329            7 
 2192000   0.90353772   -8.0303673    482.59831  0.018346955   0.01824112            5 
 2193000   0.88994452   -8.0818399    481.64727   0.01830245  0.018234885            3 
 2194000    0.9011818   -8.0656616    481.87252  0.018302663  0.018228615            8 
 2195000   0.88470938   -8.0791465    481.30196  0.018272664  0.018222331            4 
 2196000    0.9030623   -8.0563866    482.38433  0.018305416  0.018216065           10 
 2197000   0.91222972   -8.0860179    480.76618  0.018235707  0.018209791            3 
 2198000   0.89535031   -8.0531832    482.73241  0.018301957  0.018203529            6 
 2199000   0.89059192    -8.083508    483.02762  0.018304821   0.01819727            4 
 2200000   0.90390455    -8.093736    481.32398  0.018231969  0.018190991            4 
 2201000   0.91267584   -8.0696583    482.97351  0.018286139  0.018184805            4 
 2202000    0.8859398   -8.0784841    482.55313  0.018261926  0.018178535            4 
 2203000   0.92281134   -8.0991918    483.39473  0.018285472  0.018172269            3 
 2204000   0.89519381    -8.081743    483.46569  0.018279858  0.018166016            4 
 2205000   0.88567772    -8.103057    482.42371  0.018232189  0.018159771            3 
 2206000   0.88422366   -8.0861083    482.17481  0.018214521   0.01815352            3 
 2207000   0.87810727   -8.1205655    483.40224  0.018252614   0.01814729            4 
 2208000   0.89610006    -8.059762    484.29959  0.018278215  0.018141077            2 
 2209000   0.90642467   -8.0711819    482.53318  0.018203304   0.01813486            4 
 2210000   0.87050021   -8.0706125    483.38698  0.018227262  0.018128632            3 
 2211000   0.91940811   -8.0202148    483.42056  0.018220283  0.018122432            4 
 2212000   0.90272186   -8.0272248    484.80839  0.018264331  0.018116276            7 
 2213000    0.9070367   -8.0525193    483.78899  0.018217691  0.018110136            3 
 2214000   0.88985097   -8.0148333    484.98192  0.018254363  0.018103952            3 
 2215000   0.89313288   -8.0581704    484.72078  0.018236297  0.018097809            5 
 2216000   0.90425651   -8.1042011    484.51795   0.01822044  0.018091628            2 
 2217000   0.88834816   -8.0463757    484.80208  0.018222902  0.018085498            3 
 2218000   0.89969981   -8.0548343    485.25785   0.01823181  0.018079384            3 
 2219000   0.88770024   -8.0422945    484.81159  0.018206834  0.018073266            5 
 2220000   0.88864232   -8.0751202    485.59932  0.018228203  0.018067147           10 
 2221000   0.89802814   -8.0783994    484.04777   0.01816178  0.018060987            5 
 2222000   0.91505246   -8.0637952    484.69146  0.018177747   0.01805485            3 
 2223000   0.90021797   -8.0633502    483.72007  0.018133156  0.018048718            3 
 2224000   0.90193322   -8.0431709    485.82586  0.018203907  0.018042584            3 
 2225000   0.89285587   -8.0791963    485.67995   0.01819026  0.018036451            6 
 2226000   0.88244935   -8.0587784    484.58506    0.0181411  0.018030253            3 
 2227000   0.90461279   -8.0896614    484.59468  0.018133314  0.018024104            5 
 2228000   0.90785897   -8.0914316    485.64615  0.018164503  0.018017987            2 
 2229000   0.89828318   -8.0623002    484.78463  0.018124145  0.018011878            3 
 2230000   0.88852616   -8.0685932    485.86048  0.018156221   0.01800576            8 
 2231000   0.90023849   -8.0679161    484.51117  0.018097683  0.017999642            3 
 2232000   0.88186031   -8.0585988    486.29875  0.018156315  0.017993531            7 
 2233000   0.89343182    -8.033218     485.9915  0.018136718  0.017987409            1 
 2234000   0.87817808   -8.0596681    486.83683  0.018160132  0.017981301            4 
 2235000   0.90885155   -8.0494861    488.13611  0.018200452  0.017975259            2 
 2236000   0.87755388   -8.0341124    487.16618  0.018156163  0.017969227            4 
 2237000   0.89123292   -8.0700364    486.35752  0.018117923  0.017963219            2 
 2238000   0.89842056   -8.0613473    487.18095  0.018140488   0.01795719            7 
 2239000   0.89249063    -8.026408    488.97585   0.01819919  0.017951249            6 
 2240000   0.89784223   -8.0524265    486.87459  0.018112894  0.017945319            2 
 2241000   0.88023869   -8.0682399    486.06409  0.018074672  0.017939352            4 
 2242000   0.88667646   -8.1153565    486.44103  0.018080621  0.017933346            2 
 2243000   0.89823012   -8.0904134    487.01105  0.018093738  0.017927337           15 
 2244000   0.88990785   -8.0792499    487.78291  0.018114338  0.017921328            6 
 2245000   0.88430281   -8.1044599    485.59711  0.018025134  0.017915298            2 
 2246000   0.90647198    -8.050672    486.76733  0.018060527  0.017909277            3 
 2247000   0.89212064   -8.0896595    486.99213  0.018060827  0.017903212            3 
 2248000   0.91528652   -8.0786637    486.82732  0.018046683  0.017897142            5 
 2249000   0.89447978   -8.0888802    486.63781  0.018031637  0.017891042            2 
 2250000   0.88409331   -8.0757358    488.27573  0.018084286  0.017884968            4 
 2251000   0.89835737   -8.1115783    486.31489  0.018003661  0.017878932            5 
 2252000   0.89777991   -8.0557066    488.04721  0.018059769  0.017872918            4 
 2253000   0.89343731   -8.1127032    487.74858  0.018040708  0.017866952            4 
 2254000   0.87991327   -8.0778571    487.10144  0.018008779  0.017860916            4 
 2255000   0.89849424   -8.0630184    489.00026  0.018070963  0.017854941            8 
 2256000   0.90471826   -8.1062726    489.13918  0.018068084  0.017848956            2 
 2257000   0.88217651   -8.0875849    487.73447  0.018008214  0.017842939           16 
 2258000   0.90173392   -8.0920576    488.09388  0.018013503  0.017836935            8 
 2259000   0.86678217   -8.1103165    488.12318   0.01800661  0.017830904            3 
 2260000   0.88023762    -8.100432    488.12598  0.017998746  0.017824875            6 
 2261000   0.87245241   -8.0835462    488.74305  0.018013528  0.017818834            7 
 2262000   0.89899281   -8.0646606    488.58761  0.017999838   0.01781285            4 
 2263000   0.89258441   -8.1127877     488.0687  0.017972776  0.017806853            3 
 2264000   0.88236706   -8.0441875    488.26157  0.017971937  0.017800868            5 
 2265000   0.87455725   -8.0557554    489.39196  0.018005591  0.017794885            4 
 2266000   0.92419608   -8.0576595    489.44149  0.017999466  0.017788942            4 
 2267000   0.86671126   -8.0741634    490.45215  0.018028678   0.01778305            3 
 2268000    0.8869814    -8.068185    489.37048  0.017980985  0.017777092            4 
 2269000     0.910167    -8.084258    488.20274  0.017930173  0.017771155            6 
 2270000   0.89124081   -8.0698891    489.56985  0.017972462  0.017765201            6 
 2271000   0.90546419   -8.0652849    489.38093  0.017957615  0.017759266            4 
 2272000   0.87120634   -8.0631167    490.15452  0.017978085  0.017753331            7 
 2273000    0.8754328   -8.0756747    489.79636  0.017957045  0.017747387            5 
 2274000   0.88813552   -8.1022689    489.49486    0.0179381   0.01774141            4 
 2275000    0.8890115   -8.0720751    490.53228  0.017968216  0.017735407            2 
 2276000   0.89512131    -8.091106    488.73186    0.0178944  0.017729414            1 
 2277000   0.88805159   -8.0725748    489.70345    0.0179221   0.01772349            8 
 2278000   0.86985065   -8.1022633    490.04895  0.017926871  0.017717516            3 
 2279000   0.89533454   -8.1025355    488.02712  0.017845075  0.017711533            4 
 2280000   0.87882257   -8.1234629    489.08549  0.017875931    0.0177055            3 
 2281000    0.8986989   -8.0947513    490.52083  0.017920533  0.017699524            5 
 2282000   0.88749425    -8.099066    489.13642  0.017862124  0.017693597            7 
 2283000   0.88392454    -8.072094    490.16839  0.017891969  0.017687686            6 
 2284000   0.88574407   -8.0622878    490.09604  0.017881496  0.017681756            4 
 2285000   0.90971471   -8.0963927     488.9565  0.017832112  0.017675797            1 
 2286000   0.88638826   -8.1087301    489.67688  0.017850572  0.017669886            4 
 2287000   0.89444286   -8.0696158    491.38263   0.01790492  0.017663987            4 
 2288000   0.88866795   -8.1044941    490.81683  0.017876487  0.017658092            4 
 2289000   0.87476112    -8.108218     491.2547  0.017884619   0.01765217            4 
 2290000   0.86398858   -8.0894074    490.11337  0.017835276  0.017646254            5 
 2291000   0.90399199   -8.1027898    490.47065  0.017840486  0.017640314            4 
 2292000   0.88581892   -8.0893841    491.17806  0.017858423  0.017634347            2 
 2293000   0.88145629   -8.0743342    490.51637  0.017826587  0.017628425            2 
 2294000   0.87551952    -8.093008    489.71799  0.017789814  0.017622485            8 
 2295000   0.89125306   -8.0769174    490.97316  0.017827638  0.017616527            4 
 2296000   0.88127542   -8.0455528    491.64286   0.01784418  0.017610604            9 
 2297000   0.89488232   -8.1342618    489.95762  0.017775273  0.017604635            7 
 2298000    0.8788765   -8.1124607    489.67089   0.01775714  0.017598685            5 
 2299000   0.87656672   -8.0805264    491.49334  0.017815475  0.017592748           10 
 2300000   0.87912363    -8.105962    490.75548  0.017780996  0.017586775           12 
 2301000   0.89860921    -8.073679    491.92294  0.017815549  0.017580789            7 
 2302000   0.88892908    -8.124298    490.31002  0.017749422  0.017574853           22 
 2303000   0.86782778   -8.0639749     491.7096  0.017792358  0.017568864           19 
 2304000   0.90300197   -8.0964156    490.78725  0.017751275  0.017562858           15 
 2305000   0.88371766   -8.1034343    490.58148  0.017736135  0.017556853           11 
 2306000   0.88773954   -8.1101103    491.09518  0.017747007  0.017550828           10 
 2307000   0.87665916   -8.1316863     489.1528  0.017669152  0.017544795           27 
 2308000   0.85767813   -8.0802781    491.70446  0.017753627  0.017538811           10 
 2309000   0.88999313   -8.0734204    492.14849  0.017761964   0.01753286           12 
 2310000   0.87063808   -8.0787819    491.47348  0.017729923  0.017526899           25 
 2311000   0.89068492   -8.1479089    490.81155  0.017698383  0.017520925           10 
 2312000   0.88797697   -8.1138513    489.16634  0.017631428  0.017514899           13 
 2313000   0.87199105   -8.0945445    491.14948  0.017695254  0.017508888            4 
 2314000   0.85740556   -8.1064541    490.79713  0.017674918  0.017502952           14 
 2315000   0.89115682   -8.1447123     489.3309  0.017614503   0.01749694            8 
 2316000   0.87405255   -8.1476346    491.06216  0.017669191  0.017490922            3 
 2317000   0.89232447   -8.1219483    490.96503  0.017658072  0.017484891            2 
 2318000   0.87660658   -8.1116309    491.50217  0.017669765  0.017478903            3 
 2319000   0.88232484   -8.1088769    492.19623  0.017687086  0.017472928            3 
 2320000   0.87767632   -8.1138752    491.72574  0.017662563  0.017466942            2 
 2321000   0.87222711   -8.1187957    491.69959  0.017654014  0.017460972            2 
 2322000   0.87939192   -8.1327337    490.93168  0.017618852  0.017454946            4 
 2323000   0.87832773   -8.1393089    490.08539  0.017580908  0.017448969            3 
 2324000   0.88472353   -8.1085756    490.96443  0.017604863  0.017442993            2 
 2325000   0.89499093   -8.1494284     491.0817  0.017601495  0.017436989            2 
 2326000   0.90113245   -8.1156129    491.99096  0.017626503  0.017430983            2 
 2327000   0.88137858   -8.1205128    490.62597  0.017570046  0.017424946            3 
 2328000   0.86299873   -8.1601082    490.91835  0.017572965  0.017418896            3 
 2329000   0.89246335   -8.0927726    491.85431  0.017598909  0.017412863            4 
 2330000   0.88084228   -8.1487367    491.47301  0.017577719  0.017406871            9 
 2331000   0.88038773   -8.1314714     490.6187  0.017539636  0.017400835            5 
 2332000   0.88097915   -8.1292409    491.16996  0.017551814   0.01739482            4 
 2333000   0.87853189   -8.0767488     493.3013  0.017620421  0.017388881            4 
 2334000   0.87921475   -8.0944807    492.79142  0.017594667  0.017382939            3 
 2335000   0.87564567   -8.1305159    492.88978  0.017590642  0.017376993            3 
 2336000   0.88235357   -8.1034536    492.30211  0.017562147  0.017371031            1 
 2337000   0.86096201   -8.1332196     491.3721   0.01752147  0.017365069            4 
 2338000   0.88022843   -8.1353766    491.35208  0.017513262  0.017359093            3 
 2339000   0.88408708   -8.1283385    492.39289  0.017542856   0.01735311            6 
 2340000   0.89835058   -8.1224376    491.51841  0.017504217  0.017347123            2 
 2341000   0.86374575   -8.1328023    491.75006  0.017504986  0.017341151            3 
 2342000   0.87893577   -8.1200366    493.61416   0.01756384  0.017335174            2 
 2343000   0.87104481   -8.1630827    491.71409  0.017488764  0.017329173            6 
 2344000   0.85966854   -8.1545256    491.95702   0.01748994  0.017323145            3 
 2345000   0.87572705   -8.1273012     492.9915  0.017519243  0.017317152            3 
 2346000   0.85930335   -8.1314997    493.00852   0.01751238  0.017311202            2 
 2347000   0.87106875   -8.1778741    493.43666   0.01752012  0.017305282            2 
 2348000    0.8819856   -8.1117539    492.15556  0.017467191  0.017299364            3 
 2349000   0.89238461   -8.0994038    493.65395  0.017512912  0.017293458            5 
 2350000   0.86198069   -8.0850237    494.34008   0.01752979  0.017287587            5 
 2351000   0.87392538    -8.115209    492.86608  0.017470087  0.017281667            5 
 2352000   0.88481473   -8.1190211    492.95527  0.017465819   0.01727576            4 
 2353000   0.86256363   -8.0888693     494.4678  0.017511963  0.017269854            3 
 2354000    0.8683514   -8.1517272    493.14573  0.017457722  0.017263961            3 
 2355000   0.86660409   -8.1421517    492.68153  0.017433883  0.017258025            6 
 2356000   0.88051023   -8.1266407    494.21428  0.017480698  0.017252132            3 
 2357000   0.87888651   -8.1187595    493.39416  0.017444285  0.017246254            7 
 2358000   0.88063718   -8.1140579    494.40189  0.017472501  0.017240361            2 
 2359000    0.8725963   -8.1493174     493.9837  0.017450321  0.017234472            1 
 2360000   0.86913646   -8.1378105    492.45009  0.017388774  0.017228561            4 
 2361000    0.8807214   -8.0970409    494.57166  0.017456292   0.01722268            2 
 2362000   0.85499934   -8.1565846    492.50321  0.017375925  0.017216785            2 
 2363000   0.88065622   -8.1078011    494.55911  0.017441075  0.017210929            2 
 2364000   0.89220273     -8.12543    494.42417   0.01742894  0.017205078            5 
 2365000   0.87560364   -8.1138025    495.05995  0.017443973  0.017199214            2 
 2366000   0.85905948   -8.1378925    495.10834  0.017438304  0.017193337            6 
 2367000   0.87399919   -8.1294363    495.35936  0.017439775  0.017187469            2 
 2368000   0.87706466   -8.1319596     495.9059  0.017451643  0.017181619            3 
 2369000   0.89191901   -8.1521199    494.23873  0.017385631   0.01717575            2 
 2370000   0.87417574   -8.1356315    495.09194  0.017408296  0.017169917            4 
 2371000   0.87228322   -8.1320572    493.18923  0.017334079  0.017164057            3 
 2372000   0.84904622    -8.159152    494.76089  0.017381987  0.017158161            3 
 2373000   0.88071922   -8.1327427    494.43651  0.017363271  0.017152291            3 
 2374000   0.86812042   -8.1211965    494.07897  0.017343407  0.017146432            3 
 2375000   0.88039883   -8.1231511    495.40149  0.017382508   0.01714059            2 
 2376000   0.88086266   -8.1461371      493.885  0.017322005  0.017134698            3 
 2377000   0.84936185   -8.1470893    494.44855  0.017334474  0.017128783            2 
 2378000   0.86531373   -8.1503653     494.5653  0.017331276  0.017122861            2 
 2379000   0.85965578   -8.1113892    494.84698  0.017333858  0.017116973            4 
 2380000   0.86155718   -8.1559064    494.01553  0.017297463  0.017111112            2 
 2381000   0.85802197   -8.1218426    494.57864  0.017309906  0.017105214            6 
 2382000   0.86128771   -8.1577489    494.52281  0.017300686  0.017099315            2 
 2383000   0.89696253   -8.1054201    496.44345  0.017360591   0.01709343            2 
 2384000   0.86060227   -8.1349644    494.48728   0.01728493  0.017087574            5 
 2385000   0.90068484   -8.1507098    495.04294  0.017297098  0.017081706            1 
 2386000   0.87001327   -8.1459299    495.59076  0.017308982  0.017075853            2 
 2387000   0.83697068   -8.1297093    495.21163  0.017288494   0.01706998            8 
 2388000   0.87320714   -8.1187155    494.42875  0.017253935  0.017064079            3 
 2389000    0.8542649   -8.1393969    495.16031  0.017272231  0.017058142            3 
 2390000   0.86651747   -8.1047183    494.48831  0.017241573    0.0170522            5 
 2391000   0.86805023   -8.1523006    494.90625  0.017248928  0.017046288            4 
 2392000   0.87922676   -8.1631074    493.42715  0.017190188  0.017040361            3 
 2393000   0.87272076   -8.1201331    495.69404  0.017261946  0.017034427            3 
 2394000   0.86548135   -8.1273112    495.34844  0.017242705  0.017028546            2 
 2395000   0.87277885   -8.1064901    495.35905  0.017235875  0.017022694            4 
 2396000   0.87847454   -8.1619294     494.7451  0.017207328  0.017016841            2 
 2397000   0.86609787   -8.1719714    495.25368  0.017217831  0.017010979            3 
 2398000   0.86555882   -8.1685711    495.69185  0.017225877   0.01700504           15 
 2399000   0.87077228   -8.1606681    496.05109  0.017231176  0.016999148            8 
 2400000   0.84873039    -8.181391     496.2161  0.017229726  0.016993246            7 
 2401000   0.86482408   -8.1744487     494.8309  0.017174472   0.01698734           14 
 2402000   0.87669987   -8.1374348    494.74804  0.017164448  0.016981458           10 
 2403000   0.85718511   -8.1624076    493.59457  0.017117304  0.016975581            4 
 2404000   0.86446394   -8.1719582    495.45753  0.017174762  0.016969723           15 
 2405000   0.83999754   -8.1701025    495.97661  0.017185607  0.016963854           16 
 2406000    0.8559592   -8.1774311    495.49061  0.017161631  0.016958015            7 
 2407000   0.85980495   -8.1385634    496.72181  0.017197127  0.016952145            2 
 2408000   0.85685661   -8.1628739      496.331   0.01717646    0.0169463           21 
 2409000   0.86111554   -8.1746197    495.78836  0.017150559  0.016940432           16 
 2410000   0.86677406   -8.1218831    497.40377    0.0171993  0.016934576           35 
 2411000   0.85855582   -8.1707796    496.20886  0.017150866  0.016928718           14 
 2412000   0.86507609   -8.1759796    496.45728  0.017152338  0.016922826           32 
 2413000    0.8629462   -8.1441995    496.95993  0.017162589  0.016916921            5 
 2414000   0.86241384   -8.1435244    495.42347   0.01710244  0.016910996           20 
 2415000   0.86980686   -8.1572516    495.64685  0.017103066  0.016905093           26 
 2416000   0.85788812    -8.192359    494.34132  0.017050956  0.016899177           25 
 2417000   0.86547901    -8.160933    496.42653  0.017115795  0.016893236           17 
 2418000   0.86104167   -8.2012193    495.65354  0.017082077   0.01688731           29 
 2419000   0.86269542   -8.1694193    495.02191  0.017053256    0.0168814           18 
 2420000   0.87749939   -8.1293085     497.2404  0.017122603  0.016875489           28 
 2421000   0.86817773   -8.1814515    495.63717  0.017060346  0.016869578           24 
 2422000    0.8735336   -8.1373408    496.28501  0.017075592  0.016863626            6 
 2423000   0.85914241   -8.2036925    495.93355  0.017056457  0.016857699            2 
 2424000   0.89125111   -8.1724393    496.59604  0.017072196  0.016851772            6 
 2425000   0.87468956   -8.1796413    495.99173  0.017044389  0.016845891           18 
 2426000   0.86351506   -8.1694875    496.00761  0.017037909  0.016839993            3 
 2427000   0.86652373   -8.1672562    493.92183  0.016959272  0.016834113            5 
 2428000   0.85859247   -8.1355819    496.27818  0.017033161  0.016828212            5 
 2429000   0.87554754   -8.1330159     495.4063  0.016996236  0.016822327            9 
 2430000      0.86021   -8.1564242    496.94349  0.017041958  0.016816444            4 
 2431000   0.84300861   -8.1554863    496.49645  0.017019623  0.016810556            3 
 2432000   0.84917288     -8.18025    496.11806  0.016999659  0.016804664            9 
 2433000   0.85076602   -8.1351082    496.83836  0.017017343  0.016798815            6 
 2434000   0.85958845   -8.1693964     497.1517   0.01702108  0.016792965            3 
 2435000   0.87925632   -8.1737417    496.50161  0.016991841  0.016787115            9 
 2436000   0.86874597   -8.2005596    497.05186   0.01700369  0.016781242            4 
 2437000   0.85858384   -8.1569811    497.06689  0.016997226  0.016775407            7 
 2438000    0.8640127   -8.1523425    496.87739  0.016983777  0.016769621            6 
 2439000   0.85457096   -8.1584128    498.13753  0.017019869  0.016763837            2 
 2440000   0.86768055   -8.1479335    497.63455  0.016995716  0.016758032            5 
 2441000   0.86663455   -8.2146185    496.97921   0.01696638  0.016752214           13 
 2442000   0.88056286   -8.1672381    497.88567  0.016990365   0.01674639           10 
 2443000    0.8526809   -8.1424308    497.11941  0.016957273  0.016740532            6 
 2444000   0.87145474   -8.1670441    496.65124  0.016934371  0.016734709            3 
 2445000   0.84455917    -8.137991    498.84292  0.017002145  0.016728902            3 
 2446000   0.85931614   -8.1353016    497.23769  0.016940504  0.016723121            2 
 2447000   0.85077716   -8.1591052    497.30622  0.016935916  0.016717304            2 
 2448000   0.86665426   -8.1358231    498.63854  0.016974351  0.016711479            3 
 2449000   0.86537131   -8.1705195    498.31974  0.016956572  0.016705638            6 
 2450000    0.8497439   -8.1998415    496.39857  0.016884305  0.016699797            6 
 2451000   0.85303834   -8.1435689    498.24847  0.016940313   0.01669395            4 
 2452000    0.8631279   -8.1908328    497.49451   0.01690778   0.01668811            4 
 2453000   0.84936082   -8.2068874    496.69791  0.016873825  0.016682232            5 
 2454000   0.86314405   -8.1666681    497.79254   0.01690412  0.016676368            2 
 2455000   0.85428361   -8.2065509     496.8693  0.016865896  0.016670483            4 
 2456000   0.85063464   -8.1751965    497.57001  0.016882804  0.016664604            8 
 2457000   0.85697522   -8.1714733    498.61848  0.016911494  0.016658725            4 
 2458000   0.84847262   -8.1453624    498.04309  0.016885106  0.016652918            3 
 2459000   0.85061894   -8.1672718    497.36419  0.016855232  0.016647123            8 
 2460000   0.85835932   -8.1582657    497.95754   0.01686848  0.016641296            2 
 2461000   0.85112808   -8.1630611    499.29612  0.016906953  0.016635488            6 
 2462000    0.8648441   -8.1535838    498.59492  0.016876351  0.016629665            3 
 2463000    0.8554227   -8.1964563    497.08313  0.016818349  0.016623825            4 
 2464000   0.84940567   -8.1543883    499.70209  0.016900098  0.016617982            3 
 2465000   0.87069274   -8.1563116    498.45693  0.016851147  0.016612163            3 
 2466000   0.86756824   -8.1534023    498.29032  0.016838683  0.016606332            2 
 2467000   0.85151304   -8.1506046    499.53716  0.016873975  0.016600531            1 
 2468000   0.85663349   -8.1489835    499.47284  0.016864966  0.016594737            6 
 2469000   0.84387643   -8.1564558    498.43663  0.016823162  0.016588913            3 
 2470000   0.87091251   -8.1568303    498.14487  0.016806507  0.016583104            7 
 2471000   0.86945022   -8.1505315    500.00987  0.016862602  0.016577336            2 
 2472000   0.85820658   -8.1580344    500.31827  0.016866177  0.016571566            3 
 2473000   0.86040918   -8.1758329    498.43239  0.016795808   0.01656578            2 
 2474000   0.85821981   -8.1946691    497.61857  0.016761606  0.016559961            7 
 2475000   0.88326468   -8.2299893    497.18202  0.016740135  0.016554113            3 
 2476000   0.85885785   -8.1793227    498.79989  0.016787826  0.016548242            3 
 2477000   0.87531742    -8.217282    499.03688  0.016789022  0.016542415            4 
 2478000   0.85081595   -8.1812979    498.97844  0.016780281  0.016536587            6 
 2479000   0.85867212   -8.1741948    498.58521  0.016760293   0.01653078            4 
 2480000   0.85332682   -8.1961465    498.34389  0.016745426  0.016524938            3 
 2481000    0.8489425   -8.1771212    498.28135  0.016736576  0.016519125            9 
 2482000   0.86115454   -8.1738384    498.89993  0.016750602  0.016513295            7 
 2483000   0.86192851   -8.1846678      499.127  0.016751477  0.016507476            2 
 2484000   0.84121539   -8.1788579    498.64344  0.016728511  0.016501639            4 
 2485000   0.84363534   -8.1685251    497.77124   0.01669253  0.016495827            4 
 2486000   0.87283655   -8.1873298     498.2371  0.016701431  0.016490051            5 
 2487000   0.84900876   -8.2239986    497.85951  0.016682064  0.016484243            2 
 2488000   0.84886461   -8.1848798    498.57379  0.016699283  0.016478388            8 
 2489000   0.84554537   -8.1802185    499.09494  0.016710022  0.016472563            5 
 2490000    0.8485626   -8.1830205    498.36415  0.016678854  0.016466725            3 
 2491000   0.85427095    -8.205019    499.05718  0.016695343  0.016460911            9 
 2492000   0.86092531    -8.218377    499.52046  0.016704135  0.016455034           10 
 2493000   0.84790482   -8.2019525    498.65875   0.01666863   0.01644917            8 
 2494000    0.8540476   -8.2066228    498.04934  0.016641585  0.016443313            3 
 2495000   0.85128386    -8.214925    497.04324  0.016601311  0.016437412            3 
 2496000   0.85374132   -8.2065876    498.52675  0.016644189  0.016431556            2 
 2497000   0.86595929   -8.1925846    499.33983  0.016664659  0.016425707            3 
 2498000   0.86242517   -8.2185811    498.74978  0.016638303  0.016419843            6 
 2499000   0.85405295   -8.1694366    500.29807  0.016683276  0.016413994            6 
 2500000   0.85759921   -8.1683325    499.81225  0.016660408  0.016408166            8 
 2501000    0.8655399   -8.2046197    499.34619  0.016638218  0.016402341            6 
 2502000   0.84350286   -8.2105109    498.27667  0.016595946  0.016396534            2 
 2503000    0.8517049   -8.1956886    501.12731  0.016684223  0.016390737            4 
 2504000   0.85827369   -8.1941988    499.88182   0.01663611  0.016384965            2 
 2505000   0.85592647   -8.2102788    499.54662  0.016618317  0.016379189            4 
 2506000   0.85918844   -8.1974186    498.93644  0.016591395  0.016373388            6 
 2507000   0.85483734   -8.1688391    500.49685  0.016636646  0.016367567            3 
 2508000   0.84064568    -8.214335    499.46859  0.016595846  0.016361765            3 
 2509000     0.835436   -8.1948581    499.82353  0.016601021  0.016355955            2 
 2510000   0.85461115   -8.1937296    499.96877  0.016599229  0.016350147            6 
 2511000   0.83874231   -8.2146629     498.7986  0.016553783  0.016344307            1 
 2512000   0.83392358   -8.2204574    499.75564  0.016578942  0.016338497            7 
 2513000   0.82570736   -8.2092824    498.72202   0.01653807  0.016332696            5 
 2514000     0.854365   -8.2357181     500.1696  0.016579475  0.016326881            6 
 2515000    0.8561576   -8.1828719    500.15326  0.016572341  0.016321077            3 
 2516000   0.83774877   -8.2701152    499.37722  0.016540051  0.016315257            4 
 2517000   0.85604808   -8.2053163    500.52914  0.016571618   0.01630946            2 
 2518000   0.85161219   -8.1930548    500.60039  0.016567395  0.016303732            5 
 2519000   0.86369068   -8.1718344    501.07789  0.016576614  0.016297977            3 
 2520000   0.82978093   -8.2084289    500.06596  0.016536573  0.016292216            5 
 2521000   0.84789842   -8.1847748    500.81745  0.016554854   0.01628647            3 
 2522000    0.8474487   -8.1824565    500.49012  0.016537474   0.01628072            4 
 2523000   0.83791139   -8.2035594    502.05928  0.016582748  0.016274959            3 
 2524000   0.83163608   -8.1664252    500.01393  0.016508648  0.016269226            4 
 2525000   0.83179097   -8.1637517    501.56289  0.016553231   0.01626347            8 
 2526000   0.84078959   -8.1797038    501.60563  0.016548088  0.016257749            6 
 2527000   0.85093917   -8.1947194    501.26645  0.016530354   0.01625202            6 
 2528000   0.84827366   -8.1972093    500.84382  0.016509883   0.01624624            9 
 2529000   0.84694146   -8.2163299    498.66447  0.016431543  0.016240463            5 
 2530000   0.85041814   -8.1999485     501.3299  0.016512843  0.016234676           10 
 2531000    0.8388826   -8.2301653    500.49444  0.016478811  0.016228887           18 
 2532000   0.84296019   -8.2206769    501.12995  0.016493218  0.016223079           22 
 2533000   0.85747224   -8.2117955    499.84648  0.016444482  0.016217274           21 
 2534000   0.83461288   -8.2370731    500.36494  0.016455043  0.016211513           15 
 2535000   0.84790981   -8.2159751    499.98969  0.016436216  0.016205735           20 
 2536000   0.83712782    -8.194093    501.77519  0.016488407  0.016199992            7 
 2537000   0.84235633   -8.2193797    500.53159  0.016441059  0.016194229           12 
 2538000   0.84436347   -8.2312429    500.43292  0.016431341  0.016188483            6 
 2539000   0.83879143   -8.2444497    501.08113  0.016446144  0.016182741            1 
 2540000   0.85499748   -8.2071886    501.86876  0.016465511  0.016176995            2 
 2541000   0.82716685   -8.1749904    502.16339  0.016468693   0.01617129            2 
 2542000   0.85533347     -8.21187    501.04814  0.016425654  0.016165611            3 
 2543000   0.84618651    -8.210887    501.20795  0.016424432  0.016159876            3 
 2544000   0.85231091   -8.2390903    499.34071   0.01635681  0.016154129            2 
 2545000   0.85535748   -8.2563236     500.4534  0.016386817  0.016148394            8 
 2546000   0.84312812   -8.2107031    502.36618  0.016442988  0.016142686            4 
 2547000   0.83837209   -8.2052002    501.00045  0.016391848  0.016136984            4 
 2548000   0.84584968   -8.2355395    501.25926  0.016393879  0.016131237            3 
 2549000   0.83926387    -8.251118    500.65093   0.01636756  0.016125486            4 
 2550000   0.84390094   -8.2167838    499.74838  0.016331646   0.01611974            3 
 2551000   0.86405933   -8.2131341     500.3349  0.016344404  0.016113963            8 
 2552000   0.82892598   -8.2275646    500.77571  0.016352394  0.016108202            2 
 2553000     0.838898   -8.2212939    501.94747  0.016384237   0.01610246            3 
 2554000   0.85275723   -8.2465792    500.82937  0.016341339  0.016096695           17 
 2555000     0.849281   -8.2299149     501.8009  0.016366631   0.01609094            5 
 2556000   0.82637475   -8.2282268    501.50559    0.0163506  0.016085171            6 
 2557000   0.85185513   -8.1975437    501.87412  0.016356216   0.01607943            6 
 2558000   0.85450417    -8.233217    501.17496  0.016327044  0.016073687            6 
 2559000   0.83288693    -8.238573    500.25022   0.01629055  0.016067919            6 
 2560000     0.824025   -8.2327945    501.38521  0.016321133  0.016062149            6 
 2561000   0.84130667   -8.2204233    500.63836  0.016290458  0.016056384            2 
 2562000   0.83092631   -8.2386978    501.51815  0.016312716  0.016050639            4 
 2563000   0.84941944   -8.2151361    501.84531  0.016316989  0.016044891            4 
 2564000   0.85093799   -8.2328328    501.82418  0.016309938  0.016039154            6 
 2565000   0.85195995   -8.2508354    501.61661  0.016296836  0.016033419            6 
 2566000    0.8511161   -8.2193948    502.19343  0.016309218  0.016027758            5 
 2567000   0.86045755   -8.2292542    501.86234  0.016292116  0.016022021            2 
 2568000   0.84896786   -8.2495146    501.77219  0.016282846  0.016016333            7 
 2569000   0.84040173   -8.2337465    502.22507  0.016291199  0.016010628            3 
 2570000   0.83767732   -8.2489844    501.49379  0.016261148  0.016004896            8 
 2571000   0.85306366   -8.2393759     501.3809  0.016251164   0.01599917            3 
 2572000   0.84076443    -8.202411    502.80313  0.016290926  0.015993455            4 
 2573000   0.83830298   -8.1996921    502.27306  0.016267426  0.015987765            3 
 2574000   0.84383082   -8.2277995    502.91442  0.016281871  0.015982086            5 
 2575000   0.84051745   -8.2254902    502.61628  0.016265899  0.015976388            3 
 2576000   0.82459612   -8.2520797    502.62168  0.016259759  0.015970695            4 
 2577000   0.84417499   -8.2080389     502.4124  0.016246682  0.015965017            3 
 2578000   0.83462435   -8.2572976    501.85791  0.016222456  0.015959331            3 
 2579000   0.82248213   -8.2360165    502.81911  0.016247225  0.015953659            4 
 2580000   0.84010885   -8.2377708    503.04459   0.01624821  0.015947964            8 
 2581000   0.83957496   -8.2284698    502.10033  0.016211427  0.015942262           10 
 2582000   0.84764193   -8.2780698    501.59224   0.01618875  0.015936554            4 
 2583000   0.84264521   -8.2596922    502.09623  0.016198743  0.015930861           14 
 2584000   0.83987669   -8.2212626    503.78268  0.016246862  0.015925199            7 
 2585000   0.83530817   -8.2259236    501.93135  0.016180895  0.015919506           17 
 2586000   0.83049653   -8.2461127    502.14344  0.016181472  0.015913821            5 
 2587000   0.83405869   -8.2673618    502.68908  0.016192794  0.015908142            7 
 2588000   0.82424607   -8.2454584    503.09905  0.016199738  0.015902465            6 
 2589000   0.83384058   -8.2429385    502.29541  0.016167613  0.015896768            2 
 2590000   0.83442132   -8.2426761     502.6668   0.01617332  0.015891111           21 
 2591000   0.84243211   -8.2162445    502.78133  0.016170762  0.015885474           15 
 2592000   0.84338294   -8.2330183    502.48116  0.016154873   0.01587981            6 
 2593000   0.84620438   -8.2261337    503.45394  0.016179906  0.015874167            4 
 2594000   0.81576652   -8.2190604    504.73981  0.016214977  0.015868499            6 
 2595000   0.82787893   -8.2667323    502.91186  0.016150028  0.015862848            4 
 2596000   0.83808858   -8.2230094    502.90605   0.01614362   0.01585722            5 
 2597000   0.80648445   -8.2353825    503.74421  0.016164299  0.015851611            5 
 2598000   0.85500797   -8.2320935    503.84067  0.016161171  0.015846011           12 
 2599000   0.82868585   -8.2661303    502.75338   0.01612009  0.015840407            4 
 2600000   0.82098039    -8.277186    502.82786  0.016116278   0.01583476            9 
 2601000   0.83449584   -8.2551396    503.50977  0.016131929  0.015829092           19 
 2602000   0.83966096   -8.2133585     504.6713  0.016162929  0.015823456            5 
 2603000   0.84641322   -8.2360427    503.85087  0.016130454  0.015817846            7 
 2604000   0.81549843   -8.2262976    503.74608  0.016120906  0.015812238            8 
 2605000   0.83648814   -8.2481987    504.05474  0.016124592  0.015806623            7 
 2606000   0.82447932    -8.243075    502.94244  0.016082836  0.015801024            6 
 2607000   0.83826867   -8.2576216    504.00304  0.016110569  0.015795406            6 
 2608000   0.82727733   -8.2467238    504.57292  0.016122601  0.015789789            8 
 2609000   0.82358663   -8.2564347    503.21277  0.016072977  0.015784152            3 
 2610000   0.84452422   -8.2317339    503.83636  0.016086729  0.015778543            9 
 2611000   0.84298117    -8.265258    503.53869  0.016071067  0.015772952            7 
 2612000   0.84127419   -8.2655728    503.48564  0.016063222  0.015767302            6 
 2613000    0.8218915   -8.2833995    504.09268  0.016076435  0.015761651            8 
 2614000   0.82011042   -8.2587143    503.57705  0.016053846  0.015755989            3 
 2615000   0.84176535    -8.280237    503.18009  0.016035057  0.015750333            3 
 2616000   0.82301653   -8.2428689    505.23117  0.016094265  0.015744701            3 
 2617000   0.82127123   -8.2769676    503.65211  0.016037833  0.015739082            3 
 2618000   0.84589824   -8.2337649    503.35597  0.016022281   0.01573347            4 
 2619000   0.82409173   -8.2320139    503.91765  0.016034035  0.015727883            3 
 2620000   0.83826493   -8.2700457    503.77074  0.016023242  0.015722253            3 
 2621000   0.83423047   -8.2230769    505.79329  0.016081435  0.015716657            3 
 2622000   0.83437712   -8.2336907    503.68681  0.016008353  0.015711051            6 
 2623000   0.83100627    -8.258279    504.30366  0.016021847  0.015705442            6 
 2624000   0.83293473   -8.2438608     502.9713  0.015973428  0.015699856            6 
 2625000   0.85525106   -8.2695435    504.22831  0.016007248  0.015694246            2 
 2626000   0.84091388   -8.2615294    504.65096  0.016014565  0.015688639            2 
 2627000   0.83444793   -8.2679165     504.1142  0.015991442   0.01568302            5 
 2628000   0.83269472   -8.2481525    504.38888  0.015994066  0.015677412            4 
 2629000    0.8301998   -8.2537139    503.96346  0.015974498  0.015671821            5 
 2630000   0.79566268   -8.2455305     503.8171  0.015963787  0.015666235            6 
 2631000   0.83451526   -8.2502614    505.15632  0.016000137   0.01566064            8 
 2632000   0.82093818   -8.2379082    506.05794  0.016022605  0.015655085            3 
 2633000   0.84496164   -8.2521874    505.76091  0.016007118  0.015649501            3 
 2634000   0.82583029   -8.3047258    504.24483  0.015953076    0.0156439            3 
 2635000   0.83135147   -8.2828583    503.30045  0.015917155   0.01563826            4 
 2636000   0.82603209   -8.2916574    503.24471  0.015909355  0.015632619            4 
 2637000   0.81190271   -8.2599407    503.34846    0.0159066  0.015626998            6 
 2638000   0.85162908   -8.2398867     504.5575  0.015938763  0.015621399            4 
 2639000   0.82424997   -8.2642727    504.32753  0.015925462  0.015615833            8 
 2640000   0.83226816   -8.2166383    506.34064  0.015982975  0.015610267            4 
 2641000   0.81111906   -8.2342794    505.65818  0.015955389   0.01560468            4 
 2642000   0.82763001   -8.2755139    504.90226  0.015925507  0.015599109            6 
 2643000   0.82759062    -8.281147    505.33085  0.015932994  0.015593537            6 
 2644000    0.8185131   -8.2631044    504.22795  0.015892207  0.015587948            7 
 2645000   0.83709955   -8.2803995    505.00239  0.015910598  0.015582358            2 
 2646000   0.82163816   -8.2952296    504.88016  0.015900736  0.015576778            4 
 2647000   0.82526467   -8.2695238    504.70956  0.015889358  0.015571193           12 
 2648000   0.83149624   -8.2416928    504.86803  0.015888344   0.01556563           10 
 2649000   0.83244298   -8.2539213    505.81315  0.015912078  0.015560086           15 
 2650000   0.81179422   -8.2791865    505.66476  0.015901407   0.01555453           10 
 2651000   0.82378401   -8.2544779    505.45489  0.015888812  0.015548981            8 
 2652000   0.81752878   -8.2781554    504.55234   0.01585446  0.015543446           15 
 2653000   0.83059242   -8.2408526    505.43753  0.015876289  0.015537937            5 
 2654000   0.83810593    -8.267811    505.96184   0.01588677  0.015532417            3 
 2655000   0.83348475   -8.2256164    506.92748  0.015911095  0.015526916            6 
 2656000   0.81599348    -8.215174    506.78484  0.015900629  0.015521463            5 
 2657000   0.81539606   -8.2660088    505.46297  0.015853186  0.015515986            4 
 2658000   0.82626667   -8.2619848    505.72814  0.015855535  0.015510465            2 
 2659000   0.83250857   -8.2637134    505.55572  0.015844168  0.015504925            3 
 2660000   0.82287085   -8.2918417     505.4521  0.015834966  0.015499371            6 
 2661000    0.8070328   -8.2792912    505.86682  0.015842002   0.01549383            3 
 2662000   0.80000666   -8.2776048    504.85995  0.015804531  0.015488299            2 
 2663000   0.81557036   -8.2742229    506.94167   0.01586374  0.015482776            6 
 2664000   0.82650487   -8.2530662    505.91311   0.01582561  0.015477257            4 
 2665000   0.81920054   -8.2798505    505.52246  0.015807456  0.015471765            3 
 2666000   0.82529909   -8.2981431    506.11647  0.015820095  0.015466257            4 
 2667000   0.83503805   -8.2790945    505.45197    0.0157934  0.015460728            5 
 2668000   0.82650164   -8.3139034     503.2696  0.015719315  0.015455185            7 
 2669000   0.81807456   -8.2941436    505.39882  0.015779906  0.015449644            9 
 2670000    0.8232979   -8.2655083    506.22946  0.015799921  0.015444136           10 
 2671000   0.83029086   -8.2992449    505.27987  0.015764379  0.015438625            5 
 2672000   0.84372665   -8.2630628    505.42529  0.015763014  0.015433094            4 
 2673000   0.82193184   -8.2742707    506.68687  0.015796448  0.015427573            2 
 2674000   0.82747714   -8.2719915    507.09422  0.015803235  0.015422048            4 
 2675000   0.83615633   -8.2723072    505.72714   0.01575474  0.015416514            7 
 2676000   0.83114049    -8.291432    505.70837  0.015748267  0.015410968            6 
 2677000   0.83328109    -8.315721    505.63776  0.015740187  0.015405424           10 
 2678000   0.82811615   -8.2476995    505.93286  0.015743492  0.015399898            3 
 2679000   0.83052201   -8.2838406    505.16891  0.015713852  0.015394366            2 
 2680000   0.82198272   -8.2755265    506.56099  0.015751275  0.015388847            5 
 2681000   0.82064157   -8.2826724      506.251  0.015735764  0.015383343            2 
 2682000   0.81988725   -8.2806986    505.91763  0.015719539  0.015377811            6 
 2683000   0.81587538   -8.2752897    506.50742  0.015731998  0.015372311            2 
 2684000   0.84373885   -8.2683038    506.29574  0.015719565  0.015366794            4 
 2685000   0.82455073   -8.2807071    505.07786  0.015675911  0.015361284            2 
 2686000   0.80556487   -8.2722163    505.77992  0.015691856  0.015355753            4 
 2687000   0.81042831   -8.2687885    507.96917  0.015753913  0.015350276            6 
 2688000    0.8303804   -8.2861844    506.22671  0.015694032  0.015344806            7 
 2689000   0.82721042   -8.2689301    505.11669  0.015653796  0.015339317            5 
 2690000   0.81389212   -8.2460648    506.56941   0.01569298  0.015333836            2 
 2691000   0.83953948   -8.2644855    506.58076    0.0156875  0.015328333            4 
 2692000   0.82423933   -8.2932716    505.68381  0.015653907  0.015322847            5 
 2693000    0.8257528   -8.2423676     506.6575  0.015678225  0.015317345            3 
 2694000   0.80249855    -8.269861    508.11502   0.01571749  0.015311866            4 
 2695000   0.80538805   -8.2842025    507.32958  0.015687371  0.015306384            9 
 2696000   0.82277252   -8.2544261    507.57118   0.01568902  0.015300914            5 
 2697000    0.8102714   -8.2767132    506.41583  0.015647504  0.015295448            8 
 2698000   0.82888093   -8.2705348    507.48537   0.01567474  0.015289994            3 
 2699000   0.81433503   -8.3126477    506.06831  0.015625179   0.01528451            2 
 2700000    0.8314108   -8.2819921    506.36107  0.015628428  0.015279031            4 
 2701000   0.82291916    -8.297759     507.0138   0.01564278  0.015273569            4 
 2702000   0.81462312   -8.2557083    507.25655  0.015644478  0.015268122            3 
 2703000   0.80361867   -8.2550223    508.33922  0.015672069  0.015262723            3 
 2704000   0.82174206   -8.2457625    507.06093  0.015626878  0.015257314            3 
 2705000   0.82219077   -8.2685369    507.42482  0.015632311  0.015251903            6 
 2706000   0.82440281   -8.2750926    507.37716  0.015625066  0.015246505            3 
 2707000   0.82137516    -8.259534    508.18385  0.015644128  0.015241083            5 
 2708000   0.81670981   -8.2856047    506.57859  0.015588952  0.015235643            4 
 2709000    0.8187099   -8.2811621    507.18178  0.015601753  0.015230213            4 
 2710000    0.8230296   -8.3111575    506.68556  0.015580737  0.015224788            7 
 2711000   0.81894811   -8.3079039    506.98522  0.015584201  0.015219326            6 
 2712000    0.8186482   -8.3069039    506.87815  0.015575164  0.015213897            5 
 2713000   0.81822507   -8.2998518    507.81228  0.015598116  0.015208458            1 
 2714000   0.81311345   -8.3080817    506.97837  0.015566764  0.015203031            5 
 2715000   0.82674947   -8.3068793    507.86867  0.015588357   0.01519759            6 
 2716000   0.79906557   -8.3023919    506.50327  0.015540724  0.015192127            5 
 2717000   0.81530763   -8.3105899    508.09859  0.015583934  0.015186688            3 
 2718000   0.83600054   -8.2964554    507.04281  0.015545831  0.015181274            3 
 2719000   0.81114878   -8.3045511     507.8972  0.015566299  0.015175864            8 
 2720000    0.8190633   -8.2845562    507.42239  0.015546029  0.015170446            5 
 2721000   0.81410002    -8.310008    507.95616  0.015556663  0.015165053            2 
 2722000   0.81375459   -8.3128829    509.33543  0.015593174  0.015159661            4 
 2723000   0.78675365   -8.2993069    506.44485  0.015498986  0.015154269            3 
 2724000   0.81466413   -8.2889012    507.73235  0.015532683  0.015148895            2 
 2725000   0.81025488   -8.2741125     509.2962  0.015574807  0.015143541            1 
 2726000   0.82213242   -8.2779782    508.50052   0.01554477  0.015138214            4 
 2727000   0.81456738    -8.294559    508.32354  0.015533661  0.015132868            5 
 2728000   0.81774392   -8.2965256    508.75944  0.015541283  0.015127517            4 
 2729000   0.80864444   -8.2892353    509.25432    0.0155507  0.015122181            3 
 2730000   0.79931601   -8.2933701    509.71256  0.015558991  0.015116864            2 
 2731000   0.80242409   -8.2804742    509.07643  0.015533884  0.015111536            2 
 2732000   0.81785179   -8.2603611    509.16458  0.015530887   0.01510621            3 
 2733000   0.81322916   -8.3175631    508.27527  0.015498087   0.01510089            4 
 2734000   0.82952552   -8.2839787    510.06134  0.015546859  0.015095575            8 
 2735000    0.8200548   -8.2698688    509.95498  0.015537934  0.015090272            2 
 2736000   0.79456934   -8.3029128    508.68028   0.01549343  0.015084992            1 
 2737000   0.79796203   -8.2981835    510.88153   0.01555479  0.015079709            5 
 2738000   0.81806081   -8.2906298    510.33993  0.015532625  0.015074456            3 
 2739000   0.82764143   -8.2849927    510.66433  0.015536824  0.015069173            6 
 2740000   0.83051655   -8.2993113    510.05787  0.015512709  0.015063884            5 
 2741000   0.80790426   -8.3050276    509.15709  0.015479663  0.015058589            4 
 2742000   0.82197787   -8.2997888     509.4595  0.015483209  0.015053279            1 
 2743000   0.82309078   -8.2933386    509.38886  0.015475418  0.015047955            3 
 2744000   0.81773707   -8.3127553    510.11751  0.015491907  0.015042635            5 
 2745000   0.81359202   -8.3021357    509.74212  0.015474867  0.015037293            7 
 2746000   0.81674928   -8.3308291    508.23198  0.015423403  0.015031929            6 
 2747000   0.80137072   -8.3062214    509.32942  0.015451081  0.015026598            4 
 2748000   0.80982708   -8.3221554    509.07665  0.015437793   0.01502127            3 
 2749000   0.80547201   -8.3542865    509.70305  0.015451166  0.015015941            4 
 2750000   0.81143319   -8.2990042    510.11601  0.015458061  0.015010628            4 
 2751000   0.79787556   -8.3330748    510.04692  0.015450349  0.015005324            7 
 2752000   0.81307866   -8.2906128    509.37804  0.015424481  0.014999987            2 
 2753000   0.81693998   -8.3199604    509.18568  0.015413055   0.01499463            4 
 2754000   0.80927896   -8.3294102    509.19573  0.015407762  0.014989312            4 
 2755000   0.80937538    -8.322343     509.1685  0.015401346  0.014983988            3 
 2756000   0.80046138   -8.3030816    508.91303  0.015388033  0.014978652            5 
 2757000   0.78960879   -8.3354097    509.12907  0.015388982  0.014973318            4 
 2758000    0.8035842   -8.3309186    508.40434  0.015361504  0.014967984            3 
 2759000   0.81682401   -8.3261306    508.46465  0.015357758  0.014962621            2 
 2760000    0.8063126   -8.3100603    509.66162  0.015388334  0.014957283            2 
 2761000   0.81670959    -8.329027    508.92861  0.015360637  0.014951931            2 
 2762000   0.81583355   -8.3452073    508.68469  0.015347716  0.014946583            3 
 2763000   0.82714922   -8.3355927    509.49224  0.015366517  0.014941244            5 
 2764000   0.80035794   -8.3234836    510.25453   0.01538394  0.014935921            2 
 2765000   0.81543483   -8.3355749    510.32938  0.015380632  0.014930612            3 
 2766000    0.8052014   -8.3421517    509.87218  0.015361297  0.014925265            6 
 2767000   0.79653548   -8.3096433    509.71527   0.01535102  0.014919952            3 
 2768000   0.80002797   -8.2981829    510.59726  0.015372027  0.014914658            4 
 2769000   0.80101298   -8.3522343    508.79357  0.015312194  0.014909375            3 
 2770000   0.80830088   -8.3294058    509.31598  0.015322382  0.014904053            8 
 2771000   0.78933521   -8.3124026    510.55386   0.01535408  0.014898741            7 
 2772000   0.80749352   -8.3004753    510.63019  0.015350836  0.014893438           15 
 2773000   0.81697801   -8.3043627    510.24441  0.015333706  0.014888128           29 
 2774000   0.81671572   -8.3083183    510.17278  0.015326027  0.014882833           19 
 2775000   0.81259024   -8.2894328     510.4563  0.015329018  0.014877542           20 
 2776000   0.82327776   -8.2935455    510.77702  0.015333124  0.014872265            4 
 2777000   0.80920952   -8.3410413    508.66716  0.015264289  0.014866984            3 
 2778000   0.79750453   -8.2807267    510.53001  0.015314675  0.014861708            6 
 2779000   0.80980898   -8.3028903    510.15229  0.015297838  0.014856425            4 
 2780000   0.80367109   -8.3144359    510.13989  0.015291963  0.014851135            5 
 2781000   0.78041633   -8.3153305    510.04442  0.015283604  0.014845858            5 
 2782000   0.80461151   -8.3205608    509.19107  0.015252548  0.014840576            6 
 2783000   0.78274183   -8.3056634     509.9094  0.015268577  0.014835256            5 
 2784000   0.80215624   -8.3054555    508.98994  0.015235571  0.014829933            3 
 2785000   0.81236146   -8.2904468    509.84248   0.01525561  0.014824638            5 
 2786000   0.80814867   -8.3104366    510.88288  0.015281254  0.014819355            2 
 2787000   0.80992463   -8.3025987    510.69163  0.015270052  0.014814073            7 
 2788000   0.81521087   -8.2940502    511.07463  0.015276023  0.014808806            5 
 2789000   0.81245894   -8.3173877    510.37658  0.015249689  0.014803555            2 
 2790000   0.80894373    -8.291526    511.41687  0.015275295    0.0147983            6 
 2791000   0.79283064   -8.3288552    510.16567  0.015232464  0.014793048            7 
 2792000   0.79731162   -8.3199676    510.10633  0.015225237  0.014787777           10 
 2793000   0.80699783   -8.2883289    510.95026  0.015244965  0.014782516            3 
 2794000   0.81667386   -8.3465573    510.09628  0.015214038  0.014777263            5 
 2795000   0.80252103    -8.316716     510.1152  0.015209159  0.014772011            8 
 2796000   0.81186042   -8.3278631     510.0557  0.015201946  0.014766747            3 
 2797000   0.80460399   -8.3446285    509.87723  0.015191194  0.014761477            9 
 2798000   0.81495396   -8.3575247    510.11706  0.015192907  0.014756199            5 
 2799000   0.80522353   -8.3257556    510.62883  0.015202716  0.014750919            9 
 2800000   0.82031262   -8.3403261      510.864  0.015204286  0.014745664            6 
 2801000   0.79822751   -8.3085293    510.53736   0.01518914  0.014740402            2 
 2802000   0.79566229   -8.3559644    510.34415  0.015177973  0.014735146           12 
 2803000   0.79286797   -8.3669761     509.1764   0.01513784  0.014729881            6 
 2804000    0.8082352   -8.3598424    510.04542  0.015158269   0.01472461            4 
 2805000   0.80745976   -8.3348665    510.65912  0.015171097  0.014719326            7 
 2806000   0.80408503   -8.3154986    510.68395  0.015166428  0.014714067            7 
 2807000   0.80028784   -8.3252071     510.2223  0.015147319  0.014708796            6 
 2808000   0.79591459   -8.3415408    510.82624  0.015159848  0.014703549            6 
 2809000   0.79342918   -8.3619993     509.7115  0.015121381  0.014698274            3 
 2810000   0.80482532   -8.2997374    511.40734  0.015166291  0.014693022            4 
 2811000    0.8098988   -8.3310427    511.56022  0.015165428  0.014687776            6 
 2812000   0.79251452   -8.3451054    510.66008  0.015133359   0.01468253            3 
 2813000   0.80066958   -8.3389835    511.64026  0.015157017  0.014677292           11 
 2814000   0.80294848   -8.3385675    510.27717  0.015111264  0.014672036            3 
 2815000   0.81004608   -8.3376166    509.24064  0.015075211  0.014666778            3 
 2816000   0.80273282   -8.3412242    510.91719  0.015119472  0.014661527            4 
 2817000   0.81061431   -8.3400309    510.93647  0.015114675  0.014656268            4 
 2818000   0.79567407   -8.3326652    510.77407  0.015104509  0.014651052            8 
 2819000   0.80488556   -8.3470569    510.83642  0.015100994   0.01464578            7 
 2820000    0.7820971    -8.366266    510.41792  0.015083272  0.014640489            7 
 2821000   0.79707786     -8.34548    511.30142  0.015104024  0.014635206            2 
 2822000   0.79703239   -8.3389541    510.73117  0.015081832  0.014629939            2 
 2823000   0.80241776   -8.3317711    509.56152  0.015041962  0.014624678            9 
 2824000   0.80019106   -8.3676335    509.58048  0.015037196  0.014619373            4 
 2825000    0.8037027   -8.3808722    509.52616   0.01503027  0.014614064            3 
 2826000   0.81835369   -8.3801494     509.1138  0.015012792   0.01460878           10 
 2827000   0.81024027   -8.3304316     510.1541  0.015038147   0.01460348            8 
 2828000   0.79827979   -8.3657332    509.61932  0.015017071  0.014598179            5 
 2829000   0.77949053   -8.3948804    509.58985  0.015010895  0.014592883            5 
 2830000   0.80039793   -8.3817547    510.35512  0.015028125  0.014587593            8 
 2831000   0.81873049   -8.3135625    510.43848   0.01502527  0.014582317            5 
 2832000   0.78660001     -8.37831    510.26247  0.015014785  0.014577047            8 
 2833000   0.79289921   -8.3555786    510.40469  0.015013669  0.014571765            5 
 2834000   0.81392014   -8.3804448    509.36289  0.014977737  0.014566496            4 
 2835000   0.81531835   -8.3788086    509.93202  0.014989183  0.014561218            9 
 2836000   0.80292725    -8.384817    510.41125   0.01499798  0.014555928            5 
 2837000   0.80353524    -8.354807     510.0236  0.014981306  0.014550638           10 
 2838000   0.80115238   -8.3416609    510.49771  0.014989949   0.01454538            4 
 2839000   0.80359371   -8.3797968    510.44673  0.014983173  0.014540137            4 
 2840000    0.8060278   -8.3436644    509.79903  0.014958892  0.014534842            5 
 2841000   0.78696079   -8.3510896    509.84969  0.014955112  0.014529576            3 
 2842000   0.79739152   -8.3370664    509.71077  0.014945777  0.014524308            3 
 2843000   0.80988294   -8.3497076    510.64972  0.014968042  0.014519048            3 
 2844000   0.79541923   -8.3705511    509.66552   0.01493394  0.014513762            2 
 2845000   0.78509759   -8.3528785     510.3399  0.014948445  0.014508489            2 
 2846000   0.79113462   -8.3530675    511.47007  0.014976284  0.014503226            2 
 2847000   0.79415099   -8.3730627    510.15503  0.014932532  0.014497993            5 
 2848000   0.79341116   -8.3894742    511.58864  0.014969237  0.014492736            4 
 2849000   0.79997874   -8.3808211    509.34136   0.01489825  0.014487459            3 
 2850000   0.79943408   -8.3741609    510.77324   0.01493489  0.014482206            9 
 2851000   0.78850046   -8.3940443    510.31944  0.014916387  0.014476944            4 
 2852000   0.79755896   -8.3842839    510.27144  0.014909754  0.014471703            4 
 2853000   0.79587724   -8.3645621    510.57334  0.014913347  0.014466479            8 
 2854000   0.80688915   -8.3731227    511.42787  0.014933073  0.014461242            6 
 2855000   0.80422121   -8.3675453    509.13937  0.014861044  0.014456019           10 
 2856000   0.78489285   -8.3671858    510.46821  0.014894614  0.014450784            8 
 2857000   0.77429336    -8.383535    511.49579  0.014919373  0.014445557           12 
 2858000    0.7789476   -8.3642971    511.08939  0.014902303  0.014440319            3 
 2859000   0.78884784   -8.3670632    511.50056  0.014909075  0.014435103            5 
 2860000    0.7970105     -8.34062    511.53618    0.0149049  0.014429916            7 
 2861000   0.80605569    -8.370621    511.09709  0.014886901  0.014424705            9 
 2862000   0.79803917   -8.3657922    512.64679  0.014926822  0.014419511            9 
 2863000   0.78261995   -8.4001926    510.80352  0.014867957  0.014414325            5 
 2864000   0.80178483    -8.335977    511.25361  0.014875862  0.014409129           14 
 2865000   0.81431189   -8.3544408    511.10209  0.014866262  0.014403938            5 
 2866000   0.77586531   -8.3804316    510.78304  0.014851798   0.01439875            5 
 2867000   0.81387154   -8.3603339    512.40522  0.014893769  0.014393563            4 
 2868000   0.81530181   -8.3712941    510.94666  0.014846195  0.014388391            6 
 2869000   0.79794344   -8.3866439    512.18582  0.014877013  0.014383201            4 
 2870000   0.78813095   -8.3695127    511.62407  0.014855519  0.014378001            3 
 2871000    0.8055559   -8.3761622    511.23689  0.014839106   0.01437278           11 
 2872000   0.80800993   -8.3492677     511.9453  0.014854494  0.014367603            3 
 2873000   0.78711007   -8.3854898    511.30079   0.01483063  0.014362452            9 
 2874000   0.79401255    -8.397268    510.63089  0.014806045  0.014357257            9 
 2875000   0.79143963   -8.3614102    512.29625  0.014849167  0.014352065            8 
 2876000   0.78862631   -8.3996959    511.16124  0.014811116  0.014346899            3 
 2877000   0.79387545   -8.3855846    512.01429  0.014830677  0.014341728            2 
 2878000   0.80337104   -8.3735229    511.29015  0.014804556  0.014336539            4 
 2879000   0.78669529   -8.4001958    511.86386   0.01481602  0.014331364           18 
 2880000   0.79928831   -8.3812114    513.05461   0.01484533  0.014326214           11 
 2881000   0.80150831   -8.3728138    511.52861  0.014796038  0.014321049           10 
 2882000   0.76970619   -8.3489397    511.65161   0.01479446  0.014315909            8 
 2883000   0.81125957   -8.3843127      511.164  0.014775234  0.014310773            3 
 2884000   0.78860501   -8.3822863    511.47222  0.014779017  0.014305606           15 
 2885000   0.78555258   -8.3579138    512.16388  0.014793873  0.014300455           15 
 2886000   0.78467514    -8.381979    511.17893  0.014760306  0.014295286            7 
 2887000   0.79822176   -8.3943569    511.58902  0.014767031  0.014290102           12 
 2888000   0.77505965   -8.3728986    511.51271  0.014759716  0.014284919            6 
 2889000   0.80436766   -8.3942676    510.89441  0.014736772   0.01427973            4 
 2890000    0.7976051   -8.3862646    510.89781  0.014731771  0.014274542            5 
 2891000   0.79205193   -8.3778184    512.09618  0.014761218  0.014269385            5 
 2892000    0.7637453   -8.3783435    511.40619  0.014736232  0.014264231            7 
 2893000   0.79178319   -8.3801164    512.04456  0.014749526  0.014259069            8 
 2894000    0.7841642   -8.3772643    512.08856  0.014745697  0.014253912            5 
 2895000   0.77803413   -8.3695124    511.73853  0.014730528   0.01424878            6 
 2896000   0.78244095   -8.3679737    513.26224  0.014769286   0.01424366            7 
 2897000   0.77358736   -8.3815656    512.54158  0.014743458  0.014238544            2 
 2898000   0.78314624    -8.391571    512.50619  0.014737353  0.014233433            4 
 2899000   0.80010804   -8.4053057     511.1552  0.014693434  0.014228314            3 
 2900000   0.79542877   -8.3709762    512.40073  0.014724159  0.014223195            8 
 2901000   0.78279113   -8.3801207    511.53689  0.014694269   0.01421806            4 
 2902000    0.7924628   -8.3672124    513.25675  0.014738593  0.014212919            5 
 2903000   0.78287644   -8.3913339     513.2225  0.014732532  0.014207801            5 
 2904000   0.78506822   -8.3528429    512.73203  0.014713385  0.014202701            5 
 2905000   0.78596277   -8.3945644    511.91699  0.014684939  0.014197596            7 
 2906000   0.78104378   -8.3866121    512.79469  0.014705055  0.014192474            9 
 2907000   0.78169265   -8.3711267    511.78472  0.014671045  0.014187358            4 
 2908000   0.79350781   -8.3905968    512.46038  0.014685362  0.014182252            5 
 2909000   0.78967967   -8.3855931    512.24663   0.01467419  0.014177153            4 
 2910000   0.77280815   -8.3792408    513.42084  0.014702773  0.014172062            6 
 2911000   0.79052078   -8.4001628    513.58817  0.014702513  0.014166964            3 
 2912000    0.7766233   -8.3779818    514.25682  0.014716599  0.014161877            7 
 2913000   0.80101412   -8.4096878    511.78463  0.014640824  0.014156784           25 
 2914000   0.79328193   -8.4034765    512.62593  0.014659859  0.014151692           12 
 2915000   0.80184776    -8.380963    511.94251  0.014635292  0.014146619            3 
 2916000   0.79363036   -8.3816607    514.68713  0.014708708  0.014141552            3 
 2917000   0.77214904    -8.387935    513.14493  0.014659608  0.014136486            9 
 2918000   0.79309902   -8.4012226    512.23147  0.014628497  0.014131412            4 
 2919000   0.79163031   -8.3754928    513.26138  0.014652889  0.014126343            7 
 2920000   0.77403934   -8.3634875    513.94831  0.014667475  0.014121288           14 
 2921000   0.78697615   -8.3876549    513.32106  0.014644558   0.01411624            6 
 2922000   0.79618232   -8.3834218    514.09988  0.014661758  0.014111177            7 
 2923000   0.76817974   -8.3768421    513.02958  0.014626228  0.014106127            7 
 2924000   0.78346498   -8.3829053    513.05644  0.014621992  0.014101068            6 
 2925000   0.78193486   -8.3938503    512.68362  0.014606371  0.014096041           10 
 2926000   0.78420173   -8.3871001    512.67747  0.014601204  0.014090999            8 
 2927000   0.77920732   -8.3841951    513.62249  0.014623121  0.014085964            5 
 2928000   0.77648106    -8.361491    514.26876   0.01463652  0.014080922            6 
 2929000   0.76820673   -8.3904602    513.26239   0.01460289  0.014075902            5 
 2930000   0.78578325   -8.3923459    513.19948  0.014596117  0.014070866            3 
 2931000    0.7806648    -8.421564    513.38752  0.014596484   0.01406582            4 
 2932000   0.77441143   -8.4085239    513.83623  0.014604258  0.014060783            7 
 2933000    0.7937914   -8.3998064    513.28587  0.014583642  0.014055726            3 
 2934000   0.78481503   -8.3895057    514.15812  0.014603446  0.014050693            3 
 2935000   0.78902671   -8.3838715    514.50544  0.014608332  0.014045681            3 
 2936000   0.79966659   -8.3842827    514.15153  0.014593311  0.014040675            2 
 2937000   0.79339091   -8.3447659    514.51927  0.014598776  0.014035661            5 
 2938000   0.77633809   -8.4170539    511.91149   0.01451984  0.014030637            6 
 2939000    0.7767046     -8.42083    513.74575  0.014566909  0.014025619            6 
 2940000   0.77091195   -8.3877059    513.33658  0.014550357    0.0140206            5 
 2941000   0.77318284   -8.4015583    513.25802  0.014543183  0.014015577            3 
 2942000   0.76829769   -8.4159889    512.15791  0.014507079  0.014010563            6 
 2943000   0.78599663     -8.40158    514.34805  0.014564165  0.014005532            5 
 2944000   0.77585716   -8.3994576    514.88939  0.014574541   0.01400053            4 
 2945000   0.78127963   -8.4159426      513.103  0.014519044  0.013995527            4 
 2946000    0.7827155   -8.3985891    514.66151  0.014558201  0.013990535            6 
 2947000   0.77985289   -8.4436138      514.045  0.014535827  0.013985528            5 
 2948000    0.7641716   -8.4079842    514.00904   0.01452988  0.013980536            3 
 2949000   0.79046978   -8.4017522    514.15962  0.014529208  0.013975533            3 
 2950000   0.75645647   -8.3964345     514.1304  0.014523458  0.013970517            4 
 2951000   0.76223698   -8.4365453    513.86782  0.014511121  0.013965488            5 
 2952000   0.77839358   -8.3875201    513.80448  0.014504417  0.013960454           13 
 2953000   0.78228748   -8.3764916    513.42583   0.01448882  0.013955441           10 
 2954000    0.7722485    -8.395272     514.6722  0.014519076   0.01395042           13 
 2955000   0.78596049   -8.4008783    514.94326  0.014521807  0.013945402            6 
 2956000    0.7747113   -8.3975218    514.50127  0.014504434    0.0139404           15 
 2957000    0.7822712   -8.4038874    513.80793  0.014479989  0.013935383            8 
 2958000   0.79531796   -8.4181633    512.95106  0.014450954  0.013930366            9 
 2959000   0.77370108   -8.3557918      514.847  0.014499465  0.013925376           11 
 2960000   0.76032839    -8.392701    514.23016    0.0144772  0.013920396           19 
 2961000   0.78623819   -8.4033609    514.35113  0.014475716  0.013915398           12 
 2962000   0.76960138   -8.4027856    514.65487  0.014479374  0.013910392            7 
 2963000   0.78494813   -8.3974441    514.23986  0.014462815  0.013905418           10 
 2964000   0.77670169   -8.4299255    513.66683  0.014441825  0.013900424           12 
 2965000   0.76244182   -8.4181991    513.34194  0.014427823  0.013895415            4 
 2966000   0.77407612   -8.4625654    513.59617  0.014430101  0.013890394            6 
 2967000   0.78119156   -8.4243838    512.67263  0.014399299  0.013885371            9 
 2968000     0.768507   -8.4358665    514.55488  0.014447296  0.013880349           10 
 2969000    0.7821056   -8.4480256    512.91627  0.014396437  0.013875324            6 
 2970000   0.76686283   -8.4482319    512.81408  0.014388723  0.013870286            7 
 2971000   0.77500101   -8.4274037    513.32668  0.014398258  0.013865253            7 
 2972000   0.77078711   -8.4215045    513.58907   0.01440077  0.013860233            3 
 2973000   0.77456293   -8.4386717    512.40611  0.014362768  0.013855219            4 
 2974000    0.7619937   -8.4522798    512.92203  0.014372395  0.013850187           12 
 2975000   0.77739009   -8.4631597    512.88043  0.014366399  0.013845166           24 
 2976000   0.78289627   -8.4388556    512.74029  0.014357647  0.013840137            8 
 2977000   0.78993686   -8.4455574     513.9209  0.014385872  0.013835104            6 
 2978000   0.79590841    -8.408915    514.91457  0.014408847  0.013830099            4 
 2979000   0.78049288   -8.4138797    513.32569  0.014359564  0.013825091            7 
 2980000   0.78216279   -8.4270682    514.02898  0.014374412  0.013820096            2 
 2981000   0.77701657   -8.4200962     513.7182  0.014360902  0.013815106            5 
 2982000   0.77993296   -8.4131545    514.75008  0.014384923  0.013810115            6 
 2983000   0.76251708   -8.4392747    514.24937  0.014366113  0.013805135           15 
 2984000   0.77679268   -8.4399083    513.38218  0.014337081  0.013800133            5 
 2985000   0.76210906   -8.4167131    514.23328  0.014356038  0.013795157           18 
 2986000   0.77137805   -8.3961028    514.86873  0.014368964  0.013790204           11 
 2987000   0.78253072   -8.4460912    514.13681  0.014343734  0.013785236            9 
 2988000   0.78875846   -8.4246385    513.35633  0.014317167   0.01378027            3 
 2989000   0.78547536   -8.4383872    513.27224  0.014310032  0.013775295            5 
 2990000   0.78508678   -8.4390307    514.86487  0.014349634  0.013770331            7 
 2991000   0.77064807   -8.4539546     513.1011  0.014295695  0.013765348            7 
 2992000   0.77685946   -8.4270328    514.37236  0.014326325  0.013760377            3 
 2993000   0.75736614    -8.438115    514.10053   0.01431397  0.013755399            5 
 2994000   0.78188343   -8.4229119    513.75428  0.014299551  0.013750413            4 
 2995000   0.77204934   -8.4109893    513.77011  0.014295217  0.013745428            3 
 2996000   0.76011835   -8.4224246    513.95914  0.014295704  0.013740437            3 
 2997000   0.75953001   -8.4411155    513.95272  0.014290755  0.013735448            4 
 2998000   0.77969378   -8.4288043    514.40111  0.014298452  0.013730467            2 
 2999000   0.76317642   -8.4268757     515.1425  0.014314285  0.013725495            6 
 3000000   0.77665421   -8.4038377    515.25527  0.014312646   0.01372055            4 
 3001000   0.77674675   -8.4241412    514.22267  0.014279203  0.013715612            2 
 3002000   0.76195623   -8.4345835    513.55001  0.014255774  0.013710671            4 
 3003000   0.76975607   -8.4212605    514.63329  0.014281088  0.013705709            2 
 3004000   0.75537651   -8.4348619     513.7059  0.014250607  0.013700744           10 
 3005000   0.77342153   -8.4121202    514.58966  0.014270373  0.013695784           12 
 3006000   0.76866802   -8.4132234    514.72395  0.014269349   0.01369083            5 
 3007000    0.7692016   -8.3921967    514.89492  0.014269341  0.013685873            3 
 3008000   0.77025837   -8.4114013     514.3056  0.014248271  0.013680935            8 
 3009000   0.76746712   -8.4014309    514.02075  0.014235647  0.013675985            6 
 3010000    0.7778322    -8.423223    513.50747  0.014216707  0.013671017           19 
 3011000   0.77595567   -8.4089945    513.89078  0.014222594  0.013666042           11 
 3012000   0.78709766   -8.4354303    513.70181  0.014212644  0.013661078            6 
 3013000   0.76125834   -8.4113327    515.17073  0.014248554  0.013656145            3 
 3014000   0.77135011   -8.4193207     514.8969  0.014236256  0.013651235            6 
 3015000   0.77406552   -8.4065565    514.84583  0.014230122  0.013646317            3 
 3016000   0.77733213   -8.4175615    515.19849  0.014235148  0.013641396            8 
 3017000   0.77204558   -8.4123412    514.43401  0.014209314  0.013636463            7 
 3018000   0.76538069   -8.4396413    514.18307  0.014197677  0.013631527            8 
 3019000   0.78416024   -8.4252937    514.38487  0.014198544  0.013626594            7 
 3020000   0.77323799   -8.4428235    515.55999  0.014226269  0.013621649            6 
 3021000   0.78337443   -8.4327575    514.56335  0.014194068  0.013616715            3 
 3022000   0.77485253   -8.4534279    513.74538  0.014166815  0.013611767            7 
 3023000   0.77630367   -8.4391217     514.4548  0.014181685  0.013606823            4 
 3024000   0.76599794   -8.4353964    514.55236  0.014179684   0.01360187            9 
 3025000   0.77091574   -8.4332302    514.85964  0.014183461  0.013596942           17 
 3026000   0.76735572   -8.4708175    514.45585  0.014167654  0.013592016            6 
 3027000   0.75074205   -8.4472096    513.57726  0.014138786  0.013587082            9 
 3028000   0.74852578   -8.4288277    514.92947  0.014171331  0.013582156           14 
 3029000   0.77401124   -8.4281631    515.27119  0.014176053  0.013577242           13 
 3030000   0.76571703   -8.4738475      514.073  0.014138421  0.013572311           17 
 3031000   0.77337676    -8.476426    513.46495  0.014117039  0.013567365           16 
 3032000    0.7777031   -8.4669729    513.36048  0.014109512  0.013562426           26 
 3033000   0.78947768   -8.4472747    513.89592  0.014119571  0.013557502            8 
 3034000   0.75771309   -8.4866035    514.52904  0.014132307  0.013552557            9 
 3035000   0.75272718   -8.4516977    513.55465  0.014100896   0.01354763            9 
 3036000   0.75936025   -8.4603032      514.498  0.014122145   0.01354269            5 
 3037000   0.77312111   -8.4407967    514.91313  0.014128886  0.013537762            7 
 3038000   0.75815512   -8.4645116    513.47359  0.014084749  0.013532807           13 
 3039000    0.7627565   -8.4935535    513.94261  0.014092975  0.013527858           13 
 3040000   0.76102999   -8.4500028    513.29378  0.014070553  0.013522914           13 
 3041000   0.78858981   -8.4363268    515.13481  0.014116376  0.013517981           13 
 3042000   0.75922134    -8.454052    514.98753  0.014107701  0.013513063           16 
 3043000   0.76679171   -8.4682386    514.83832  0.014098979  0.013508135            9 
 3044000   0.76423232    -8.467714    514.11652  0.014074587  0.013503206           12 
 3045000   0.75901814   -8.4624278    515.16226  0.014098584  0.013498286            3 
 3046000   0.77491583   -8.4731608    513.16957  0.014039439  0.013493382            8 
 3047000   0.78687566   -8.4753559    513.17724  0.014035041  0.013488452            6 
 3048000    0.7663584   -8.4703817    513.31645  0.014034242  0.013483521            9 
 3049000   0.75947784    -8.449942     514.0927  0.014050855   0.01347859            8 
 3050000   0.76540396   -8.4566002    514.80015  0.014065578  0.013473657            7 
 3051000   0.76231972   -8.4336429    515.55287  0.014081527  0.013468734           16 
 3052000   0.77738702   -8.4569029     513.8546  0.014030543  0.013463813           11 
 3053000   0.77611833   -8.4756136    512.70798   0.01399465  0.013458886            6 
 3054000   0.76690685   -8.4391984    515.40505  0.014063661  0.013453977            9 
 3055000   0.75711505   -8.4449963    514.57999  0.014036552   0.01344906            4 
 3056000   0.77946963   -8.4553559    515.33007  0.014052413  0.013444154           13 
 3057000   0.76244799   -8.4761409    514.05708  0.014013114  0.013439251           13 
 3058000   0.76708159   -8.4784722    514.17952  0.014011868  0.013434352           16 
 3059000   0.77074805   -8.4576926    514.85312  0.014025638  0.013429439           11 
 3060000   0.76374105   -8.4612112    512.75058  0.013963796  0.013424529            6 
 3061000   0.77143633   -8.4778973    513.64654  0.013983626   0.01341963            3 
 3062000   0.77427846   -8.4664733    514.95855  0.014014766  0.013414744            6 
 3063000   0.76121407   -8.4668572    515.17688   0.01401613  0.013409851           10 
 3064000   0.74806929   -8.4517647    514.99343  0.014006566  0.013404977           18 
 3065000   0.76429813   -8.4476537    515.09323   0.01400471   0.01340011            8 
 3066000   0.75537088   -8.4834565    514.14544  0.013974381  0.013395213            6 
 3067000   0.76378255    -8.474623    514.18446  0.013970885  0.013390313           14 
 3068000   0.77429607   -8.4744587    514.19295  0.013966562  0.013385429            6 
 3069000   0.76982215   -8.4602873    515.83657  0.014006641   0.01338055           18 
 3070000   0.75971741   -8.4763552    514.02161  0.013952813   0.01337566            7 
 3071000    0.7552196   -8.5010735    514.47636  0.013960609  0.013370773            8 
 3072000   0.76660818    -8.473678    515.11954  0.013973512  0.013365882           10 
 3073000   0.76176824   -8.4781829    514.96954  0.013964897  0.013361009            7 
 3074000   0.75758036    -8.456885    514.42329  0.013945546  0.013356134            6 
 3075000   0.76413691   -8.4491093    515.38916  0.013967186  0.013351274            7 
 3076000   0.75835524     -8.45123    515.11943  0.013955338  0.013346422            8 
 3077000   0.73477862   -8.4514651    515.42839   0.01395917  0.013341557            6 
 3078000   0.75766709   -8.4802565    514.43924  0.013927855  0.013336677            4 
 3079000   0.75102305    -8.452294    514.39556  0.013922149  0.013331806            5 
 3080000   0.75140894   -8.4460439    515.51487  0.013947913  0.013326948            5 
 3081000   0.77210002   -8.4463152    516.36209  0.013966301  0.013322089            9 
 3082000   0.75769655   -8.4864547     515.5251  0.013939139   0.01331722            6 
 3083000   0.74908701   -8.4883426    513.91764  0.013891168  0.013312356            5 
 3084000   0.74461304   -8.4873037    513.54449  0.013876581  0.013307483            9 
 3085000   0.75847082   -8.4811295    513.84707  0.013880256  0.013302616            4 
 3086000   0.75810576   -8.4724574    514.36292  0.013889688  0.013297747           10 
 3087000   0.76030354   -8.4555894    515.26538   0.01390955   0.01329289           15 
 3088000   0.76291257   -8.4991552    514.03196  0.013871761  0.013288023            4 
 3089000   0.74231315   -8.4938978    515.13761  0.013897098  0.013283165            7 
 3090000    0.7591198   -8.4750055    514.76071  0.013882436  0.013278313            9 
 3091000   0.76236401   -8.4873608    514.31734  0.013865991  0.013273456            5 
 3092000   0.75367907   -8.4681444    514.10277  0.013855724   0.01326861            3 
 3093000   0.77575385   -8.4648009    514.27581  0.013855906  0.013263756            6 
 3094000   0.75099665   -8.4720544    515.42184  0.013882295  0.013258917            9 
 3095000   0.75718456   -8.4582019    515.65044  0.013883965  0.013254069            5 
 3096000   0.75566604    -8.485272    514.72176  0.013854483  0.013249229            4 
 3097000   0.74940228   -8.4861631    514.23608  0.013836941  0.013244386            5 
 3098000   0.76295397   -8.4864151    513.69534  0.013817929  0.013239556            9 
 3099000   0.76581579   -8.4695423    515.43503  0.013860251  0.013234728           11 
 3100000   0.76261612   -8.4572401     515.9587  0.013869857  0.013229906            8 
 3101000   0.75225921     -8.47993     514.6886  0.013831253   0.01322509            6 
 3102000   0.74513763   -8.4616984    514.82549  0.013830472  0.013220272           16 
 3103000   0.75548391   -8.5151879    515.38164  0.013840951  0.013215463            4 
 3104000   0.75346122   -8.5033441    515.46813  0.013838814  0.013210644           10 
 3105000   0.75097004   -8.5088363    514.47033  0.013807577  0.013205815            5 
 3106000   0.76125597   -8.4867528    515.04646  0.013818589  0.013200987            5 
 3107000   0.75984511   -8.4939108    515.46441  0.013825352  0.013196151            9 
 3108000   0.73900567   -8.4944798    513.87299  0.013778233  0.013191318           10 
 3109000   0.77040876   -8.5078235    515.02233  0.013804608  0.013186475            6 
 3110000   0.75015023   -8.4891405    515.24924   0.01380625  0.013181652            4 
 3111000   0.73959549   -8.4929358    514.36542  0.013778137  0.013176832            2 
 3112000   0.73739794    -8.459334    514.26977  0.013771148  0.013172004            6 
 3113000   0.74035566   -8.5172558    513.42541  0.013744122   0.01316718            4 
 3114000   0.74415023   -8.4744645    516.01781  0.013809083  0.013162349           10 
 3115000   0.75058243   -8.4888046    515.82289  0.013799435  0.013157527            3 
 3116000   0.74960091   -8.5052706    515.20108  0.013778377  0.013152705            4 
 3117000   0.75424012   -8.5040545    514.19275  0.013746999  0.013147874            7 
 3118000   0.75102178   -8.5280355    514.57965  0.013752931  0.013143053            5 
 3119000   0.74491815   -8.4975832    514.35259  0.013742455  0.013138229            7 
 3120000   0.74842838   -8.5025483    514.68716  0.013746986  0.013133408            6 
 3121000   0.77045399   -8.4773072    515.14339  0.013754763  0.013128609            9 
 3122000   0.74853163   -8.4878885     515.4698   0.01375907  0.013123822            4 
 3123000   0.75256378   -8.5165807    514.21037  0.013721058  0.013119013            4 
 3124000   0.76469468   -8.5011483    514.14181  0.013714837  0.013114193            2 
 3125000   0.75392578   -8.4939659    514.69339  0.013725157  0.013109381            6 
 3126000   0.74994705   -8.4998255    515.06209  0.013730595  0.013104572            6 
 3127000   0.73758897   -8.4985371    515.28432  0.013732127  0.013099776            3 
 3128000   0.75430142   -8.5043215    513.00453     0.013667   0.01309496            5 
 3129000   0.75989228   -8.5107549    514.48658  0.013702103  0.013090155            4 
 3130000   0.74262357   -8.5117573    514.22569   0.01369078  0.013085358            3 
 3131000   0.74966397   -8.5157508    514.63765  0.013697372  0.013080566            8 
 3132000   0.75596121   -8.5020985     515.2685  0.013709783   0.01307576            2 
 3133000   0.73613828   -8.4990681    514.92947   0.01369639  0.013070976            4 
 3134000   0.76267556   -8.5164304    514.35055  0.013676626  0.013066178            9 
 3135000   0.75241355   -8.4867707    515.89189  0.013713235  0.013061396           11 
 3136000   0.73838249   -8.5022804    515.09355  0.013687647  0.013056602            6 
 3137000    0.7549798   -8.5131281    514.93647  0.013679111  0.013051839            8 
 3138000   0.75472329   -8.4854385    516.41691  0.013714067  0.013047077            4 
 3139000   0.76216299   -8.5121398    515.18353  0.013676955  0.013042313           10 
 3140000   0.75949569   -8.4678529    514.94811  0.013666351  0.013037569            2 
 3141000   0.74348927    -8.464644    515.13982  0.013667086   0.01303283           12 
 3142000   0.73607968   -8.5079215    515.84677  0.013681486   0.01302809            6 
 3143000   0.73717633   -8.5058085    514.94071   0.01365311   0.01302334            1 
 3144000   0.73851803   -8.5256098    515.79496   0.01367141  0.013018595            7 
 3145000   0.76320079   -8.4990729    515.12614  0.013649341  0.013013855            4 
 3146000   0.75408289   -8.4903117    514.13499  0.013618749  0.013009118            4 
 3147000   0.76906008   -8.4926829    515.00566  0.013637476  0.013004374            6 
 3148000    0.7349038   -8.5022583     515.5505  0.013647567  0.012999612            4 
 3149000   0.74718691   -8.5102797    515.80638  0.013650005  0.012994864           10 
 3150000   0.74434454   -8.5084365    515.35296  0.013633676   0.01299012            3 
 3151000   0.73996494   -8.5115692    515.93667  0.013644787  0.012985372            4 
 3152000   0.74373813   -8.4933534    515.25202  0.013622357  0.012980632            5 
 3153000   0.73523225    -8.483697    514.97711   0.01361077  0.012975904            4 
 3154000   0.73448778   -8.4946382    515.55287  0.013621668  0.012971177            3 
 3155000   0.74829089   -8.4942075     515.9481  0.013627789  0.012966465            4 
 3156000   0.76497172    -8.488418    516.81724   0.01364642  0.012961758            5 
 3157000   0.74475489   -8.4945538    516.57627  0.013635737  0.012957044            6 
 3158000   0.75666988   -8.4901069    516.19809   0.01362144  0.012952336           16 
 3159000   0.74061026   -8.4864772    515.30464  0.013593559  0.012947637            6 
 3160000   0.73684561   -8.4966223    515.91464  0.013605344  0.012942919            5 
 3161000   0.75572346   -8.4897636    515.02102  0.013577481  0.012938209            5 
 3162000   0.73609863   -8.4972168    515.48475  0.013585409  0.012933497            3 
 3163000    0.7492234    -8.495105    514.62388  0.013558433  0.012928777            3 
 3164000   0.74549786   -8.4789735    515.36411  0.013573644  0.012924052            9 
 3165000   0.75551055   -8.4995749    515.58255  0.013575107  0.012919331            5 
 3166000   0.74112275   -8.4951543    515.48872  0.013568349  0.012914613            6 
 3167000   0.72857184   -8.5061299    515.76568  0.013571353    0.0129099            4 
 3168000   0.74976255   -8.5098728    516.26812  0.013580285  0.012905175            5 
 3169000    0.7531143   -8.4850654    515.29852  0.013550503  0.012900454            7 
 3170000   0.74932429    -8.486818    515.40419  0.013549006  0.012895732            7 
 3171000   0.73055172   -8.4919801    515.15041  0.013538064  0.012891004            3 
 3172000   0.74366759   -8.5129523    514.95858  0.013528756  0.012886288           18 
 3173000   0.76156332   -8.5094446    515.88122  0.013548724  0.012881561           22 
 3174000   0.71648943   -8.5169821    515.23701  0.013527542  0.012876832           13 
 3175000   0.74998096   -8.5171251    515.07227  0.013518957  0.012872108            6 
 3176000   0.74842863   -8.5139254    514.97057  0.013512032  0.012867379           18 
 3177000   0.74287391   -8.5232699    514.75257  0.013502061  0.012862647           11 
 3178000   0.73881527   -8.5112588    514.62646  0.013494506  0.012857903            5 
 3179000   0.75552792   -8.5253013    514.81086  0.013495094  0.012853161            4 
 3180000   0.73622904   -8.5161894    515.73432   0.01351505  0.012848422            6 
 3181000   0.73103276   -8.5476318    514.32576  0.013473901  0.012843671            3 
 3182000   0.75223345   -8.5383635    514.36259  0.013470632  0.012838918            3 
 3183000   0.75874411    -8.530675    516.11145  0.013512186  0.012834162           11 
 3184000   0.74301558   -8.5018205    514.66133  0.013469989  0.012829426            8 
 3185000   0.73986977   -8.5279729    514.59733  0.013464085  0.012824695           11 
 3186000   0.73878157   -8.5426813    514.56026   0.01345889  0.012819966            4 
 3187000   0.74096251   -8.5513619    514.01055  0.013440293  0.012815222            6 
 3188000   0.73865872   -8.5618271    514.02769  0.013436525   0.01281048           14 
 3189000   0.74104733   -8.5400499    513.55738  0.013420021  0.012805727           10 
 3190000   0.74600964   -8.5440031    514.68107  0.013445169  0.012800975            5 
 3191000   0.73181174   -8.5714712    514.62187  0.013439409  0.012796224           10 
 3192000   0.74118757   -8.5448828    514.97635  0.013444453  0.012791479           13 
 3193000   0.73524915    -8.554643    513.47083  0.013400951  0.012786731           22 
 3194000   0.73994808   -8.5499727     514.6876  0.013428501  0.012782002            9 
 3195000   0.73541511    -8.543876    514.67412  0.013423947  0.012777269           11 
 3196000   0.74375012   -8.5588838    513.99714  0.013402095  0.012772536           13 
 3197000   0.72628941    -8.529924    514.86855  0.013420617  0.012767821           24 
 3198000   0.74859486   -8.5392619    514.94648  0.013418451  0.012763106           10 
 3199000   0.75199237   -8.5273807     515.4483  0.013427329  0.012758387           12 
 3200000   0.74157411   -8.5269904    514.84089  0.013407315  0.012753682           10 
 3201000   0.71997618   -8.5520043    514.36956  0.013390856  0.012748971            7 
 3202000   0.74063718   -8.5165151    515.21479  0.013408671  0.012744265           24 
 3203000   0.73861641   -8.5749559    513.77679  0.013367072   0.01273957           10 
 3204000   0.74417231   -8.5452197    514.04531  0.013369884  0.012734868           16 
 3205000   0.73394401   -8.5666966    514.56753  0.013379291  0.012730175           12 
 3206000   0.74667424   -8.5274401    514.79759  0.013381098  0.012725472           10 
 3207000   0.75100662   -8.5278297    514.68556  0.013374014  0.012720778           12 
 3208000   0.75074335   -8.5135558     517.3493   0.01343904    0.0127161            6 
 3209000   0.73211724   -8.5409866    516.47222  0.013412076  0.012711431           16 
 3210000   0.73397757   -8.4868233    515.49128  0.013382432  0.012706768            7 
 3211000   0.75657966   -8.5063119    515.69147   0.01338346  0.012702114            5 
 3212000   0.72427231   -8.5383071     515.4124  0.013372053  0.012697457            7 
 3213000   0.73208129   -8.5214117    515.84501  0.013379111  0.012692798           10 
 3214000   0.74101499   -8.5395559    515.97905  0.013378424  0.012688136            7 
 3215000   0.73490529   -8.5186261    516.19719  0.013379917  0.012683477            6 
 3216000   0.73572197   -8.5292718    513.54437  0.013307016  0.012678814            6 
 3217000   0.73227168   -8.5221935    515.65794   0.01335763  0.012674171            5 
 3218000   0.75390213   -8.5373163    514.63851   0.01332708  0.012669523            4 
 3219000   0.74071801   -8.5396491    515.13677  0.013335839  0.012664873            9 
 3220000   0.73618303   -8.5306615    514.35422  0.013311445  0.012660218            6 
 3221000   0.72716018   -8.5582189    515.20199  0.013329245  0.012655551            4 
 3222000   0.72514333    -8.540672    515.51776  0.013333275  0.012650869            7 
 3223000   0.75196448   -8.5468772    514.25523  0.013296495  0.012646203            7 
 3224000   0.72047999   -8.5353266    515.09885  0.013314176  0.012641544            8 
 3225000   0.73728286   -8.5511065    513.97976  0.013281131  0.012636863            6 
 3226000   0.75007746   -8.5602379    515.02774  0.013304085  0.012632196            7 
 3227000   0.73934244   -8.5499134    514.25801  0.013280085  0.012627532            3 
 3228000   0.74108027   -8.5202717    515.77863  0.013315227  0.012622853           26 
 3229000   0.74286966   -8.5770947    515.90694  0.013314415  0.012618188           28 
 3230000   0.73536668   -8.5469254    515.51728   0.01330024  0.012613514           11 
 3231000   0.73988674   -8.5391356    515.84816  0.013304657   0.01260885           13 
 3232000   0.73355136   -8.5273375     515.4522  0.013290331  0.012604185            5 
 3233000   0.73318052   -8.5584681    515.40228  0.013284933   0.01259952           12 
 3234000   0.74597969   -8.5198866    514.73962   0.01326375  0.012594865            8 
 3235000   0.74453488   -8.5413146    515.85492   0.01328838  0.012590199           12 
 3236000   0.71528121   -8.5653029    513.99743   0.01323644   0.01258553           20 
 3237000   0.73954854   -8.5655699     514.9713  0.013257422  0.012580856           13 
 3238000   0.72902381   -8.5516619    514.74148  0.013247413   0.01257619            7 
 3239000   0.73908376   -8.5331898    515.61701  0.013265849   0.01257154           15 
 3240000    0.7222802   -8.5470777    514.97691  0.013245291  0.012566888            4 
 3241000    0.7345643   -8.5347333    514.99263  0.013241608  0.012562235            9 
 3242000   0.72516954   -8.5595564    514.26941  0.013218934  0.012557594            5 
 3243000   0.73589522   -8.5463143    514.85028  0.013229784  0.012552938            2 
 3244000   0.74002001   -8.5536318    514.55423  0.013218101  0.012548287            5 
 3245000   0.73045539   -8.5663537    514.28805  0.013207192  0.012543646            5 
 3246000    0.7310654    -8.565684    514.07348  0.013197614  0.012538988           17 
 3247000   0.72138809   -8.5612312    515.22317  0.013223056  0.012534333            8 
 3248000     0.728033     -8.58375    515.09443  0.013215682  0.012529687            3 
 3249000    0.7183546   -8.5624836    515.17939  0.013213794   0.01252505           10 
 3250000   0.73924309   -8.5578572    514.95128  0.013203879  0.012520417            9 
 3251000   0.72986724   -8.5369728    515.31744  0.013209203  0.012515778           12 
 3252000   0.73932647   -8.5721558    515.16905  0.013201339  0.012511143            4 
 3253000   0.72240187   -8.5644232     515.2188  0.013198555  0.012506515            5 
 3254000   0.72542434    -8.558097    515.35236  0.013197919  0.012501877            4 
 3255000   0.73807842   -8.5811055    514.95431  0.013183674  0.012497243           21 
 3256000   0.72920243   -8.5714802    515.05607  0.013182229  0.012492625            5 
 3257000   0.72516588   -8.5534946    515.51319  0.013189878  0.012488009            4 
 3258000   0.72600493   -8.5781437    514.16955  0.013151462  0.012483387            7 
 3259000   0.71640283   -8.5863318    514.53337  0.013156729  0.012478778            7 
 3260000   0.72549462   -8.5581012    515.44972  0.013176118  0.012474164           12 
 3261000   0.72309122   -8.5757267    514.92732  0.013158727  0.012469547            4 
 3262000   0.71422616   -8.5741472    515.70449  0.013174548  0.012464936            2 
 3263000   0.72620404   -8.5632217    516.88235  0.013200591  0.012460328            5 
 3264000   0.74425177   -8.5856874    515.23665   0.01315453  0.012455728            9 
 3265000   0.73680621   -8.5633574    515.05996  0.013145992  0.012451142           10 
 3266000   0.71696531   -8.5458918    514.54446  0.013128813  0.012446563            5 
 3267000   0.73245546   -8.5471092    515.54942  0.013150429  0.012441968            3 
 3268000   0.73929698   -8.5777187    514.14098   0.01311049  0.012437365            5 
 3269000   0.73305178   -8.5731643    515.13998  0.013131946  0.012432768            7 
 3270000   0.72593343   -8.5613632    515.10317  0.013126992  0.012428174            9 
 3271000   0.72455192   -8.5826131    515.49621  0.013132992   0.01242358           14 
 3272000   0.71195782   -8.5494192    516.50312  0.013154623  0.012418994            4 
 3273000    0.7222714   -8.5749581    515.12243   0.01311545  0.012414415           14 
 3274000   0.72219187   -8.5694104    515.33954  0.013116971  0.012409836            7 
 3275000   0.74083356   -8.5642958    515.55681  0.013118494  0.012405266            7 
 3276000   0.70740496   -8.5358508    516.57893   0.01314049  0.012400701            4 
 3277000   0.72747092    -8.546634    515.43199  0.013107313  0.012396128            3 
 3278000   0.72714586   -8.5496815    515.65067  0.013108874  0.012391557            4 
 3279000   0.74464586   -8.5739677    514.97818  0.013087785   0.01238698            6 
 3280000   0.70649534   -8.5802851    514.90644  0.013081973  0.012382393            4 
 3281000   0.72967597   -8.5747739    515.56771  0.013094781  0.012377822            7 
 3282000   0.72560981   -8.5437208    515.68192  0.013093691  0.012373262            5 
 3283000   0.72974767   -8.5834493    514.75474  0.013066168  0.012368694            5 
 3284000   0.72354827   -8.5792948     515.3711  0.013077829  0.012364133            5 
 3285000   0.71564609   -8.5638684    514.50929  0.013051986  0.012359566            9 
 3286000   0.73821686   -8.5598402    515.25412  0.013066903  0.012354999           10 
 3287000   0.70983361   -8.5903687    515.07053  0.013058273  0.012350428            8 
 3288000    0.7308265   -8.5405061    516.10195  0.013080443  0.012345863            8 
 3289000   0.70867115   -8.5476267    516.23257  0.013079775  0.012341318           10 
 3290000   0.73598737   -8.5576799    515.93299  0.013068212  0.012336765            5 
 3291000   0.72954815   -8.5515635    516.16501  0.013070116  0.012332204            8 
 3292000   0.72400148   -8.5708446    514.45709  0.013022911  0.012327644            7 
 3293000   0.71219679   -8.5758248    515.07006  0.013034469  0.012323079            6 
 3294000   0.71827009   -8.5698854    515.32845  0.013037049   0.01231851            9 
 3295000   0.73747096   -8.5943393    514.92516  0.013022892  0.012313939            2 
 3296000    0.7399971    -8.613249    514.74426  0.013014367  0.012309368            7 
 3297000   0.72572694   -8.5633454    515.59924   0.01303203  0.012304797            6 
 3298000   0.71906989   -8.5809595    515.05999  0.013014453  0.012300234            7 
 3299000   0.71593741   -8.5724432    514.53064  0.012997136  0.012295665           10 
 3300000    0.7094891   -8.5812631    515.10374   0.01300767  0.012291097           11 
 3301000   0.73464413   -8.5472272    515.03661  0.013002035  0.012286536           10 
 3302000   0.72734432   -8.5544016    515.46461  0.013008899   0.01228198            6 
 3303000   0.72142665   -8.5571606    514.70597   0.01298582  0.012277426            3 
 3304000   0.71355172   -8.5414778    514.73269  0.012982564  0.012272881            8 
 3305000    0.7204134   -8.5364542    515.72167  0.013003572  0.012268351            3 
 3306000   0.72182746   -8.5743773    514.67211  0.012973183  0.012263822            4 
 3307000    0.7335067    -8.557675    514.64533  0.012968585  0.012259285            3 
 3308000   0.72148266   -8.5627814    514.88595  0.012970726  0.012254747            4 
 3309000   0.70982196   -8.5666279    514.48924  0.012956816  0.012250208            7 
 3310000   0.73010566    -8.548167    515.22248  0.012971362  0.012245672            4 
 3311000   0.72811993   -8.5523857     514.6487  0.012953003  0.012241144            8 
 3312000   0.71875589   -8.5494885    516.88239  0.013005294  0.012236634           13 
 3313000   0.71329439   -8.5436334     515.5459  0.012967751  0.012232117            8 
 3314000   0.71780992   -8.5545263    514.43341  0.012935863  0.012227595            4 
 3315000   0.72684376   -8.5651519    514.97509  0.012945578  0.012223069            3 
 3316000    0.7147156   -8.5939424    514.51644  0.012930148  0.012218545            5 
 3317000   0.70784408   -8.5809503    515.14139   0.01294195  0.012214026            6 
 3318000   0.71319809    -8.562508    515.67617  0.012951481  0.012209499            3 
 3319000   0.71410219   -8.5616973    515.43528  0.012941531  0.012204973            2 
 3320000   0.71312696   -8.5533339     515.3797  0.012936238  0.012200464            3 
 3321000   0.70625486   -8.5744987    514.80071  0.012917814  0.012195941           13 
 3322000    0.7202927   -8.5608623    514.16385  0.012897949  0.012191413            2 
 3323000   0.73161792   -8.5743594    516.42052   0.01295066  0.012186877            6 
 3324000    0.7228426   -8.5709479    514.66657  0.012902792  0.012182348            4 
 3325000   0.71720262   -8.5663984    515.74455  0.012925929  0.012177823           10 
 3326000   0.72780803   -8.6232659    514.59068  0.012893132  0.012173289            3 
 3327000   0.71618905   -8.5937546    514.49745  0.012886921  0.012168749            7 
 3328000   0.72534717    -8.593998    514.32663  0.012878772  0.012164201            9 
 3329000   0.71632129   -8.5943553    514.17698  0.012871157  0.012159658            9 
 3330000   0.71827621    -8.593019    514.29416  0.012870224  0.012155115            4 
 3331000   0.71716134   -8.5760706    514.98538  0.012883653  0.012150573            9 
 3332000   0.72694066   -8.6026662    513.78207  0.012849692  0.012146032            8 
 3333000    0.7221638   -8.5965851     515.0976  0.012878728  0.012141493            4 
 3334000   0.70539791   -8.6281062    514.30574  0.012855072  0.012136954            6 
 3335000   0.70396269   -8.5787706    514.06138  0.012845112  0.012132417            5 
 3336000   0.73156816   -8.5915978    513.96401  0.012838829  0.012127885            5 
 3337000   0.70247343   -8.5877528     514.3996   0.01284586  0.012123343            7 
 3338000   0.71739908   -8.6128007    514.24468  0.012838144    0.0121188            7 
 3339000   0.73109154    -8.592411    514.40477  0.012838294  0.012114256            6 
 3340000   0.73363828   -8.6245094    514.30717  0.012832015  0.012109724            7 
 3341000   0.70389588   -8.5955701    514.97796  0.012844906  0.012105177            6 
 3342000   0.71729169   -8.5858674     515.2498  0.012847841  0.012100639           15 
 3343000    0.7035086   -8.6293573    514.03331  0.012813673  0.012096106           13 
 3344000   0.71615573   -8.6029915    515.07351  0.012835763  0.012091561            7 
 3345000   0.69826255   -8.6218799    513.02608  0.012780919  0.012087023            5 
 3346000   0.71482361   -8.5986032    513.79911  0.012796352  0.012082479            8 
 3347000   0.70260487   -8.6255392    513.62971  0.012788311  0.012077943            5 
 3348000   0.71494479   -8.6284195    514.18051  0.012798201   0.01207341            5 
 3349000   0.74023493   -8.6125876    514.20583  0.012795009  0.012068874            6 
 3350000   0.71241413   -8.6045914    514.69335  0.012803317  0.012064339            4 
 3351000   0.71456269     -8.64506     513.4366  0.012768243  0.012059805            5 
 3352000   0.72278807   -8.6432005    512.99007  0.012753333  0.012055262            5 
 3353000   0.71868788    -8.621111    512.95203  0.012748584  0.012050722            7 
 3354000   0.72282543   -8.6096267     514.1543  0.012774655   0.01204618           11 
 3355000   0.71682782   -8.6364011     513.0846  0.012744277  0.012041645            8 
 3356000   0.70836777   -8.6098678     513.4848  0.012750417  0.012037119            4 
 3357000   0.71512378   -8.6091928    514.26329  0.012765944  0.012032594            4 
 3358000   0.70441934   -8.6145635    513.86621  0.012752288  0.012028073            6 
 3359000   0.71701609   -8.6108445    514.51091  0.012764486  0.012023542            5 
 3360000   0.72538834   -8.6351562     514.0398  0.012749003  0.012019014            4 
 3361000   0.70585777    -8.636164    512.75333  0.012713313  0.012014481            5 
 3362000   0.69606361   -8.6275111    513.72979  0.012733735  0.012009957            2 
 3363000   0.72138664   -8.6242717    513.06645  0.012713511  0.012005423            6 
 3364000    0.7304724   -8.6364702    512.87432  0.012704972  0.012000893            4 
 3365000    0.6939383   -8.6273123    511.71516   0.01267249  0.011996364            4 
 3366000   0.69702173   -8.6368228    513.46359  0.012712012  0.011991831            8 
 3367000   0.70714889   -8.6367886    514.01063  0.012721776  0.011987299           10 
 3368000   0.71290997   -8.6119563    514.02719  0.012718408  0.011982781            5 
 3369000   0.72451897     -8.60148    513.50771  0.012701784  0.011978267            8 
 3370000   0.71268465   -8.6410941    513.19307  0.012690234  0.011973757            6 
 3371000   0.70567116    -8.624974    513.41722  0.012692011  0.011969249            5 
 3372000   0.70014477   -8.6150669    513.44544  0.012688944  0.011964752           12 
 3373000   0.70775121   -8.6065585    514.04481   0.01269999   0.01196026            7 
 3374000   0.71210629   -8.5906072    514.13819  0.012698533  0.011955766            9 
 3375000   0.70509068   -8.6043758    514.48644  0.012703369  0.011951273            5 
 3376000   0.72609414    -8.620439    513.32657  0.012670976  0.011946789            5 
 3377000   0.71199735    -8.615514    514.16097  0.012687814    0.0119423            4 
 3378000   0.72239695   -8.6163087    513.36143  0.012664334  0.011937819            6 
 3379000   0.72134359   -8.5904394    514.36717  0.012685389  0.011933345            6 
 3380000   0.70607184   -8.5692744    514.22771  0.012678198  0.011928878            3 
 3381000   0.71808835    -8.608141    514.12275  0.012671861  0.011924409            4 
 3382000   0.70501666   -8.6014681    514.01411  0.012665437  0.011919934           10 
 3383000   0.71336132   -8.6117332    515.70233  0.012703279  0.011915457            3 
 3384000   0.71180521   -8.6110697    514.32025  0.012665491  0.011910986            7 
 3385000   0.70454505   -8.6372372    513.77072  0.012648221  0.011906524            7 
 3386000   0.69675889   -8.6201279    513.56723  0.012639477  0.011902061            7 
 3387000   0.71274024   -8.6204648    514.34817  0.012654959  0.011897596            6 
 3388000   0.70495221   -8.6221221    513.69945  0.012635268  0.011893127            8 
 3389000   0.69399354   -8.6345027    514.37126  0.012648059  0.011888657            5 
 3390000   0.70687379   -8.6553023    513.40582  0.012620595  0.011884188            9 
 3391000   0.70328645   -8.6317958    512.87835  0.012603911  0.011879729            6 
 3392000   0.71414393   -8.6447438    515.14702  0.012655931  0.011875273            4 
 3393000     0.715026     -8.61401    514.30535  0.012631529  0.011870817            7 
 3394000   0.71208424   -8.6261918    513.36082  0.012604616  0.011866357            7 
 3395000   0.70393922   -8.6184193    514.37674   0.01262584  0.011861902            5 
 3396000   0.70823918   -8.6335522     513.5415  0.012601627  0.011857449            8 
 3397000   0.70691989   -8.6219305    515.03577  0.012634574  0.011852999            6 
 3398000   0.71790842   -8.6168491    513.76146  0.012599604  0.011848545            5 
 3399000   0.70282924   -8.6324385    513.91868  0.012599752  0.011844088            9 
 3400000   0.70828391   -8.6364337    513.98888  0.012597767  0.011839627            6 
 3401000   0.71105532   -8.6381643    513.88303  0.012591469  0.011835176            7 
 3402000   0.70076332   -8.6317714     513.8225  0.012586285  0.011830718           11 
 3403000   0.69463093   -8.6556809    513.50274  0.012574756  0.011826263            9 
 3404000   0.69277355   -8.6405239     513.8956   0.01258068  0.011821812            7 
 3405000   0.69054458    -8.618389    514.20824  0.012584636   0.01181736            9 
 3406000   0.70092649   -8.6048513     513.5581  0.012565035  0.011812912            6 
 3407000   0.71045819   -8.6531237    514.58383  0.012586436  0.011808466            6 
 3408000   0.70261378   -8.6433293    514.26536  0.012574955  0.011804015            7 
 3409000   0.69124795   -8.6464572      513.525  0.012553168  0.011799576            9 
 3410000   0.70605776    -8.652912    514.18716  0.012565669   0.01179514            8 
 3411000    0.7291296   -8.6519948    513.06405  0.012534546  0.011790696            7 
 3412000   0.70430638   -8.6714409    514.22965  0.012559341  0.011786261            6 
 3413000   0.71412072   -8.6508079    514.31734  0.012557802  0.011781821            5 
 3414000   0.69756055   -8.6482621    514.84574  0.012567022  0.011777402            8 
 3415000   0.70934759   -8.6442004    515.16917  0.012571234  0.011772977            6 
 3416000   0.71104796   -8.6405615    513.95459  0.012537924  0.011768546            9 
 3417000   0.71636622   -8.6458316    513.65605  0.012526974  0.011764123            9 
 3418000   0.72119614   -8.6493361    514.21755  0.012536999  0.011759703            9 
 3419000   0.70194524   -8.6414438    514.17194   0.01253222   0.01175529           13 
 3420000   0.70326823   -8.6483753    514.19954  0.012529229  0.011750871           13 
 3421000   0.71313775   -8.6668142     513.0203  0.012496841  0.011746432            8 
 3422000   0.71090312   -8.6475883    513.89226  0.012514423  0.011742004           10 
 3423000   0.70483982   -8.6399384    513.86203  0.012510031  0.011737576           10 
 3424000   0.71773362   -8.6451253    513.66175  0.012501503  0.011733153           15 
 3425000   0.70546392   -8.6150439    514.24175  0.012511965   0.01172873           11 
 3426000   0.72132094   -8.6140087     512.7645   0.01247238  0.011724309           27 
 3427000   0.70909966   -8.6608568    512.72458   0.01246777  0.011719883           22 
 3428000   0.71080274   -8.6387613    513.34697  0.012479263  0.011715466           15 
 3429000   0.70736975   -8.6605605    513.03651  0.012468079  0.011711055           12 
 3430000   0.70629734   -8.6380132    514.24881  0.012493897  0.011706644           11 
 3431000   0.69607873   -8.6386866    513.71728  0.012477346  0.011702234            4 
 3432000   0.70657959    -8.647086     514.6708  0.012496863  0.011697828            9 
 3433000   0.69733346   -8.6765357    513.14447  0.012456172  0.011693425           26 
 3434000   0.70382441   -8.6454006     513.3486  0.012457499  0.011689014           10 
 3435000   0.70417774   -8.6317544    513.23947  0.012451224  0.011684622           13 
 3436000   0.70072085   -8.6524012    512.82213  0.012437479  0.011680223            6 
 3437000   0.69401385   -8.6499841    513.18534  0.012442667   0.01167583            6 
 3438000   0.71065411   -8.6385444     513.5309  0.012447423  0.011671444           10 
 3439000   0.71604335   -8.6297246    513.75498  0.012449234  0.011667058            5 
 3440000   0.70433148   -8.6478762    513.89902  0.012449104  0.011662675            8 
 3441000   0.70111491   -8.6402723    513.67109  0.012439966  0.011658298           15 
 3442000   0.69825365   -8.6493437    513.97834  0.012443791  0.011653905            6 
 3443000   0.68774604   -8.6440761    514.62742  0.012455887  0.011649523            5 
 3444000   0.69014473   -8.6560604    513.87237     0.012434  0.011645139           15 
 3445000    0.6909738    -8.653423    513.69222  0.012426033  0.011640755            5 
 3446000   0.70848414   -8.6338122    513.44363  0.012416416  0.011636374           11 
 3447000   0.70253302   -8.6544039    512.87833  0.012399147  0.011631998           15 
 3448000   0.71033679   -8.6530247    514.01367  0.012422991  0.011627612            9 
 3449000   0.69679704   -8.6475431    512.65728  0.012386616  0.011623227           10 
 3450000   0.70417899   -8.6319998    513.17773  0.012395597  0.011618847           11 
 3451000   0.69146093   -8.6609642    512.50076  0.012375658  0.011614461            7 
 3452000   0.69841661   -8.6856439    512.62669  0.012375113   0.01161007            7 
 3453000   0.70961801   -8.6686866    512.20507  0.012361354  0.011605674            6 
 3454000   0.70076346   -8.6795652    513.42041  0.012387097  0.011601286            7 
 3455000   0.70845388   -8.6701377    514.02103  0.012397999  0.011596902            5 
 3456000   0.69399712   -8.6715593    513.80495  0.012389201  0.011592524            3 
 3457000   0.70116541   -8.6709514    514.16924  0.012394399   0.01158814           10 
 3458000   0.70556341   -8.6655644     514.5926  0.012401017  0.011583766            9 
 3459000   0.70247057   -8.6553875     513.1716  0.012363197  0.011579386            5 
 3460000   0.70914471   -8.6774534    512.61995  0.012346338  0.011575012            7 
 3461000   0.71053204   -8.6730965    513.01757  0.012352344  0.011570636            9 
 3462000   0.70446162   -8.7086896    511.82729  0.012320125  0.011566251           10 
 3463000   0.70280498   -8.6596941    514.43482  0.012379315  0.011561875            6 
 3464000   0.69773899   -8.6817015    512.68757  0.012333708  0.011557507            5 
 3465000   0.70166099   -8.6706946      512.596  0.012327946  0.011553131            5 
 3466000   0.71286819   -8.6646033    513.01727  0.012334518  0.011548763            9 
 3467000   0.70207791   -8.6851431    513.61028  0.012345214  0.011544396            7 
 3468000    0.7032877   -8.6632805    513.16472  0.012330948  0.011540042           10 
 3469000    0.6867984   -8.6615212    513.43813  0.012333961  0.011535691            6 
 3470000   0.69561364   -8.6656217    513.68367  0.012336303  0.011531333            5 
 3471000   0.68877102   -8.6517509     514.2183  0.012345585  0.011526967           10 
 3472000   0.70336273    -8.650803     513.1802  0.012317113  0.011522611            8 
 3473000   0.70174034   -8.6358575    513.95012   0.01233204  0.011518261           16 
 3474000   0.70463034   -8.6869925    513.10563  0.012308233  0.011513907            6 
 3475000   0.69950432    -8.669328    513.55937  0.012315572   0.01150955            7 
 3476000   0.70773922    -8.660459    512.43918  0.012285174  0.011505203            9 
 3477000   0.68521492   -8.6319818    513.94792  0.012317801  0.011500851            5 
 3478000   0.70473155   -8.6529073    512.94324  0.012290187  0.011496504            6 
 3479000   0.69622694   -8.6764535    513.02922  0.012288714  0.011492162           11 
 3480000    0.6964991   -8.6483683    513.47108  0.012295763  0.011487815           12 
 3481000   0.70043328   -8.6608334    513.54728  0.012294055  0.011483481           13 
 3482000   0.69196631   -8.6421293    513.51138  0.012289666  0.011479146           11 
 3483000   0.69365368   -8.6700709    512.44368  0.012260592  0.011474821            4 
 3484000   0.68780548   -8.6559284    514.16274   0.01229819  0.011470493           11 
 3485000   0.69223717    -8.655231    513.92613  0.012289004  0.011466182           10 
 3486000   0.69680823   -8.6536327    512.96316  0.012262458  0.011461861            5 
 3487000   0.67694347   -8.6515185    514.25555  0.012289828  0.011457545           18 
 3488000   0.68845002   -8.6564157    513.44244  0.012266878  0.011453238            9 
 3489000   0.68558938   -8.6496591    513.85671  0.012273257  0.011448931            9 
 3490000   0.69150234   -8.6509272    512.82536  0.012245114  0.011444626           10 
 3491000   0.69480878    -8.655864    514.15628  0.012273376  0.011440318            9 
 3492000    0.6839851    -8.649322    513.57038   0.01225588  0.011436017           15 
 3493000    0.6691265    -8.648366    514.61557  0.012277306  0.011431711           12 
 3494000   0.69525318    -8.677311    513.36557  0.012243979  0.011427418           14 
 3495000   0.70526901   -8.6479512    513.86636  0.012252417  0.011423117           10 
 3496000   0.69747047   -8.6114404    514.70004  0.012268784  0.011418835            7 
 3497000   0.68926847    -8.646659    514.27548  0.012255159  0.011414553            6 
 3498000   0.68124014    -8.638418    513.51687  0.012233583  0.011410277           13 
 3499000   0.67487198   -8.6577631    513.22764  0.012223198  0.011405993           11 
 3500000    0.7070616   -8.6584165    513.56126  0.012227649  0.011401696            8 
 3501000   0.68430311   -8.6373863    513.58826  0.012224799  0.011397402           12 
 3502000   0.69069912   -8.6633599    513.31551  0.012214818  0.011393121            7 
 3503000   0.68266232   -8.6745676    513.18805  0.012208299  0.011388836            9 
 3504000   0.69443249   -8.6476849    515.55826  0.012261184  0.011384561            7 
 3505000   0.68222027   -8.6456095    512.57766   0.01218682   0.01138029            9 
 3506000   0.69137261   -8.6739511    513.38255  0.012202476  0.011376026           22 
 3507000   0.70012778   -8.6834639    513.56496  0.012203331  0.011371761            9 
 3508000   0.68113054   -8.6496722    513.15002  0.012189995  0.011367492           14 
 3509000     0.687005   -8.6492881    513.58454   0.01219684  0.011363219           15 
 3510000   0.69584482   -8.6527912    512.99138  0.012179282  0.011358948           14 
 3511000   0.69334511   -8.6712295    513.34974  0.012184319  0.011354678           13 
 3512000   0.70268535   -8.6901399     513.0628  0.012174041  0.011350403            6 
 3513000   0.70130923   -8.6712882    513.43074  0.012179304  0.011346132            7 
 3514000   0.69748034   -8.6572341    513.07024  0.012167289  0.011341863            7 
 3515000   0.68375333   -8.6973317    512.99515  0.012162047  0.011337608           11 
 3516000   0.69833125   -8.6779418    515.18664  0.012210529  0.011333349           22 
 3517000   0.68992495   -8.6570989    514.28622  0.012185722  0.011329101           15 
 3518000   0.69267761   -8.6572174    513.65767  0.012167369  0.011324855           28 
 3519000   0.69137224   -8.6547112    514.14382  0.012175424  0.011320603           35 
 3520000   0.69239309   -8.6761386    514.72364  0.012185692   0.01131636           26 
 3521000   0.69585938   -8.6549263    514.92263  0.012186941  0.011312129           17 
 3522000    0.7027846   -8.6571878    513.04257  0.012138997  0.011307887           13 
 3523000   0.67906418   -8.6935042    513.05291  0.012135796  0.011303647           15 
 3524000   0.68708524   -8.6698009    514.71787  0.012171724  0.011299411           18 
 3525000   0.68694172   -8.6776837    513.42901  0.012137802   0.01129518           16 
 3526000   0.69019428   -8.6380997    513.89981  0.012145486  0.011290955            6 
 3527000   0.67844041   -8.6505212    513.51909  0.012133047  0.011286723           12 
 3528000   0.69199096   -8.6566214    513.66509  0.012133057  0.011282502           33 
 3529000    0.6969006   -8.6546733    513.43373  0.012124155  0.011278274           17 
 3530000   0.68598595   -8.6644115     513.5117  0.012122561  0.011274044            9 
 3531000   0.69703046   -8.6798554    514.72958  0.012147871  0.011269825           34 
 3532000   0.68034518   -8.6656195    513.42268  0.012113597  0.011265605           13 
 3533000   0.70614122   -8.6622038    514.95036  0.012146202  0.011261394           11 
 3534000   0.69184144   -8.6791028    514.26197  0.012126532  0.011257173           14 
 3535000   0.67873061   -8.6800892    513.36436  0.012101942  0.011252958           18 
 3536000   0.67301538   -8.6618007    513.46065  0.012100788  0.011248745           14 
 3537000   0.69577235   -8.6827895    514.53008  0.012122563  0.011244535           20 
 3538000   0.68628486   -8.6679758    514.38545   0.01211573  0.011240323           11 
 3539000    0.6990129   -8.6803293    513.91746  0.012101287  0.011236113           20 
 3540000   0.68369875   -8.6657999    514.70439  0.012116393  0.011231914           24 
 3541000   0.68014431   -8.6582866    513.68651  0.012089017  0.011227712           23 
 3542000     0.676323   -8.6654564    513.96111  0.012092065  0.011223516           24 
 3543000   0.68266862   -8.6682752    513.78649  0.012084544  0.011219321           18 
 3544000   0.67318269   -8.6600093    513.88923   0.01208355  0.011215124           16 
 3545000   0.69625329   -8.6728602    514.50257   0.01209456  0.011210924           18 
 3546000   0.68958474   -8.6456891    513.51504  0.012067941  0.011206732           16 
 3547000   0.68035138   -8.6605128    513.42735  0.012062479  0.011202547           18 
 3548000   0.68181754   -8.6747887    515.57147  0.012109439  0.011198361           18 
 3549000   0.69815654   -8.6627409    514.87781  0.012089739  0.011194174           11 
 3550000   0.68458017   -8.6849099    514.22291   0.01207096  0.011189992           27 
 3551000   0.66710103   -8.6899577    513.97113  0.012061652  0.011185799           12 
 3552000   0.68090063   -8.6634651    513.60913  0.012049764  0.011181614           15 
 3553000     0.695356   -8.6701147    514.92968  0.012077345  0.011177437           20 
 3554000   0.68986315   -8.6324391    516.20049  0.012103744  0.011173276           16 
 3555000   0.67008586    -8.676794    514.72348  0.012065717   0.01116911            7 
 3556000   0.69711194   -8.6677152    514.21173  0.012050331  0.011164945           11 
 3557000   0.67473841   -8.6540303    512.72467  0.012012104  0.011160787           20 
 3558000   0.67877195   -8.6554724    514.64437   0.01205369  0.011156622           14 
 3559000   0.68973694   -8.6384923    514.91929  0.012056741  0.011152463           13 
 3560000   0.68796083   -8.6771983    514.41672   0.01204159  0.011148303           21 
 3561000   0.68908126   -8.6614074    514.06149  0.012029895   0.01114415           21 
 3562000   0.68526948   -8.6474536    514.19974  0.012029752      0.01114           21 
 3563000    0.7000311   -8.6683087    513.77035  0.012016333  0.011135846           11 
 3564000   0.67228082   -8.6926272    513.44685  0.012005398  0.011131686            8 
 3565000   0.66711649   -8.7002775    512.90457  0.011989354  0.011127526            7 
 3566000   0.68573081   -8.6686032    514.37633  0.012020385  0.011123369            9 
 3567000   0.66616405   -8.6722394     514.8316  0.012027652   0.01111921            9 
 3568000    0.6853502   -8.6948689    513.96617  0.012004068  0.011115054           14 
 3569000    0.6723398   -8.6934509    514.11757  0.012004239  0.011110898           12 
 3570000   0.69872382   -8.6877546    512.72835  0.011968449  0.011106738           11 
 3571000   0.66826295    -8.684069     514.4745  0.012005846  0.011102586           14 
 3572000   0.68847633   -8.6673406    514.42803  0.012001401  0.011098434            8 
 3573000   0.67700474   -8.6872554     513.3913  0.011973862  0.011094283           15 
 3574000   0.67811211   -8.6727181    513.28352  0.011967999  0.011090127           18 
 3575000   0.70402801   -8.6829829    514.29445  0.011988216   0.01108598            9 
 3576000   0.68110488   -8.6936074    514.09451  0.011980204  0.011081826            8 
 3577000   0.67812825   -8.7039786    513.86937  0.011971609  0.011077674           10 
 3578000   0.68434666   -8.6889851    513.45025  0.011958502  0.011073528            6 
 3579000   0.67759283   -8.7059401    513.66396  0.011960137  0.011069387            5 
 3580000   0.67752268   -8.6746844    514.23761  0.011970149  0.011065245           11 
 3581000   0.67900433   -8.6988337    513.33009  0.011945688  0.011061103           11 
 3582000   0.66309959   -8.6942773    515.17983  0.011985386  0.011056961            5 
 3583000   0.68225985   -8.6768026     514.1654  0.011958447  0.011052814            8 
 3584000   0.67071812   -8.6800103    514.03004  0.011951963  0.011048667           11 
 3585000   0.68903449   -8.6858385    513.67621  0.011940405  0.011044521            7 
 3586000   0.67495553   -8.7003219    513.54166  0.011933948   0.01104038           16 
 3587000   0.68396486   -8.7181923    513.05588  0.011919336  0.011036239           10 
 3588000   0.68362724   -8.6922323    513.67622  0.011930421  0.011032104           17 
 3589000   0.66742015   -8.6629321    514.10338  0.011937015   0.01102797            9 
 3590000   0.66635251    -8.702658    514.21368  0.011936251  0.011023832            8 
 3591000   0.67832499   -8.7260556    513.17069  0.011908723  0.011019684           12 
 3592000   0.67891527   -8.7138991     513.2033  0.011906164  0.011015542            6 
 3593000     0.675935   -8.7113811    513.18522  0.011902431  0.011011401            4 
 3594000   0.67448978   -8.7310786    512.99064  0.011894608  0.011007267           12 
 3595000   0.69235401   -8.7169498    512.99359  0.011891367  0.011003127           15 
 3596000   0.68096969   -8.7069603    513.52124  0.011900288  0.010998991            5 
 3597000   0.67847637   -8.7289572    512.87679   0.01188205  0.010994857            9 
 3598000   0.66585193   -8.7024279    513.78203  0.011899713  0.010990725            7 
 3599000   0.68387983   -8.7176354    513.01696  0.011878692  0.010986596           10 
 3600000   0.67920837   -8.6972891    513.17719  0.011879102  0.010982477            6 
 3601000     0.683025   -8.7327883    513.17845  0.011875832  0.010978355            6 
 3602000   0.67390005   -8.7182813     513.3477  0.011876451  0.010974225            7 
 3603000   0.66025518   -8.7094919    512.93044  0.011863503  0.010970104            9 
 3604000   0.67463922   -8.7078219     513.3317   0.01186949   0.01096599           11 
 3605000   0.68095033    -8.722481    512.11132  0.011837987  0.010961868           11 
 3606000   0.68379611   -8.7099244     513.1267  0.011858169  0.010957754           10 
 3607000   0.66669756   -8.7192772    512.93782  0.011850518  0.010953634            7 
 3608000   0.67282682     -8.69259    513.95614  0.011870753  0.010949517           11 
 3609000   0.68599807   -8.7117429    513.22887  0.011850671  0.010945398           12 
 3610000    0.6760909   -8.7117897    512.85192  0.011838687  0.010941289           11 
 3611000   0.67919143   -8.6949635    513.43663  0.011848902  0.010937181            7 
 3612000    0.6784742   -8.7094165     512.6744  0.011828036  0.010933068            5 
 3613000   0.66357376   -8.7146824    512.95007  0.011831121  0.010928956            9 
 3614000    0.6730925   -8.7380818    513.48461  0.011840173  0.010924849            9 
 3615000   0.67570698     -8.71049    512.79212  0.011820934  0.010920743            7 
 3616000   0.64877979   -8.7230372    514.25417  0.011851359  0.010916638            7 
 3617000   0.65916279   -8.7213575    513.32058  0.011826573  0.010912538            7 
 3618000    0.6718562   -8.7252179    512.72983  0.011809698  0.010908426            8 
 3619000   0.66890072   -8.6830871    512.76223   0.01180718  0.010904324           11 
 3620000   0.68344495   -8.7014973    512.31139   0.01179354  0.010900226            6 
 3621000   0.66775306   -8.7300785    512.55324  0.011795849  0.010896123            8 
 3622000   0.67414974   -8.7168647     513.1818  0.011807054  0.010892028           15 
 3623000   0.66165232   -8.7359207    512.85006  0.011796165  0.010887928           12 
 3624000   0.68225216   -8.7224599    513.34807  0.011804361  0.010883835           13 
 3625000   0.65662232   -8.6907745    513.05958  0.011794473  0.010879743           16 
 3626000   0.67504153   -8.7135058    513.55466  0.011802598  0.010875655            7 
 3627000   0.65804938   -8.6916561    513.70807  0.011802869  0.010871573            8 
 3628000   0.65969202    -8.718012    513.04506  0.011784387  0.010867492           12 
 3629000   0.67364679   -8.7105891    513.75064  0.011797342  0.010863411           13 
 3630000   0.66515382   -8.7172757    512.75345  0.011771199   0.01085933            8 
 3631000    0.6657041   -8.7125927    513.69512  0.011789569  0.010855252            8 
 3632000   0.66624431   -8.7331889    512.76672  0.011765022  0.010851168           19 
 3633000   0.67972656   -8.7169309    512.58087  0.011757521   0.01084709            5 
 3634000   0.67907509   -8.7218483    512.89206  0.011761421  0.010843008           10 
 3635000   0.66744729   -8.7095224    512.44474  0.011747931  0.010838932           10 
 3636000   0.67379673   -8.7188141    513.15849  0.011761058  0.010834851           22 
 3637000   0.67605853    -8.728466    513.25602  0.011760059  0.010830763            9 
 3638000   0.67931526   -8.7102522    512.00429  0.011728154  0.010826682           14 
 3639000   0.66619868    -8.715835    512.26855  0.011730983  0.010822606           28 
 3640000    0.6786216   -8.7298963    512.44442  0.011731786  0.010818527           21 
 3641000   0.67155256   -8.7285004    512.40397  0.011727638  0.010814452           21 
 3642000   0.68318074   -8.7402935    511.84705  0.011711675  0.010810367           15 
 3643000   0.65401257   -8.7227336    513.60473  0.011748667  0.010806293            7 
 3644000   0.67146751   -8.6992096    512.84564  0.011728084  0.010802232           15 
 3645000   0.65720083   -8.7282112    511.74524  0.011699708  0.010798162           29 
 3646000   0.68470307   -8.7085302    513.15336  0.011728683  0.010794094            9 
 3647000   0.66815206   -8.7409469    511.93151  0.011697548  0.010790032           10 
 3648000   0.65924131   -8.7103466    512.72314  0.011712425  0.010785967           17 
 3649000   0.67194534   -8.7297354    512.46931  0.011703419  0.010781911           21 
 3650000   0.67215213   -8.7440244    511.57784  0.011679859  0.010777852            5 
 3651000   0.66518813   -8.7131432    512.19343  0.011690711  0.010773797           14 
 3652000   0.66955621   -8.7252578    511.71626  0.011676622  0.010769744            9 
 3653000   0.67243448   -8.7264308    512.34686   0.01168781   0.01076569           17 
 3654000   0.65884341   -8.7182861    513.23579  0.011704885  0.010761638           13 
 3655000    0.6584374   -8.7425019    512.74383  0.011690466  0.010757596            9 
 3656000   0.65127359   -8.7173081     511.8711  0.011667376   0.01075355            6 
 3657000   0.65319655   -8.7357451    511.74628  0.011661341  0.010749502            9 
 3658000   0.67328647   -8.7482706    512.96495  0.011685916  0.010745458           10 
 3659000   0.65897765   -8.7281507    512.09378  0.011662881  0.010741409            8 
 3660000   0.65712406   -8.7556597    512.63964  0.011672123  0.010737357            9 
 3661000   0.66620087   -8.7303647    512.96153  0.011676262  0.010733315           10 
 3662000   0.67143346   -8.7434769     512.6179  0.011665254  0.010729268           15 
 3663000   0.66624692   -8.7494407    511.63914  0.011639802  0.010725222           18 
 3664000   0.67195759   -8.7311774    512.96651  0.011666815  0.010721181           15 
 3665000    0.6608642   -8.7420998    512.51134  0.011653282  0.010717144           13 
 3666000   0.65926273   -8.7399283    512.42887  0.011648229  0.010713104           15 
 3667000   0.67436288    -8.724281    513.11669  0.011660683  0.010709073           12 
 3668000   0.65124952   -8.7225525    512.47968  0.011643032  0.010705031           11 
 3669000   0.65963009    -8.737547    512.67062  0.011644195  0.010701003            7 
 3670000   0.66971214   -8.7365668    512.78919  0.011643715  0.010696967            8 
 3671000   0.66057415   -8.7292917    513.13249  0.011648336  0.010692935           11 
 3672000   0.65243914   -8.7325525    512.73144  0.011636062  0.010688909            8 
 3673000   0.65774558   -8.7693838    512.26943  0.011622412  0.010684873            9 
 3674000   0.65843161   -8.7180307    512.29355  0.011619796  0.010680841           13 
 3675000   0.65801015   -8.7377693    511.94586   0.01160875  0.010676814            4 
 3676000   0.66752645   -8.7609087    512.09807  0.011609042   0.01067279           13 
 3677000   0.68087284    -8.736625    512.25909  0.011609534  0.010668767           15 
 3678000   0.65476277   -8.7316782     511.5312  0.011589886  0.010664746            6 
 3679000   0.66254181   -8.7267268    512.96671  0.011619251  0.010660722            5 
 3680000   0.65069695   -8.7409528    512.45558  0.011604519  0.010656704            4 
 3681000   0.66112111   -8.7458455    512.74807  0.011607989  0.010652691            8 
 3682000   0.65587365   -8.7392918    512.73918  0.011604635  0.010648668            9 
 3683000   0.66079813   -8.7286993    510.95673  0.011561153  0.010644649           10 
 3684000   0.67858196   -8.7693463    511.93605  0.011580168  0.010640633           13 
 3685000   0.66707331   -8.7439752    512.66981  0.011593618  0.010636621           17 
 3686000   0.66370664   -8.7718639    512.32327  0.011582639  0.010632607           13 
 3687000    0.6781213   -8.7474709    511.72392  0.011565951    0.0106286            7 
 3688000   0.68035404   -8.7510411     511.7018  0.011562315  0.010624595            9 
 3689000   0.66322669   -8.7722711    512.10246  0.011568231   0.01062059            7 
 3690000   0.66293733   -8.7504795    512.83308  0.011581596  0.010616585            8 
 3691000   0.64199849   -8.7507892    511.73728  0.011553718  0.010612577           12 
 3692000   0.65058076   -8.7594998    512.62097  0.011570535  0.010608576            9 
 3693000   0.65862883   -8.7588574    513.73236   0.01159248  0.010604583           13 
 3694000   0.66604046   -8.7454505    512.95435  0.011571791   0.01060058            4 
 3695000   0.67392072   -8.7579508    512.28126  0.011553479  0.010596586            7 
 3696000    0.6683932   -8.7730592     512.0641  0.011545457  0.010592594           12 
 3697000   0.66373766   -8.7452882    512.46646  0.011551403  0.010588608            9 
 3698000   0.66008893   -8.7739524    512.32022  0.011544984  0.010584619           18 
 3699000   0.66784059   -8.7510432    511.27709  0.011518363  0.010580627            7 
 3700000   0.65620584   -8.7537984    511.30787  0.011515943  0.010576648            6 
 3701000   0.64828958   -8.7734205    511.79954  0.011523902   0.01057267           11 
 3702000   0.66494399   -8.7566172    512.41062  0.011534545  0.010568687           13 
 3703000   0.66196664   -8.7647959    513.19632  0.011549112  0.010564713           11 
 3704000   0.65615891    -8.746246     511.8241  0.011515121  0.010560739           22 
 3705000   0.65327197   -8.7396063    513.14178   0.01154165  0.010556762            9 
 3706000   0.65187472   -8.7146323    512.20355  0.011517439   0.01055279           11 
 3707000   0.65420538   -8.7726703    510.93455  0.011485805  0.010548822           12 
 3708000   0.64561044    -8.750588    512.42988  0.011516313  0.010544854           11 
 3709000   0.66148877   -8.7645921    512.35807  0.011511595  0.010540882           13 
 3710000   0.65148556   -8.7489905     512.0276  0.011501069  0.010536916            7 
 3711000   0.64875675   -8.7458512    512.45978  0.011507675  0.010532944            5 
 3712000   0.65179414   -8.7444962    512.45749  0.011504523  0.010528983            8 
 3713000   0.66414861   -8.7564234    512.51546  0.011502726  0.010525016            8 
 3714000   0.66961256   -8.7657404    512.32981  0.011495463   0.01052105            6 
 3715000   0.64828454   -8.7922737    512.04321   0.01148594  0.010517087            6 
 3716000   0.66916042    -8.750868    512.22282  0.011486877  0.010513119           15 
 3717000   0.65296346   -8.7550059    511.25097  0.011461998  0.010509156           10 
 3718000   0.64458702   -8.7362013    511.31644  0.011460383  0.010505195            5 
 3719000   0.65963921   -8.7353377    511.98445   0.01147227  0.010501238            5 
 3720000   0.65830716    -8.734392    512.77158  0.011486818  0.010497282           12 
 3721000   0.66385764   -8.7485068    512.26536  0.011472394  0.010493332            6 
 3722000   0.65122634   -8.7779634    511.79331  0.011458743  0.010489392           11 
 3723000   0.64769205   -8.7548339    512.37494  0.011468684  0.010485445           12 
 3724000    0.6531834   -8.7474945    512.36918  0.011465476  0.010481494            7 
 3725000   0.65526979   -8.7500403    512.40911  0.011463291  0.010477549            7 
 3726000   0.64847761   -8.7577597    512.07523  0.011452747  0.010473605           13 
 3727000   0.65871955   -8.7494454    513.19613  0.011474737  0.010469665            7 
 3728000   0.65227781   -8.7582239    511.98635  0.011444616   0.01046572           10 
 3729000   0.66007041   -8.7665368    512.53552   0.01145382  0.010461775            9 
 3730000   0.65967213   -8.7572889    513.05353  0.011462322  0.010457833           14 
 3731000    0.6695859   -8.7669282    512.05807  0.011437016  0.010453895           12 
 3732000   0.65510943   -8.7533612    511.77025  0.011427524  0.010449959           16 
 3733000    0.6511309   -8.7731819    512.48354  0.011440386  0.010446022           11 
 3734000   0.65785535   -8.7670225    512.61116   0.01144017  0.010442085           13 
 3735000   0.65144837   -8.7508048    512.01943  0.011423905   0.01043815           20 
 3736000   0.64516803   -8.7880903     511.2911  0.011404602  0.010434212           17 
 3737000   0.63990299   -8.7357246    512.67207  0.011432345  0.010430282            8 
 3738000   0.65042517   -8.7753048    511.92236  0.011412573  0.010426357           15 
 3739000   0.65729442   -8.7911869    512.01088  0.011411493  0.010422431            5 
 3740000   0.65921594   -8.7646933    511.95928  0.011407292  0.010418504            8 
 3741000   0.65663654   -8.7481181    512.13185  0.011408087  0.010414579           12 
 3742000   0.65157768   -8.7796791    511.64229  0.011394136   0.01041066           19 
 3743000   0.65192853   -8.7763184    511.64222   0.01139109  0.010406739           13 
 3744000   0.65078936   -8.7726316     511.5224  0.011385381  0.010402819           11 
 3745000   0.66401987   -8.7819684     511.8023  0.011388569  0.010398899           14 
 3746000   0.64675918   -8.8002128    511.72696  0.011383853  0.010394974            9 
 3747000   0.64128613   -8.7397203    511.08042  0.011366436  0.010391052           15 
 3748000   0.66701457   -8.7756849    511.42732  0.011371116  0.010387132           13 
 3749000   0.64384529   -8.7770185    511.62753  0.011372533  0.010383209            7 
 3750000   0.63661546   -8.7807857     511.7745  0.011372767  0.010379295           11 
 3751000   0.65701622   -8.7751356    510.77614  0.011347555  0.010375376            6 
 3752000   0.65121556   -8.7797826    511.17908   0.01135348  0.010371466           26 
 3753000   0.64701779   -8.7540221    512.19231  0.011372953  0.010367562           17 
 3754000   0.64665947   -8.7802486    512.29486    0.0113722   0.01036366           19 
 3755000   0.64815912   -8.7831442    511.88579  0.011360093  0.010359751            9 
 3756000   0.66389801    -8.776141    512.21977  0.011364478  0.010355851           21 
 3757000   0.64851791   -8.7853052    510.58882  0.011325278  0.010351954           17 
 3758000   0.64411022   -8.7762729    511.80264   0.01134918  0.010348053           12 
 3759000   0.66304768   -8.7839849    511.16543  0.011332035  0.010344159            9 
 3760000   0.63855133   -8.7929686    512.12414  0.011350269   0.01034026           10 
 3761000   0.65483959    -8.776121    512.01615  0.011344859  0.010336368           10 
 3762000   0.65077789   -8.7682247    510.68885  0.011312441  0.010332472           13 
 3763000   0.65310162   -8.7634573    511.79098  0.011333842  0.010328582           24 
 3764000   0.64708729   -8.7923906    510.72636  0.011307261  0.010324692           14 
 3765000   0.65400185   -8.7703969    512.52584  0.011344087  0.010320809           21 
 3766000   0.66218335   -8.7673755    511.75373  0.011323989  0.010316923           12 
 3767000   0.65059831   -8.8011723    511.33158  0.011311645  0.010313036            8 
 3768000   0.64397728   -8.7896478    512.03082  0.011324107  0.010309144            9 
 3769000   0.63914692   -8.7871378    511.26375  0.011304142  0.010305262           17 
 3770000   0.65076334   -8.7704492    511.93617  0.011316007   0.01030137           15 
 3771000   0.65046522   -8.7809238    511.59462  0.011305459  0.010297488           12 
 3772000   0.64652325   -8.7885502    510.99051  0.011289115  0.010293606           11 
 3773000   0.66665908   -8.8192611    510.14462   0.01126744  0.010289726           24 
 3774000   0.64863167   -8.7807184    511.86829  0.011302515  0.010285841           15 
 3775000   0.65530121   -8.7755988    512.37213  0.011310643  0.010281969           16 
 3776000   0.65234297   -8.7586325    511.91488  0.011297556  0.010278097           15 
 3777000   0.63727547   -8.7693642     511.3838  0.011282848  0.010274229            8 
 3778000   0.64847713   -8.7897161    511.12036  0.011274051  0.010270355            8 
 3779000   0.64517248   -8.7827018    511.16301  0.011272008  0.010266478           14 
 3780000   0.63972009   -8.7741429    511.42305  0.011274759   0.01026261           17 
 3781000   0.64062668   -8.7982904    511.91488  0.011282617   0.01025874           19 
 3782000   0.63594117   -8.7850783      511.783  0.011276728  0.010254868            9 
 3783000   0.64158294    -8.777366    511.06068  0.011257835  0.010251013           14 
 3784000   0.64661644   -8.7912315    510.54447  0.011243492  0.010247152           14 
 3785000   0.65101253   -8.7899675    511.31801  0.011257552  0.010243289           14 
 3786000   0.63864657    -8.807331    512.07349  0.011271207  0.010239433           15 
 3787000   0.64862879   -8.7790529      511.293  0.011251056  0.010235572           14 
 3788000   0.64262307   -8.7987196    510.37715  0.011227938  0.010231715           12 
 3789000   0.66541278   -8.8109749    511.22071  0.011243528  0.010227862           12 
 3790000   0.65635806   -8.7943754    511.66194  0.011250262     0.010224           15 
 3791000   0.64393117   -8.7882502    510.71504   0.01122648   0.01022015           11 
 3792000   0.65615345   -8.7700522    511.16877  0.011233491  0.010216305            7 
 3793000   0.65620304   -8.7810616    510.65521  0.011219246  0.010212457            7 
 3794000   0.64744506    -8.778906    511.70124  0.011239265  0.010208606           18 
 3795000   0.64577917   -8.8273794    510.56843  0.011211428  0.010204759            9 
 3796000   0.64405601   -8.8017526    511.39187  0.011226551  0.010200912           12 
 3797000   0.64585795   -8.7995703    511.59286  0.011228006  0.010197064           17 
 3798000   0.63938761   -8.7944093    512.06736  0.011235461  0.010193215            9 
 3799000   0.65057826    -8.805383    511.29709  0.011215607   0.01018937           22 
 3800000   0.64620264   -8.7760261    510.93515  0.011204718  0.010185531           22 
 3801000   0.65727021   -8.7674231    511.46315  0.011213346  0.010181697           11 
 3802000   0.64223588   -8.7978768    511.09734  0.011202379  0.010177863           10 
 3803000   0.65762006   -8.7889878     510.9982  0.011197261  0.010174027            8 
 3804000   0.63635635   -8.7939452    511.55018   0.01120641  0.010170195           13 
 3805000   0.63607535   -8.8084278    511.10399  0.011193692  0.010166364           12 
 3806000   0.65028632   -8.8026264    510.88893  0.011186043  0.010162532           16 
 3807000   0.64533702   -8.7953807    510.82492  0.011181703  0.010158702           13 
 3808000   0.63324323   -8.7915125    510.58284  0.011173469  0.010154873           16 
 3809000   0.61802413   -8.8030984    511.38981   0.01118819  0.010151037           14 
 3810000   0.64617671   -8.8111068    511.61423  0.011190162   0.01014721            8 
 3811000   0.64189616    -8.799594    510.64262   0.01116598  0.010143378           20 
 3812000    0.6540108   -8.8248377    510.35143  0.011156686  0.010139553           19 
 3813000   0.64777568   -8.8169501    510.62955  0.011159838  0.010135735           10 
 3814000   0.64079413   -8.8043556    511.35479  0.011172758  0.010131919            9 
 3815000   0.63839641   -8.8088722    511.56758  0.011174477  0.010128105           14 
 3816000   0.63777492   -8.8082351     510.6033  0.011150491  0.010124288           19 
 3817000   0.64741862   -8.7917988    510.37159  0.011142511  0.010120473           11 
 3818000   0.63647285   -8.8032967    510.96383  0.011152519  0.010116663           12 
 3819000   0.63621707   -8.8186819    511.24315  0.011155694  0.010112853            9 
 3820000   0.64413311    -8.810578    510.58183  0.011138347  0.010109044           10 
 3821000   0.63581532    -8.803754    511.34355  0.011152045   0.01010524           15 
 3822000   0.62511251   -8.8141179    511.07896  0.011143358  0.010101436           17 
 3823000   0.63435072   -8.8003879    510.56856  0.011129317  0.010097631           19 
 3824000   0.63398764    -8.808956    509.75333  0.011108641  0.010093827           19 
 3825000   0.62876968   -8.8136251    509.81123  0.011106999  0.010090024           13 
 3826000   0.63839596   -8.8037813    510.70717   0.01112361  0.010086223           23 
 3827000   0.64186576   -8.8151291    510.72579  0.011121109  0.010082424           15 
 3828000   0.63005883   -8.7922065    510.73125  0.011118322  0.010078628           10 
 3829000    0.6454581   -8.7913306     510.9336  0.011119822  0.010074835           11 
 3830000    0.6397593   -8.8094234    510.74394  0.011112792  0.010071045           12 
 3831000     0.636658   -8.7845194    511.31379  0.011122287  0.010067261           11 
 3832000   0.65109916   -8.7984789      511.664  0.011127001  0.010063473            9 
 3833000   0.62201981   -8.8186735    510.78988  0.011105094  0.010059685           15 
 3834000   0.62340895   -8.8177952    511.06516   0.01110818  0.010055901           13 
 3835000   0.62494541   -8.7823671    510.57703  0.011094677   0.01005212           13 
 3836000   0.62645248   -8.8232023    509.62518  0.011071107  0.010048329           15 
 3837000   0.63806444   -8.8319387    510.70947   0.01109177  0.010044544           18 
 3838000   0.64329838   -8.8256792    510.27348  0.011079414  0.010040762            8 
 3839000   0.65655814    -8.813763    511.31451  0.011099125  0.010036982           13 
 3840000   0.64086316   -8.8092125    510.80667  0.011085214  0.010033202            9 
 3841000   0.64031748   -8.8112431    510.80863  0.011082371  0.010029419           14 
 3842000   0.64655506   -8.8024499     511.3108  0.011090378  0.010025638           12 
 3843000   0.63151355   -8.8214075    510.95452  0.011079767  0.010021861           14 
 3844000   0.62723975   -8.8087469    510.05507  0.011057385  0.010018087           14 
 3845000   0.62356672   -8.8211942    510.46023  0.011063291  0.010014318           13 
 3846000    0.6351204   -8.8149277    510.48115  0.011060867  0.010010553           17 
 3847000   0.63756789   -8.8355679    510.75592  0.011063944  0.010006782           15 
 3848000   0.62348297   -8.8093874    510.16135  0.011048193  0.010003008           18 
 3849000   0.63890584   -8.8082348     510.9173  0.011061689 0.0099992347           12 
 3850000    0.6361235   -8.8170972     510.0345  0.011039708 0.0099954687           16 
 3851000   0.63630515   -8.8013769    510.97504  0.011057194 0.0099917004           10 
 3852000   0.63339565   -8.8022425    509.94023  0.011031936 0.0099879334            9 
 3853000    0.6320455   -8.8123692    511.04451  0.011052957  0.009984181           14 
 3854000   0.62495229   -8.8356717    510.33737  0.011034799 0.0099804184           17 
 3855000   0.61887045   -8.8106261    510.49995  0.011035451 0.0099766625           16 
 3856000   0.64066741   -8.8066849    510.54782  0.011033623 0.0099729088           19 
 3857000    0.6280546   -8.8266964     509.9576  0.011018011 0.0099691547           26 
 3858000   0.63541399   -8.8350461    510.13895  0.011019072 0.0099653977           10 
 3859000   0.64011228   -8.8343332     511.6468  0.011048778 0.0099616479           12 
 3860000   0.63834573   -8.8177104    511.17806  0.011035796 0.0099578924           18 
 3861000   0.62591614   -8.8381243     511.0434  0.011030031 0.0099541471           12 
 3862000   0.64584142   -8.8307654    510.73777   0.01102058 0.0099503955           12 
 3863000   0.62440167    -8.810541    509.75296  0.010996483 0.0099466448           10 
 3864000   0.62810475   -8.8300084    510.45633  0.011008806 0.0099428973           13 
 3865000   0.63039233   -8.8291726    510.35641  0.011003804 0.0099391516           11 
 3866000   0.62378932   -8.8532011    510.93301  0.011013386 0.0099354092           16 
 3867000    0.6262692   -8.8358085    510.58232  0.011002981 0.0099316638           13 
 3868000    0.6281235    -8.819068    510.94467  0.011007943  0.009927919           12 
 3869000   0.63706962   -8.8330447    510.17108  0.010988435 0.0099241765           21 
 3870000   0.63070111   -8.8219785    510.00159  0.010981946 0.0099204342            8 
 3871000   0.63614771   -8.8291275    510.62005  0.010992423 0.0099166965           11 
 3872000   0.63936127   -8.8583241    509.72048  0.010970224 0.0099129594           16 
 3873000   0.62529499   -8.8287476    509.52802   0.01096325 0.0099092221           15 
 3874000   0.63094168   -8.8383179    510.13628  0.010973504 0.0099054806           21 
 3875000   0.63500843   -8.8430806    510.43671  0.010977134 0.0099017467           20 
 3876000   0.63554645   -8.8513401    510.19437  0.010969091 0.0098980188           22 
 3877000   0.64186179    -8.848462     509.4702  0.010950696 0.0098942849           20 
 3878000   0.63170906   -8.8350857    510.27923  0.010965258 0.0098905585           19 
 3879000   0.62917886   -8.8457649    510.77671  0.010973118 0.0098868336           20 
 3880000   0.64054826   -8.8306841     510.8227  0.010971278 0.0098831174           13 
 3881000   0.62343488   -8.8205671    510.69038   0.01096561 0.0098793995           16 
 3882000   0.63574208   -8.8221677    511.00772  0.010969597 0.0098756874           19 
 3883000    0.6080087   -8.8416863     510.0497  0.010946212 0.0098719678           17 
 3884000   0.62063025   -8.8428231    510.69366   0.01095721 0.0098682526           18 
 3885000   0.63257051   -8.8412644    510.73196  0.010955211 0.0098645365           29 
 3886000   0.63589436   -8.8310293    510.76388  0.010953077 0.0098608207           21 
 3887000   0.64305573   -8.8264394    511.30435  0.010961846 0.0098571114           21 
 3888000   0.61663141   -8.8385975     511.0175  0.010952879  0.009853405           16 
 3889000    0.6358948   -8.8213192     510.0011  0.010928283 0.0098497022           15 
 3890000    0.6187149   -8.8474698    510.76104  0.010941753 0.0098459923           21 
 3891000   0.62626895   -8.8473377    510.13541  0.010925542 0.0098422891           21 
 3892000   0.62725315   -8.8476895    509.91208  0.010917953 0.0098385881           17 
 3893000   0.62798379   -8.8602593      510.834  0.010934883 0.0098348884           16 
 3894000    0.6050788   -8.8197517    509.88802  0.010911831 0.0098311874           21 
 3895000   0.61952402   -8.8512347     511.3264  0.010939803  0.009827492           17 
 3896000   0.63050794   -8.8484577    510.11998  0.010911191 0.0098237882           11 
 3897000   0.62107583    -8.834576    509.79957  0.010901539 0.0098200993           19 
 3898000   0.62354645    -8.852358    510.60028   0.01091586 0.0098164053            6 
 3899000   0.63329493   -8.8278606    510.93503  0.010920215 0.0098127156           25 
 3900000   0.61854256   -8.8348045    510.36041  0.010905137  0.009809024            7 
 3901000   0.61879098   -8.8502211    510.04439  0.010895591 0.0098053333           19 
 3902000   0.62516447   -8.8490727    509.95403  0.010890869 0.0098016472           19 
 3903000   0.63245574   -8.8345229    509.44076  0.010877119 0.0097979623           10 
 3904000   0.61985075   -8.8410796    510.67684  0.010900718 0.0097942772            8 
 3905000   0.61448235   -8.8382982    510.73824  0.010899237 0.0097905963           14 
 3906000   0.63499358    -8.840441    510.85922  0.010899028 0.0097869181           11 
 3907000    0.6340127   -8.8535156    509.87504  0.010875246 0.0097832373           27 
 3908000   0.63693643   -8.8464484    509.67898  0.010868283 0.0097795593           17 
 3909000    0.6313842   -8.8320789    510.19861   0.01087658 0.0097758927           20 
 3910000   0.61112729    -8.828217    510.09504  0.010871591 0.0097722164           25 
 3911000   0.63152146   -8.8471848    510.06064  0.010868078 0.0097685437           10 
 3912000   0.61793356    -8.845843    510.26375  0.010869627 0.0097648715           19 
 3913000   0.62171632   -8.8442057     510.4017  0.010869787 0.0097612118           20 
 3914000   0.62041998    -8.832117    510.00428  0.010858548 0.0097575484           29 
 3915000   0.63773477   -8.8525022    510.71098  0.010870817 0.0097538875           23 
 3916000   0.61355039   -8.8454482    509.91613  0.010851126 0.0097502232           16 
 3917000   0.62698399   -8.8533813    509.47122  0.010838891 0.0097465604           20 
 3918000   0.62512712   -8.8437013    510.26246  0.010852953 0.0097429001           20 
 3919000   0.62167967   -8.8518978    509.50536  0.010834085 0.0097392446           20 
 3920000   0.60522372   -8.8262815    510.63468  0.010855329 0.0097355925           31 
 3921000   0.63208315   -8.8440132    510.43228  0.010848259 0.0097319441           11 
 3922000   0.63161926   -8.8546883    510.58662  0.010848772 0.0097282921           14 
 3923000   0.61212421   -8.8613946    509.76768  0.010828611 0.0097246418           13 
 3924000   0.63568542     -8.84822    510.47002  0.010840767 0.0097209935           18 
 3925000   0.61996342   -8.8642421    509.22267  0.010811522 0.0097173467           18 
 3926000   0.62299268   -8.8562502    510.44965  0.010834812 0.0097137027           18 
 3927000   0.61428467    -8.857823    508.85109   0.01079813 0.0097100596           18 
 3928000   0.62021305   -8.8047586    511.05357  0.010842107 0.0097064238           13 
 3929000   0.61671447   -8.8584516    509.64141  0.010809396 0.0097027919           21 
 3930000   0.62102698   -8.8469193    509.09667  0.010795095  0.009699156           14 
 3931000    0.6339958   -8.8595585    510.65188  0.010825318 0.0096955242            8 
 3932000   0.61649166   -8.8447364    510.49907  0.010819326 0.0096918908           11 
 3933000   0.62203846   -8.8455213     510.2928  0.010812204 0.0096882564           10 
 3934000   0.61393104   -8.8615096    510.13251  0.010806061 0.0096846225           13 
 3935000   0.63012078   -8.8394499    510.41058  0.010809203 0.0096809888           12 
 3936000   0.60963276   -8.8490202    510.70411  0.010812672 0.0096773588           19 
 3937000   0.61807044   -8.8248849    510.65257  0.010808834 0.0096737359           22 
 3938000   0.62586831   -8.8413657    510.51794  0.010803241 0.0096701124           28 
 3939000   0.61014643   -8.8373222    510.25519  0.010794939 0.0096664807           17 
 3940000   0.62418169   -8.8626209    510.03024  0.010787442 0.0096628537           18 
 3941000   0.61299907    -8.844912     510.2116  0.010788539 0.0096592294           16 
 3942000   0.61324167   -8.8458325    509.27682  0.010766041 0.0096556053           27 
 3943000   0.61866185   -8.8602967    510.64054  0.010792133 0.0096519842           26 
 3944000   0.61326849   -8.8488806    510.47353  0.010785867 0.0096483669           24 
 3945000   0.62884889   -8.8540463    510.20597  0.010777481 0.0096447529           26 
 3946000   0.61173683   -8.8393174    510.62338  0.010783565 0.0096411363           34 
 3947000   0.62224874   -8.8308621    509.56275   0.01075844 0.0096375237           37 
 3948000   0.61280967   -8.8315824    510.00095  0.010764964 0.0096339122           26 
 3949000   0.61256395   -8.8412378    511.10242  0.010785482 0.0096303044           19 
 3950000   0.62512918   -8.8540796     510.5309  0.010770694 0.0096267014           11 
 3951000   0.62037793   -8.8487566    509.59678  0.010748266 0.0096230931            9 
 3952000   0.60961817   -8.8398202    510.53829  0.010765399 0.0096194934           17 
 3953000   0.64130366   -8.8756272    510.10566  0.010753556  0.009615898            8 
 3954000   0.63296076   -8.8424825    509.90174  0.010746538 0.0096123027           13 
 3955000   0.62815199   -8.8436006    509.50333  0.010735426 0.0096087013           14 
 3956000   0.62004535   -8.8487456    509.78209  0.010738585 0.0096051049           15 
 3957000   0.61847846   -8.8606846    510.12325  0.010743056 0.0096015099            9 
 3958000   0.62219354    -8.851215    509.91926  0.010736046  0.009597916           16 
 3959000   0.61289468   -8.8728807    509.47428  0.010723968 0.0095943217           14 
 3960000   0.62146748   -8.8428212    510.35728  0.010739842 0.0095907281            9 
 3961000   0.62280551   -8.8462358    508.72919  0.010702878 0.0095871366           20 
 3962000   0.62475084   -8.8459859    510.54376  0.010738343  0.009583545           10 
 3963000   0.61938881   -8.8766984    510.02352  0.010724693 0.0095799631           17 
 3964000   0.59946078   -8.8482551    510.26071  0.010726974 0.0095763783           14 
 3965000   0.62012513   -8.8523961    510.15241  0.010721993 0.0095727953           14 
 3966000   0.61423861   -8.8470647    509.67398  0.010709236 0.0095692185           18 
 3967000   0.61945009   -8.8642547    509.20684  0.010696724 0.0095656385           16 
 3968000   0.60210004   -8.8639623    510.08481  0.010712467 0.0095620621           11 
 3969000   0.61778293   -8.8519318    509.69907  0.010701668 0.0095584868           12 
 3970000   0.62053187   -8.8383255    510.36441  0.010712939 0.0095549169           11 
 3971000   0.61108921   -8.8677646    508.60556  0.010673331 0.0095513457           34 
 3972000   0.61468744   -8.8456664    510.38533  0.010707984 0.0095477777           16 
 3973000   0.61622873   -8.8734384     509.1722  0.010679843 0.0095442092           16 
 3974000   0.61135454   -8.8558913    509.51823  0.010684412 0.0095406414           18 
 3975000   0.62468753   -8.8596801     510.7504  0.010707556 0.0095370792           31 
 3976000   0.62309655   -8.8538497    510.63986  0.010702546 0.0095335159           20 
 3977000   0.62847909   -8.8635456    509.70201  0.010680203 0.0095299543           19 
 3978000   0.62379115   -8.8646299     509.1735  0.010666447 0.0095263931           17 
 3979000   0.61851586   -8.8620796    509.90862  0.010679162 0.0095228348           17 
 3980000   0.60495097   -8.8313008    509.68683  0.010671835 0.0095192788           22 
 3981000   0.61487354   -8.8447237    510.16299  0.010679122 0.0095157248           19 
 3982000   0.61011512   -8.8657685    510.91373  0.010692151 0.0095121761           23 
 3983000   0.61379007   -8.8558058     509.7698  0.010665533 0.0095086271           14 
 3984000   0.60943601   -8.8638703    510.99725   0.01068853 0.0095050815           29 
 3985000   0.61921595   -8.8612929    510.58334  0.010677192 0.0095015328           16 
 3986000   0.61507393   -8.8696377    509.87301  0.010659663 0.0094979849           14 
 3987000   0.61545917   -8.8457416    509.33066  0.010645654 0.0094944381           17 
 3988000   0.61085748   -8.8763894    510.25998  0.010662403 0.0094908939           12 
 3989000    0.6206336   -8.8668028    510.03968  0.010655128 0.0094873545           15 
 3990000   0.60886204   -8.8571815    509.79105  0.010647265 0.0094838193           15 
 3991000   0.60478907   -8.8759088    509.72337  0.010643184 0.0094802798            9 
 3992000   0.61764749   -8.8732077    509.71665  0.010640378  0.009476734           11 
 3993000    0.6160973   -8.8477064     509.9782  0.010643171 0.0094731968           15 
 3994000    0.5988929   -8.8695252    510.88043  0.010659331 0.0094696632            8 
 3995000   0.60782238   -8.8377036    510.77125  0.010654386  0.009466133           13 
 3996000   0.59975035   -8.8562899    509.63875  0.010628102 0.0094626005           16 
 3997000    0.6135811    -8.852927    511.37533  0.010661649  0.009459074            9 
 3998000   0.62902972   -8.8634255    510.09494  0.010632294 0.0094555471           12 
 3999000   0.61513224   -8.8701681    509.73422  0.010622118 0.0094520227           15 
 4000000   0.61505113   -8.8698667    509.76767   0.01062016 0.0094484942           12 
 4001000   0.62056759   -8.8630856    509.67517  0.010615579 0.0094449709           16 
 4002000   0.61114396   -8.8528259     509.5198  0.010609691 0.0094414494           12 
 4003000   0.59411267   -8.8632726    510.15094  0.010620179 0.0094379254           18 
 4004000   0.59836929   -8.8622638    511.24107  0.010640215  0.009434408           10 
 4005000   0.60943837   -8.8644234    509.89736    0.0106096 0.0094308875           10 
 4006000   0.61447223   -8.8486311    508.79329  0.010583984 0.0094273736           14 
 4007000   0.61693595   -8.8605601    509.82302  0.010602758 0.0094238602           10 
 4008000   0.60119645   -8.8502996       509.78  0.010599218 0.0094203454           15 
 4009000   0.60384474   -8.8517177    509.96687  0.010600459 0.0094168343            7 
 4010000   0.60924411    -8.877855    509.65046   0.01059124 0.0094133233            9 
 4011000   0.60223123   -8.8560024    510.03179  0.010596522 0.0094098137           12 
 4012000   0.61067447   -8.8617509    510.78763   0.01060958 0.0094063092           14 
 4013000   0.61580858   -8.8544868    510.04661  0.010591549 0.0094028053           14 
 4014000   0.60596094    -8.861977      509.649  0.010580655 0.0093993004            9 
 4015000   0.61602423   -8.8443751    510.51508  0.010595996 0.0093957961           18 
 4016000   0.62069622   -8.8698162    509.36087  0.010569407 0.0093922934            8 
 4017000   0.60839106    -8.857077    509.60497   0.01057184 0.0093887939           15 
 4018000   0.61427282   -8.8636414    510.33149  0.010584277 0.0093852964           10 
 4019000   0.61022766    -8.862872    510.28855  0.010580753 0.0093818043            8 
 4020000   0.60469295   -8.8764099    510.19754  0.010576234 0.0093783098           11 
 4021000   0.60916234   -8.8785104    509.14528  0.010551796 0.0093748172            7 
 4022000   0.60990568   -8.8821692    509.07782  0.010547775  0.009371322           18 
 4023000   0.60306414   -8.8823011    510.25142  0.010569463 0.0093678296           12 
 4024000   0.61048667   -8.8760474    509.80843  0.010557663 0.0093643463           22 
 4025000   0.60621559   -8.8698779    509.76316  0.010554103 0.0093608616            7 
 4026000   0.61104015   -8.8739165    509.59434  0.010547987 0.0093573768           12 
 4027000   0.60260371   -8.8624839    510.51769  0.010564475 0.0093538944            8 
 4028000   0.61013119   -8.8823451    509.73607  0.010545682 0.0093504108           16 
 4029000   0.60609751   -8.8798155    509.03054  0.010528472  0.009346927           12 
 4030000   0.61044625   -8.8594999    510.57577  0.010557812 0.0093434456           20 
 4031000   0.60470064   -8.8742999    509.76965  0.010538527  0.009339965           12 
 4032000   0.60439016   -8.8844916    509.12323  0.010522554 0.0093364889           16 
 4033000   0.61646686   -8.8720933    509.01758  0.010517761  0.009333012           11 
 4034000   0.61332302    -8.857135    509.22712  0.010519483 0.0093295328           15 
 4035000   0.60625124   -8.8734096     508.9981  0.010512146 0.0093260594           18 
 4036000   0.62028457   -8.8836183    509.71918   0.01052443 0.0093225853           15 
 4037000   0.61716504   -8.8678906    508.50675  0.010496795 0.0093191122           15 
 4038000   0.61848433   -8.8600279    509.41635  0.010512967 0.0093156388            9 
 4039000    0.6047425    -8.875757    509.85665  0.010519449 0.0093121706           14 
 4040000   0.61057322   -8.8704581    509.99547  0.010519709 0.0093087003           17 
 4041000   0.61048313   -8.8885642    509.41047  0.010505041 0.0093052323           17 
 4042000   0.59843623   -8.8698282    509.28414  0.010499838 0.0093017715           16 
 4043000   0.61438645   -8.8657616    509.79848  0.010507842 0.0092983136           14 
 4044000   0.61553469     -8.88487    509.37439  0.010496505 0.0092948535           21 
 4045000   0.59672941   -8.8514946    510.18389  0.010510587 0.0092913971           21 
 4046000   0.60387984   -8.8928154    510.23914  0.010509127  0.009287942           18 
 4047000   0.61199031   -8.8776942    509.39953  0.010489242 0.0092844911           21 
 4048000   0.61450186   -8.8736108    509.81434   0.01049519 0.0092810399           14 
 4049000   0.61157441   -8.8728968    510.15907  0.010499693   0.00927759           20 
 4050000   0.60622769   -8.8567804    510.29665  0.010499931 0.0092741442           21 
 4051000   0.59429243   -8.8613736    510.32836  0.010497991 0.0092706985           17 
 4052000    0.5945191   -8.8894376    509.74734  0.010483451 0.0092672554           15 
 4053000   0.62120887   -8.8766505     508.7962  0.010461308  0.009263811            9 
 4054000   0.61445037   -8.8735574    510.40774  0.010491854 0.0092603666           20 
 4055000   0.59971977   -8.8768768    509.81132   0.01047701 0.0092569255           15 
 4056000   0.61291194   -8.8808853    509.16169   0.01046108 0.0092534845           14 
 4057000   0.59982643    -8.862439    509.44061  0.010464231 0.0092500423           13 
 4058000   0.61307472   -8.8724356    508.69261  0.010446292 0.0092466017           18 
 4059000   0.58988464   -8.8804311    509.78843  0.010466216 0.0092431621            5 
 4060000   0.61005383    -8.878986    509.40827  0.010455835 0.0092397255           15 
 4061000   0.59809417   -8.8917495    509.54564  0.010456079 0.0092362902           17 
 4062000   0.59735349   -8.8642821    508.89937  0.010440246  0.009232859           23 
 4063000   0.59763461   -8.8692187    508.73218  0.010434248 0.0092294298           22 
 4064000   0.62377837   -8.8958205    508.73999   0.01043184  0.009226003           17 
 4065000   0.59843355   -8.8721095    509.14498  0.010437576 0.0092225734           14 
 4066000   0.59430844   -8.8823099    509.97702  0.010452062 0.0092191456           11 
 4067000   0.60584216    -8.875744    509.94349  0.010448805  0.009215722           16 
 4068000   0.60453322   -8.8786869    509.45843    0.0104363 0.0092122971           21 
 4069000   0.59753697   -8.8616316    508.95405  0.010423406 0.0092088687           24 
 4070000   0.59135738   -8.8700742    509.21517  0.010426191 0.0092054472           20 
 4071000   0.60168498   -8.8672561     509.5225  0.010429921 0.0092020281            9 
 4072000   0.60657031   -8.8810476    510.32393  0.010443761 0.0091986096           11 
 4073000   0.60166061    -8.865713     509.5225    0.0104248 0.0091951929           33 
 4074000   0.59460603   -8.8767516    509.71064  0.010426089 0.0091917768           32 
 4075000   0.59629489   -8.8868172    509.52155  0.010419664 0.0091883548           23 
 4076000    0.5953991   -8.8813042     509.1262  0.010409024 0.0091849343           23 
 4077000   0.59872801    -8.894599    508.70459  0.010397854 0.0091815173           15 
 4078000   0.60042128   -8.8845139    509.10499  0.010403486 0.0091781005           14 
 4079000   0.60367104    -8.881942    509.58487  0.010410739  0.009174687           19 
 4080000   0.59500623   -8.8987147    509.31883  0.010402754 0.0091712731           30 
 4081000   0.58953393   -8.8788037    509.73599  0.010408723 0.0091678655           19 
 4082000   0.59918031   -8.8773605    508.41108  0.010379126 0.0091644575           14 
 4083000   0.59304221   -8.9013447    508.76003  0.010383705   0.00916105           17 
 4084000   0.60090656   -8.9054567    509.31401  0.010392467 0.0091576412           23 
 4085000   0.60339998   -8.8858263    508.68505  0.010377092 0.0091542389           21 
 4086000   0.60238752   -8.8925544    509.88176  0.010398959 0.0091508334           25 
 4087000   0.60728177   -8.8814354    509.76059  0.010393944 0.0091474329           21 
 4088000   0.59275493   -8.8717748    509.09688  0.010377872 0.0091440335           23 
 4089000   0.58743844    -8.896467     508.9534   0.01037241  0.009140634           22 
 4090000   0.58644055   -8.8958568    508.88891   0.01036856 0.0091372385           26 
 4091000   0.59485646   -8.8840098    508.61437  0.010360433 0.0091338491           20 
 4092000   0.60120594   -8.9071093    508.16399  0.010348729 0.0091304562           21 
 4093000   0.60095814   -8.8939729     508.6997  0.010357108 0.0091270659           21 
 4094000   0.59323618     -8.90816    509.30271  0.010366852 0.0091236756           25 
 4095000   0.59855201   -8.9052729    508.26701  0.010343244 0.0091202893           22 
 4096000   0.60687603   -8.8906893    508.95273   0.01035467 0.0091169001           12 
 4097000   0.58158817   -8.8919339    508.00315  0.010332828 0.0091135091           20 
 4098000   0.59900281   -8.8707281      509.682  0.010364446 0.0091101195           12 
 4099000   0.59519867   -8.8930609    508.86358  0.010345279 0.0091067388           11 
 4100000   0.58983893    -8.892793    508.04137  0.010326044 0.0091033545           23 
 4101000   0.58228293    -8.880993    508.44181  0.010331663 0.0090999713           22 
 4102000   0.57673393   -8.8681257    508.57801  0.010331912 0.0090965863            9 
 4103000   0.59895023   -8.8941219    508.36497  0.010325066 0.0090932046           14 
 4104000   0.60059604   -8.8968567    509.09019  0.010337276 0.0090898286           23 
 4105000   0.60637682   -8.8817015    509.22272  0.010337449   0.00908645           19 
 4106000   0.59121093   -8.8923639      508.843  0.010327224 0.0090830739           12 
 4107000   0.59685185    -8.883398    509.49078  0.010337854 0.0090796996           17 
 4108000   0.59233617   -8.8924276    508.92908  0.010323943 0.0090763241           41 
 4109000   0.59336107   -8.8906044    509.33706  0.010329704  0.009072952           11 
 4110000   0.58973854   -8.9103003    508.81642  0.010316635 0.0090695815           28 
 4111000   0.59343778   -8.9108879    509.28501  0.010323624 0.0090662163           14 
 4112000    0.5925582   -8.8995257    508.30076  0.010301166  0.009062851           18 
 4113000   0.59847299   -8.9006032    508.58032  0.010304326 0.0090594864           14 
 4114000   0.60789641   -8.9218904    508.28492  0.010295838 0.0090561254           26 
 4115000   0.58355457   -8.8922754    508.49812  0.010297653 0.0090527631           11 
 4116000   0.60319785   -8.8754371    508.97605  0.010304828 0.0090494048           19 
 4117000   0.60038867   -8.9024835    509.27105  0.010308296 0.0090460454           12 
 4118000   0.59074717   -8.9059593    509.07488  0.010301823 0.0090426888           14 
 4119000   0.58883942   -8.9186275    508.36635  0.010284987 0.0090393338           14 
 4120000   0.59288553   -8.9103822    509.24703  0.010300304 0.0090359792           21 
 4121000   0.58780798   -8.8927382     508.3054  0.010278763 0.0090326244           13 
 4122000    0.5986029    -8.895017    509.08679  0.010292067 0.0090292676           11 
 4123000   0.59868303   -8.9068343    509.27836  0.010293442  0.009025915           13 
 4124000   0.59978664   -8.9173087    509.16602  0.010288676 0.0090225588           13 
 4125000   0.59104867   -8.9037361    508.62536   0.01027526  0.009019205           15 
 4126000   0.58430322   -8.8828297    509.01578  0.010280655 0.0090158571           11 
 4127000   0.59116724   -8.9131149    508.25934   0.01026289 0.0090125123           10 
 4128000   0.59034883   -8.9003791    507.80696  0.010251271 0.0090091641           10 
 4129000   0.58513481   -8.9044243    509.01397  0.010273149 0.0090058252           13 
 4130000   0.58531632   -8.9061972    508.14381  0.010253103 0.0090024875           10 
 4131000   0.58733937   -8.9164008    508.74549  0.010262759 0.0089991546           21 
 4132000   0.59034969   -8.8922756    508.95066  0.010264413 0.0089958178           12 
 4133000   0.58308437   -8.9001559    509.17078  0.010266368 0.0089924834           22 
 4134000   0.59826854   -8.9099205    509.12158  0.010262893 0.0089891511           11 
 4135000   0.58589935   -8.9029526    507.96351  0.010237072 0.0089858196           25 
 4136000   0.59536075   -8.8951455    509.03483  0.010256182 0.0089824883           15 
 4137000    0.5879418   -8.8844217    508.94657  0.010251925 0.0089791583           16 
 4138000   0.58972001   -8.9202945      508.551  0.010241481 0.0089758252           12 
 4139000   0.57554156   -8.9295939    508.48535  0.010237685 0.0089724977           17 
 4140000   0.58612493   -8.8986935     508.9734  0.010245036 0.0089691678           22 
 4141000   0.59095007   -8.9141725    508.66177  0.010236291 0.0089658403           16 
 4142000   0.59146759   -8.9251401    509.19498  0.010244547 0.0089625174           18 
 4143000   0.58939912    -8.901905    508.54911  0.010229083 0.0089591965           18 
 4144000   0.56805344   -8.9122446    507.78796  0.010211309 0.0089558726           17 
 4145000   0.59202997   -8.9108786    507.28556  0.010198745   0.00895255           17 
 4146000   0.58915878   -8.9195469    508.05277  0.010211705 0.0089492277           14 
 4147000   0.59102341   -8.9119089    508.74803  0.010223214 0.0089459088           11 
 4148000   0.58325893   -8.9142393    509.22866  0.010230406 0.0089425908            9 
 4149000   0.58667768   -8.9097666    508.12088   0.01020569 0.0089392724           18 
 4150000    0.5874736   -8.9190259    508.65391  0.010213934 0.0089359578           16 
 4151000   0.58678393   -8.9264903    509.21416  0.010222721 0.0089326496           21 
 4152000   0.58665731   -8.9183106    508.36358  0.010203187 0.0089293392            9 
 4153000   0.58773693   -8.8953872     507.9903   0.01019324 0.0089260284           20 
 4154000   0.59700328   -8.9153229    508.64539  0.010203928 0.0089227184           15 
 4155000   0.58207668   -8.9118242    508.67891  0.010202144 0.0089194073           21 
 4156000    0.5902128   -8.9020402     508.3537  0.010193169 0.0089161045           21 
 4157000   0.59278734   -8.9086421    508.19097  0.010187454 0.0089128008           19 
 4158000   0.57849862   -8.8930813    508.21094  0.010185404 0.0089094964           16 
 4159000   0.58330915   -8.9024004    508.26958   0.01018413 0.0089061987           16 
 4160000   0.58456364   -8.8941458    508.70313  0.010190367 0.0089028979           20 
 4161000   0.59143051   -8.9133296    507.74448  0.010168719 0.0088996014           14 
 4162000   0.60191866   -8.9212756    508.37567  0.010178914 0.0088963053           11 
 4163000     0.573136   -8.9302713    508.21335   0.01017322 0.0088930079           17 
 4164000   0.57172918   -8.9242356    507.88491  0.010164203 0.0088897142           19 
 4165000   0.59855218   -8.9175782    509.05282   0.01018513 0.0088864192           19 
 4166000   0.58639262   -8.9331035    508.00354  0.010161697  0.008883126           16 
 4167000   0.59447867   -8.9093111     507.6791   0.01015277 0.0088798332           11 
 4168000   0.58713354   -8.9091745    508.13439  0.010159437 0.0088765456           13 
 4169000   0.59299704   -8.9184263     508.6176  0.010166659  0.008873258           13 
 4170000   0.57675094   -8.9135847    508.49639  0.010161798 0.0088699737           18 
 4171000   0.57819346   -8.9177724    508.50886  0.010159611 0.0088666887           15 
 4172000   0.58315249   -8.9304384    508.52319  0.010157462 0.0088634053           12 
 4173000   0.58899215   -8.9013814    509.11279  0.010166802 0.0088601272           16 
 4174000    0.5769866   -8.9127686    508.32113  0.010148561 0.0088568464           21 
 4175000    0.5862407   -8.9286207    507.28795  0.010125508 0.0088535712           18 
 4176000   0.58551308   -8.9164884    508.07286  0.010138746  0.008850296           17 
 4177000   0.56705658   -8.9087844    507.71125  0.010129105 0.0088470253           15 
 4178000   0.57910768   -8.9138502    508.93303   0.01015105 0.0088437571           16 
 4179000   0.58082763   -8.9284879    508.07447    0.0101315 0.0088404848           11 
 4180000   0.58588005    -8.922446    508.11215  0.010129828 0.0088372186           19 
 4181000   0.57438615   -8.9141667     509.3937  0.010152948 0.0088339539           23 
 4182000   0.57954815   -8.9287573    508.39825  0.010130684 0.0088306903           17 
 4183000   0.56518923   -8.9091441    507.78405  0.010116026 0.0088274251           19 
 4184000   0.58472114   -8.9161932     507.5465  0.010108877 0.0088241614           16 
 4185000   0.58255454   -8.9267899    508.19523  0.010119379 0.0088208981           20 
 4186000   0.59396594   -8.9106771    508.58183  0.010124658 0.0088176374           22 
 4187000   0.58459235   -8.9422269    508.16977  0.010114039 0.0088143777           15 
 4188000   0.58125881   -8.9182048    507.10782  0.010090493 0.0088111173           14 
 4189000   0.57985769   -8.9317003    508.04216  0.010106671 0.0088078626           16 
 4190000   0.58378013   -8.9139756     508.0627  0.010104668 0.0088046052           13 
 4191000   0.58151912   -8.9113493    508.21994  0.010105383 0.0088013514           13 
 4192000   0.58963899   -8.9038957    508.58412  0.010110212 0.0087980998           20 
 4193000   0.58095807   -8.9143186    508.45886  0.010105312 0.0087948492           17 
 4194000    0.5705391   -8.9292377    507.79082  0.010089628 0.0087915998           12 
 4195000   0.58648621   -8.9120986    508.48045  0.010100923 0.0087883523           18 
 4196000   0.57516374   -8.9168845    508.68655  0.010102609 0.0087851088           12 
 4197000   0.58500454   -8.9078163    508.30667  0.010092659 0.0087818664           20 
 4198000   0.56698545   -8.9193865    508.55706  0.010095225 0.0087786209           14 
 4199000   0.57856214   -8.9252549    508.17039  0.010085147 0.0087753785           12 
 4200000   0.58557163   -8.9040693    507.55468  0.010070529  0.008772135           10 
 4201000   0.59399627   -8.9311568    508.29722  0.010082862  0.008768896           10 
 4202000   0.58341054   -8.9060497    507.94782  0.010073533 0.0087656581           18 
 4203000   0.58620026   -8.9245704    507.77058  0.010067622 0.0087624212           10 
 4204000   0.58411643   -8.9232312    508.54176  0.010080514 0.0087591807           16 
 4205000   0.57838768   -8.9197116    508.23956  0.010072128 0.0087559467           14 
 4206000   0.58967497   -8.9277988    508.41332  0.010073176 0.0087527101           12 
 4207000   0.58672819   -8.9306388    508.25084  0.010067563 0.0087494802           21 
 4208000   0.57915743    -8.933682    507.29332  0.010046208 0.0087462484           16 
 4209000    0.5777169   -8.9342359     508.2401  0.010062566 0.0087430201            9 
 4210000   0.57636272    -8.905304     508.2319  0.010060014 0.0087397911           22 
 4211000   0.58250902   -8.9342682    507.17701  0.010036749 0.0087365673           11 
 4212000   0.58007093   -8.9202946    508.54909  0.010061512 0.0087333416           14 
 4213000   0.57682482   -8.9125302    507.91551  0.010046592 0.0087301169           11 
 4214000   0.57066571   -8.9339321    507.36001  0.010033223 0.0087268941           14 
 4215000   0.57491862   -8.9164448    507.49263  0.010033464 0.0087236751           14 
 4216000   0.57119493     -8.93787     507.5893  0.010032995 0.0087204555            9 
 4217000   0.59269458   -8.8999523    508.70737  0.010052711 0.0087172383           21 
 4218000   0.58906912    -8.939134    507.93992  0.010035165 0.0087140238           17 
 4219000   0.56804828   -8.9323025    507.95138  0.010033013 0.0087108051           15 
 4220000   0.57960078   -8.9156392    508.55689  0.010042593 0.0087075893           11 
 4221000   0.58632782   -8.9183847    508.79924  0.010044998 0.0087043774           14 
 4222000   0.57474989   -8.9335554     508.4656  0.010036033 0.0087011664           17 
 4223000   0.58869259   -8.9445997    507.13101  0.010007321 0.0086979535           13 
 4224000   0.57443561   -8.9428593    507.47193  0.010011678 0.0086947465           17 
 4225000    0.5858169   -8.9400814    507.67637  0.010013341 0.0086915382           12 
 4226000   0.56584044   -8.9403917    507.68441   0.01001113 0.0086883326           14 
 4227000    0.5649689   -8.9225019    508.57388  0.010026297 0.0086851238           11 
 4228000   0.56862782   -8.9316643    506.80638 0.0099890881 0.0086819208           12 
 4229000   0.58566675   -8.9243007    507.92303   0.01000873 0.0086787186           16 
 4230000   0.57577283   -8.9087336    508.29578  0.010013707 0.0086755215           12 
 4231000    0.5802186   -8.9439748    508.23405  0.010010125 0.0086723232           19 
 4232000   0.56936848   -8.9291041    508.21615  0.010007407 0.0086691286           13 
 4233000    0.5936377   -8.9374011    508.13846  0.010003513 0.0086659377           13 
 4234000   0.57670707   -8.9230699    508.40201  0.010006338 0.0086627465           21 
 4235000   0.55604097   -8.9548056    507.74859 0.0099911174 0.0086595538           19 
 4236000   0.58548814   -8.9472263    507.35447 0.0099810054 0.0086563623            9 
 4237000    0.5685675   -8.9231485    507.80771  0.009987564 0.0086531755           18 
 4238000     0.570887   -8.9451779    508.46993  0.009998229 0.0086499889           16 
 4239000   0.56298536   -8.9298326    508.12534 0.0099890961 0.0086468018           18 
 4240000   0.56231974   -8.9337327    508.67489  0.009997541 0.0086436117           11 
 4241000   0.57513095   -8.9420804     507.7095 0.0099762143 0.0086404302           16 
 4242000   0.58073874   -8.9337219    508.70625 0.0099934435 0.0086372503           13 
 4243000   0.57600363   -8.9347365     508.2399 0.0099819291 0.0086340726           16 
 4244000    0.5783626   -8.9426099     507.7219 0.0099694058 0.0086308889           16 
 4245000   0.56495177   -8.9361249    507.85836 0.0099697362 0.0086277091           12 
 4246000    0.5640139   -8.9605598    507.49544 0.0099602653 0.0086245338           14 
 4247000   0.57519794   -8.9576553      508.038 0.0099685661 0.0086213582           20 
 4248000   0.56169444   -8.9374001    507.85364 0.0099626029 0.0086181861           23 
 4249000   0.58359913   -8.9359001    508.40474 0.0099710666  0.008615013           15 
 4250000   0.56167714   -8.9273055    507.12422 0.0099436121 0.0086118424           22 
 4251000   0.57190656   -8.9296659     508.2035 0.0099624304 0.0086086803           19 
 4252000   0.57880677   -8.9525668    507.72221 0.0099506549  0.008605513           16 
 4253000   0.56991683   -8.9221515     507.5571   0.00994508  0.008602349           22 
 4254000   0.57168323   -8.9214604    508.51411 0.0099614893 0.0085991866           17 
 4255000   0.58122368   -8.9400929    508.21195 0.0099532305 0.0085960256           17 
 4256000   0.57389222   -8.9571732    507.57453  0.009938411 0.0085928647           11 
 4257000    0.5658223   -8.9472426    507.43287 0.0099333033 0.0085897049           16 
 4258000   0.56819026   -8.9386982    508.35392 0.0099489963 0.0085865432           11 
 4259000   0.55169977   -8.9383008    508.71677   0.00995376 0.0085833874           15 
 4260000   0.55035768   -8.9324548    507.83103 0.0099340968 0.0085802324           18 
 4261000   0.56667697   -8.9438141    507.06964 0.0099168748  0.008577077           14 
 4262000   0.56083543    -8.927948    507.87158  0.009930228  0.008573924           30 
 4263000   0.56116092   -8.9497641    507.10762 0.0099129647 0.0085707739           17 
 4264000   0.57235479   -8.9357777    507.93292 0.0099267691 0.0085676277           24 
 4265000   0.58022932   -8.9344843    507.42553 0.0099145277 0.0085644821           23 
 4266000   0.57395125   -8.9136123    508.80104 0.0099390732 0.0085613392           16 
 4267000   0.56895029   -8.9367119    507.74355 0.0099160914 0.0085581978           13 
 4268000   0.58125633   -8.9260207    507.18828 0.0099029264 0.0085550562           17 
 4269000   0.57343617   -8.9277356    507.55997 0.0099078623 0.0085519163           21 
 4270000   0.57772291   -8.9396018    507.36616 0.0099017595 0.0085487762           15 
 4271000    0.5640829   -8.9557526    507.40728 0.0099002436 0.0085456378           11 
 4272000   0.56738759   -8.9281953    508.24975   0.00991436 0.0085424999           20 
 4273000   0.56526618   -8.9329447    507.95208 0.0099062344 0.0085393662           16 
 4274000   0.56862688   -8.9415347    507.69456 0.0098988957 0.0085362292           20 
 4275000   0.54730539   -8.9415569    507.03057 0.0098836368 0.0085330967           11 
 4276000   0.56001098   -8.9529604    507.04608 0.0098816277  0.008529962           16 
 4277000   0.56551944   -8.9614604    506.27479 0.0098642895 0.0085268303           14 
 4278000   0.55731146   -8.9151782    508.03752 0.0098963206 0.0085237025           12 
 4279000   0.57080628   -8.9378906    507.84044 0.0098901698 0.0085205742           15 
 4280000   0.56841376   -8.9540888    507.16264  0.009874662 0.0085174503           19 
 4281000   0.55792601   -8.9337443    507.32903 0.0098755943 0.0085143227           29 
 4282000   0.56705844   -8.9522115    507.46384 0.0098759116 0.0085111983           10 
 4283000   0.58030371   -8.9305199    507.90969 0.0098822804 0.0085080758           12 
 4284000   0.56439408   -8.9415391    506.52291 0.0098529978 0.0085049553           18 
 4285000    0.5652689   -8.9338185    508.28974 0.0098850591 0.0085018377           16 
 4286000   0.56747568   -8.9502304    508.24606 0.0098819035  0.008498721           17 
 4287000   0.55855016   -8.9521028    506.92738 0.0098539651  0.008495605           29 
 4288000   0.58110401   -8.9452132     507.5688 0.0098641325 0.0084924877           19 
 4289000   0.57957149   -8.9473634    507.71615 0.0098646955 0.0084893741           24 
 4290000   0.57291167   -8.9351389    507.40633 0.0098563778 0.0084862611           22 
 4291000   0.56815912   -8.9459236     507.3575 0.0098531325 0.0084831508           18 
 4292000   0.56066712   -8.9474729    507.11029 0.0098460371 0.0084800451           23 
 4293000   0.55656339    -8.922092    508.36497 0.0098680987 0.0084769391           12 
 4294000   0.56768157   -8.9421293    508.33084 0.0098651381  0.008473835           18 
 4295000   0.56814489   -8.9368756     507.9949 0.0098563233 0.0084707291           18 
 4296000   0.56465534   -8.9626459    507.20622 0.0098387302 0.0084676252           16 
 4297000   0.56747579   -8.9434022    507.47694 0.0098416906 0.0084645205           15 
 4298000   0.57228442    -8.947216    507.42647 0.0098384224  0.008461422           18 
 4299000   0.57102731   -8.9461575    508.46764 0.0098563161 0.0084583247           20 
 4300000   0.54963469    -8.947866    508.13153 0.0098475103 0.0084552328           13 
 4301000   0.56278136   -8.9558683     508.0137 0.0098429377 0.0084521377           20 
 4302000   0.56540961   -8.9483146    507.99324 0.0098402533 0.0084490448           16 
 4303000   0.56496225   -8.9516489    506.60463 0.0098110742 0.0084459516           22 
 4304000   0.56411571   -8.9374081    507.50373 0.0098262029 0.0084428605           16 
 4305000   0.56935774   -8.9565643     507.3983 0.0098218797 0.0084397726           21 
 4306000   0.54942986   -8.9365464    507.62954 0.0098240737 0.0084366867           13 
 4307000   0.57308051   -8.9443608    507.47426 0.0098187884 0.0084335992           21 
 4308000   0.56629795   -8.9571794    507.40489 0.0098151674 0.0084305128           22 
 4309000   0.55593954   -8.9417326    507.74477 0.0098194625 0.0084274293           16 
 4310000   0.57167815   -8.9522527    507.43358 0.0098111675 0.0084243481           20 
 4311000   0.55470306   -8.9497979    507.50412 0.0098102552 0.0084212659           14 
 4312000    0.5688157   -8.9570567    507.95166 0.0098166292 0.0084181887           13 
 4313000   0.55326122   -8.9506822    507.52215 0.0098060544 0.0084151093           30 
 4314000   0.56210954   -8.9610084     508.3089  0.009818979 0.0084120296           20 
 4315000   0.57218696   -8.9546114    507.58815 0.0098027839 0.0084089514           17 
 4316000   0.55505436   -8.9481658    507.46669 0.0097981674 0.0084058744           12 
 4317000   0.55517744   -8.9350228    507.49111 0.0097963691 0.0084027961           13 
 4318000   0.56297872   -8.9460888    507.04996 0.0097855868 0.0083997206           20 
 4319000   0.56531676   -8.9492705    507.57904 0.0097935294 0.0083966488           20 
 4320000   0.56994389   -8.9476623    507.66908 0.0097929992 0.0083935798           19 
 4321000   0.54485195   -8.9519297     508.1634 0.0098002662 0.0083905148           18 
 4322000   0.56606681   -8.9625206    507.51867 0.0097855674 0.0083874478           16 
 4323000   0.57259077   -8.9541495     506.9333 0.0097720199 0.0083843822           18 
 4324000   0.56008359   -8.9579655    507.13607 0.0097736676 0.0083813196           16 
 4325000   0.55355965   -8.9395241    506.90525 0.0097669604 0.0083782594           23 
 4326000   0.56701858   -8.9680892    507.69923 0.0097799975 0.0083751984           21 
 4327000   0.55206903   -8.9599709     507.4719 0.0097733591 0.0083721378           19 
 4328000   0.55678477   -8.9523526    507.15192 0.0097649399 0.0083690804           20 
 4329000   0.56138911   -8.9468275    507.61925 0.0097716803 0.0083660216           25 
 4330000   0.56263557   -8.9460858    507.47924 0.0097667291 0.0083629682           11 
 4331000   0.55360285   -8.9620995    507.36746 0.0097623232 0.0083599158           19 
 4332000   0.55006275    -8.947755    507.99669  0.009772174 0.0083568619           18 
 4333000   0.56661611   -8.9454384    507.38709 0.0097581947 0.0083538121           15 
 4334000   0.56812518     -8.96401    507.19837 0.0097523144 0.0083507619           12 
 4335000   0.55734059   -8.9448757    507.38862  0.009753722  0.008347714           18 
 4336000   0.56076844    -8.971032    507.45191  0.009752689 0.0083446666            9 
 4337000   0.55645768   -8.9732395    507.69246 0.0097550622 0.0083416165           26 
 4338000   0.56652596   -8.9444675     507.4132 0.0097474489 0.0083385715           16 
 4339000   0.55241866   -8.9714419    506.75208 0.0097325053 0.0083355231           19 
 4340000   0.55434706   -8.9655515    507.59566 0.0097464604   0.00833248           19 
 4341000   0.56013674    -8.947814     507.6631 0.0097455098  0.008329441           12 
 4342000   0.56375911   -8.9519933     507.2928 0.0097361585 0.0083264026           16 
 4343000   0.55372513   -8.9695803    507.78961 0.0097434494  0.008323362           29 
 4344000   0.56986548   -8.9785513    507.68191 0.0097391403 0.0083203246           20 
 4345000    0.5644133   -8.9524298    507.28557 0.0097292974 0.0083172891           14 
 4346000   0.55243978   -8.9721583     507.1398 0.0097242638 0.0083142537           19 
 4347000   0.54410755   -8.9438799    507.11191  0.009721492 0.0083112229           18 
 4348000   0.56524813   -8.9649803    506.84214 0.0097140858 0.0083081907           21 
 4349000   0.55658695   -8.9628469    506.35628 0.0097025424  0.008305159           16 
 4350000   0.54700771   -8.9542445    507.39896 0.0097202866 0.0083021315            9 
 4351000    0.5520863   -8.9654442     506.5038 0.0097009077 0.0082991016           15 
 4352000   0.55786807   -8.9500423    506.86762 0.0097056453 0.0082960722           16 
 4353000   0.56026036   -8.9616172    507.26791 0.0097110788  0.008293047           24 
 4354000   0.56061939   -8.9542901    507.32841 0.0097100063 0.0082900239           24 
 4355000   0.56104154   -8.9620355    507.10917 0.0097035815  0.008287004           27 
 4356000   0.55994347   -8.9554417    506.64241 0.0096924245  0.008283981           27 
 4357000   0.56133268    -8.962628    506.88371 0.0096948151  0.008280961           23 
 4358000   0.55653227   -8.9744092    506.41473 0.0096836226 0.0082779372           20 
 4359000   0.54982562   -8.9443038    506.40555 0.0096812256 0.0082749172           18 
 4360000   0.55699928   -8.9491089    507.66217 0.0097030232 0.0082719012           16 
 4361000   0.56842395   -8.9732425    506.16805 0.0096722474 0.0082688851           11 
 4362000    0.5563856   -8.9611897    506.33118 0.0096731464 0.0082658669           24 
 4363000   0.55164743   -8.9643784    507.15208 0.0096866087 0.0082628522           20 
 4364000   0.56777805   -8.9561819    505.87678 0.0096600363 0.0082598394           16 
 4365000   0.54048418   -8.9612967    506.89793 0.0096773183 0.0082568301           20 
 4366000   0.55274169   -8.9552614    507.06633  0.009678316 0.0082538178           19 
 4367000   0.54846187   -8.9380371    507.01235 0.0096750697 0.0082508087           16 
 4368000   0.55101272   -8.9678802    507.62826 0.0096846051 0.0082478048           13 
 4369000    0.5522347   -8.9638351    508.50201  0.009699054 0.0082448012           13 
 4370000   0.55022595   -8.9857406    507.10366  0.009670169 0.0082417987           16 
 4371000   0.55475955     -8.97874    506.96807 0.0096653716 0.0082387963           14 
 4372000    0.5511859   -8.9734347    507.50848 0.0096734613  0.008235797           29 
 4373000   0.55291895   -8.9725951    507.32155 0.0096676871 0.0082327971           29 
 4374000   0.54875378   -8.9553543    506.47977 0.0096494392 0.0082297948           15 
 4375000   0.57039378   -8.9756963    506.33704  0.009644515 0.0082267957           30 
 4376000   0.55627292     -8.98006    507.18556 0.0096584698 0.0082237992           13 
 4377000   0.56429892    -8.990943    506.68737 0.0096467781 0.0082208033           14 
 4378000   0.54418243     -8.92868    506.44604 0.0096399809 0.0082178084           16 
 4379000   0.55355887   -8.9672727    506.88953 0.0096462193 0.0082148149           16 
 4380000   0.54439171   -8.9798673    505.84983 0.0096242358 0.0082118233           20 
 4381000   0.54794525   -8.9460182    506.95978 0.0096431519 0.0082088356            9 
 4382000   0.54781044   -8.9580922    506.88259 0.0096394832 0.0082058454           28 
 4383000   0.54006786   -8.9774003    506.61285 0.0096321556 0.0082028559           21 
 4384000   0.54968584   -8.9851985    506.87672 0.0096349742   0.00819987           20 
 4385000   0.54696629   -8.9601655    506.66921 0.0096288334 0.0081968847           21 
 4386000   0.55198221   -8.9725954    507.20932 0.0096369001  0.008193903           27 
 4387000   0.54989598   -8.9669746    506.20986  0.009615718 0.0081909224           14 
 4388000   0.55381416   -8.9688161     506.8258 0.0096252241 0.0081879391           17 
 4389000   0.54861699   -8.9883772     506.7677 0.0096219279 0.0081849618           18 
 4390000   0.55388166   -8.9731444    506.52631 0.0096151539 0.0081819863           14 
 4391000    0.5552266   -8.9702078    506.46575 0.0096118149 0.0081790099           14 
 4392000   0.56227259   -8.9874721    506.47266 0.0096097576 0.0081760358           22 
 4393000   0.54926925   -8.9696815    506.29992 0.0096042932 0.0081730639           24 
 4394000   0.54941717   -8.9715901    507.23743 0.0096198875 0.0081700913           25 
 4395000   0.55322554   -8.9848143    506.41705 0.0096021435 0.0081671214           26 
 4396000   0.55410077   -8.9670319    506.44319 0.0096004547   0.00816415           27 
 4397000   0.54404686   -8.9996214    505.87726 0.0095875458 0.0081611793           28 
 4398000   0.54858643   -8.9807041    508.02788 0.0096261156 0.0081582117           18 
 4399000   0.54521922   -8.9706626    506.06508 0.0095867448 0.0081552438           18 
 4400000   0.55080288   -8.9721471     507.4334 0.0096104811 0.0081522773           26 
 4401000   0.54695301   -8.9828755    506.87193 0.0095976658  0.008149312           32 
 4402000   0.54807221   -8.9777432    506.93996 0.0095967735 0.0081463501           30 
 4403000   0.54227384   -8.9729073    506.32095 0.0095828782 0.0081433876           44 
 4404000   0.54594386   -8.9681007    506.79125 0.0095896014  0.008140428           34 
 4405000   0.53574103   -8.9878834    506.74005 0.0095864556 0.0081374663           31 
 4406000   0.54578927   -8.9755853    507.11789 0.0095914263 0.0081345082           33 
 4407000   0.54478986   -8.9792584    505.64979 0.0095614892 0.0081315535           27 
 4408000   0.54940599   -8.9826113    506.54023 0.0095761539 0.0081285987           22 
 4409000   0.53774174   -8.9685754    506.32534 0.0095699202 0.0081256445           16 
 4410000   0.54753325   -8.9793915    506.31122 0.0095674835 0.0081226905           16 
 4411000   0.55478278   -8.9807252    506.90286 0.0095764916 0.0081197405           31 
 4412000   0.54125355    -8.975343    507.36829 0.0095831121 0.0081167897           20 
 4413000   0.53884745   -8.9840207    506.01741  0.009555431 0.0081138407           15 
 4414000   0.55018736   -9.0023859    506.76445 0.0095673698 0.0081108927           14 
 4415000   0.54524497    -8.984271    505.65928 0.0095443428 0.0081079472           11 
 4416000   0.54917514   -9.0085967    507.16307 0.0095705591 0.0081050027           16 
 4417000   0.54099084     -8.98767    506.30889 0.0095522769 0.0081020572           15 
 4418000   0.55238835   -8.9698511    506.16886 0.0095474736 0.0080991129           21 
 4419000   0.54882124   -8.9827376    506.71656 0.0095556415 0.0080961731           12 
 4420000   0.54513424   -8.9982425    506.74432  0.009554003 0.0080932316           17 
 4421000   0.54510859   -8.9977848    506.48931 0.0095470351 0.0080902951           13 
 4422000   0.54127259   -8.9730195    506.33012 0.0095418763 0.0080873578           18 
 4423000   0.53741068   -8.9659403    506.06347 0.0095346949 0.0080844194           13 
 4424000   0.54069239   -8.9795681    506.33215 0.0095376008 0.0080814828           19 
 4425000    0.5514193   -8.9888101    506.06039 0.0095303275 0.0080785472           20 
 4426000   0.53247611   -8.9901678    505.85686 0.0095243421 0.0080756127           19 
 4427000   0.54438469   -9.0068641    506.45342 0.0095334204  0.008072681           29 
 4428000   0.53643865   -8.9833663    506.70907 0.0095360786 0.0080697519           14 
 4429000   0.53561159   -9.0025863     506.4881 0.0095297679 0.0080668219           26 
 4430000    0.5503221   -8.9927846    505.97905 0.0095180409 0.0080638928           15 
 4431000   0.53467933    -8.973176    506.65665 0.0095286364 0.0080609689           21 
 4432000   0.54006208   -8.9812438    505.95449 0.0095132838 0.0080580435           22 
 4433000     0.540516   -8.9696747    506.95741 0.0095299911   0.00805512           18 
 4434000   0.54244225   -9.0056939    505.86003 0.0095072176 0.0080521987           19 
 4435000   0.54385088   -8.9832026    506.09466 0.0095094825 0.0080492816           25 
 4436000   0.53695423   -8.9816361    505.55232 0.0094971507 0.0080463645           19 
 4437000   0.54458719   -9.0018187    506.19127 0.0095070105 0.0080434462           32 
 4438000   0.54372464   -8.9860465    505.52879 0.0094924289 0.0080405297           22 
 4439000   0.54434005   -8.9722365    505.48843 0.0094895328 0.0080376137           16 
 4440000   0.56118384   -8.9879057    506.19951 0.0095007416 0.0080347026           27 
 4441000     0.552481   -8.9797402    506.28892   0.00950028 0.0080317909           25 
 4442000   0.54951221   -8.9829671     507.3172 0.0095174321 0.0080288832           31 
 4443000   0.53490739   -8.9944672    506.25701 0.0094954049  0.008025977           26 
 4444000   0.53724871   -8.9793308    506.82336 0.0095038885 0.0080230676           32 
 4445000   0.54043249   -8.9787099    506.32312 0.0094923719 0.0080201618           27 
 4446000    0.5394813   -8.9850857    506.01151 0.0094843963 0.0080172588           35 
 4447000   0.53904534   -9.0044109    506.15559 0.0094849635 0.0080143554           27 
 4448000   0.52302902   -8.9979845    506.26117 0.0094848092 0.0080114582           22 
 4449000   0.55663783    -8.979175    507.15221 0.0094993671 0.0080085601           21 
 4450000   0.53027197   -8.9892938    506.97389  0.009493893 0.0080056647           19 
 4451000   0.53655689   -9.0134123    506.09449 0.0094752957 0.0080027659           16 
 4452000   0.53950241   -8.9988801    506.15103 0.0094742256 0.0079998718           19 
 4453000   0.53699324   -9.0020585    505.13161 0.0094530206 0.0079969763           25 
 4454000   0.54460573   -9.0033189    505.45034 0.0094568615 0.0079940812           34 
 4455000   0.53870749   -8.9882412    506.52234 0.0094747912 0.0079911855           18 
 4456000   0.53105667   -8.9839401    506.79445 0.0094777538 0.0079882927           37 
 4457000   0.54681512   -8.9851973    505.46064 0.0094506889 0.0079854025           17 
 4458000   0.54121673   -8.9910945    506.23005 0.0094629515 0.0079825118           30 
 4459000   0.52493844    -8.982273    505.74773 0.0094518152 0.0079796222           32 
 4460000   0.54518377   -9.0040422    506.00131 0.0094544341 0.0079767319           20 
 4461000   0.54684926   -8.9805068     506.2503  0.009456966 0.0079738441           32 
 4462000   0.53508322   -9.0007834    506.88395 0.0094666807  0.007970961           25 
 4463000   0.53935516   -8.9889712    506.55322 0.0094583842 0.0079680778           36 
 4464000    0.5434514   -9.0072154    506.18123 0.0094493211  0.007965196           19 
 4465000   0.53428494    -8.988851    505.97385 0.0094433342 0.0079623168           31 
 4466000   0.53683121   -8.9765091     506.2107 0.0094456393 0.0079594355           39 
 4467000   0.54822451   -8.9943721     506.2683 0.0094445992 0.0079565605           31 
 4468000   0.52397557   -8.9893501    506.14688 0.0094402208 0.0079536855           35 
 4469000   0.53833468   -8.9833064    506.29311 0.0094408352 0.0079508115           32 
 4470000   0.52979307   -8.9825481    506.10647 0.0094352437 0.0079479393           26 
 4471000    0.5362017   -8.9994284    505.40279 0.0094200177 0.0079450658           16 
 4472000   0.55054829   -9.0193809    505.46794 0.0094191253 0.0079421934           20 
 4473000   0.53181256   -8.9976913    506.42663 0.0094348802 0.0079393224           13 
 4474000   0.53781618   -8.9900672    505.87386 0.0094224753  0.007936449           24 
 4475000   0.51845217   -8.9996057    505.68874 0.0094169226 0.0079335789           17 
 4476000   0.52603669   -9.0024172    505.10646 0.0094039779 0.0079307119           20 
 4477000   0.52791102   -9.0087352    506.36364  0.009425278 0.0079278444           23 
 4478000   0.53450291   -8.9962435     506.7912 0.0094311299 0.0079249801           17 
 4479000   0.53510036   -8.9724506    506.83826 0.0094298999 0.0079221183           22 
 4480000   0.53335072   -8.9878316    505.42603 0.0094015258 0.0079192561           21 
 4481000   0.52767831   -9.0074932    505.65721 0.0094037271 0.0079163954           26 
 4482000   0.54230028   -9.0050877    506.01752  0.009408328 0.0079135383           24 
 4483000    0.5313314    -9.004962     505.1919 0.0093908822 0.0079106841           30 
 4484000   0.53361212   -8.9999964    505.68054  0.009397869 0.0079078297           32 
 4485000   0.53469168   -9.0057072    505.98634 0.0094014555 0.0079049738           24 
 4486000   0.52129736    -8.978883    506.90579 0.0094164398 0.0079021224           30 
 4487000   0.54267065   -8.9879149    506.38122 0.0094045988 0.0078992711           31 
 4488000    0.5397129     -9.00131    505.57094  0.009387458 0.0078964229           30 
 4489000   0.52069146   -9.0017523    505.95271  0.009392454 0.0078935747           33 
 4490000   0.51969089   -9.0171282    505.36956  0.009379539 0.0078907251           25 
 4491000   0.53286578    -8.990675    506.64213 0.0094010638  0.007887878           21 
 4492000   0.54384172   -8.9957953    506.34767 0.0093935083 0.0078850342           47 
 4493000   0.52480324   -9.0049467    506.58147  0.009395754 0.0078821914           16 
 4494000   0.54304121   -9.0094465    507.09864 0.0094032531 0.0078793503           14 
 4495000   0.53429604   -8.9962523    506.22533 0.0093849709 0.0078765097           20 
 4496000   0.53374528   -9.0207874    505.76248 0.0093743046 0.0078736679           14 
 4497000   0.52955048   -8.9999294    506.85163  0.009392403  0.007870831           13 
 4498000   0.53402908   -9.0034584    505.17106 0.0093591793 0.0078679934           20 
 4499000   0.52321851   -8.9936469    506.06257 0.0093736121 0.0078651547           21 
 4500000   0.52255168   -8.9980342    505.62551 0.0093634353 0.0078623198           22 
 4501000   0.53834908   -9.0012779    505.18274 0.0093531575 0.0078594864           21 
 4502000   0.53483506   -8.9959529    505.92048 0.0093647356 0.0078566527           16 
 4503000   0.53361431    -9.025199    505.64936 0.0093576387 0.0078538223           22 
 4504000   0.53530507   -9.0099323    506.10362 0.0093639658 0.0078509938           16 
 4505000   0.53815983   -8.9976279    506.13711 0.0093625066 0.0078481641           18 
 4506000   0.53989751   -9.0261474    505.40059 0.0093468077 0.0078453339           28 
 4507000   0.53086784   -9.0072672    506.18594 0.0093592549 0.0078425066           33 
 4508000   0.52760653   -8.9901432    506.06373 0.0093549195 0.0078396818           58 
 4509000   0.52429611   -9.0129291    506.10745 0.0093536529 0.0078368597           37 
 4510000   0.53447531   -9.0160702    505.10143 0.0093329903 0.0078340369           22 
 4511000   0.52813804   -8.9927114    505.80238 0.0093438703 0.0078312181           17 
 4512000   0.52782076   -9.0010691    506.34216 0.0093517687 0.0078283983           33 
 4513000   0.52659352   -9.0197822     506.4962 0.0093525409 0.0078255789           31 
 4514000   0.52282614    -9.006105    505.70852 0.0093359274 0.0078227625           31 
 4515000   0.52734813   -9.0166803    505.41147 0.0093283771 0.0078199477           34 
 4516000   0.54488703   -9.0156412    505.86975 0.0093347681 0.0078171335           35 
 4517000   0.52255026   -9.0028126    505.34154 0.0093229567 0.0078143246           24 
 4518000   0.52971388   -9.0038139    506.32911 0.0093391086 0.0078115151           29 
 4519000   0.52430495   -9.0095452    505.95622 0.0093301656 0.0078087082           24 
 4520000   0.53971603   -9.0106232    506.28182 0.0093341044 0.0078058998           41 
 4521000   0.52519777    -9.007334      505.159 0.0093113434 0.0078030941           26 
 4522000   0.52251657   -9.0154055    506.46699 0.0093333884 0.0078002896           27 
 4523000   0.52087811   -9.0050565    505.67773 0.0093167832 0.0077974842           27 
 4524000   0.53850211   -9.0116075    505.50067 0.0093114624 0.0077946803           27 
 4525000   0.52576201   -9.0127952    506.14207 0.0093212168 0.0077918787           23 
 4526000   0.52887983   -9.0248379    505.70338   0.00931108 0.0077890807           32 
 4527000   0.54242387   -9.0091543    504.66454 0.0092899002 0.0077862817           28 
 4528000   0.52287378   -8.9979653     506.5506 0.0093225597 0.0077834843           18 
 4529000   0.53216578   -9.0071645    505.72425 0.0093052964  0.007780689           19 
 4530000   0.53233467   -9.0051617    505.53393 0.0092997411 0.0077778935           11 
 4531000   0.53537776   -9.0262298    506.20043 0.0093099469 0.0077750997           19 
 4532000   0.51846148   -8.9972479    506.27521 0.0093092677 0.0077723104           23 
 4533000   0.53228783   -8.9943386    505.57294 0.0092943036   0.00776952           20 
 4534000   0.52609575   -9.0189015    504.69317 0.0092760839 0.0077667282           28 
 4535000   0.53198991   -9.0105587    505.27971 0.0092848165 0.0077639378           32 
 4536000     0.524141   -9.0253357    504.95881 0.0092768741 0.0077611517           29 
 4537000   0.52541922   -9.0140376    506.35108 0.0093004019  0.007758364           38 
 4538000   0.52106684   -9.0039529     505.6467 0.0092854177 0.0077555802           30 
 4539000   0.52641018   -9.0267862    505.42387 0.0092792808  0.007752794           13 
 4540000   0.51786205   -9.0076969    506.15996 0.0092907481 0.0077500126           16 
 4541000   0.52745376   -9.0027398     506.5001 0.0092949443 0.0077472291           32 
 4542000   0.52794181   -9.0155177    506.03305 0.0092843286 0.0077444477           34 
 4543000   0.52617722   -9.0124575    506.56543 0.0092920506 0.0077416696           32 
 4544000   0.52852282    -9.010271    506.14213 0.0092822427 0.0077388946           24 
 4545000   0.53771334   -9.0273088    505.68643  0.009271845 0.0077361204           36 
 4546000   0.52146278   -9.0145171    506.40154 0.0092829143 0.0077333445           17 
 4547000   0.51328733   -9.0086013    505.60274 0.0092662331  0.007730573           36 
 4548000   0.52059326   -9.0154576    505.95574 0.0092706636    0.0077278           24 
 4549000   0.52229651   -9.0223414    505.82974 0.0092663174 0.0077250289           36 
 4550000   0.53079606   -9.0258913    505.97751 0.0092669874 0.0077222595           33 
 4551000   0.51890096   -9.0207942    506.22343 0.0092694542 0.0077194886           37 
 4552000   0.51980004   -9.0103102    506.26932 0.0092682578 0.0077167224           19 
 4553000   0.53149368   -9.0190647    505.87278 0.0092589645  0.007713957           37 
 4554000   0.52213647   -9.0136926    505.30475 0.0092465369 0.0077111923           26 
 4555000   0.51026275   -9.0138598    505.75883 0.0092528144 0.0077084275           11 
 4556000   0.51506879   -9.0177861    505.19231 0.0092404213 0.0077056665           23 
 4557000   0.51097966   -9.0165427     505.2465 0.0092393845 0.0077029034           30 
 4558000   0.52278484   -9.0232081    505.64682 0.0092446764 0.0077001399           20 
 4559000   0.52433595   -9.0201285    505.98208 0.0092487767 0.0076973813           20 
 4560000   0.51677651    -9.014089    505.54462  0.009238754 0.0076946239           27 
 4561000   0.52788557   -9.0039841    505.48723 0.0092356798 0.0076918695           18 
 4562000   0.51746573   -9.0110495    505.45465 0.0092330603 0.0076891143           13 
 4563000   0.52599343   -9.0132317    506.13932 0.0092435407 0.0076863611           29 
 4564000   0.51620532   -9.0154612    505.14617 0.0092233818 0.0076836087           36 
 4565000    0.5181346   -9.0258257    504.73763 0.0092139035 0.0076808568           18 
 4566000   0.52363312   -9.0102019    505.91166 0.0092333126 0.0076781068           32 
 4567000   0.52406369   -9.0105543    505.26164   0.00921943 0.0076753569           24 
 4568000   0.51461704   -9.0487891    505.41362 0.0092201843 0.0076726092           26 
 4569000   0.52731307   -9.0077225    505.92644 0.0092275195 0.0076698629           27 
 4570000   0.51390019   -9.0344906    504.57286 0.0092008181 0.0076671187           28 
 4571000   0.52874685   -9.0393019     505.5629 0.0092168544 0.0076643711           33 
 4572000   0.51998961   -9.0096572    505.78795 0.0092189405 0.0076616282           24 
 4573000   0.52916094   -9.0240646    504.38912 0.0091914337 0.0076588854           24 
 4574000   0.51664727   -9.0329753    505.49099 0.0092094991 0.0076561439           17 
 4575000   0.50990453   -9.0315175    505.02638 0.0091990232 0.0076534054           25 
 4576000   0.50882189   -9.0161322    505.74398 0.0092100812 0.0076506679           26 
 4577000   0.51933909   -9.0125087    505.95495 0.0092119102 0.0076479328           29 
 4578000   0.51334202   -9.0314205     505.4525 0.0092007517 0.0076451982           33 
 4579000    0.5260841   -9.0252115    505.42596 0.0091982594 0.0076424665           30 
 4580000   0.52251674   -9.0297866     505.3593 0.0091950382 0.0076397334           27 
 4581000   0.51681811   -9.0468137    505.75306  0.009200194 0.0076370051           15 
 4582000   0.52693987   -9.0452388    505.30188 0.0091899804 0.0076342755           16 
 4583000   0.50847258    -9.015206    506.05617 0.0092016904 0.0076315507           17 
 4584000   0.51685235   -9.0093589    505.98951 0.0091984713 0.0076288222           13 
 4585000   0.51261485    -9.017613    505.22682 0.0091826031 0.0076260961           17 
 4586000    0.5314761   -9.0346308    505.98682 0.0091944109 0.0076233702           26 
 4587000   0.52659429    -9.018285    505.62736  0.009185876 0.0076206436           26 
 4588000   0.51864151   -9.0254336    504.77405 0.0091683749 0.0076179212           20 
 4589000   0.50579727   -9.0167158    505.35714 0.0091769656 0.0076152018           20 
 4590000   0.51797845   -9.0467372    505.27103 0.0091734029 0.0076124791           20 
 4591000   0.51165095   -9.0170297    505.84794 0.0091818765 0.0076097602           16 
 4592000   0.50720831   -9.0270406    505.20408 0.0091681924  0.007607043           10 
 4593000   0.52852411   -9.0538536    505.98565 0.0091803769 0.0076043244           21 
 4594000   0.51283533   -9.0027114    505.17926 0.0091637509 0.0076016105           27 
 4595000   0.52125145   -9.0408523    504.16404 0.0091433449 0.0075988941           19 
 4596000   0.51290091   -9.0223107    506.41448 0.0091821599 0.0075961807           17 
 4597000   0.50364853    -9.042104    505.30548 0.0091600587 0.0075934691           12 
 4598000   0.51016464    -9.022281    504.77574 0.0091484656 0.0075907604           17 
 4599000   0.51245701   -9.0193474    505.02434 0.0091509809 0.0075880531           17 
 4600000   0.51212411   -9.0160798    504.43188 0.0091382587 0.0075853453           23 
 4601000   0.51955116   -9.0315488    505.07784 0.0091479722 0.0075826377           20 
 4602000   0.51655342    -9.027018    504.87207 0.0091422583 0.0075799294           14 
 4603000    0.5082749   -9.0457132    504.42916 0.0091322536 0.0075772202           19 
 4604000   0.52044179    -9.024262    505.35233 0.0091469797 0.0075745133           16 
 4605000   0.51139651   -9.0305786    505.07588 0.0091399906 0.0075718098           14 
 4606000   0.51722557   -9.0367205    504.99121 0.0091364743 0.0075691054           25 
 4607000   0.52316493   -9.0278477    505.32809 0.0091405848 0.0075664061           18 
 4608000   0.50689264   -9.0212411    504.41513 0.0091220907 0.0075637063           26 
 4609000   0.52448713   -9.0306194    505.23148 0.0091348716 0.0075610051           18 
 4610000   0.50736911   -9.0339993    504.94717 0.0091277507 0.0075583056           13 
 4611000   0.52908646   -9.0249557    504.44603 0.0091167142 0.0075556082           13 
 4612000    0.5113123    -9.017599    504.97668 0.0091243258 0.0075529105           19 
 4613000   0.52200013   -9.0370154    505.30415 0.0091282634 0.0075502148           26 
 4614000   0.51910778   -9.0432809    505.38408 0.0091277287 0.0075475246           12 
 4615000   0.51383969   -9.0290311    505.32417  0.009124669 0.0075448318           14 
 4616000   0.52364656    -9.029555    505.25878 0.0091215118 0.0075421413           19 
 4617000   0.51904586   -9.0456594    504.84278 0.0091120277 0.0075394539           11 
 4618000   0.51667673   -9.0450781    504.61599  0.009105962 0.0075367658           16 
 4619000   0.50560695   -9.0270026    505.25182 0.0091154618 0.0075340808           14 
 4620000   0.51160463   -9.0386509    505.10597  0.009110858 0.0075313959           12 
 4621000   0.50495836   -9.0547329    504.76409 0.0091027212 0.0075287101           35 
 4622000   0.50208295   -9.0417721    505.12694 0.0091072937 0.0075260244           21 
 4623000   0.51589929     -9.06182    504.46067 0.0090933136 0.0075233414           19 
 4624000   0.51519106   -9.0405308    504.90978  0.009099441 0.0075206587           11 
 4625000   0.51654811   -9.0350429    504.74209 0.0090944521 0.0075179799           23 
 4626000   0.51858708   -9.0374182    504.90451  0.009095412 0.0075153026           17 
 4627000   0.51676494   -9.0269106    504.97785 0.0090947672  0.007512626           16 
 4628000   0.50796314   -9.0293407     505.7753  0.009107161 0.0075099512           20 
 4629000   0.51958007   -9.0322773    504.52675 0.0090827167 0.0075072766           15 
 4630000   0.51579881   -9.0551469    504.36261 0.0090778007 0.0075046013           24 
 4631000   0.49486698   -9.0166517    505.59242 0.0090979705 0.0075019286           17 
 4632000    0.5215544   -9.0310094    506.19967 0.0091069313 0.0074992579           16 
 4633000   0.51868068   -9.0339398     504.8932 0.0090814664 0.0074965874           15 
 4634000   0.50383479   -9.0337511     504.6048 0.0090743203 0.0074939191           12 
 4635000   0.50219302   -9.0346395    504.62629 0.0090727487 0.0074912529           14 
 4636000   0.50609676   -9.0534167    504.51714 0.0090688298 0.0074885872           16 
 4637000   0.52223987   -9.0284104    504.97569 0.0090751148 0.0074859224           14 
 4638000    0.5171815   -9.0509462    505.15226 0.0090763306  0.007483258           31 
 4639000   0.50280927   -9.0319792    505.08981 0.0090732523 0.0074805976           23 
 4640000   0.51429052   -9.0358665    504.98159 0.0090693532 0.0074779364           27 
 4641000   0.51913408   -9.0447204    504.17615 0.0090529367  0.007475275           23 
 4642000   0.51479775   -9.0441988     505.3637 0.0090723055 0.0074726163           35 
 4643000   0.50732937   -9.0353378    505.51694 0.0090731019 0.0074699589           18 
 4644000   0.50230665   -9.0277953    504.60731 0.0090548253 0.0074673035           22 
 4645000   0.50928363   -9.0332592    505.09791 0.0090616775 0.0074646487           25 
 4646000   0.50188187   -9.0327681    504.74703 0.0090534336 0.0074619953           19 
 4647000   0.50955662   -9.0383358    505.35704 0.0090624245 0.0074593416           19 
 4648000   0.50874437   -9.0428152     505.1254 0.0090563218  0.007456693           16 
 4649000   0.51580435    -9.035775    504.91501 0.0090506024 0.0074540452           25 
 4650000   0.50625792   -9.0448154    505.40284 0.0090573986 0.0074513952           31 
 4651000   0.50722529   -9.0314813    505.52323 0.0090576082 0.0074487466           22 
 4652000   0.50631692   -9.0477519    504.98887 0.0090460889 0.0074460993           17 
 4653000   0.50439838   -9.0420243    505.22181 0.0090483167 0.0074434515           16 
 4654000   0.51100363    -9.033712     505.3342 0.0090483849 0.0074408084           19 
 4655000   0.50691001   -9.0361051     504.4087 0.0090298729 0.0074381653           17 
 4656000   0.51637611   -9.0639907    505.30554 0.0090439852 0.0074355236           19 
 4657000   0.51724206   -9.0361313    504.82361 0.0090334194 0.0074328825           24 
 4658000   0.50099222   -9.0342972    505.52186  0.009043972  0.007430243           12 
 4659000   0.50289029   -9.0272398      504.705   0.00902742 0.0074276028           13 
 4660000   0.51107935    -9.062606    504.50885 0.0090219752 0.0074249657           17 
 4661000   0.50884158   -9.0497517    504.33462 0.0090169244 0.0074223277           22 
 4662000   0.50030665   -9.0472144    505.01286 0.0090271138 0.0074196921           15 
 4663000   0.50645392   -9.0258738    504.93178  0.009023729 0.0074170574           24 
 4664000   0.49704651    -9.050636    504.23746 0.0090093885 0.0074144256           11 
 4665000   0.52161282   -9.0448381    504.89689 0.0090192371 0.0074117934           17 
 4666000   0.50578945   -9.0512296    505.06883 0.0090203749 0.0074091624           23 
 4667000   0.50678189   -9.0541617    504.39806 0.0090064649 0.0074065315           21 
 4668000   0.51406393   -9.0369081    504.97355 0.0090148092  0.007403902           32 
 4669000   0.50668289   -9.0426895    504.99482  0.009013258 0.0074012747           20 
 4670000   0.50238586   -9.0483233    505.49803 0.0090203074 0.0073986506           21 
 4671000   0.51484291   -9.0560007    504.51004   0.00900075  0.007396026           22 
 4672000   0.50696473   -9.0545045    505.51927 0.0090168249  0.007393403           18 
 4673000   0.50107835   -9.0427984    504.42257  0.008995338 0.0073907825           25 
 4674000   0.51517412   -9.0431643     504.2304 0.0089899872 0.0073881591           13 
 4675000   0.50556672   -9.0515664     505.0518 0.0090027059 0.0073855387           19 
 4676000   0.51413832   -9.0419236     504.4355 0.0089897972 0.0073829197           19 
 4677000   0.51137484   -9.0533892    503.98617 0.0089798691 0.0073803022           25 
 4678000   0.50617263   -9.0578193    504.98089 0.0089956693 0.0073776869           27 
 4679000   0.51031383   -9.0578866    505.70182 0.0090065866 0.0073750712           22 
 4680000   0.51060636   -9.0494125    505.40449 0.0089993677 0.0073724573           28 
 4681000   0.51649363   -9.0566435    504.58949 0.0089829361 0.0073698448           18 
 4682000    0.5017642   -9.0462841    505.24408 0.0089926684 0.0073672331           22 
 4683000   0.50108203    -9.046169    504.84555 0.0089836563 0.0073646213           30 
 4684000   0.50533125   -9.0671372    504.17124 0.0089697418 0.0073620101           17 
 4685000   0.49998923   -9.0405281    504.53742 0.0089743405 0.0073594002           17 
 4686000   0.49078686   -9.0509981    504.72514 0.0089757637 0.0073567941           19 
 4687000    0.4968358     -9.06441    504.44362 0.0089688433 0.0073541876           11 
 4688000   0.51177859   -9.0490464    504.62848 0.0089702161 0.0073515838           14 
 4689000   0.51564609   -9.0490159    504.89484 0.0089730369  0.007348982           23 
 4690000   0.50073199   -9.0649007    504.37807 0.0089619415 0.0073463805           12 
 4691000   0.49819715   -9.0566414    504.67336 0.0089652768 0.0073437802           26 
 4692000   0.50652846   -9.0681139    504.33907 0.0089574288 0.0073411807           19 
 4693000   0.50996771   -9.0531739     504.8485 0.0089645661 0.0073385815           22 
 4694000   0.50449793   -9.0535715    505.00548 0.0089654431 0.0073359841           14 
 4695000   0.50344112   -9.0461045    504.54558 0.0089553706 0.0073333889           12 
 4696000   0.49903416   -9.0582985    505.14719 0.0089641395 0.0073307931           28 
 4697000   0.51057895   -9.0544566    504.50838 0.0089508975 0.0073281996           25 
 4698000   0.49844012   -9.0551472    504.78816 0.0089539549  0.007325606           15 
 4699000    0.4923995   -9.0640509    504.25757 0.0089426397 0.0073230146           30 
 4700000   0.49830096   -9.0725358    504.53459 0.0089456488  0.007320423           16 
 4701000   0.50732963   -9.0593808    503.84606 0.0089315405 0.0073178342           12 
 4702000   0.50393451   -9.0505426    504.92799  0.008948816  0.007315245           23 
 4703000   0.50528535   -9.0506289    504.92673 0.0089468908 0.0073126576           14 
 4704000   0.49786599   -9.0448332    504.94894 0.0089453823 0.0073100716           23 
 4705000    0.4960048   -9.0663206    504.62328 0.0089377132 0.0073074862           11 
 4706000   0.49857744   -9.0563032    505.05405 0.0089434418  0.007304903           13 
 4707000   0.51006997   -9.0414255    504.15104 0.0089255548 0.0073023207           21 
 4708000   0.49439627   -9.0535715     504.9491 0.0089377849 0.0072997371           17 
 4709000   0.49442143   -9.0557452    504.20079 0.0089226444 0.0072971583           13 
 4710000   0.50740216   -9.0762406    505.85601 0.0089500355 0.0072945819           23 
 4711000   0.49935572   -9.0547666    504.92751 0.0089317114 0.0072920025           17 
 4712000   0.49779639   -9.0484829    503.66605 0.0089075065 0.0072894258           16 
 4713000   0.50017363   -9.0521301     504.4777 0.0089199678 0.0072868515           22 
 4714000   0.49100065    -9.060763    503.95363 0.0089088111 0.0072842784           15 
 4715000   0.49554563   -9.0734203    504.34519 0.0089138422 0.0072817045           36 
 4716000   0.49414494    -9.040678    503.97871 0.0089054762 0.0072791321           27 
 4717000   0.49407024   -9.0535073     504.8567 0.0089190993 0.0072765609           16 
 4718000   0.50404992   -9.0606663    504.55541 0.0089118872 0.0072739907           19 
 4719000   0.49909764   -9.0581489    504.26678 0.0089049018 0.0072714196           17 
 4720000   0.50527855   -9.0566111    504.91616 0.0089144802 0.0072688492           14 
 4721000   0.51068599   -9.0522947    504.44995 0.0089043625 0.0072662829           12 
 4722000   0.49796071   -9.0515093    503.83092 0.0088915524 0.0072637161           16 
 4723000   0.49455029   -9.0611543    504.31109 0.0088981419 0.0072611506           19 
 4724000   0.48723127    -9.068725    504.95829 0.0089076751 0.0072585892           15 
 4725000   0.50078578   -9.0568394    503.91937 0.0088874668 0.0072560301           26 
 4726000   0.48868953    -9.056105      504.993 0.0089045175 0.0072534704           24 
 4727000   0.49161717   -9.0608384    504.97831 0.0089023748 0.0072509111           14 
 4728000   0.49335478   -9.0739471    504.31732 0.0088888416 0.0072483525           16 
 4729000   0.49035801   -9.0733946    505.20917  0.008902678 0.0072457966           22 
 4730000   0.51134962   -9.0668326    504.50804 0.0088884433 0.0072432437           16 
 4731000   0.49632672   -9.0585738    504.87558 0.0088930385 0.0072406903           17 
 4732000   0.48385666   -9.0504656    504.50766 0.0088846798 0.0072381367           17 
 4733000   0.49177419   -9.0576647    505.07576 0.0088928051 0.0072355884           15 
 4734000   0.49472529   -9.0507315    504.73544 0.0088849359 0.0072330378           14 
 4735000   0.48391958   -9.0614171    504.80457 0.0088842761 0.0072304894           17 
 4736000   0.49110618   -9.0682594    504.56054 0.0088781063 0.0072279392           19 
 4737000   0.49828238   -9.0824146    504.58682 0.0088766944 0.0072253919           17 
 4738000   0.49300207   -9.0840135    504.60771 0.0088751883 0.0072228449           19 
 4739000   0.49192894   -9.0790397    504.66359 0.0088742983 0.0072202999           17 
 4740000   0.48357434   -9.0803909    503.74045 0.0088561964 0.0072177548           17 
 4741000   0.50487508   -9.0608373    504.61164 0.0088696414 0.0072152108           16 
 4742000   0.49033578   -9.0703116     504.5562 0.0088667967  0.007212668           18 
 4743000   0.48915852   -9.0710726    504.98902 0.0088725317 0.0072101271           16 
 4744000   0.49334503   -9.0688848    504.24769 0.0088576392 0.0072075854           12 
 4745000   0.49172377   -9.0600105     504.4538 0.0088593923 0.0072050445           15 
 4746000   0.49223469   -9.0613735    504.58992 0.0088599158 0.0072025075           23 
 4747000   0.51321788   -9.0690908    504.26762 0.0088523913 0.0071999702           15 
 4748000   0.48958478    -9.049664    504.67691 0.0088577105 0.0071974365           12 
 4749000   0.47636641   -9.0621159    504.03726  0.008844621 0.0071949028           26 
 4750000   0.48929393   -9.0729556    503.57973 0.0088347321 0.0071923681           17 
 4751000   0.48661671   -9.0656494    503.89816 0.0088384579 0.0071898362           12 
 4752000   0.50269006   -9.0364722    503.83987 0.0088355757 0.0071873052           16 
 4753000   0.49413078   -9.0770899    504.71043 0.0088489801 0.0071847748           20 
 4754000    0.4899722   -9.0631777     504.5894 0.0088449972 0.0071822448           22 
 4755000   0.49019142   -9.0811506    503.43515 0.0088229083 0.0071797183           11 
 4756000   0.48604527   -9.0706389    504.20031 0.0088344602 0.0071771907           15 
 4757000   0.49513255    -9.067964    504.88759 0.0088446428 0.0071746648           28 
 4758000   0.49481097   -9.0787523    505.02716 0.0088452284  0.007172142           11 
 4759000   0.49011032   -9.0699887    504.16818 0.0088283284 0.0071696193           18 
 4760000    0.4956297    -9.056918    504.43148 0.0088310833 0.0071670978           12 
 4761000   0.48860746   -9.0772975    503.56694 0.0088140962 0.0071645763           17 
 4762000   0.47827162   -9.0765494    504.25804 0.0088243393 0.0071620567           17 
 4763000   0.49006061   -9.0929683    503.28455 0.0088054543 0.0071595372           14 
 4764000   0.48825415   -9.0851189    503.93614 0.0088150038 0.0071570184           20 
 4765000   0.48022755   -9.0831769    503.89857 0.0088124969 0.0071545008           24 
 4766000   0.48980792   -9.0703976    504.22407 0.0088163391 0.0071519856           23 
 4767000   0.48212441   -9.0831689    504.14079 0.0088130339 0.0071494716           22 
 4768000   0.49558379   -9.0654558    504.18883 0.0088120251  0.007146959           28 
 4769000   0.49137968   -9.0764805    503.34215 0.0087953826 0.0071444472           20 
 4770000   0.48116098   -9.0814325    504.20747 0.0088086559 0.0071419354           13 
 4771000   0.48658481   -9.0826136     504.3669 0.0088095944 0.0071394254           13 
 4772000   0.49007853   -9.0775241    503.71346 0.0087963373  0.007136918           33 
 4773000   0.48307474   -9.0670888    504.37518 0.0088060476 0.0071344098           19 
 4774000   0.47584416   -9.0745486    503.61576 0.0087909467 0.0071319017           23 
 4775000   0.48808834    -9.079697    504.41103 0.0088029848 0.0071293949           17 
 4776000   0.47803403   -9.0680849    504.17932 0.0087970988  0.007126891           34 
 4777000    0.4901865   -9.0717547    504.12454 0.0087943014  0.007124388           20 
 4778000   0.48505955   -9.0847546    503.38295 0.0087795269 0.0071218858           17 
 4779000   0.49942852   -9.0838855    503.69175 0.0087830744 0.0071193858           26 
 4780000   0.48512737   -9.0592008    504.23266  0.008790667 0.0071168877           19 
 4781000   0.49270307   -9.0663677    503.61732 0.0087781029 0.0071143887           30 
 4782000   0.48845138   -9.0771764    503.68828 0.0087775038 0.0071118929           27 
 4783000   0.49380198   -9.0881374    503.58663 0.0087738976 0.0071093955           25 
 4784000   0.49295396   -9.0711848    504.21093 0.0087829384 0.0071069015           30 
 4785000   0.48409179   -9.0832246    504.30668 0.0087827704 0.0071044076           24 
 4786000   0.47425455   -9.0853487    503.31235 0.0087636222  0.007101914           29 
 4787000   0.49344185   -9.0756579    503.95028 0.0087728967  0.007099422           21 
 4788000   0.49451678   -9.0815496    504.10857 0.0087738194 0.0070969324           16 
 4789000   0.49012659   -9.1005003     503.5823 0.0087628298 0.0070944426           29 
 4790000   0.49034001   -9.0634531    504.65441 0.0087796522 0.0070919536           20 
 4791000   0.49183521   -9.0808268    503.76392 0.0087623307 0.0070894688           11 
 4792000   0.48049082   -9.0753299    504.17549 0.0087676595 0.0070869851           23 
 4793000   0.47892131   -9.0710208    503.93428 0.0087616365 0.0070844991           24 
 4794000   0.48673971   -9.0854564    504.10265 0.0087627356 0.0070820165           26 
 4795000   0.48976545   -9.0982408    503.33833 0.0087476248 0.0070795324           22 
 4796000   0.48449947   -9.0624718    504.56428 0.0087671025 0.0070770508           27 
 4797000   0.48453792   -9.0709672    504.71086 0.0087678213 0.0070745694           14 
 4798000   0.48752682   -9.0802673    504.01529 0.0087539128  0.007072092           18 
 4799000   0.48989224   -9.0755299    503.85272 0.0087492658 0.0070696141           34 
 4800000   0.49377228   -9.0903857    503.57954 0.0087427003 0.0070671371           22 
 4801000   0.47776249   -9.0892537     503.9646 0.0087475631 0.0070646615           13 
 4802000   0.47690814   -9.0658263    504.22731 0.0087503004  0.007062189           19 
 4803000   0.48010636   -9.0805118    504.75277 0.0087575954 0.0070597185           19 
 4804000   0.49081019   -9.0849153     504.6848 0.0087545933 0.0070572474           33 
 4805000   0.48455231   -9.0761656    503.66391 0.0087350661 0.0070547737           36 
 4806000   0.47274643   -9.0768267    503.81577 0.0087358817 0.0070523039           31 
 4807000   0.48643838   -9.1015223    504.28119 0.0087421328 0.0070498374           31 
 4808000   0.48416622   -9.0968249    503.44397 0.0087258036 0.0070473701           22 
 4809000   0.48719091   -9.0787101    503.30353 0.0087215556 0.0070449035           34 
 4810000   0.48224213   -9.0804096    504.23015 0.0087357961 0.0070424376           28 
 4811000   0.48762521   -9.0840969    504.26714  0.008734621 0.0070399733           21 
 4812000   0.47228152   -9.0840221     504.5087 0.0087369891 0.0070375127           23 
 4813000   0.48587898   -9.0815461    503.77431 0.0087224585 0.0070350522           14 
 4814000    0.4874191   -9.0777938    504.61569 0.0087352114 0.0070325897           17 
 4815000   0.48355411   -9.0702528    504.49189 0.0087312545 0.0070301321           34 
 4816000   0.48091013   -9.0747752    504.14221  0.008723391 0.0070276731           26 
 4817000   0.48381346   -9.0854299    502.99491 0.0087017319 0.0070252132           16 
 4818000    0.4838599   -9.0763284    503.86998 0.0087150613 0.0070227567           18 
 4819000   0.47778867   -9.0854597     503.6552 0.0087095385 0.0070203021           43 
 4820000   0.47412687   -9.0871824    503.83383 0.0087108201 0.0070178475           23 
 4821000   0.47782297   -9.0753107    504.23754 0.0087159916 0.0070153918           35 
 4822000   0.48140037    -9.089071    503.91088 0.0087085387 0.0070129385           32 
 4823000   0.48028418   -9.0860356    503.81226 0.0087050291 0.0070104865           28 
 4824000   0.47901337   -9.0988002    503.55959 0.0086988598 0.0070080367           25 
 4825000   0.47031049   -9.0943683    503.44411 0.0086950624 0.0070055875           26 
 4826000   0.48957314   -9.0888391    504.28662 0.0087078087 0.0070031386           23 
 4827000   0.48269205   -9.0823623    503.69981 0.0086958741 0.0070006904           35 
 4828000   0.47628121   -9.0906196    503.87739 0.0086971381 0.0069982445           22 
 4829000   0.48303065   -9.0701394    503.82088 0.0086943618 0.0069958003           29 
 4830000   0.48252053   -9.0594438    503.86849 0.0086933832  0.006993359           24 
 4831000    0.4852708   -9.0968196     504.4037 0.0087008158 0.0069909186           23 
 4832000   0.47598137   -9.0821248    503.67305 0.0086864144 0.0069884768           33 
 4833000     0.482532   -9.0956349    503.53699 0.0086822709 0.0069860353           27 
 4834000    0.4811239   -9.0800188    503.96788 0.0086879031 0.0069835976           32 
 4835000   0.48723578   -9.1004679    503.82965 0.0086837238 0.0069811593           27 
 4836000   0.48604264   -9.0903152    503.99425 0.0086847645 0.0069787226           18 
 4837000   0.47086583   -9.0923912     502.6971 0.0086606212 0.0069762876           34 
 4838000   0.47775088    -9.094336    503.30548 0.0086693103 0.0069738543           24 
 4839000    0.4723588   -9.0891143    503.82788 0.0086765151   0.00697142           32 
 4840000   0.47693648    -9.104874    504.46972 0.0086857734 0.0069689878           24 
 4841000   0.47882508   -9.0868891     503.8898 0.0086739964 0.0069665566           18 
 4842000   0.46640624   -9.1069302    504.07922  0.008675465  0.006964124           28 
 4843000   0.48022265   -9.0997414    504.14444 0.0086747958 0.0069616918           16 
 4844000   0.47177867   -9.0941788    503.82066  0.008667435 0.0069592635           33 
 4845000   0.47191759   -9.1082921    503.45763  0.008659402 0.0069568366           20 
 4846000   0.47452257    -9.077087    503.94375 0.0086659745 0.0069544085           16 
 4847000   0.47995172    -9.076658    503.95088 0.0086643092 0.0069519838           14 
 4848000   0.47754717   -9.0961123    503.14849 0.0086487296  0.006949559           28 
 4849000   0.47295423   -9.0860711    503.58987 0.0086545314 0.0069471363           22 
 4850000   0.46746679   -9.0987904    504.06645 0.0086609356 0.0069447148           33 
 4851000    0.4696634   -9.0934821    503.36505 0.0086471011 0.0069422934           17 
 4852000   0.46916238   -9.1004127    503.57816  0.008648979  0.006939874           21 
 4853000   0.46995289   -9.0963187    504.17181 0.0086573908 0.0069374549           21 
 4854000   0.46703249   -9.0939008    503.11043 0.0086373855 0.0069350374           27 
 4855000   0.46683207   -9.0969051    503.50456 0.0086423714 0.0069326203           21 
 4856000   0.47572619   -9.0920819    503.57354 0.0086417755 0.0069302037           20 
 4857000   0.47784151   -9.0899246    504.29663 0.0086524026 0.0069277906           31 
 4858000   0.47437529   -9.1072444     503.5823  0.008638368 0.0069253752           21 
 4859000   0.47163419   -9.0914387     503.5905 0.0086367308 0.0069229619           16 
 4860000   0.47517932   -9.1079566    503.91437 0.0086405071 0.0069205516           10 
 4861000   0.47488102   -9.0986256    503.16702 0.0086259175 0.0069181415           16 
 4862000   0.46965841   -9.0993905    503.06863 0.0086224569 0.0069157333           14 
 4863000   0.47379216    -9.105551    502.72781 0.0086148435 0.0069133239           19 
 4864000   0.48359397   -9.0869982    503.25171 0.0086220482 0.0069109182           21 
 4865000   0.46190519    -9.099729    503.67156 0.0086274677 0.0069085114           15 
 4866000   0.47346359   -9.0848562     503.1159 0.0086161785 0.0069061064           30 
 4867000   0.47928465    -9.094534    504.30127 0.0086347044 0.0069037014           16 
 4868000   0.47865716   -9.0935142    503.61047 0.0086211049  0.006901299           12 
 4869000   0.48808385   -9.1086212    503.40017 0.0086157351 0.0068988985           19 
 4870000   0.47259589   -9.0943178    503.67974 0.0086187499 0.0068964985           16 
 4871000    0.4850376   -9.0832711    502.93299  0.008604205 0.0068940988           18 
 4872000   0.46810991   -9.1108316    503.26815 0.0086081717 0.0068917004           28 
 4873000   0.47464769   -9.1091018    503.92022 0.0086175563 0.0068893033           30 
 4874000   0.48082233   -9.0904712    504.22404 0.0086209828  0.006886907           25 
 4875000   0.47050474    -9.077844    503.20842 0.0086018534 0.0068845129           16 
 4876000    0.4807658   -9.1056919    504.02981 0.0086141271 0.0068821194           22 
 4877000   0.47306307   -9.0843219    503.38439 0.0086013326 0.0068797265           28 
 4878000   0.47147395   -9.0884731    503.76561 0.0086060819  0.006877337           22 
 4879000   0.46746109   -9.0842707    503.75812 0.0086041901 0.0068749471           34 
 4880000   0.46088371   -9.1116429    503.32657 0.0085950575  0.006872558           24 
 4881000   0.47125901   -9.1081043    503.27233 0.0085923707 0.0068701703           15 
 4882000   0.45865955   -9.1006169    503.50084 0.0085945111 0.0068677832           30 
 4883000   0.46390068   -9.1099743    503.65662 0.0085954096 0.0068653962           18 
 4884000    0.4785156   -9.1078339    503.79815 0.0085960645 0.0068630126           16 
 4885000   0.47905172   -9.0824901    503.09052 0.0085822334 0.0068606299           31 
 4886000   0.46946627   -9.0939392    503.74932  0.008591713 0.0068582488           33 
 4887000   0.46602678   -9.1106523    503.36744 0.0085834432 0.0068558672           32 
 4888000   0.46694949   -9.1163872    503.82634 0.0085895106 0.0068534859           17 
 4889000    0.4765604    -9.092295    504.05662 0.0085916789 0.0068511082           23 
 4890000   0.46045941   -9.1086285    503.34232 0.0085777492 0.0068487303           25 
 4891000   0.46920331   -9.1113594    503.22224 0.0085739494 0.0068463533           30 
 4892000   0.46732674    -9.103003    503.20453 0.0085718951 0.0068439772           21 
 4893000   0.46575445   -9.0872594    504.42492 0.0085909279 0.0068416025           16 
 4894000    0.4795777   -9.1037597    503.71299 0.0085770499 0.0068392292           22 
 4895000   0.47055573   -9.1171372    503.14055 0.0085655524 0.0068368561           20 
 4896000    0.4659907   -9.0964545    503.43621 0.0085688352 0.0068344843           17 
 4897000   0.45750542    -9.113545    503.81639 0.0085735551 0.0068321127           16 
 4898000   0.47342769   -9.0952446    502.48374 0.0085491313 0.0068297437           15 
 4899000    0.4654278   -9.0989745    503.42874  0.008563461 0.0068273745           15 
 4900000    0.4740996   -9.1132246    504.31119 0.0085767209 0.0068250079           16 
 4901000   0.47561026   -9.0995901    503.32854 0.0085582626 0.0068226414           20 
 4902000   0.48323231   -9.1033309     503.2642 0.0085554229 0.0068202769           18 
 4903000   0.45981409   -9.1110237    503.34299 0.0085550172  0.006817913           18 
 4904000   0.47385187   -9.1034188    503.39592 0.0085541721 0.0068155493           18 
 4905000   0.47223727   -9.0917466    503.23987 0.0085497769 0.0068131879           20 
 4906000    0.4618103   -9.0948344    502.99859 0.0085439358 0.0068108259           20 
 4907000   0.46302736   -9.1057776    503.36935 0.0085484911 0.0068084654           16 
 4908000   0.45995575   -9.1140573    503.12154 0.0085425417 0.0068061055           15 
 4909000   0.47256921   -9.0996613    503.20095 0.0085421497  0.006803749           13 
 4910000   0.46012166    -9.097475    504.06069 0.0085550015 0.0068013928           21 
 4911000   0.47008829    -9.087298    503.52372 0.0085441479 0.0067990363           22 
 4912000   0.47165638   -9.0938083    503.80932 0.0085472537  0.006796682           27 
 4913000   0.47305398   -9.1095057    503.86047 0.0085463816 0.0067943284           25 
 4914000    0.4601869   -9.1033311    503.06471 0.0085311476 0.0067919779           20 
 4915000   0.46603586   -9.1114198    503.48631   0.00853656  0.006789626           28 
 4916000   0.45980087   -9.1082834    503.56089 0.0085360878 0.0067872759           19 
 4917000   0.47262824   -9.0968871    503.21733 0.0085285291 0.0067849273           16 
 4918000   0.47307894   -9.1143752    503.13074 0.0085253277 0.0067825797           18 
 4919000    0.4629702   -9.1144422    502.67886 0.0085159393 0.0067802333           25 
 4920000   0.45438249   -9.1176007    503.20767 0.0085231651 0.0067778856           15 
 4921000   0.46465527   -9.1113378    503.46116 0.0085257258 0.0067755398           27 
 4922000   0.46094475   -9.0970431     502.7175 0.0085114029 0.0067731952           21 
 4923000   0.46110299   -9.1128242    503.14025   0.00851683   0.00677085           16 
 4924000   0.45950583    -9.102795    503.61331 0.0085231063 0.0067685063           18 
 4925000   0.46817406   -9.1172101    503.40435 0.0085178401 0.0067661657           29 
 4926000   0.46602952   -9.1049651    502.93546 0.0085081787 0.0067638257           21 
 4927000   0.46723778   -9.1172891    503.35558 0.0085135575 0.0067614882           19 
 4928000   0.46260082   -9.1279026    502.47596 0.0084969555 0.0067591509           20 
 4929000   0.45476392   -9.0998825    503.33359 0.0085097313 0.0067568143           20 
 4930000   0.47029696   -9.0959666    502.77036 0.0084984849 0.0067544781           16 
 4931000   0.46626265   -9.1049684    503.51974 0.0085094257 0.0067521441           26 
 4932000   0.45824887   -9.1016935    502.67356 0.0084934029 0.0067498091           16 
 4933000    0.4610612   -9.1127169    502.96569 0.0084966161 0.0067474756           24 
 4934000   0.46453352   -9.1139432    503.03103 0.0084959977 0.0067451425           23 
 4935000    0.4428526   -9.1158435    503.48408 0.0085019264 0.0067428125           29 
 4936000   0.46231471   -9.1013765    503.76795 0.0085049965 0.0067404823           24 
 4937000   0.45991495   -9.1072126    503.36563 0.0084964829 0.0067381535           17 
 4938000   0.46435622   -9.1210996    503.41915 0.0084956654  0.006735827           16 
 4939000   0.45883299   -9.1100181    503.06436 0.0084879592 0.0067334998           24 
 4940000   0.46125531   -9.1225793    502.86245 0.0084828349 0.0067311735           17 
 4941000   0.45683684   -9.1108777    502.81125 0.0084802544 0.0067288486           24 
 4942000   0.47399093   -9.1057691    502.66932 0.0084761453 0.0067265242           29 
 4943000   0.44944092   -9.1261116    503.08917 0.0084815087 0.0067242022           19 
 4944000   0.47095366   -9.1168476     503.1178 0.0084802758 0.0067218804           19 
 4945000   0.45832142   -9.1160194    503.71057 0.0084885502 0.0067195603           26 
 4946000   0.46106544   -9.1120601     502.6115 0.0084683161 0.0067172409           29 
 4947000   0.45551475   -9.1181405     503.2473 0.0084773146 0.0067149226           28 
 4948000   0.46026557   -9.1283906    501.97393 0.0084541553 0.0067126062           30 
 4949000    0.4584668   -9.1048977    502.75842 0.0084656567 0.0067102891           30 
 4950000   0.46208603   -9.1067672    503.06367 0.0084690854 0.0067079733           32 
 4951000   0.46271682   -9.1299903    502.64537 0.0084603341 0.0067056592           31 
 4952000   0.46519651   -9.1247993    502.20414 0.0084512005 0.0067033453           19 
 4953000   0.47451956   -9.1107205     503.6639 0.0084740545 0.0067010328           27 
 4954000   0.45478058    -9.099396    502.49693 0.0084527138 0.0066987217           20 
 4955000   0.45493113   -9.1233478    503.43323 0.0084667546 0.0066964124           16 
 4956000   0.46122011   -9.1115582    503.15287 0.0084603321 0.0066941029           24 
 4957000   0.44267878   -9.1111985    502.99804 0.0084560225 0.0066917945           20 
 4958000   0.46552369    -9.113681    503.12987 0.0084565327 0.0066894883           27 
 4959000   0.46305938   -9.1203696    503.19007  0.008455839 0.0066871803           19 
 4960000    0.4550556   -9.1306014      503.743 0.0084634241 0.0066848755           22 
 4961000   0.45638482   -9.1181461    503.13762 0.0084515491 0.0066825728           22 
 4962000   0.46413501   -9.1176365     503.2499 0.0084517316 0.0066802715           23 
 4963000   0.46874122   -9.1245933    503.63372 0.0084564732 0.0066779703           25 
 4964000    0.4535331   -9.1095448    502.34343 0.0084331089 0.0066756695           21 
 4965000   0.45006901   -9.1149156    503.63634 0.0084531108  0.006673369           22 
 4966000    0.4477746   -9.1224257    502.55939 0.0084333366 0.0066710703           26 
 4967000   0.46045103   -9.1279094    503.06474 0.0084401171  0.006668773           22 
 4968000   0.45232338   -9.1157644    502.79242 0.0084338504 0.0066664765           28 
 4969000   0.45801053   -9.1237763    503.94346 0.0084514567 0.0066641814           23 
 4970000   0.44545832   -9.1337425    502.72502 0.0084293263 0.0066618861           23 
 4971000   0.45668514   -9.1272969    503.40499 0.0084390295 0.0066595941           23 
 4972000   0.45124782   -9.1218902    503.39531 0.0084371699 0.0066573008           27 
 4973000   0.46360881   -9.1241307    503.15473 0.0084314419 0.0066550115           27 
 4974000   0.45921237   -9.1122275    502.19086 0.0084135984 0.0066527216           16 
 4975000   0.45872626   -9.1349274      502.854 0.0084230151 0.0066504326           26 
 4976000   0.46512289   -9.1221075    502.43144 0.0084142457 0.0066481442           20 
 4977000   0.45864627   -9.1295703    502.86059 0.0084197407 0.0066458564           14 
 4978000   0.46930169   -9.1311235    502.58362 0.0084134126 0.0066435689           26 
 4979000   0.45627169    -9.122083    502.73456 0.0084142492 0.0066412838           22 
 4980000   0.45054377   -9.1249934    502.39292 0.0084068427 0.0066390007           12 
 4981000   0.46416223   -9.1196242    503.29621 0.0084202672 0.0066367177           14 
 4982000   0.45246751   -9.1293636    503.24282 0.0084176841 0.0066344353           17 
 4983000   0.45034385   -9.1219512    502.39512 0.0084018183 0.0066321542           19 
 4984000   0.45721356   -9.1292052    503.20199 0.0084136234 0.0066298753           22 
 4985000    0.4606019   -9.1186518    503.02908 0.0084090452 0.0066275954           13 
 4986000   0.44750895   -9.1158237    502.19422 0.0083934051 0.0066253178           22 
 4987000   0.46092585   -9.1324942    503.21144   0.00840872 0.0066230395           23 
 4988000   0.45515162    -9.137125    503.20055 0.0084068523 0.0066207649           25 
 4989000   0.45164229   -9.1170884    502.59802 0.0083951029 0.0066184915           16 
 4990000   0.46179909   -9.1280099    502.63388 0.0083940193 0.0066162179           18 
 4991000    0.4499636   -9.1124598    503.21075 0.0084019694  0.006613944           21 
 4992000   0.45667876   -9.1249458    502.91833 0.0083954047 0.0066116725           16 
 4993000   0.45274223   -9.1395278    502.38308   0.00838479  0.006609402           27 
 4994000    0.4484081   -9.1302623    503.22126 0.0083970974 0.0066071309           25 
 4995000   0.44901049   -9.1405153    502.58223 0.0083847553 0.0066048601           23 
 4996000   0.45300011   -9.1379095    502.57608 0.0083829745 0.0066025915           24 
 4997000   0.45158974   -9.1411599    502.23802 0.0083756591 0.0066003226           16 
 4998000   0.45976385   -9.1210883    502.67107 0.0083812036 0.0065980568           16 
 4999000   0.44561265   -9.1332236    503.20134 0.0083883666  0.006595791           36 
 5000000   0.45127545   -9.1297667    502.73354 0.0083788923 0.0065935282           26 
 5001000   0.45566099   -9.1446848    502.48458 0.0083730685 0.0065912638           21 
 5002000   0.45182476   -9.1302954     502.7293 0.0083754714 0.0065890029           20 
 5003000   0.45768987   -9.1257045    502.11099 0.0083634983 0.0065867427           19 
 5004000   0.45069523   -9.1373189    502.65119 0.0083708232 0.0065844817           32 
 5005000   0.43410756   -9.1347915    502.80322 0.0083716819 0.0065822224           30 
 5006000   0.44769123   -9.1315596    502.80784 0.0083700865 0.0065799636           24 
 5007000   0.44085065   -9.1139788    502.40207 0.0083616615 0.0065777044           18 
 5008000   0.45457297   -9.1438548    502.82134 0.0083669686 0.0065754492           16 
 5009000   0.46486089   -9.1279077    502.65393 0.0083625129 0.0065731953           32 
 5010000    0.4581551   -9.1295767    502.64821 0.0083607487 0.0065709424           25 
 5011000   0.44994486   -9.1502659    502.61739 0.0083585676 0.0065686877           28 
 5012000   0.45287646   -9.1519273    503.51109 0.0083717592 0.0065664349           26 
Loop time of 12690.4 on 48 procs for 5000000 steps with 4000 atoms

Performance: 68083.124 tau/day, 394.000 timesteps/s
99.4% CPU use with 48 MPI tasks x no OpenMP threads

MPI task timing breakdown:
Section |  min time  |  avg time  |  max time  |%varavg| %total
---------------------------------------------------------------
Pair    | 881.64     | 948.48     | 1025.5     | 123.9 |  7.47
Neigh   | 83.298     | 87.522     | 91.616     |  23.1 |  0.69
Comm    | 799.63     | 875.44     | 951.88     | 131.2 |  6.90
Output  | 14.146     | 14.152     | 14.256     |   0.4 |  0.11
Modify  | 10610      | 10647      | 10680      |  15.1 | 83.90
Other   |            | 118.1      |            |       |  0.93

Nlocal:        83.3333 ave          90 max          78 min
Histogram: 5 1 9 5 4 14 5 2 2 1
Nghost:        2268.42 ave        2294 max        2247 min
Histogram: 2 3 10 6 8 5 7 5 1 1
Neighs:        15295.8 ave       16952 max       13852 min
Histogram: 1 4 3 13 8 7 4 4 2 2
FullNghs:      30590.3 ave       33231 max       28644 min
Histogram: 5 2 10 5 6 9 7 2 1 1

Total # of neighbors = 1468334
Ave neighs/atom = 367.08350
Neighbor list builds = 266420
Dangerous builds = 0

#clear
#
#next RN
#
#jump SELF
Total wall time: 3:31:34
