
units lj                  # Use reduced LJ style units
atom_style atomic         # Uncharged point particles
atom_modify map hash      # Needed for indexing of clusters etc
                          # Used to be able to find where atoms are in relation to each other.

lattice fcc 1.0 spacing 1 1 1
Lattice spacing in x,y,z = 1.5874011 1.5874011 1.5874011
region box block 0 10 0 10 0 10 units lattice
create_box 2 box
Created orthogonal box = (0.0000000 0.0000000 0.0000000) to (15.874011 15.874011 15.874011)
  3 by 4 by 4 MPI processor grid
create_atoms 1 box
Created 4000 atoms
  using lattice units in orthogonal box = (0.0000000 0.0000000 0.0000000) to (15.874011 15.874011 15.874011)
  create_atoms CPU = 0.026 seconds
set type 1 type/fraction 2 0.28 78393
Setting atom values ...
  1153 settings made for type/fraction
mass 1 1.0
mass 2 1.0
pair_style lj/cut  3.5
pair_modify tail  yes
pair_coeff 1  1  1.0  1.0   # Intearaction between 1 and 1 set with epsilon = 1 and sigma = 1
pair_coeff 1  2  1.5  0.8
pair_coeff 2  2  0.5  0.88

write_data data.0
System init for write_data ...
Neighbor list info ...
  update every 1 steps, delay 10 steps, check yes
  max neighbors/atom: 2000, page size: 100000
  master list distance cutoff = 3.8
  ghost atom cutoff = 3.8
  binsize = 1.9, bins = 9 9 9
  1 neighbor lists, perpetual/occasional/extra = 1 0 0
  (1) pair lj/cut, perpetual
      attributes: half, newton on
      pair build: half/bin/atomonly/newton
      stencil: half/bin/3d
      bin: standard
WARNING: Not all mixed pair coeffs generated from mixing. Use write_data with 'pair ij' option to store all pair coeffs. (../write_data.cpp:312)


#############################
#   M E L T   S Y S T E M   #
#############################

velocity all create 2.4 9580093 mom yes dist gaussian # Assign velocities
                                                    # Temperature 2.4, random number seed, zero linear momentum
                                                                                # Gaussian distribution

timestep 0.002   # simulation timestep
thermo 1000       # output thermodynamic data every 1000 steps bf 100

# Define a fix  in this case with index 1 applied to all
# particles in the simulation. This fix is for simulations
# in the anisotropic NPT ensemble. Note that we use the MTK
# correction.
fix 1 all npt temp 2.4 2.4 0.1 iso 5.68 5.68 0.5 mtk yes tchain 5 pchain 5 # Use NPT ensemble
                                                                         # Set temperature and pressure and damping
                                                                         # Numbers of thermostats in chain and in barostat
run 10000          # run for 10000 steps
Per MPI rank memory allocation (min/avg/max) = 3.642 | 3.644 | 3.648 Mbytes
Step Temp E_pair E_mol TotEng Press Volume 
       0          2.4   -6.5468678            0   -2.9477678   -3.9245899         4000 
    1000    2.3932363   -4.9158114            0   -1.3268545    5.9591553    4215.0792 
    2000     2.409981   -4.9565187            0   -1.3424509    5.7484347    4198.1614 
    3000    2.5033817   -4.9547082            0   -1.2005744    5.6578379    4233.6313 
    4000    2.4150411   -4.9896704            0   -1.3680144     5.700349    4195.2868 
    5000    2.4358994   -4.9324781            0   -1.2795425    5.4766755    4246.6562 
    6000    2.3834607    -4.965921            0   -1.3916237    5.6180903    4208.6282 
    7000    2.4386372   -4.9413954            0   -1.2843541    6.0137498    4196.6062 
    8000     2.341006   -4.9400706            0   -1.4294395    5.7898483    4207.5845 
    9000    2.3611598   -5.0047312            0    -1.463877    5.6715213    4184.9846 
   10000    2.4880232   -4.9179985            0   -1.1868967     5.788957    4237.0247 
Loop time of 2.43844 on 48 procs for 10000 steps with 4000 atoms

Performance: 708649.048 tau/day, 4100.978 timesteps/s
99.6% CPU use with 48 MPI tasks x no OpenMP threads

MPI task timing breakdown:
Section |  min time  |  avg time  |  max time  |%varavg| %total
---------------------------------------------------------------
Pair    | 1.0289     | 1.1132     | 1.3285     |   4.3 | 45.65
Neigh   | 0.2042     | 0.21115    | 0.24606    |   1.5 |  8.66
Comm    | 0.62385    | 0.85059    | 0.95581    |   5.7 | 34.88
Output  | 0.00024278 | 0.00025069 | 0.00031721 |   0.0 |  0.01
Modify  | 0.2066     | 0.24779    | 0.29483    |   5.0 | 10.16
Other   |            | 0.01546    |            |       |  0.63

Nlocal:        83.3333 ave          94 max          71 min
Histogram: 1 0 4 6 10 7 14 2 3 1
Nghost:        1577.23 ave        1601 max        1545 min
Histogram: 1 1 1 8 5 10 7 7 6 2
Neighs:        8993.04 ave       10397 max        7293 min
Histogram: 1 0 0 7 10 14 7 5 3 1

Total # of neighbors = 431666
Ave neighs/atom = 107.91650
Neighbor list builds = 902
Dangerous builds = 169

# Equilibrate just above the melting temperature to avoid step fn in T

fix 1 all npt temp 1.25 1.25 0.1 iso 5.68 5.68 0.5 mtk yes tchain 5 pchain 5
run 2000
Per MPI rank memory allocation (min/avg/max) = 3.643 | 3.645 | 3.649 Mbytes
Step Temp E_pair E_mol TotEng Press Volume 
   10000    2.4880232   -4.9179985            0   -1.1868967     5.788957    4237.0247 
   11000    1.2309479   -6.7714413            0    -4.925481    5.9650403    3394.0576 
   12000    1.2553227   -6.8276277            0   -4.9451145    5.9018263    3379.7367 
Loop time of 0.569043 on 48 procs for 2000 steps with 4000 atoms

Performance: 607335.546 tau/day, 3514.673 timesteps/s
99.6% CPU use with 48 MPI tasks x no OpenMP threads

MPI task timing breakdown:
Section |  min time  |  avg time  |  max time  |%varavg| %total
---------------------------------------------------------------
Pair    | 0.25227    | 0.27237    | 0.30285    |   2.2 | 47.86
Neigh   | 0.037537   | 0.039841   | 0.044607   |   0.7 |  7.00
Comm    | 0.17137    | 0.20634    | 0.2292     |   2.7 | 36.26
Output  | 5.1104e-05 | 5.2896e-05 | 6.9721e-05 |   0.0 |  0.01
Modify  | 0.041501   | 0.045605   | 0.049136   |   1.0 |  8.01
Other   |            | 0.004841   |            |       |  0.85

Nlocal:        83.3333 ave          90 max          69 min
Histogram: 1 0 2 0 4 6 8 14 7 6
Nghost:        1835.42 ave        1856 max        1808 min
Histogram: 1 2 3 5 9 6 6 7 6 3
Neighs:        11293.8 ave       12190 max        9486 min
Histogram: 3 0 0 3 2 8 11 3 9 9

Total # of neighbors = 542104
Ave neighs/atom = 135.52600
Neighbor list builds = 143
Dangerous builds = 9

#############################
# L I N E A R  Q U E N C H  #
#############################

# Define solid atoms. This closely follows ten Wolde  Ruiz-Montero and Frenkel  Faraday Discuss  1996  104  93-110
# Compute components of the per-atom q6 vector
compute q6 all orientorder/atom degrees 1 6 components 6 nnn NULL cutoff 1.3 # compute the Q6 parameter.
                                                                             # Use all neighbours within 1.3 unit cell.

# get number of connections
compute coord_number all coord/atom orientorder q6 0.5

# An atom is solid if it has 8 or more connections (of a possible 14)
variable is_solid atom c_coord_number>=8
group solid dynamic all var is_solid    # Must be dynamic to update
dynamic group solid defined

# do clustering
compute cluster solid cluster/atom 1.3 # Create a cluster where all atoms within are solid and max 1.3 units from another member

# define chunks one chunk per cluster
compute clus_chunks solid chunk/atom c_cluster nchunk every compress yes  # Says which atoms are in which chunk

# count the size of each chunk
compute size_chunks solid property/chunk clus_chunks count


# Find the maximum entry in the vector of chunk sizes
variable max_n equal max(c_size_chunks)


# Thermo style which includes this variable
# thermo_style custom step temp pe vol v_max_n

thermo ${N}  # Print the thermo information every 100 steps
thermo 1000  

# Reset the npt fix at a lower temperature (below freezing)
fix 1  all npt temp  ${temp} ${temp}  0.1  iso  5.68  5.68  0.5  mtk yes tchain  5  pchain  5
fix 1  all npt temp  0.45 ${temp}  0.1  iso  5.68  5.68  0.5  mtk yes tchain  5  pchain  5
fix 1  all npt temp  0.45 0.45  0.1  iso  5.68  5.68  0.5  mtk yes tchain  5  pchain  5

dump dmp2 all dcd ${N} traj.dcd
dump dmp2 all dcd 1000 traj.dcd


compute msd all msd com yes
variable twopoint equal c_msd[4]/6/(step*dt+1.0e-6)
fix 9 all vector 10 c_msd[4]
variable fit equal slope(f_9)/6/(10*dt)
thermo_style custom step temp pe c_msd[4] v_twopoint v_fit v_max_n

fix 1 all npt temp 1.25 ${temp} 0.1 iso 5.68 5.68 0.5 mtk yes tchain 5 pchain 5
fix 1 all npt temp 1.25 0.45 0.1 iso 5.68 5.68 0.5 mtk yes tchain 5 pchain 5
run 5000000 # 5000000  # Run for this many steps
Neighbor list info ...
  update every 1 steps, delay 10 steps, check yes
  max neighbors/atom: 2000, page size: 100000
  master list distance cutoff = 3.8
  ghost atom cutoff = 3.8
  binsize = 1.9, bins = 8 8 8
  4 neighbor lists, perpetual/occasional/extra = 1 3 0
  (1) pair lj/cut, perpetual
      attributes: half, newton on
      pair build: half/bin/atomonly/newton
      stencil: half/bin/3d
      bin: standard
  (2) compute orientorder/atom, occasional
      attributes: full, newton on
      pair build: full/bin/atomonly
      stencil: full/bin/3d
      bin: standard
  (3) compute coord/atom, occasional
      attributes: full, newton on
      pair build: full/bin/atomonly
      stencil: full/bin/3d
      bin: standard
  (4) compute cluster/atom, occasional
      attributes: full, newton on
      pair build: full/bin/atomonly
      stencil: full/bin/3d
      bin: standard
Per MPI rank memory allocation (min/avg/max) = 9.808 | 9.813 | 9.817 Mbytes
Step Temp PotEng c_msd[4] v_twopoint v_fit v_max_n 
   12000    1.2553227   -6.8276277 9.8548449e-31 6.843642e-33 8.3333333e+20            1 
   13000    1.2606865   -6.7987399   0.50639683 0.0032461334  0.041002174            1 
   14000    1.2579619   -6.8401434    1.0307468 0.0061353973  0.042631239            2 
   15000    1.2410788   -6.8633414    1.5162715 0.0084237303  0.042431497            1 
   16000    1.2244416   -6.7826143    2.0600829  0.010729598  0.042284194            1 
   17000    1.2293662   -6.8413352    2.5159652  0.012333163  0.042226169            1 
   18000    1.2393719   -6.8237578    2.9836599   0.01381324   0.04168522            2 
   19000    1.2372616   -6.8278481    3.4802381  0.015264202  0.041369068            1 
   20000     1.218397   -6.8357398    3.8724563  0.016135234  0.040786764            2 
   21000    1.2692956   -6.7747522    4.3694793  0.017339203  0.040263126            1 
   22000    1.2394751    -6.792033     4.881494  0.018490507  0.040136691            1 
   23000    1.2524593   -6.8240161    5.2976026  0.019194212  0.039888846            2 
   24000    1.2667775   -6.8286996     5.779374  0.020067271  0.039723808            1 
   25000    1.2684053   -6.8265565    6.3332783  0.021110927  0.039793482            1 
   26000    1.2263148   -6.8520443    6.8030802  0.021804744  0.039878115            2 
   27000    1.2429101   -6.8631198    7.2504888  0.022378051  0.039869408            1 
   28000    1.2578685   -6.8444027    7.8010235  0.023217332  0.039930276            1 
   29000    1.2542683   -6.8103509    8.3090118   0.02387647   0.04007549            1 
   30000    1.2477322    -6.849304    8.7582254  0.024328404  0.040197674            1 
   31000    1.2463807   -6.8522716    9.1269227  0.024534738  0.040136788            2 
   32000     1.245383   -6.8080398    9.5809461   0.02495038  0.039995314            2 
   33000    1.2471242   -6.8422108     10.05782  0.025398536  0.039914722            2 
   34000    1.2674934   -6.8340642     10.53857  0.025829828  0.039824573            2 
   35000    1.2361706   -6.8755707     11.18884  0.026640095   0.03985948            1 
   36000    1.2685214   -6.8198116    11.725234  0.027141746   0.03997146            2 
   37000    1.2502589   -6.8733931     12.22271  0.027528625  0.040096317            1 
   38000    1.2582063   -6.8179911    12.613108  0.027660323  0.040158151       -1e+20 
   39000     1.242055    -6.820684     13.21903  0.028245791  0.040226089            1 
   40000    1.2293628   -6.8058132    13.792948  0.028735308  0.040326259            1 
   41000    1.2605591    -6.831976    14.280602  0.029025613  0.040481453            1 
   42000    1.2387941    -6.849135    14.748539  0.029262975  0.040569845            1 
   43000    1.2492894    -6.845742     15.36637  0.029779787  0.040663589            1 
   44000    1.2126454   -6.8260118     15.96237   0.03023176  0.040796003            1 
   45000    1.2304189    -6.846336    16.414017  0.030396328  0.040926113            4 
   46000    1.2058982   -6.8648363    16.836038  0.030500068  0.041005706            2 
   47000    1.2431864   -6.8192063    17.380431  0.030816368  0.041066789            1 
   48000    1.2457572   -6.8632021    17.856407  0.031000706  0.041147987            2 
   49000    1.2267902   -6.8211735     18.29709    0.0311175  0.041208407            1 
   50000    1.2594847   -6.8243132    18.751674   0.03125279  0.041232549            1 
   51000    1.2501122   -6.8701155    19.338261  0.031598465  0.041242704            2 
   52000     1.259431   -6.8088823    19.874704  0.031850487  0.041291574            1 
   53000    1.2828979   -6.8498598    20.253913  0.031845775  0.041322924            3 
   54000    1.2418323   -6.8111408    20.735107  0.031998622  0.041335947            1 
   55000    1.2653569   -6.7807335    21.219791  0.032151198  0.041331965            1 
   56000    1.2458272   -6.8440654    21.658195  0.032229456  0.041321046            1 
   57000    1.2380355   -6.8318552    22.084073  0.032286656  0.041295054            2 
   58000    1.2551328    -6.867343    22.570768  0.032429264  0.041285447            3 
   59000      1.24216   -6.8185534     23.11038   0.03264178  0.041278244            2 
   60000    1.2156657   -6.8146324    23.787636  0.033038384  0.041269706            1 
   61000    1.2320967   -6.8129622    24.338541  0.033249372   0.04128715            1 
   62000     1.259162   -6.8433318    24.892282  0.033457367  0.041319028            1 
   63000    1.2383463   -6.8278894    25.564476  0.033815444  0.041364952            2 
   64000    1.2371935   -6.8377955    25.882526  0.033701205  0.041398132            1 
   65000    1.2463786   -6.8472677     26.33803  0.033766705  0.041414692            1 
   66000    1.2375103   -6.8317102    26.859127  0.033913039  0.041438213            1 
   67000    1.2782404    -6.858529    27.274211  0.033923147   0.04144954            1 
   68000    1.2358093   -6.8347471    27.786995  0.034052689  0.041464843            2 
   69000    1.2485631   -6.8734087    28.329445  0.034214305   0.04148531            1 
   70000    1.2241916   -6.8645243    28.990769   0.03451282  0.041509859            1 
   71000    1.2289727   -6.8443892    29.434894  0.034547997  0.041528254            2 
   72000    1.2586862   -6.8643082    29.740031  0.034421332  0.041530276            2 
   73000    1.2348386   -6.8454749    30.151491  0.034419511  0.041520684            1 
   74000    1.2605585   -6.8559686    30.600484  0.034460004  0.041510709            2 
   75000    1.2415699   -6.8381719    31.232939  0.034703265  0.041499093            1 
   76000    1.2385664   -6.8388283    31.540426    0.0345838  0.041489318            3 
   77000    1.2583775    -6.796188     32.26992  0.034924155  0.041477898            1 
   78000     1.255759   -6.8233139    32.752268  0.034991739   0.04147475            1 
   79000    1.2089221   -6.8367103    33.389526  0.035221019  0.041484028            2 
   80000    1.2288477   -6.8120635     33.96576     0.035381  0.041505082            2 
   81000    1.2312549   -6.8352942    34.631651   0.03562927  0.041534065            2 
   82000     1.218335   -6.8274986    35.147126  0.035718624  0.041569627            1 
   83000    1.2329749   -6.8325649    35.451185  0.035593559  0.041595491            3 
   84000    1.2634183   -6.8707029    35.916469  0.035631417  0.041615016            1 
   85000    1.2139994   -6.8291208    36.609406  0.035891575  0.041633263            2 
   86000    1.2291645   -6.8290036    37.050514  0.035901661   0.04165192            3 
   87000    1.2497985   -6.7928058     37.40537  0.035828899  0.041667819            2 
   88000    1.2268825   -6.8520703    37.841392  0.035834651   0.04167442            1 
   89000    1.2316158   -6.8750313    38.215935   0.03578271  0.041669106            1 
   90000    1.2313068    -6.836135    38.657571  0.035794047  0.041656907            2 
   91000    1.2251138   -6.8067014    39.090882  0.035797511  0.041640747            2 
   92000    1.2271875   -6.8779319    39.493993  0.035773544  0.041624406            1 
   93000    1.2401848   -6.8415146    40.127399  0.035956451  0.041609355            2 
   94000    1.2214052   -6.8482061    40.605654   0.03599792  0.041598287            1 
   95000    1.2499137   -6.8625016    40.912794  0.035888416  0.041580205            1 
   96000    1.2205536   -6.8547699    41.591928  0.036104104  0.041561814            2 
   97000    1.2305172   -6.8273387    41.805275  0.035915185  0.041540856            1 
   98000    1.2392545   -6.8149591    42.755011  0.036356301  0.041526765            2 
   99000    1.2382251   -6.8552375    43.159225  0.036329314  0.041528154            1 
  100000    1.2006087   -6.8067128    43.566741  0.036305617  0.041517306            1 
  101000    1.2281111   -6.8562464    43.932678  0.036248084  0.041502325            3 
  102000    1.2429504   -6.8314331     44.25241   0.03615393  0.041481952            1 
  103000    1.2407902   -6.8674544    44.352717  0.035884075  0.041449613            2 
  104000    1.2505898   -6.8193511    45.080325  0.036122056  0.041414248            1 
  105000    1.2361964   -6.8263253    45.441623   0.03606478  0.041381606            1 
  106000    1.2250774   -6.8999593    46.105247  0.036246263  0.041350305       -1e+20 
  107000    1.2221113   -6.8987587    46.519049  0.036229789  0.041325182            1 
  108000    1.2094544   -6.7859895    47.226142  0.036439924  0.041303767            1 
  109000    1.2636097   -6.8191181    47.628978  0.036413592  0.041281006            1 
  110000    1.2116803   -6.8316214    48.290668  0.036583839  0.041264958            1 
  111000    1.2113392   -6.8579302    48.662422   0.03653335  0.041252358            1 
  112000    1.2351552   -6.8236352    49.076987  0.036515615  0.041232065            1 
  113000    1.2412271    -6.836079    49.653008  0.036617262  0.041213873            2 
  114000    1.2543981   -6.8584505    49.868315  0.036453446  0.041195161            1 
  115000    1.1934339   -6.8624982    50.490369  0.036587224  0.041175846            1 
  116000    1.2384196   -6.8646304    51.168855  0.036759235  0.041161351            1 
  117000    1.2535983   -6.8423582    51.619862  0.036766283  0.041150161            1 
  118000    1.2197037   -6.8960745    51.782724   0.03656972  0.041134414            1 
  119000    1.2260218   -6.9043134    52.282521   0.03661241  0.041113114            4 
  120000    1.2385729   -6.8671024    52.630062  0.036548654  0.041087273            1 
  121000     1.246651   -6.8410385    53.440593  0.036804816  0.041068004            2 
  122000    1.2167148   -6.8783692    53.780744  0.036735481  0.041054315            2 
  123000    1.1990777   -6.8079169    54.168071  0.036699235  0.041040918            3 
  124000    1.2561362   -6.8280666    54.825527  0.036845112  0.041019979            1 
  125000     1.248692   -6.8224084    55.600712  0.037067141  0.041009073            2 
  126000    1.2260572    -6.850827    56.033203  0.037058996  0.041005399            1 
  127000    1.2363989   -6.8489637    56.681444  0.037192549  0.040999699            2 
  128000    1.2209157   -6.8499706    57.044515  0.037138356  0.040993398            5 
  129000    1.2171295   -6.8368178    57.303924  0.037018038  0.040983493            2 
  130000      1.23716   -6.8348274    57.649806  0.036955004  0.040968135            1 
  131000    1.1983798   -6.8619748    58.089292  0.036952476  0.040951352            2 
  132000    1.2248555   -6.8862643    58.821419  0.037134734  0.040938958            1 
  133000    1.2346385   -6.8660804    59.120882  0.037043159  0.040927736            1 
  134000    1.2315067   -6.8871384    59.641767  0.037090651  0.040916659            1 
  135000    1.1827292   -6.8420425    60.180861   0.03714868  0.040904668            2 
  136000    1.2450956   -6.8576892    60.738766  0.037217381  0.040893907            1 
  137000    1.2571876   -6.8715527    61.144837  0.037192723  0.040883701            3 
  138000    1.2140759   -6.8638157    61.137777  0.036918947  0.040867175            2 
  139000    1.2270439   -6.8279926    62.319575  0.037361855  0.040855645            1 
  140000    1.2262388   -6.8637867    62.374149   0.03712747  0.040845457            1 
  141000    1.2425126   -6.8839792    62.674976  0.037041948  0.040829141            1 
  142000    1.2260366   -6.8456774     63.40968  0.037212254  0.040817158            1 
  143000    1.2490787   -6.9101514    63.674143  0.037106144  0.040803751            1 
  144000    1.2408629   -6.9057937    64.164381  0.037132165  0.040789431            2 
  145000    1.2232503    -6.870913    64.520832  0.037080938  0.040773888            1 
  146000    1.2407981   -6.9031636    65.023695  0.037113981  0.040755751            2 
  147000    1.2287029   -6.8282871    65.792762  0.037297484  0.040737643            1 
  148000    1.2274852   -6.8406891    66.082858  0.037208816  0.040722985            3 
  149000    1.2394812   -6.8719796    66.411876  0.037143107  0.040707116            1 
  150000    1.2323191   -6.8302573    67.081915  0.037267731  0.040691686            1 
  151000    1.2100236   -6.8692648     67.37636  0.037183422  0.040674194            1 
  152000     1.237221   -6.8594638    67.798943  0.037170473  0.040657341            1 
  153000    1.2120582   -6.8513047    68.439192  0.037276248  0.040640958            2 
  154000    1.1931545   -6.8798662    68.779257  0.037218212  0.040620767            1 
  155000     1.228742   -6.8733259    69.273292  0.037243705  0.040600474            1 
  156000    1.2135809   -6.8696641    69.465924  0.037107865  0.040579307            3 
  157000    1.2416549   -6.9097527    70.089209   0.03720234  0.040559728            2 
  158000      1.24978   -6.8434413    70.875307  0.037381491  0.040541942            2 
  159000    1.2461986   -6.8626129    71.062185  0.037244331  0.040524544            1 
  160000    1.2275233   -6.8632185    71.642636  0.037313873  0.040507751            1 
  161000    1.2354305   -6.8870785    72.443228  0.037496495  0.040493529            3 
  162000     1.222481   -6.8428131    72.811586  0.037454519  0.040482222            1 
  163000    1.2129626   -6.9118799    73.109754  0.037377175  0.040470605            2 
  164000    1.2667366   -6.8503895    73.776687  0.037488154  0.040458155            1 
  165000    1.2240739   -6.8319203    74.157237   0.03745315  0.040445093            2 
  166000    1.2166132   -6.8666211    74.615589  0.037457625  0.040432986            1 
  167000    1.2342588   -6.9018278    75.022456  0.037436355  0.040421556            2 
  168000    1.2343257   -6.8799953    75.659566  0.037529546  0.040409332            4 
  169000    1.2420178   -6.8942556    75.858295  0.037405471  0.040397907            1 
  170000    1.2018918    -6.867455      76.8548  0.037673922  0.040389346            1 
  171000    1.2324038    -6.862735    76.931557  0.037491012  0.040382963            2 
  172000    1.2165762   -6.8759289    78.088082  0.037833373  0.040381116            2 
  173000    1.2319569   -6.8870906    78.487442  0.037807053  0.040379908            3 
  174000    1.2237045   -6.8875527    78.958222   0.03781524  0.040379395            1 
  175000     1.219839    -6.888805    79.451758  0.037834171  0.040380266            2 
  176000     1.230502   -6.9131481    79.717872  0.037745204   0.04038214            1 
  177000    1.2091033    -6.907935    80.071067  0.037698242  0.040378831            1 
  178000    1.2292659    -6.873002    80.718921  0.037789757  0.040375523            1 
  179000    1.2061614   -6.8673799    81.518244  0.037950765  0.040373932            1 
  180000    1.2267117   -6.8786753     81.69879  0.037823514  0.040374994            2 
  181000    1.2191467   -6.8290821    82.535296  0.037999676  0.040374235            6 
  182000    1.2187675   -6.8805688    82.839457  0.037930154  0.040377392            1 
  183000    1.2433655   -6.8829061    83.149309  0.037863984  0.040380836            2 
  184000    1.2002657   -6.8548758    83.555283  0.037842066  0.040381016            1 
  185000    1.2246479    -6.891627    84.244684  0.037948056  0.040381527            1 
  186000    1.2095782   -6.8498909    84.535344  0.037874258  0.040379794            2 
  187000    1.2333778   -6.8386196    84.786795  0.037783776  0.040371522            1 
  188000    1.1981018   -6.8867357    85.332277  0.037824591  0.040363262            2 
  189000    1.2233549   -6.8331311    85.817075  0.037838216  0.040357819            1 
  190000    1.2291486   -6.8678868    86.148829  0.037784574  0.040350537            2 
  191000    1.2168964   -6.8863858    86.671616  0.037814841  0.040341778            2 
  192000    1.2312187    -6.892085    87.134456  0.037818774   0.04033314            2 
  193000    1.2049121   -6.8563755     87.50384  0.037782314  0.040325971            1 
  194000    1.2193229   -6.9038044    87.632705  0.037642914  0.040316475            1 
  195000    1.2207299   -6.8556671    88.489783  0.037816146  0.040306464            3 
  196000    1.2230485   -6.8942605    88.576157  0.037659931  0.040298265            1 
  197000    1.2248326   -6.8338314    89.171154  0.037720454  0.040287504            2 
  198000    1.2115007   -6.8555061    89.666811  0.037738557  0.040276561            3 
  199000    1.2201576   -6.8506618     89.84801  0.037624795  0.040265757            2 
  200000    1.2118254   -6.8633795    90.511739  0.037713225  0.040251307            1 
  201000    1.1809689   -6.9334005    90.486399  0.037515091  0.040233744            1 
  202000    1.2162385   -6.9030817    90.779025  0.037450093  0.040216474            1 
  203000    1.2273185   -6.9094198    90.917942  0.037322636  0.040197996            2 
  204000    1.2181772   -6.8676775    92.013438  0.037587188  0.040178974            1 
  205000    1.1951375   -6.9133297    91.911735  0.037362494  0.040159983            4 
  206000    1.2001474   -6.8951276    92.606473  0.037462165  0.040142925            2 
  207000    1.2101805   -6.8789276    93.267654  0.037547365  0.040127386            3 
  208000    1.2267307   -6.8881903    93.926322  0.037630738  0.040116624            2 
  209000    1.1894512   -6.8684026    94.749496  0.037778906  0.040105508            2 
  210000    1.2319708    -6.899912     95.15525   0.03776002  0.040096694            3 
  211000    1.2184972   -6.8954018    95.795613   0.03783397  0.040087786            1 
  212000     1.235242   -6.8623867    96.565521  0.037958145  0.040079582            3 
  213000    1.2030044   -6.9451333    96.277519  0.037667261  0.040071343            1 
  214000    1.2109256   -6.9084905    97.063521  0.037797321  0.040063076            2 
  215000    1.2278272   -6.9168864    97.581964  0.037822467  0.040055389            2 
  216000     1.249706   -6.8907914    98.081981   0.03784027  0.040049971            2 
  217000    1.2012989   -6.8769659    98.534598  0.037839707  0.040042004            1 
  218000     1.202427   -6.9025296    98.995112  0.037842168  0.040033511            1 
  219000    1.2258823   -6.8616611    99.494496  0.037859397  0.040026013            1 
  220000    1.2387554   -6.9005755    99.582322  0.037720576  0.040020276            1 
  221000    1.2098242    -6.872045    100.72507  0.037980794  0.040014338            2 
  222000    1.2174627   -6.9159724    101.46154  0.038086165  0.040011758            2 
  223000    1.2127626   -6.8614331    101.67675  0.037995796  0.040008793            2 
  224000    1.2339186   -6.9066862    102.39164  0.038092129  0.040007721            1 
  225000    1.2030994   -6.8811839    103.12132  0.038193082  0.040007992            1 
  226000    1.2013193   -6.8307716    103.73132  0.038249011  0.040011386            1 
  227000    1.2244203   -6.8642655    104.22611  0.038262156  0.040013832            2 
  228000    1.1937744   -6.8922832    104.64073  0.038245882  0.040016436            2 
  229000     1.202675   -6.8904897    104.66117  0.038086308  0.040018262            2 
  230000    1.2108742    -6.885764    105.53901  0.038238772  0.040019687            2 
  231000    1.2202011   -6.8728881    106.08352  0.038269668  0.040020264            2 
  232000    1.2233047   -6.9228831    106.59455  0.038288273  0.040022868            1 
  233000    1.1960553   -6.9034534    107.25991  0.038361912   0.04002772            2 
  234000    1.2025571   -6.8685504    107.97913  0.038454107  0.040033545            2 
  235000    1.2039013   -6.8904678    108.50327  0.038476336  0.040039996            2 
  236000    1.2060778   -6.8917314    108.09517  0.038169199  0.040040867            3 
  237000      1.23308   -6.8958212    108.89412  0.038289073  0.040040313            1 
  238000    1.2332988   -6.8377308    109.52269   0.03834828  0.040041871            2 
  239000    1.2014569   -6.8836288    110.18928  0.038420252  0.040042159            1 
  240000    1.2431358   -6.8764164    110.20391  0.038265247  0.040042287            1 
  241000    1.2042073   -6.8769599    110.16596  0.038093348  0.040040305            2 
  242000    1.2236095   -6.8804027    110.81509  0.038159466  0.040036101            2 
  243000    1.2192779    -6.929852    110.86138  0.038018307  0.040033316            1 
  244000    1.2213925   -6.9408771    111.04729  0.037925987  0.040028417            2 
  245000    1.1979902   -6.9112018    111.89572   0.03805977  0.040020737            1 
  246000    1.2052485   -6.9057608    112.24236  0.038022479  0.040014183            1 
  247000    1.1949589   -6.8975355    113.31208  0.038229447  0.040008905            1 
  248000    1.1905454   -6.9039793    113.45093  0.038121952  0.040005345            1 
  249000    1.2205032   -6.9371843    114.08211   0.03818009  0.040003161            1 
  250000    1.2062661   -6.8680666    114.67632  0.038225441  0.040002919            1 
  251000    1.1925407   -6.9027856     114.8115  0.038118028  0.039999679            1 
  252000    1.1883423   -6.9182494     115.4222  0.038168717  0.039997825            1 
  253000    1.2119962   -6.9263078    115.48954  0.038040034  0.039995486            4 
  254000     1.220332   -6.9039594    116.57808  0.038247402  0.039991909            1 
  255000    1.2268707   -6.9067714    116.84657  0.038185153  0.039987395            2 
  256000    1.2055027   -6.9108944    117.12808  0.038127631  0.039983006            1 
  257000    1.2102354   -6.9069064    117.52386  0.038107606  0.039977419            3 
  258000    1.2225002     -6.89273    118.09539  0.038144506  0.039971505            2 
  259000    1.1731198   -6.8668415    118.38879  0.038091632  0.039965903            2 
  260000    1.2004645   -6.9430021     118.2124  0.037888588  0.039957669            1 
  261000     1.191152   -6.9261733     119.3846  0.038117689  0.039949748            2 
  262000    1.2223767   -6.8812396    119.73164  0.038082584  0.039942854            1 
  263000    1.2298372   -6.8501749    120.04573  0.038037303  0.039933635            1 
  264000    1.2547811   -6.8686923    120.78245  0.038125774  0.039925153            1 
  265000    1.2146707   -6.9005449    121.47863  0.038200827  0.039918231            2 
  266000    1.2064582   -6.8778451    121.62595  0.038103369  0.039911403            2 
  267000    1.2110042   -6.9205658     122.0246  0.038085081  0.039905117            1 
  268000     1.234915   -6.8878626    122.63434  0.038132568  0.039898182            1 
  269000    1.2100434   -6.9027067    122.63448  0.037990856  0.039888944            2 
  270000    1.1884612   -6.8969873    122.78448  0.037896445  0.039879085            1 
  271000    1.1883903   -6.8865717    123.70818  0.038040646  0.039869239       -1e+20 
  272000    1.2057268   -6.8487297    124.21833  0.038057085  0.039860314            1 
  273000    1.2018423   -6.8696948    124.67924  0.038058377  0.039850349            3 
  274000    1.2061817   -6.8852326    124.67484  0.037918138  0.039839989            1 
  275000    1.1967008    -6.942117    124.71174  0.037791437  0.039828986            1 
  276000    1.2093674   -6.8998892    125.13911  0.037783547  0.039816092            1 
  277000    1.1939261   -6.8840031    126.13716    0.0379474  0.039803966            1 
  278000    1.1979054   -6.8788058    126.36612  0.037879533  0.039791825            3 
  279000    1.2161454   -6.9221507    126.43998  0.037765823  0.039778628            3 
  280000    1.2177756   -6.9530107    127.24702  0.037871138  0.039766846            1 
  281000    1.1799011   -6.9205134    127.72895  0.037879285  0.039755667            1 
  282000    1.2227892   -6.9129797    128.16211  0.037872962  0.039744574            1 
  283000    1.1795023   -6.8758196    128.35207  0.037795073  0.039733589            3 
  284000    1.1929196   -6.8945752    128.84299  0.037806042  0.039722385            1 
  285000    1.1987265   -6.9076259    129.58358  0.037889936  0.039710646            2 
  286000    1.1943919   -6.9092687    130.03483  0.037888936  0.039698273            1 
  287000    1.1880312   -6.8760756    130.01744  0.037751869  0.039686696            2 
  288000    1.1810902   -6.8881802    130.93504  0.037886297  0.039674879            1 
  289000    1.2090719   -6.9295095    131.21538  0.037836038  0.039664952            1 
  290000    1.2021835   -6.8952054    132.29049  0.038014508  0.039655733            1 
  291000    1.2014124   -6.9267907    132.49422  0.037942217  0.039647635            2 
  292000    1.2264106   -6.9330296    132.47772  0.037807568  0.039637657            2 
  293000    1.1943902   -6.8686419    133.08373   0.03785089  0.039626996            2 
  294000    1.1954903   -6.9123221     133.3667  0.037802351  0.039615436            1 
  295000     1.197175   -6.9615992    133.56595  0.037730495  0.039605264            2 
  296000    1.2106045   -6.9315022    134.47195  0.037858095    0.0395944            2 
  297000    1.2539206   -6.9169386    135.74663  0.038088279  0.039586011            1 
  298000    1.1971184   -6.8966715     136.0703   0.03805098   0.03957912            1 
  299000    1.2003336   -6.9369914    136.34988  0.038001639  0.039573354            1 
  300000    1.2058944   -6.9174388    136.95111  0.038041974  0.039567646            1 
  301000    1.2065026   -6.8682535    137.78123  0.038145412  0.039562777            1 
  302000    1.2169854   -6.9345783    137.50048  0.037941633  0.039556457            2 
  303000    1.2138727    -6.939794    137.85067  0.037912726  0.039548014            1 
  304000    1.2221872   -6.8928791    138.66342  0.038010806   0.03954162            1 
  305000    1.1873573   -6.9312634    138.74592  0.037908721  0.039535185            2 
  306000    1.2242424   -6.9097159    139.52479  0.037996946  0.039528372            4 
  307000    1.1854789   -6.9458087    139.64497  0.037905801  0.039520293            2 
  308000    1.2078026   -6.9165546    140.01137  0.037881864  0.039511899            2 
  309000    1.1896074   -6.8909824    140.84885  0.037985126   0.03950422            2 
  310000    1.1834191   -6.8700281    140.81634  0.037853854   0.03949709            2 
  311000    1.2203264   -6.9092587    141.63804  0.037952315  0.039489909            1 
  312000    1.2139699   -6.9306959    142.23695  0.037990638  0.039482568            1 
  313000    1.1988137   -6.9231611    143.27468   0.03814555   0.03947695            1 
  314000     1.233992   -6.9166076    143.53493  0.038093134   0.03947232            1 
  315000    1.1899706    -6.913267    143.65216  0.038003216  0.039468211            3 
  316000    1.2017375   -6.9116597    144.17933  0.038021976  0.039462972            2 
  317000    1.2091454   -6.9019454    144.67005  0.038031033  0.039456927            2 
  318000    1.1806177   -6.9247728    144.76238  0.037935635  0.039450534            1 
  319000    1.2032879   -6.9609313     145.0355   0.03788806  0.039443161            6 
  320000    1.2105337   -6.9645869    145.12053  0.037791805  0.039435566            2 
  321000     1.201612   -6.9210699    145.70643  0.037826175  0.039426341            1 
  322000    1.1787117   -6.9374254    146.73617  0.037975199  0.039418383            1 
  323000    1.2255867   -6.8986641     146.9613  0.037915713   0.03941107            1 
  324000    1.2212967   -6.9058798    147.67691  0.037982744   0.03940356            1 
  325000    1.2027837   -6.9502668    147.87605  0.037916935  0.039396582            1 
  326000    1.1944767    -6.958251    148.03595  0.037841502  0.039388664            2 
  327000    1.1972141    -6.930273    149.11439  0.038000608  0.039382742            1 
  328000    1.1582684   -6.9128636    149.62517  0.038014525  0.039378137            1 
  329000    1.1716337    -6.965871    150.15824  0.038034001  0.039373031            1 
  330000    1.1787429   -6.9543466    150.55592  0.038019173   0.03936923            1 
  331000    1.2100423   -6.8894691    151.71145  0.038195229   0.03936537            1 
  332000     1.207896   -6.9081148    151.70449  0.038078435  0.039362547            1 
  333000     1.169957   -6.9183742    152.49587  0.038162131  0.039359894            2 
  334000    1.1899951   -6.9159764    152.91814  0.038153229  0.039356668            2 
  335000    1.1703176   -6.9346882     153.5091  0.038186343  0.039352899            2 
  336000    1.1824876   -6.9085103     153.8303  0.038152357  0.039348693            1 
  337000    1.1947575    -6.931808    153.86184  0.038046943  0.039344037            1 
  338000    1.2175627   -6.9103494    153.81212  0.037922121  0.039339678            1 
  339000    1.1846234   -6.9625636    154.14925   0.03789313  0.039332845            1 
  340000    1.1999404   -6.9154413    154.91499  0.037969361  0.039324975            2 
  341000     1.194319    -6.923381    154.94661  0.037865741  0.039317805            1 
  342000    1.1859267   -6.9449762    155.40002  0.037865501   0.03930982            2 
  343000    1.2117745   -6.9299321    156.01131  0.037903624  0.039302971            1 
  344000    1.2051099   -6.9246986    156.60975   0.03793841  0.039295264            1 
  345000    1.1960865   -6.9515642    156.94897   0.03791038  0.039288289            1 
  346000    1.2042618   -6.9412875    157.26826  0.037877712  0.039281294            1 
  347000    1.1944188    -6.906669      158.169  0.037984871  0.039274984            1 
  348000     1.212574   -6.9669354    157.89097   0.03780914  0.039268476            1 
  349000    1.1971124   -6.9433934    158.81573  0.037921616  0.039261913            4 
  350000    1.1913075   -6.9442416    158.57988  0.037757115  0.039255358            3 
  351000      1.19272   -6.9213867    159.93848  0.037972099  0.039248709            2 
  352000    1.1872147   -6.9439022    159.73426  0.037815876  0.039240876            2 
  353000    1.2104912   -6.9678126    160.31208  0.037845157  0.039233201            4 
  354000    1.1834682   -6.9116998    161.21225  0.037950153   0.03922572            3 
  355000    1.2199032   -6.9550397    161.18281  0.037836341  0.039219459            4 
  356000    1.1956703    -6.975005    161.42862  0.037787599  0.039211756            1 
  357000    1.2281208    -6.953381    161.86657   0.03778398   0.03920254            6 
  358000    1.1937695   -6.9303909    161.99718  0.037708842  0.039192849            1 
  359000      1.20965   -6.9219483    163.02239   0.03784178  0.039184595            4 
  360000    1.1724697   -6.9159392    162.98127  0.037727145  0.039175989            2 
  361000    1.1954328   -6.9098051     164.3733  0.037943975  0.039167957            1 
  362000    1.2080807   -6.9305614    164.60214  0.037891838  0.039160438            3 
  363000    1.1844204   -6.9467787     165.0387  0.037887672  0.039153591            2 
  364000    1.1986011   -6.9256312    165.57491  0.037906345  0.039148024            1 
  365000    1.1975127   -6.9644681    165.43108  0.037769652   0.03914049            2 
  366000    1.1703545   -6.9443431    165.87081  0.037766577  0.039132358            1 
  367000    1.2004201   -6.9801394    165.93526  0.037678307  0.039124219            1 
  368000    1.2010384   -6.9554478    166.81533  0.037775211  0.039115884            1 
  369000    1.2006276   -6.9007774    167.10275  0.037737748  0.039107808            1 
  370000    1.2028731   -6.9441118    166.99178  0.037610761  0.039099076            2 
  371000     1.193222   -6.9407455    167.80422  0.037691873  0.039089424            1 
  372000    1.1439692   -6.8732607    168.28959   0.03769928  0.039079892            2 
  373000     1.208055   -6.9499246    168.31074  0.037602936  0.039071155            2 
  374000    1.1929524   -6.9567845    168.99513  0.037654885  0.039062317            1 
  375000    1.1930431   -6.9775665    169.64119  0.037698043  0.039053943            2 
  376000    1.1752287   -6.9447257    170.03623  0.037685335  0.039045481            2 
  377000     1.183376   -6.9476223    170.80536  0.037755385  0.039037009            3 
  378000    1.1801338   -6.9249006    171.51328  0.037811569  0.039029655            4 
  379000    1.1724766   -6.9202296    171.96695  0.037811554  0.039022548            2 
  380000    1.1649235   -6.9311492    172.40342  0.037807768  0.039015454            1 
  381000     1.182568   -6.9200455    173.54749  0.037958769  0.039009185            2 
  382000    1.1835256   -6.8696014    173.02386  0.037745169  0.039003476            1 
  383000    1.2154021   -6.9344514    173.50236  0.037750731  0.038996611            2 
  384000     1.179195   -6.9470117    174.72087  0.037916856  0.038990264            1 
  385000    1.1818565   -6.9732748    174.18955  0.037703366  0.038982727            1 
  386000    1.2028178   -6.9907823    173.99197  0.037563034  0.038975292            2 
  387000    1.1962642    -6.955941    175.35727  0.037759963  0.038967674            1 
  388000    1.1970633   -6.9321497    175.02509  0.037591299  0.038959747            3 
  389000    1.2180997   -6.9179663    176.13043  0.037731454  0.038951005            2 
  390000    1.1723887   -6.9704841    176.03616  0.037614564  0.038942504            3 
  391000    1.1629304   -6.9548883    176.98042  0.037719612  0.038934457            3 
  392000    1.2187774   -6.9542814    176.64673  0.037552451   0.03892663            1 
  393000    1.1848894   -6.9665521    177.61232  0.037661645  0.038918081            2 
  394000    1.1807315   -6.9832027    178.17574  0.037685225  0.038909351            2 
  395000    1.1955359   -6.9601791    178.51287  0.037660944  0.038901322            4 
  396000     1.192761    -6.956573     178.7979  0.037625821  0.038892598            1 
  397000    1.1496713   -6.9206351     179.2407  0.037623993  0.038882596            4 
  398000    1.1909153   -7.0103586    178.67889  0.037411829  0.038872497            1 
  399000    1.1991124   -6.9503293    179.53461  0.037496786  0.038861604            1 
  400000    1.1836609   -6.9762124    179.71731  0.037441106  0.038850783            1 
  401000    1.1694505   -6.9696879    180.32846  0.037474743  0.038839457            1 
  402000    1.1906219   -6.9318114    180.64698   0.03744755  0.038829137            2 
  403000    1.1806223   -6.9166662       180.96  0.037419356  0.038818817            1 
  404000    1.2040237   -6.9587142    181.42572  0.037422798  0.038808066            2 
  405000    1.1561371   -6.9505966    182.42773   0.03753657  0.038798411            1 
  406000     1.180314   -6.9469404    183.03875   0.03756953  0.038788979            1 
  407000    1.1671725   -6.9778417    183.11029  0.037491869  0.038779139            1 
  408000    1.1986681   -6.9694963    183.48799  0.037477123  0.038769527            3 
  409000    1.1751292   -6.9412733    185.02502  0.037698659   0.03876062            2 
  410000    1.1750193   -6.9484778    184.24871  0.037448925  0.038751501            2 
  411000     1.185859   -6.9423421    185.08317     0.037527  0.038742704            1 
  412000     1.193068    -6.957997     185.1858  0.037456676  0.038733681            1 
  413000    1.1968941   -6.9693612    185.81778  0.037493498  0.038725324            1 
  414000    1.1844784   -6.9221475    186.61663  0.037563734  0.038717092            1 
  415000    1.1600711   -6.9246044    187.30184  0.037610812  0.038708833            1 
  416000    1.2083167   -6.9783384    187.09371  0.037478709  0.038699094            1 
  417000    1.2151279   -6.9441829    187.08652  0.037387395  0.038689587            1 
  418000    1.1856508   -6.9389955    187.20711  0.037321992  0.038680869            2 
  419000    1.1908154   -6.9072049    188.36397  0.037463002  0.038671911            1 
  420000    1.1812058   -6.9904067    188.30793  0.037362685  0.038663339            1 
  421000    1.1884034    -6.988342    189.02508  0.037415891  0.038653455            1 
  422000    1.1731773   -6.9685907    188.96891  0.037316136  0.038644023            2 
  423000    1.1808421   -6.9481868    188.95535  0.037225245  0.038632847            2 
  424000    1.1951913   -6.9274398     189.9252  0.037328065  0.038622775            2 
  425000    1.2062587   -6.9922825      189.512  0.037159216  0.038611912            2 
  426000    1.1789325   -6.9487174    189.82037  0.037132311  0.038599669            1 
  427000    1.1986665   -6.9444545    190.35946  0.037150558  0.038588222            2 
  428000    1.1665781   -6.9530508    190.82563  0.037154523  0.038576165            1 
  429000    1.1538367   -6.9686879    191.52519  0.037203806  0.038564209            2 
  430000      1.18149   -6.9917308    192.25363  0.037258456  0.038551987            1 
  431000    1.1834167    -6.951246    192.15612  0.037153156  0.038539777            1 
  432000    1.2076252   -6.9426865    192.87567  0.037205956  0.038528068            1 
  433000    1.1773609   -6.9197583    193.81131  0.037300097  0.038516668            1 
  434000    1.1694085   -6.8736396    194.00542  0.037251425  0.038505293            1 
  435000    1.1878869   -6.9570992    194.42194  0.037245583   0.03849405            2 
  436000    1.1649846   -6.9781362    194.47499  0.037170296   0.03848262            1 
  437000    1.1787242   -6.9529047    194.59239  0.037107627  0.038470749            1 
  438000     1.165933   -6.9655101    195.11421  0.037122187  0.038458867            1 
  439000     1.198483   -6.9466771    195.84729  0.037176782  0.038446661            1 
  440000    1.1938628   -6.9447412     195.9358  0.037109054  0.038434948            1 
  441000    1.1858239   -6.9789747    196.21287  0.037077263  0.038423263            1 
  442000    1.1776178   -6.9504143    197.45638  0.037227825  0.038412555            2 
  443000    1.1794029   -6.9920535    196.97698  0.037053608  0.038401882            2 
  444000     1.165975   -6.9288424    198.10666   0.03718218  0.038390845            2 
  445000    1.1926347   -6.9786422     198.3385  0.037142041  0.038379859            3 
  446000    1.1779683   -6.9577421    198.95261  0.037173507  0.038368671            1 
  447000    1.1980111   -6.9488826    199.03942  0.037106529  0.038357573            2 
  448000    1.1900489   -6.9683939    199.60858  0.037129572  0.038346463            1 
  449000    1.1647293   -6.9920291    199.67985  0.037060105  0.038335467            2 
  450000    1.1945962   -6.9707167    200.41696  0.037114252  0.038324764            1 
  451000    1.1884992   -6.9265887    201.13421  0.037164488  0.038314502            1 
  452000    1.1973047   -6.9817039    201.56435  0.037161568  0.038304971            2 
  453000    1.2134984   -7.0090728    201.55269   0.03707739  0.038295568            3 
  454000    1.1910208   -6.9683545    201.42214  0.036971758  0.038285591            5 
  455000     1.176725   -6.9768275    202.27071  0.037045918  0.038275232            1 
  456000    1.1857791     -6.96615     202.8611  0.037072569  0.038265084            3 
  457000    1.1861732   -6.9381246    204.45291  0.037281713  0.038254962            2 
  458000    1.1741968   -6.9682422    204.17755  0.037150209  0.038245618            1 
  459000    1.1797457   -6.9673925    204.37875    0.0371058  0.038236301            1 
  460000    1.1580197   -6.9464352    204.51913  0.037050567  0.038226793            3 
  461000    1.1693931   -6.9507844    205.58693  0.037163219  0.038217204            1 
  462000    1.1849998   -6.9819655    206.26753  0.037205542  0.038207649            1 
  463000    1.1918921   -6.9379442    205.86288  0.037052354  0.038198684            2 
  464000    1.1829875   -7.0066624    206.46745   0.03708108  0.038190029            4 
  465000    1.1741342   -6.9496711      206.638    0.0370319  0.038180069            3 
  466000    1.1579502   -7.0073976    206.96044  0.037010093  0.038169999            2 
  467000    1.1842532    -6.951416    207.69669  0.037062222  0.038159688            3 
  468000    1.1894898   -6.9722408    208.01144  0.037039073  0.038149185            2 
  469000    1.1765879   -6.9685066    208.27119  0.037006252  0.038139154            1 
  470000    1.1531765   -6.9594779    208.94165  0.037046391  0.038129625            4 
  471000    1.1668492   -6.9416664    209.13734  0.037002361  0.038119957            2 
  472000    1.1738112   -6.9677015    209.71629  0.037026181  0.038109595            1 
  473000    1.1710213   -6.9685544    209.62395  0.036931633   0.03809941            4 
  474000    1.1582453   -6.9647066    210.04323  0.036927432  0.038089233            1 
  475000     1.180947    -6.957759    209.85124  0.036816007  0.038079217            2 
  476000    1.1694638    -7.003829     210.6257  0.036874248  0.038069292            2 
  477000    1.1653997   -7.0075741    210.64723  0.036800703  0.038057985            2 
  478000     1.194299   -6.9643101    210.86743  0.036762104  0.038046511            3 
  479000    1.1607544    -6.979244    211.84825  0.036855994  0.038035147            3 
  480000    1.1380146   -6.9746457    211.94129  0.036795362  0.038024222            4 
  481000    1.1553501   -6.9859743    212.73671  0.036856671  0.038012591            1 
  482000    1.2118077   -7.0078723    212.73954  0.036780696  0.038001112            3 
  483000    1.1578573   -6.9283601    213.54731  0.036843912  0.037990213            1 
  484000    1.1670509   -6.9799962    213.86287  0.036822119  0.037979142            2 
  485000    1.1750838   -6.9235156    214.32845  0.036826195  0.037968325            1 
  486000    1.1779701   -7.0157755    214.94267  0.036855739   0.03795734            3 
  487000    1.1634857   -6.9702306    215.71266  0.036911817  0.037947168            2 
  488000    1.1590243   -6.9760274     216.8937  0.037037858  0.037937425            1 
  489000    1.1878104   -6.9474587    216.75153  0.036937888  0.037927893            2 
  490000    1.2002797   -7.0362622    215.94744  0.036725754  0.037918693            2 
  491000    1.1717189   -6.9443556    216.58827  0.036759721  0.037909191            1 
  492000    1.1628573   -6.9894172    217.65965  0.036866472  0.037900239            1 
  493000    1.1831508   -6.9543536    217.98722  0.036847062  0.037891444            1 
  494000     1.168137   -6.9627538     218.9787  0.036939727  0.037882342            1 
  495000    1.1803419   -6.9607814     218.8834  0.036849057  0.037872974            3 
  496000    1.1760907   -6.9619912    218.97147  0.036789561  0.037863639            2 
  497000     1.172305   -6.9523806    220.32517  0.036942516   0.03785513            1 
  498000    1.1641296   -6.9702969    220.71392  0.036933387  0.037846178            2 
  499000    1.1880962   -7.0446179    219.44734  0.036647852   0.03783615            1 
  500000    1.1803913   -7.0162128     220.8245  0.036804084  0.037826564            2 
  501000    1.1712923   -6.9687522    220.82307  0.036730383  0.037816614            2 
  502000    1.1622605   -6.9725888    221.97485  0.036848415  0.037806921            1 
  503000    1.1543365   -6.9403307    222.04473  0.036786735  0.037797218            2 
  504000    1.1734075   -7.0120264    221.96477  0.036700524  0.037786736            2 
  505000    1.1530139   -6.9835389    223.05054   0.03680702  0.037775846            2 
  506000    1.1689343   -6.9806974    222.39424  0.036626192  0.037765247            2 
  507000    1.1655499   -7.0179844    223.08524  0.036667528  0.037754848            1 
  508000    1.1621308   -6.9964544    224.52653   0.03683178  0.037744943            1 
  509000    1.1644183   -7.0016896    225.01725  0.036839759  0.037735158            1 
  510000    1.1709914   -6.9656677    225.32064  0.036817098  0.037725338            3 
  511000    1.1636299   -7.0004365    224.65944  0.036637222  0.037715997            1 
  512000    1.1637141   -6.9963048    225.48531  0.036700084  0.037706079            2 
  513000    1.1492164   -6.9633034    226.77702  0.036838372  0.037695903            3 
  514000    1.1672728     -6.97657    226.92022  0.036789918  0.037686018            1 
  515000    1.1533153   -7.0020954     226.5115  0.036652346  0.037676448            3 
  516000    1.1808058   -6.9803025    227.04966  0.036668227  0.037667085            2 
  517000    1.1687997   -7.0006149    227.89783  0.036734014  0.037657174            2 
  518000    1.1376704    -6.971202    228.00572  0.036680457  0.037647832            3 
  519000    1.1682115   -6.9962123    228.28324  0.036654342  0.037638911            2 
  520000     1.164205   -7.0084209    228.27827  0.036583056  0.037629863            1 
  521000    1.1825329   -6.9672272    230.04686  0.036795723  0.037620672            3 
  522000    1.1478324   -6.9913457    230.40057  0.036781701  0.037612147            1 
  523000    1.1852006   -6.9498949    230.55524  0.036736016  0.037603489            1 
  524000    1.1678644   -7.0030983    230.97673   0.03673294   0.03759439            1 
  525000    1.1528684   -6.9800179    230.88747  0.036648804   0.03758513            6 
  526000    1.1754306   -6.9849101    231.53266  0.036681346   0.03757603            2 
  527000    1.1379626   -7.0134836    231.76345  0.036648236  0.037566676            2 
  528000    1.1689934   -6.9881316    232.24941  0.036655525  0.037557517            3 
  529000    1.1431619   -7.0099166    231.49889  0.036468004  0.037547693            1 
  530000    1.1646728   -7.0031103    232.14827  0.036501301  0.037538416            5 
  531000    1.1750462   -7.0140176    232.90231  0.036550896  0.037528254            2 
  532000    1.1570791   -6.9636433    234.04455  0.036661114  0.037518014            1 
  533000    1.1596084   -6.9893483    233.51238  0.036509127  0.037507484            2 
  534000    1.1549315   -6.9655882    233.89722  0.036500814  0.037496147            2 
  535000    1.1446219   -6.9771042    234.04571  0.036455717  0.037485443            1 
  536000    1.1803157   -7.0142768    234.15498  0.036404691  0.037474761            2 
  537000    1.1778903    -6.987703    235.43897  0.036536153  0.037464562            2 
  538000     1.158271   -7.0058291    235.74863  0.036516207  0.037454684            1 
  539000    1.1596803   -7.0001842    236.25774  0.036527171  0.037444867            2 
  540000     1.152714   -7.0122473    235.94433  0.036411161  0.037435282            2 
  541000    1.1714849   -7.0134905     236.3252  0.036402527  0.037424993            1 
  542000    1.1251355   -6.9842251    237.93763  0.036583277  0.037414842            1 
  543000    1.1624415   -7.0057313    237.93239  0.036515099  0.037405442            2 
  544000    1.1596983   -6.9648568    238.15008  0.036481324  0.037396306            3 
  545000    1.1746419   -7.0136196    237.49476  0.036314183  0.037385968            2 
  546000    1.1621233   -6.9899667    238.28229  0.036367871  0.037375782            2 
  547000    1.1604895   -6.9819968    238.54559  0.036341497  0.037365324            3 
  548000    1.1646297   -7.0038354    239.45877  0.036414047  0.037355466            1 
  549000    1.1493453   -6.9695893    239.54868  0.036361367  0.037345124            2 
  550000    1.1617326   -7.0038003    238.62999  0.036156058  0.037334122            5 
  551000    1.1577182   -6.9576109    240.19637   0.03632734  0.037322809            4 
  552000    1.1416372   -6.9471121    240.79097  0.036351294   0.03731128            5 
  553000    1.1842507   -7.0575643    238.77974  0.035982481  0.037298672            3 
  554000    1.1423396   -6.9988123    240.55835  0.036185071  0.037285955            1 
  555000    1.1346696    -6.951208    241.05076  0.036193807  0.037273477            3 
  556000    1.1345816   -7.0352564    241.03785  0.036126776  0.037261302            1 
  557000    1.1660755   -7.0177086    240.96297  0.036050714  0.037249146            2 
  558000      1.15032   -6.9596956    242.15722   0.03616446  0.037236894            1 
  559000    1.1680464   -6.9759715    242.70803  0.036181876  0.037224445            2 
  560000    1.1537773   -7.0090639    242.82663  0.036134916   0.03721189            1 
  561000    1.1606577   -6.9844349    243.31728  0.036143387  0.037200174            1 
  562000    1.1818694    -6.993154    244.17114  0.036205685  0.037187865            2 
  563000    1.1492468   -6.9848824    243.44206  0.036033461  0.037175901            2 
  564000    1.1628996   -6.9905969    244.50302  0.036126333  0.037163604            1 
  565000    1.1598439   -6.9654624    245.11964  0.036153339   0.03715173            1 
  566000    1.1745947   -6.9539633    245.82432  0.036193216  0.037140309            2 
  567000    1.1621918   -6.9883393    245.46689  0.036076851  0.037128946            3 
  568000    1.1636234   -6.9939231    245.53204  0.036022893  0.037117326            1 
  569000    1.1815031   -7.0288936    246.78529   0.03614313  0.037105654            2 
  570000    1.1569194   -7.0072232    246.44669  0.036030217  0.037094277            1 
  571000    1.1459765     -7.01139    245.95256  0.035895003  0.037082261            2 
  572000    1.1789159   -7.0333203    246.36397  0.035892187  0.037070519            2 
  573000    1.1808066   -6.9881366    247.03199  0.035926701   0.03705813            1 
  574000    1.1648419   -6.9969823    248.32596  0.036051969  0.037045629            1 
  575000      1.14835   -7.0507646    247.65758  0.035892403  0.037033282            1 
  576000    1.1646484   -7.0116458    248.16672   0.03590375  0.037021022            1 
  577000     1.180498    -7.014276    248.15807  0.035840276  0.037008096            2 
  578000    1.1604788   -7.0180939     249.5175  0.035974264  0.036995238            4 
  579000    1.1488496    -7.018705    249.60191  0.035924282  0.036982355            1 
  580000    1.2137824   -6.9849276    249.90644  0.035906098  0.036970231            2 
  581000    1.1751124    -7.021258    249.99117  0.035856449  0.036958299            1 
  582000    1.1556027   -7.0049373    250.11558  0.035812655  0.036945929            2 
  583000    1.1546781     -7.03746    250.75712  0.035842927  0.036933543            2 
  584000    1.1452905   -7.0305843    250.29574  0.035715717  0.036920799            1 
  585000    1.1487191    -7.020442    251.00408  0.035755567  0.036908036            2 
  586000    1.1437056   -7.0472351     251.6646  0.035788481  0.036895436            2 
  587000     1.147434    -6.987191    252.72999  0.035878761  0.036883233            2 
  588000    1.1439267   -7.0018502     252.8274  0.035831548  0.036870806            1 
  589000    1.1765502   -6.9812432     252.9792   0.03579219  0.036858612            3 
  590000     1.185603   -7.0210325    252.93602  0.035725427  0.036846341            2 
  591000    1.1597034   -7.0258423    253.40143  0.035730602  0.036833679            2 
  592000    1.1642562    -7.018903    253.64684  0.035704792  0.036820812           10 
  593000    1.1722485   -7.0154515     253.4208  0.035612816  0.036808126            2 
  594000    1.1474805    -6.977796    254.48133  0.035701645  0.036794864            2 
  595000    1.1490337   -7.0395096    253.97531  0.035570772  0.036782161            1 
  596000    1.1395598   -7.0143489    254.91519  0.035642504  0.036769219            2 
  597000    1.1601664   -7.0022698    255.85434  0.035713894    0.0367562            1 
  598000    1.1436981   -7.0170958    255.58435  0.035616548   0.03674366            2 
  599000    1.1485199   -6.9570249    256.39203  0.035669453  0.036731249            1 
  600000    1.1560528   -7.0057654    257.16186  0.035716924  0.036719164            2 
  601000    1.1313282   -6.9996656    257.30015  0.035676671  0.036707434            2 
  602000    1.1504677   -7.0371817    257.91036  0.035701877  0.036695344            1 
  603000    1.1643692   -7.0107697    258.15303  0.035676206  0.036683526            2 
  604000    1.1211183   -7.0329696    259.01407  0.035735937  0.036672054            1 
  605000    1.1669904   -7.0477839    258.63008  0.035623977  0.036660739            2 
  606000    1.1345115   -7.0570974    259.96779  0.035749146  0.036649551            2 
  607000     1.175344   -7.0262825    261.22563  0.035862937  0.036637725            2 
  608000    1.1521491   -6.9998237    259.97618  0.035632701  0.036626192            2 
  609000    1.1445443   -6.9535082    261.58053  0.035793723  0.036614784            1 
  610000    1.1544562   -7.0316265    260.79527  0.035627769  0.036603523            2 
  611000    1.1474061   -7.0007193    261.14832  0.035617611  0.036592044            2 
  612000    1.1637162   -7.0265073    261.33231  0.035584465  0.036579711            1 
  613000    1.1632691   -6.9830845    262.09832   0.03563055  0.036567949            1 
  614000    1.1457752   -7.0236144    261.95272  0.035552758  0.036556111            1 
  615000    1.1563359   -6.9848885    263.28047   0.03567486  0.036544183       -1e+20 
  616000    1.1748679   -7.0235629    262.14771  0.035463706  0.036532097            1 
  617000    1.1354387   -6.9609545    263.56768  0.035598012  0.036519988            1 
  618000    1.1666347   -7.0184271    263.25433  0.035498157  0.036508074            1 
  619000    1.1444742   -7.0240388    264.34556  0.035587717  0.036496454            2 
  620000    1.1629044   -7.0247851    264.56338  0.035559594   0.03648403            1 
  621000    1.1450906   -7.0109035    264.50067  0.035493917  0.036471965            2 
  622000    1.1220452   -7.0525778    263.50587  0.035303573  0.036459686            2 
  623000    1.1562472   -7.0218954    265.90496  0.035567811  0.036447654            1 
  624000     1.151436   -7.0115087    265.46488  0.035452041  0.036436069            3 
  625000    1.1649169   -6.9994646     265.9118  0.035454907   0.03642463            2 
  626000    1.1429494   -7.0415276     266.7578  0.035510889  0.036412876            1 
  627000    1.1578963    -7.028281    267.22228  0.035515987  0.036401711            2 
  628000    1.1460494   -7.0059728    267.68602  0.035520969  0.036390229            2 
  629000    1.1517637   -7.0427114    267.14508   0.03539283  0.036378513            2 
  630000    1.1459888   -7.0084802    268.14363  0.035468734  0.036366703            4 
  631000    1.1379902   -7.0338593    268.80894  0.035500388  0.036355346            2 
  632000    1.1748644   -7.0035172    268.83151  0.035447193  0.036344478            1 
  633000    1.1570008   -7.0165121    270.66457  0.035632513  0.036333604            2 
  634000    1.1439608   -7.0585721    270.02183  0.035491828   0.03632229            2 
  635000    1.1538836   -7.0123996    271.20741  0.035591523  0.036311225            1 
  636000    1.1509275    -7.037031    270.57676   0.03545293   0.03630042            2 
  637000    1.1480216   -7.0127585      271.737  0.035549058  0.036289674            3 
  638000    1.1646762   -7.0311257    271.18633  0.035421413  0.036279147            1 
  639000    1.1531625   -7.0487386    271.35414  0.035387864  0.036268539            2 
  640000    1.1640763   -7.0162561    272.10113  0.035429835  0.036258247            3 
  641000    1.1632806   -7.0216561    274.21816  0.035649787  0.036248832            3 
  642000    1.1598376   -6.9991896    272.99805  0.035435884  0.036238484            1 
  643000    1.1720441   -7.0277298    273.63968  0.035463929  0.036228636            1 
  644000    1.1325447   -7.0655366    274.30158   0.03549451  0.036218515            2 
  645000    1.1406016    -7.030548    274.78317  0.035501701  0.036208444            2 
  646000    1.1733129   -7.0311702    275.57703  0.035549152  0.036198647            1 
  647000    1.1697857   -7.0359043    274.77377  0.035390748  0.036188613            2 
  648000    1.1521556   -7.0132493    276.63871  0.035575966  0.036178844            3 
  649000    1.1496573   -7.0585769    275.58291  0.035385582  0.036169552            1 
  650000    1.1640282   -7.0644355    276.72786  0.035477931  0.036159777            3 
  651000    1.1572279   -7.0495477    276.46565  0.035389868  0.036150291            2 
  652000    1.1704763   -7.0618029    277.00397  0.035404393   0.03614093            3 
  653000    1.1299038   -7.0090435    278.07743  0.035487166  0.036132037            4 
  654000    1.1348917   -7.0434884     278.6021  0.035499758  0.036123054            4 
  655000    1.1564063   -7.0634437    279.08533   0.03550704   0.03611368            2 
  656000    1.1522295   -7.0219333    278.77516  0.035413512  0.036104721            1 
  657000    1.1513005   -7.0197207    280.14058  0.035532798  0.036095304            1 
  658000    1.1252457   -7.0366165    280.23625  0.035490913  0.036086091            2 
  659000    1.1434104   -7.0575821    279.97244  0.035403697  0.036076286            2 
  660000    1.1593941   -7.0566389    279.76417  0.035323759  0.036066527            2 
  661000    1.1645647    -7.056672    281.01687  0.035428249  0.036057261            1 
  662000    1.1443192   -7.0145095    281.14578   0.03539096  0.036047671            3 
  663000    1.1435375   -7.0096731    281.55675  0.035389234  0.036037999            2 
  664000    1.1492359   -7.0401279    281.88956  0.035377706  0.036028184            1 
  665000    1.1171316   -7.0602828    281.56813  0.035284227  0.036018484            2 
  666000    1.1637721   -7.0447952    282.47025  0.035344125  0.036008395            3 
  667000    1.1658066   -7.0005524    283.08078  0.035367414  0.035998611            1 
  668000    1.1610223   -7.0234826    283.35258  0.035348376  0.035989081            2 
  669000    1.1455864   -7.0569087    282.70597  0.035214994  0.035979461            1 
  670000    1.1402423   -7.0754561    282.93039  0.035190347  0.035969695            2 
  671000     1.137902   -6.9970357    284.07483  0.035280033  0.035960292            4 
  672000    1.1485934   -7.0573198    284.82509  0.035320572   0.03595097            4 
  673000    1.1661404   -7.0312962    285.93153  0.035405092   0.03594175            1 
  674000    1.1463914   -7.0685649    285.50389  0.035299689  0.035932679            2 
  675000    1.1535579   -7.0073104    285.47497  0.035243823  0.035923051            1 
  676000    1.1379143   -7.0321429    285.58955  0.035205813  0.035913386            1 
  677000    1.1460206   -7.0246799    286.08667  0.035215002  0.035903181            3 
  678000    1.1570758   -7.0558303    286.47779  0.035211135  0.035892992            4 
  679000    1.1405535    -7.046802    286.76014   0.03519393  0.035882941            2 
  680000    1.1792963   -7.0577646    287.09679   0.03518343  0.035873187            1 
  681000    1.1359301    -7.095083    287.40374  0.035169327   0.03586337            1 
  682000    1.1437782   -7.0607084    287.45563  0.035124099  0.035853376            1 
  683000     1.131244   -7.0398514    288.01881  0.035141387  0.035843085            2 
  684000    1.1433032   -7.0310614    288.63782  0.035165426  0.035832815            1 
  685000    1.1440161    -7.005664    288.21216  0.035062307  0.035822756            1 
  686000    1.1440611   -7.0639639    289.62767  0.035183147   0.03581254            2 
  687000    1.1488173   -7.0032986    289.87215   0.03516159  0.035802246            1 
  688000    1.1416464   -7.0516666    290.06732  0.035134123  0.035792596            1 
  689000    1.1611905    -7.034241    290.98523   0.03519415  0.035782909            2 
  690000    1.1377895   -7.0438444    291.36313  0.035188784  0.035773431            2 
  691000    1.1392832   -7.0653097    290.87453  0.035078936  0.035763517            1 
  692000    1.1467075   -7.0696495    291.30218  0.035079742  0.035753631            1 
  693000    1.1273474   -7.0801624    291.62089  0.035067447  0.035743842            2 
  694000    1.1449321   -7.0487668    292.54898  0.035128359  0.035734313            3 
  695000    1.1272276   -7.0244172    293.89076  0.035238701  0.035724644            1 
  696000    1.1802287   -7.0375563      293.205  0.035105963  0.035715035            1 
  697000    1.1429417   -7.0430085    292.82434  0.035010084  0.035705388            1 
  698000    1.1221025   -7.0204367    294.22053  0.035126616  0.035696282            2 
  699000    1.1217118   -7.0399214    295.35566   0.03521169  0.035687058            2 
  700000    1.1521534   -7.0465991    294.46775  0.035055685  0.035678192            2 
  701000    1.1832511   -7.0597864    294.34837  0.034991485  0.035668665            2 
  702000    1.1271764   -7.0462679    295.35946  0.035061665  0.035659564            1 
  703000     1.136028   -6.9934783    296.16881   0.03510773   0.03565052            1 
  704000    1.1748129   -7.0976877    297.40755  0.035204493  0.035641633            2 
  705000    1.1244276    -7.077991    296.45849  0.035042374  0.035632821            1 
  706000    1.1581174   -7.0220187    297.79615  0.035150632  0.035623809            2 
  707000    1.1103727   -7.0985902    297.49295  0.035065176  0.035614867            1 
  708000    1.1448096    -7.020087    298.34491  0.035115927  0.035605935            2 
  709000    1.1737702   -7.0613316    297.90677    0.0350149  0.035597613            2 
  710000    1.1474152   -7.0684843    298.86814   0.03507842  0.035589275            2 
  711000    1.1454366   -7.0459457    300.74225  0.035248739   0.03558126            2 
  712000    1.1454685   -7.0265223    300.52017  0.035173241  0.035573696            2 
  713000    1.1489079   -7.0220022    300.98477  0.035178211  0.035565823            1 
  714000    1.1293079   -7.0800335    301.17485  0.035151127   0.03555824            1 
  715000    1.1235437   -7.0361925    301.74687  0.035168633  0.035550818            3 
  716000    1.1399351   -7.0441466    302.20996  0.035173412  0.035543567            1 
  717000    1.1360877   -7.0616568    302.19353  0.035122446  0.035536319            2 
  718000    1.1499726   -7.0038503    303.61947  0.035239029  0.035528779            1 
  719000    1.1324032   -7.0623316    302.36185  0.035044257  0.035521599            1 
  720000    1.1243213   -7.0614176    303.81315  0.035163559  0.035514156            7 
  721000    1.1294277   -7.0892777    302.82588   0.03500068  0.035506549            4 
  722000    1.1424785   -7.0316724    305.11166  0.035216027  0.035499083            1 
  723000    1.1261474   -7.0763336    305.33837  0.035193449   0.03549164            2 
  724000    1.1235584   -7.1118277    304.12848   0.03500558   0.03548378            1 
  725000    1.1347038   -7.0375631    305.21249  0.035081896  0.035475849            2 
  726000    1.1341587   -7.0469961    306.07257  0.035132297  0.035468303            1 
  727000    1.1591533   -7.0344515    306.04469  0.035080776  0.035460522            3 
  728000     1.146372   -7.0681799    305.33444  0.034951287  0.035452556            3 
  729000    1.1406908   -7.0256496    305.93358  0.034971831  0.035444524            1 
  730000    1.1287282   -7.0288324    307.02239  0.035048218  0.035436187            1 
  731000     1.129638   -7.0684859    307.11701  0.035011059  0.035428067            2 
  732000    1.1351118   -7.0449573    308.04286  0.035068632  0.035420215            3 
  733000    1.1396522   -7.0328967    308.18177  0.035036582  0.035412377            2 
  734000    1.1365014   -7.0431272    308.26464  0.034998256  0.035404605            1 
  735000    1.1501924   -7.0555497    308.02034  0.034922941  0.035396635            1 
  736000    1.1077974   -7.0824184    307.92094  0.034864237  0.035388624            1 
  737000    1.1361882   -7.0137171    309.71484   0.03501977  0.035380343            1 
  738000    1.1197309   -7.0665548    308.95133  0.034886103  0.035372111            1 
  739000    1.1384886    -7.095447    309.15115  0.034861429   0.03536359            1 
  740000    1.1346617   -7.0918518    309.30247  0.034831359  0.035355207            2 
  741000    1.1209349   -7.0293658    310.91851  0.034966095   0.03534703            2 
  742000     1.143412   -7.0608046    310.77163  0.034902474  0.035339438            2 
  743000    1.1205423   -7.0701768    311.39498  0.034925412  0.035331655            1 
  744000    1.1461889   -7.0661397    312.09955  0.034957387  0.035323469            1 
  745000    1.1344475   -7.0744633    312.03146  0.034902848  0.035315455            2 
  746000    1.1331285   -7.0463413    312.30404  0.034886511   0.03530745            1 
  747000    1.0910647   -7.0689462    311.80172   0.03478377  0.035299314            2 
  748000    1.1301179   -7.0396021    313.21485  0.034894702  0.035291066            1 
  749000    1.1439009   -7.0729363    312.00944  0.034714001  0.035282837            2 
  750000    1.1398845   -7.0461471    313.11196  0.034790217  0.035274098            1 
  751000    1.1368134   -7.0570511    313.45527  0.034781987  0.035265353            2 
  752000    1.1244574   -7.0951668    313.14766  0.034701646  0.035256577            3 
  753000    1.1441718   -7.1147274    313.84442  0.034732671  0.035247713            3 
  754000    1.1390061   -7.1025189    314.04313  0.034708569  0.035238901            2 
  755000    1.0949914   -7.0358798    313.98089  0.034655727  0.035229742            3 
  756000    1.1217265   -7.0982994    314.06079  0.034618694  0.035220803            1 
  757000    1.1260592   -7.1071166    314.16688  0.034584641  0.035211581            1 
  758000    1.1443353   -7.0578124    315.60641  0.034697274  0.035202402            2 
  759000    1.1265061   -7.0916166    315.74618  0.034666906  0.035193203            1 
  760000    1.1221723   -7.0658993    316.59617  0.034714492  0.035184448            6 
  761000    1.1146958   -7.1094572    316.13777  0.034618678  0.035175673            1 
  762000    1.1272575   -7.0872618     316.9951  0.034667006  0.035166988            2 
  763000    1.1077193   -7.0670948    317.64867  0.034692952  0.035158521            1 
  764000    1.0963793   -7.0772125    317.46456  0.034627461  0.035149807            2 
  765000    1.1339673   -7.0681431    318.57203  0.034702835  0.035141008            1 
  766000    1.1364372   -7.0629756    319.10931  0.034715983  0.035132318            2 
  767000    1.1303694   -7.0656065    319.01421  0.034660388  0.035123906            3 
  768000    1.1377811   -7.0675621     319.0979  0.034624339  0.035115188            1 
  769000    1.1554824   -7.0050314    319.54229  0.034627469  0.035106553            1 
  770000    1.1117238   -7.0684453    321.11438  0.034752638  0.035098103            1 
  771000    1.1219672   -7.0851337    321.28228  0.034725711  0.035090055            1 
  772000     1.096447   -7.0658953    321.25639  0.034677935  0.035081821            5 
  773000    1.1232129   -7.0747689    321.99726  0.034712943  0.035073868            1 
  774000    1.1333296   -7.0991563    322.14302  0.034683788  0.035065971            2 
  775000    1.1200893   -7.0518735    322.60355  0.034688554  0.035058037            2 
  776000    1.1298631   -7.0631748    323.60017  0.034750877  0.035050368            1 
  777000    1.1212749   -7.0476703     323.9649  0.034745271  0.035042991            2 
  778000    1.1005628   -7.1111313    323.15503  0.034613863  0.035035583            1 
  779000    1.1162941   -7.0994191    324.61333  0.034725431  0.035028487            2 
  780000    1.1268243   -7.0915912    324.76563  0.034697182  0.035021632            1 
  781000    1.1376439   -7.0202856    326.33978   0.03482072  0.035014446            3 
  782000    1.1470134   -7.0570149      326.312  0.034773232  0.035007504            2 
  783000    1.1280035   -7.0912559    326.53591  0.034752652  0.035000417            1 
  784000    1.1407097   -7.0904829    326.67797  0.034723424  0.034993818            4 
  785000    1.1363434   -7.1114541    327.68678  0.034786282  0.034986998            3 
  786000    1.1240304   -7.1118499    326.45903  0.034611857  0.034979679            2 
  787000    1.1096354   -7.0655729      327.083  0.034633947   0.03497225            2 
  788000    1.1060728   -7.0781815     328.1906  0.034707128  0.034964865            2 
  789000    1.1324524   -7.0644273    328.14056  0.034657854  0.034957238            1 
  790000    1.1240018   -7.0763489     328.3085  0.034631698  0.034950075            2 
  791000    1.1289123   -7.0885056    329.30568   0.03469297  0.034942744            4 
  792000    1.1258228   -7.0576188    329.22628  0.034640813  0.034935379            2 
  793000    1.1347745   -7.0589801    331.15724  0.034800046  0.034928587            1 
  794000    1.1035979   -7.0664524    330.43222  0.034680124  0.034921601            1 
  795000    1.1376222   -7.0705011    331.14411  0.034711122  0.034914427            2 
  796000    1.1476915   -7.0140135    332.13116   0.03477085  0.034907239            2 
  797000    1.1139131   -7.0503434    331.36912  0.034647545  0.034900392            1 
  798000    1.1304115   -7.0611423    332.24496  0.034695589  0.034893465            2 
  799000    1.1054218   -7.1230947    332.15682  0.034642973  0.034886699            1 
  800000    1.1028836   -7.0926091    332.39624  0.034624608  0.034879828            2 
  801000    1.1165666   -7.1428697    331.56543  0.034494947  0.034872591            1 
  802000    1.1530781     -7.14369    333.30745  0.034632944  0.034864839            2 
  803000    1.1346859   -7.1327323    332.33657  0.034489059  0.034857098            3 
  804000    1.1105566   -7.0579367    333.67905  0.034585307  0.034849793            1 
  805000    1.1176834   -7.0790677    333.00878  0.034472959  0.034842714            3 
  806000    1.1146501   -7.1007098    334.24241  0.034557735  0.034835244            5 
  807000    1.1148814   -7.0505126    336.49177  0.034747188  0.034828237            2 
  808000    1.1247046   -7.0910193    335.63476  0.034615796   0.03482117            2 
  809000    1.1261077   -7.1227573    335.56555  0.034565879  0.034814694            3 
  810000    1.1360324    -7.100658    335.39488  0.034505646  0.034807826            1 
  811000    1.1311376   -7.1008998    337.22292  0.034650937  0.034801338            2 
  812000    1.0913572   -7.0779485     337.4416  0.034630706  0.034795071            2 
  813000     1.148019   -7.0770668    337.88365  0.034633421  0.034788707            1 
  814000    1.1203863   -7.0701525    337.86867   0.03458934   0.03478232            3 
  815000    1.1338287   -7.0874159    338.50377  0.034611837  0.034776076            1 
  816000    1.1292513   -7.0918255    338.67507  0.034586914   0.03476949            2 
  817000    1.1065699   -7.1006049    338.44454  0.034521067  0.034762816            3 
  818000     1.135402   -7.1191854    340.05289  0.034642715  0.034756252            2 
  819000     1.114098    -7.099493    339.67174  0.034561634   0.03474956            3 
  820000    1.1073852   -7.1016809    339.79755  0.034532271  0.034742798            1 
  821000    1.1101112   -7.1300233    341.33959   0.03464673  0.034736129            1 
  822000    1.1242039   -7.0794286     340.7239  0.034542164  0.034729562            3 
  823000    1.1382246    -7.084844    341.02163  0.034530339  0.034723198            1 
  824000    1.1234584   -7.0884196    341.73266  0.034560342  0.034716926            2 
  825000    1.1200431    -7.070969    342.40452  0.034586315  0.034710879            1 
  826000    1.1206887   -7.0632759    342.27874  0.034531753  0.034705016            1 
  827000     1.127399   -7.1171128    343.29609  0.034592512  0.034699113            2 
  828000    1.1275948   -7.0998148    343.56217  0.034577513  0.034692923            1 
  829000    1.1343068   -7.0902543    343.46675  0.034526212  0.034686546            3 
  830000    1.1253938   -7.1166978    343.94813  0.034532945  0.034680243            2 
  831000    1.1338972     -7.05956     344.1325  0.034509877   0.03467379            2 
  832000    1.1121954   -7.0893605    344.79003  0.034534258   0.03466744            1 
  833000    1.1313964   -7.1025934     343.7608  0.034389836   0.03466081            1 
  834000    1.1037855   -7.0930569    344.66391   0.03443884  0.034653626            2 
  835000    1.1263846   -7.0962995    344.71829  0.034403023  0.034646588            1 
  836000    1.1426259   -7.0890682    345.90586  0.034480249  0.034639514            3 
  837000     1.112403   -7.0670805    345.47956  0.034396611  0.034633073            1 
  838000    1.1032968   -7.0731252    346.50816  0.034457852  0.034626428            2 
  839000    1.1234164   -7.0804405     345.4432  0.034311005  0.034619385            2 
  840000    1.1121047   -7.1008946    346.25274  0.034350471  0.034612202            1 
  841000    1.0964174   -7.0881439    346.74909  0.034358808  0.034604906            3 
  842000    1.1201133   -7.1001888    346.29284  0.034272846  0.034597531            2 
  843000     1.109085   -7.1138562    346.13495  0.034216583  0.034589743            1 
  844000    1.1157192   -7.1054021     347.4434  0.034305233  0.034582152            1 
  845000    1.1104341   -7.1000105    348.06962  0.034326392   0.03457471            3 
  846000    1.1041301     -7.13053    346.99029  0.034179501  0.034567674            2 
  847000    1.1055279     -7.09845    348.60913  0.034298419  0.034560366            3 
  848000     1.129518   -7.0853537    349.67189   0.03436241  0.034553608            1 
  849000    1.1090513   -7.0988487    349.78207  0.034332751  0.034547067            2 
  850000    1.1040207   -7.1262094    348.66856  0.034183192  0.034539884            1 
  851000    1.1395377   -7.0974938    350.14674  0.034287773  0.034533031            2 
  852000    1.1123908    -7.109114    350.29769  0.034262294  0.034525925            2 
  853000    1.1111357   -7.1167865    349.94009  0.034187191  0.034519051            3 
  854000    1.1335585   -7.1013309    350.86641  0.034237549  0.034512076            1 
  855000    1.1193552   -7.0913382    351.49616  0.034258885   0.03450517            2 
  856000    1.1219025    -7.049688    353.44272  0.034408364  0.034498418            1 
  857000     1.088015    -7.099824    352.39516  0.034266352  0.034491602            1 
  858000    1.1397708    -7.133443    352.54829  0.034241287  0.034484547            4 
  859000     1.115743   -7.0642196    353.61751  0.034305153  0.034477827            2 
  860000    1.0904706   -7.0845785    354.51463  0.034352193  0.034471115            2 
  861000    1.1334137   -7.1162035     353.5142  0.034215466  0.034464441            2 
  862000    1.0947435   -7.1324563    353.54734  0.034178977  0.034457458            3 
  863000    1.1012583   -7.0948958     354.9072  0.034270684   0.03445061            2 
  864000    1.1083926   -7.0899737     355.4466  0.034283044  0.034443977            1 
  865000    1.1342386   -7.0882509    355.03901  0.034204144  0.034437218            2 
  866000    1.1311348   -7.1282437    355.10419  0.034170919  0.034430136            1 
  867000    1.1460123   -7.1011187    354.37192  0.034061123  0.034422634            1 
  868000    1.1133248   -7.0951814    355.40915  0.034121462  0.034415434            2 
  869000    1.1073843    -7.120676    355.76058  0.034115898  0.034407779            2 
  870000    1.1226303   -7.1223858    355.99329  0.034098975  0.034400039            1 
  871000    1.1238823   -7.1135733    355.52056  0.034014597  0.034392232            1 
  872000    1.1147312   -7.0876065    356.72709  0.034090892  0.034384606            2 
  873000     1.104669   -7.0586458    357.91703  0.034165429  0.034377211            2 
  874000    1.1044199   -7.1113948    356.66496  0.034006956  0.034369694            1 
  875000    1.0864238   -7.0747689    359.37172  0.034225878  0.034362299            2 
  876000    1.1072896   -7.1115882    358.06639  0.034062633  0.034354794            2 
  877000    1.1370027   -7.1149758    358.69996  0.034083995  0.034347253            4 
  878000    1.0884091   -7.1105492    357.53916     0.033935  0.034339439            1 
  879000    1.1252148   -7.0945246    359.85021  0.034115492  0.034331537            2 
  880000    1.1141602   -7.0951512    359.30543  0.034025136  0.034324022            2 
  881000    1.1367399   -7.1738561    358.47433  0.033907901  0.034316145            2 
  882000    1.1415634   -7.1345592    360.29171  0.034041167  0.034308327            1 
  883000    1.1087561   -7.1526743    359.51459  0.033929275  0.034300369            2 
  884000    1.1070268   -7.1530077    358.95892   0.03383851  0.034292619            2 
  885000    1.1010232   -7.1482385     360.3675   0.03393291  0.034285073            5 
  886000    1.1311474   -7.1219968    362.09625   0.03405721  0.034277557            1 
  887000    1.1184694   -7.0944007    361.82321  0.033993161  0.034269927            1 
  888000     1.134382   -7.1334471    360.50321  0.033831007  0.034262443            2 
  889000    1.1285313   -7.1005377    362.27537  0.033959071  0.034254533            1 
  890000     1.111952   -7.1108078    361.67938   0.03386511  0.034246668            1 
  891000    1.1041611   -7.1045916    361.81066  0.033839381  0.034238867            1 
  892000    1.1069327   -7.1646153    362.45211  0.033861371  0.034230964            1 
  893000    1.1037774   -7.1137658    363.39957  0.033911868  0.034223018            1 
  894000    1.1114076   -7.1029637    364.47219  0.033973918   0.03421505            1 
  895000    1.0924069   -7.1245799    363.57408  0.033852335  0.034207456            2 
  896000    1.1377435   -7.1114643    364.71501  0.033920666  0.034199862            2 
  897000    1.1218287   -7.0926113    364.78359  0.033889222  0.034192356            2 
  898000    1.1281057   -7.1477746    365.56197  0.033923717   0.03418459            1 
  899000    1.1118059    -7.092006    366.86037  0.034006338  0.034176852            2 
  900000    1.1275633   -7.0844151    365.80542  0.033870872  0.034169245            2 
  901000     1.112625   -7.1499224    365.51498  0.033806417  0.034161575            2 
  902000    1.1027017   -7.1156872    366.76011  0.033883972  0.034153989            2 
  903000    1.1072894   -7.1489544    367.03149  0.033871492  0.034146136            1 
  904000    1.0911383   -7.1153671    366.04076  0.033742696  0.034138299            1 
  905000    1.1132919   -7.1259224    366.78279  0.033773737   0.03413043            2 
  906000    1.1052611   -7.0933961    367.09705  0.033765366  0.034122496            1 
  907000    1.0929282   -7.1666323    366.94926  0.033714559  0.034114397            2 
  908000     1.085049   -7.1108444    367.84687  0.033759809  0.034106166            1 
  909000    1.1065521   -7.1620512    367.91021  0.033728475  0.034098064            2 
  910000    1.1264477   -7.1147206    368.15159  0.033713516   0.03409003            1 
  911000    1.0954364   -7.1311785    369.18038  0.033770617  0.034081929            1 
  912000    1.1047749   -7.0920473    369.86469  0.033796116  0.034074088            2 
  913000    1.0954402   -7.1026538    370.11544  0.033781986  0.034066274            3 
  914000     1.102155   -7.1392507    369.55457  0.033693888  0.034058315            2 
  915000    1.1119616   -7.1025247    369.47024  0.033649385  0.034050086            3 
  916000    1.1120996   -7.1145315    370.20501  0.033679495  0.034041801            3 
  917000    1.1125819   -7.1534294    369.27981  0.033558688  0.034033786            2 
  918000    1.0993188   -7.1214912    369.54233  0.033545963  0.034025439            1 
  919000    1.1139592   -7.0956816    370.91745  0.033634154  0.034017114            1 
  920000    1.1147191   -7.1538471    370.76881  0.033584132  0.034008479            1 
  921000    1.1278882   -7.1683229    370.71992  0.033543243  0.033999856            6 
  922000    1.0873227   -7.1207274    371.29473  0.033558815   0.03399159            2 
  923000    1.0917664   -7.1334734    371.24235  0.033517728  0.033982987            3 
  924000    1.0982073   -7.1382523    371.36941  0.033492912  0.033974326            2 
  925000    1.1263445    -7.142034     371.9757  0.033511325  0.033965617            2 
  926000    1.1277401    -7.123742    371.77837  0.033457376  0.033956897            1 
  927000    1.0767564   -7.1051318    372.69822  0.033503975  0.033948274            1 
  928000    1.1103487    -7.120081    372.69234  0.033467344  0.033939699            2 
  929000    1.0966784   -7.1281045    373.37664  0.033492702  0.033930948            2 
  930000    1.0805672   -7.1528385    374.02021  0.033514355  0.033922286            1 
  931000    1.0816576   -7.1475041    373.40597  0.033423377  0.033913407            1 
  932000     1.118988   -7.1631383    373.15801  0.033365345  0.033904441            1 
  933000    1.1108571    -7.149342    373.63019  0.033371757  0.033895433            2 
  934000    1.1140792    -7.154873    374.73043  0.033434193  0.033886281            1 
  935000    1.1155243   -7.1308499    374.95869  0.033418778  0.033877127            1 
  936000    1.1048353     -7.19485    373.73418  0.033274054  0.033867711            4 
  937000    1.1089236   -7.1505464    374.15038  0.033275558   0.03385814            1 
  938000    1.1013694    -7.142588    374.79102  0.033296999  0.033848787            1 
  939000    1.0796119   -7.1196068    375.63614  0.033336541  0.033839564            4 
  940000    1.1217284   -7.1153237    374.77844  0.033225039  0.033830407            2 
  941000    1.0647217   -7.1481719    375.45421  0.033249576  0.033821053            1 
  942000    1.0718023    -7.101673    376.60496  0.033316079  0.033811784            1 
  943000     1.093876   -7.0679418    377.20455  0.033333735  0.033802331            2 
  944000    1.1255554   -7.1320373    377.54113  0.033328137  0.033793111            5 
  945000     1.097803   -7.1459808    376.57791  0.033207928  0.033783812            1 
  946000    1.1147926   -7.1511639     377.0825  0.033217275   0.03377445            1 
  947000    1.0826544   -7.1200428    377.88011  0.033252386  0.033765038            3 
  948000    1.0987019   -7.0882632    378.01619  0.033229271  0.033756114            2 
  949000    1.1041833   -7.1653049    378.42888  0.033230495  0.033747234            1 
  950000    1.0704266   -7.1489867    380.66783  0.033391915  0.033738285            3 
  951000    1.1084489   -7.1263733    380.11039  0.033307955  0.033729333            2 
  952000    1.1065636   -7.1493628    380.27153  0.033287073  0.033720393            1 
  953000    1.0809369   -7.1360674    380.07932  0.033235337  0.033711762            1 
  954000    1.0866106    -7.177975    380.29708  0.033219521  0.033703016            1 
  955000    1.1001723   -7.1477474    380.85536  0.033233452  0.033694373            1 
  956000    1.1199041   -7.1802675     382.2611  0.033321226   0.03368571            1 
  957000    1.0632828   -7.1144503    380.98988  0.033175713  0.033677086            1 
  958000    1.0999136    -7.137871    381.90705  0.033220864  0.033668516            3 
  959000     1.123796   -7.1643751     383.3679  0.033313165  0.033660146            1 
  960000    1.1001558   -7.1309118    383.46104  0.033286549  0.033651665            2 
  961000    1.0970863   -7.1207662    383.87741  0.033288017    0.0336434            3 
  962000    1.1123537   -7.1064614    385.34033   0.03338014   0.03363514            1 
  963000    1.0915957   -7.1388155    383.40078  0.033177638  0.033626958            1 
  964000    1.1064348   -7.1419771    383.94912  0.033190622  0.033618557            2 
  965000    1.1016123   -7.1308166    384.98957  0.033246077  0.033609893            2 
  966000    1.0895391   -7.1820619    383.99554  0.033125909  0.033601015            1 
  967000     1.087595   -7.1419794     383.8367  0.033077964  0.033592353            1 
  968000    1.1175547   -7.1629653    384.01683    0.0330593  0.033583665            1 
  969000    1.1193523   -7.1313507    386.25192  0.033217399  0.033575203            3 
  970000    1.0683416   -7.1433193    385.99081  0.033160723  0.033566673            1 
  971000    1.0767659   -7.1394805    385.98695   0.03312624  0.033558107            2 
  972000    1.0940567   -7.1583824     386.7463  0.033157262  0.033549494            1 
  973000    1.0803204   -7.1235122    387.45914  0.033184236  0.033540673            1 
  974000     1.122771   -7.1321834    387.31214  0.033137589  0.033532228            2 
  975000    1.0761182   -7.1105483    387.16492  0.033091019  0.033523473            1 
  976000    1.0865774   -7.1188308    388.05846  0.033133407  0.033514847            3 
  977000    1.0809301   -7.1188008    388.50353  0.033137456  0.033506299            1 
  978000    1.1062732   -7.1439869    388.11621   0.03307057  0.033497712            1 
  979000    1.1155517   -7.1344514    388.67353   0.03308423  0.033488893            1 
  980000    1.0786142   -7.1296768    389.16966  0.033092658  0.033480031            3 
  981000    1.1235776   -7.1974332    388.87938  0.033034266  0.033471321            3 
  982000    1.0881895   -7.1570721    388.27255   0.03294913  0.033462484            2 
  983000    1.0872203   -7.1436483    389.21564  0.032995561  0.033453419            1 
  984000    1.0796171   -7.1818426    389.15042  0.032956506  0.033444515            1 
  985000    1.0792499   -7.1317637    391.00632  0.033080061  0.033435685            1 
  986000    1.1083801   -7.1437312    390.13714  0.032973051  0.033426999            2 
  987000    1.1065818   -7.2088192    388.40355  0.032793275  0.033417993            1 
  988000    1.0791186   -7.1306889    392.11937  0.033073496  0.033408995       -1e+20 
  989000     1.095182   -7.1506834    391.83959   0.03301648  0.033400248            1 
  990000    1.0980011   -7.1569264    391.09487  0.032920443  0.033391201            2 
  991000    1.0992259   -7.1240813    392.07153  0.032969352  0.033382291            1 
  992000     1.086854   -7.1473853    393.00984  0.033014939  0.033373533            2 
  993000    1.1162865   -7.1413895    393.56347  0.033028152  0.033364982            1 
  994000    1.0820027   -7.1373807    393.70187  0.033006528  0.033356466            3 
  995000    1.0935954   -7.2131618    392.92347  0.032908163  0.033348038            3 
  996000    1.0812804   -7.1763464    392.86121  0.032869914  0.033339473            3 
  997000    1.0765132    -7.118705    394.69195  0.032989966  0.033330931            1 
  998000    1.0867437   -7.1354828    394.16762  0.032913128  0.033322337            1 
  999000    1.0918507   -7.1334719    394.78138   0.03293138  0.033313744            1 
 1000000    1.1063068   -7.1687196    394.66882  0.032889068  0.033305049            4 
 1001000    1.1041817   -7.1464886    395.25507  0.032905018  0.033296286            1 
 1002000    1.0977842   -7.1377519    395.49917  0.032892479  0.033287579            1 
 1003000    1.0686899   -7.1518976    396.42238  0.032936389  0.033278897            2 
 1004000    1.0950931   -7.1637049    395.37711  0.032816825  0.033270075            2 
 1005000    1.0661016    -7.171605    395.78286  0.032817816   0.03326105            2 
 1006000     1.078636   -7.1082178      398.193  0.032984841  0.033252513            3 
 1007000     1.107066   -7.1653994    396.20015  0.032787169  0.033243652            3 
 1008000    1.0704647    -7.178675    396.32548  0.032765003  0.033234826            1 
 1009000     1.073708   -7.1673694    398.10064  0.032879141  0.033226003            3 
 1010000    1.0905891   -7.1174184     398.5641  0.032884827  0.033217558            1 
 1011000    1.1143777   -7.1450522    398.39427  0.032838302  0.033208983            2 
 1012000     1.094439   -7.1153763    399.77466  0.032919521  0.033200488            3 
 1013000    1.0767675   -7.1931149    399.22598  0.032841887  0.033191954            3 
 1014000    1.0811412   -7.1856066    398.92058    0.0327844  0.033183246            2 
 1015000    1.0850975   -7.1643208    399.16766  0.032772386   0.03317452            2 
 1016000    1.0843294   -7.1936734    398.18942  0.032659894  0.033165808            1 
 1017000    1.0821796   -7.1726342    401.88985  0.032930994  0.033157209            1 
 1018000    1.0923749   -7.1697841    400.10979  0.032752929   0.03314873            1 
 1019000    1.1111952   -7.1431487    402.77142  0.032938454  0.033140225            2 
 1020000    1.0983759   -7.1382134    401.57585  0.032808484  0.033132059            1 
 1021000    1.1035339   -7.1706021    401.82488  0.032796677   0.03312365       -1e+20 
 1022000    1.0750873   -7.1560186    402.30409   0.03280366  0.033115439            3 
 1023000    1.0908607   -7.1910203    402.38502  0.032778186   0.03310711            1 
 1024000    1.1031636   -7.1781642    402.18049  0.032729532  0.033098542            2 
 1025000    1.0851392   -7.1501253    402.96542  0.032761416  0.033090286            1 
 1026000    1.0929116   -7.1596672    403.57159  0.032778719  0.033082016            2 
 1027000    1.0984261   -7.1598328    403.95456  0.032777877  0.033073804            3 
 1028000    1.0989479    -7.160628    403.87762  0.032739755  0.033065651            2 
 1029000    1.0713816    -7.157353    405.20656  0.032815562  0.033057215            2 
 1030000    1.0953744   -7.1560122    404.49439  0.032726083  0.033049084            3 
 1031000    1.0960912   -7.2012784    405.08471  0.032742056  0.033040919            2 
 1032000    1.0998387   -7.1469468    405.83394  0.032770829  0.033032747            2 
 1033000    1.0775578   -7.1618313    407.14341  0.032844741  0.033024627            2 
 1034000    1.0781224   -7.1575498      406.382  0.032751612  0.033016572            1 
 1035000    1.0773265   -7.1936089     406.6615  0.032742472    0.0330085            2 
 1036000    1.1008327   -7.2014536    406.14787  0.032669552  0.033000504            3 
 1037000    1.0937771   -7.1798713    407.70091  0.032762851  0.032992613            2 
 1038000    1.0881372    -7.225479    406.40203  0.032627009  0.032984574            2 
 1039000    1.0747097   -7.1293204    409.89171  0.032875498  0.032976509            1 
 1040000    1.0773215   -7.1624846    408.40736  0.032724949  0.032968663            2 
 1041000    1.0535017   -7.1602646    407.70569  0.032637343  0.032960755            2 
 1042000    1.0930652   -7.1665496     408.3266  0.032655678  0.032953028            2 
 1043000    1.0820671   -7.2038505    408.67162  0.032651935  0.032945214            3 
 1044000    1.0922241   -7.1610997    409.90731  0.032719293  0.032937702            3 
 1045000    1.0776413   -7.1724993    409.87141   0.03268512  0.032930306            2 
 1046000     1.091651   -7.1892112    410.18475  0.032678836  0.032922489            1 
 1047000    1.0978913   -7.1837091    411.41954  0.032745904  0.032914661            1 
 1048000    1.0768286   -7.2022819    411.61991  0.032730591  0.032906941            2 
 1049000     1.077867   -7.1752768    411.63957  0.032700951  0.032899248            1 
 1050000    1.0772284   -7.1587897    411.94596  0.032694124  0.032891857            2 
 1051000    1.0538243   -7.2164286     412.0919  0.032674588  0.032884434            2 
 1052000    1.0775685   -7.1786575    412.02879  0.032638529  0.032876811            1 
 1053000    1.1012812   -7.1769116    413.36927  0.032713618  0.032869501            2 
 1054000     1.089358    -7.147364    413.58939  0.032699984  0.032862271            3 
 1055000    1.0652055   -7.1866447    414.09747   0.03270912  0.032854941            1 
 1056000    1.0754987   -7.2007423    412.87513  0.032581686  0.032847451            2 
 1057000    1.0663646   -7.1563517    415.03744  0.032721337  0.032839888            1 
 1058000    1.0758027   -7.2173824    414.34853  0.032636148  0.032832488            2 
 1059000    1.1078165   -7.1483195    416.35029  0.032762849  0.032825211            2 
 1060000     1.083564   -7.1601093    415.54158  0.032668363  0.032817829            2 
 1061000    1.0932579   -7.1726276    415.98351  0.032672284  0.032810424            1 
 1062000    1.0870211   -7.1680913    415.55476  0.032607875   0.03280291            4 
 1063000    1.0849061   -7.1988019    415.78943  0.032595597  0.032795504            2 
 1064000    1.0847679   -7.1796901    416.21544  0.032598327  0.032787885            2 
 1065000    1.0720476   -7.2162131    416.00807  0.032551492  0.032780381            2 
 1066000    1.0774455   -7.1999007     417.7285  0.032655449  0.032772919            2 
 1067000    1.0676389   -7.1863415    417.03929  0.032571016  0.032765279            1 
 1068000    1.0865359   -7.1572516    418.00287  0.032615705  0.032757651            2 
 1069000    1.0808808   -7.1447963     417.8388  0.032572404  0.032750195            2 
 1070000    1.1026336   -7.1844155    417.55766  0.032520067  0.032742722            2 
 1071000    1.0743573   -7.1934854    417.05112  0.032450289  0.032735024            1 
 1072000     1.090502   -7.1890946    418.18836  0.032508423   0.03272749            2 
 1073000    1.1078203    -7.194549    418.81509  0.032526801  0.032719941            2 
 1074000    1.0872781   -7.1887368    419.02489  0.032512794  0.032712272            1 
 1075000    1.0746696   -7.1492956    418.87154  0.032470662  0.032704709            2 
 1076000    1.0502719   -7.1659355    420.92443  0.032599476  0.032697276            2 
 1077000    1.0896345   -7.1810367    420.72848  0.032554046  0.032690077            2 
 1078000    1.0753142   -7.2137397    422.21143  0.032638484  0.032682771            2 
 1079000    1.0729917   -7.1664204     421.8841  0.032582955  0.032675569            4 
 1080000    1.0763725   -7.1694954    421.81044  0.032547102  0.032668451            2 
 1081000     1.086392   -7.1834106    421.59174  0.032500134  0.032661154            1 
 1082000    1.0835351   -7.1701334     421.7726  0.032484026  0.032653785            2 
 1083000    1.0734469   -7.1394037    423.83377  0.032612632  0.032646306            2 
 1084000    1.0690639   -7.1972466    422.46337  0.032477196  0.032638825            2 
 1085000    1.0936551   -7.1986584    422.88758  0.032479845   0.03263114            2 
 1086000    1.0951507   -7.1579272    422.99971  0.032458542  0.032623405            3 
 1087000    1.0916439   -7.1906597    422.67271  0.032403611  0.032615703            1 
 1088000     1.078253   -7.1579156     423.7388  0.032455484  0.032607808            2 
 1089000    1.0600722    -7.202729    422.55674  0.032335226  0.032600002            2 
 1090000    1.0836934   -7.1783511    423.00528  0.032339853  0.032592136            1 
 1091000    1.0517282     -7.17504     422.7857  0.032293439  0.032584117            2 
 1092000    1.0604193   -7.1801562    423.42341  0.032312531  0.032576203            1 
 1093000    1.0785104   -7.1743696    423.37507  0.032279282  0.032568168            2 
 1094000    1.0610257   -7.1602385    423.90066  0.032289812  0.032560406            2 
 1095000    1.0747348   -7.1649981    424.83695  0.032331579  0.032552386            2 
 1096000    1.0884513   -7.1791053    425.63453  0.032362723  0.032544568            1 
 1097000    1.0823475   -7.1892213    424.77713   0.03226809  0.032536855            1 
 1098000    1.0740333   -7.1643756    426.62843  0.032379207   0.03252928            1 
 1099000    1.0764234   -7.2200724    426.22036  0.032318802  0.032521759            2 
 1100000    1.0755563   -7.1941513     426.5532  0.032314637  0.032514056            2 
 1101000    1.0592604   -7.1912546    426.61898  0.032290265  0.032506411            1 
 1102000    1.0926054   -7.1700451    427.43183  0.032322431  0.032498689            3 
 1103000    1.0876275   -7.1760534      427.628  0.032307948  0.032491226            1 
 1104000     1.065605   -7.1199776    427.97593  0.032304946  0.032483538            1 
 1105000    1.0910447   -7.1982833    428.09382  0.032284602   0.03247584            1 
 1106000    1.1047155   -7.1603501     429.1522  0.032335156  0.032467994            2 
 1107000    1.0807761   -7.1698563    429.02287  0.032296211  0.032460437            2 
 1108000    1.0748726   -7.1685482     429.6842  0.032316802  0.032452938            1 
 1109000    1.0526734   -7.1990952    430.71664  0.032365242  0.032445519            1 
 1110000    1.0556856   -7.1991864    430.78291  0.032341059  0.032437803            2 
 1111000    1.0902525   -7.1947246    430.28869  0.032274879  0.032430363            1 
 1112000    1.0969471   -7.2022141    430.44784  0.032257781  0.032422751            1 
 1113000    1.0656161   -7.2012835    429.85957  0.032184753   0.03241501            1 
 1114000    1.0840847   -7.1576972    431.49949  0.032278538  0.032407473            1 
 1115000    1.0658116    -7.194123    429.40721  0.032093214  0.032399835            2 
 1116000    1.0748885   -7.1750233    431.15833  0.032195216  0.032392147            2 
 1117000    1.0712865   -7.1753489    432.65398  0.032277975  0.032384701            1 
 1118000     1.078538   -7.1592269    433.44302  0.032307917   0.03237743            2 
 1119000    1.0768096   -7.1183201     433.5397  0.032286245  0.032370201            2 
 1120000    1.0763568   -7.1723331    433.57272  0.032259875  0.032362836            2 
 1121000    1.0894187   -7.1926915    432.64349  0.032162019  0.032355393            1 
 1122000    1.0532124   -7.1743571    434.76575  0.032290979  0.032348084            1 
 1123000    1.0824193   -7.2189823    434.57064  0.032247747  0.032340798            1 
 1124000    1.0775692   -7.2092299    433.17599  0.032115658  0.032333315            3 
 1125000    1.0547485   -7.1564634    434.88919  0.032214014  0.032325679            2 
 1126000      1.06148   -7.1890985    434.17102  0.032132255  0.032318168            2 
 1127000    1.0506339   -7.1731496    435.84106   0.03222723  0.032310792            1 
 1128000    1.0646001   -7.1771076    436.46237  0.032244561  0.032303364            1 
 1129000     1.070692   -7.1817213    434.77496  0.032091449  0.032295711            2 
 1130000    1.0709476   -7.1868555    435.81505  0.032139753  0.032287984            1 
 1131000    1.0872126   -7.1970588    435.81614  0.032111416  0.032280156            2 
 1132000    1.0908416   -7.2256659    434.37643  0.031977063  0.032272113            3 
 1133000    1.0931448   -7.1930416    436.33544  0.032092927  0.032264043            2 
 1134000    1.0693533   -7.1873864    434.80421  0.031952103  0.032256114            3 
 1135000    1.0545357   -7.2339372    435.36936  0.031965445  0.032247986            6 
 1136000    1.0806272   -7.2069258    436.30795  0.032006158  0.032239804            2 
 1137000    1.0803646   -7.2136843    436.43143  0.031987058  0.032231698            1 
 1138000    1.0679995   -7.2109869    436.11628  0.031935873  0.032223617            1 
 1139000    1.0692521   -7.2228687    437.63838  0.032019197  0.032215314            1 
 1140000    1.0754878   -7.2147929    435.94118  0.031867045  0.032207083            2 
 1141000     1.069869   -7.1976282    438.24456  0.032007344  0.032198773            3 
 1142000    1.0409643   -7.2082558    436.32667  0.031839366  0.032190737            1 
 1143000    1.0861487   -7.1977249    438.47901  0.031968432  0.032182779            5 
 1144000    1.0639541   -7.2060402    438.69273  0.031956055  0.032175034            3 
 1145000    1.0563706   -7.1841865    439.67522  0.031999652  0.032167308            1 
 1146000    1.0834456   -7.2033075    440.48498  0.032030612   0.03215964            3 
 1147000    1.0534792   -7.2160738    439.18078  0.031907932  0.032152013            3 
 1148000    1.0727676   -7.1635327    441.65433  0.032059693  0.032144682            2 
 1149000    1.0768867   -7.2088201     441.7225  0.032036735  0.032137414            2 
 1150000    1.0803722   -7.1844734    441.04503  0.031959785  0.032129831            3 
 1151000    1.0420891   -7.2377356    440.45766  0.031889491  0.032122315            1 
 1152000    1.0583823   -7.1964745    442.75105  0.032027709  0.032114897            2 
 1153000     1.086718   -7.1753581    441.64879  0.031920265  0.032107526            2 
 1154000    1.0869429   -7.2455373    441.54267  0.031884941  0.032099887            1 
 1155000    1.0704995   -7.2024712      443.967  0.032032251  0.032092317            2 
 1156000    1.0648602   -7.2279818    441.82946  0.031850451  0.032084661            1 
 1157000    1.0830076   -7.2344225    443.08187  0.031913128  0.032077073            1 
 1158000    1.0711403   -7.1679049    443.32337  0.031902948  0.032069486            2 
 1159000    1.0442836   -7.2369778    442.96191  0.031849432  0.032061957            1 
 1160000    1.0600521   -7.2127473     443.0944  0.031831494  0.032054431            1 
 1161000    1.0624874   -7.1948173    444.34839  0.031894085   0.03204683            2 
 1162000     1.070395   -7.1749816    445.63819  0.031959136  0.032039307            2 
 1163000    1.0558852   -7.2195748    444.30866   0.03183639  0.032031767            5 
 1164000    1.0879386   -7.2072277    443.81176  0.031773465   0.03202421            2 
 1165000    1.0403976   -7.2108521    443.63552  0.031733585  0.032016633            1 
 1166000    1.0788967   -7.1923851    445.33331  0.031827709  0.032009041            3 
 1167000    1.0824126   -7.2138185    446.00489  0.031848393  0.032001373            2 
 1168000    1.0494099   -7.1733723    447.24445  0.031909564  0.031993574            1 
 1169000    1.0826981   -7.2329513    444.79327  0.031707533  0.031985534            2 
 1170000     1.045187   -7.2049147    445.55376  0.031734598  0.031977605            3 
 1171000    1.0610508   -7.2324841    445.33226  0.031691735  0.031969585            1 
 1172000    1.0944094   -7.2011677    446.19083  0.031725741  0.031961506            1 
 1173000    1.0607886   -7.2189699    445.34528  0.031638625  0.031953484            1 
 1174000    1.0532714   -7.1888308    447.06369  0.031733652  0.031945286            1 
 1175000    1.0585026   -7.2130756    446.15608  0.031642275  0.031937248            2 
 1176000    1.0494686   -7.2217003    447.17664  0.031687687  0.031929114            2 
 1177000    1.0864168   -7.2269607    447.01116  0.031649049  0.031921044            1 
 1178000    1.0550881   -7.2247635    445.82068  0.031537965  0.031912683            1 
 1179000    1.0855652   -7.1928562    449.67743  0.031783816  0.031904528            2 
 1180000    1.0655665   -7.1850036    448.44118  0.031669575  0.031896312            1 
 1181000    1.0292617   -7.1876221    447.94968  0.031608078  0.031888218            3 
 1182000     1.072233     -7.18765    448.53738   0.03162277  0.031879787            2 
 1183000    1.0672955   -7.2229666    448.88661   0.03162064  0.031871588            2 
 1184000     1.053508   -7.1997498    449.58415  0.031643028  0.031863491            2 
 1185000    1.0473615   -7.2401014    448.83367  0.031563549  0.031855418            2 
 1186000    1.0370469   -7.1937655    448.37994  0.031505055  0.031847028            2 
 1187000    1.0497287   -7.2346643    448.03606  0.031454371  0.031838737            2 
 1188000    1.0768691    -7.221248    449.31204  0.031517399  0.031830324            2 
 1189000    1.0555123   -7.2393891    449.44577  0.031500264  0.031821823            1 
 1190000     1.066405   -7.2206411    449.95451   0.03150942  0.031813287            3 
 1191000    1.0439525   -7.2347159    449.26763  0.031434903   0.03180483            1 
 1192000    1.0592674   -7.2346507    448.97955  0.031388391  0.031796229            1 
 1193000    1.0645418   -7.2390546    449.10067  0.031370542  0.031787674            1 
 1194000    1.0505532   -7.2155104    449.70055  0.031386135  0.031779124            1 
 1195000      1.02989   -7.2166086    450.63665   0.03142515  0.031770682            3 
 1196000    1.0610465   -7.2117734    451.24705  0.031441405  0.031762161            1 
 1197000     1.057249   -7.2314131     450.9923  0.031397403  0.031753641            2 
 1198000    1.0881126   -7.2429227    449.47421  0.031265596  0.031744927            1 
 1199000    1.0620728   -7.2347243    451.78123  0.031399863  0.031736219            1 
 1200000    1.0437875   -7.2194682    452.01573  0.031389981  0.031727188            2 
 1201000    1.0702746   -7.2219934    451.57904  0.031333544  0.031718513            1 
 1202000    1.0561198   -7.1970268    451.54309  0.031304984  0.031709557            1 
 1203000    1.0715991    -7.212355    451.59634  0.031282651  0.031700652            1 
 1204000    1.0751672   -7.2334842    452.66072  0.031330338  0.031691675            1 
 1205000    1.0666736   -7.2047169    452.05427  0.031262397  0.031682684            3 
 1206000    1.0577068   -7.2221935    452.87402  0.031293119  0.031673919            3 
 1207000    1.0674003   -7.2125133    452.73957   0.03125791  0.031665013            3 
 1208000    1.0762186   -7.2191735    453.05489  0.031253787  0.031656245            2 
 1209000    1.0765718   -7.2110484    452.73877  0.031206146  0.031647273            1 
 1210000    1.0524015   -7.1976244    453.53558  0.031235233  0.031638478            2 
 1211000    1.0622862   -7.2118981    454.76904  0.031294319  0.031629622            2 
 1212000    1.0667443   -7.2172442    454.64734  0.031260131  0.031620837            2 
 1213000    1.0478425   -7.2086705    455.18101  0.031271023  0.031612208            2 
 1214000    1.0607395   -7.2454478    454.52633  0.031200325  0.031603605            2 
 1215000    1.0655084   -7.2311777    454.62137  0.031181164  0.031594914            2 
 1216000    1.0618925   -7.2385874    454.69801  0.031160774  0.031586321            2 
 1217000    1.0631707   -7.2047508     458.9105  0.031423617   0.03157777            3 
 1218000    1.0432241   -7.2203862    455.10752  0.031137624  0.031569104            1 
 1219000      1.06415   -7.1964913    457.46323  0.031273122  0.031560364            3 
 1220000    1.0579605   -7.2435812      456.795  0.031201844  0.031551773            2 
 1221000    1.0707002   -7.2414198    456.85409  0.031180323  0.031543075            3 
 1222000     1.045949   -7.2226205    458.09214  0.031239235  0.031534448            2 
 1223000    1.0838874   -7.2739083    458.07192  0.031212314   0.03152595            2 
 1224000     1.048094   -7.2229911    458.44104  0.031211944  0.031517557            2 
 1225000    1.0726855   -7.2743726    456.51748  0.031055611  0.031509034            2 
 1226000    1.0724451   -7.2533166     459.0131  0.031199911   0.03150043            1 
 1227000    1.0786245   -7.2465623    457.93081  0.031100979  0.031491781            2 
 1228000    1.0310412   -7.2514246     458.2351  0.031096302  0.031482883            2 
 1229000    1.0749484   -7.1942598    459.24064  0.031139181  0.031474206            2 
 1230000    1.0583979    -7.233957    457.47048  0.030993935  0.031465476            2 
 1231000    1.0764321   -7.2310237    461.31077  0.031228728  0.031456774            2 
 1232000    1.0625271    -7.241275    460.19479  0.031127894  0.031448047            3 
 1233000    1.0584458    -7.252229     459.9209  0.031084137   0.03143955            1 
 1234000    1.0362006   -7.2299032    461.31215    0.0311529  0.031431032            2 
 1235000    1.0619647   -7.1972638    461.40363  0.031133848  0.031422437            1 
 1236000    1.0297247   -7.2178675    461.52721  0.031116991  0.031413942            1 
 1237000    1.0381738   -7.2823984    461.31419  0.031077485  0.031405246            1 
 1238000    1.0520196   -7.1977257    462.25392  0.031115638  0.031396605            2 
 1239000    1.0585038   -7.2057548    462.96132  0.031138103  0.031388167            2 
 1240000    1.0632456   -7.2180446    463.03967  0.031118257   0.03137961            9 
 1241000    1.0423281   -7.2307422    462.26821  0.031041379  0.031371052            1 
 1242000    1.0611452    -7.224367     462.1166  0.031006213  0.031362535            2 
 1243000    1.0559891   -7.2594721    461.96099  0.030970836   0.03135403            2 
 1244000    1.0517114   -7.2566471    463.17726  0.031027416  0.031345584            2 
 1245000    1.0651403    -7.204621    463.66151  0.031034907  0.031337156            2 
 1246000    1.0541384   -7.2223742    465.03422  0.031101807  0.031328779            1 
 1247000    1.0557497   -7.2360689    464.23536   0.03102348  0.031320231            2 
 1248000    1.0639283    -7.205681    465.99858  0.031116358  0.031311767            1 
 1249000    1.0407485   -7.2374054    466.03976  0.031094193  0.031303358            2 
 1250000    1.0520115   -7.2599241    465.04951  0.031003301  0.031294986            4 
 1251000    1.0575067    -7.226232    467.36454   0.03113273  0.031286645            5 
 1252000    1.0671386   -7.2762375    464.23996  0.030899891  0.031278172            2 
 1253000    1.0512111   -7.2227841    465.94866  0.030988871  0.031269831            1 
 1254000    1.0698103   -7.2343628    467.49639  0.031067012  0.031261517            2 
 1255000    1.0722236   -7.2537142    466.03864  0.030945461  0.031253038            1 
 1256000    1.0512583   -7.2369642    467.33057   0.03100654  0.031244828            3 
 1257000    1.0541485   -7.2638804    466.57404  0.030931718   0.03123673            2 
 1258000    1.0401544   -7.2288978    468.22573  0.031016543  0.031228562            2 
 1259000    1.0627381   -7.2556682    469.25031  0.031059724  0.031220404            1 
 1260000    1.0285529   -7.2315502    468.89734  0.031011729  0.031212357            2 
 1261000    1.0457099   -7.2319461    469.49071  0.031026349  0.031204352            2 
 1262000    1.0624477   -7.2148476    469.94484  0.031031751  0.031196363            2 
 1263000    1.0600866   -7.2555891    469.37724  0.030969731  0.031188346            2 
 1264000    1.0553465   -7.2349225    470.92117  0.031047018  0.031180443            1 
 1265000    1.0605615   -7.2619567    470.41484   0.03098912  0.031172553            2 
 1266000    1.0422294   -7.2545131    468.54617  0.030841638   0.03116454            2 
 1267000     1.052176   -7.2580874    470.74596  0.030961981  0.031156564            1 
 1268000     1.043873   -7.2176061    471.29866  0.030973887   0.03114872            2 
 1269000    1.0256464   -7.2647357    471.62603  0.030970976  0.031140968            2 
 1270000    1.0271877   -7.2341882    472.69527   0.03101675  0.031133143            1 
 1271000    1.0260004   -7.2415609    471.48064  0.030912709   0.03112547            3 
 1272000     1.038873    -7.252384    472.81631  0.030975911  0.031117712            1 
 1273000    1.0632016   -7.2211859    473.81956  0.031017253  0.031109919            2 
 1274000    1.0237353    -7.251845    471.79023  0.030860167  0.031101985            2 
 1275000    1.0612168   -7.2469486    472.08999  0.030855555  0.031094036            1 
 1276000    1.0242365   -7.2443037    472.21331  0.030839427  0.031086101            1 
 1277000    1.0566202   -7.2607057    474.02356  0.030933409   0.03107827            2 
 1278000    1.0454423   -7.2073024    473.97074   0.03090576  0.031070449            3 
 1279000    1.0145971   -7.2571804    474.36416   0.03090723  0.031062625            2 
 1280000    1.0785636   -7.2505622    473.43258  0.030822434  0.031054623            3 
 1281000     1.058832   -7.3027443    474.40749  0.030861793  0.031046561            3 
 1282000    1.0341113   -7.2113902    475.80626  0.030928644  0.031038625            1 
 1283000    1.0499108   -7.2731418    474.68396  0.030831642   0.03103067            2 
 1284000     1.045978   -7.2807041    475.26562   0.03084538  0.031022683            1 
 1285000    1.0684928   -7.2484423    475.57887   0.03084169  0.031014688            2 
 1286000    1.0460288   -7.2542454    475.46075  0.030810054  0.031006798            1 
 1287000    1.0365572   -7.3044989     474.3311  0.030712969  0.030998749            1 
 1288000    1.0602329    -7.261635     476.2951  0.030816195  0.030990654            1 
 1289000    1.0509318   -7.3020536    474.32408  0.030664862  0.030982478            2 
 1290000    1.0447111      -7.2574    475.67387  0.030728286  0.030974213            1 
 1291000    1.0516092   -7.2508417    477.77697  0.030840238  0.030966333            2 
 1292000    1.0291728   -7.2225559    476.52091  0.030735353  0.030958597            1 
 1293000    1.0307177   -7.2541969    476.39454  0.030703438  0.030950774            2 
 1294000    1.0303675   -7.2760512    478.10357  0.030789771  0.030943015            3 
 1295000    1.0502296   -7.2378297    479.10138  0.030830204  0.030935189            2 
 1296000    1.0281457   -7.2525105    477.89872  0.030729084  0.030927355            2 
 1297000    1.0400336   -7.2530441    478.27744  0.030729725  0.030919519            1 
 1298000    1.0495014   -7.2667033     478.1476  0.030697715  0.030911715            1 
 1299000     1.041113   -7.2295747    480.73695  0.030840194  0.030903953            2 
 1300000    1.0321285   -7.2609418     480.1229  0.030777109    0.0308961            1 
 1301000     1.047224   -7.2606351    478.77788  0.030667299  0.030888176            5 
 1302000    1.0439978   -7.2586362    480.16136  0.030732294  0.030880523            1 
 1303000    1.0279108   -7.2404457    481.82809  0.030815304  0.030872891            1 
 1304000     1.028051   -7.2774394    481.55639  0.030774309   0.03086524            3 
 1305000    1.0497765   -7.2122558    482.78518  0.030829194  0.030857624            2 
 1306000    1.0310451   -7.2537501    479.04484  0.030566924  0.030849848            3 
 1307000    1.0375904   -7.2555276    482.60648  0.030770625  0.030842067            1 
 1308000    1.0527394   -7.2706135    481.38941   0.03066956  0.030834328            2 
 1309000    1.0270757   -7.2627281    481.36986  0.030644885  0.030826496            1 
 1310000    1.0540465   -7.2801717    481.88322  0.030654149  0.030818579            1 
 1311000    1.0597465   -7.2286796    482.12856  0.030646362  0.030810755            2 
 1312000      1.04215   -7.2675462    482.88288  0.030670915  0.030802723            1 
 1313000    1.0295384   -7.2510898    481.50458  0.030560078  0.030794801            1 
 1314000    1.0570691   -7.2773219     483.0911  0.030637436  0.030786816            2 
 1315000    1.0421821   -7.2739452    483.07343  0.030613019  0.030778877            1 
 1316000    1.0504104   -7.2482467    484.46939  0.030678153  0.030770939            1 
 1317000    1.0618953   -7.2571842    484.87292  0.030680392  0.030763086            3 
 1318000    1.0395068   -7.2928288    482.52769  0.030508832  0.030755252            2 
 1319000    1.0489011   -7.2454615    483.14564  0.030524744  0.030747403            3 
 1320000     1.028725   -7.2583755     484.1367  0.030564186  0.030739379            2 
 1321000     1.035364    -7.258575    484.49493  0.030563647  0.030731362            2 
 1322000    1.0350279   -7.2327563    485.17118  0.030583156  0.030723376            3 
 1323000     1.029549   -7.2384737    484.73525   0.03053258  0.030715462            2 
 1324000    1.0348415   -7.2738891     484.0594  0.030466982  0.030707242            2 
 1325000    1.0687969   -7.2594278    485.00784  0.030503638  0.030699002            2 
 1326000     1.019543    -7.248587    484.67582  0.030459768  0.030690868            3 
 1327000    1.0559202   -7.2741229    484.73461  0.030440505  0.030682714            1 
 1328000    1.0464928   -7.2977677     484.0635   0.03037547  0.030674548            3 
 1329000    1.0533776   -7.2519062     486.3178  0.030493968  0.030666281            1 
 1330000    1.0382712   -7.2714314    486.11895  0.030458581  0.030658191            3 
 1331000    1.0292096   -7.2751384    486.32079  0.030448334  0.030649977            2 
 1332000    1.0423195   -7.2810825    484.90799  0.030337086  0.030641728            2 
 1333000     1.042469    -7.295792     486.2319  0.030397093  0.030633425            3 
 1334000    1.0634139   -7.2658794    486.45973  0.030388539  0.030625078            1 
 1335000    1.0233713   -7.2795843    485.92316  0.030332282  0.030616684            3 
 1336000    1.0308767   -7.2910145    486.80651  0.030364677  0.030608196            2 
 1337000    1.0397895   -7.2404779     488.5921   0.03045326  0.030599825            2 
 1338000    1.0460634   -7.2869388    486.68169  0.030311515  0.030591482            2 
 1339000    1.0294447   -7.2391305    486.27462  0.030263544   0.03058302            3 
 1340000     1.034372    -7.250276    486.93664   0.03028213  0.030574578            3 
 1341000    1.0560215   -7.2701819    486.71148  0.030245556  0.030566236            1 
 1342000    1.0223298   -7.2897325    485.50265  0.030147954  0.030557703            2 
 1343000    1.0637867   -7.2942204    487.84709  0.030270978  0.030549205            2 
 1344000    1.0319622   -7.2588445    488.74088  0.030303874  0.030540752            3 
 1345000    1.0483627   -7.2788215    489.39018  0.030321572  0.030532416            1 
 1346000    1.0270275   -7.2798362     489.7754  0.030322895  0.030523921            1 
 1347000     1.043482   -7.2966737    488.62636  0.030229297  0.030515455            2 
 1348000    1.0327711   -7.3130129    488.65548  0.030208672  0.030507006            3 
 1349000     1.022814   -7.2838791    490.27606  0.030286389  0.030498718            2 
 1350000   0.99829939   -7.2711539    489.40496  0.030210183  0.030490399            1 
 1351000    1.0134731   -7.2328869     492.3073  0.030366845  0.030482177            2 
 1352000    1.0326482   -7.2828737    490.19038  0.030213904  0.030473963            2 
 1353000    1.0636963   -7.2830299    488.84176  0.030108509  0.030465683            1 
 1354000    1.0304993   -7.2891051    491.66873  0.030260261  0.030457284            2 
 1355000    1.0540115    -7.282831    490.80048  0.030184531  0.030448781            1 
 1356000    1.0362062   -7.2988287    490.29934  0.030131474  0.030440325            2 
 1357000    1.0329696    -7.270718    490.52222  0.030122956  0.030431832            2 
 1358000    1.0464128   -7.2849018    490.50414  0.030099665  0.030423339            1 
 1359000    1.0391261   -7.3036234    491.77605  0.030155509  0.030414867            3 
 1360000    1.0390668   -7.3232345    491.37061  0.030108493  0.030406383            1 
 1361000    1.0437254   -7.2806112    491.49363  0.030093903   0.03039786            2 
 1362000    1.0340122   -7.2810452    493.39545   0.03018817  0.030389439            1 
 1363000    1.0280688   -7.3200778    491.61709  0.030057293  0.030380802            4 
 1364000    1.0373148   -7.3224176    491.38044  0.030020799  0.030372137            1 
 1365000    1.0433634   -7.2398024    491.69308  0.030017892  0.030363509            1 
 1366000    1.0228432   -7.2650106    492.51557  0.030046094  0.030354794            3 
 1367000    1.0166763   -7.2745262    492.22029  0.030006114   0.03034609            3 
 1368000     1.060523   -7.3100818    492.72746  0.030015074  0.030337545            3 
 1369000    1.0087564   -7.2776971    492.65812  0.029988929  0.030328933            4 
 1370000    1.0249954    -7.270034    493.64658  0.030027164  0.030320269            3 
 1371000     1.054081   -7.2762471    493.33748  0.029986475  0.030311678            1 
 1372000    1.0350504   -7.3015752    493.57703  0.029979168  0.030302899            2 
 1373000     1.039823   -7.3054819     494.0917  0.029988571  0.030294154            1 
 1374000    1.0408234   -7.3277017    493.95978  0.029958745  0.030285508            1 
 1375000    1.0256993   -7.3231582    493.24573  0.029893681  0.030276776            4 
 1376000    1.0198118   -7.2920356    494.01969  0.029918828  0.030268042            1 
 1377000    1.0209774    -7.275831    493.95676  0.029893292  0.030259335            2 
 1378000    1.0349802   -7.3130199    495.09651  0.029940524  0.030250657            2 
 1379000    1.0232398   -7.2480154    497.41057  0.030058652  0.030242019            3 
 1380000    1.0379105   -7.2766866    495.34451  0.029912108  0.030233378            2 
 1381000    1.0185764   -7.2850084     496.1533  0.029939253  0.030224762            2 
 1382000    1.0218261    -7.264418    496.49327  0.029938089  0.030216231            3 
 1383000    1.0184002   -7.2826394    496.93407  0.029943002  0.030207644            3 
 1384000    1.0407012   -7.2871145    496.08964  0.029870522  0.030198993            6 
 1385000    1.0307746   -7.3041372    496.31907   0.02986276    0.0301902            1 
 1386000    1.0196072   -7.2839338    496.11512  0.029828951  0.030181498            4 
 1387000    1.0506068   -7.2990862    496.34901  0.029821498  0.030172718            2 
 1388000    1.0304051   -7.2733241    496.90794   0.02983357  0.030164107            2 
 1389000    1.0203374   -7.3011991    495.74668  0.029742421  0.030155544            1 
 1390000    1.0248147   -7.2582261    498.11194  0.029862826  0.030146862            3 
 1391000    1.0324366   -7.2868851    497.18015  0.029785535  0.030138193            2 
 1392000    1.0316182   -7.2650771    498.87074  0.029865346  0.030129757            2 
 1393000    1.0485365   -7.3056619    497.86055  0.029783474  0.030121319            1 
 1394000    1.0315578   -7.3023141    497.63087  0.029748378  0.030112761            2 
 1395000      1.02451   -7.3080912    497.53137  0.029721109  0.030104005            1 
 1396000    1.0419124   -7.3111475    498.94695  0.029784321  0.030095454            2 
 1397000    1.0315094   -7.2722502    499.90146  0.029819939  0.030086913            2 
 1398000    1.0432437   -7.2749832    501.64173  0.029902344  0.030078681            1 
 1399000    1.0343467   -7.2775611    500.48735  0.029812208  0.030070364            2 
 1400000    1.0302736   -7.2994011    501.13419  0.029829416  0.030062009            2 
 1401000    1.0018575   -7.2951148    501.86611   0.02985166    0.0300536            2 
 1402000    1.0205303   -7.2720943     501.0054  0.029779208  0.030045232            2 
 1403000    1.0246191   -7.2943642    500.81014  0.029746385  0.030036752            2 
 1404000    1.0273681   -7.3345062    501.41121  0.029760874   0.03002826            2 
 1405000    1.0055638   -7.2917516    501.26748  0.029731167  0.030019632            2 
 1406000    1.0290719   -7.2979553    502.62611  0.029790547  0.030011083            2 
 1407000    1.0254211   -7.2790712    503.01201   0.02979223   0.03000254            2 
 1408000    1.0564394   -7.2653995    502.65949  0.029750206  0.029994114            1 
 1409000    1.0388455   -7.3051541     503.3931  0.029772481  0.029985859            7 
 1410000    1.0256102   -7.2761733    503.95444  0.029784541  0.029977355            2 
 1411000    1.0069744   -7.2865423    504.03275  0.029768058  0.029969011            2 
 1412000    1.0158194   -7.2892868    504.14267  0.029753462  0.029960698            1 
 1413000    1.0407519   -7.3023685    504.83395  0.029773175  0.029952421            1 
 1414000    1.0208533   -7.2834602    504.41126  0.029727208  0.029944205            2 
 1415000    1.0171917   -7.2926329    504.98619  0.029740058  0.029936068            1 
 1416000    1.0419101   -7.2834599    504.87518  0.029712522  0.029928007            2 
 1417000    1.0271673    -7.301734    505.69401  0.029739709  0.029919896            1 
 1418000    1.0161455   -7.2729387    504.88424  0.029671147  0.029911728            5 
 1419000      1.01081      -7.3224     504.2655  0.029613901  0.029903367            4 
 1420000    1.0234993   -7.2605053    505.13421  0.029644026  0.029894938            2 
 1421000    1.0251503   -7.2864897    505.70242  0.029656487  0.029886507            2 
 1422000    1.0169676   -7.2690154    506.11674  0.029659912  0.029878129            2 
 1423000    1.0081305   -7.3029312    506.12973  0.029639829  0.029869671            4 
 1424000    1.0258796   -7.3041877    508.39247  0.029751432   0.02986134            1 
 1425000     1.031108   -7.2852511    507.89627  0.029701536  0.029852987            2 
 1426000    1.0212553   -7.2824754    506.70685    0.0296112  0.029844539            5 
 1427000     1.003063   -7.3210227    505.53709  0.029522138  0.029835994            2 
 1428000    1.0468964   -7.3065157    505.48883  0.029498648  0.029827474            3 
 1429000    1.0129827   -7.2970561    506.31332  0.029526086  0.029818948            1 
 1430000     1.013552   -7.2855324    506.84169  0.029536229  0.029810359            3 
 1431000    1.0225981   -7.3179104    506.43745  0.029492048  0.029801596            2 
 1432000    1.0271493   -7.3085604     507.6926  0.029544495  0.029792999            1 
 1433000    1.0056627   -7.2933965    506.67986  0.029464984  0.029784447            2 
 1434000    1.0194501    -7.331796    506.95486  0.029460417  0.029775831            1 
 1435000   0.99397907   -7.2849842    508.49556  0.029529359  0.029767188            3 
 1436000    1.0136119   -7.2770101    507.74363   0.02946516  0.029758632            1 
 1437000    1.0227923   -7.2888616    508.12308   0.02946666  0.029750195            1 
 1438000     1.014454   -7.3144559    509.51684  0.029526938  0.029741736            4 
 1439000    1.0287567    -7.296427    511.68412  0.029631927  0.029733246            1 
 1440000     1.007467   -7.3277169    509.32299   0.02947471  0.029724717            1 
 1441000    1.0327744   -7.3078517    508.70165  0.029418324   0.02971634            2 
 1442000    1.0221037   -7.3112206    508.70341  0.029398024  0.029707992            1 
 1443000    1.0341331   -7.2946268    511.35895  0.029531009  0.029699749            3 
 1444000    1.0285461    -7.336676    510.13522  0.029439937   0.02969148            2 
 1445000    1.0357912   -7.3175338    511.41789  0.029493535  0.029683299            2 
 1446000     1.021925   -7.3098649    511.47081  0.029476188  0.029675173            2 
 1447000    1.0221572   -7.2470829    512.36145   0.02950711   0.02966705            3 
 1448000    1.0262511   -7.3288451    510.79889  0.029396805  0.029658897            8 
 1449000    1.0402575    -7.305676     512.5008  0.029474396  0.029650604            2 
 1450000    1.0262901   -7.3256423    511.08113  0.029372478  0.029642174            2 
 1451000    1.0288161   -7.3106524    510.83271  0.029337969  0.029633657            2 
 1452000    1.0263305   -7.3226854    513.35809    0.0294627  0.029625237            2 
 1453000    1.0146286   -7.3146616    512.52515  0.029394652  0.029616927            1 
 1454000   0.99313323   -7.3245114    513.00574   0.02940198  0.029608624            2 
 1455000    1.0224961   -7.3309661    513.01283  0.029382178  0.029600458            5 
 1456000   0.99867307   -7.2590122    514.77078  0.029462613  0.029592377            1 
 1457000    1.0355346   -7.3108712     514.2779  0.029414201  0.029584237            1 
 1458000    1.0092736   -7.3074167    513.13275  0.029328575  0.029576037            3 
 1459000    1.0116527   -7.3196776    513.98864  0.029357359  0.029567774            3 
 1460000    1.0252568   -7.3098566    513.90902  0.029332707  0.029559416            1 
 1461000    1.0101889   -7.3009906    514.42025  0.029341789  0.029550992            1 
 1462000   0.99828971   -7.3225547    513.58963  0.029274375  0.029542493            3 
 1463000    1.0374277    -7.284209    514.50463  0.029306484   0.02953408            5 
 1464000     1.013365   -7.3092104    513.18744  0.029211489  0.029525586            4 
 1465000    1.0197043   -7.3204631    513.65486  0.029218137   0.02951708            4 
 1466000    1.0203659   -7.3182387    514.12743   0.02922507  0.029508521            2 
 1467000    1.0107198   -7.3054385    514.87221  0.029247456  0.029499874            2 
 1468000    1.0293599   -7.3165113     515.3862   0.02925671  0.029491223            3 
 1469000   0.99301437   -7.2959796    515.47023   0.02924156  0.029482503            5 
 1470000    1.0138011   -7.3154165    514.96774  0.029193182  0.029473806       -1e+20 
 1471000     1.033378   -7.3114601    513.88947  0.029112252  0.029465157            1 
 1472000    1.0129886   -7.3265581    515.70814  0.029195433   0.02945652            2 
 1473000     1.024995   -7.3188573    515.30156  0.029152611  0.029447889            1 
 1474000    1.0187504   -7.3243399    516.05363  0.029175352   0.02943921            1 
 1475000    1.0128132   -7.3008643    516.59964   0.02918642  0.029430533            3 
 1476000    1.0216401   -7.3373198    514.17311  0.029029647  0.029421814            3 
 1477000    1.0304909     -7.32293    516.34194   0.02913236  0.029413069            2 
 1478000    1.0046825   -7.3436718    515.74321  0.029078891  0.029404303            1 
 1479000     1.011506   -7.3623387    515.70837  0.029057267  0.029395551            1 
 1480000     1.017644   -7.3170764    517.50888  0.029139013   0.02938676            1 
 1481000    1.0063255   -7.3536988    515.71859  0.029018601   0.02937808            4 
 1482000    1.0244162   -7.2832793    517.53522  0.029101171  0.029369369            2 
 1483000    1.0228386   -7.3540266    516.68331  0.029033677  0.029360577            2 
 1484000    1.0276415   -7.3492612    517.57568  0.029064223  0.029351953            1 
 1485000    1.0095612   -7.3459623    518.36552  0.029088974  0.029343422            3 
 1486000    1.0259652   -7.3130375     518.7818  0.029092743  0.029335014            2 
 1487000   0.99705419   -7.3569259    518.39834  0.029051689  0.029326616            1 
 1488000    1.0140235   -7.3089156    520.40119  0.029144332   0.02931827            2 
 1489000    1.0217447   -7.3419488    518.86753  0.029038926  0.029309844            2 
 1490000     1.013811   -7.3165276    520.70463  0.029122183  0.029301362            3 
 1491000    1.0224362   -7.3179062     519.1699  0.029016873  0.029292719            2 
 1492000    1.0196922   -7.3598029    518.67365  0.028969708  0.029284185            2 
 1493000    1.0168207   -7.3635596    519.86438  0.029016766  0.029275701            2 
 1494000    1.0329533   -7.3290143     519.1596  0.028958032  0.029267236            1 
 1495000    1.0205692   -7.3640506     520.8117  0.029030752  0.029258792            1 
 1496000    1.0273736   -7.3132221    519.83396  0.028956883  0.029250372            4 
 1497000    1.0091924    -7.344335    519.92365  0.028942533  0.029241916            3 
 1498000    1.0057076   -7.3205193    521.68863  0.029021397  0.029233557            2 
 1499000    1.0118694   -7.3519422    521.98144  0.029018314  0.029225148            2 
 1500000    1.0270122   -7.3237831    522.67012  0.029037229  0.029216701            1 
 1501000    1.0445252   -7.3379437    521.38129  0.028946329  0.029208322            3 
 1502000   0.99728162   -7.3214018    522.61483  0.028995497  0.029199923            2 
 1503000    1.0218249   -7.3472986    521.53845  0.028916525  0.029191384            4 
 1504000   0.99543394   -7.2837446    522.83426  0.028969097  0.029182856            2 
 1505000    1.0178654   -7.3273357    522.99416  0.028958702  0.029174399            3 
 1506000    1.0039402   -7.3198716    523.33458   0.02895831  0.029166008            2 
 1507000    1.0250736    -7.328811    523.92711   0.02897186  0.029157696            2 
 1508000    1.0125482   -7.3072488    522.50681  0.028874161  0.029149235            2 
 1509000    1.0274645   -7.3189675    524.39244  0.028959158  0.029140856            1 
 1510000    1.0262837   -7.3184477    524.69587  0.028956726  0.029132436            1 
 1511000    1.0055121   -7.3475594    522.59767  0.028821844  0.029123986            4 
 1512000   0.99559809   -7.3583459    522.92525  0.028820836   0.02911542            2 
 1513000    1.0112789   -7.3255994    524.09409  0.028866165  0.029106892            1 
 1514000     1.038999   -7.3198146    523.86571  0.028834528  0.029098264            2 
 1515000    1.0154428    -7.309725    523.59023  0.028800342   0.02908972            2 
 1516000    1.0067037   -7.2989675     524.3432  0.028822735  0.029081194            1 
 1517000    1.0264444   -7.3452925    524.55306  0.028815264  0.029072508            3 
 1518000    1.0224602    -7.350332    524.43882   0.02879001  0.029063906            2 
 1519000     1.018125   -7.3712155    524.40734  0.028769329  0.029055352            7 
 1520000    1.0379963   -7.3504648    523.49574  0.028700424  0.029046687            1 
 1521000   0.98308269   -7.3419499    524.95138  0.028761307  0.029038104            1 
 1522000    1.0017715   -7.3613739    526.02537  0.028801214  0.029029549            1 
 1523000   0.99029281   -7.3738802      527.005  0.028835905  0.029020988            4 
 1524000    1.0126879   -7.3283958    526.29815  0.028778333  0.029012621            2 
 1525000    1.0220007   -7.3071139    527.05432  0.028800783  0.029004285            3 
 1526000     1.013302   -7.3588639     527.6921  0.028816738  0.028995964            3 
 1527000     1.016164   -7.3504644    526.83695  0.028751198  0.028987607            1 
 1528000    1.0168992   -7.3424971    527.58432  0.028773141  0.028979198            1 
 1529000   0.99757277   -7.3238143    528.22119  0.028789034  0.028970896            2 
 1530000    1.0117646   -7.3829191    528.70635  0.028796642  0.028962551            2 
 1531000    1.0043715   -7.3153405    529.28517  0.028809339  0.028954283            4 
 1532000   0.99409594   -7.3505857    529.29323  0.028790972  0.028945925            1 
 1533000    0.9779514   -7.3329792     527.6665  0.028683763  0.028937654            2 
 1534000   0.99880933   -7.3013036    529.85162  0.028783769  0.028929299            2 
 1535000    1.0217562   -7.3259083    528.98255  0.028717837  0.028921033            4 
 1536000   0.98911647   -7.3265608    528.96343  0.028698103  0.028912831            2 
 1537000    1.0096154    -7.370002     529.7757  0.028723471  0.028904529            2 
 1538000   0.98735486   -7.3032273    530.83362  0.028762117  0.028896305            2 
 1539000     1.018139   -7.2923565    529.67679  0.028680788  0.028887957            1 
 1540000   0.97680667   -7.3235946    530.81122  0.028723551  0.028879657            3 
 1541000    1.0039243   -7.3241502    528.88077  0.028600518  0.028871426            2 
 1542000    1.0010498   -7.3090898    532.03113  0.028752223  0.028863154            1 
 1543000    1.0261888   -7.3204812    532.88541  0.028779726  0.028854891            1 
 1544000   0.96671998   -7.3549044    530.85748  0.028651634  0.028846473            3 
 1545000    1.0081195   -7.3118916    531.08321  0.028645265   0.02883811            2 
 1546000    0.9901305   -7.3422784    531.34803  0.028641011  0.028829787            2 
 1547000    1.0196383   -7.3273528    530.83399  0.028594807  0.028821553            2 
 1548000    1.0131794   -7.3103203    531.02304  0.028586512  0.028813138            2 
 1549000    1.0127691   -7.3284134    533.51744  0.028702251  0.028804789            2 
 1550000   0.98961098   -7.3126204    531.73722  0.028588023  0.028796429            7 
 1551000   0.99865762   -7.3825767    532.42901   0.02860676  0.028787984            1 
 1552000    1.0018492   -7.3342583    533.20049  0.028629751  0.028779622            2 
 1553000    1.0051819   -7.3621375    531.35591  0.028512337  0.028771344            2 
 1554000    1.0235169   -7.3495632    532.40207  0.028550089  0.028763044            1 
 1555000   0.98314669   -7.3534206    532.99859  0.028563697  0.028754721            1 
 1556000   0.98799258   -7.3527876    532.61969  0.028525048  0.028746293            4 
 1557000    1.0037325      -7.3696    532.36255  0.028492965  0.028737835            1 
 1558000     1.003941   -7.3469604    533.93034  0.028558534  0.028729523            2 
 1559000   0.98840789   -7.3795505    534.18713  0.028553941  0.028721162            1 
 1560000   0.98867887   -7.3319464    535.36004  0.028598293  0.028712859            1 
 1561000   0.99837585   -7.3490621    533.92442  0.028503332  0.028704555            3 
 1562000   0.99454436   -7.3336964    534.76888  0.028530137  0.028696211            1 
 1563000    0.9939261   -7.3417065    534.53343   0.02849933   0.02868783            1 
 1564000    1.0210709   -7.3249881    534.89078  0.028500148  0.028679513            4 
 1565000   0.98786938   -7.3858106    534.11769  0.028440771  0.028671155            2 
 1566000    1.0206253   -7.3602443    535.40335  0.028491025  0.028662643            2 
 1567000    1.0077961   -7.3763032    534.45238  0.028422271   0.02865421            2 
 1568000    1.0089078   -7.3751965    533.95844  0.028377893  0.028645763            2 
 1569000    1.0065104   -7.3957118    534.28318  0.028377054  0.028637351            4 
 1570000    1.0077675   -7.3786721    535.73553  0.028436068  0.028628815            4 
 1571000    0.9990461   -7.3926671    534.16898   0.02833487  0.028620249            4 
 1572000    1.0172249   -7.3689626    536.44193  0.028437337  0.028611822            2 
 1573000   0.98819242    -7.331132    536.86559  0.028441703   0.02860338            2 
 1574000    1.0045447   -7.3255253    536.10756  0.028383501  0.028594863            1 
 1575000   0.99653737    -7.344049      534.914  0.028302328  0.028586302            2 
 1576000    1.0178185   -7.3802626    535.76042  0.028329125  0.028577634            6 
 1577000   0.99541865   -7.3416049    536.93044  0.028372989  0.028569106            1 
 1578000   0.99482909   -7.3286419    536.60212   0.02833767  0.028560604            1 
 1579000    1.0110771   -7.3376679    536.24016   0.02830062  0.028552043            1 
 1580000   0.97728567   -7.3404572    536.04527   0.02827243  0.028543477            1 
 1581000   0.99647761   -7.3510071    536.44377  0.028275552  0.028534993            2 
 1582000   0.97798313   -7.3709894     537.0025   0.02828711  0.028526451            2 
 1583000    1.0070217   -7.3528221    537.55364  0.028298254  0.028518108            1 
 1584000   0.98621461   -7.3231158    538.58635  0.028334719  0.028509607            1 
 1585000   0.98061223   -7.3450786    538.45108  0.028309731  0.028501226            2 
 1586000   0.99064791    -7.388493    538.13226  0.028275129  0.028492935            2 
 1587000    1.0006129   -7.3590121     538.3329  0.028267848  0.028484474            1 
 1588000    1.0171331   -7.3522559    538.85181  0.028277278  0.028476025            1 
 1589000   0.98724669   -7.3413877    539.90023  0.028314466  0.028467601            1 
 1590000    1.0182858    -7.360493     537.7673  0.028184869  0.028459162            2 
 1591000    1.0195665   -7.3642945    538.25383  0.028192637  0.028450548            3 
 1592000   0.98306426   -7.3454681    540.04226  0.028268544  0.028442013            2 
 1593000    1.0089865   -7.3804273     539.5407  0.028224561  0.028433505            1 
 1594000   0.98430891   -7.3656371     539.4701  0.028203163   0.02842495            2 
 1595000   0.98985012   -7.3804423    538.88132  0.028154719   0.02841636            4 
 1596000   0.99381799   -7.3574461    539.41444  0.028164914  0.028407758            1 
 1597000    1.0173249   -7.3573037    538.45127  0.028097019  0.028399212            1 
 1598000   0.98742201   -7.3056322    540.98514  0.028211574   0.02839067            1 
 1599000   0.98109771   -7.3529888     540.1228  0.028148989  0.028382141            1 
 1600000   0.99256524   -7.3230488    541.25056  0.028190133  0.028373768            1 
 1601000   0.99279046   -7.3587634    541.31743  0.028176006  0.028365261            1 
 1602000    1.0034723    -7.370333     541.2186  0.028153277   0.02835676            1 
 1603000   0.98692437    -7.381153    539.66941  0.028055178  0.028348251            3 
 1604000    1.0141103   -7.3672958     540.2698   0.02806888  0.028339757            1 
 1605000   0.99453104   -7.3876475    540.75831  0.028076755  0.028331184            1 
 1606000   0.99318746   -7.3761666    543.55671  0.028204478  0.028322581            1 
 1607000    1.0221319   -7.3249258    543.11221  0.028163877  0.028314141            1 
 1608000    0.9863662   -7.3780673    541.76659  0.028076627   0.02830574            2 
 1609000    0.9999211   -7.3618066    541.35365   0.02803779  0.028297373            3 
 1610000   0.99543866   -7.3577175    543.22793  0.028117388    0.0282889            3 
 1611000   0.99646918   -7.3645852    541.52669  0.028011933  0.028280451            4 
 1612000    0.9941589   -7.3590286    543.68551  0.028106158  0.028272022            2 
 1613000   0.99059257    -7.382746    543.53133  0.028080767  0.028263717            2 
 1614000    1.0125018   -7.3746067    543.03476   0.02803773  0.028255404            3 
 1615000   0.97755822   -7.3502251    544.77406  0.028110117  0.028247243            2 
 1616000    1.0042109   -7.3742492    544.78123  0.028093091  0.028238997            2 
 1617000   0.99433573    -7.355615    545.32819  0.028103906  0.028230792            1 
 1618000   0.99584113   -7.3705416     545.8946  0.028115708  0.028222649            3 
 1619000    1.0043154   -7.4282508    543.30097  0.027964843  0.028214378            2 
 1620000    1.0103723   -7.3925893    544.60977  0.028014906   0.02820604            8 
 1621000   0.99124086   -7.3676798    546.48917  0.028094241  0.028197758            3 
 1622000    1.0088498   -7.3830781     544.7526    0.0279877  0.028189461            1 
 1623000    1.0043689   -7.3842992    545.21961  0.027994435  0.028181178            1 
 1624000   0.98674799   -7.3600584    545.76463  0.028005164  0.028172901            6 
 1625000   0.98250282    -7.376343    545.70404  0.027984822  0.028164659            2 
 1626000    1.0066004   -7.3475768    547.05365   0.02803678  0.028156365            6 
 1627000   0.99646599   -7.3737928    545.03431  0.027916119  0.028148151            2 
 1628000   0.99760549   -7.3748782    545.79465  0.027937891    0.0281398            2 
 1629000   0.98768144   -7.3651581    545.74253  0.027918075  0.028131499            6 
 1630000    1.0192745    -7.361541    546.54947  0.027942202  0.028123228            3 
 1631000   0.98565952   -7.3602815    547.10289  0.027953346  0.028114906            2 
 1632000   0.98634499   -7.3406979    546.01328   0.02788058  0.028106453            1 
 1633000    1.0023513   -7.3597002    546.39177  0.027882821  0.028097939            2 
 1634000   0.98632407   -7.3709854    545.90044    0.0278407   0.02808946            3 
 1635000    1.0150053   -7.3882732    545.49741   0.02780313  0.028080824            3 
 1636000    1.0323558   -7.3932953    546.26239  0.027825101   0.02807224            2 
 1637000   0.98881961   -7.3934942    547.56056  0.027874189  0.028063662            2 
 1638000   0.98617433   -7.3963549    546.00044    0.0277778  0.028055021            1 
 1639000    1.0095608   -7.4083521     546.9047  0.027806828  0.028046442            2 
 1640000   0.97864211   -7.3804704     547.1318  0.027801413  0.028037807            1 
 1641000   0.98504807   -7.3879357    546.60574  0.027757757  0.028029169            1 
 1642000     1.009764   -7.3917001    548.57308  0.027840696  0.028020649            1 
 1643000   0.96593318   -7.4086961    547.98052  0.027793696  0.028012179            1 
 1644000   0.99378002   -7.3506394    548.92574  0.027824703  0.028003644            1 
 1645000    1.0116425    -7.382892     547.5283  0.027736996  0.027995182            2 
 1646000   0.99468346   -7.3659786    549.24758  0.027807188  0.027986685            1 
 1647000   0.97968207   -7.3294002    549.10593  0.027783138  0.027978194            3 
 1648000   0.99304044   -7.3854799    550.51347  0.027837453  0.027969794            2 
 1649000   0.98970301   -7.4308809    549.88515  0.027788819  0.027961373            2 
 1650000   0.97342523   -7.3799452    548.94998  0.027724746   0.02795309            2 
 1651000   0.99201079   -7.3480898    550.97341  0.027810085  0.027944759            1 
 1652000   0.98353797   -7.3866476    548.59977  0.027673516  0.027936303            3 
 1653000   0.96905528   -7.3343941    551.08004  0.027781813  0.027927918            2 
 1654000   0.96723056   -7.3674798    551.26685  0.027774428  0.027919606            1 
 1655000    1.0072711   -7.3803249    549.78309  0.027682935  0.027911225            2 
 1656000    0.9733941   -7.3945841    552.82988  0.027819539  0.027902861            2 
 1657000   0.98493723   -7.3638476     551.4623  0.027733972  0.027894576            1 
 1658000   0.97444345   -7.3713615    551.74288  0.027731347  0.027886353            2 
 1659000   0.98580736   -7.3921374    550.02478   0.02762833  0.027878071            2 
 1660000   0.98991557   -7.3730269    552.24015  0.027722899  0.027869782            1 
 1661000   0.99088751   -7.4040586    551.99571  0.027693945    0.0278614            2 
 1662000    1.0049109   -7.4098808    551.48564  0.027651707  0.027852957            2 
 1663000    0.9913515     -7.38341    550.30381  0.027575857  0.027844513            4 
 1664000    0.9709137   -7.3931168    552.85326  0.027686962  0.027836094            4 
 1665000   0.99050399   -7.3765704    552.78457  0.027666895  0.027827643            1 
 1666000   0.98254626   -7.3832705    552.25055  0.027623577  0.027819241            1 
 1667000   0.98105352   -7.3528075    552.82147  0.027635546  0.027810938            2 
 1668000    0.9838892   -7.4034259    553.86763  0.027671244  0.027802594            6 
 1669000    0.9431743   -7.4003517    553.79894  0.027651235  0.027794322            2 
 1670000   0.96466025   -7.3891064    553.06042  0.027597825  0.027786049            1 
 1671000    1.0203082   -7.4207254    553.72893  0.027614649  0.027777698            3 
 1672000   0.96402549   -7.3833467    554.49499  0.027636313  0.027769356            4 
 1673000   0.98006323   -7.3972484    554.46917  0.027618508  0.027761002            4 
 1674000   0.94264565   -7.3903955    553.69037   0.02756324  0.027752639            2 
 1675000   0.97985468   -7.4011828    553.12061  0.027518438  0.027744158            1 
 1676000   0.99478986   -7.4139464    555.08931  0.027599906  0.027735779            2 
 1677000   0.97789339   -7.4175918    553.68883  0.027513856  0.027727414            3 
 1678000   0.98360327   -7.3711957    555.35014  0.027579963  0.027719124            4 
 1679000   0.97934445   -7.3855516    557.28466  0.027659552  0.027710886            2 
 1680000    1.0097869   -7.3358225    556.68646  0.027613415  0.027702675            2 
 1681000    1.0071124   -7.3771145    555.90175  0.027558088  0.027694463            2 
 1682000   0.98912066   -7.3721266    554.71628  0.027482971   0.02768614            1 
 1683000      1.00834   -7.3941042    556.46796  0.027553375  0.027677868            2 
 1684000   0.99179835   -7.3855114    555.61094  0.027494603  0.027669605            1 
 1685000   0.97368178   -7.3731173    557.01765  0.027547856  0.027661364            2 
 1686000   0.99075187   -7.4004259    555.66506  0.027464663   0.02765318            2 
 1687000   0.99425281   -7.3950868    556.38168  0.027483782   0.02764492            1 
 1688000   0.97476736   -7.3650006    556.47746  0.027472228  0.027636719            2 
 1689000   0.97348325   -7.3808155    557.13401  0.027488357  0.027628506            3 
 1690000   0.97596605   -7.3968121    556.80904  0.027456067  0.027620331            3 
 1691000   0.99745579   -7.3959426     557.3298  0.027465494  0.027612218            1 
 1692000   0.99557943   -7.3722775    557.64462  0.027464766  0.027604019            1 
 1693000   0.98081587   -7.3959319    558.44511  0.027487946  0.027595778            2 
 1694000   0.97393323   -7.4198316    556.16778   0.02735969  0.027587415            2 
 1695000   0.98154583   -7.4209257    557.39945  0.027404103  0.027578996            2 
 1696000   0.97158199   -7.4003112    557.20211  0.027378248  0.027570706            3 
 1697000   0.97969678   -7.3678735    558.91455  0.027446207  0.027562497            1 
 1698000   0.99318451   -7.3785412    557.40117   0.02735577  0.027554305            1 
 1699000   0.97217046   -7.4114344    558.52684  0.027394881  0.027546073            3 
 1700000   0.97178923   -7.3758784     558.2383  0.027364623  0.027537785            1 
 1701000   0.96909032   -7.3918403    559.12834  0.027392139  0.027529601            1 
 1702000   0.96470099    -7.422089    558.66389  0.027353304  0.027521353            1 
 1703000   0.97089945   -7.3938271     560.4553  0.027424902  0.027513069            1 
 1704000   0.96176865   -7.4351076    559.65242  0.027369543   0.02750498            1 
 1705000   0.97259715   -7.3907002    560.82187  0.027410649  0.027496747            1 
 1706000    0.9827211   -7.3696337    561.97852  0.027451081  0.027488648            2 
 1707000   0.97497657   -7.4098315    559.90614  0.027333828  0.027480541            2 
 1708000   0.96804183   -7.3844038    560.67799  0.027355484  0.027472364            3 
 1709000   0.97510636   -7.4200028    562.52877  0.027429724  0.027464287            3 
 1710000   0.98028583   -7.3837949     560.6528  0.027322261   0.02745624            2 
 1711000   0.99365917    -7.409989    561.47768  0.027346468  0.027448085            3 
 1712000   0.96831423   -7.4284811    561.38233  0.027325853  0.027439967            2 
 1713000   0.99615992   -7.3881105    562.29093  0.027354102   0.02743188            1 
 1714000   0.97042325   -7.3912372    561.23489  0.027286799  0.027423808            5 
 1715000   0.95696093   -7.3905766    563.28445  0.027370479   0.02741584            2 
 1716000   0.98230681   -7.4074435    562.60743  0.027321651  0.027407887            2 
 1717000   0.96916266   -7.4003069    563.54257  0.027351125  0.027399887            2 
 1718000   0.94271534   -7.4053666    565.48959  0.027429646  0.027391851            1 
 1719000   0.96724814   -7.4123131    564.59122  0.027370139  0.027383892            2 
 1720000   0.95581984   -7.4029237    562.87496  0.027271074  0.027375871            1 
 1721000   0.98128738   -7.4032643    564.44858  0.027331425  0.027367911            5 
 1722000   0.96580521   -7.4021172    563.56433  0.027272761  0.027359827            3 
 1723000   0.98706201    -7.417371    562.94476  0.027226967   0.02735175            5 
 1724000   0.96740593   -7.4390329    564.00739  0.027262538   0.02734374            3 
 1725000   0.99969253   -7.4372111    563.34995  0.027214974  0.027335732            2 
 1726000   0.98459116   -7.3765823    565.01437  0.027279566  0.027327776            3 
 1727000   0.97510928   -7.3843095     566.8817  0.027353875  0.027319931            3 
 1728000   0.97259837   -7.4365998    564.29743  0.027213418  0.027312025            2 
 1729000   0.96963199   -7.4278237    565.52163  0.027256682  0.027303988            1 
 1730000   0.96470622   -7.4387363     565.3057  0.027230525  0.027296055            1 
 1731000   0.99290669    -7.450668    565.49395  0.027223856  0.027288104            2 
 1732000   0.97823744   -7.3823164    566.54969  0.027258935  0.027280116            1 
 1733000   0.98000084    -7.416959    566.34633  0.027233426  0.027272201            2 
 1734000     0.977294   -7.4214678     566.6966  0.027234554  0.027264262            1 
 1735000   0.94880513   -7.4337051    566.60025  0.027214229  0.027256429            3 
 1736000   0.97098066   -7.4082109    567.76329  0.027254382  0.027248551            2 
 1737000   0.97806279   -7.3975695    569.88064  0.027340272  0.027240736            2 
 1738000   0.95870863   -7.4284072     567.4826  0.027209561  0.027232912            5 
 1739000   0.97147361   -7.4078766     568.4007   0.02723791  0.027225178            2 
 1740000   0.97610258   -7.4210292    567.63879  0.027185766   0.02721749            1 
 1741000   0.99072123   -7.4225887    567.50433  0.027163715  0.027209754            3 
 1742000   0.96932776   -7.4367807    567.23848  0.027135404  0.027201958            2 
 1743000   0.98550005   -7.4006119    568.08423  0.027160271  0.027194006            2 
 1744000   0.96282731   -7.3875647    567.29391  0.027106934  0.027186061            5 
 1745000   0.97466237    -7.431855    567.73324   0.02711238  0.027178007            2 
 1746000   0.97337706   -7.4305876    569.38101  0.027175497      0.02717            2 
 1747000   0.99873189   -7.4273382    568.47493  0.027116721  0.027161996            4 
 1748000   0.98212072   -7.3955579    567.15395  0.027038232  0.027154019            1 
 1749000   0.97639261   -7.3984675    567.50125   0.02703932  0.027146023            2 
 1750000   0.96034678   -7.4295156    568.40462  0.027066887  0.027138014            6 
 1751000   0.97028942   -7.4230809    569.96128  0.027125513  0.027130047            2 
 1752000   0.98438663    -7.418557    569.06163  0.027067239  0.027122106            1 
 1753000   0.98480959    -7.400779    570.89514  0.027138959  0.027114192            2 
 1754000   0.97713964   -7.4400069    569.28601  0.027047036  0.027106256            3 
 1755000   0.95511458   -7.4175715     571.6157  0.027142246  0.027098329            2 
 1756000     0.969164   -7.4027298    571.05001  0.027099943  0.027090497            2 
 1757000   0.99366044   -7.4125127     570.6773  0.027066842  0.027082617            1 
 1758000   0.95344135   -7.4201781    570.70051  0.027052546  0.027074804            2 
 1759000   0.96934481   -7.4418897     570.7675   0.02704034  0.027067005            1 
 1760000    0.9867521   -7.4288033    570.95024  0.027033629  0.027059194            1 
 1761000   0.96552031   -7.4195645    570.97279  0.027019344  0.027051318            4 
 1762000   0.96251332   -7.4195433    572.46346  0.027074511   0.02704351            3 
 1763000   0.96343421   -7.4492829    570.66335  0.026974066  0.027035704            3 
 1764000   0.98366826   -7.3920792    572.70146  0.027055058  0.027027936            3 
 1765000   0.95877444   -7.4191429    570.45916   0.02693386  0.027020137            1 
 1766000   0.95205484   -7.4199948    572.06445  0.026994359  0.027012272            2 
 1767000   0.96618748   -7.3912994     572.9932  0.027022882  0.027004388            3 
 1768000   0.98454707   -7.4100614    572.04443  0.026962878  0.026996508            3 
 1769000   0.97546357   -7.4210499    572.59002  0.026973338  0.026988633            1 
 1770000   0.98465286   -7.4081712    573.75579  0.027012985  0.026980867            2 
 1771000    0.9753827   -7.4524462    572.93428  0.026959076  0.026973122            3 
 1772000   0.96642178    -7.438399    572.62135  0.026929145  0.026965281            1 
 1773000     0.962885   -7.4382157    571.83564  0.026877028  0.026957327            2 
 1774000    0.9790103   -7.4337773    573.42196  0.026936394  0.026949314            1 
 1775000   0.97071285   -7.4555014    570.48907  0.026783525  0.026941388            2 
 1776000   0.97672768   -7.4342124    571.49509  0.026815648  0.026933335            3 
 1777000   0.97665226   -7.4103173    571.39332  0.026795785  0.026925288            1 
 1778000   0.97217499   -7.4502777       573.54  0.026881327  0.026917284            2 
 1779000   0.96931583   -7.4760005    571.34468  0.026763382  0.026909272            2 
 1780000   0.95974467    -7.400339    573.84089   0.02686521  0.026901282            3 
 1781000   0.97938761   -7.4184355    574.83543  0.026896661  0.026893427            2 
 1782000   0.97580689    -7.446259    573.22706  0.026806353  0.026885581            2 
 1783000   0.97573305   -7.4225634    574.94579  0.026871649  0.026877697            2 
 1784000   0.97921888   -7.4197976    574.75735  0.026847784  0.026869729            1 
 1785000   0.97345361   -7.4446034     574.5193  0.026821629  0.026861756            1 
 1786000   0.95485951   -7.3953095     574.3048  0.026796603  0.026853811            1 
 1787000   0.96697509   -7.3910037     576.5857  0.026887973  0.026845828            2 
 1788000   0.95801194   -7.4319401    574.08296   0.02675629  0.026837881            1 
 1789000   0.95805359    -7.428587     575.4812  0.026806465  0.026829995            3 
 1790000    0.9867079   -7.4216571    573.73842  0.026710355  0.026822162            3 
 1791000    0.9851283   -7.4206726    575.51812  0.026778249  0.026814276            4 
 1792000   0.97661707   -7.4571074    574.75962  0.026728033  0.026806338            2 
 1793000    0.9551108   -7.3936742    576.43944  0.026791199  0.026798458            2 
 1794000   0.94429236   -7.4438549    575.96032  0.026754009  0.026790413            1 
 1795000   0.96550438    -7.414595    576.04927  0.026743235  0.026782421            1 
 1796000   0.98673253   -7.4241122    576.30895  0.026740393   0.02677444            2 
 1797000   0.96423378   -7.4212581     576.9883  0.026757016  0.026766488            4 
 1798000   0.94948615   -7.4144251    576.26097  0.026708425  0.026758536            2 
 1799000   0.98162853   -7.4475619    575.11859  0.026640661  0.026750509            3 
 1800000   0.97297564   -7.4387054    575.54022   0.02664538  0.026742544            3 
 1801000   0.96100726   -7.4718078    576.43821  0.026672136  0.026734481            1 
 1802000   0.95875751   -7.4387574    577.61909  0.026711945  0.026726489            3 
 1803000   0.96559758   -7.4525185    577.69949  0.026700845  0.026718598            2 
 1804000   0.94949414   -7.4513387    576.63755   0.02663699  0.026710627            1 
 1805000   0.95456038   -7.4402288    578.56149  0.026711057  0.026702711            5 
 1806000   0.96319505   -7.4777413    576.98085  0.026623332  0.026694739            2 
 1807000   0.95067088    -7.433142    577.14099  0.026615984  0.026686707            2 
 1808000   0.98089884     -7.43593    579.28686  0.026700169  0.026678832            1 
 1809000   0.95968485   -7.4453431    577.55308  0.026605541  0.026671102            1 
 1810000   0.96110091   -7.4127018    578.06098  0.026614225  0.026663284            4 
 1811000   0.95551396   -7.4379099    580.95196  0.026732558  0.026655494            1 
 1812000    0.9689721   -7.4654056    579.47986  0.026650104   0.02664769            4 
 1813000   0.97627344   -7.4190209    579.35868  0.026629835  0.026639947            2 
 1814000   0.97714266   -7.4499459    580.27423  0.026657214  0.026632275            3 
 1815000   0.95395725   -7.4289597     578.8237  0.026575927  0.026624488            1 
 1816000   0.95948779   -7.4562827    579.56861  0.026595476  0.026616697            2 
 1817000   0.93091896   -7.4445301    579.72894  0.026588192  0.026609003            2 
 1818000   0.96349943    -7.431843     580.5644  0.026611863  0.026601322            1 
 1819000   0.93731993   -7.4347063     579.3979  0.026543792    0.0265936            2 
 1820000   0.96526467   -7.4451022    579.85325  0.026550057  0.026585886            1 
 1821000   0.97705567    -7.435443    582.02242  0.026634744  0.026578219            1 
 1822000    0.9430772   -7.4236313    582.43091  0.026638808  0.026570522            3 
 1823000     0.956191   -7.4608728    581.19571  0.026567732  0.026562802            7 
 1824000   0.96782179   -7.4481678    581.73064  0.026577606    0.0265551            1 
 1825000   0.94569371   -7.4531836    581.54429  0.026554534  0.026547502            1 
 1826000   0.95913757   -7.4112058     583.8568  0.026645527  0.026539819            3 
 1827000   0.99328303   -7.4443155    581.59407  0.026527735  0.026532159            1 
 1828000   0.94450748   -7.4580973    581.70641  0.026518345  0.026524389            2 
 1829000   0.93496423   -7.4414743    582.38367  0.026534703  0.026516724            2 
 1830000   0.94692448   -7.4448246    584.53647  0.026618236  0.026509065            3 
 1831000   0.95050068   -7.4511493    583.36656  0.026550453  0.026501406            2 
 1832000   0.97303641   -7.4333046     582.5166  0.026497298  0.026493671            2 
 1833000    0.9605306   -7.4312543    583.14627  0.026511469  0.026485971            1 
 1834000    0.9752281   -7.4406602    582.80578  0.026481542  0.026478334            3 
 1835000   0.91891305   -7.4446338    582.10863  0.026435451  0.026470533            2 
 1836000   0.94743959   -7.4460497    583.36533  0.026478093   0.02646283            1 
 1837000   0.95432246   -7.4663127    581.35853  0.026372642  0.026455079            3 
 1838000   0.95018999   -7.4564187    581.99145   0.02638699  0.026447265            3 
 1839000   0.95664706   -7.4587539    582.74494  0.026406785  0.026439336            4 
 1840000   0.95652012   -7.4359211    582.44254  0.026378738  0.026431524            1 
 1841000   0.95941346     -7.46954    583.78129  0.026425008   0.02642371            3 
 1842000    0.9578931   -7.4351841    584.10976  0.026425523  0.026415822            2 
 1843000     0.976141   -7.4824358    582.55776  0.026341009  0.026407969            1 
 1844000    0.9657617   -7.4463426    583.13562  0.026352839  0.026400103            5 
 1845000   0.96244244   -7.4304579    584.18714   0.02638605   0.02639231            2 
 1846000   0.95981784   -7.4670282    585.15021  0.026415232  0.026384517            2 
 1847000   0.95374617   -7.4432507    584.78147  0.026384293  0.026376674            1 
 1848000   0.96722868   -7.4646866    583.04447  0.026291688  0.026368749            4 
 1849000   0.94754429   -7.4430901    585.03388   0.02636713  0.026360944            1 
 1850000   0.96195931   -7.4813649    585.99035  0.026395962  0.026353197            3 
 1851000   0.94732757   -7.4963203    585.91056  0.026378109  0.026345444            1 
 1852000   0.94947755   -7.4776148    584.82268  0.026314916  0.026337665            2 
 1853000    0.9642975   -7.4571618    585.84908  0.026346874  0.026329975            3 
 1854000   0.96152456   -7.4615393    585.52111  0.026317921   0.02632224            5 
 1855000   0.95668107   -7.4900871    584.42316   0.02625441  0.026314513            2 
 1856000   0.97921973   -7.4808904    585.32963  0.026280964  0.026306835            3 
 1857000   0.95426457   -7.4554452    588.15451  0.026393579  0.026299152            1 
 1858000   0.96731281   -7.4493162    586.90925  0.026323522   0.02629155            2 
 1859000   0.94207569   -7.4341027    588.96779   0.02640164   0.02628394            1 
 1860000   0.95373265   -7.4517746    588.03977  0.026345868  0.026276344            2 
 1861000   0.96034354   -7.4621783    587.07316  0.026288427  0.026268661            3 
 1862000   0.92603585   -7.4515316    589.45046  0.026380705  0.026261075            2 
 1863000   0.96385962   -7.4332198     588.1404  0.026307944  0.026253509            2 
 1864000   0.94915302   -7.4835367    587.83966  0.026280385  0.026245879            2 
 1865000   0.93423285   -7.5021578    588.60397  0.026300445  0.026238331            1 
 1866000   0.94816579   -7.4679361    586.64582  0.026198902  0.026230688            3 
 1867000   0.94782814   -7.4337479     590.3551  0.026350433  0.026223129            2 
 1868000   0.95241232   -7.4558097    591.52951  0.026388719  0.026215681            2 
 1869000   0.95814787    -7.475024    591.31416  0.026364997    0.0262082            2 
 1870000   0.93774395   -7.4462916    590.83855  0.026329704  0.026200815            4 
 1871000    0.9393965    -7.456514    591.08662   0.02632668  0.026193515            4 
 1872000   0.97427986   -7.4530135    592.26322  0.026364994  0.026186134            6 
 1873000   0.96002889   -7.4630837    590.04753  0.026252337  0.026178706            2 
 1874000   0.96021094   -7.4668408    590.63677  0.026264531  0.026171273            3 
 1875000   0.95742073   -7.4782827    591.93637  0.026308283  0.026163917            3 
 1876000   0.95861164   -7.4502759    590.55528  0.026232911  0.026156497            3 
 1877000   0.94366419   -7.4580584    590.90371  0.026234404  0.026149103            1 
 1878000     0.947808   -7.4509829    591.16079  0.026231842  0.026141708            4 
 1879000   0.95068169   -7.4758874    592.65157  0.026283997  0.026134325            2 
 1880000   0.94413136   -7.4482722    593.18853  0.026293818  0.026126919            1 
 1881000   0.96543541   -7.4462926     592.0027  0.026227304  0.026119534            3 
 1882000   0.95753689   -7.4955579    592.09142  0.026217296  0.026112099            2 
 1883000   0.94780335   -7.4606618    592.66857  0.026228915   0.02610468            3 
 1884000   0.95613541   -7.4893452    590.81309  0.026132922  0.026097158            4 
 1885000   0.94349272   -7.5033182    591.43456  0.026146532  0.026089693            2 
 1886000   0.93437965   -7.4737442    591.78987  0.026148368  0.026082223            3 
 1887000   0.94818905   -7.4873346    591.88867  0.026138874    0.0260748            1 
 1888000   0.92956813   -7.4254187     594.1455  0.026224643  0.026067394            2 
 1889000   0.95473247   -7.4446647    591.51674  0.026094792  0.026060058            2 
 1890000   0.93632003   -7.4738223     594.1351  0.026196433  0.026052672            3 
 1891000   0.91590327   -7.4933792     594.2251  0.026186546  0.026045336            1 
 1892000   0.95035743   -7.4660771    592.96962  0.026117407  0.026037876            2 
 1893000   0.93798094   -7.4560741    594.90765  0.026188926  0.026030472            2 
 1894000   0.93255026   -7.4490357    594.78878  0.026169869  0.026023059            2 
 1895000    0.9474383   -7.4911491    594.07693  0.026124755  0.026015681            2 
 1896000   0.93698824   -7.4663895    593.89724  0.026103078  0.026008241            2 
 1897000   0.94735657   -7.4425837    595.42232  0.026156313  0.026000964            1 
 1898000   0.95856184   -7.4359583    596.13702  0.026173912   0.02599368            3 
 1899000   0.96015202   -7.4646664    595.29137   0.02612302  0.025986341            2 
 1900000    0.9393246   -7.4892139    596.50916  0.026162683  0.025978966            3 
 1901000   0.93947743   -7.4752171    594.14428  0.026045252  0.025971662            3 
 1902000   0.94551913   -7.4755275    595.12694  0.026074612  0.025964305            1 
 1903000   0.95969523    -7.472394    595.39525  0.026072659  0.025956941            2 
 1904000   0.93985164   -7.4829001    596.27945  0.026097665  0.025949551            2 
 1905000   0.92856809   -7.4958465     594.6766   0.02601385  0.025942043            1 
 1906000   0.93664405   -7.5093475    594.84464  0.026007548  0.025934552            2 
 1907000   0.93179598   -7.4697466    596.40756  0.026062208  0.025927155            2 
 1908000   0.92728349   -7.4833412    597.38246  0.026091128  0.025919815            3 
 1909000   0.95449455   -7.4831923    595.43391  0.025992401   0.02591245            2 
 1910000   0.94451175   -7.4478742    597.95356  0.026088724  0.025905129            2 
 1911000   0.95391323   -7.4502681    596.68009   0.02601954  0.025897796            3 
 1912000   0.94427413   -7.4862365    597.92675  0.026060266  0.025890458            2 
 1913000   0.94212434   -7.4808409     596.7775   0.02599658  0.025883154            3 
 1914000    0.9427478   -7.5116597    595.93048   0.02594612  0.025875818            1 
 1915000   0.94285695   -7.4519061    599.74028  0.026098358  0.025868573            3 
 1916000   0.94237019    -7.502169    597.95537  0.026007105  0.025861274            1 
 1917000   0.95652161   -7.5312108    597.78179  0.025985993  0.025853946            3 
 1918000   0.94893616   -7.4600877    597.58639  0.025963955  0.025846663            2 
 1919000   0.96043577   -7.4546665    597.79761  0.025959598  0.025839329            2 
 1920000   0.93408246   -7.5033652    597.17887  0.025919222  0.025832006            2 
 1921000   0.94509061   -7.4917869    598.94933  0.025982532  0.025824624            1 
 1922000   0.92044247   -7.4953694    598.00854  0.025928223  0.025817253            4 
 1923000   0.94037044   -7.4819458    598.30215  0.025927464  0.025809845            1 
 1924000   0.93422607   -7.4552775    598.30445  0.025914088   0.02580248            1 
 1925000   0.94532786   -7.4737381    599.53425  0.025953864  0.025795108            4 
 1926000   0.94787891   -7.4497059    599.71844  0.025948357  0.025787852            1 
 1927000   0.96362347    -7.476228    600.57238  0.025971821  0.025780554            1 
 1928000   0.93267174   -7.4973684    599.82815  0.025926182  0.025773256            3 
 1929000   0.93276707   -7.5360365    598.98014  0.025876108  0.025765874            6 
 1930000   0.94107478   -7.4770385    600.62479  0.025933713  0.025758546            1 
 1931000    0.9269221   -7.4891405    599.07318  0.025853322  0.025751308            3 
 1932000   0.94253932   -7.5132318    598.33781  0.025808222  0.025744056            3 
 1933000   0.93503122   -7.5053599     599.2094  0.025832445  0.025736775            2 
 1934000     0.948908   -7.5078876    599.79334   0.02584425  0.025729466            4 
 1935000   0.94120472   -7.4825965    601.49743  0.025904282  0.025722196            2 
 1936000   0.95052114   -7.5131005    602.34607  0.025927431  0.025714906            1 
 1937000   0.92342675   -7.4661071    601.67168  0.025885032  0.025707654            3 
 1938000   0.95194402   -7.4872072    601.42244  0.025860958  0.025700437            1 
 1939000   0.93810639   -7.4637926    600.79695  0.025820739   0.02569325            2 
 1940000   0.93493962   -7.4958026    601.71372  0.025846809  0.025685957            4 
 1941000   0.93372007   -7.4547933    603.36164  0.025904243  0.025678807            3 
 1942000   0.94798011   -7.5022539    600.72343  0.025777696  0.025671638            3 
 1943000   0.94236385   -7.4992379    602.84962  0.025855619  0.025664436            3 
 1944000   0.94782134   -7.5086433    602.44996  0.025825187  0.025657228            2 
 1945000   0.94008664   -7.4961633    601.69331  0.025779491  0.025649941            2 
 1946000   0.95509186   -7.5154849    602.74872  0.025811439  0.025642614            2 
 1947000   0.93436023   -7.4704836    602.98617  0.025808345  0.025635349            1 
 1948000   0.93094014    -7.489942    604.21083  0.025847486  0.025628133            2 
 1949000   0.92368039    -7.507827    603.07226  0.025785542   0.02562089            1 
 1950000   0.94653912   -7.4579808    604.74243  0.025843694  0.025613672            3 
 1951000   0.94368898   -7.5245137    603.24433  0.025766459  0.025606435            6 
 1952000   0.93205049   -7.5298308    604.37225  0.025801411   0.02559915            2 
 1953000   0.93640643   -7.5129305     602.9207  0.025726263  0.025591837            4 
 1954000    0.9476833    -7.492983    604.23221   0.02576903  0.025584646            1 
 1955000   0.93842665   -7.5053742    605.22613  0.025798215  0.025577536            2 
 1956000   0.94373039   -7.4779892    604.85188  0.025769082  0.025570435            1 
 1957000   0.92893251   -7.5033672    604.50371  0.025741088   0.02556331            2 
 1958000   0.95139316   -7.4864429    606.78327   0.02582496  0.025556138            2 
 1959000   0.93601469   -7.4944775    606.63432  0.025805442  0.025549031            2 
 1960000   0.94894749   -7.5088642    606.32383  0.025779074  0.025541873            1 
 1961000    0.9314137   -7.4798881    605.51308  0.025731476  0.025534719            2 
 1962000   0.92366912   -7.5281656    605.37619  0.025712546  0.025527594            2 
 1963000   0.93208821   -7.5110855    604.37321  0.025656869  0.025520471            2 
 1964000   0.94813994   -7.5187291    604.62102   0.02565432   0.02551328            2 
 1965000   0.92741877    -7.512375    607.43031  0.025760403  0.025506115            5 
 1966000   0.93350308   -7.4845121    606.56336  0.025710553  0.025498926            2 
 1967000   0.92450103   -7.4995057     606.8386  0.025709143  0.025491764            4 
 1968000   0.93843877   -7.5233333     605.9129  0.025656881  0.025484592            2 
 1969000    0.9437078     -7.52734     604.4364  0.025581361   0.02547742            5 
 1970000   0.92464773   -7.4688092    607.43478   0.02569521  0.025470276            2 
 1971000   0.93354207   -7.5188232    607.08434  0.025667358  0.025463176            2 
 1972000   0.95159947    -7.506479    606.81781  0.025643078  0.025456029            3 
 1973000    0.9488242   -7.4559895    608.18708  0.025687915  0.025448924            1 
 1974000   0.91653836   -7.4916199    606.31113  0.025595708  0.025441723            2 
 1975000   0.96001922   -7.4920096    609.44777  0.025715096  0.025434589            2 
 1976000   0.94112012   -7.4948526      610.061  0.025727944  0.025427516            1 
 1977000   0.92463589   -7.5430903    607.08889  0.025589651  0.025420393            1 
 1978000   0.94121322   -7.4973102    607.45604  0.025592182   0.02541323            5 
 1979000   0.92796533   -7.5033333    606.69723  0.025547298  0.025406146            3 
 1980000   0.93470132   -7.4807229    609.35898  0.025646422   0.02539901            3 
 1981000   0.94193527   -7.5259703    608.26455  0.025587437  0.025391978            2 
 1982000    0.9587523   -7.5309843    608.08508  0.025566981  0.025384855            2 
 1983000   0.93395988   -7.5038469    607.75776  0.025540333  0.025377758            1 
 1984000   0.94891986   -7.5061589    607.69013  0.025524619  0.025370663            1 
 1985000   0.94390315   -7.5257139    607.04586  0.025484713  0.025363452            2 
 1986000   0.91069803   -7.4759461    608.46035  0.025531233  0.025356298            3 
 1987000    0.9272657   -7.5214767    610.07364  0.025586044  0.025349188            3 
 1988000   0.92654572   -7.5030651    608.87954  0.025523119  0.025342082            2 
 1989000   0.95019897   -7.5264154    607.94318  0.025471057  0.025334979            2 
 1990000   0.91950704   -7.5182307    611.21335  0.025595199  0.025327986            3 
 1991000   0.95316734   -7.4791956    610.63148  0.025557989  0.025321005            2 
 1992000     0.936613   -7.5009062    609.84727  0.025512352  0.025314011            2 
 1993000   0.92991557   -7.5196293    609.99872  0.025505884  0.025306956            4 
 1994000   0.91672501   -7.5675664    609.85739  0.025487186  0.025299831            2 
 1995000    0.9382886   -7.5310792    611.11919  0.025527117   0.02529274            1 
 1996000   0.92209682   -7.5189465     610.8634  0.025503649  0.025285686            3 
 1997000   0.94810051   -7.5031288    610.61203  0.025480389  0.025278696            3 
 1998000   0.94374625   -7.5117897    611.08168  0.025487224  0.025271691            4 
 1999000    0.9220689   -7.4949634    610.16617  0.025436308  0.025264706            3 
 2000000   0.93645103   -7.4969779    613.27092  0.025552955  0.025257761            1 
 2001000   0.93920202   -7.4965121    613.97605  0.025569551  0.025250893            3 
 2002000   0.95482476   -7.5381168    613.13666  0.025521839  0.025243933            2 
 2003000   0.92489338    -7.530747    612.15414   0.02546822   0.02523696            2 
 2004000   0.93148399   -7.5313709    612.04354  0.025450912  0.025230042            2 
 2005000    0.9102301   -7.5175392     613.2684  0.025489127  0.025223072            2 
 2006000   0.93202359    -7.521617    611.71097  0.025411722   0.02521609            2 
 2007000   0.92599823   -7.5201145    613.20566  0.025461122   0.02520917            2 
 2008000   0.93352296   -7.5395391    612.95252  0.025437937  0.025202195            2 
 2009000   0.92684967   -7.5075416    615.16437  0.025517022    0.0251952            2 
 2010000   0.92128083   -7.5517096    613.14829  0.025420742  0.025188237            1 
 2011000   0.93940607   -7.5289789    611.01874  0.025319855  0.025181236            1 
 2012000   0.95093387   -7.5063748    613.71691  0.025419024  0.025174232            2 
 2013000   0.93553732   -7.5489197    613.63853  0.025403152  0.025167251            5 
 2014000   0.92387808   -7.5304367     615.3794   0.02546257  0.025160271            2 
 2015000    0.9152336   -7.5071378    614.15053  0.025399112  0.025153306            4 
 2016000    0.9447607   -7.5042636     615.3365  0.025435537  0.025146372            1 
 2017000   0.92822447   -7.5149481     614.3044  0.025380284  0.025139426            2 
 2018000   0.90459181   -7.4948728    616.20972  0.025446387  0.025132459            4 
 2019000   0.91659314   -7.5101809    615.55902  0.025406927  0.025125545            1 
 2020000   0.94875267   -7.5290442    614.56914  0.025353512  0.025118605            1 
 2021000   0.91558025   -7.5191972    615.81203  0.025392216  0.025111589            5 
 2022000   0.93661855   -7.5597327    614.30248  0.025317445  0.025104602            3 
 2023000   0.90350381   -7.5528988    614.18819  0.025300222  0.025097626            2 
 2024000   0.93445072   -7.4907831    616.75039  0.025393214  0.025090733            2 
 2025000   0.90741946   -7.4728484    617.82292  0.025424812  0.025083884            2 
 2026000   0.91803839   -7.5275339    617.71729  0.025407918  0.025077002            3 
 2027000   0.92803152    -7.542873    617.06957  0.025368754  0.025070093            2 
 2028000   0.92770475   -7.5211428    615.83696  0.025305595  0.025063193            2 
 2029000   0.92964415   -7.5045198    617.77406  0.025372682  0.025056318            3 
 2030000   0.92814495   -7.5126301    616.18524   0.02529496  0.025049503            2 
 2031000   0.91462837   -7.4654635    617.61664  0.025341238  0.025042622            2 
 2032000   0.92955987   -7.5368585    616.56247  0.025285534  0.025035766            5 
 2033000   0.90337313   -7.5519756    616.76616  0.025281446  0.025028844            2 
 2034000   0.91420013   -7.5333695    617.42005  0.025295807  0.025021986            7 
 2035000   0.90550611   -7.5545833    617.08813  0.025269784  0.025015097            3 
 2036000   0.94126247   -7.5249747    618.53864  0.025316742  0.025008197            2 
 2037000   0.93121487   -7.5353916     614.9387   0.02515704  0.025001298            2 
 2038000   0.90786708   -7.5257242    618.09034  0.025273566  0.024994376            2 
 2039000   0.91627047   -7.5118164      617.953  0.025255558  0.024987506            2 
 2040000   0.91483616    -7.517778    618.32507  0.025258377  0.024980617            2 
 2041000   0.90352784   -7.5320281    618.81625  0.025266056  0.024973687            2 
 2042000   0.92542253   -7.5219246    618.07249   0.02522333  0.024966785            1 
 2043000   0.93186427   -7.5355156    618.91806  0.025245475  0.024959914            2 
 2044000   0.93001022   -7.5451316    617.09449  0.025158777  0.024952926            1 
 2045000   0.91537329   -7.5070292    618.51454  0.025204341  0.024945961            3 
 2046000    0.9136527   -7.5345581    620.06907  0.025255339  0.024938978            3 
 2047000   0.93690147   -7.4910862    618.41083  0.025175494  0.024932029            1 
 2048000   0.92116492    -7.547168    619.36975   0.02520222  0.024925107            1 
 2049000   0.90971252   -7.4854057     621.0537  0.025258407  0.024918226            2 
 2050000   0.90997623   -7.5295426    618.25586  0.025132352  0.024911377            3 
 2051000   0.92481542   -7.5089044    619.44132  0.025168264  0.024904418            3 
 2052000   0.92255528    -7.493492     620.4847  0.025198371  0.024897464            1 
 2053000   0.90773487   -7.5054852    619.08793  0.025129401  0.024890526            3 
 2054000   0.93283841   -7.5522388     618.0643  0.025075637  0.024883518            2 
 2055000   0.91640676   -7.5499042    618.87859  0.025096455  0.024876485            2 
 2056000   0.88115494   -7.5280113    619.05792  0.025091517  0.024869489            3 
 2057000   0.92031492   -7.5437699    619.72976  0.025106537  0.024862547            1 
 2058000    0.9127087   -7.5479169    619.75457  0.025095342  0.024855618            2 
 2059000   0.92929881   -7.5412667    620.10954  0.025097521  0.024848668            1 
 2060000   0.91108366   -7.5475043    620.79833  0.025113201  0.024841835            2 
 2061000   0.93317323   -7.5196806    621.66842  0.025136197   0.02483496            2 
 2062000    0.9037018   -7.5629286    619.85282  0.025050631  0.024827963            2 
 2063000   0.92539026   -7.5485615    621.85099  0.025119203     0.024821            2 
 2064000   0.93007964   -7.5438498    620.23427  0.025041758  0.024814104            1 
 2065000   0.90976891   -7.5381728    620.52125  0.025041213   0.02480719            3 
 2066000   0.93282158   -7.5183814    621.14732  0.025054345  0.024800286            2 
 2067000   0.92984088   -7.5273894    622.16204  0.025083133   0.02479341            3 
 2068000    0.9062052   -7.5384074    622.63088  0.025089897    0.0247866            2 
 2069000   0.91435547   -7.5309975    620.75111  0.025002059  0.024779776            6 
 2070000   0.92653071   -7.5352244    622.48682  0.025059856  0.024772945            3 
 2071000   0.90788194    -7.547745    620.50523   0.02496802  0.024766043            2 
 2072000   0.92145144    -7.557457    623.20521   0.02506456  0.024759103            3 
 2073000   0.92168712   -7.5520264    622.83079  0.025037417  0.024752193            2 
 2074000   0.90433508   -7.5567835    621.48337  0.024971206  0.024745277            3 
 2075000   0.92255229   -7.5612426    622.42618  0.024997035  0.024738395            2 
 2076000   0.91120698   -7.5385158    623.48872  0.025027646  0.024731507            2 
 2077000   0.91356178   -7.5473222    621.97242  0.024954759  0.024724685            6 
 2078000   0.92622428   -7.5581691    622.47953  0.024963087  0.024717817            2 
 2079000   0.90697214   -7.5533394    623.19397  0.024979716  0.024710958            2 
 2080000   0.94110195   -7.5518329    622.68107  0.024947158  0.024704099            2 
 2081000   0.91313501   -7.5205503    623.91095  0.024984421  0.024697297            2 
 2082000    0.9067707   -7.5444278    623.51163  0.024956437    0.0246905            2 
 2083000   0.91492533   -7.5353346     624.2102  0.024972404  0.024683685            2 
 2084000   0.93859305   -7.5630596     623.4153  0.024928635  0.024676848            2 
 2085000   0.89507422    -7.549225     624.8029  0.024972138  0.024670022            1 
 2086000   0.91352542   -7.5299528    624.73133  0.024957308  0.024663245            3 
 2087000   0.94533197   -7.5210752    624.27599  0.024927168  0.024656543            4 
 2088000    0.9370023   -7.5378889    626.33275  0.024997316  0.024649715            2 
 2089000   0.91070832   -7.5500452    624.38901  0.024907811  0.024642871            2 
 2090000   0.91751539   -7.5249686    625.36659  0.024934872  0.024636055            2 
 2091000   0.90793876   -7.5118263    626.61321  0.024972629  0.024629274            1 
 2092000   0.92226793   -7.5377863    625.44605  0.024914199  0.024622595            1 
 2093000   0.92829431   -7.5259869    625.50538  0.024904657  0.024615795            1 
 2094000   0.90371025   -7.5551124    625.67876  0.024899664  0.024608989            1 
 2095000   0.93590081   -7.5364889    625.02171  0.024861643  0.024602178            2 
 2096000   0.89777494      -7.5614    623.99324  0.024808892  0.024595292            2 
 2097000   0.90769966    -7.545681    626.30129  0.024888781  0.024588446            2 
 2098000   0.92615601   -7.5480269    626.72517  0.024893755  0.024581612            2 
 2099000   0.88291484   -7.5497173    626.54488  0.024874737  0.024574751            4 
 2100000   0.91553984   -7.5488761    626.62746  0.024866169  0.024567854            2 
 2101000   0.91271838   -7.5447282    626.91375  0.024865689   0.02456102            2 
 2102000   0.91236536   -7.5604424     626.4736   0.02483641  0.024554191            4 
 2103000   0.90145867   -7.5566824    625.39973  0.024782047  0.024547338            2 
 2104000   0.90835476   -7.5161027    629.19625  0.024920637  0.024540488            2 
 2105000   0.92183536   -7.5701939    625.67771  0.024769506  0.024533703            2 
 2106000   0.92036832    -7.515988    630.51331  0.024949087  0.024526877            2 
 2107000   0.89958052   -7.5837103    626.52563   0.02477953  0.024520107            2 
 2108000   0.93247605   -7.5676806    627.15149  0.024792516  0.024513296            3 
 2109000   0.89787279   -7.5200309    628.06476  0.024816847  0.024506468            1 
 2110000   0.90680741   -7.5695846    627.05324  0.024765136   0.02449964            1 
 2111000   0.89396915   -7.5396852     627.7987  0.024782832  0.024492822            2 
 2112000    0.9346084   -7.4951672    629.49103  0.024837872  0.024485985            2 
 2113000   0.93668236   -7.5683585    626.33371  0.024701598  0.024479078            1 
 2114000   0.90987223   -7.5410491    628.23287  0.024764777  0.024472217            3 
 2115000   0.91330542   -7.5367615    627.95632  0.024742172  0.024465396            3 
 2116000   0.89794021   -7.5167956    627.99724   0.02473209  0.024458563            4 
 2117000   0.92610308   -7.5325477     629.2033  0.024767883  0.024451683            3 
 2118000   0.91209891   -7.5135814    628.71074  0.024736809  0.024444834            2 
 2119000   0.91004629   -7.5902276    626.45168  0.024636294  0.024437926            3 
 2120000    0.9286091   -7.5621093    627.90152  0.024681663  0.024431024            2 
 2121000   0.91434856    -7.590528    627.68099  0.024661362  0.024424067            3 
 2122000   0.90796713   -7.5681749    627.53923  0.024644173  0.024417174            4 
 2123000   0.91880091   -7.5567207    627.22624   0.02462028  0.024410289            1 
 2124000   0.91560376   -7.5253327    628.46424   0.02465726  0.024403385            6 
 2125000    0.9498461   -7.5432876    627.53629  0.024609266  0.024396426            1 
 2126000    0.9084876   -7.5634239    628.37829  0.024630695   0.02438946            1 
 2127000   0.92089458   -7.5765127    627.79508  0.024596265  0.024382469            2 
 2128000   0.92240728   -7.5412706    628.15562  0.024598826  0.024375474            3 
 2129000   0.91765202   -7.5645761    628.13859  0.024586605  0.024368466            1 
 2130000   0.91267244   -7.5757945    628.70366   0.02459717  0.024361427            2 
 2131000   0.90796037   -7.5542673    630.72713  0.024664756  0.024354461            7 
 2132000   0.92366081   -7.5591966    629.79814  0.024616875  0.024347494            4 
 2133000    0.9300655   -7.5724982    629.06398  0.024576652  0.024340505            2 
 2134000   0.92172686   -7.5442545    628.49656  0.024542977  0.024333488            4 
 2135000   0.91417855   -7.5098349    630.50166  0.024609745  0.024326492            2 
 2136000   0.92305012    -7.546928    628.74527    0.0245297  0.024319543            2 
 2137000   0.90162453   -7.5452131    627.07217  0.024452978  0.024312536            3 
 2138000    0.9086948   -7.5639861    630.39426  0.024571027  0.024305498            2 
 2139000   0.92268112   -7.5448161    630.94257  0.024580901  0.024298569            3 
 2140000   0.92029422   -7.5640468     630.1853  0.024539926  0.024291565            2 
 2141000   0.91897506   -7.5591775    630.38276   0.02453615  0.024284554            6 
 2142000   0.89936134   -7.5358174    631.04223  0.024550351  0.024277571            1 
 2143000   0.93213346   -7.5719721    629.12498   0.02446434  0.024270633            2 
 2144000   0.91995642   -7.5666696     629.9407  0.024484636  0.024263661            2 
 2145000   0.91680644   -7.5767051    629.71454  0.024464434   0.02425663            2 
 2146000   0.91974661   -7.5513347    630.84755  0.024497031  0.024249592            1 
 2147000    0.9049966   -7.5476022    631.89897  0.024526431  0.024242595            1 
 2148000   0.90495162    -7.589216    632.02531  0.024519914  0.024235732            3 
 2149000   0.92794469   -7.5657011    630.90984  0.024465249  0.024228774            1 
 2150000   0.92611647   -7.5978193    631.88588  0.024491701  0.024221815            2 
 2151000   0.88925865   -7.5659675    631.78228  0.024476301   0.02421496            1 
 2152000   0.91095897   -7.5852976     631.1874  0.024441891  0.024208049            2 
 2153000   0.90328932   -7.5545013    631.03739  0.024424733  0.024201128            2 
 2154000   0.89864341   -7.5497638    633.27365  0.024499909  0.024194222            3 
 2155000   0.89694552   -7.5466865    631.32512  0.024413191  0.024187329            2 
 2156000   0.87164379   -7.5256703     632.0209  0.024428761  0.024180467            2 
 2157000   0.90460862   -7.5628022    631.58304  0.024400519  0.024173592            1 
 2158000   0.90617964   -7.5373066    631.63174  0.024391093  0.024166743            2 
 2159000   0.90309688   -7.6077963    631.66648  0.024381136  0.024159824            2 
 2160000   0.89305501   -7.5800804     631.7903  0.024374626  0.024152902            3 
 2161000   0.89919213   -7.5864212    633.11199  0.024414314  0.024145915            2 
 2162000   0.91108497   -7.5739343    632.80816  0.024391311  0.024138927            2 
 2163000    0.9092051   -7.5656737    631.95719  0.024347249  0.024131943            3 
 2164000   0.92167491   -7.5951184    631.47701  0.024317506  0.024125014            4 
 2165000   0.89504629   -7.5628305    631.79257  0.024318421  0.024118035            2 
 2166000    0.9045241   -7.5890065    633.02779  0.024354716  0.024111022            2 
 2167000   0.89412698   -7.5467311    633.81256  0.024373657   0.02410404            2 
 2168000   0.90862279   -7.5714821    633.07242  0.024333964  0.024097044            1 
 2169000   0.92178176     -7.58096    631.99018  0.024281165  0.024090002            2 
 2170000   0.89958471   -7.5753719    633.59372  0.024331556  0.024082972            2 
 2171000     0.889471    -7.582225    632.14554  0.024264761  0.024076002            4 
 2172000   0.89034015   -7.5598048     633.0938  0.024289971  0.024069081            3 
 2173000    0.8950098   -7.5611654    633.98196  0.024312853  0.024062103            2 
 2174000    0.8937475   -7.6087452    632.89861  0.024260143  0.024055114            3 
 2175000   0.91059425   -7.5748212    632.27109  0.024224946  0.024048003            4 
 2176000    0.8946873   -7.5886556    633.63852  0.024266181  0.024040898            3 
 2177000   0.89765071   -7.5992759    632.84064  0.024224493  0.024033815            1 
 2178000   0.89955867   -7.5945983    632.93397  0.024216941  0.024026709            2 
 2179000   0.91454797   -7.5612641    634.18232  0.024253569  0.024019621            2 
 2180000   0.89500221     -7.58246    633.39147  0.024212212   0.02401258            4 
 2181000   0.89732112   -7.5920268    635.26238  0.024272596  0.024005482            3 
 2182000   0.89549837   -7.5885393    634.22609  0.024221895  0.023998427            1 
 2183000   0.90410495   -7.5918818    634.82304  0.024233587  0.023991364            1 
 2184000   0.89269733   -7.5888572    635.18017  0.024236118  0.023984273            2 
 2185000   0.89592262   -7.5698668    634.39237   0.02419498  0.023977249            3 
 2186000   0.90526805   -7.5808253     634.3697  0.024183047    0.0239703            2 
 2187000    0.9108428   -7.5648736    634.63358  0.024182045  0.023963308            3 
 2188000   0.90249637   -7.5946088     634.6559  0.024171843  0.023956305            3 
 2189000   0.90350413   -7.5547164    637.44847  0.024267111  0.023949333            2 
 2190000   0.91510304   -7.6182171    634.63813  0.024149092  0.023942356            2 
 2191000   0.88679851   -7.6281276    635.10773  0.024155931  0.023935328            1 
 2192000    0.8928982   -7.6169939    634.42217  0.024118848  0.023928287            2 
 2193000   0.89996592   -7.5878121     637.3509   0.02421914  0.023921259            2 
 2194000   0.89309458    -7.549005    635.14132  0.024124177   0.02391436            1 
 2195000   0.90904897   -7.5864564     635.5719  0.024129533  0.023907461            2 
 2196000   0.89581412   -7.5971246    636.27985   0.02414541  0.023900499            6 
 2197000   0.88654965   -7.5852659    635.31777  0.024097928  0.023893477            4 
 2198000   0.89106043   -7.5670944    638.52137  0.024208423  0.023886569            4 
 2199000   0.89436693   -7.6161326    636.66869  0.024127205  0.023879659            3 
 2200000    0.9082954   -7.5788134    636.55291  0.024111853  0.023872759            2 
 2201000   0.88885281   -7.5840401    637.61142  0.024140975  0.023865871            4 
 2202000   0.89833553   -7.5978466     636.7864  0.024098789  0.023858929            2 
 2203000   0.89721824   -7.6076851    635.44574  0.024037137   0.02385203            3 
 2204000   0.90851341   -7.5767876    638.19985  0.024130363  0.023845096            2 
 2205000   0.92918917    -7.540088    637.50894  0.024093309  0.023838183            3 
 2206000   0.89144842   -7.5809473    637.68744   0.02408913  0.023831336            2 
 2207000   0.88817147   -7.5886773    637.75483  0.024080759  0.023824405            3 
 2208000   0.89191844   -7.5989811    636.77593  0.024032908  0.023817428            2 
 2209000    0.9083705   -7.5755134     635.6985  0.023981383  0.023810505            2 
 2210000   0.89645789   -7.6003757    636.51644  0.024001374  0.023803584            2 
 2211000   0.89337515   -7.5656773    639.95826  0.024120242  0.023796687            2 
 2212000   0.88819607   -7.5780142    636.44183  0.023976862  0.023789735            2 
 2213000   0.90724575   -7.5959853    637.72337  0.024014286  0.023782779            3 
 2214000   0.88761634   -7.6323703    636.40366  0.023953766  0.023775748            2 
 2215000   0.89255187   -7.5906794    637.74699  0.023993491  0.023768766            1 
 2216000   0.90247134   -7.6075455     639.1585  0.024035744   0.02376179            2 
 2217000   0.90735461   -7.5709502    638.03521   0.02398268   0.02375486            4 
 2218000   0.90102644   -7.6091297    638.04202  0.023972123  0.023747964            3 
 2219000   0.88154299   -7.6090757    639.99172  0.024034539  0.023741075            3 
 2220000   0.89570894   -7.6291303    638.78182  0.023978297  0.023734124            2 
 2221000   0.90398416   -7.5991288    638.09443  0.023941709  0.023727192            2 
 2222000   0.89284162   -7.5913982    639.21105  0.023972812  0.023720306            2 
 2223000   0.88997744   -7.6194142    638.36665  0.023930374  0.023713387            1 
 2224000   0.90069847   -7.6100226    639.47363  0.023961092  0.023706417            2 
 2225000   0.88899658   -7.6063284    638.42901  0.023911199  0.023699489            2 
 2226000   0.88835568   -7.6291013    638.76809  0.023913151  0.023692564            1 
 2227000   0.90657624   -7.6046205    640.96913  0.023984775  0.023685646            3 
 2228000   0.92551615    -7.621244    639.49785   0.02391898  0.023678687            3 
 2229000   0.90800809   -7.5909533    639.71474  0.023916358  0.023671783            2 
 2230000   0.89623974   -7.5758715    639.92831  0.023913614  0.023664948            2 
 2231000   0.88270322   -7.5856364    639.78578  0.023897571  0.023658144            2 
 2232000   0.87688041   -7.6003178    640.23871  0.023903775  0.023651252            3 
 2233000   0.88493229   -7.6024456    640.09355  0.023887653  0.023644334            3 
 2234000   0.89056643   -7.6121016    641.00622  0.023911005  0.023637427            1 
 2235000   0.89204923   -7.5796787    641.52395   0.02391961  0.023630529            4 
 2236000   0.87747955   -7.5914651    641.27407    0.0238996  0.023623636            3 
 2237000   0.87869503   -7.6034239     640.2486  0.023850715  0.023616755            3 
 2238000   0.89627589   -7.5966108    641.03268  0.023869254  0.023609842            3 
 2239000   0.90310672    -7.580858    643.04644  0.023933543  0.023602926            3 
 2240000   0.89069521    -7.583381    640.54846  0.023829928  0.023596052            2 
 2241000   0.90497306    -7.604904    642.47037  0.023890762  0.023589201            1 
 2242000   0.89559008   -7.5834811    640.93982  0.023823217  0.023582391            2 
 2243000   0.88800053   -7.5991316    640.37999  0.023791796  0.023575525            1 
 2244000   0.89027015   -7.6209898    640.37287   0.02378093   0.02356859            3 
 2245000   0.90262912   -7.6011891    641.85239  0.023825256  0.023561671            1 
 2246000   0.90807258   -7.6166859    643.97843   0.02389353  0.023554721            1 
 2247000   0.90752399   -7.5899439    643.46849  0.023863985  0.023547781            2 
 2248000   0.88947886   -7.6037007    641.11133  0.023765989   0.02354088            3 
 2249000   0.90099666   -7.5849524     642.4356  0.023804491  0.023533931            1 
 2250000   0.88751294   -7.6302374    641.40353  0.023755686  0.023526936            1 
 2251000   0.91176167    -7.609731    641.00426  0.023730352   0.02351991            3 
 2252000   0.88766641   -7.6071613     642.6423  0.023780428  0.023512928            5 
 2253000   0.89702585   -7.6019701    642.59417  0.023768093  0.023505941            3 
 2254000    0.8819667   -7.6164916    641.47019  0.023715994  0.023499002            2 
 2255000   0.88532697   -7.5926187    641.78584  0.023717141  0.023492061            1 
 2256000    0.8802117   -7.6094394    642.73903  0.023741838  0.023485117            2 
 2257000   0.88495227   -7.5714113    643.33968  0.023753496  0.023478253            2 
 2258000   0.88884461   -7.6058798    643.18601  0.023737305  0.023471382            2 
 2259000    0.8877485   -7.6239849    640.84109  0.023640294  0.023464417            2 
 2260000    0.8857376   -7.6343018    641.06372  0.023638043  0.023457417            1 
 2261000   0.86414663   -7.6125653    642.18568   0.02366894  0.023450391            2 
 2262000   0.89648545    -7.595711    643.68538  0.023713726  0.023443435            1 
 2263000   0.88816679   -7.6180377    642.91654  0.023674935   0.02343648            1 
 2264000   0.89965582   -7.6116389    644.27872  0.023714617   0.02342963            1 
 2265000    0.8958298   -7.6083159    644.00691  0.023694147  0.023422822            2 
 2266000   0.89441485   -7.6395992    643.46465  0.023663749  0.023416018            4 
 2267000   0.87344587    -7.611902    643.54527  0.023656274  0.023409179            1 
 2268000   0.89246484   -7.6008765    643.54025  0.023645659  0.023402399            2 
 2269000   0.90318816   -7.5970956    644.80302  0.023681615   0.02339557            3 
 2270000   0.88514825   -7.6050016    644.14607  0.023647066  0.023388734            2 
 2271000   0.89694627   -7.5879335    645.11012  0.023672028   0.02338191            2 
 2272000   0.87405625   -7.6341935    644.97308  0.023656583  0.023375023            3 
 2273000   0.88999923   -7.6139842     646.4218  0.023699289  0.023368177            2 
 2274000   0.90420526    -7.610994    644.91879  0.023633787  0.023361275            3 
 2275000   0.89364879   -7.6597127    642.49429   0.02353459  0.023354381            2 
 2276000   0.89119235   -7.6182446    644.03152  0.023580533  0.023347496            2 
 2277000   0.90325847   -7.6494865    642.78874  0.023524694   0.02334057            4 
 2278000   0.89313731   -7.6113907    645.76913  0.023623395  0.023333689            1 
 2279000   0.88765503   -7.6012624     647.2598  0.023667537  0.023326851            3 
 2280000   0.87444156   -7.5889694    647.58797  0.023669151  0.023320015            3 
 2281000   0.88937023   -7.5867915    646.19111  0.023607742  0.023313208            2 
 2282000   0.89649615   -7.5921711    648.03471  0.023664721  0.023306434            3 
 2283000   0.87600761   -7.6271769    646.85819   0.02361141  0.023299623            1 
 2284000   0.89303565   -7.6296387    644.64297  0.023520248  0.023292735            2 
 2285000   0.87987336   -7.6508011    644.36457  0.023499802  0.023285803            3 
 2286000   0.89343399    -7.613505    645.66266  0.023536843  0.023278954            2 
 2287000   0.89232834     -7.63509    647.02617  0.023576234  0.023272113            2 
 2288000   0.88683236   -7.6065798    646.19391  0.023535617  0.023265294            2 
 2289000   0.88324087   -7.6497639    644.94172  0.023479748  0.023258446            4 
 2290000   0.90157545   -7.6253722    646.40427  0.023522717  0.023251578            3 
 2291000   0.87138054   -7.6223178    644.52115  0.023443953  0.023244685            3 
 2292000   0.89627428   -7.6346816    645.53759   0.02347068  0.023237807            3 
 2293000    0.8805685   -7.6128437    646.72688  0.023503666  0.023230949            2 
 2294000   0.86905075   -7.6170466    647.45456  0.023519855  0.023224063            2 
 2295000   0.90094775    -7.637554    647.43824  0.023509014  0.023217128            4 
 2296000   0.88799973   -7.6195019    647.33929  0.023495183  0.023210274            1 
 2297000   0.86123916   -7.5815626    648.25155  0.023518051  0.023203476            2 
 2298000   0.88827498   -7.6139193    647.13563   0.02346735  0.023196655            2 
 2299000   0.90276281    -7.617227    647.53229   0.02347152  0.023189802            2 
 2300000   0.88456671   -7.6402812     647.2386  0.023450674  0.023182951            1 
 2301000   0.89150691   -7.6351083    646.97429   0.02343091  0.023176097            2 
 2302000   0.86896837   -7.6400578    647.71627  0.023447592  0.023169217            5 
 2303000    0.8849499   -7.6637397    645.71292   0.02336492  0.023162301            1 
 2304000   0.87401703   -7.6473123    648.25217  0.023446621  0.023155397            2 
 2305000   0.87883347   -7.6358301    646.82548  0.023384869  0.023148503            2 
 2306000   0.90260972    -7.650855    647.92126  0.023414327  0.023141631            4 
 2307000   0.88258027   -7.6552069    647.28256  0.023381107   0.02313475            3 
 2308000   0.88084101   -7.6419858    647.31146   0.02337202  0.023127893            4 
 2309000   0.88355237   -7.6581739    647.34784  0.023363211  0.023121079            2 
 2310000   0.86650166   -7.6670704    646.62621  0.023327064  0.023114219            2 
 2311000   0.89445202   -7.6557187    648.58175  0.023387486  0.023107349            2 
 2312000   0.88080823   -7.6238671    649.42403  0.023407729  0.023100502            2 
 2313000   0.88452497   -7.6195583    649.35656  0.023395178  0.023093735            1 
 2314000   0.90411421   -7.6122283    647.92997  0.023333692  0.023086938            1 
 2315000   0.86671417   -7.6288636    649.02043  0.023362866  0.023080154            2 
 2316000   0.89628489   -7.6215073    650.46942  0.023404916  0.023073409            2 
 2317000   0.87027815    -7.616952    650.48848    0.0233955  0.023066661            2 
 2318000   0.88951756   -7.6072053    649.15458  0.023337453  0.023059889            1 
 2319000   0.87305649   -7.6498947    649.80956  0.023350926  0.023053068            2 
 2320000   0.89285947   -7.6411975    648.67277  0.023300028  0.023046255            1 
 2321000   0.88331839   -7.6433121    648.75033  0.023292774  0.023039436            4 
 2322000   0.88793282   -7.6441027     649.6646  0.023315554  0.023032614            2 
 2323000   0.86477314   -7.6359708    650.83442  0.023347482   0.02302584            2 
 2324000   0.88531564      -7.6435    650.96661  0.023342176  0.023019043            2 
 2325000   0.87075578   -7.6683029    649.05158  0.023263498  0.023012212            2 
 2326000   0.86941656   -7.6723702    650.15365   0.02329298  0.023005382            2 
 2327000   0.88527549   -7.6621983    650.13905  0.023282447   0.02299856            1 
 2328000   0.89721936   -7.6482734    649.88726  0.023263433  0.022991768            4 
 2329000   0.88572485   -7.6501065    649.79453  0.023250126  0.022984934            1 
 2330000   0.87686429   -7.6431217    650.05313  0.023249397  0.022978119            3 
 2331000   0.88381385   -7.6458601    651.44743  0.023289269  0.022971323            2 
 2332000   0.88342933   -7.6606999    650.32969   0.02323934  0.022964566            1 
 2333000   0.88977239   -7.6429649    652.83749  0.023318956  0.022957882            2 
 2334000   0.88789217   -7.6176977    650.50586  0.023225716  0.022951153            3 
 2335000   0.86573694   -7.6306852    650.52116  0.023216316  0.022944386            2 
 2336000   0.88727726   -7.6728441    652.52895  0.023278002  0.022937614            4 
 2337000    0.8729032   -7.6970041    650.27071  0.023187516   0.02293083            3 
 2338000   0.87377439   -7.6514838    651.42348  0.023218687  0.022924007            3 
 2339000   0.88423289   -7.6053387    651.39145  0.023207619  0.022917267            3 
 2340000   0.88022617   -7.6100341    653.48256  0.023272171  0.022910624            3 
 2341000   0.85702865   -7.6658334    649.56023  0.023122605  0.022903911            1 
 2342000   0.86462072   -7.6640255    652.65036  0.023222686  0.022897222            3 
 2343000   0.86285405   -7.6519332    653.86047  0.023255814  0.022890536            3 
 2344000    0.8667991   -7.6595574     651.4486  0.023160147  0.022883851            1 
 2345000   0.88232014   -7.6525598    653.78761  0.023233391   0.02287711            2 
 2346000   0.87343634   -7.6398906    652.95254  0.023193824  0.022870424            2 
 2347000    0.8771968   -7.6483278    653.70496  0.023210657   0.02286377            4 
 2348000   0.85711399    -7.640369    653.62228  0.023197838  0.022857147            3 
 2349000   0.89204279   -7.6601031    653.11288  0.023169891  0.022850531            4 
 2350000   0.87857198   -7.6286381    654.56025  0.023211356  0.022843897            2 
 2351000   0.87209485   -7.6431479     652.8353  0.023140341  0.022837243            3 
 2352000   0.88673445   -7.6420343     652.4405  0.023116514  0.022830552            4 
 2353000    0.8706706   -7.6705083    652.08329  0.023094039  0.022823796            2 
 2354000   0.88368399   -7.6366603    653.55263  0.023136244  0.022817112            2 
 2355000   0.88992475   -7.6257289    654.76545  0.023169337  0.022810432            3 
 2356000   0.90874818    -7.600422     654.8586  0.023162797  0.022803806            2 
 2357000   0.88939119   -7.6744498    653.94024  0.023120501  0.022797152            2 
 2358000   0.87870614   -7.6764301    654.74569  0.023139161   0.02279049            3 
 2359000   0.87864608   -7.6488498    653.47495  0.023084462  0.022783862            2 
 2360000   0.87534114   -7.6621068    654.47222  0.023109895  0.022777182            2 
 2361000   0.87359733   -7.6508101    655.28953  0.023128954  0.022770496            2 
 2362000   0.89488536   -7.6334249    653.58733  0.023059107  0.022763904            2 
 2363000   0.89411804   -7.6352904    656.86815   0.02316505  0.022757356            3 
 2364000   0.87529874   -7.6254647     656.7264  0.023150254  0.022750765            3 
 2365000   0.86985965   -7.6658291    655.34119  0.023091656  0.022744173            1 
 2366000   0.87817637   -7.6670901    654.08004  0.023037477  0.022737597            2 
 2367000   0.88301182   -7.6508575    656.02823  0.023096333  0.022731022            3 
 2368000   0.87373249   -7.6553655    655.03597   0.02305166  0.022724504            2 
 2369000   0.84968117   -7.6551824    656.60669  0.023097182  0.022717862            3 
 2370000   0.86294855   -7.6819192    657.10906    0.0231051   0.02271122            2 
 2371000   0.87287329   -7.6476043    655.67526  0.023044962  0.022704586            3 
 2372000   0.88016358   -7.6654062    654.64817  0.022999163  0.022697962            2 
 2373000   0.85280088   -7.6559552    656.70791  0.023061803  0.022691343            2 
 2374000   0.88975881   -7.6301165    655.44902  0.023007899  0.022684739            1 
 2375000   0.88561424    -7.667574    656.68052  0.023041422  0.022678173            2 
 2376000   0.85933844   -7.6720414    657.77513  0.023070116  0.022671579            2 
 2377000   0.88162195   -7.6743452     656.1447   0.02300325  0.022664998            3 
 2378000   0.89928171   -7.6495553    658.82191  0.023087395  0.022658493            2 
 2379000     0.872178   -7.6402657    657.06857  0.023016273  0.022651957            1 
 2380000   0.85695613   -7.6672103    656.90667  0.023000934  0.022645377            5 
 2381000   0.86905373   -7.6626433    657.19112  0.023001229  0.022638782            6 
 2382000   0.86960032   -7.6440238    657.52378  0.023003211  0.022632202            1 
 2383000   0.86649053   -7.6800341     656.7331  0.022965908  0.022625604            1 
 2384000   0.87606331   -7.6824496    656.47506  0.022947255  0.022619034            4 
 2385000    0.8707779   -7.6530281    657.26021  0.022965067   0.02261246            3 
 2386000   0.86865178   -7.6748968    656.78284  0.022938769  0.022605825            1 
 2387000   0.86341063   -7.6715904    656.06955  0.022904257  0.022599175            3 
 2388000   0.85851991   -7.6609985    655.98257  0.022891631  0.022592556            5 
 2389000   0.86328398   -7.6620587      657.989  0.022952037  0.022585968            6 
 2390000   0.86430079   -7.6428904     656.1294  0.022877594  0.022579348            4 
 2391000   0.87156748   -7.6557665    656.79375  0.022891181  0.022572742            1 
 2392000   0.86588792   -7.6374201    659.12648  0.022962879  0.022566191            2 
 2393000   0.86221298     -7.65214    658.95613  0.022947351  0.022559601            3 
 2394000   0.85469876   -7.6673671    658.91247  0.022936246  0.022552988            2 
 2395000   0.85723089    -7.691508    657.07395  0.022862698  0.022546377            1 
 2396000   0.86440872   -7.6633247    657.67759  0.022874151  0.022539743            2 
 2397000    0.8678775   -7.6490304    658.63997  0.022898066   0.02253316            3 
 2398000   0.87072598   -7.6674144    656.74703  0.022822735  0.022526535            2 
 2399000   0.86572044   -7.6592135    657.94639  0.022854883  0.022519854            3 
 2400000   0.87642644   -7.6963356    658.44861  0.022862799  0.022513224            2 
 2401000   0.87013064   -7.6828565     657.3715  0.022815893   0.02250659            2 
 2402000   0.85466019   -7.6517551    658.61852  0.022849657  0.022499919            5 
 2403000   0.86854708   -7.6617325    660.23063  0.022896055   0.02249329            3 
 2404000   0.88006102    -7.692171    657.44924  0.022790115  0.022486662            2 
 2405000   0.85426568   -7.6530063    659.21289   0.02284175  0.022480017            3 
 2406000   0.87858625   -7.6660503    658.45652  0.022806058  0.022473407            2 
 2407000   0.86265074   -7.6950493    657.83807  0.022775172  0.022466813            4 
 2408000   0.86524042   -7.6930589    659.10414  0.022809529   0.02246019            5 
 2409000   0.84625886   -7.6784264    658.07576  0.022764486  0.022453566            2 
 2410000   0.84899577   -7.6898881    659.00126  0.022787042   0.02244696            4 
 2411000   0.86065098   -7.6293552    660.74628  0.022837905  0.022440377            4 
 2412000   0.87406224   -7.6471612    659.20463  0.022775174  0.022433782            2 
 2413000   0.86011281   -7.6789811    660.49009  0.022810129   0.02242718            2 
 2414000   0.87691588   -7.6682514    659.09372  0.022752476  0.022420553            2 
 2415000   0.87105042   -7.6790587    659.20824  0.022747006  0.022413913            3 
 2416000   0.86035142   -7.6862894     659.9495  0.022763159  0.022407318            2 
 2417000   0.84653534   -7.6828995    659.42355  0.022735607  0.022400733            2 
 2418000   0.87914931   -7.6525732    660.78612  0.022773164  0.022394161            5 
 2419000   0.86672831    -7.677412    660.81366  0.022764698  0.022387637            2 
 2420000    0.8510179   -7.6657075    660.14369  0.022732221  0.022381098            3 
 2421000   0.87668928   -7.7189496    660.68236  0.022741373  0.022374532            2 
 2422000   0.86596554   -7.6575506    661.29291   0.02275299  0.022368001            2 
 2423000   0.87592047   -7.6872546    660.92318  0.022730884   0.02236143            2 
 2424000   0.85443967   -7.6726451    661.11596  0.022728134  0.022354865            3 
 2425000   0.85945702   -7.6722913    661.33554  0.022726307   0.02234837            3 
 2426000   0.86342292   -7.6804148    662.06706  0.022742067    0.0223419            3 
 2427000   0.85261506   -7.6687803    663.06051  0.022766808  0.022335458            4 
 2428000   0.85828645   -7.6800998     661.7004   0.02271075  0.022328997            6 
 2429000   0.87454933   -7.7153642    662.01586  0.022712222  0.022322539            4 
 2430000   0.84713069   -7.6907411    662.30574  0.022712817   0.02231607            2 
 2431000   0.86804556   -7.6683983    663.82899   0.02275569  0.022309611            3 
 2432000   0.86341224   -7.6725984    662.60615  0.022704432  0.022303164            1 
 2433000   0.84408175   -7.6642785    662.94532  0.022706717  0.022296698            2 
 2434000   0.86502349    -7.702996    665.14413  0.022772669  0.022290258            1 
 2435000    0.8563422   -7.7118817    662.27596   0.02266516  0.022283826            2 
 2436000   0.85324056   -7.6945509    663.15351  0.022685875  0.022277382            2 
 2437000   0.86301137   -7.6785141    662.47809   0.02265347  0.022270869            2 
 2438000   0.87063284    -7.689697    662.82071   0.02265589  0.022264367            3 
 2439000   0.86900568   -7.7422726    662.35636  0.022630735   0.02225789            2 
 2440000   0.87669273   -7.7234863    662.25414  0.022617969  0.022251391            1 
 2441000   0.87531823    -7.691484    663.39457  0.022647637  0.022244934            2 
 2442000   0.87687362    -7.669343    662.64927  0.022612929  0.022238462            2 
 2443000   0.85786391   -7.6653267    663.92246  0.022647103  0.022232005            3 
 2444000   0.85757394   -7.7092184    664.46719   0.02265641   0.02222558            2 
 2445000   0.87194693   -7.6880257    664.84577  0.022660047  0.022219162            1 
 2446000   0.86027457   -7.7125994     663.0561   0.02258981  0.022212737            2 
 2447000   0.84075143    -7.692582    662.04493  0.022546142  0.022206272            2 
 2448000   0.85557475   -7.6590874    663.57822  0.022589128  0.022199767            6 
 2449000   0.84442343   -7.6604275     664.4321  0.022608959   0.02219334            1 
 2450000   0.86842826   -7.6735876    665.92298  0.022650441  0.022186909            2 
 2451000   0.85326809   -7.6510005    665.43935  0.022624757   0.02218054            6 
 2452000   0.86843093     -7.68476    664.06214  0.022568724  0.022174154            3 
 2453000   0.86694319   -7.6722303    665.34456   0.02260309  0.022167735            2 
 2454000   0.87255396   -7.6874689    664.75974   0.02257402  0.022161313            3 
 2455000   0.85309333   -7.7028767    664.18579  0.022545342   0.02215487            2 
 2456000   0.84566519    -7.706444    664.90096  0.022560429  0.022148424            2 
 2457000   0.86001898   -7.7072373    664.66581  0.022543271  0.022141983            3 
 2458000   0.85299958   -7.7233381    664.73782  0.022536541  0.022135576            3 
 2459000   0.86803928    -7.708788    664.58493  0.022522195   0.02212917            1 
 2460000   0.86058011   -7.6977745     666.4527  0.022576311  0.022122795            8 
 2461000   0.85294118   -7.7189549    666.24754   0.02256019  0.022116401            3 
 2462000   0.85096287   -7.6890271     665.9481  0.022540891  0.022110009            4 
 2463000   0.87236897   -7.6824294    666.07985  0.022536198  0.022103636            3 
 2464000   0.86881747    -7.677985    665.72977  0.022515211  0.022097253            3 
 2465000   0.86197119   -7.6814467    664.40317   0.02246123  0.022090816            1 
 2466000   0.84720734   -7.7174777    665.17947  0.022478355    0.0220844            2 
 2467000   0.84365606   -7.6718202    665.43467  0.022477863   0.02207799            4 
 2468000   0.86348395   -7.6818386    667.12277  0.022525755  0.022071643            2 
 2469000   0.86582699   -7.7064993     665.4901  0.022461526  0.022065311            2 
 2470000   0.86465362    -7.659257    669.07439   0.02257336  0.022058994            3 
 2471000   0.86238131   -7.6909154    666.93026  0.022491915  0.022052694            3 
 2472000   0.86066543   -7.6938205    667.27813  0.022494543  0.022046373            3 
 2473000   0.86862195   -7.6916231    666.98464  0.022475557  0.022039994            3 
 2474000     0.847774   -7.7103572    665.89167  0.022429658  0.022033659            2 
 2475000   0.85357184   -7.6481577    668.44426  0.022506541  0.022027319            5 
 2476000   0.83505514   -7.7007702    668.20006  0.022489232  0.022021043            1 
 2477000   0.83802756   -7.7025071    665.69175  0.022395766  0.022014682            2 
 2478000   0.85812394   -7.7000458    667.04799  0.022432338  0.022008333            2 
 2479000   0.84278622   -7.6777277    668.44627  0.022470293   0.02200197            2 
 2480000   0.85731104    -7.675039    665.80709   0.02237255  0.021995624            4 
 2481000   0.85269674   -7.6998558    668.28711  0.022446833  0.021989285            3 
 2482000   0.84440927   -7.6661601    667.90211  0.022424863  0.021982948            2 
 2483000   0.87597999   -7.6693194    669.00013  0.022452683  0.021976648            3 
 2484000   0.84089933   -7.6794458    668.79286   0.02243669  0.021970368            2 
 2485000   0.85288764   -7.6646119    669.68722  0.022457653  0.021964055            2 
 2486000   0.84427476   -7.6961721    668.90493  0.022422396  0.021957726            3 
 2487000   0.85626533   -7.6839169    670.12007  0.022454097  0.021951367            3 
 2488000   0.84644615   -7.6725531    670.50904    0.0224581  0.021945065            2 
 2489000   0.85229153   -7.6666138    668.59612  0.022385031  0.021938722            3 
 2490000   0.83941949   -7.7283873    667.55631  0.022341242  0.021932344            1 
 2491000   0.83719718   -7.7054162    667.28344  0.022323145   0.02192599            2 
 2492000   0.85426778   -7.7137725    667.35177  0.022316472  0.021919609            2 
 2493000   0.85291389   -7.6760814    668.82956  0.022356918  0.021913242            3 
 2494000   0.85311727   -7.6970163    668.48421  0.022336414  0.021906895            1 
 2495000   0.85908285   -7.7063054    667.81042  0.022304957  0.021900505            2 
 2496000   0.85997149   -7.7014039    667.54711   0.02228723  0.021894105            2 
 2497000   0.86712245   -7.7094973    668.54306  0.022311542  0.021887716            2 
 2498000   0.85636147   -7.7055385    668.40599  0.022298038  0.021881328            3 
 2499000   0.87322391   -7.6991953     669.2637  0.022317717  0.021874949            1 
 2500000   0.85126324   -7.6897208    669.30743  0.022310248  0.021868578            3 
 2501000    0.8453181   -7.6841163    669.52538  0.022308589  0.021862211            2 
 2502000   0.83709132   -7.6874033    670.94342  0.022346903  0.021855847            1 
 2503000   0.85200088   -7.6993533    669.86399  0.022302037  0.021849416            2 
 2504000   0.86764596   -7.7114187    667.46984  0.022213453  0.021843017            4 
 2505000   0.86112436   -7.7008561    669.70246  0.022278858  0.021836639            2 
 2506000   0.84803362    -7.691176    669.82552  0.022274059  0.021830284            2 
 2507000   0.84424901   -7.7047292    669.08688  0.022240622  0.021823846            4 
 2508000   0.84719053   -7.6815201    669.74055  0.022253474  0.021817464            1 
 2509000   0.84600264   -7.7042743    668.14261  0.022191531  0.021811102            2 
 2510000   0.84979688   -7.6991567    668.58633  0.022197421  0.021804723            5 
 2511000   0.84340422   -7.6937169    668.04556  0.022170635  0.021798325            2 
 2512000   0.83356984   -7.7188583    669.94292  0.022224752  0.021791928            2 
 2513000   0.84928449    -7.739497    670.37168  0.022230126  0.021785479            4 
 2514000   0.85795201   -7.7093651    669.62121  0.022196407  0.021779078            1 
 2515000   0.85047086   -7.7224519    669.15234  0.022172046  0.021772703            3 
 2516000   0.84346153   -7.7056984    672.31362  0.022267939  0.021766355            2 
 2517000   0.85392323   -7.7219094    670.07816   0.02218508  0.021760091            5 
 2518000   0.86281971   -7.7225205    671.50227  0.022223401   0.02175377            1 
 2519000   0.83527704   -7.7293086    669.43611  0.022146226  0.021747437            1 
 2520000    0.8564013   -7.7007913    671.68933  0.022211949  0.021741058            2 
 2521000   0.83891128   -7.7221925    670.37815  0.022159796  0.021734718            3 
 2522000   0.86169087   -7.6856753    670.82483  0.022165769  0.021728376            4 
 2523000   0.82192741    -7.715601    672.32066   0.02220639  0.021722055            1 
 2524000   0.84919949   -7.6775363    673.61448  0.022240309  0.021715786            2 
 2525000   0.84980368   -7.6969721    671.52009  0.022162379  0.021709491            2 
 2526000    0.8510489   -7.7398204    671.31091  0.022146705  0.021703166            3 
 2527000   0.85564522   -7.6981539     671.7352  0.022151932  0.021696864            3 
 2528000   0.86465966   -7.7032586    670.60575  0.022105939  0.021690559            1 
 2529000   0.83127434   -7.7082165    674.56927    0.0222278  0.021684259            2 
 2530000   0.83316465   -7.6987757    671.80398  0.022127931  0.021677958            2 
 2531000   0.84128403   -7.7373585    671.16049  0.022098001  0.021671651            3 
 2532000   0.84239161   -7.6902695    673.36309  0.022161766  0.021665343            3 
 2533000   0.84756208   -7.7181137    673.25669  0.022149516  0.021659092            3 
 2534000   0.86177236   -7.7079801     671.9997  0.022099438  0.021652791            6 
 2535000   0.83697305   -7.7249865    672.49009   0.02210684  0.021646477            2 
 2536000   0.83967987   -7.7171205    672.08245  0.022084728  0.021640133            1 
 2537000   0.86143346   -7.6945435    672.86642  0.022101775  0.021633803            3 
 2538000   0.83182464   -7.7189173    671.28372  0.022041099  0.021627422            2 
 2539000   0.84648182   -7.7149392    672.41112  0.022069421  0.021621084            3 
 2540000    0.8384572   -7.7425889    671.74066  0.022038736  0.021614722            1 
 2541000   0.84998707    -7.694087    671.50244   0.02202225  0.021608355            1 
 2542000    0.8484346   -7.7482229    671.65397  0.022018554   0.02160198            4 
 2543000   0.85431791   -7.7446483    672.21042   0.02202813  0.021595631            2 
 2544000   0.82991304   -7.6984514    673.56272  0.022063768  0.021589342            2 
 2545000   0.84588283   -7.7006758    674.19566  0.022075824  0.021583074            2 
 2546000   0.84560698   -7.7024405    671.66736  0.021984399  0.021576817            2 
 2547000   0.83131141   -7.7359868    673.13504  0.022023787  0.021570541            3 
 2548000    0.8267723   -7.7346051    671.80308  0.021971582  0.021564245            3 
 2549000   0.85501951   -7.7164254    671.59016  0.021956001  0.021557938            6 
 2550000   0.82848031     -7.72681    672.49321  0.021976902  0.021551655            3 
 2551000   0.83260689   -7.7645296    672.32509  0.021962795  0.021545372            2 
 2552000   0.85344078    -7.715588    673.93198  0.022006661  0.021539065            3 
 2553000   0.85584607   -7.7151217    674.66231   0.02202188   0.02153285            4 
 2554000   0.84354221   -7.6957185    673.77845  0.021984418  0.021526613            1 
 2555000   0.85694389   -7.6974034    674.78507  0.022008646  0.021520426            2 
 2556000   0.83736865   -7.7011525    675.84693  0.022034655    0.0215142            1 
 2557000   0.82718082   -7.7271835    674.80386  0.021992043  0.021507944            3 
 2558000   0.85238934   -7.7326377    673.75635  0.021949321  0.021501663            2 
 2559000   0.83188172   -7.7009394    674.60957  0.021968528  0.021495379            3 
 2560000   0.83578365   -7.7328594     674.4899  0.021956051  0.021489093            1 
 2561000   0.82502867   -7.7445574    675.32004   0.02197449  0.021482796            1 
 2562000   0.82900491   -7.7216114    675.31946  0.021965894  0.021476554            1 
 2563000   0.83940233   -7.7158289    676.60096  0.021998991  0.021470367            2 
 2564000   0.86131275   -7.6995468    674.94699  0.021936655  0.021464161            1 
 2565000   0.82142185    -7.717211    675.60727  0.021949554  0.021457959            1 
 2566000   0.86177385   -7.7027599    675.76628  0.021946164  0.021451764            2 
 2567000   0.83737516   -7.7116283    675.93419  0.021943065  0.021445557            3 
 2568000   0.83680823   -7.7609017    675.04842  0.021905777  0.021439356            1 
 2569000   0.84300635   -7.7092853    675.63928  0.021916416   0.02143315            1 
 2570000   0.83522698   -7.7166549    678.02486  0.021985242  0.021426945            2 
 2571000   0.85602964    -7.728913    676.27869  0.021920092   0.02142073            2 
 2572000    0.8469325   -7.7591207     675.6611   0.02189156  0.021414503            2 
 2573000   0.83765689   -7.7070017    678.07581  0.021961258  0.021408327            1 
 2574000   0.84282296   -7.7238205    676.91868  0.021915264  0.021402146            2 
 2575000   0.83820524   -7.7147668    678.08473   0.02194449  0.021395949            2 
 2576000   0.84105862   -7.7264456    675.88364  0.021864766  0.021389746            1 
 2577000   0.83510176   -7.7070233    676.79127  0.021885631  0.021383605            2 
 2578000   0.83099178   -7.7145655    675.95009  0.021849951  0.021377467            1 
 2579000   0.83168753   -7.7410661    676.16526  0.021848431  0.021371292            1 
 2580000   0.83451137   -7.7280251    677.47014   0.02188211  0.021365108            3 
 2581000   0.84334896   -7.7452736    675.41876  0.021807399  0.021358947            4 
 2582000   0.85512433   -7.7491438    675.36446    0.0217972  0.021352752            1 
 2583000   0.84110835   -7.7448419    676.44213   0.02182353   0.02134651            2 
 2584000   0.84661335   -7.7443718    674.77429  0.021761297  0.021340294            2 
 2585000   0.83568365    -7.722903    677.87656  0.021852887   0.02133409            2 
 2586000   0.83430581   -7.7093469    677.16311  0.021821446  0.021327885            3 
 2587000   0.84751425    -7.715838    677.58358  0.021826555  0.021321712            4 
 2588000    0.8386029   -7.7454218     676.7349  0.021790794  0.021315523            2 
 2589000   0.82820711   -7.7537657    677.02729  0.021791789  0.021309302            3 
 2590000   0.85697934    -7.734685    676.37078  0.021762252  0.021303115            2 
 2591000   0.83382942   -7.7370165    676.55058  0.021759635  0.021296932            3 
 2592000    0.8359022   -7.7452231    677.85999  0.021793338  0.021290727            5 
 2593000   0.81966916   -7.7660101    676.57975  0.021743789  0.021284491            3 
 2594000   0.84442963   -7.7297507    677.03352  0.021749984  0.021278267            2 
 2595000   0.84210562   -7.7395091    679.48693   0.02182039  0.021272056            2 
 2596000   0.83482424   -7.7516469    678.21054  0.021771011  0.021265858            2 
 2597000   0.82651767   -7.7377347    677.87674  0.021751917   0.02125964            2 
 2598000   0.82869719   -7.7195632    678.26931  0.021756136  0.021253422            3 
 2599000   0.83558226   -7.7402253    677.86412  0.021734774  0.021247238            2 
 2600000   0.83483449   -7.7326809    677.16668   0.02170406   0.02124104            2 
 2601000    0.8472967   -7.7043523     677.5066  0.021706607  0.021234872            2 
 2602000   0.83377077   -7.7816096     675.5643  0.021636059  0.021228668            4 
 2603000   0.83962818   -7.7347092      678.438  0.021719746  0.021222444            2 
 2604000   0.83994649   -7.7451468    678.41864  0.021710786  0.021216264            2 
 2605000   0.83254735   -7.7546933    677.08196  0.021659692  0.021210075            3 
 2606000   0.83532023   -7.7650217    678.07047   0.02168299  0.021203894            2 
 2607000   0.83780053   -7.7214706    679.63328  0.021724629  0.021197747            4 
 2608000   0.81871772   -7.7435467    679.34494  0.021707085  0.021191627            5 
 2609000   0.83370133   -7.7218783    678.02217  0.021656515  0.021185448            1 
 2610000    0.8362272   -7.7400424    678.39036  0.021659973  0.021179308            3 
 2611000   0.82433777   -7.7456493    680.72919  0.021726324  0.021173184            2 
 2612000   0.82643938   -7.7331562    681.18263  0.021732473  0.021167065            4 
 2613000   0.84863328   -7.7352901    679.25043  0.021662534  0.021160914            2 
 2614000   0.85716016   -7.7575366    679.58474  0.021664905  0.021154807            2 
 2615000   0.82318726    -7.736257    678.80296  0.021631707  0.021148653            1 
 2616000    0.8209386   -7.7390508    680.28182  0.021670547  0.021142513            2 
 2617000   0.82943116   -7.7124646    678.97477  0.021620646  0.021136416            4 
 2618000   0.84486066   -7.7523977    679.64388  0.021633686  0.021130295            3 
 2619000   0.83005182   -7.7289491    679.36393  0.021616518  0.021124194            3 
 2620000     0.831278   -7.7736905    678.42589  0.021578432  0.021118053            5 
 2621000   0.83578984   -7.7643668     680.1135  0.021623856    0.0211119            4 
 2622000   0.82819735   -7.7320565     679.6853  0.021601999  0.021105736            1 
 2623000    0.8340401   -7.7245346    680.36768  0.021615443  0.021099627            2 
 2624000   0.83671598   -7.7394241    681.05614   0.02162907  0.021093514            7 
 2625000   0.82075058   -7.7452889    681.20007  0.021625399  0.021087433            3 
 2626000   0.82763743    -7.768015    679.85311   0.02157442  0.021081303            1 
 2627000   0.83052643   -7.7743286    679.90842  0.021567962   0.02107519            3 
 2628000   0.82344167    -7.765872    682.09499   0.02162909  0.021069108            2 
 2629000   0.84687718   -7.7585207    680.76111  0.021578582  0.021063014            1 
 2630000   0.84903454   -7.7550569    681.64097  0.021598256  0.021056939            3 
 2631000   0.83962596   -7.7564325    681.75436  0.021593639  0.021050839            1 
 2632000   0.83401839   -7.7286065    681.86744  0.021589015  0.021044761            2 
 2633000   0.82501994   -7.7767778    680.48925  0.021537196  0.021038714            2 
 2634000   0.82120758   -7.7440499    682.00159  0.021576866   0.02103262            2 
 2635000   0.83174767    -7.746313    681.62126   0.02155665   0.02102654            3 
 2636000   0.82502779   -7.7788933    680.47844  0.021512343  0.021020421            3 
 2637000   0.85514705   -7.7753616    680.86333  0.021516349  0.021014277            4 
 2638000   0.81857813   -7.7563432    682.49714  0.021559803  0.021008109            3 
 2639000   0.83712097   -7.7258579    681.08422  0.021507017  0.021001946            2 
 2640000   0.83228491   -7.7399765    681.59807  0.021515091  0.020995788            5 
 2641000   0.84666906     -7.77293    681.41394  0.021501134  0.020989678            3 
 2642000   0.84857346   -7.7751093    681.60967  0.021499169  0.020983526            2 
 2643000   0.82240521   -7.7525706    681.92366  0.021500935  0.020977385            1 
 2644000   0.82620255   -7.7327097    681.72364  0.021486499  0.020971239            2 
 2645000   0.81101492   -7.7733612    682.31519  0.021497013  0.020965137            2 
 2646000   0.82709211   -7.7389899    682.68678  0.021500591  0.020959048            1 
 2647000   0.83516799   -7.7394868    681.64208  0.021459579   0.02095294            1 
 2648000   0.82681212   -7.7675451    680.84724  0.021426461  0.020946838            2 
 2649000   0.82364058   -7.7735953    683.60785  0.021505217  0.020940729            2 
 2650000   0.81511167   -7.7476793     680.5653  0.021401424  0.020934624            2 
 2651000   0.83353017   -7.7816602    681.92316  0.021436035  0.020928485            5 
 2652000   0.82030243    -7.789591    681.54579  0.021416095  0.020922323            2 
 2653000   0.84021861   -7.7941786    682.41006   0.02143517  0.020916195            2 
 2654000   0.83686123   -7.7929295    682.18782  0.021420115  0.020910072            2 
 2655000   0.81824781   -7.8227891    682.48504  0.021421376  0.020903912            4 
 2656000    0.8334355   -7.7589034    684.33654  0.021471402  0.020897795            3 
 2657000   0.81987021   -7.7782051    682.31101  0.021399793  0.020891701            3 
 2658000   0.82284965   -7.7725147    682.45803  0.021396351  0.020885592            3 
 2659000    0.8197395   -7.7808872    682.93083  0.021403122   0.02087948            4 
 2660000    0.8205057   -7.7697151    681.18756  0.021340462  0.020873378            2 
 2661000   0.80241842   -7.7783916    681.33682  0.021337117  0.020867218            5 
 2662000   0.80514764    -7.754716    681.98918  0.021349524  0.020861111            1 
 2663000   0.84112996   -7.7718563    682.61526  0.021361099   0.02085501            2 
 2664000   0.81110416   -7.7863411     682.4908  0.021349187  0.020848883            3 
 2665000   0.83052026   -7.7821296    683.10985  0.021360533  0.020842709            1 
 2666000   0.83611773   -7.7660217    684.04168  0.021381648  0.020836571            3 
 2667000   0.80759909    -7.733689     683.3448  0.021351856   0.02083046            2 
 2668000   0.81499565   -7.7730454    683.74991  0.021356507  0.020824377            1 
 2669000   0.81369516   -7.7657677     684.3075  0.021365914  0.020818275            7 
 2670000   0.83036897   -7.7391568    684.04338  0.021349669  0.020812135            2 
 2671000   0.82347906   -7.7660375    681.34362  0.021257445  0.020805976            3 
 2672000    0.8334122   -7.7639761    683.53832  0.021317937  0.020799817            2 
 2673000   0.81988256   -7.7583926    681.40116  0.021243333  0.020793649            3 
 2674000   0.82497179    -7.761874    680.93055  0.021220723  0.020787477            2 
 2675000    0.8290027   -7.8103862     681.8432  0.021241221  0.020781266            2 
 2676000   0.81404094   -7.7965772    681.22935  0.021214168  0.020775052            2 
 2677000   0.82930131   -7.7887774    679.68955   0.02115831  0.020768847            2 
 2678000    0.8141546   -7.7837912    681.84973  0.021217629  0.020762588            2 
 2679000   0.81159974   -7.7905487    681.51843  0.021199404  0.020756369            3 
 2680000   0.82023916   -7.7928858    682.15854  0.021211398  0.020750146            1 
 2681000   0.82097465   -7.7592055    682.33129  0.021208855  0.020743903            3 
 2682000   0.80507887   -7.7634005    681.69699  0.021181239  0.020737726            2 
 2683000   0.81142031    -7.776818    682.34253  0.021193394  0.020731529            1 
 2684000   0.82250029   -7.7894685    683.03594  0.021207027  0.020725351            1 
 2685000   0.81493725   -7.7844447     682.4663  0.021181449  0.020719153            2 
 2686000   0.80567437   -7.7591812    682.69863  0.021180772   0.02071294            2 
 2687000   0.83241118   -7.7522996    684.70829  0.021235216  0.020706786            2 
 2688000    0.8178477   -7.7565603    683.35011  0.021185209  0.020700638            1 
 2689000   0.81834307   -7.7592514    682.55013  0.021152539  0.020694463            2 
 2690000   0.82319814   -7.7801611    683.50959  0.021174399  0.020688262            1 
 2691000   0.85380814   -7.7813012    682.02761  0.021120637  0.020682078            2 
 2692000   0.84057904   -7.7512736    683.78296   0.02116713  0.020675908            4 
 2693000   0.81829957   -7.7847529    682.87275  0.021131104  0.020669735            4 
 2694000   0.81187246   -7.8005127    684.72403  0.021180526   0.02066356            2 
 2695000   0.81211725   -7.7756727    683.73816  0.021142182  0.020657399            3 
 2696000   0.82163925   -7.7434507    685.10377  0.021176551  0.020651263            4 
 2697000   0.83538494   -7.7724719    682.90001  0.021100606  0.020645095            3 
 2698000   0.80747726   -7.7961827    683.95167  0.021125268  0.020638904            2 
 2699000   0.82616475   -7.7830587    681.06808  0.021028408   0.02063268            2 
 2700000   0.80011327   -7.7842197    682.06854  0.021051498  0.020626454            2 
 2701000   0.80204643   -7.7820877    683.74754  0.021095506  0.020620257            2 
 2702000   0.80950137   -7.8003386    682.31723  0.021043586  0.020614022            2 
 2703000   0.81466711   -7.7756332    684.22186   0.02109452  0.020607794            2 
 2704000   0.81020865   -7.8074705    682.84046  0.021044146  0.020601555            1 
 2705000   0.83273483   -7.7981983    683.12606  0.021045165  0.020595316            3 
 2706000   0.83296003   -7.7785042    683.12787  0.021037444  0.020589075            3 
 2707000   0.81664566    -7.799526    683.79264  0.021050137  0.020582844            2 
 2708000   0.81806387   -7.7894296    682.46242  0.021001428  0.020576634            2 
 2709000   0.80983949   -7.7643604    685.78794  0.021095974  0.020570448            1 
 2710000   0.81132205   -7.8092058    683.55565  0.021019547  0.020564238            3 
 2711000   0.82684312   -7.7584139      684.708  0.021047215  0.020558034            2 
 2712000   0.80727008   -7.8033064    684.96215  0.021047264  0.020551831            2 
 2713000   0.80339314   -7.7778306    683.51728  0.020995125  0.020545588            3 
 2714000   0.82721955   -7.7614157    684.35351  0.021013065  0.020539395            2 
 2715000   0.81155066    -7.754022    684.93584  0.021023199  0.020533259            2 
 2716000   0.84042682   -7.7746289    684.72543  0.021009003  0.020527113            3 
 2717000   0.80478107   -7.7765419    685.80196  0.021034289  0.020520948            4 
 2718000   0.80477348   -7.7983853    684.07095  0.020973478  0.020514755            4 
 2719000   0.83162643   -7.8142575    683.91317  0.020960928  0.020508519            1 
 2720000   0.80462405   -7.7890145    683.18282  0.020930846   0.02050225            3 
 2721000   0.82746918   -7.7961682    683.92911   0.02094601  0.020495963            2 
 2722000   0.80531919   -7.8040223    683.86234  0.020936271  0.020489707            3 
 2723000   0.80947717   -7.8114675    682.62657  0.020890763  0.020483458            1 
 2724000   0.81868127     -7.80334    684.59094  0.020943188  0.020477207            2 
 2725000   0.81252105   -7.8133021    682.59149  0.020874358  0.020470972            1 
 2726000   0.81376626   -7.7704841    684.84909  0.020935714  0.020464729            3 
 2727000   0.81074069   -7.8164508    684.07796  0.020904473  0.020458461            2 
 2728000   0.82323657   -7.7775111     685.8183  0.020949972  0.020452216            2 
 2729000    0.8128444    -7.804997    684.78711  0.020910807  0.020445976            2 
 2730000    0.8303042   -7.7924751    686.11789   0.02094377  0.020439717            2 
 2731000   0.81722154   -7.7651709     684.8749  0.020898172  0.020433511            3 
 2732000   0.82310381    -7.809847    685.80602  0.020918925  0.020427261            2 
 2733000    0.8265553   -7.8039891    684.84136  0.020881856  0.020420993            2 
 2734000    0.8065733   -7.8125151    684.79281  0.020872739  0.020414746            4 
 2735000   0.82930941   -7.7944163    683.32206  0.020820294  0.020408477            2 
 2736000   0.80185498   -7.8191376    682.21692  0.020779024  0.020402189            2 
 2737000   0.80416122   -7.7945407    684.56196  0.020842832    0.0203959            2 
 2738000   0.81123492   -7.8153782    683.00434  0.020787812  0.020389596            2 
 2739000   0.80459775   -7.7963324    684.87866  0.020837248  0.020383321            2 
 2740000   0.81510627   -7.7950226     684.3954  0.020814945   0.02037707            1 
 2741000   0.81094386   -7.7989028    684.46149   0.02080936  0.020370847            4 
 2742000   0.80432925   -7.8029817    683.57637  0.020774871  0.020364609            3 
 2743000   0.83248724    -7.817389    684.88709  0.020807118  0.020358361            3 
 2744000   0.82212675    -7.798911    684.04492  0.020773959  0.020352108            3 
 2745000   0.80006501   -7.8149269    685.54221  0.020811846  0.020345844            1 
 2746000    0.8061978   -7.8252942    684.25497  0.020765203  0.020339578            2 
 2747000   0.81505968   -7.8428568    683.81412   0.02074427  0.020333293            3 
 2748000   0.80110632   -7.8111031    685.22995  0.020779656  0.020327041            3 
 2749000   0.80549787     -7.81942     683.9014  0.020731824  0.020320786            2 
 2750000   0.82150016   -7.7976165    684.85706  0.020753244  0.020314476            3 
 2751000   0.80793138   -7.8070326     685.6427  0.020769499  0.020308207            3 
 2752000   0.81149448   -7.8197052    684.48582  0.020726921  0.020301956            3 
 2753000   0.82511059   -7.8538919    684.46781  0.020718846  0.020295671            2 
 2754000    0.8221608   -7.8318058    684.96853  0.020726475  0.020289393            1 
 2755000   0.80933342   -7.8130857    686.05437  0.020751796   0.02028314            2 
 2756000   0.82108803   -7.8269937    684.48853   0.02069692  0.020276907            1 
 2757000   0.81019678    -7.780879    684.19483  0.020680535  0.020270687            6 
 2758000   0.80737316   -7.7999571    685.83342  0.020722547  0.020264424            1 
 2759000   0.80275345   -7.8042364    685.95688  0.020718765  0.020258209            4 
 2760000    0.8050686   -7.7858917    685.69993    0.0207035  0.020252007            3 
 2761000   0.80429149   -7.7888861    685.58012  0.020692385  0.020245804            1 
 2762000   0.81098838   -7.7995903    687.26717  0.020735795  0.020239581            2 
 2763000   0.81889241   -7.8099401    685.68696   0.02068063  0.020233386            2 
 2764000   0.80768984   -7.8093805    686.62565  0.020701449  0.020227148            3 
 2765000   0.82070692   -7.7949485    685.44041   0.02065824  0.020220938            3 
 2766000   0.80808353   -7.8273333    684.81666  0.020631979  0.020214722            5 
 2767000   0.80357533   -7.7932019    685.39437  0.020641922  0.020208476            1 
 2768000   0.81878223   -7.7821086    686.74221  0.020675042  0.020202278            3 
 2769000   0.79441981   -7.7790572    685.37379  0.020626393  0.020196052            2 
 2770000   0.81934308   -7.8404987    686.71898  0.020659416   0.02018987            1 
 2771000   0.79091621   -7.8035106    686.46427    0.0206443  0.020183652            2 
 2772000   0.79687394   -7.8125165    686.74616  0.020645327  0.020177459            3 
 2773000   0.81095166   -7.7986534    686.43401  0.020628501  0.020171247            2 
 2774000    0.7913229   -7.8087172    687.74521  0.020660455  0.020165076            1 
 2775000   0.79893202   -7.8056181    688.35787  0.020671408  0.020158968            1 
 2776000   0.80457012   -7.8315996    686.93801  0.020621338  0.020152833            2 
 2777000   0.80974834   -7.7961593    687.20439  0.020621906  0.020146651            2 
 2778000   0.80879232   -7.8334481    685.42116   0.02056099  0.020140488            2 
 2779000    0.8100449   -7.8164788    688.03172  0.020631874  0.020134312            2 
 2780000   0.79201548   -7.8148802    687.55981  0.020610306  0.020128158            1 
 2781000   0.81141423   -7.8077078    688.06168  0.020617934  0.020121994            3 
 2782000   0.82267696   -7.8284208    687.33966  0.020588895  0.020115814            1 
 2783000   0.79392351   -7.8032142    688.91996  0.020628817   0.02010965            2 
 2784000   0.80717363   -7.8136108     688.9585   0.02062256  0.020103499            1 
 2785000   0.81024913    -7.802835     688.6869  0.020607029  0.020097327            2 
 2786000   0.80824533   -7.8254611    689.69521  0.020629792  0.020091186            3 
 2787000   0.81087484   -7.7978676    687.68214  0.020562198  0.020085082            7 
 2788000   0.81696478   -7.8225814    687.90645  0.020561527  0.020078954            1 
 2789000   0.79595385   -7.7882633    689.39504  0.020598633  0.020072849            2 
 2790000   0.78758269   -7.8069721    688.85694  0.020575177  0.020066724            2 
 2791000   0.78105406   -7.8149976     689.7472  0.020594387  0.020060593            1 
 2792000   0.80545467   -7.8217039    688.90151  0.020561769  0.020054491            2 
 2793000   0.79952232   -7.7871823    689.50812  0.020572506  0.020048388            1 
 2794000   0.80579439   -7.8333724    688.30143  0.020529153   0.02004227            2 
 2795000   0.83959963   -7.8160786      688.747  0.020535092  0.020036131            3 
 2796000   0.81277129   -7.8510064    687.01776  0.020476209  0.020029985            2 
 2797000   0.79621903   -7.8097487     688.0853  0.020500694  0.020023787            2 
 2798000   0.79567382   -7.8447205     687.7173  0.020482407   0.02001764            3 
 2799000   0.80133586   -7.8581907    687.77262  0.020476736  0.020011435            2 
 2800000   0.81494252   -7.8356954    688.93616  0.020504052  0.020005237            2 
 2801000   0.81118273   -7.7989244    688.92699  0.020496459   0.01999909            2 
 2802000    0.8152055   -7.8202735    689.02113  0.020491944   0.01999295            2 
 2803000   0.81254406   -7.7976447    689.49507  0.020498724  0.019986817            2 
 2804000    0.7931914   -7.7907049    689.56451  0.020493477  0.019980706            2 
 2805000   0.82487833   -7.8546595    689.37407  0.020480513  0.019974608            2 
 2806000   0.79131239   -7.8295435    687.09152  0.020405426  0.019968461            3 
 2807000   0.79307907   -7.8514975    688.75508  0.020447544  0.019962283            3 
 2808000   0.81442139   -7.8139304    688.30688  0.020426961    0.0199561            5 
 2809000   0.79767004   -7.7926166    689.44649  0.020453498  0.019949932            3 
 2810000   0.81693284   -7.8418044     687.9962  0.020403209  0.019943755            3 
 2811000    0.7980013   -7.8387591    688.11466  0.020399462  0.019937565            2 
 2812000   0.78805873    -7.862182    688.70716  0.020409767  0.019931391            2 
 2813000   0.81279896   -7.8331919    687.73318  0.020373657   0.01992522            1 
 2814000   0.79839032   -7.8792614    687.79501  0.020368248  0.019919015            3 
 2815000   0.80844924   -7.8148248     689.5064  0.020411675  0.019912829            1 
 2816000   0.81802791   -7.8294819    689.47749  0.020403572  0.019906679            1 
 2817000   0.78801461   -7.8246541    688.31011  0.020361795  0.019900494            2 
 2818000   0.78946645   -7.8317472    688.70161  0.020366146   0.01989433            2 
 2819000   0.81556551    -7.846068    688.96766  0.020366787  0.019888158            2 
 2820000   0.82748923   -7.8649171    686.84789  0.020296923  0.019882002            2 
 2821000   0.78837282   -7.8345244    688.81358  0.020347796  0.019875848            2 
 2822000   0.79510582   -7.8312875    689.66314  0.020365673  0.019869716            2 
 2823000   0.81583962   -7.8124188    689.94656  0.020366825  0.019863621            5 
 2824000   0.78714419   -7.8139032     689.9731  0.020360396  0.019857566            2 
 2825000   0.80895464   -7.8270926     690.4322  0.020366731  0.019851473            2 
 2826000   0.78966891   -7.8514892    689.92827  0.020344665  0.019845351            2 
 2827000   0.80507806   -7.8399519    690.59002  0.020356975  0.019839244            2 
 2828000   0.79899724   -7.8164124    690.71698  0.020353518  0.019833135            2 
 2829000   0.78558909   -7.8678125    689.80674   0.02031951  0.019827044            2 
 2830000   0.79613575    -7.834983    689.68878  0.020308857  0.019820952            1 
 2831000   0.81422668   -7.8495524    690.60897   0.02032877  0.019814852            3 
 2832000   0.80911205   -7.8379332    690.64263  0.020322582  0.019808763            6 
 2833000   0.79886588   -7.8288154    690.32031  0.020305927  0.019802684            2 
 2834000   0.79594793   -7.8293232    690.45241  0.020302647  0.019796634            1 
 2835000   0.80745097   -7.8545614    690.52326  0.020297568   0.01979058            2 
 2836000   0.79403211   -7.8528422     691.9204  0.020331464  0.019784553            2 
 2837000   0.79639414   -7.8424657    689.44984  0.020251728  0.019778512            3 
 2838000   0.79208407   -7.8372972    691.23453  0.020296997  0.019772468            2 
 2839000   0.80580821   -7.8764196    689.21489  0.020230565  0.019766385            2 
 2840000   0.80717625   -7.8677247    691.81689  0.020299791  0.019760328            3 
 2841000   0.79272989   -7.8478796    688.50446  0.020195485  0.019754286            3 
 2842000   0.79488505   -7.8419854    691.56746  0.020278192  0.019748204            2 
 2843000   0.79552742   -7.8333719    691.09146  0.020257107  0.019742147            1 
 2844000   0.77542018   -7.8381614    691.40304  0.020259114  0.019736107            5 
 2845000   0.80073327   -7.8326175    693.68225  0.020318754  0.019730048            2 
 2846000   0.79798201   -7.8555733    691.16504  0.020237908  0.019723977            1 
 2847000    0.7771022    -7.820023    691.29663  0.020234651  0.019717896            3 
 2848000   0.78532904   -7.8711573    690.30818  0.020198624  0.019711829            2 
 2849000   0.79846815   -7.8777905    691.84402  0.020236458  0.019705763            1 
 2850000   0.80546688   -7.8382936    691.10725  0.020207814  0.019699719            3 
 2851000   0.78857463   -7.8321282    692.23321  0.020233638  0.019693649            3 
 2852000   0.79668271   -7.8633496    692.13322  0.020223621  0.019687572            4 
 2853000   0.79873866   -7.8663627     690.1703  0.020159198  0.019681508            2 
 2854000   0.80327272   -7.8323272    691.16776  0.020181259  0.019675446            3 
 2855000   0.80434428   -7.8223779    692.40877  0.020210413  0.019669384            3 
 2856000   0.78615411   -7.8499368    690.32193  0.020142447  0.019663319            4 
 2857000   0.80166254   -7.8506973    690.57805  0.020142867  0.019657285            2 
 2858000   0.78657295   -7.8468188    692.22291   0.02018378  0.019651247            2 
 2859000    0.7729852   -7.8354808    690.86149  0.020137038  0.019645209            3 
 2860000   0.76837099    -7.830845    691.03046   0.02013492   0.01963918            2 
 2861000   0.78799984   -7.8501488    691.35657  0.020137381   0.01963315            3 
 2862000   0.79065123   -7.8440736    692.91123  0.020175612  0.019627129            2 
 2863000   0.79828937   -7.8606279    692.25595  0.020149492  0.019621081            1 
 2864000   0.78688654   -7.8379299    692.68943  0.020155069  0.019615058            1 
 2865000   0.79785391   -7.8452409    691.76521  0.020121152  0.019609006            2 
 2866000   0.78943999   -7.8450824    692.14995  0.020125318  0.019602934            1 
 2867000   0.81237064   -7.8536085    691.26304   0.02009252  0.019596861            3 
 2868000   0.79997752   -7.8448078    690.94642  0.020076314  0.019590789            1 
 2869000   0.78370827   -7.8295899    692.40821  0.020111776  0.019584734            2 
 2870000   0.77502101   -7.8521242     691.3011  0.020072622  0.019578702            1 
 2871000   0.79462574   -7.8310202    693.15308  0.020119386  0.019572666            3 
 2872000   0.77457282   -7.8401467    691.08242  0.020052299  0.019566604            3 
 2873000   0.78138749   -7.8345317    692.41845  0.020084072  0.019560562            1 
 2874000     0.774856   -7.8321751    693.07237  0.020096044   0.01955455            3 
 2875000   0.76600235   -7.8253859    692.85261  0.020082684  0.019548569            4 
 2876000   0.79654129   -7.8291788    692.55335   0.02006703  0.019542557            3 
 2877000   0.81468006   -7.8509087     692.1747  0.020049087  0.019536534            4 
 2878000   0.78893635   -7.8588133    692.89755  0.020063052  0.019530503            1 
 2879000   0.81121953   -7.8543242    693.21155  0.020065172  0.019524493            2 
 2880000   0.80727753   -7.8528442    693.81839  0.020075764   0.01951846            2 
 2881000   0.78676008   -7.8682871    692.77538  0.020038626  0.019512433            3 
 2882000   0.78448472   -7.8744332    691.41662  0.019992384  0.019506385            2 
 2883000   0.79792334   -7.8561233    693.41925  0.020043336  0.019500339            4 
 2884000   0.80346483    -7.858854    692.72019  0.020016187  0.019494326            3 
 2885000   0.79698231   -7.8902108    691.67708  0.019979118  0.019488329            2 
 2886000   0.78179703   -7.8594888     694.4565  0.020052451   0.01948235            2 
 2887000   0.78963297   -7.8754872    694.51865    0.0200473   0.01947639            2 
 2888000   0.80078488   -7.8311566    694.07411  0.020027531  0.019470413            3 
 2889000   0.79593101   -7.8565732    693.80469  0.020012827  0.019464432            5 
 2890000   0.77617867   -7.8732607    694.06639  0.020013448  0.019458442            4 
 2891000   0.80278308   -7.8743164     694.1673  0.020009435  0.019452467            3 
 2892000   0.77493329   -7.8638929    695.82412  0.020050257  0.019446502            4 
 2893000   0.79156302   -7.8664861    693.75461  0.019983714  0.019440529            4 
 2894000   0.78955237   -7.8658343    695.00612  0.020012846  0.019434559            2 
 2895000   0.78928687   -7.8665993    692.51951  0.019934355  0.019428573            2 
 2896000   0.79871778   -7.8536823    692.94362  0.019939676  0.019422588            2 
 2897000   0.77911685    -7.872223     693.4701  0.019947937   0.01941663            5 
 2898000   0.80577638    -7.838432    694.92737  0.019982959  0.019410652            4 
 2899000    0.7948881   -7.8713944    692.11262  0.019895154  0.019404657            1 
 2900000   0.78018837   -7.8448232    694.71555   0.01996309   0.01939868            2 
 2901000   0.77737665   -7.8391182    694.43652  0.019948194  0.019392728            3 
 2902000   0.79984136   -7.8264043     693.8716  0.019925098  0.019386764            3 
 2903000   0.78475788   -7.8512841     695.3724  0.019961316  0.019380801            2 
 2904000   0.78654653   -7.8701737     694.0583  0.019916733  0.019374793            4 
 2905000   0.79905473   -7.8697097    693.32469  0.019888832  0.019368776            3 
 2906000    0.7962621   -7.8377947    695.65026  0.019948677  0.019362786            3 
 2907000   0.77651542   -7.8685871     692.4537  0.019850181  0.019356775            3 
 2908000   0.80367462    -7.849529    693.55352  0.019874872  0.019350769            1 
 2909000   0.78371635   -7.8670604    693.11458  0.019855465  0.019344701            4 
 2910000   0.80054486   -7.8864447    693.40519  0.019856964  0.019338654            2 
 2911000   0.76972714   -7.8827035    691.93404  0.019808028  0.019332597            2 
 2912000   0.79132382   -7.8506758    692.38761  0.019814206  0.019326531            1 
 2913000   0.78518244   -7.8522189    694.08802  0.019856048  0.019320472            5 
 2914000   0.78192714   -7.8629756    694.09973  0.019849569  0.019314445            2 
 2915000   0.78678551    -7.880881    692.79099  0.019805346  0.019308384            1 
 2916000    0.7915475   -7.9044321      692.958  0.019803326   0.01930236            2 
 2917000   0.78285734    -7.871137    693.97552  0.019825606  0.019296353            2 
 2918000   0.79794474   -7.8866475    695.34529   0.01985793  0.019290376            5 
 2919000   0.77653334   -7.8458513    695.00368  0.019841375  0.019284368            2 
 2920000   0.77256203   -7.8659595     693.6328  0.019795457   0.01927836            3 
 2921000   0.77258965   -7.8623934    694.29694  0.019807627  0.019272371            2 
 2922000   0.77730529    -7.871681    694.31128  0.019801257  0.019266378            4 
 2923000     0.764702   -7.8670032     696.0855  0.019845065    0.0192604            3 
 2924000   0.78054115   -7.8774016    694.32953  0.019788233  0.019254429            3 
 2925000   0.80532464   -7.8732505    695.30935  0.019809383  0.019248446            3 
 2926000   0.77416066   -7.8858873      695.016  0.019794258  0.019242483            1 
 2927000   0.78670729   -7.8883276    693.93354  0.019756677  0.019236516            7 
 2928000   0.76420911   -7.8745793     694.8275  0.019775373  0.019230547            1 
 2929000   0.78179829   -7.8975885      694.983  0.019773045  0.019224555            2 
 2930000   0.78591247   -7.8730284    694.31145  0.019747197  0.019218568            4 
 2931000    0.7791717     -7.90167    696.58777  0.019805179  0.019212606            2 
 2932000   0.80085921   -7.8595553     696.5742  0.019798039  0.019206651            2 
 2933000   0.78805759   -7.8741858    696.51841  0.019789704  0.019200703            1 
 2934000   0.79730915   -7.8693699    695.03837  0.019740922  0.019194756            2 
 2935000   0.77890849   -7.8700792    696.51962  0.019776253  0.019188819            1 
 2936000   0.77450006   -7.8595631    695.06252   0.01972816   0.01918291            1 
 2937000   0.77943749    -7.864203    696.31156  0.019756882  0.019176993            2 
 2938000   0.79282417   -7.8431958    697.46442  0.019782857  0.019171064            2 
 2939000   0.79793147   -7.8524464    697.20257  0.019768702  0.019165159            5 
 2940000   0.79963316    -7.854356     695.4158  0.019711332  0.019159238            3 
 2941000   0.76105724   -7.8965193    695.52181  0.019707634  0.019153291            2 
 2942000   0.76622585   -7.8880641    696.38106  0.019725274  0.019147335            4 
 2943000    0.7854881   -7.8365111    697.00438  0.019736221  0.019141398            3 
 2944000    0.7713449    -7.879335    696.30206  0.019709637  0.019135447            4 
 2945000     0.788016   -7.8821264    695.60285  0.019683159  0.019129517            2 
 2946000   0.79060509   -7.8677112    694.74805  0.019652298  0.019123604            6 
 2947000   0.78823106   -7.8715188    695.72655  0.019673299  0.019117688            2 
 2948000   0.78756993   -7.8897079    696.27418  0.019682106  0.019111796            3 
 2949000   0.75709311   -7.8898202    697.47267  0.019709299  0.019105906            5 
 2950000   0.78578541   -7.8679855    696.91447  0.019686849  0.019100026            1 
 2951000   0.78921674   -7.9068794    697.45876  0.019695548  0.019094135            6 
 2952000   0.77926084   -7.8697998    696.20364  0.019653445  0.019088231            3 
 2953000   0.78330053   -7.8736127    698.26143   0.01970486  0.019082341            1 
 2954000   0.78117425   -7.8651303    696.94714  0.019661113  0.019076481            2 
 2955000   0.79698373   -7.8853916    698.57284  0.019700306  0.019070607            3 
 2956000   0.77124216   -7.8810162    698.24642  0.019684439  0.019064723            1 
 2957000   0.79488877   -7.8832104    695.80662  0.019609024  0.019058832            3 
 2958000   0.77527722    -7.901947    697.35046  0.019645889   0.01905297            4 
 2959000   0.76940751   -7.9055821    697.01106  0.019629691  0.019047087            4 
 2960000   0.77885775     -7.88678    697.70916  0.019642713  0.019041215            3 
 2961000   0.77113802   -7.8895493    697.51248  0.019630544  0.019035336            3 
 2962000   0.76978917   -7.8940991    698.26676  0.019645137  0.019029457            2 
 2963000   0.78519739   -7.8903359    696.84321   0.01959847  0.019023588            1 
 2964000   0.77664408   -7.9018673    697.37991  0.019606948  0.019017722            3 
 2965000   0.77101486   -7.8899216    697.65313  0.019608014  0.019011872            2 
 2966000    0.7878086   -7.9158602    697.65197   0.01960137  0.019006047            7 
 2967000   0.78462045   -7.8919306    698.02757  0.019605313  0.019000249            3 
 2968000   0.77950618   -7.8870725    699.16858  0.019630744  0.018994459            3 
 2969000   0.76073669   -7.9042053    697.78993  0.019585436  0.018988668            3 
 2970000   0.76779083   -7.8784774    699.34471  0.019622467  0.018982858            5 
 2971000   0.78686539   -7.8761617    697.38103  0.019560783  0.018977081            3 
 2972000   0.78292452   -7.8663566    699.61435  0.019616822  0.018971288            3 
 2973000   0.76193453   -7.8770721    699.05597  0.019594573  0.018965515            2 
 2974000   0.77981487   -7.8791645    699.46294  0.019599387  0.018959709            4 
 2975000   0.78474606   -7.8930459    698.85115  0.019575662  0.018953918            2 
 2976000    0.7691234   -7.8898037    697.03045  0.019518102  0.018948102            4 
 2977000   0.79926891   -7.8715766    700.00566  0.019594829  0.018942299            3 
 2978000    0.7779776   -7.8819946    698.98054  0.019559563  0.018936511            2 
 2979000   0.77800572   -7.8555251    700.05183  0.019582965  0.018930752            3 
 2980000   0.77025043   -7.8811773    698.91915  0.019544719  0.018924974            2 
 2981000   0.79995021   -7.9031575    697.84882  0.019508242  0.018919192            4 
 2982000   0.76553945    -7.880154    698.32156  0.019514911   0.01891343            2 
 2983000   0.76299508   -7.8653455    699.31911  0.019536236  0.018907666            2 
 2984000    0.7858106   -7.9032332     697.6423  0.019482861  0.018901891            3 
 2985000   0.77032215   -7.9116845    699.32827  0.019523402   0.01889609            1 
 2986000   0.77785623   -7.9219759    698.36165  0.019489888  0.018890315            3 
 2987000   0.77585051   -7.8824136    699.89674   0.01952619  0.018884546            2 
 2988000   0.76205873   -7.8613929    700.79276  0.019544644  0.018878783            3 
 2989000   0.78864571   -7.8601621    700.86144   0.01954002  0.018873048            3 
 2990000    0.7732862   -7.8934658    698.34073  0.019463231  0.018867269            2 
 2991000   0.78449904   -7.9192269    698.64439  0.019465184  0.018861506            1 
 2992000   0.77679548   -7.9107537    699.91131  0.019493965  0.018855702            4 
 2993000   0.76106137   -7.9374046    699.01435  0.019462478   0.01884991            2 
 2994000    0.7864384    -7.916157    699.51365  0.019469874  0.018844144            2 
 2995000   0.78192604   -7.8981623    699.52545  0.019463702  0.018838368            2 
 2996000   0.78004938   -7.8997437    701.84756  0.019521795  0.018832621            5 
 2997000   0.76110385   -7.9018844    700.15014  0.019468083  0.018826868            2 
 2998000   0.76822081   -7.9093167    699.36184  0.019439677  0.018821108            4 
 2999000   0.77179869   -7.9007671    699.13026  0.019426761  0.018815345            2 
 3000000   0.78761856   -7.8904205    700.98561  0.019471822  0.018809614            4 
 3001000   0.76776816   -7.8873654    700.89429  0.019462798  0.018803857            3 
 3002000   0.77538273   -7.8945506    700.67929  0.019450347  0.018798125            2 
 3003000   0.75662076   -7.9197683    699.33637  0.019406604  0.018792381            4 
 3004000    0.7698758   -7.8840745    701.35438  0.019456125  0.018786646            5 
 3005000   0.77196864   -7.9193343    700.28641  0.019420034  0.018780904            2 
 3006000   0.76015065   -7.9159861    700.77514  0.019427122  0.018775129            2 
 3007000   0.76528257   -7.9069732    700.00356  0.019399278   0.01876935            3 
 3008000   0.77027976      -7.9177    699.83797  0.019388242  0.018763567            1 
 3009000   0.77013274   -7.9130623    700.90786  0.019411428  0.018757816            1 
 3010000   0.76923462   -7.9225587    702.24359   0.01944196  0.018752066            2 
 3011000   0.76492903   -7.9036481    701.75797  0.019422063  0.018746319            2 
 3012000   0.77794802   -7.8989321     700.2909  0.019375025  0.018740559            1 
 3013000   0.77400768   -7.8808934    700.40433  0.019371732  0.018734813            2 
 3014000   0.75794205   -7.9057472    699.85466  0.019350107  0.018729061            4 
 3015000   0.76742463   -7.9206559    701.21786  0.019381367  0.018723297            2 
 3016000   0.76083305   -7.9190498    700.86413  0.019365167   0.01871752            1 
 3017000   0.77155958   -7.9139541    700.89907  0.019359713  0.018711762            5 
 3018000   0.78389029   -7.9170507     701.0035  0.019356182  0.018706018            1 
 3019000   0.76624866   -7.9190282    700.37714  0.019332482  0.018700271            2 
 3020000   0.76593529   -7.9355182    700.36782  0.019325823  0.018694541            3 
 3021000   0.76188156   -7.9086482    701.15042  0.019341014  0.018688799            2 
 3022000   0.77042654   -7.9199675    698.80684  0.019269988  0.018683039            1 
 3023000   0.77153166   -7.8982788    701.18141  0.019329072  0.018677294            3 
 3024000   0.76552089   -7.9104729    700.75151  0.019310833  0.018671562            4 
 3025000   0.74674283   -7.9090597    699.63674  0.019273739  0.018665834            4 
 3026000   0.75856296    -7.898122     702.4258  0.019344178  0.018660104            2 
 3027000   0.75714908   -7.8983869     700.9938  0.019298365  0.018654378            3 
 3028000   0.77772564   -7.9026763    701.09233  0.019294703  0.018648662            2 
 3029000   0.74758934   -7.8932607    701.04581  0.019287053  0.018642926            2 
 3030000   0.75485323   -7.9020936    700.34179  0.019261325  0.018637176            2 
 3031000   0.76288348   -7.9000046    700.21771  0.019251559  0.018631412            1 
 3032000   0.76321172   -7.9258486     700.5208   0.01925354  0.018625626            5 
 3033000     0.768798   -7.9433754    700.10698  0.019235822  0.018619873            4 
 3034000   0.77077881   -7.8928702     701.7993  0.019275964  0.018614132            2 
 3035000   0.76272668   -7.8802442     700.9904  0.019247402  0.018608392            2 
 3036000   0.75935722   -7.9210059    701.20538  0.019246964  0.018602681            3 
 3037000   0.77753813   -7.9095831    701.33963   0.01924431  0.018596947            2 
 3038000   0.76904416   -7.9300219    699.76929    0.0191949  0.018591211            5 
 3039000   0.77997316   -7.9107295     700.5495  0.019209979  0.018585471            3 
 3040000   0.79004933   -7.9019294    700.98626  0.019215632    0.0185797            2 
 3041000   0.76135824   -7.9232117    702.05539  0.019238611  0.018573932            2 
 3042000   0.77764549   -7.9178359    700.14153  0.019179858  0.018568131            6 
 3043000   0.75044191   -7.9456548    699.96175  0.019168632  0.018562329            2 
 3044000   0.76477616   -7.9046076    700.92973  0.019188834  0.018556536            9 
 3045000   0.76162035   -7.9132213    700.48438  0.019170344  0.018550746            1 
 3046000   0.76442025   -7.9124239    700.56183   0.01916617  0.018545006            3 
 3047000   0.77528352   -7.9313241     698.8455  0.019112939  0.018539282            2 
 3048000   0.77899697   -7.9209746     699.7768   0.01913213  0.018533534            2 
 3049000   0.76622423   -7.9090421    700.22848    0.0191382  0.018527811            3 
 3050000   0.77316885   -7.9012103    701.76006  0.019173772  0.018522095            3 
 3051000   0.75026914   -7.9050243    701.77119  0.019167792  0.018516401            3 
 3052000   0.75656903   -7.9051306    701.19414  0.019145755  0.018510684            3 
 3053000   0.76039786   -7.8914303      701.993   0.01916129  0.018504965            2 
 3054000   0.74186374   -7.9364261    702.65092  0.019172968  0.018499269            2 
 3055000   0.75480549   -7.8997748    703.06106  0.019177879  0.018493546            3 
 3056000   0.76694846    -7.914264    702.02288  0.019143294  0.018487841            1 
 3057000   0.75930667   -7.9045135    703.29979   0.01917184  0.018482112            4 
 3058000   0.76171742   -7.8852394    701.62513  0.019119935  0.018476398            2 
 3059000   0.78098031   -7.9225547    702.26877  0.019131219  0.018470687            3 
 3060000   0.76189362   -7.9114067    701.77283  0.019111461  0.018464974            3 
 3061000   0.76707861   -7.9115624    701.10367     0.019087  0.018459247            3 
 3062000   0.75305153    -7.949555     701.4727  0.019090809  0.018453477            2 
 3063000     0.756479   -7.9261966    701.65855  0.019089633  0.018447709            2 
 3064000   0.76589028   -7.9467324    701.43821   0.01907741   0.01844196            4 
 3065000   0.76710888   -7.9274753    702.12865  0.019089958  0.018436217            2 
 3066000   0.76469103   -7.9671294      700.541  0.019040579  0.018430469            2 
 3067000   0.75743775   -7.9354907    701.58998  0.019062873  0.018424727            3 
 3068000   0.76747259   -7.9039314    701.92734  0.019065823   0.01841901            2 
 3069000   0.75537793   -7.9655734    700.72775  0.019027038  0.018413266            1 
 3070000   0.75865595   -7.9582851    699.96616  0.019000167   0.01840749            2 
 3071000   0.75366266   -7.9386893    701.15807  0.019026324  0.018401714            1 
 3072000   0.74986025   -7.9549525    700.50031  0.019002287   0.01839593            3 
 3073000   0.76106559   -7.9460769      700.699  0.019001492  0.018390153            2 
 3074000   0.75614505    -7.942604     701.4585    0.0190159  0.018384377            2 
 3075000   0.76271364   -7.9217828    701.48181  0.019010347  0.018378598            3 
 3076000   0.76341764   -7.9394512    699.91994  0.018961854  0.018372821            3 
 3077000   0.75741586    -7.959172    700.09925  0.018960547  0.018367037            3 
 3078000   0.75609074   -7.8885405    701.25542  0.018985689  0.018361297            3 
 3079000     0.747699   -7.9312197    702.07053  0.019001584  0.018355558            3 
 3080000    0.7658411   -7.9771139      701.094  0.018968993  0.018349802            2 
 3081000   0.75550932   -7.9161294    700.88031  0.018957057   0.01834402            2 
 3082000   0.76885717   -7.9363063     701.7127  0.018973413   0.01833828            1 
 3083000   0.76814913   -7.9557234    701.42358  0.018959444   0.01833253            2 
 3084000   0.76577271   -7.9442984    702.15603  0.018973088  0.018326782            3 
 3085000   0.76422487    -7.951388    700.75424  0.018929072  0.018321041            3 
 3086000   0.77048973   -7.9609478    700.78863  0.018923867  0.018315291            4 
 3087000   0.75449034   -7.9524504    701.58842  0.018939327  0.018309553            2 
 3088000   0.75634858   -7.9360662    702.43121  0.018955937  0.018303818            2 
 3089000   0.77028232    -7.955923    700.96243  0.018910177  0.018298056            1 
 3090000   0.74303214   -7.9636748    703.03077  0.018959837  0.018292344            2 
 3091000    0.7586947   -7.9644864    701.66757  0.018916952  0.018286614            3 
 3092000   0.75426979   -7.9379467    701.28595  0.018900548  0.018280881            2 
 3093000   0.75830427    -7.954099    701.17794  0.018891528   0.01827514            2 
 3094000   0.78253291   -7.9379235    702.37607  0.018917692  0.018269427            2 
 3095000   0.77020938    -7.929147    703.35504  0.018937938  0.018263725            1 
 3096000   0.74723716   -7.9480739    703.17311  0.018926925  0.018258047            3 
 3097000   0.76493736   -7.9336449    702.02592  0.018889945   0.01825236            3 
 3098000   0.76209359   -7.9427521    700.59576  0.018845378  0.018246654            7 
 3099000   0.75963946   -7.9536286    703.72742  0.018923508  0.018240942            2 
 3100000   0.74899945   -7.9633094    702.26182  0.018878006  0.018235228            2 
 3101000   0.75602387   -7.9535092    701.75149  0.018858204    0.0182295            2 
 3102000   0.75455519   -7.9233059    703.31499  0.018894127  0.018223799            2 
 3103000   0.76268577   -7.9366447      702.961  0.018878532  0.018218154            3 
 3104000   0.73778921   -7.9399125    702.70081  0.018865464  0.018212488            2 
 3105000   0.74856489   -7.9491371    701.79285   0.01883502  0.018206795            3 
 3106000   0.74725451   -7.9294599    703.52946  0.018875549  0.018201104            2 
 3107000   0.75657782   -7.9469091    703.11903  0.018858465  0.018195401            1 
 3108000   0.75535491   -7.9519457    702.63918  0.018839532  0.018189681            3 
 3109000    0.7469166   -7.9466538     702.9497  0.018841795  0.018183985            2 
 3110000   0.76226779   -7.9578747    702.70589  0.018829204  0.018178311            2 
 3111000   0.74571841   -7.9399445    703.54769  0.018845701  0.018172637            2 
 3112000    0.7549057   -7.9505835    702.55136  0.018812965  0.018166931            3 
 3113000   0.74031935   -7.9814325    702.11164   0.01879515  0.018161213            2 
 3114000   0.73103025   -7.9694383    702.83246  0.018808405  0.018155501            1 
 3115000   0.75960335   -7.9293383    703.93745  0.018831928  0.018149808            1 
 3116000   0.74338116     -7.94821     702.2355  0.018780367   0.01814415            3 
 3117000   0.75175035   -7.9329916    702.77772  0.018788839  0.018138461            3 
 3118000   0.75242668    -7.938156    702.05754  0.018763565  0.018132768            2 
 3119000   0.76078923   -7.9223973    702.77667  0.018776763  0.018127105            2 
 3120000   0.73653062   -7.9772056    701.94221  0.018748456  0.018121431            3 
 3121000   0.74571938   -7.9239702    703.29114  0.018778467  0.018115749            2 
 3122000   0.74918876   -7.9538861    702.38882  0.018748367  0.018110064            5 
 3123000   0.76623296   -7.9315703    703.51892  0.018772519  0.018104398            3 
 3124000   0.74254623   -7.9597609    703.52182  0.018766587  0.018098745            5 
 3125000   0.74857994   -7.9458714    702.69006  0.018738402  0.018093069            6 
 3126000   0.75029721   -7.9287969    702.35317  0.018723426  0.018087396            2 
 3127000   0.76577767   -7.9481565    703.39756  0.018745271  0.018081723            2 
 3128000   0.74660592   -7.9353224    703.09142  0.018731123  0.018076065            3 
 3129000   0.73146954   -7.9814745    701.59013  0.018685153  0.018070361            4 
 3130000   0.75359245   -7.9559243    702.68093  0.018708225  0.018064675            4 
 3131000   0.74897123   -7.9904058    702.16523  0.018688524  0.018058984            2 
 3132000    0.7474985   -7.9587249    704.15326  0.018735453   0.01805328            6 
 3133000   0.74759134   -7.9805895    700.53465  0.018633223  0.018047583            2 
 3134000   0.75153018   -7.9574493    703.55835  0.018707678  0.018041883            3 
 3135000   0.76617148   -7.9529377    703.72534  0.018706149  0.018036208            3 
 3136000   0.73641595   -7.9675941    703.52157  0.018694769  0.018030518            2 
 3137000   0.73867024   -7.9674398    703.45956  0.018687163  0.018024844            4 
 3138000   0.76292386   -7.9730836    703.12099  0.018672217  0.018019168            2 
 3139000   0.73726687   -8.0088031    702.38264  0.018646667  0.018013482            3 
 3140000   0.75167134   -7.9785668    703.55005   0.01867171   0.01800779            2 
 3141000   0.74894967   -7.9898406     702.9924  0.018650971  0.018002118            1 
 3142000   0.73401149   -7.9992999    702.62882  0.018635392  0.017996423            2 
 3143000   0.75157376   -7.9715112    702.46128  0.018625021  0.017990753            3 
 3144000   0.75884278   -7.9526275    702.47528  0.018619468  0.017985112            2 
 3145000   0.74946038   -7.9820424    704.46915  0.018666379  0.017979466            3 
 3146000   0.74076888   -7.9479995    702.99946  0.018621516  0.017973827            1 
 3147000   0.73764232   -7.9634495    702.72814  0.018608414  0.017968193            2 
 3148000   0.74799537   -7.9625315    703.70517  0.018628367  0.017962532            2 
 3149000   0.75101757   -7.9478556    705.89911   0.01868051  0.017956904            3 
 3150000   0.74501576   -7.9647055    704.25839  0.018631174  0.017951271            1 
 3151000   0.73714409    -7.962295    702.31675  0.018573912  0.017945635            3 
 3152000   0.74839033   -7.9825574    703.73989  0.018605644  0.017939996            1 
 3153000   0.75043562   -7.9641551    703.07148  0.018582077  0.017934362            2 
 3154000   0.73951805   -7.9683181    704.11487  0.018603754  0.017928714            2 
 3155000   0.74143499   -7.9767244    703.34961  0.018577644  0.017923082            2 
 3156000   0.74136137   -7.9735161     705.0982  0.018617929  0.017917453            1 
 3157000   0.73979477   -7.9963576    702.57051   0.01854531   0.01791181            2 
 3158000   0.74427831   -8.0000892    702.73806  0.018543858  0.017906156            5 
 3159000   0.75002876    -7.972582    702.96078  0.018543864  0.017900511            5 
 3160000   0.74785867   -7.9888587    704.76912  0.018585684  0.017894873            1 
 3161000   0.75170364   -7.9966307    704.40035  0.018570082  0.017889238            2 
 3162000   0.73274157   -8.0001893    702.16691  0.018505347  0.017883597            2 
 3163000   0.76421008    -7.978686    702.51925   0.01850878  0.017877976            3 
 3164000   0.75324842   -7.9873334     704.1969  0.018547116  0.017872348            5 
 3165000   0.74066592   -7.9710317     704.4799  0.018548707  0.017866739            2 
 3166000   0.75202401   -7.9622369    703.61797  0.018520161  0.017861144            6 
 3167000   0.75920121   -7.9641759    705.48413  0.018563418  0.017855565            4 
 3168000   0.74113446    -7.957932    704.98479  0.018544423  0.017849973            2 
 3169000   0.75684777   -7.9563259    704.62628  0.018529144  0.017844398            3 
 3170000   0.74823099   -7.9573937    705.49273  0.018546076  0.017838815            2 
 3171000   0.75634969    -7.961236    706.12336    0.0185568  0.017833247            3 
 3172000   0.75103271   -7.9445955    705.71582  0.018540243  0.017827684            3 
 3173000   0.74676074   -7.9460812    704.44886  0.018501126  0.017822093            5 
 3174000   0.74767391   -7.9671615     705.4937  0.018522729  0.017816529            3 
 3175000   0.74199369   -7.9636383    705.12368  0.018507183  0.017810966            2 
 3176000   0.74724905   -7.9548909    706.20977  0.018529853  0.017805373            2 
 3177000   0.75876012   -7.9860997    705.26979  0.018499365  0.017799795            1 
 3178000   0.74880066   -7.9828958    705.23781  0.018492705   0.01779425            1 
 3179000   0.73070762   -7.9899263    706.05328  0.018508265  0.017788693            3 
 3180000   0.74508562   -7.9257321    705.23016  0.018480874  0.017783148            2 
 3181000   0.74307819   -7.9528955    704.65293  0.018459943  0.017777608            2 
 3182000   0.75785696   -7.9788873    705.19527  0.018468345  0.017772082            2 
 3183000   0.73423392   -7.9724118    705.20588   0.01846282  0.017766556            2 
 3184000   0.74860353   -7.9639985    705.76058   0.01847154  0.017761022            4 
 3185000   0.73846045   -7.9717083    704.61282   0.01843571  0.017755466            2 
 3186000   0.74459121   -7.9489788    705.18635  0.018444924  0.017749919            4 
 3187000   0.74070702   -7.9523904    706.03534  0.018461336  0.017744374            2 
 3188000   0.74657416   -7.9990392    704.04219  0.018403445  0.017738802            3 
 3189000   0.74166598   -7.9658494    707.01334  0.018475315  0.017733227            2 
 3190000   0.74266383   -7.9596731    706.42856  0.018454247  0.017727657            5 
 3191000   0.73180345   -7.9836838    705.50986  0.018424471  0.017722089            5 
 3192000   0.74119223   -7.9532348    704.46406  0.018391397  0.017716539            2 
 3193000   0.73887239   -7.9705967    705.52396  0.018413299     0.017711            2 
 3194000   0.73128554   -7.9578025    706.53034  0.018433791   0.01770545            4 
 3195000   0.74749021   -7.9863407    706.55288  0.018428609  0.017699914            4 
 3196000   0.72555471    -7.948819    706.39846  0.018418817  0.017694348            3 
 3197000   0.74523005   -7.9655648    707.59541  0.018444255  0.017688781            2 
 3198000    0.7403908   -7.9802135    705.85491  0.018393134  0.017683205            3 
 3199000   0.73462944   -7.9718101    704.80128  0.018359937  0.017677624            2 
 3200000   0.73827458   -7.9659725    704.92602  0.018357449  0.017672061            3 
 3201000   0.73187512   -7.9830208    704.77062  0.018347668  0.017666492            2 
 3202000   0.74673567   -7.9656827    705.24471  0.018354276  0.017660913            7 
 3203000   0.75313329   -8.0062564    706.40371    0.0183787  0.017655332            2 
 3204000   0.73439814   -8.0157133    705.91431  0.018360235   0.01764974            2 
 3205000   0.74329212   -7.9739662    705.71888  0.018349425  0.017644167            5 
 3206000   0.75012017    -7.989144    703.54862   0.01828729  0.017638576            2 
 3207000   0.71999748   -7.9745931    704.66041  0.018310477     0.017633            3 
 3208000   0.73285493    -7.972681    707.29462  0.018373198  0.017627423            4 
 3209000   0.74743896   -8.0189564    705.38001  0.018317752  0.017621851            4 
 3210000    0.7480428    -7.992168    706.70163  0.018346356  0.017616292            1 
 3211000   0.75278586    -7.971618    705.93339  0.018320705  0.017610717            2 
 3212000   0.75410809   -7.9901423    704.84922  0.018286873  0.017605153            2 
 3213000   0.73918676   -7.9924243    704.35138  0.018268269  0.017599553            4 
 3214000   0.73909708   -7.9974065    704.92556  0.018277473  0.017593963            4 
 3215000   0.74353848   -8.0101386    706.94611   0.01832416  0.017588378            2 
 3216000   0.73995846   -7.9778722    705.75303  0.018287548  0.017582795            1 
 3217000   0.73272005   -7.9974439    706.17016  0.018292668  0.017577234            2 
 3218000   0.73489758   -7.9857534     705.0237  0.018257295  0.017571669            1 
 3219000   0.75125003   -7.9902195    705.26492  0.018257868  0.017566126            2 
 3220000   0.74396519   -7.9844364    705.76118  0.018265041   0.01756059            2 
 3221000   0.74131569   -8.0080226     706.2225  0.018271306  0.017555024            2 
 3222000   0.73649915   -8.0089946    705.62824  0.018250265  0.017549464            2 
 3223000   0.73292137   -8.0065839    703.89562  0.018199804  0.017543887            3 
 3224000   0.74420493   -8.0077745    704.93704  0.018221077  0.017538327            4 
 3225000   0.72430987    -7.995075    706.16994  0.018247285  0.017532771            4 
 3226000    0.7254166    -7.988072    706.07113  0.018239077  0.017527215            2 
 3227000   0.73489943   -7.9774491    705.11167  0.018208648  0.017521676            1 
 3228000    0.7456857   -8.0219688    704.97076  0.018199369  0.017516123            8 
 3229000   0.72484637     -7.97242    704.11871  0.018171743  0.017510564            2 
 3230000   0.72711451   -7.9873654    704.73782   0.01818209  0.017504991            4 
 3231000   0.71955798   -8.0181782    705.24416  0.018189522  0.017499426            2 
 3232000   0.72615927   -8.0052712    705.63527  0.018193979  0.017493884            2 
 3233000   0.73830434   -7.9819146    707.76768  0.018243316  0.017488334            2 
 3234000   0.74534357   -7.9992774    704.41914   0.01815139  0.017482799            3 
 3235000    0.7233267   -8.0012783    705.79259  0.018181159  0.017477261            2 
 3236000   0.73309565   -7.9747607    706.51606  0.018194171  0.017471721            6 
 3237000   0.73212494   -8.0067301    706.33412  0.018183867  0.017466186            1 
 3238000   0.75952984   -7.9785815    705.50672  0.018156957  0.017460639            2 
 3239000   0.73921357   -8.0139015    705.15326  0.018142257  0.017455094            2 
 3240000   0.72094356   -8.0126442    705.41124  0.018143293  0.017449544            2 
 3241000   0.74983874   -8.0048661    707.64697  0.018195181  0.017444027            2 
 3242000   0.73987047   -8.0006444    706.58584  0.018162293  0.017438504            3 
 3243000   0.72738256   -8.0132756    706.58787  0.018156744  0.017432964            1 
 3244000   0.72220508   -8.0022711    707.56634  0.018176283  0.017427419            5 
 3245000   0.74374769    -7.990106    706.91709  0.018154009   0.01742189            3 
 3246000   0.72915484   -7.9798582    705.58038  0.018114099  0.017416353            1 
 3247000   0.73364045   -7.9554555    706.65008  0.018135974  0.017410839            2 
 3248000   0.72630069   -7.9726314     706.4201  0.018124489  0.017405319            1 
 3249000   0.73462713   -8.0139502    705.92255  0.018106149  0.017399793            2 
 3250000   0.74299734   -7.9912581    705.57071  0.018091557  0.017394291            3 
 3251000   0.71904036   -7.9696837    707.49606  0.018135344  0.017388779            1 
 3252000   0.74837242   -8.0056715    705.95922  0.018090386  0.017383255            2 
 3253000   0.72844819   -8.0049742     705.7871  0.018080415   0.01737772            3 
 3254000   0.72403964   -7.9714652    706.05208  0.018081645  0.017372213            2 
 3255000   0.75493077   -8.0000211    706.25601  0.018081311  0.017366703            3 
 3256000   0.73471328    -7.990073    707.45423  0.018106425  0.017361204            2 
 3257000   0.73468644   -7.9860026    706.53582  0.018077367   0.01735571            1 
 3258000   0.72498619   -7.9907032    706.38665  0.018068003  0.017350204            2 
 3259000   0.72610593   -7.9576961    706.62661  0.018068595  0.017344712            2 
 3260000   0.71379774    -7.982734    707.34864  0.018081509  0.017339231            3 
 3261000   0.73434691   -7.9918762    706.03225  0.018042325  0.017333726            4 
 3262000   0.73294455   -7.9953164    706.98627  0.018061166  0.017328223            5 
 3263000   0.75255036   -7.9866618    706.61516  0.018046153  0.017322714            4 
 3264000   0.73040673   -8.0048344    706.14278  0.018028564  0.017317204            3 
 3265000   0.72444274   -8.0279003    704.76584  0.017987898   0.01731169            3 
 3266000   0.73393155   -8.0289761    706.11383  0.018016785  0.017306163            3 
 3267000   0.73178354   -8.0173763    706.96155  0.018032893  0.017300643            2 
 3268000   0.72407122   -8.0115904    706.81552  0.018023652  0.017295124            5 
 3269000   0.73320068   -7.9938073    706.77051  0.018016991  0.017289606            1 
 3270000   0.73766099   -8.0130397    706.17895  0.017996406  0.017284071            3 
 3271000   0.73093011   -8.0417983    706.65888  0.018003131  0.017278506            1 
 3272000   0.72843462   -8.0299685     705.9129  0.017978629  0.017272926            2 
 3273000    0.7246641   -8.0536099    705.03729  0.017950842  0.017267371            2 
 3274000   0.72076428   -8.0529688    705.42363  0.017955193  0.017261826            3 
 3275000   0.73351335   -8.0241387    706.04655  0.017965561  0.017256294            3 
 3276000   0.72291014   -8.0383466     704.2597  0.017914624  0.017250752            4 
 3277000   0.73263428   -8.0271567    704.35601  0.017911606  0.017245203            2 
 3278000   0.73322518   -8.0028794    704.98913  0.017922237  0.017239649            2 
 3279000   0.72844787   -8.0256769     705.5999  0.017932294   0.01723409            2 
 3280000   0.72816128    -8.021243    704.98491  0.017911202  0.017228556            3 
 3281000   0.73032234   -8.0180045     706.4788  0.017943686  0.017223017            8 
 3282000   0.71221212   -8.0065091    705.56743  0.017915078  0.017217483            3 
 3283000   0.72936407   -8.0257453    706.32561  0.017928866  0.017211965            2 
 3284000   0.73329483   -8.0129382    705.23608  0.017895759  0.017206445            3 
 3285000   0.72152667   -8.0042872    706.75353  0.017928806  0.017200914            2 
 3286000   0.71555041   -8.0398645    705.27396  0.017885828  0.017195383            4 
 3287000   0.71144707   -8.0203123    706.00955  0.017899035   0.01718986            2 
 3288000   0.74006595   -8.0228492     706.1946  0.017898282  0.017184362            2 
 3289000   0.71166249   -8.0369104    705.73935  0.017881305   0.01717883            3 
 3290000   0.73865136   -8.0164268    708.19081  0.017937964  0.017173321            2 
 3291000    0.7260667   -8.0216899    706.06713  0.017878738  0.017167804            4 
 3292000   0.72160196   -8.0062944    705.76265    0.0178656  0.017162302            4 
 3293000   0.71240762   -8.0201795    707.89199   0.01791406  0.017156798            2 
 3294000   0.71678842   -8.0083313    705.84976  0.017856956   0.01715129            5 
 3295000   0.71307209   -8.0176045    705.15599  0.017833991  0.017145772            3 
 3296000   0.71181208   -8.0266353    707.18223   0.01787981  0.017140263            2 
 3297000   0.73331763   -7.9956447    705.91584  0.017842378  0.017134763            2 
 3298000   0.72583436   -8.0183586    707.01907  0.017864844  0.017129266            2 
 3299000   0.73183759   -8.0099371    707.12252  0.017862042  0.017123763            3 
 3300000   0.71816648   -8.0099926    705.62364  0.017818779  0.017118269            3 
 3301000   0.71260396   -7.9952128    706.87944  0.017845083  0.017112789            2 
 3302000   0.73169246   -8.0005292    707.53064  0.017856113  0.017107314            2 
 3303000   0.73269549   -7.9982021    705.16001  0.017790897  0.017101837            4 
 3304000   0.72797433   -8.0354115    705.55272  0.017795418   0.01709636            1 
 3305000   0.72131735   -8.0487204    707.39344  0.017836446  0.017090856            3 
 3306000   0.72337595   -8.0219921    706.04161  0.017796976  0.017085349            3 
 3307000   0.72773178   -8.0363182    705.00878  0.017765568  0.017079844            5 
 3308000   0.72291217   -8.0517207    706.14129  0.017788727  0.017074332            3 
 3309000   0.71429892   -8.0306263    705.83087  0.017775533  0.017068814            2 
 3310000   0.72940559   -8.0257752    704.20723  0.017729286  0.017063309            3 
 3311000   0.71791013   -8.0275308    706.78532  0.017788818  0.017057826            2 
 3312000   0.72796351   -8.0424204    705.39083   0.01774836  0.017052324            2 
 3313000   0.72038455   -8.0566453     705.8667  0.017754973  0.017046811            3 
 3314000   0.71619271   -8.0418811    705.50481  0.017740515  0.017041305            4 
 3315000   0.72495246   -8.0479051    706.40552  0.017757806  0.017035796            1 
 3316000   0.72433938   -8.0524728    705.54646  0.017730862  0.017030277            3 
 3317000   0.72466446   -8.0331937     706.2693  0.017743676  0.017024764            3 
 3318000    0.7100111   -8.0578847    706.39735  0.017741545  0.017019275            2 
 3319000   0.72509916   -8.0418327    706.11461    0.0177291  0.017013797            2 
 3320000   0.71691737   -8.0551197    706.93319  0.017744307  0.017008324            3 
 3321000   0.71249631   -8.0628667    706.00893  0.017715772  0.017002837            4 
 3322000   0.70073117   -8.0447097    705.51266   0.01769799  0.016997361            1 
 3323000    0.7209499   -8.0111735    706.90333  0.017727539  0.016991894            2 
 3324000   0.71282322   -8.0257137    706.44451  0.017710703   0.01698644            2 
 3325000   0.71834452    -8.020283    707.98051  0.017743872  0.016980988            5 
 3326000   0.71595901   -8.0629627    707.35951  0.017722978  0.016975528            2 
 3327000   0.70962576   -8.0081178    706.77735   0.01770307  0.016970067            2 
 3328000   0.72328214   -8.0206483    708.25784  0.017734822  0.016964624            4 
 3329000   0.72119503   -8.0257589    707.73718  0.017716461  0.016959178            2 
 3330000   0.71197423   -8.0218403    707.95637  0.017716626  0.016953749            2 
 3331000   0.71736869    -8.019261    707.89516  0.017709776  0.016948336            2 
 3332000   0.71872144   -8.0226572    707.53634  0.017695487  0.016942931            7 
 3333000   0.70790921   -8.0426065     707.5713  0.017691051  0.016937529            3 
 3334000   0.71694183   -8.0012354     707.9492  0.017695191  0.016932128            1 
 3335000   0.72274745   -8.0553662    708.53071  0.017704415  0.016926738            3 
 3336000   0.71666806   -8.0233672    707.91501  0.017683728  0.016921329            2 
 3337000   0.71793081   -8.0334594    705.40013  0.017615626  0.016915921            3 
 3338000   0.71542571   -8.0220122    708.07327  0.017677084  0.016910525            3 
 3339000   0.71785964   -8.0595683    709.63889  0.017710864  0.016905129            2 
 3340000   0.71426062    -8.050394    706.96227  0.017638779  0.016899725            2 
 3341000   0.73277816   -8.0310548    706.74138   0.01762799  0.016894301            4 
 3342000   0.72065484   -8.0353515    707.92191  0.017652152  0.016888875            3 
 3343000   0.71729912   -8.0374648    707.64163  0.017639885   0.01688346            2 
 3344000   0.71795964   -8.0364566    708.76094  0.017662503  0.016878056            4 
 3345000   0.72873912   -8.0346365    709.23199  0.017668958   0.01687265            1 
 3346000   0.72202882   -8.0424748    708.45874   0.01764442  0.016867254            2 
 3347000   0.70434427   -8.0370063    705.94942  0.017576671  0.016861858            2 
 3348000   0.70888829    -8.033059    707.87577  0.017619369  0.016856453            4 
 3349000    0.7167452   -8.0483765    707.97944  0.017616688  0.016851027            7 
 3350000   0.71222841   -8.0499963    707.55609  0.017600898  0.016845615            3 
 3351000   0.71214961   -8.0357403    708.37002  0.017615886  0.016840201            2 
 3352000   0.71550312   -8.0515045    707.53021  0.017589753  0.016834783            1 
 3353000   0.70042864   -8.0167183    707.06894  0.017573043  0.016829377            2 
 3354000   0.71988926   -8.0357819    708.32032  0.017598895  0.016823979            2 
 3355000   0.70745801   -8.0635709    706.22936  0.017541713  0.016818561            4 
 3356000   0.72152767   -8.0169151    707.27246  0.017562387  0.016813134            3 
 3357000   0.70539473   -8.0635739    706.79884  0.017545399  0.016807724            5 
 3358000   0.70768704   -8.0527731    706.92736  0.017543363  0.016802308            2 
 3359000   0.70776868   -8.0499372     707.7793  0.017559276  0.016796897            2 
 3360000   0.72030904   -8.0594341    705.30539  0.017492693   0.01679149            4 
 3361000   0.70331098   -8.0504154    708.41522  0.017564594  0.016786079            2 
 3362000   0.72118664   -8.0379794    708.45196  0.017560281  0.016780665            4 
 3363000   0.70992181   -8.0548983    707.72704  0.017537096   0.01677525            2 
 3364000   0.70936009   -8.0560827    706.45125  0.017500279  0.016769838            5 
 3365000   0.71517436   -8.0696973    705.71349  0.017476807  0.016764414            3 
 3366000    0.7019013   -8.0729062     706.4159  0.017489005  0.016758988            3 
 3367000   0.71883547   -8.0401606    706.95215  0.017497083  0.016753566            3 
 3368000   0.71806316   -8.0784709     704.8783  0.017440575  0.016748128            3 
 3369000    0.7234562   -8.0408052    706.28067  0.017470087  0.016742704            2 
 3370000   0.72159446   -8.0493891     707.1915  0.017487426  0.016737279            3 
 3371000   0.69357376   -8.0805752     707.1708  0.017481726  0.016731858            2 
 3372000   0.72274521   -8.0693435    706.86208  0.017468913  0.016726436            4 
 3373000   0.72080854    -8.043059    707.88145  0.017488918  0.016721029            1 
 3374000    0.7030376   -8.0706909    708.81148  0.017506705  0.016715625            2 
 3375000   0.71002797   -8.0297257    708.23443   0.01748727  0.016710243            3 
 3376000   0.70279974    -8.030847    706.02485  0.017427549  0.016704844            2 
 3377000   0.70900613   -8.0273266    707.98333  0.017470717  0.016699462            3 
 3378000   0.71340506    -8.053681    708.25615  0.017472275  0.016694078            3 
 3379000   0.71122401   -8.0185628    707.66756  0.017452589  0.016688693            7 
 3380000   0.70394404   -8.0741185    706.37852  0.017415644  0.016683294            2 
 3381000   0.70630337   -8.0532612    706.53275  0.017414294  0.016677892            7 
 3382000   0.70983297   -8.0603132    706.51473  0.017408701  0.016672491            2 
 3383000   0.71783928   -8.0627641    706.70304  0.017408194  0.016667088            3 
 3384000   0.70018166   -8.0630836    707.80121  0.017430093  0.016661701            3 
 3385000   0.71246191   -8.0631021    707.22874   0.01741085  0.016656316            1 
 3386000   0.70447713   -8.0592112    705.87775  0.017372459  0.016650924            2 
 3387000   0.70308358   -8.0587152    708.32921  0.017427645  0.016645536            1 
 3388000   0.71656106   -8.0485926    706.28287  0.017372168  0.016640154            2 
 3389000   0.71686621   -8.0399752    709.12659  0.017436967   0.01663479            2 
 3390000   0.70575842   -8.0510882    707.67778  0.017396209  0.016629417            2 
 3391000   0.71687119   -8.0655742    707.98389  0.017398601  0.016624062            1 
 3392000    0.7091318   -8.0557553    706.94571  0.017367967  0.016618699            3 
 3393000    0.6922565   -8.0850019    708.08313  0.017390783  0.016613317            2 
 3394000   0.72588778   -8.0620123    707.47549   0.01737074  0.016607939            3 
 3395000   0.69040071   -8.0670887    706.93057  0.017352248  0.016602554            3 
 3396000   0.71338492   -8.0757155    704.49761  0.017287436  0.016597161            3 
 3397000    0.7113672   -8.0637865    707.19843  0.017348602  0.016591776            3 
 3398000   0.71291684   -8.0781889     708.3039  0.017370608  0.016586413            4 
 3399000     0.725024   -8.0744885    707.95379  0.017356913  0.016581043            3 
 3400000   0.70584377   -8.0635518    707.96834  0.017352165  0.016575687            2 
 3401000   0.71419063   -8.0694043     706.6172  0.017313957  0.016570327            3 
 3402000   0.71531826   -8.0630024    707.05418  0.017319571  0.016564954            4 
 3403000   0.70248415   -8.0885978    706.68326  0.017305399  0.016559587            4 
 3404000   0.71573856   -8.0952187    706.79232  0.017302985  0.016554222            1 
 3405000   0.69564119   -8.0699298    706.16964  0.017282664  0.016548854            4 
 3406000    0.7077412   -8.0818984    707.60225  0.017312641  0.016543497            2 
 3407000   0.70167829   -8.0935825    706.51485  0.017280962   0.01653814            1 
 3408000   0.69451762   -8.0745445    707.04172  0.017288774  0.016532769            4 
 3409000   0.70975689   -8.0805539    706.58686  0.017272584  0.016527399            2 
 3410000   0.69717481   -8.0579339     706.1032  0.017255699  0.016522027            1 
 3411000    0.7077108   -8.0638649    707.04404  0.017273626  0.016516653            2 
 3412000   0.70000147    -8.059353    707.24091  0.017273371  0.016511295            2 
 3413000   0.70308243   -8.0725011    707.10055  0.017264883  0.016505932            2 
 3414000   0.71739558   -8.0956769     706.7442  0.017251128  0.016500562            6 
 3415000   0.70119754   -8.1080461    706.29128  0.017235024  0.016495199            3 
 3416000   0.71687369   -8.1055557    707.90497  0.017269344  0.016489848            4 
 3417000   0.70992718   -8.0720527    706.52528  0.017230643   0.01648449            2 
 3418000   0.69323778   -8.0916871    708.03852  0.017262496  0.016479128            7 
 3419000   0.70472856   -8.0949759    707.07143  0.017233875  0.016473753            5 
 3420000   0.69421039   -8.1088498    705.91458  0.017200648  0.016468377            1 
 3421000   0.69695545   -8.0972165    706.88097   0.01721916  0.016463009            2 
 3422000   0.71145432   -8.0791441    707.36949  0.017226025  0.016457644            3 
 3423000   0.71861889   -8.0898168    707.91686  0.017234318  0.016452292            3 
 3424000   0.70154715   -8.0860447    707.58287  0.017221156  0.016446946            1 
 3425000   0.69819454   -8.0641454    708.16489  0.017230289    0.0164416            2 
 3426000   0.70586721   -8.0715258    707.87607  0.017218235   0.01643627            5 
 3427000   0.71973485   -8.0688053    707.58029  0.017206018  0.016430924            3 
 3428000   0.70674687   -8.0847467    706.74414  0.017180672  0.016425574            2 
 3429000   0.69753562   -8.0768622    706.76516  0.017176173  0.016420227            2 
 3430000   0.70656227   -8.0784524    708.44065  0.017211872  0.016414893            6 
 3431000   0.71429096   -8.0412297    708.80538  0.017215714  0.016409564            4 
 3432000   0.70140395    -8.079937    707.62151  0.017181952   0.01640424            3 
 3433000   0.69203248   -8.0635605    708.80648  0.017205711  0.016398924            3 
 3434000   0.70102563   -8.0680292    708.77016  0.017199819  0.016393609            2 
 3435000   0.69707588   -8.0673009    708.48426  0.017187876  0.016388294            2 
 3436000   0.72096005    -8.075569    707.19426  0.017151588  0.016382978            6 
 3437000   0.70099073   -8.0703779    708.08263  0.017168137  0.016377676            7 
 3438000   0.69250183   -8.0812507    707.47368  0.017148383  0.016372376            3 
 3439000    0.6851575   -8.0638303      707.722  0.017149414  0.016367074            2 
 3440000   0.68184156   -8.0770681    707.57668  0.017140908  0.016361778            3 
 3441000   0.69449712   -8.0969727    706.31651  0.017105408   0.01635647            2 
 3442000   0.70505663   -8.0706207    709.16156  0.017169319  0.016351163            1 
 3443000    0.7045777   -8.0739538    709.42245  0.017170647  0.016345866            1 
 3444000   0.70070776   -8.0929516    708.38381   0.01714053  0.016340552            3 
 3445000   0.69270856    -8.069595    708.83523  0.017146474  0.016335258            3 
 3446000   0.70744849    -8.082905    707.13623  0.017100412  0.016329957            4 
 3447000   0.70944438   -8.0947998    708.65952  0.017132277  0.016324646            2 
 3448000    0.7029153   -8.0696505    709.90698  0.017157458  0.016319341            6 
 3449000   0.69680049   -8.0774208    707.65741   0.01709813  0.016314032            7 
 3450000   0.70549327   -8.0834175    707.13321  0.017080512  0.016308739            1 
 3451000   0.70204322   -8.0568062    708.85028  0.017117026   0.01630345            3 
 3452000   0.69096695   -8.0864885    707.39073  0.017076833  0.016298166            2 
 3453000   0.70244866   -8.0977529    708.79551   0.01710579  0.016292869            2 
 3454000   0.70583532   -8.1133599    706.17597  0.017037637  0.016287564            1 
 3455000   0.71404652   -8.0866013    708.56342   0.01709029  0.016282252            3 
 3456000   0.69579854   -8.1046213    707.89107  0.017069133  0.016276947            3 
 3457000   0.70014697   -8.0920891    707.02747  0.017043377  0.016271629            3 
 3458000   0.71207341   -8.0859243    707.66151  0.017053728  0.016266314            3 
 3459000    0.6838786   -8.0879426    707.48862  0.017044633   0.01626101            3 
 3460000   0.71003476   -8.0854159    707.63596  0.017043255  0.016255714            4 
 3461000   0.70973179   -8.0677912     709.5304  0.017083945   0.01625043            1 
 3462000   0.71560641   -8.0771029    709.06879  0.017067899  0.016245158            2 
 3463000   0.68898693    -8.092359    709.32248  0.017069075  0.016239886            2 
 3464000   0.68556016   -8.1051114    707.58166  0.017022269  0.016234601            2 
 3465000   0.70346474   -8.1016695    706.87365  0.017000328  0.016229314            4 
 3466000   0.70745222   -8.0881822    708.44948  0.017033311  0.016224032            3 
 3467000   0.68220529   -8.0721368     709.8093  0.017061083  0.016218747            2 
 3468000    0.6900868   -8.0981333    706.70211    0.0169815  0.016213467            5 
 3469000    0.6862358   -8.1303135    706.49348  0.016971593  0.016208181            2 
 3470000    0.7027121   -8.1034168    708.92956  0.017025206  0.016202909            1 
 3471000   0.68290821   -8.1080732    708.70105  0.017014814  0.016197647            5 
 3472000   0.68291624   -8.0871387     708.0587  0.016994496  0.016192372            2 
 3473000   0.69109326   -8.0915994    708.68051  0.017004523  0.016187102            1 
 3474000    0.6823193   -8.0919127    708.04976  0.016984498  0.016181834            3 
 3475000   0.68020469   -8.0973064     706.8104   0.01694989  0.016176562            5 
 3476000    0.6970516   -8.1002878    708.80027  0.016992718  0.016171299            3 
 3477000    0.6945733   -8.0772479    709.67739  0.017008853  0.016166048            3 
 3478000   0.67200829   -8.0692928    710.05022  0.017012896   0.01616081            5 
 3479000   0.69201166   -8.0676411    709.39661   0.01699235  0.016155574            3 
 3480000   0.70131439   -8.1254465    709.38225  0.016987123  0.016150333            4 
 3481000   0.69125768   -8.0616748    709.34922  0.016981452  0.016145088            2 
 3482000   0.70722178   -8.0800017        709.2  0.016973004  0.016139846            4 
 3483000   0.69966462   -8.0945213    709.16579  0.016967312  0.016134615            2 
 3484000   0.70454352   -8.1199461    707.76895  0.016929032  0.016129385            2 
 3485000   0.69357542   -8.0922169    708.84304  0.016949857  0.016124144            4 
 3486000   0.70022212   -8.0998653    708.32677  0.016932654  0.016118908            3 
 3487000   0.68144985   -8.0661521    708.84451  0.016940171  0.016113679            2 
 3488000   0.68057285   -8.1447675      709.035  0.016939865  0.016108436            2 
 3489000   0.68239993    -8.118327    708.63546  0.016925467  0.016103187            3 
 3490000    0.7078371   -8.0998596    707.36649  0.016890317   0.01609794            4 
 3491000   0.69453531   -8.1131286    707.89442  0.016898081  0.016092699            3 
 3492000    0.6957009   -8.1327684    707.64614  0.016887317  0.016087461            1 
 3493000   0.69119882   -8.1140862    707.64147  0.016882371  0.016082206            2 
 3494000   0.70401012   -8.0997545    708.10278  0.016888542  0.016076939            3 
 3495000   0.70610684   -8.1155407    707.57596  0.016871148  0.016071704            2 
 3496000   0.70060522   -8.1067369     709.3297  0.016908126  0.016066477            2 
 3497000   0.69378655   -8.1110519    706.84914  0.016844179  0.016061249            4 
 3498000     0.700712   -8.0597028    709.24982  0.016896556  0.016056021            3 
 3499000   0.70458319    -8.126864    708.94482  0.016884463  0.016050778            6 
 3500000   0.69098095   -8.0942917    707.61528  0.016847983  0.016045534            2 
 3501000    0.6958616   -8.0890331    709.80645  0.016895326  0.016040297            1 
 3502000   0.69329066   -8.0860087    709.99691  0.016895034   0.01603508            1 
 3503000   0.67866957    -8.082124    708.04741  0.016843834  0.016029855            2 
 3504000   0.68397765   -8.1013308    708.18283  0.016842248   0.01602463            2 
 3505000   0.70692652   -8.0952054    707.74001  0.016826914  0.016019396            4 
 3506000   0.67989609   -8.0945121    707.78084  0.016823085   0.01601418            2 
 3507000   0.70222231   -8.0877599    708.72643  0.016840757  0.016008978            1 
 3508000   0.67436547   -8.0994962    708.94428  0.016841132  0.016003776            3 
 3509000   0.68980368   -8.1019218    709.70925  0.016854499  0.015998574            2 
 3510000   0.70724599   -8.0773972    707.69749  0.016801935  0.015993384            2 
 3511000    0.6854912   -8.1001471    707.73122   0.01679795  0.015988193            5 
 3512000   0.68484534   -8.0612364    710.09646   0.01684929  0.015983007            1 
 3513000   0.69642307   -8.1016127    710.10553  0.016844708  0.015977824            1 
 3514000   0.69890596   -8.1093302    709.00491  0.016813814  0.015972624            2 
 3515000   0.67873665   -8.0767105    710.41179  0.016842385  0.015967416            1 
 3516000   0.68160959   -8.0920574    710.04837  0.016828981  0.015962227            6 
 3517000   0.69807923   -8.1056501     707.8357  0.016771768  0.015957028            1 
 3518000   0.71307283   -8.1023701    708.44542  0.016781444  0.015951819            1 
 3519000    0.6858834   -8.1125006    709.11462  0.016792522  0.015946606            1 
 3520000    0.6792531   -8.1226993    708.35334  0.016769729  0.015941406            5 
 3521000   0.68173981   -8.1160169    708.80502  0.016775656  0.015936206            3 
 3522000   0.70132653   -8.1076941    710.01779  0.016799588  0.015930994            3 
 3523000   0.68557158   -8.1032726    706.69749  0.016716281  0.015925789            2 
 3524000   0.66421901   -8.1113592    708.31579  0.016749806  0.015920579            2 
 3525000   0.68459007   -8.1216154    708.38967  0.016746801  0.015915373            2 
 3526000   0.67770234   -8.1113076    708.15288  0.016736455  0.015910171            7 
 3527000    0.6846627    -8.091552    710.03065  0.016776076   0.01590499            3 
 3528000   0.68130528   -8.1159706    709.26061  0.016753132  0.015899799            5 
 3529000   0.68834062   -8.1277632    706.98082   0.01669455  0.015894587            2 
 3530000   0.67948446   -8.1278259    708.10301  0.016716313  0.015889383            2 
 3531000   0.69475244   -8.0993808    708.58371  0.016722923  0.015884191            4 
 3532000   0.68793931   -8.1395738    708.69648  0.016720849  0.015878987            2 
 3533000   0.68191914    -8.145423    707.80598  0.016695112  0.015873792            1 
 3534000   0.70377448   -8.1048031    709.41376    0.0167283  0.015868598            3 
 3535000   0.67582179   -8.1032659    710.01738  0.016737798  0.015863411            2 
 3536000   0.69067784   -8.1117655    709.41729  0.016718922  0.015858227            4 
 3537000   0.71208827   -8.1045944    708.15178  0.016684379  0.015853057            3 
 3538000   0.68624011   -8.1315361    709.07226  0.016701344  0.015847877            4 
 3539000   0.69165119   -8.1061427    709.20955  0.016699858  0.015842691            8 
 3540000    0.6786767   -8.1213957    707.44215  0.016653535  0.015837517            5 
 3541000   0.67742124   -8.1156835    709.64579  0.016700692  0.015832346            3 
 3542000   0.68876097   -8.1103704    709.42172  0.016690705  0.015827182            2 
 3543000   0.67453621   -8.1262722    707.85009  0.016649028  0.015822019            2 
 3544000   0.68085133    -8.112362    707.45098  0.016634946  0.015816856            3 
 3545000   0.67096057   -8.1384413    708.16709  0.016647087  0.015811693            3 
 3546000   0.68622857   -8.1296741    708.41999  0.016648336  0.015806527            2 
 3547000   0.69690508   -8.1471949    708.42315  0.016643716  0.015801355            3 
 3548000   0.68723106    -8.155964     708.7497  0.016646695  0.015796179            2 
 3549000   0.68980083   -8.1279354    707.31212  0.016608249  0.015790992            3 
 3550000   0.68411821   -8.1228289    708.63119  0.016634535  0.015785809            4 
 3551000   0.68647431   -8.1320248    710.04854  0.016663112  0.015780641            5 
 3552000   0.68558056   -8.1025907    708.99149  0.016633622  0.015775474            6 
 3553000     0.678335   -8.1238169    710.55593  0.016665633  0.015770297            5 
 3554000   0.68027744   -8.1094228    710.24651  0.016653689  0.015765134            2 
 3555000   0.68295495   -8.1270428    708.34837  0.016604509  0.015759973            2 
 3556000   0.68471827   -8.1002969    709.28683  0.016621832  0.015754805            1 
 3557000   0.68283579   -8.1103242    709.02473  0.016611019  0.015749659            2 
 3558000   0.67805495    -8.121848    707.74541  0.016576387  0.015744525            4 
 3559000   0.68139878   -8.1287567    708.93053  0.016599478  0.015739386            3 
 3560000   0.67148841   -8.1294538    707.91207  0.016570975  0.015734235            4 
 3561000   0.67742806   -8.1237345    708.19206  0.016572874  0.015729078            1 
 3562000   0.68118558   -8.1392791    707.91958  0.016561847  0.015723918            3 
 3563000   0.67684295   -8.1492547    707.99184  0.016558889  0.015718756            3 
 3564000     0.665518   -8.1249203    708.76896  0.016572413  0.015713592            3 
 3565000   0.67945984   -8.1405465    709.70388  0.016589619  0.015708443            2 
 3566000   0.67229998   -8.1426576    707.51177  0.016533739  0.015703279            2 
 3567000    0.6678234   -8.1345687    708.42174  0.016550363  0.015698136            3 
 3568000   0.67631679   -8.1154821    710.20623  0.016587403  0.015692992            2 
 3569000   0.68455753   -8.1317736    709.02953   0.01655528  0.015687831            2 
 3570000   0.68617672   -8.1528629    708.21214  0.016531563  0.015682664            4 
 3571000   0.68414009   -8.1330417    708.81517  0.016541006  0.015677498            5 
 3572000   0.69846996   -8.1606037      708.576  0.016530795  0.015672325            2 
 3573000   0.68109847   -8.1467409    707.05982  0.016490806  0.015667147            3 
 3574000   0.67202873   -8.1315194    708.20909  0.016512989   0.01566199            3 
 3575000   0.65545462   -8.1618493    706.98323  0.016479796  0.015656822            1 
 3576000    0.6934623   -8.1169017    707.28521  0.016482224  0.015651658            1 
 3577000   0.66787107   -8.1251477    707.78705  0.016489308  0.015646504            2 
 3578000   0.69419695   -8.1152041    707.75012  0.016483839   0.01564135            2 
 3579000   0.67705043   -8.1515161    707.69122  0.016477862  0.015636205            3 
 3580000   0.68782386   -8.1536014    707.56395  0.016470297   0.01563105            3 
 3581000   0.67868919   -8.1482834     706.3132  0.016436591  0.015625917            5 
 3582000   0.68010218   -8.1324721    707.75613  0.016465572  0.015620777            2 
 3583000   0.67843574   -8.1419869    707.51099  0.016455275   0.01561564            2 
 3584000   0.68038841   -8.1518415     708.0305  0.016462763  0.015610488            3 
 3585000   0.66590127   -8.1474435    707.03479  0.016435025  0.015605335            3 
 3586000   0.67412131   -8.1492502    709.72941  0.016493061  0.015600194            3 
 3587000   0.67167579   -8.1503781    707.85485  0.016444913   0.01559506            3 
 3588000   0.65685075   -8.1649578    708.64958  0.016458788  0.015589915            2 
 3589000   0.67128366   -8.1408661    707.87285  0.016436167  0.015584779            2 
 3590000    0.6778208   -8.1433964    707.74793  0.016428689  0.015579645            3 
 3591000   0.68026235   -8.1609633    709.07825  0.016454986  0.015574517            3 
 3592000   0.67889733   -8.1608194    708.28638  0.016432034   0.01556938            4 
 3593000   0.67918067   -8.1555504    708.08249  0.016422732  0.015564239            2 
 3594000   0.67184387   -8.1562816    707.95396  0.016415182  0.015559092            5 
 3595000   0.68734492   -8.1561159    708.04609  0.016412751  0.015553955            2 
 3596000   0.67051955   -8.1561723    708.84311  0.016426657  0.015548816            1 
 3597000   0.67864731   -8.1726192    706.51797  0.016368223  0.015543682            3 
 3598000   0.68379965   -8.1514629    707.41701  0.016384496  0.015538535            4 
 3599000   0.68490822   -8.1472573    708.39788  0.016402655  0.015533396            5 
 3600000   0.67700197   -8.1393721     708.5077  0.016400641  0.015528259            2 
 3601000   0.69067543   -8.1434646     707.9263  0.016382632  0.015523133            1 
 3602000   0.67022827   -8.1582944    708.51371  0.016391674  0.015517998            3 
 3603000    0.6721154   -8.1397403    707.80802  0.016370803  0.015512874            2 
 3604000   0.66178251   -8.1468267    708.62518  0.016385155   0.01550776            2 
 3605000   0.67578791   -8.1507856    708.43754  0.016376272  0.015502643            2 
 3606000   0.68454294    -8.135626    709.38844  0.016393706  0.015497533            3 
 3607000   0.67444655   -8.1485294    708.63008   0.01637164  0.015492426            3 
 3608000   0.67025906   -8.1490758    709.47302  0.016386572   0.01548732            2 
 3609000   0.68032291   -8.1690163    707.20369  0.016329632  0.015482217            2 
 3610000   0.67551886   -8.1768527    705.77047  0.016292024  0.015477093            5 
 3611000   0.68448065   -8.1628759    706.68109  0.016308527  0.015471964            2 
 3612000   0.66952874   -8.1559993    707.57645  0.016324669   0.01546683            1 
 3613000   0.66727788   -8.1646132    708.23664  0.016335378  0.015461691            1 
 3614000   0.66730333   -8.1568914    708.93303  0.016346916   0.01545656            4 
 3615000     0.684945   -8.1433736    708.10169  0.016323229  0.015451439            5 
 3616000   0.67427748   -8.1611665    708.80102  0.016334832  0.015446317            2 
 3617000   0.66398896   -8.1392278    707.39312  0.016297878  0.015441186            2 
 3618000   0.66189485   -8.1613702    707.84296  0.016303735  0.015436069            3 
 3619000    0.6834895   -8.1663465    707.09459  0.016281998  0.015430945            6 
 3620000   0.68085635   -8.1637244    707.02246  0.016275839  0.015425812            2 
 3621000   0.67374537   -8.1819513    706.69934  0.016263908  0.015420688            3 
 3622000   0.66587655   -8.1635594    707.20404   0.01627103  0.015415553            3 
 3623000   0.67333414   -8.1567577    706.76225  0.016256377  0.015410428            3 
 3624000   0.66115444   -8.1704519    709.03762  0.016304213  0.015405313            2 
 3625000   0.68149293   -8.1809838     706.5937  0.016243533  0.015400179            7 
 3626000   0.68298415   -8.1584362    708.00124  0.016271402  0.015395052            2 
 3627000   0.68326662     -8.15608     706.8031  0.016239388  0.015389934            2 
 3628000   0.67165942   -8.1577049    706.39856  0.016225619  0.015384806            3 
 3629000   0.66854881   -8.1820922    706.07491  0.016213716  0.015379675            2 
 3630000   0.67119422   -8.1872492    706.33158  0.016215142  0.015374558            2 
 3631000   0.67570163   -8.1538316    707.60018  0.016239791  0.015369442            3 
 3632000   0.67440441   -8.1708323    706.92105  0.016219738  0.015364332            4 
 3633000   0.67221067   -8.1805425    707.99032    0.0162398  0.015359219            2 
 3634000   0.67147549   -8.1985129    706.19571  0.016194178  0.015354112            2 
 3635000    0.6792736   -8.1603085    708.84583  0.016250478  0.015349017            3 
 3636000   0.66034411   -8.1984534    707.11842  0.016206418  0.015343916            1 
 3637000   0.69380703   -8.1713829    706.29061  0.016182995  0.015338822            4 
 3638000   0.67589256   -8.1761226    706.41028  0.016181287  0.015333733            3 
 3639000   0.65557276   -8.1654781     708.2149  0.016218167  0.015328635            2 
 3640000   0.67534626   -8.1714615    708.75838  0.016226153  0.015323554            1 
 3641000   0.64772633   -8.1588334    708.63325  0.016218833  0.015318478            2 
 3642000     0.669613   -8.1580404    707.71673  0.016193409  0.015313391            2 
 3643000   0.66997614   -8.1820978    707.98186  0.016195028  0.015308311            3 
 3644000    0.6847169    -8.161244    706.23454  0.016150625  0.015303224            3 
 3645000   0.67024715   -8.1974246     707.7836  0.016181609  0.015298116            2 
 3646000   0.66425429   -8.1764874    708.46784   0.01619281  0.015293026            3 
 3647000   0.70332466   -8.1792039    708.13135  0.016180682  0.015287943            3 
 3648000   0.66372594   -8.1647264    708.97178  0.016195444  0.015282872            2 
 3649000   0.68259384   -8.1859241    708.03998  0.016169726  0.015277792            3 
 3650000   0.66944745   -8.1742752    706.40284  0.016127919  0.015272721            3 
 3651000   0.66673859   -8.1902199    708.35071  0.016167961  0.015267629            3 
 3652000   0.67031778   -8.1855068    706.81519  0.016128495  0.015262539            5 
 3653000   0.68475065   -8.1820976    707.39878  0.016137393  0.015257457            2 
 3654000   0.65779373   -8.1883038    707.28809  0.016130453  0.015252388            2 
 3655000   0.67561174    -8.184178    706.89663  0.016117114  0.015247313            3 
 3656000   0.66825112   -8.2007858    707.80338  0.016133374   0.01524224            3 
 3657000   0.67292243   -8.1532906     709.1043  0.016158607  0.015237179            2 
 3658000   0.66047749   -8.1654534    706.79341  0.016101545  0.015232124            2 
 3659000    0.6578104   -8.1751526    707.92042  0.016122812  0.015227075            1 
 3660000   0.67226071    -8.191739    708.08987  0.016122265  0.015222013            3 
 3661000   0.65512642   -8.1688264     707.7882  0.016110994  0.015216966            3 
 3662000   0.65402248   -8.2111889    707.15453  0.016092175  0.015211925            2 
 3663000   0.66065271   -8.1837802     707.5229  0.016096162  0.015206882            4 
 3664000   0.66358116   -8.1801542    707.16971  0.016083736  0.015201846            2 
 3665000   0.68568605   -8.1680635    707.67177  0.016090763  0.015196811            2 
 3666000    0.6765688   -8.1527484    707.90897  0.016091766  0.015191783            2 
 3667000   0.67064373   -8.1507564    708.71457  0.016105685  0.015186752            1 
 3668000   0.66364141   -8.1469707     708.5023  0.016096472  0.015181725            3 
 3669000   0.66456436   -8.1724514    710.42693  0.016135798    0.0151767            3 
 3670000   0.67365512    -8.170266    707.57403  0.016066622  0.015171677            4 
 3671000   0.65004266    -8.175576    709.02755  0.016095241  0.015166659            2 
 3672000   0.66850493   -8.1873675    708.23002  0.016072758  0.015161626            2 
 3673000   0.67311245   -8.1636853    707.64937  0.016055208  0.015156599            3 
 3674000    0.6705867   -8.1617922    706.85806   0.01603289  0.015151577            3 
 3675000   0.64319635   -8.1673888    707.69244  0.016047448   0.01514656            2 
 3676000   0.66103778   -8.1497657    706.68417  0.016020225  0.015141552            5 
 3677000   0.64845671   -8.1309548    708.37186  0.016054117  0.015136553            2 
 3678000   0.66100788   -8.1569278    707.55783  0.016031308  0.015131559            3 
 3679000   0.64748792   -8.1560165    707.15993  0.016017938  0.015126558            6 
 3680000   0.65032709   -8.1621285    709.45159   0.01606548  0.015121563            2 
 3681000   0.66479938   -8.1829565     707.4088  0.016014869  0.015116549            3 
 3682000   0.65390534   -8.1763736    707.69364  0.016016966  0.015111537            2 
 3683000   0.65792393   -8.2145433    707.27597  0.016003167  0.015106519            2 
 3684000   0.66723851   -8.1928468     706.9109  0.015990565  0.015101506            2 
 3685000   0.65977003   -8.1885758    707.01082  0.015988485    0.0150965            3 
 3686000   0.66374704   -8.1909119    708.51188  0.016018084  0.015091494            2 
 3687000   0.65561663   -8.1677163    708.74567  0.016019023  0.015086494            3 
 3688000   0.67420565   -8.1896109    708.85239  0.016017091   0.01508149            4 
 3689000   0.65442452   -8.1749864    708.05537  0.015994745  0.015076484            4 
 3690000   0.67155388   -8.1854256    708.22501  0.015994241  0.015071482            5 
 3691000   0.65460098   -8.1741307    708.06167   0.01598622  0.015066468            5 
 3692000    0.6582536   -8.1857963    708.15211  0.015983932  0.015061452            6 
 3693000   0.65782478   -8.1729931    706.84878  0.015950193   0.01505644            6 
 3694000   0.66653946   -8.1761599    708.17862  0.015975876  0.015051424            4 
 3695000    0.6652334   -8.1843919    707.58475  0.015958159  0.015046425            3 
 3696000   0.65859263   -8.1843355    706.20029  0.015922626  0.015041422            6 
 3697000   0.66586525   -8.1973358    707.02355  0.015936876  0.015036424            3 
 3698000   0.66163839   -8.1743828    708.63288  0.015968832  0.015031433            4 
 3699000   0.66621218   -8.1749311    708.27734  0.015956505  0.015026447            2 
 3700000   0.66041664   -8.1580378    708.78878  0.015963711  0.015021447            2 
 3701000   0.67306286   -8.1952598    707.48464  0.015930033  0.015016444            5 
 3702000   0.65909906   -8.2065794    708.16749  0.015941101  0.015011442            3 
 3703000   0.66037005   -8.1956448    706.45711  0.015898306  0.015006429            5 
 3704000    0.6664026   -8.1879694     707.4791  0.015917006  0.015001425            3 
 3705000   0.66662783   -8.2133219    707.37098  0.015910278  0.014996409            2 
 3706000   0.65946887   -8.1965083    708.40779  0.015929299  0.014991406            3 
 3707000   0.64668206   -8.2019678      706.862  0.015890253    0.0149864            4 
 3708000   0.66005422   -8.1813338    707.77427   0.01590647  0.014981393            2 
 3709000   0.65104109   -8.1753474    708.24131  0.015912674  0.014976399            1 
 3710000   0.66248319   -8.1841144    706.19651  0.015862455  0.014971404            4 
 3711000   0.65093626   -8.1915688    706.20005   0.01585826   0.01496641            2 
 3712000   0.65007517   -8.1904247    706.69354  0.015865067  0.014961422            4 
 3713000   0.65674141   -8.1846495    708.64016  0.015904483  0.014956432            2 
 3714000   0.65239693   -8.1797754    706.62306  0.015854942  0.014951441            2 
 3715000   0.65909753   -8.2063135    706.93726  0.015857722  0.014946441            2 
 3716000    0.6619398   -8.1746308    706.31909  0.015839592  0.014941438            2 
 3717000   0.65022686   -8.1933958    706.87462  0.015847785  0.014936441            3 
 3718000   0.66178901    -8.198631    706.70561  0.015839735  0.014931455            2 
 3719000   0.64224356   -8.1983254    706.00767  0.015819837  0.014926465            5 
 3720000   0.65449746   -8.2027843    708.19439   0.01586457  0.014921465            3 
 3721000   0.65389265   -8.2087482    706.04051  0.015812069  0.014916473            3 
 3722000   0.64804263   -8.2223894    706.77877   0.01582435  0.014911475            4 
 3723000   0.65887364   -8.2030044    706.19976  0.015807139  0.014906495            2 
 3724000   0.67233542   -8.1957894    707.25773  0.015826569  0.014901506            1 
 3725000   0.64182797   -8.1898233    707.30556  0.015823391  0.014896523            2 
 3726000   0.65193037   -8.1835979    708.82522  0.015853132  0.014891545            2 
 3727000   0.64588648   -8.2227736    708.07852  0.015832182  0.014886566            2 
 3728000    0.6645938   -8.2101927    707.02295   0.01580434  0.014881581            3 
 3729000   0.65545615   -8.2264209    707.44721  0.015809583  0.014876603            3 
 3730000   0.63887407   -8.1952185    707.06595  0.015796826  0.014871617            3 
 3731000    0.6573047   -8.2073512     706.2489  0.015774343  0.014866634            3 
 3732000   0.66260866    -8.210568    707.54083  0.015798965  0.014861648            3 
 3733000   0.64737172   -8.2231436     706.5166  0.015771868  0.014856667            2 
 3734000   0.64941973   -8.1948319    706.78222  0.015773572  0.014851687            4 
 3735000   0.64861807   -8.2019602    705.82796  0.015748058  0.014846713            3 
 3736000   0.66247737   -8.1792068      707.894  0.015789927  0.014841748            5 
 3737000   0.65053338   -8.1792766    707.66894  0.015780683  0.014836778            5 
 3738000   0.66035885   -8.2169668    705.94557  0.015738041   0.01483181            2 
 3739000   0.65169351   -8.2149024    707.07154  0.015758927  0.014826839            2 
 3740000   0.66118859   -8.2077336    706.96858  0.015752419   0.01482187            2 
 3741000   0.65682484   -8.1938948    706.65561  0.015741237  0.014816905            2 
 3742000   0.65322466   -8.2024598    705.92961  0.015720862   0.01481193            4 
 3743000   0.64602542   -8.2226463    706.08723  0.015720172  0.014806961            4 
 3744000   0.65253613   -8.2187129    706.45061  0.015724061  0.014801984            3 
 3745000   0.64057942    -8.222286     707.2613  0.015737902  0.014797017            5 
 3746000   0.66025606   -8.2207784    706.49424  0.015716636  0.014792062            4 
 3747000   0.64118175   -8.2048746    707.12488  0.015726467    0.0147871            8 
 3748000   0.64299729   -8.2122586    706.61546  0.015710945   0.01478215            3 
 3749000   0.66201057    -8.212817    706.94688  0.015714121   0.01477719            8 
 3750000   0.66032111   -8.2316046    706.48917  0.015699759  0.014772226            3 
 3751000    0.6496317   -8.2055804    705.73823  0.015678891  0.014767263            2 
 3752000   0.66055559   -8.2374451    705.75578  0.015675102    0.0147623            2 
 3753000   0.64446959   -8.2359475     705.8361  0.015672708  0.014757335            3 
 3754000   0.64865312    -8.231722    706.86945  0.015691473   0.01475238            2 
 3755000   0.64358844   -8.2078012    706.73426  0.015684293  0.014747435            3 
 3756000   0.65101394   -8.2037314    707.14618  0.015689257   0.01474248            4 
 3757000   0.64485902   -8.2172797    707.33167  0.015689195  0.014737532            3 
 3758000   0.65063191   -8.2202689    705.92418  0.015653809  0.014732589            5 
 3759000   0.65563005   -8.2211355     706.7187  0.015667259  0.014727645            2 
 3760000   0.63745793   -8.2141116    706.09412  0.015649249  0.014722699            7 
 3761000   0.64895327   -8.2252272     705.4654  0.015631157  0.014717756            3 
 3762000   0.64773658    -8.211135    706.55871  0.015651221   0.01471282            2 
 3763000   0.64142369   -8.2326241    707.73832  0.015673185  0.014707886            3 
 3764000   0.65612378   -8.2114416    705.81211  0.015626375   0.01470295            5 
 3765000   0.64484165   -8.2206198    706.01249   0.01562666  0.014698016            6 
 3766000   0.63492346   -8.2246768    705.75902  0.015616902  0.014693078            5 
 3767000   0.65087936   -8.2210033    705.84735   0.01561471  0.014688138            7 
 3768000   0.65592632   -8.2272728    706.49586  0.015624908    0.0146832            3 
 3769000   0.64042253   -8.2128937    706.67345  0.015624689   0.01467826            6 
 3770000   0.65371006   -8.2154773    705.87731  0.015602947   0.01467333            3 
 3771000   0.63804095   -8.2522886    706.18273  0.015605558  0.014668399            3 
 3772000   0.63543062   -8.2159988    707.57806  0.015632248  0.014663467            2 
 3773000   0.64078512   -8.2356426    706.84634  0.015611943  0.014658543            3 
 3774000    0.6603015   -8.2300376    706.96817  0.015610497  0.014653615            5 
 3775000   0.65852233   -8.2127293    705.64944   0.01557725  0.014648682            9 
 3776000   0.65416342   -8.2405659    705.64445  0.015573015  0.014643756            3 
 3777000   0.65565497   -8.2434637    706.43168  0.015586261  0.014638829            1 
 3778000   0.65781369    -8.229486    706.97812  0.015594188  0.014633902            4 
 3779000   0.65483845    -8.208808    707.20412  0.015595045  0.014628979            2 
 3780000     0.645975   -8.2168721     707.3595  0.015594345  0.014624069            4 
 3781000   0.64702593   -8.2436759     706.4292  0.015569717  0.014619149            2 
 3782000   0.64231657   -8.2488758    706.25499  0.015561762  0.014614235            4 
 3783000   0.66095418    -8.218463    706.70197  0.015567494  0.014609327            4 
 3784000    0.6473421    -8.226535    708.04544  0.015592967   0.01460442            3 
 3785000   0.65520857   -8.2225579    707.19792  0.015570188  0.014599517            2 
 3786000   0.65598544   -8.2371772    706.40834  0.015548696  0.014594609            2 
 3787000   0.65369178   -8.2527122    705.55073  0.015525718  0.014589705            2 
 3788000   0.63908218    -8.230706    706.26665  0.015537369  0.014584808            2 
 3789000   0.65278542   -8.2354167    706.21305   0.01553209  0.014579911            8 
 3790000   0.64728106    -8.216052      707.774  0.015562313  0.014575011            3 
 3791000   0.65526602   -8.2385697    705.55899  0.015509518  0.014570106            4 
 3792000   0.63463469   -8.2411817    705.68963  0.015508299  0.014565203            2 
 3793000   0.65274072   -8.2493014    706.10779  0.015513397  0.014560293            1 
 3794000   0.65940597   -8.2440932    706.18081  0.015510912  0.014555403            2 
 3795000   0.65021732   -8.2381056     707.0534  0.015525986  0.014550512            4 
 3796000   0.65611549   -8.2546297     706.0618  0.015500127  0.014545623            2 
 3797000   0.63544122   -8.2219096     707.4468  0.015526442  0.014540738            5 
 3798000   0.65585572   -8.2424933    705.57033  0.015481182  0.014535852            2 
 3799000    0.6445525   -8.2337256    706.87137  0.015505646  0.014530956            2 
 3800000   0.63726772   -8.2192126    706.22723  0.015487439  0.014526071            5 
 3801000   0.63601871   -8.2269046    705.13454  0.015459408  0.014521174            3 
 3802000   0.65348816     -8.24269    706.48796  0.015485007  0.014516283            2 
 3803000   0.64998642   -8.2152261    706.13434  0.015473187  0.014511395            3 
 3804000    0.6371624   -8.2364195     706.2963  0.015472667  0.014506522            2 
 3805000   0.64373071   -8.2418407    705.98953  0.015461882  0.014501639            2 
 3806000   0.63831134   -8.2523365    707.15894  0.015483424  0.014496771            4 
 3807000   0.63162183   -8.2504108    706.30169  0.015460592  0.014491891            2 
 3808000   0.63613553   -8.2288267    705.18945  0.015432192  0.014487007            1 
 3809000   0.64914541   -8.2382569    706.20594  0.015450379  0.014482122            3 
 3810000   0.63564161   -8.2384846    705.16515   0.01542356  0.014477252            4 
 3811000   0.65233326   -8.2460437    704.18852  0.015398157  0.014472382            3 
 3812000   0.64719436   -8.2477443    706.01498  0.015434046  0.014467508            1 
 3813000   0.64947053   -8.2351999    706.52044  0.015441045  0.014462635            2 
 3814000   0.63703222   -8.2740151    705.53629  0.015415493  0.014457761            2 
 3815000   0.64691008   -8.2548474    706.51424  0.015432814  0.014452886            4 
 3816000    0.6376524   -8.2512331    707.08456  0.015441225  0.014448016            2 
 3817000   0.64064145   -8.2415649    706.69302  0.015428631  0.014443158            1 
 3818000   0.62956402   -8.2374144    705.57077  0.015400095  0.014438301            6 
 3819000   0.64521074   -8.2412206    706.05529  0.015406635  0.014433437            2 
 3820000   0.64392296   -8.2420143    705.60449  0.015392768  0.014428589            4 
 3821000    0.6321508   -8.2464316    706.67571  0.015412102  0.014423741            2 
 3822000   0.64431053   -8.2346061    706.51868  0.015404646  0.014418885            3 
 3823000   0.63163113   -8.2492825    707.28731  0.015417371  0.014414033            4 
 3824000   0.64108221   -8.2234043    705.95534  0.015384313  0.014409187            1 
 3825000   0.64460625   -8.2188761    706.49763  0.015392105  0.014404351            3 
 3826000     0.638101   -8.2363885     707.4093  0.015407939   0.01439951            4 
 3827000   0.63345288   -8.2543837    706.42863  0.015382559  0.014394665            2 
 3828000    0.6444373   -8.2266174    706.84602  0.015387627  0.014389825            7 
 3829000   0.64296937   -8.2454773    706.78901  0.015382367  0.014384984            1 
 3830000   0.63565407   -8.2298887    707.20275  0.015387353  0.014380142            2 
 3831000   0.64857368   -8.2508217    706.18867  0.015361278  0.014375304            4 
 3832000    0.6261355   -8.2466814    704.47186  0.015319934  0.014370458            2 
 3833000   0.63790531   -8.2548961    706.10334  0.015351407  0.014365607            3 
 3834000   0.63857778   -8.2355343    706.55652  0.015357254   0.01436076            3 
 3835000   0.64044395   -8.2507721    705.05877  0.015320703  0.014355914            2 
 3836000   0.63476678   -8.2459049    707.04802  0.015359924   0.01435108            2 
 3837000   0.63377928   -8.2444917     706.8617  0.015351874  0.014346246            6 
 3838000   0.63556553   -8.2541282    705.54851  0.015319361  0.014341416            2 
 3839000   0.64780511   -8.2596568    705.70549  0.015318779  0.014336577            3 
 3840000   0.62813653   -8.2727446    705.39335  0.015308015  0.014331745            3 
 3841000   0.63405833   -8.2690638    705.88262  0.015314645  0.014326903            3 
 3842000   0.63497222   -8.2529976    705.81422  0.015309175  0.014322062            2 
 3843000   0.63896218   -8.2283363    706.61653  0.015322589  0.014317232            3 
 3844000   0.64129247   -8.2469678    707.66596  0.015341354  0.014312411            4 
 3845000    0.6369852    -8.231274     705.1406  0.015282631  0.014307583            3 
 3846000   0.63469366   -8.2522568    704.94889  0.015274504  0.014302761            2 
 3847000   0.63301358   -8.2481641    705.78224  0.015288585  0.014297934            5 
 3848000   0.64050053   -8.2563294    705.35696  0.015275402  0.014293106            5 
 3849000   0.64664264   -8.2261625     706.4449  0.015294988  0.014288275            3 
 3850000   0.62344468   -8.2490236    704.98206  0.015259352  0.014283455            9 
 3851000   0.62571975   -8.2514785    707.13803  0.015302043  0.014278635            4 
 3852000   0.63006311   -8.2608949    705.73397  0.015267696   0.01427381            2 
 3853000   0.62855739   -8.2483284    707.26429  0.015296831  0.014268988            3 
 3854000   0.63770273   -8.2466511     705.9006  0.015263376  0.014264164            2 
 3855000   0.63561498   -8.2473544     704.9197  0.015238212  0.014259342            2 
 3856000    0.6392667   -8.2730919    705.62115   0.01524942  0.014254517            1 
 3857000   0.62776217   -8.2550061    706.37301   0.01526171  0.014249697            3 
 3858000     0.621805   -8.2394654    706.30818  0.015256354  0.014244882            5 
 3859000    0.6369173   -8.2590509    706.38372  0.015254032  0.014240073            8 
 3860000   0.62779645   -8.2439174    706.21101  0.015246352  0.014235259            2 
 3861000   0.63404769   -8.2359005    705.99615  0.015237766  0.014230447            2 
 3862000   0.63412115   -8.2666642    706.15727  0.015237297  0.014225641            3 
 3863000   0.65363012   -8.2450296    706.56101  0.015242062  0.014220841            3 
 3864000   0.63958244    -8.261655    706.11204  0.015228434  0.014216042            2 
 3865000   0.62882181   -8.2479468    705.06444  0.015201907  0.014211243            3 
 3866000   0.64660764   -8.2346761    705.16634  0.015200171   0.01420645            3 
 3867000   0.62980081   -8.2646458    705.67288  0.015207156  0.014201655            3 
 3868000   0.63941978   -8.2555819    704.55641  0.015179171   0.01419686            3 
 3869000   0.62457745   -8.2703086    705.89258  0.015204027  0.014192071            3 
 3870000   0.64011156   -8.2462872     704.7288  0.015175039  0.014187278            2 
 3871000   0.63305002   -8.2506161    706.72359  0.015214062  0.014182491            2 
 3872000   0.64689763   -8.2892115    704.07927  0.015153221  0.014177702            5 
 3873000   0.63359476   -8.2695832    705.63871  0.015182862  0.014172908            4 
 3874000   0.64480477   -8.2582095    706.32806  0.015193772  0.014168112            4 
 3875000   0.64350675   -8.2646263    706.71249  0.015198118  0.014163319            3 
 3876000   0.64272179   -8.2406624    705.24206  0.015162583  0.014158532            3 
 3877000   0.63388887   -8.2753992     705.1327  0.015156321  0.014153744            4 
 3878000   0.64247389   -8.2679017     705.2557  0.015155056  0.014148962            3 
 3879000   0.62510891   -8.2347964     704.7686  0.015140685  0.014144179            5 
 3880000   0.62165088   -8.2581513    705.45071  0.015151433  0.014139405            3 
 3881000   0.65087813   -8.2586767    706.38751  0.015167644  0.014134628            3 
 3882000   0.63820968   -8.2684389    704.32611  0.015119486  0.014129846            5 
 3883000   0.62810844    -8.276112    705.24714  0.015135358  0.014125071            3 
 3884000   0.64988209   -8.2717282    703.70838  0.015098446  0.014120287            4 
 3885000   0.63204845   -8.2730797     705.3736  0.015130279  0.014115504            3 
 3886000   0.63333144   -8.2791923    704.86754  0.015115533   0.01411073            5 
 3887000    0.6311461   -8.2717816    705.35728  0.015122144  0.014105947            1 
 3888000   0.64834628   -8.2584027    704.50772  0.015100045  0.014101167            3 
 3889000   0.63365086    -8.294059    705.39241   0.01511512  0.014096385            1 
 3890000   0.62902094   -8.2537531     705.7133  0.015118108  0.014091599            4 
 3891000   0.64258764   -8.3037111    704.67778  0.015092045  0.014086813            2 
 3892000   0.62982477   -8.2765898    705.28211  0.015101107  0.014082043            9 
 3893000   0.62940269   -8.2844805    705.12206  0.015093802  0.014077275            4 
 3894000   0.62971118    -8.282046    704.87897  0.015084724  0.014072503            3 
 3895000   0.62497371   -8.2742625    704.43588  0.015071371  0.014067746            4 
 3896000   0.63171006   -8.2719191     705.6312   0.01509307  0.014062977            1 
 3897000   0.63115366   -8.2830362    705.24896  0.015081023  0.014058203            3 
 3898000   0.61385542   -8.2914923    704.12369  0.015053098  0.014053436            6 
 3899000   0.64562077   -8.2807314    705.67869  0.015082472  0.014048673            2 
 3900000   0.64439152    -8.286726    703.70954  0.015036529  0.014043905            5 
 3901000   0.62018786    -8.263577    706.04802  0.015082629  0.014039141            1 
 3902000    0.6230759   -8.2870127    704.48898  0.015045468  0.014034378            2 
 3903000   0.63006642   -8.2880877    705.24978  0.015057857   0.01402962            2 
 3904000    0.6272705   -8.2922166    703.95514  0.015026365   0.01402486            2 
 3905000   0.63140526   -8.2988225    703.47807  0.015012336    0.0140201            2 
 3906000   0.62045451   -8.2859024    704.31991  0.015026453  0.014015342            3 
 3907000   0.62709278   -8.2854837    705.60142  0.015049941  0.014010586            3 
 3908000   0.62269335   -8.2912138    704.55813  0.015023843  0.014005827            3 
 3909000   0.60940858   -8.2894357    704.54832   0.01501979  0.014001076            2 
 3910000   0.60674443   -8.2915183    703.71791   0.01499825   0.01399632            2 
 3911000    0.6250796   -8.2983906     705.3636  0.015029481  0.013991566            3 
 3912000   0.63960463   -8.2998585    703.86575  0.014993732  0.013986807            5 
 3913000    0.6264191   -8.2926457    704.28767  0.014998885  0.013982058            5 
 3914000   0.62800747   -8.2821681    705.72602  0.015025677  0.013977319            1 
 3915000   0.62495625   -8.2871268    705.47887  0.015016579  0.013972574            2 
 3916000   0.63254973   -8.2794817    704.07651  0.014982902  0.013967825            2 
 3917000   0.63318227   -8.2825802    703.75137  0.014972159  0.013963089            7 
 3918000   0.63193735   -8.2814308    703.91914  0.014971906  0.013958349            2 
 3919000   0.62944181   -8.2738277    705.48309  0.015001341  0.013953611            5 
 3920000   0.63439349   -8.2929322    702.91466  0.014942914  0.013948873            5 
 3921000   0.60945363   -8.2871798    704.08123  0.014963896  0.013944133            3 
 3922000   0.62198628   -8.2819254    705.62807  0.014992947  0.013939396            2 
 3923000   0.62425802   -8.3063739     705.7739  0.014992223  0.013934655            2 
 3924000   0.62239468    -8.273816    705.38231  0.014980087  0.013929925            3 
 3925000   0.62167774   -8.2864011    705.81117  0.014985375  0.013925199            3 
 3926000   0.62782407   -8.2843519    706.04139  0.014986445  0.013920467            3 
 3927000   0.60958235   -8.2871372    705.74991  0.014976443  0.013915742            3 
 3928000   0.62702994   -8.3027649    704.41381  0.014944285  0.013911019            5 
 3929000   0.62238611   -8.2944342    704.40601  0.014940316  0.013906291            3 
 3930000   0.62657349    -8.282883    704.92581  0.014947536  0.013901569            7 
 3931000   0.61168261   -8.3027935    703.98252  0.014923737  0.013896848            2 
 3932000   0.62321802   -8.2848539    704.95819  0.014940619  0.013892128            5 
 3933000   0.60781077   -8.2927504    705.54092  0.014949168  0.013887415            2 
 3934000   0.62407744   -8.2914991    705.24896  0.014939183  0.013882695            4 
 3935000   0.61992447   -8.2897952    704.41014  0.014917623  0.013877972            3 
 3936000   0.61766113   -8.2922427    702.94622  0.014882838  0.013873256            1 
 3937000    0.6243902     -8.25861    704.92245  0.014920888  0.013868542            4 
 3938000   0.60842672    -8.290786    705.33422  0.014925813  0.013863839            4 
 3939000   0.62448843   -8.2913889    704.12981  0.014896543  0.013859126            7 
 3940000   0.60593255   -8.2955084    704.07258  0.014891552  0.013854407            2 
 3941000    0.6191386   -8.2923372    705.50043  0.014917966  0.013849698            3 
 3942000   0.62899716   -8.2905435    704.07186  0.014883982  0.013844986            2 
 3943000   0.63327849    -8.316667    703.80606  0.014874589  0.013840282            3 
 3944000   0.62418895   -8.2760085     704.8024   0.01489187  0.013835577            3 
 3945000   0.62060378   -8.2827903    704.79864  0.014888015  0.013830875            2 
 3946000   0.62003938   -8.2924027    705.66468  0.014902532  0.013826172            3 
 3947000   0.63351565   -8.2958518     704.3446  0.014870885  0.013821475            2 
 3948000   0.63235155   -8.2997854    703.50253  0.014849344  0.013816793            2 
 3949000   0.61108251   -8.2812551    703.76007  0.014851019  0.013812107            3 
 3950000   0.62994052   -8.2955441    702.84915  0.014828041  0.013807418            3 
 3951000   0.62456129   -8.3057753    704.21719  0.014853143  0.013802728            2 
 3952000   0.61894673   -8.2908854    704.50765  0.014855509  0.013798034            1 
 3953000   0.63178649   -8.2954536    705.62634  0.014875334  0.013793341            2 
 3954000   0.60085693    -8.319588    703.64497  0.014829813  0.013788648            4 
 3955000   0.63149361    -8.293962    704.23271  0.014838447   0.01378395            1 
 3956000    0.6070356   -8.3004201    703.35957  0.014816304  0.013779274            2 
 3957000   0.61795924   -8.2989481    705.14338  0.014850126  0.013774587            4 
 3958000   0.61994224   -8.3282728    703.34204  0.014808448  0.013769902            3 
 3959000   0.62580876   -8.2915068    705.52682  0.014850695   0.01376522            3 
 3960000   0.60986139   -8.3073827    703.87979  0.014812285  0.013760534            4 
 3961000   0.62058366   -8.3114753    704.24464  0.014816221  0.013755839            3 
 3962000   0.62022692   -8.3002685    703.56924  0.014798276  0.013751154            4 
 3963000   0.61834421   -8.3066462    702.87618  0.014779968  0.013746474            2 
 3964000   0.61782814    -8.308813    704.17934  0.014803636  0.013741792            3 
 3965000   0.63211869   -8.3002186    702.99475  0.014775005  0.013737122            1 
 3966000   0.61404837   -8.3041925    705.84961  0.014831266  0.013732449            6 
 3967000   0.62337828   -8.3070254    704.59239  0.014801117  0.013727783            3 
 3968000   0.61527983   -8.2872052    704.59615  0.014797466  0.013723126            3 
 3969000   0.60938272    -8.301335    705.06405  0.014803562  0.013718467            4 
 3970000   0.62226124   -8.3140759    705.34209  0.014805669   0.01371381            3 
 3971000   0.61007262   -8.2990742    704.81582  0.014790897   0.01370916            5 
 3972000   0.61968691   -8.3260876    703.04629  0.014750048  0.013704506            3 
 3973000   0.61347702   -8.2864501    703.76948  0.014761504  0.013699844            4 
 3974000   0.62070899   -8.3119637    704.74382  0.014778221   0.01369519            4 
 3975000   0.62257527   -8.3117134    703.24457  0.014743073  0.013690538            5 
 3976000   0.62592183   -8.3227722    702.93791  0.014732937  0.013685884            2 
 3977000   0.61224963    -8.313274    704.03991  0.014752324  0.013681223            3 
 3978000   0.61325399   -8.2892217     703.3546  0.014734259  0.013676576            4 
 3979000    0.6172283   -8.3140022    703.67594  0.014737286  0.013671918            2 
 3980000   0.61511922   -8.3019426    702.66819  0.014712483  0.013667261            2 
 3981000   0.62444758   -8.3411416    704.72652  0.014751874  0.013662608            3 
 3982000    0.6256038   -8.3175602    703.12529   0.01471466  0.013657957            4 
 3983000   0.61516843   -8.2958774    704.68881  0.014743678  0.013653313            5 
 3984000     0.627954   -8.3060633    702.85877  0.014701698  0.013648672            7 
 3985000   0.61895762   -8.2787053     703.6425  0.014714398  0.013644035            2 
 3986000   0.60866481   -8.2974825    704.76155  0.014734102  0.013639403            4 
 3987000   0.61704449   -8.2928107    703.54784  0.014705038  0.013634765            3 
 3988000    0.6231949   -8.3110177    703.00082   0.01468992   0.01363013            5 
 3989000   0.61598073   -8.2978097    703.82193  0.014703391  0.013625494            3 
 3990000   0.60524985   -8.3031415    703.64929    0.0146961  0.013620862            3 
 3991000   0.61681425   -8.3168484    703.96075  0.014698922  0.013616228            2 
 3992000   0.61257708   -8.3158466    702.68423  0.014668592  0.013611597            3 
 3993000   0.60108164   -8.2976526    704.28318  0.014698288  0.013606974            1 
 3994000     0.622313   -8.3282851     702.0823  0.014648688   0.01360234            2 
 3995000   0.59628868   -8.3226977    702.34807  0.014650565  0.013597714            2 
 3996000    0.6004468   -8.3250298    704.00643  0.014681482  0.013593089            2 
 3997000   0.61399037   -8.2843408    704.11924  0.014680161  0.013588464            2 
 3998000   0.61769043   -8.2988179    704.08539  0.014675783  0.013583838            3 
 3999000   0.61959484   -8.3205747    703.03666   0.01465026  0.013579221            4 
 4000000   0.60428421   -8.3221406    703.62161  0.014658784  0.013574595            5 
 4001000   0.61449494   -8.3073343    703.98741  0.014662739  0.013569969            5 
 4002000    0.6080224   -8.3268426    702.89127   0.01463625  0.013565347            3 
 4003000   0.60932651   -8.3310599    702.70087   0.01462863  0.013560724            4 
 4004000   0.62290344   -8.3237679     704.6762  0.014666088  0.013556112            4 
 4005000   0.61256742   -8.3107309    702.77813  0.014622932    0.0135515            6 
 4006000   0.60933007   -8.3280078    702.27145  0.014608742  0.013546891            8 
 4007000   0.60359681   -8.3387238    704.96815  0.014661179  0.013542278            1 
 4008000   0.60130561   -8.3098282     704.2501  0.014642592  0.013537667            2 
 4009000   0.62079562   -8.3333855    703.79121  0.014629401  0.013533064            2 
 4010000   0.59766005     -8.31048     704.0256  0.014630623  0.013528455            4 
 4011000   0.60585805   -8.3196187    703.94222  0.014625243  0.013523848            4 
 4012000   0.61869276   -8.3133712    702.57744   0.01459325  0.013519239            2 
 4013000   0.61736159   -8.3190222     703.7179  0.014613296  0.013514632            4 
 4014000   0.59375574   -8.3071263    703.28861  0.014600743  0.013510031            4 
 4015000   0.60737846   -8.3202162    703.33444  0.014598058  0.013505439            2 
 4016000   0.60250871   -8.3187605    703.93958   0.01460698  0.013500838            2 
 4017000   0.61441604    -8.319819    703.65508  0.014597442  0.013496247            4 
 4018000   0.60142721   -8.3355047    703.17629  0.014583879  0.013491648            3 
 4019000   0.60767439   -8.3076166    704.16629  0.014600777  0.013487055            3 
 4020000   0.60267869   -8.3480539    703.22264  0.014577584  0.013482462            2 
 4021000   0.59676535   -8.3180403    702.87968  0.014566851   0.01347787            4 
 4022000   0.61509192   -8.3194933    704.79232  0.014602858   0.01347328            3 
 4023000   0.61298529   -8.3135047    703.55878  0.014573676    0.0134687            3 
 4024000   0.59754306   -8.3260868    704.94089  0.014598677  0.013464123            3 
 4025000   0.60859615   -8.3366887    704.21737   0.01458007  0.013459534            4 
 4026000   0.59798901   -8.3171732    704.32832  0.014578745  0.013454954            3 
 4027000   0.60716264   -8.3267018     704.2654  0.014573823   0.01345038            1 
 4028000   0.60505991   -8.3400561    704.56251  0.014576351  0.013445811            3 
 4029000   0.61502823   -8.3339573    702.84879  0.014537288  0.013441241            6 
 4030000   0.60425005   -8.3259385    704.55796  0.014569023  0.013436667            2 
 4031000   0.61354623   -8.3055034    703.61627  0.014545941  0.013432101            3 
 4032000   0.59030279    -8.317104    703.93074  0.014548833   0.01342754            3 
 4033000   0.59835783   -8.3209034    703.68602  0.014540169  0.013422975            2 
 4034000   0.61563071   -8.3256347    702.73148  0.014516846   0.01341841            3 
 4035000   0.60386126   -8.3368803    703.14078  0.014521701  0.013413842            5 
 4036000    0.6136226    -8.319711    702.38519  0.014502502  0.013409277            3 
 4037000   0.60198786   -8.3077204    703.43811  0.014520645  0.013404714            5 
 4038000   0.59864766    -8.318441    703.36476  0.014515535  0.013400157            3 
 4039000   0.60640368   -8.3331179    701.86374  0.014480972  0.013395593            2 
 4040000   0.61234941   -8.3385872     703.0101  0.014501033  0.013391025            2 
 4041000   0.60262219   -8.3407814    703.43146  0.014506134  0.013386457            3 
 4042000   0.60798152   -8.3369399    703.25512   0.01449891    0.0133819            4 
 4043000   0.61254201   -8.3583411    702.54563    0.0144807  0.013377346            3 
 4044000    0.6025371   -8.3507994    703.06315  0.014487783  0.013372793            3 
 4045000   0.60921156   -8.3292024    703.12671  0.014485511  0.013368238            2 
 4046000   0.60975626    -8.324377    702.42341  0.014467445   0.01336369            2 
 4047000   0.60307215   -8.3257577     703.2672  0.014481245  0.013359138            2 
 4048000   0.58544336   -8.3232055    702.74278  0.014466872  0.013354585            1 
 4049000   0.59644685   -8.3202275    702.93679  0.014467292   0.01335004            1 
 4050000   0.60978695   -8.3343614    704.52841  0.014496469  0.013345493            3 
 4051000   0.60533623   -8.3220603    703.96159  0.014481231  0.013340952            4 
 4052000   0.60911479   -8.3390785    702.87989  0.014455411  0.013336413            2 
 4053000   0.61164379   -8.3335241    703.10627  0.014456499  0.013331876            2 
 4054000   0.59933464   -8.3363253    704.14003  0.014474182  0.013327346            5 
 4055000   0.61175339   -8.3514219    703.44756  0.014456382  0.013322816            4 
 4056000   0.60294843   -8.3277991    704.08298  0.014465873   0.01331828            4 
 4057000   0.59948341   -8.3450213    703.02548  0.014440586  0.013313746            2 
 4058000   0.60247672   -8.3483289    702.94098  0.014435292  0.013309217            2 
 4059000   0.58705521   -8.3181805    702.81712  0.014429193  0.013304698            9 
 4060000    0.6021683   -8.3345528    703.76479   0.01444509  0.013300174            4 
 4061000   0.60434331   -8.3603644    703.28327  0.014431652  0.013295648            4 
 4062000   0.61084345   -8.3369353    702.89461  0.014420126  0.013291123            2 
 4063000    0.6093838   -8.3440936     703.5685  0.014430398  0.013286591            3 
 4064000   0.58649366   -8.3579892    702.95484  0.014414264  0.013282066            4 
 4065000   0.58929368   -8.3403865    703.68719  0.014425732  0.013277541            4 
 4066000   0.60405665   -8.3411009    703.62972  0.014421006  0.013273018            2 
 4067000   0.60953996   -8.3256671    703.37581  0.014412257  0.013268497            4 
 4068000   0.59870381   -8.3455896    701.64985  0.014373358  0.013263977            3 
 4069000   0.60483625   -8.3291367    703.18649  0.014401296  0.013259461            1 
 4070000   0.60104056   -8.3477348     704.3508  0.014421597  0.013254947            3 
 4071000   0.59224951   -8.3557746    702.28691  0.014375807  0.013250422            4 
 4072000   0.60884409   -8.3359389    702.44847  0.014375583  0.013245902            2 
 4073000    0.6092004   -8.3306237    702.54494  0.014374027  0.013241388            8 
 4074000   0.59262353   -8.3636922    703.17467   0.01438338  0.013236875            4 
 4075000   0.58887668   -8.3674205      701.425   0.01434407  0.013232355            3 
 4076000   0.60093474   -8.3487002    700.91781  0.014330181  0.013227838            4 
 4077000   0.60616946   -8.3529218    702.46254   0.01435824  0.013223328            2 
 4078000   0.59721252   -8.3575984    703.09494  0.014367642  0.013218815            4 
 4079000   0.58898642   -8.3384492    702.01142  0.014341984  0.013214304            1 
 4080000   0.59133683   -8.3413169    702.47911  0.014348021  0.013209795            4 
 4081000   0.58961288    -8.343503    703.22405  0.014359717  0.013205292            2 
 4082000    0.5877626   -8.3582762    702.81677  0.014347884  0.013200791            5 
 4083000   0.59762614     -8.33793    703.19238  0.014352037  0.013196293            3 
 4084000   0.61031977   -8.3429481    703.07172   0.01434606  0.013191799            2 
 4085000   0.59637449   -8.3562565    702.85001  0.014338026  0.013187306            3 
 4086000   0.60087064   -8.3291196    702.13492  0.014319932  0.013182818            3 
 4087000   0.59892779   -8.3506067    703.18405   0.01433782  0.013178331            2 
 4088000   0.59793216   -8.3427828    703.99133  0.014350769   0.01317384            4 
 4089000   0.58380962   -8.3696426    702.04345  0.014307562  0.013169351            3 
 4090000   0.59905971   -8.3745158    703.69684  0.014337751  0.013164861            3 
 4091000   0.59646247   -8.3482654    703.16712  0.014323456  0.013160374            3 
 4092000   0.60491645   -8.3429394    702.63244  0.014309067  0.013155891            2 
 4093000   0.59174474   -8.3611917     702.8989  0.014310996  0.013151405            4 
 4094000   0.58459412   -8.3518812    702.36161  0.014296564  0.013146924            7 
 4095000   0.59122157   -8.3487901    702.33314  0.014292494  0.013142449            7 
 4096000   0.59681583   -8.3620611    702.91009  0.014300742  0.013137965            2 
 4097000   0.60636219   -8.3408111    701.89569  0.014276619  0.013133493            4 
 4098000   0.57894794   -8.3485291    702.20811  0.014279488  0.013129016            8 
 4099000   0.60339491   -8.3492636    702.35332  0.014278957  0.013124544            3 
 4100000    0.6016939   -8.3424767    702.58932  0.014280271  0.013120072            3 
 4101000   0.59243801   -8.3600223    701.97369  0.014264279  0.013115614            3 
 4102000    0.5910909   -8.3504234    703.16267  0.014284956  0.013111155            1 
 4103000   0.60206695   -8.3426222    704.43509  0.014307318  0.013106697            1 
 4104000   0.60773427   -8.3607672    701.41666  0.014242541  0.013102234            4 
 4105000   0.59488403    -8.367145    702.73635  0.014265862  0.013097768            3 
 4106000    0.6104694   -8.3363032    701.64127  0.014240162  0.013093306            2 
 4107000   0.60494702   -8.3605341    702.10346  0.014246073  0.013088847            2 
 4108000   0.57968358   -8.3582428    703.20614  0.014264974  0.013084395            4 
 4109000   0.59411203   -8.3535455    702.91949  0.014255689  0.013079942            3 
 4110000    0.5949212   -8.3466199    702.59485  0.014245638   0.01307549            1 
 4111000   0.59273407   -8.3698481    702.63498  0.014242986   0.01307104            1 
 4112000   0.60395723   -8.3667477    701.79646  0.014222529  0.013066589            4 
 4113000    0.6056469   -8.3497821    702.70253  0.014237429  0.013062143            5 
 4114000    0.5841023    -8.362632    701.74378  0.014214547  0.013057693            6 
 4115000   0.59688761   -8.3585092    703.23853  0.014241363   0.01305325            4 
 4116000   0.59006066   -8.3562336    703.16191  0.014236352  0.013048799            3 
 4117000   0.59953242   -8.3559091    701.45097  0.014198263  0.013044351            3 
 4118000   0.58867198   -8.3692407    701.49464  0.014195699  0.013039905            2 
 4119000   0.58600231   -8.3302553    701.62503   0.01419489  0.013035467            3 
 4120000    0.5985135   -8.3854099    703.77549  0.014234941  0.013031027            7 
 4121000   0.58663402   -8.3632836    702.02197  0.014196028  0.013026591            3 
 4122000   0.60060558   -8.3697062    702.33696  0.014198952  0.013022157            2 
 4123000   0.59833436   -8.3569802     702.7257  0.014203365  0.013017725            1 
 4124000   0.59294715   -8.3583932    703.73852  0.014220387  0.013013295            4 
 4125000   0.57130256   -8.3542223    701.87888  0.014179371   0.01300887            2 
 4126000   0.58928548   -8.3413478    702.64537  0.014191416   0.01300444            1 
 4127000   0.59432982    -8.363687    701.74985  0.014169894  0.013000021            3 
 4128000   0.59086975   -8.3498577     702.3374  0.014178323  0.012995598            1 
 4129000   0.58460038   -8.3600752    701.78705  0.014163782   0.01299117            4 
 4130000   0.59603515   -8.3478719    701.19065  0.014148318  0.012986748            2 
 4131000   0.58686251   -8.3722257    702.90408  0.014179458  0.012982322            3 
 4132000   0.58450486   -8.3883677    703.11004   0.01418018  0.012977902            2 
 4133000   0.58584433   -8.3391495    702.65098  0.014167493  0.012973484            2 
 4134000   0.59679545   -8.3650567    702.56609  0.014162355  0.012969066            1 
 4135000   0.59743537   -8.3782112    703.16313  0.014170962  0.012964643            1 
 4136000   0.57300955   -8.3507018    701.54382  0.014134909  0.012960226            2 
 4137000   0.59380959   -8.3739651    702.23141  0.014145343   0.01295581            3 
 4138000   0.58143477   -8.3670753    702.13375  0.014139958  0.012951395            4 
 4139000   0.59182252   -8.3705475    701.95111  0.014132864  0.012946977            3 
 4140000   0.59344295   -8.3673185    703.28441  0.014156288  0.012942568            2 
 4141000   0.58164053   -8.3498583    700.87627  0.014104409  0.012938157            3 
 4142000   0.59312132   -8.3649057    701.72528  0.014118085  0.012933758            4 
 4143000   0.58992379   -8.3589713    701.14046  0.014102914   0.01292935            4 
 4144000   0.58929655   -8.3699139    700.63401  0.014089326  0.012924949            2 
 4145000   0.58231146   -8.3658036    703.12761   0.01413606  0.012920554            3 
 4146000   0.58866199   -8.3621009    701.98001  0.014109584  0.012916157            4 
 4147000   0.58144428   -8.3499802    701.65991  0.014099749  0.012911767            2 
 4148000   0.59001224   -8.3594448    700.92019  0.014081489  0.012907374            3 
 4149000   0.58499306   -8.3636349    702.39568   0.01410773  0.012902982            3 
 4150000   0.59191781   -8.3573849    702.47108  0.014105845  0.012898599            3 
 4151000   0.59212154   -8.3606547    702.81062  0.014109263  0.012894214            1 
 4152000   0.58436178   -8.3555033    701.33028  0.014076154   0.01288983            2 
 4153000    0.5958624   -8.3691741    703.48293  0.014115959  0.012885443            4 
 4154000    0.6007865   -8.3788057    702.14161  0.014085653  0.012881065            1 
 4155000   0.57760919   -8.3667072    702.65233  0.014092506   0.01287668            1 
 4156000    0.6075657   -8.3399729    702.15065  0.014079055  0.012872298            5 
 4157000   0.58627094   -8.3695072    702.46395  0.014081949  0.012867922            2 
 4158000   0.58295121    -8.381145    703.30388  0.014095396  0.012863547            3 
 4159000   0.58328912   -8.3660907    701.91178  0.014064113  0.012859169            3 
 4160000   0.58948814   -8.3919565    701.87614  0.014060019  0.012854793            1 
 4161000   0.58514003   -8.3872612    702.03541   0.01405983   0.01285041            1 
 4162000   0.59467451    -8.379316    701.32209  0.014042169  0.012846029            4 
 4163000   0.57187193   -8.3571237    701.65106  0.014045381  0.012841647            3 
 4164000   0.58872176   -8.3665924    702.38207  0.014056638  0.012837271            1 
 4165000   0.58591867   -8.3555323    703.04094  0.014066445  0.012832901            3 
 4166000   0.57927846   -8.3810978    701.57197  0.014033685  0.012828528            2 
 4167000   0.57006849   -8.3752428    701.73685  0.014033614  0.012824157            2 
 4168000   0.57707547   -8.3562167    701.65942  0.014028699  0.012819791            2 
 4169000   0.58845316   -8.3810169    702.16726  0.014035485  0.012815427            3 
 4170000   0.59754156   -8.3919546    702.29588   0.01403469  0.012811054            2 
 4171000   0.58307218   -8.3924999    700.58187   0.01399708  0.012806685            2 
 4172000   0.58749185   -8.3923501    702.44014  0.014030843  0.012802315            3 
 4173000   0.60305774   -8.3843015    702.82675  0.014035202  0.012797948            2 
 4174000   0.57420929   -8.3533675    701.72542  0.014009851  0.012793584            2 
 4175000   0.58592352   -8.3780891     701.4859  0.014001715  0.012789214            4 
 4176000    0.5851149    -8.381767    702.08238  0.014010265  0.012784845            3 
 4177000   0.58322362   -8.3880193     701.5642  0.013996572  0.012780484            2 
 4178000   0.58632476   -8.3741054    701.67128  0.013995358  0.012776125            4 
 4179000   0.59044917   -8.3907555    700.77231  0.013974083   0.01277177            2 
 4180000   0.58228442   -8.3758797    701.16002  0.013978469  0.012767417            3 
 4181000   0.59653666    -8.403909    701.64312  0.013984755  0.012763057            1 
 4182000   0.58271041   -8.3944317    701.69443  0.013982433  0.012758701            3 
 4183000   0.59205015   -8.3905612    701.30469  0.013971326  0.012754348            2 
 4184000   0.57353199   -8.4127016    700.19546  0.013945894      0.01275            1 
 4185000   0.58101221   -8.3766073    700.75535  0.013953711  0.012745652            2 
 4186000   0.58764659   -8.3917279     701.5808   0.01396681  0.012741312            2 
 4187000   0.57066651   -8.3842187     701.4122  0.013960119  0.012736973            2 
 4188000   0.57958858   -8.3822796    702.04839  0.013969444   0.01273263            4 
 4189000   0.57278349   -8.3908236    701.35127  0.013952241  0.012728288            3 
 4190000   0.58314572   -8.3915621    702.29714  0.013967724  0.012723947            3 
 4191000   0.58911308   -8.4044374    702.18859  0.013962232  0.012719613            3 
 4192000   0.58844838   -8.3807871    701.62669  0.013947732   0.01271528            5 
 4193000    0.5872554   -8.3912816    700.41504  0.013920324  0.012710948            6 
 4194000   0.58931007   -8.3869471    702.16559  0.013951788  0.012706619            3 
 4195000   0.57686818   -8.3683304    702.14347  0.013948023  0.012702305            3 
 4196000   0.58965518   -8.3656361    702.06251  0.013943091  0.012697989            5 
 4197000     0.581992   -8.3787015    700.99964  0.013918665  0.012693675            4 
 4198000   0.58183341    -8.390342    702.34986  0.013942152   0.01268936            2 
 4199000   0.58364169   -8.3695592    701.06222  0.013913277  0.012685046            3 
 4200000   0.57837035   -8.4052184     701.1325  0.013911359  0.012680733            3 
 4201000    0.5752579    -8.399864    702.91757  0.013943457  0.012676414            2 
 4202000    0.5748329   -8.3876088    701.20765  0.013906228  0.012672101            4 
 4203000   0.58780144   -8.3874325    700.86184  0.013896063   0.01266779            2 
 4204000   0.58028323   -8.3694621     702.8746  0.013932655  0.012663483            4 
 4205000   0.58557282   -8.4009184    702.61485  0.013924194  0.012659178            6 
 4206000   0.57716469    -8.368991    701.85846  0.013905897  0.012654874            3 
 4207000   0.58175768   -8.3721393    700.59519  0.013877569  0.012650569            2 
 4208000   0.57761474   -8.3823128    701.74324  0.013897006  0.012646272            2 
 4209000   0.58544796   -8.4040911    701.99043  0.013898599  0.012641974            1 
 4210000   0.57873548   -8.3682967     702.0862  0.013897193  0.012637678            4 
 4211000   0.57900153   -8.3851277    701.75721  0.013887383  0.012633386            2 
 4212000   0.57602916   -8.3767452    700.37029  0.013856646  0.012629089            3 
 4213000   0.57060057    -8.397249    700.88175  0.013863473  0.012624792            2 
 4214000   0.57994204    -8.399121    702.16928  0.013885645  0.012620495            2 
 4215000   0.58047423   -8.3946383    701.48537  0.013868829  0.012616196            5 
 4216000   0.57375462   -8.4020401    701.00871  0.013856118  0.012611898            3 
 4217000   0.58432654    -8.391666    700.91323  0.013850945  0.012607603            2 
 4218000   0.58286716   -8.3922183    700.56298  0.013840742  0.012603308            5 
 4219000   0.58315495   -8.4001549    702.16562  0.013869116  0.012599018            6 
 4220000   0.58947689   -8.3965029    701.75339  0.013857689  0.012594729            3 
 4221000   0.57396971   -8.4123069     701.7942  0.013855212  0.012590441            2 
 4222000   0.56903364   -8.3955341    701.18329  0.013839872   0.01258616            3 
 4223000   0.56989711   -8.3980236    701.36189  0.013840119  0.012581876            3 
 4224000   0.57812457   -8.4125085    701.76049  0.013844707  0.012577601            4 
 4225000   0.56729314   -8.3830849    702.37995  0.013853648  0.012573323            1 
 4226000   0.57371147   -8.4096597    700.68635  0.013816973  0.012569046            3 
 4227000   0.57699378     -8.41337    700.32781  0.013806636  0.012564767            2 
 4228000   0.57844086   -8.3839383    700.67837   0.01381028  0.012560489            7 
 4229000    0.5791274   -8.3930539    700.31967  0.013799946  0.012556215            2 
 4230000   0.57936562   -8.4017363    700.62674  0.013802733  0.012551946            2 
 4231000    0.5723299   -8.3900672    701.86185  0.013823798  0.012547676            2 
 4232000   0.57573536   -8.4093706    702.24462  0.013828068  0.012543413            2 
 4233000   0.57509102   -8.3915867    701.14123   0.01380308   0.01253915            5 
 4234000   0.56190055    -8.401837    700.33116  0.013783876   0.01253488            1 
 4235000   0.57349708   -8.3904103    702.05119  0.013814467  0.012530619            2 
 4236000   0.57407526   -8.3888923    700.72915  0.013785197  0.012526361            2 
 4237000   0.56230663   -8.4003607    699.50656  0.013757898  0.012522102            2 
 4238000   0.56513146   -8.3919326    700.88518   0.01378176  0.012517847            3 
 4239000    0.5736017   -8.3953291    701.35218  0.013787689  0.012513597            2 
 4240000   0.57021045   -8.4079847    700.87674  0.013775093  0.012509344            3 
 4241000   0.57314009   -8.3871208    701.00589  0.013774383  0.012505096            3 
 4242000   0.57555896   -8.3993683     701.9662  0.013790001   0.01250085            4 
 4243000   0.56960016    -8.406095    702.04095  0.013788219  0.012496599            4 
 4244000   0.56225694   -8.4038617    699.90181  0.013742967  0.012492352            4 
 4245000   0.58333471   -8.3817818    699.80108  0.013737752  0.012488111            2 
 4246000   0.57428491   -8.3957116    701.08067   0.01375963  0.012483876            3 
 4247000   0.57502907     -8.39029    701.01816  0.013755164  0.012479638            2 
 4248000   0.57740111   -8.4072856    699.98472  0.013731652  0.012475399            2 
 4249000   0.56766639    -8.381734    701.76371  0.013763311  0.012471166            2 
 4250000   0.57887703   -8.3944051    701.26731  0.013750339  0.012466933            2 
 4251000   0.55350506   -8.3960786    700.34546  0.013729034  0.012462704            2 
 4252000   0.55927025    -8.396992    701.11351  0.013740857  0.012458479            3 
 4253000   0.58795263   -8.4108243    700.31367  0.013721954  0.012454257            2 
 4254000   0.57062782   -8.3919054    702.24611  0.013756584  0.012450034            2 
 4255000   0.58041108   -8.3997654    701.92328  0.013747029  0.012445806            5 
 4256000    0.5610247   -8.4134592     700.2385   0.01371081  0.012441579            5 
 4257000   0.56513775   -8.4151059    701.03286  0.013723139  0.012437355            3 
 4258000   0.58125657   -8.4185715    700.87515   0.01371683  0.012433134            3 
 4259000   0.56393845   -8.3956059     700.6375   0.01370896  0.012428911            3 
 4260000   0.57366802   -8.4142522    701.92912  0.013731008  0.012424697            5 
 4261000    0.5702031   -8.4068994    700.95459  0.013708726  0.012420478            2 
 4262000   0.57609509   -8.4259357    700.73147  0.013701147  0.012416261            2 
 4263000   0.57029297    -8.412602    702.14735  0.013725611  0.012412045            2 
 4264000   0.56396906   -8.4049604    700.79131   0.01369589  0.012407835            3 
 4265000   0.57138905   -8.3948202    700.59626  0.013688868   0.01240363            3 
 4266000   0.56374384    -8.409705    701.21535  0.013697753  0.012399425            3 
 4267000   0.58295877   -8.4069701    700.88872  0.013688163  0.012395216            2 
 4268000   0.57316574    -8.420683    701.64058  0.013699636  0.012391009            1 
 4269000   0.56173118   -8.3904998     700.0903  0.013666165  0.012386798            3 
 4270000   0.56085951   -8.4193994    701.07398  0.013682162  0.012382596            2 
 4271000   0.56824481   -8.4093132    701.08101  0.013679096  0.012378392            3 
 4272000   0.56612165   -8.3941371    700.46285  0.013663835  0.012374188            2 
 4273000   0.55863718   -8.4009367    699.74698  0.013646676  0.012369983            7 
 4274000   0.58206198   -8.4013916    700.39323  0.013656084  0.012365784            3 
 4275000   0.56401581   -8.4270767     699.6125  0.013637671  0.012361578            5 
 4276000   0.57422151   -8.4053189    701.28867  0.013667148  0.012357379            8 
 4277000   0.56426504    -8.428656    700.60494   0.01365063  0.012353183            3 
 4278000   0.55546939   -8.3945791    700.78035  0.013650856   0.01234899            3 
 4279000   0.56440836   -8.4288549    700.92814  0.013650544  0.012344798            3 
 4280000   0.56502247   -8.3920184    701.06611  0.013650041  0.012340609            3 
 4281000    0.5690259   -8.4211274    700.70507  0.013639825   0.01233642            3 
 4282000   0.57164829   -8.4009295     701.2179   0.01364662  0.012332235            4 
 4283000   0.56903848   -8.4371044    700.74091  0.013634153  0.012328049            2 
 4284000   0.56002401   -8.4072592    699.72998  0.013611305  0.012323865            2 
 4285000   0.56537773   -8.4244392    700.70122  0.013627017  0.012319685            3 
 4286000   0.57304811   -8.4050978    700.45348  0.013619021  0.012315506            2 
 4287000   0.56208413   -8.4281759    701.40077  0.013634258  0.012311324            3 
 4288000   0.56073136   -8.4169568    700.06498  0.013605118  0.012307144            2 
 4289000   0.56041682   -8.4067794    701.19059  0.013623817  0.012302961            2 
 4290000   0.57287041   -8.4167096     701.2343   0.01362149  0.012298786            2 
 4291000   0.55939772   -8.4292994    699.96307  0.013593627  0.012294604            3 
 4292000   0.57159927   -8.4135679    701.67925  0.013623782  0.012290433            3 
 4293000   0.56527282   -8.4218702    700.97198  0.013606879  0.012286259            4 
 4294000   0.56412929   -8.4178479     700.3978  0.013592567  0.012282089            4 
 4295000   0.56999939   -8.4024658    699.67921   0.01357546  0.012277919            2 
 4296000    0.5644666   -8.4215522    700.21517  0.013582696  0.012273756            3 
 4297000   0.55750418   -8.4239685    701.15714  0.013597803  0.012269597            3 
 4298000    0.5646296   -8.4274625    700.68822  0.013585548  0.012265435            3 
 4299000   0.56922897   -8.4306394    700.31106  0.013575077  0.012261276            5 
 4300000   0.56174582   -8.4393199    701.12752  0.013587743  0.012257115            3 
 4301000   0.56008993   -8.4422333    701.38149  0.013589504  0.012252957            2 
 4302000   0.56103595   -8.4327233    701.78828  0.013594225  0.012248804            4 
 4303000   0.57555917   -8.4228162    700.20787  0.013560459   0.01224465            2 
 4304000   0.56425533   -8.3934892    700.48093  0.013562595  0.012240497            2 
 4305000   0.57223355   -8.4245993     701.2651  0.013574624  0.012236349            4 
 4306000   0.56833513   -8.4002174     700.4429   0.01355556  0.012232203            3 
 4307000   0.56653557   -8.4055074    701.39728  0.013570879  0.012228056            3 
 4308000   0.55096955   -8.4215117    700.51819  0.013550723  0.012223913            1 
 4309000   0.55152592   -8.4256841    701.23838  0.013561507  0.012219773            6 
 4310000   0.56596508   -8.4155582      700.935  0.013552494  0.012215634            2 
 4311000   0.56626909   -8.4267722    700.30656  0.013537202  0.012211488            2 
 4312000    0.5587647    -8.416958    699.01069  0.013509019  0.012207353            2 
 4313000   0.56583061   -8.4130025    700.63161  0.013537206  0.012203219            3 
 4314000   0.55802715   -8.4211655    699.68016  0.013515688  0.012199091            2 
 4315000   0.54339845   -8.4311673    701.41608  0.013546081  0.012194957            3 
 4316000   0.56793375   -8.4134009    700.99554  0.013534823  0.012190827            2 
 4317000   0.57971873   -8.4253541    700.70467  0.013526073    0.0121867            2 
 4318000   0.55293821    -8.411706    700.54168  0.013519795  0.012182577            3 
 4319000   0.56971059   -8.4070095    701.02129  0.013525918  0.012178455            3 
 4320000   0.55846054   -8.4130119    700.23908  0.013507698  0.012174334            4 
 4321000   0.55976345   -8.4321247    700.18937  0.013503614  0.012170211            3 
 4322000   0.57547983   -8.4201129    699.31571  0.013483644  0.012166092            7 
 4323000   0.55977102   -8.4266856    699.62181  0.013486426  0.012161974            3 
 4324000   0.55342803   -8.4066931    700.09227  0.013492373  0.012157855            3 
 4325000   0.55286338   -8.4191671    701.60091  0.013518322  0.012153741            4 
 4326000   0.55216837   -8.4161795    701.31224  0.013509636  0.012149626            4 
 4327000   0.56726045    -8.432283    701.28629  0.013506014  0.012145511            2 
 4328000   0.56060602    -8.427605    700.93694  0.013496167  0.012141404            1 
 4329000   0.55162901   -8.4244101    700.85782  0.013491527  0.012137297            2 
 4330000   0.55468105   -8.4381443    700.16992  0.013475172  0.012133185            2 
 4331000   0.56497738    -8.438302    700.78345  0.013483865  0.012129084            3 
 4332000   0.55773809   -8.4180195    701.14245  0.013487659  0.012124982            4 
 4333000   0.56747606   -8.4303435    699.61597  0.013455188  0.012120882            5 
 4334000   0.58020408   -8.4096886    701.68665  0.013491898  0.012116785            4 
 4335000   0.54873735   -8.4252152    699.24069  0.013441766   0.01211269            5 
 4336000   0.57041095   -8.4269546    700.72576  0.013467208  0.012108596            2 
 4337000   0.57316142   -8.4213247    700.76101   0.01346478  0.012104501            4 
 4338000   0.57371338   -8.4304506    700.68477  0.013460212   0.01210041            2 
 4339000   0.56577528   -8.4181088    700.88174  0.013460892  0.012096318            4 
 4340000   0.55088172     -8.42273    700.95806  0.013459256  0.012092231            4 
 4341000   0.56228057   -8.4198887    701.72086  0.013470799  0.012088146            3 
 4342000   0.55530367   -8.4181017    699.75863  0.013430037  0.012084055            3 
 4343000   0.55003023   -8.4300258    700.82621  0.013447429  0.012079971            4 
 4344000   0.55684874    -8.435143    701.48812  0.013457031  0.012075893            2 
 4345000   0.56299013   -8.4309244    701.30467  0.013450416  0.012071807            1 
 4346000   0.56824251   -8.4210354    699.48442  0.013412418  0.012067729            2 
 4347000   0.55730415   -8.4252753    699.48943  0.013409429   0.01206365            3 
 4348000   0.56246457   -8.4198361    700.31622  0.013422191  0.012059571            2 
 4349000    0.5633676   -8.4166135    699.99307  0.013412912  0.012055496            3 
 4350000   0.56944511   -8.4465637     700.8755  0.013426734  0.012051422            4 
 4351000   0.54396683   -8.4367677    701.22259  0.013430296  0.012047353            4 
 4352000   0.55037264   -8.4306404    701.21263  0.013427019   0.01204329            2 
 4353000   0.56001441   -8.4331485    700.18239  0.013404211  0.012039225            2 
 4354000   0.55935961   -8.4105899    700.39396  0.013405182  0.012035155            1 
 4355000   0.54958726   -8.4154926    700.10119  0.013396502   0.01203109            2 
 4356000   0.56075182   -8.4332819    700.24424  0.013396163  0.012027025            2 
 4357000   0.56697561   -8.4434767    701.58012  0.013418639  0.012022966            3 
 4358000   0.55410944      -8.4371    699.79381  0.013381402  0.012018911            3 
 4359000    0.5760116   -8.4273933    700.30528   0.01338811  0.012014857            2 
 4360000   0.55754227   -8.4169504      700.505  0.013388857  0.012010801            3 
 4361000   0.55196634   -8.4356299    701.30965  0.013401163  0.012006745            2 
 4362000   0.55649743   -8.4397341    700.96122  0.013391434  0.012002692            5 
 4363000   0.55192624    -8.433825    700.71223  0.013383609  0.011998637            1 
 4364000   0.55579883   -8.4300483    700.06673  0.013368216  0.011994586            5 
 4365000   0.54671632   -8.4299056    700.55503  0.013374476  0.011990533            3 
 4366000   0.55590599   -8.4333871    700.23244  0.013365255  0.011986481            2 
 4367000   0.53781569   -8.4206601    700.62896  0.013369761   0.01198243            5 
 4368000   0.55538234    -8.428778    700.43272  0.013362956  0.011978384            3 
 4369000   0.54636781    -8.441329    699.14742  0.013335382  0.011974335            2 
 4370000   0.56356526   -8.4298758     699.3858  0.013336876  0.011970289            4 
 4371000   0.56274751   -8.4481084    700.12272  0.013347875  0.011966241            2 
 4372000   0.56927874   -8.4517416    699.35741  0.013330234  0.011962196            5 
 4373000   0.54681079   -8.4300184    699.56608  0.013331162  0.011958148            3 
 4374000   0.55355909   -8.4395902    699.24871  0.013322068  0.011954101            3 
 4375000   0.55166334   -8.4449969    700.19071  0.013336966  0.011950059            3 
 4376000   0.54552533   -8.4298055    699.22269  0.013315484  0.011946018            3 
 4377000   0.54348069   -8.4413477    699.88863   0.01332512   0.01194198            2 
 4378000    0.5540833   -8.4551577    700.08626  0.013325839  0.011937939            3 
 4379000   0.55364248   -8.4407417    699.41335   0.01330999    0.0119339            4 
 4380000   0.55536722   -8.4388539    699.85526  0.013315359  0.011929863            2 
 4381000   0.56506265   -8.4312915    700.68366  0.013328077  0.011925829            2 
 4382000   0.54568624    -8.447061    699.37591  0.013300166  0.011921798            1 
 4383000   0.55752511   -8.4528968    700.53704  0.013319207  0.011917765            2 
 4384000   0.55313034   -8.4659142     700.6433  0.013318189  0.011913738            3 
 4385000   0.53837119   -8.4321967    700.19196  0.013306575  0.011909711            6 
 4386000   0.54713932   -8.4612111    699.97595  0.013299437  0.011905684            2 
 4387000   0.57115365   -8.4285377    699.76055  0.013292314  0.011901664            4 
 4388000   0.54936941   -8.4429456    699.88519  0.013291651  0.011897644            3 
 4389000   0.54226307   -8.4417842    698.56225  0.013263504  0.011893627            2 
 4390000   0.55547179   -8.4344946    699.85228  0.013284971  0.011889606            3 
 4391000   0.55822243   -8.4422545    699.82144   0.01328136  0.011885588            3 
 4392000   0.55755002   -8.4530074    699.41254  0.013270578   0.01188157            1 
 4393000   0.55502508   -8.4559038    698.39027  0.013248165  0.011877552            4 
 4394000   0.54293463   -8.4560193    698.95099  0.013255784  0.011873535            2 
 4395000   0.53014445    -8.450895    699.79394  0.013268751  0.011869519            2 
 4396000   0.54781626   -8.4592368    699.35172   0.01325735  0.011865508            2 
 4397000   0.56815555   -8.4571055    699.48035  0.013256773  0.011861497            2 
 4398000   0.53992998   -8.4449767    699.18127  0.013248091  0.011857489            2 
 4399000   0.55138775   -8.4240475    700.38195  0.013267825  0.011853486            2 
 4400000    0.5523242   -8.4530517    698.93757  0.013237454   0.01184948            2 
 4401000   0.54925163   -8.4599275    700.70372  0.013267888  0.011845477            6 
 4402000   0.54130078   -8.4576005    699.01267  0.013232861  0.011841473            1 
 4403000   0.54451446   -8.4471814    699.27828  0.013234883  0.011837468            2 
 4404000   0.55288565   -8.4541664    699.56902  0.013237379  0.011833461            2 
 4405000   0.54803682    -8.453433    699.35646  0.013230353  0.011829462            2 
 4406000   0.56194985    -8.440125      700.281  0.013244837  0.011825466            4 
 4407000   0.55679643   -8.4440692    699.63031  0.013229527   0.01182147            3 
 4408000    0.5459159   -8.4465217    698.70542  0.013209041  0.011817475            2 
 4409000    0.5405107    -8.453785    700.81647  0.013245945  0.011813481            3 
 4410000   0.55820325   -8.4468747    697.95126  0.013188799   0.01180949            3 
 4411000   0.53781261   -8.4431353     698.0581  0.013187828  0.011805497            4 
 4412000   0.53470987    -8.465646    699.17237  0.013205885  0.011801505            3 
 4413000   0.54107715    -8.431761    699.43251  0.013207805  0.011797511            3 
 4414000   0.54149827   -8.4545105    699.55982  0.013207216  0.011793524            3 
 4415000    0.5527753   -8.4418066    700.15836  0.013215522  0.011789538            1 
 4416000   0.55234496    -8.454601    699.75881   0.01320499  0.011785556            1 
 4417000   0.54791022   -8.4591932    699.21292  0.013191701  0.011781571            5 
 4418000   0.56027324   -8.4568138    699.52656  0.013194631  0.011777591            2 
 4419000   0.55233995    -8.455452    698.30941  0.013168692  0.011773612            4 
 4420000   0.53821833    -8.448972    700.00589  0.013197698  0.011769636            4 
 4421000   0.54847171   -8.4319733    699.91904  0.013193075  0.011765663            3 
 4422000   0.54970691   -8.4668793    699.04781  0.013173674  0.011761691            4 
 4423000   0.54906439   -8.4418454    699.22058   0.01317395  0.011757717            4 
 4424000   0.53101232   -8.4513561    699.12471  0.013169166  0.011753748            2 
 4425000   0.54432067   -8.4471081     699.6435  0.013175961  0.011749779            2 
 4426000   0.54086983   -8.4647908    699.95612   0.01317887  0.011745809            1 
 4427000   0.53823642   -8.4465484    698.83469  0.013154783  0.011741839            2 
 4428000   0.55813135   -8.4465139    700.02766  0.013174263  0.011737868            1 
 4429000   0.54433522   -8.4572106    700.03366  0.013171402  0.011733907            3 
 4430000   0.54282782   -8.4669629    700.01091  0.013168001  0.011729946            3 
 4431000   0.55337583   -8.4501632    698.24832   0.01313188  0.011725987            2 
 4432000   0.55609631   -8.4680616    699.05002  0.013143991  0.011722027            2 
 4433000   0.54816307   -8.4645958    699.25066  0.013144798  0.011718071            3 
 4434000   0.54502151   -8.4525342    699.59302  0.013148268  0.011714114            3 
 4435000   0.54134976   -8.4485164    698.48156  0.013124419  0.011710157            3 
 4436000   0.53789697   -8.4624472    699.64771  0.013143367  0.011706204            3 
 4437000   0.54602914   -8.4861182     699.3928  0.013135617  0.011702253            3 
 4438000   0.53988783   -8.4637989    699.15759  0.013128241    0.0116983            3 
 4439000   0.54045489   -8.4623994    699.98419  0.013140801  0.011694353            2 
 4440000   0.54020642   -8.4549256    699.19226  0.013122978  0.011690401            4 
 4441000   0.54267999   -8.4428429    698.31599   0.01310358  0.011686456            8 
 4442000   0.55568815   -8.4622975    698.96243  0.013112758  0.011682511            2 
 4443000   0.53912912   -8.4688194    698.36672  0.013098633  0.011678569            3 
 4444000   0.54879383   -8.4693139    698.04593   0.01308967   0.01167463            3 
 4445000   0.53554868   -8.4499442    698.75412  0.013100002  0.011670689            1 
 4446000   0.54785689   -8.4676743    699.43934  0.013109899  0.011666754            4 
 4447000   0.54622071   -8.4611916    700.39577  0.013124874  0.011662817            2 
 4448000   0.53805111   -8.4663865     699.7182  0.013109229  0.011658887            2 
 4449000   0.55248493   -8.4752149    698.25608  0.013078896  0.011654951            4 
 4450000   0.54733774   -8.4492177    699.78867  0.013104657  0.011651019            3 
 4451000   0.54013982    -8.465845    699.46221    0.0130956  0.011647093            4 
 4452000    0.5401979   -8.4639635     699.0202  0.013084385  0.011643169            3 
 4453000   0.53714417   -8.4486822    699.73482   0.01309482  0.011639245            4 
 4454000   0.53401408   -8.4700091    698.44682  0.013067782  0.011635322            4 
 4455000   0.53967317   -8.4518342    698.71786  0.013069919  0.011631399            2 
 4456000   0.55347018   -8.4728548    699.04682  0.013073138  0.011627474            2 
 4457000   0.54904706   -8.4675926    699.53703   0.01307937  0.011623555            6 
 4458000   0.53628593   -8.4641917    700.16222  0.013088123  0.011619638            3 
 4459000   0.55666915   -8.4704381    698.43799  0.013052964   0.01161572            4 
 4460000   0.52270434   -8.4703509    698.13115  0.013044304  0.011611797            2 
 4461000   0.54014599   -8.4682327    700.02571  0.013076771  0.011607881            4 
 4462000   0.54779271   -8.4684205    698.48865  0.013045134  0.011603967            1 
 4463000   0.53654196   -8.4583703    699.87746  0.013068143  0.011600054            3 
 4464000   0.54217907   -8.4698358    698.76856  0.013044515  0.011596145            4 
 4465000   0.53786957   -8.4589215    699.88459  0.013062422  0.011592238            1 
 4466000   0.54585485   -8.4635282    698.47311   0.01303316  0.011588328            4 
 4467000   0.53834941   -8.4734551    700.01581  0.013059022  0.011584421            3 
 4468000   0.55137368   -8.4713486    699.35728  0.013043817  0.011580514            1 
 4469000    0.5325158    -8.445987    698.65653  0.013027831  0.011576609            3 
 4470000   0.53429938   -8.4750883    698.99502  0.013031227   0.01157271            5 
 4471000   0.54011474   -8.4593842    699.61754  0.013039915  0.011568813            1 
 4472000   0.53863171   -8.4539376    698.25883  0.013011681  0.011564912            2 
 4473000   0.54406873   -8.4642061    698.79144  0.013018694  0.011561013            2 
 4474000   0.53828743   -8.4829853    699.38343  0.013026811  0.011557117            3 
 4475000   0.53579441   -8.4605004    698.48545  0.013007178  0.011553225            2 
 4476000   0.54070106   -8.4694766    698.81186  0.013010349  0.011549331            2 
 4477000   0.52551382   -8.4609272     698.6968  0.013005301  0.011545441            4 
 4478000   0.53753791   -8.4568275      698.886  0.013005918  0.011541551            2 
 4479000    0.5511687   -8.4719582    698.81207  0.013001639  0.011537665            2 
 4480000   0.53555559   -8.4724027     698.5089  0.012993097  0.011533782            4 
 4481000   0.53148378    -8.469855    698.14469  0.012983424  0.011529892            3 
 4482000   0.54032453   -8.4652399    698.92789  0.012995089  0.011526009            1 
 4483000   0.52961913   -8.4820937    699.00591  0.012993641  0.011522126            6 
 4484000   0.53504387   -8.4870715    698.60628  0.012983316  0.011518246            3 
 4485000   0.54058213   -8.4587299    698.72663  0.012982658  0.011514367            5 
 4486000   0.54451962     -8.45984    698.56452  0.012976752  0.011510491            5 
 4487000   0.53846645   -8.4744639    698.54637  0.012973523  0.011506618            3 
 4488000   0.52526134    -8.454042    699.23105  0.012983345  0.011502744            4 
 4489000   0.52367963   -8.4611571    699.45747  0.012984656  0.011498871            2 
 4490000   0.52801737   -8.4572012    698.81043  0.012969756  0.011494997            2 
 4491000    0.5296713   -8.4734544    697.79731  0.012948068  0.011491127            2 
 4492000    0.5383231   -8.4936782    698.41362   0.01295662  0.011487257            3 
 4493000   0.53622077   -8.4602446    698.48724  0.012955101   0.01148339            4 
 4494000   0.52764571   -8.4799916    699.11105  0.012963786  0.011479522            1 
 4495000   0.52461072   -8.4720181    698.60516  0.012951523  0.011475661            2 
 4496000   0.53113047   -8.4838867    698.85243  0.012953226  0.011471796            1 
 4497000   0.52443091   -8.4834539    699.04366  0.012953889   0.01146793            3 
 4498000   0.53078803   -8.4631368    698.47447  0.012940464  0.011464067            3 
 4499000   0.53781491   -8.4587462    698.82269  0.012944037  0.011460203            7 
 4500000   0.52585599   -8.4927651     697.8868   0.01292383  0.011456346            3 
 4501000   0.53379838   -8.4701795    699.24059  0.012946023   0.01145249            2 
 4502000   0.53943715   -8.4732692    698.70131  0.012933165  0.011448636            4 
 4503000   0.52700047   -8.4736311    698.55716  0.012927625  0.011444782            1 
 4504000   0.52896313   -8.4811405    698.66581  0.012926765  0.011440929            1 
 4505000   0.51995883   -8.4925781    699.54102  0.012940085  0.011437077            2 
 4506000   0.52417333   -8.4940245    698.95087    0.0129263   0.01143323            4 
 4507000   0.52132234   -8.4732528     699.0572  0.012925398  0.011429381            2 
 4508000   0.53768755   -8.4824622     698.6965  0.012915863   0.01142554            1 
 4509000   0.54172081   -8.4818488    698.19752  0.012903776  0.011421693            5 
 4510000     0.523479   -8.4774963    699.30814  0.012921436  0.011417848            8 
 4511000   0.52524162    -8.473795    698.70772   0.01290748  0.011414004            1 
 4512000   0.51749891   -8.4863158    697.93501  0.012890348  0.011410168            2 
 4513000   0.52991065   -8.4662399    698.50877  0.012898086  0.011406331            2 
 4514000   0.53217153     -8.48758    698.40987  0.012893403  0.011402493            5 
 4515000   0.52755557   -8.4811438    699.37233  0.012908312  0.011398655            2 
 4516000   0.52706778   -8.4787997    698.46266  0.012888667   0.01139482            3 
 4517000   0.53330783   -8.4754033    698.17305  0.012880471  0.011390986            3 
 4518000   0.52767989   -8.5012196    697.71563  0.012869183  0.011387152            3 
 4519000   0.53235604   -8.4755662    698.08576  0.012873161   0.01138332            3 
 4520000   0.52252532   -8.4918338    698.25769  0.012873482  0.011379491            1 
 4521000   0.52877183   -8.4766217    698.20461  0.012869657  0.011375663            2 
 4522000   0.52156752   -8.5032696    698.69327  0.012875816  0.011371837            3 
 4523000   0.51594359   -8.4598587    698.72906  0.012873628  0.011368012            3 
 4524000   0.53088366   -8.4816561    697.38905    0.0128461  0.011364188            2 
 4525000   0.51859442   -8.4966893    698.43089  0.012862447  0.011360366            2 
 4526000   0.52018122   -8.4870255    699.43972   0.01287818  0.011356544            2 
 4527000   0.51849684   -8.4996196    697.10804  0.012832414  0.011352723            2 
 4528000   0.52105853   -8.4791484    698.96981  0.012863844  0.011348905            1 
 4529000   0.53928817   -8.4742301    697.56399  0.012835136  0.011345092            3 
 4530000   0.51981032   -8.4750842    697.16853  0.012825028  0.011341278            1 
 4531000   0.52184647   -8.4895982    696.74296  0.012814371  0.011337463            1 
 4532000   0.52195819   -8.4885597    697.56117  0.012826588   0.01133365            2 
 4533000   0.52613759   -8.4877053    698.44919  0.012840084  0.011329835           12 
 4534000   0.52533473   -8.4812817    698.56923  0.012839458  0.011326023            2 
 4535000   0.52926681   -8.4789175    697.95356  0.012825313  0.011322215            3 
 4536000   0.52698129   -8.4864875    697.94767  0.012822378   0.01131841            3 
 4537000    0.5288983   -8.5013263     697.5437  0.012812132  0.011314607            1 
 4538000   0.52605986   -8.4849962    698.58388   0.01282841  0.011310802            3 
 4539000   0.53380097   -8.4893998    697.94554  0.012813864  0.011307002            2 
 4540000   0.52975644   -8.4979419    697.73833  0.012807238  0.011303202            1 
 4541000   0.52290925   -8.4871693    698.32336  0.012815154  0.011299405            1 
 4542000   0.51949447   -8.5014118    698.05239  0.012807361  0.011295611            4 
 4543000   0.52689483   -8.4944617    698.25003  0.012808167  0.011291815            2 
 4544000   0.52568549    -8.496421    697.41319  0.012790001  0.011288024            4 
 4545000   0.53509603   -8.4882004    697.94239   0.01279689   0.01128423            2 
 4546000   0.51948735   -8.4722278    699.54001  0.012823361  0.011280439            2 
 4547000   0.51881193   -8.4843712    697.30528  0.012779585  0.011276649            2 
 4548000   0.52578477   -8.4826452    698.12522  0.012791799  0.011272861            1 
 4549000   0.52081538   -8.5080377     699.0487  0.012805904  0.011269074            1 
 4550000   0.51645813   -8.5105333     697.7728  0.012779722  0.011265286            9 
 4551000   0.52171077   -8.4989763     697.1424   0.01276537    0.0112615            1 
 4552000   0.53659502   -8.5058059    698.24504  0.012782752  0.011257718            2 
 4553000   0.52560677   -8.4938685    696.28257  0.012744025  0.011253935            3 
 4554000   0.52190846    -8.486045    697.91161  0.012771037  0.011250154            3 
 4555000   0.52508147   -8.4897844    697.55347  0.012761681  0.011246377            3 
 4556000   0.51754025   -8.4767565    698.80648  0.012781798  0.011242608            5 
 4557000   0.52020827   -8.4922429    699.20871  0.012786349  0.011238834            1 
 4558000   0.52980613   -8.5006116      698.205  0.012765193  0.011235063            4 
 4559000   0.52019314   -8.4846094     696.6255  0.012733522  0.011231291            3 
 4560000   0.51995043   -8.4931831    697.40684  0.012745008  0.011227521            1 
 4561000   0.51499477   -8.4975103    697.51373  0.012744167  0.011223757            3 
 4562000   0.51416548   -8.4896205    697.08045  0.012733459   0.01121999            2 
 4563000   0.51427718   -8.5016588     698.1312  0.012749858  0.011216223            1 
 4564000   0.51591702     -8.49321    696.86996  0.012724035  0.011212459            3 
 4565000   0.51006478   -8.4940112     697.1762  0.012726838  0.011208698            2 
 4566000   0.51486589   -8.4937244    697.65926  0.012732867  0.011204937            2 
 4567000   0.52702827    -8.507538    696.51212  0.012709148   0.01120118            3 
 4568000   0.52710301   -8.4870832    697.45381  0.012723544  0.011197423            2 
 4569000   0.52935824     -8.49657     698.7343  0.012744114  0.011193669            3 
 4570000   0.51568095   -8.4972614    698.18611  0.012731329  0.011189917            5 
 4571000   0.50991952   -8.4940516    697.90242  0.012723372  0.011186166            1 
 4572000   0.51608631   -8.4894726    698.23129  0.012726584  0.011182415            2 
 4573000   0.52444602   -8.4916611    697.49174  0.012710324  0.011178663            7 
 4574000   0.53172376   -8.4899803    698.99581  0.012734948  0.011174917            4 
 4575000   0.52304428   -8.4967245    698.22174  0.012718065  0.011171177            3 
 4576000   0.51602078   -8.4967192    696.29806  0.012680253   0.01116743            4 
 4577000   0.52435306   -8.4803065    697.00612  0.012690374   0.01116369            2 
 4578000   0.51557466   -8.4843701    698.90759  0.012722215  0.011159948            4 
 4579000   0.52987356   -8.5057627    697.60406  0.012695713   0.01115621            2 
 4580000   0.51076159   -8.4712943    697.54154  0.012691804  0.011152468            5 
 4581000   0.50896792   -8.5009548    698.45648  0.012705677  0.011148731            5 
 4582000   0.52227093    -8.517117    698.90872  0.012711129  0.011144995            2 
 4583000   0.51543431   -8.5038304    697.18463  0.012677006  0.011141259            6 
 4584000   0.51212738    -8.506029    697.82308  0.012685847  0.011137526            5 
 4585000    0.5089369   -8.4906851    697.08819  0.012669724  0.011133793            4 
 4586000   0.50739922   -8.4893767    697.03347  0.012665967  0.011130065            4 
 4587000   0.50962692   -8.4975663    697.71866  0.012675653  0.011126341            9 
 4588000   0.50749006   -8.5117194    697.89307  0.012676058  0.011122617            3 
 4589000   0.51598793   -8.5103748    697.20885  0.012660871  0.011118892            1 
 4590000   0.51989556   -8.4844627    697.81876  0.012669186  0.011115171            6 
 4591000   0.52219874   -8.5173155    697.26472   0.01265637  0.011111451            3 
 4592000   0.51759704   -8.4916351    698.60405  0.012677919  0.011107731            2 
 4593000   0.53167926   -8.4998745    698.58612  0.012674833  0.011104012            3 
 4594000     0.519633   -8.5021023    698.06274   0.01266258  0.011100297            6 
 4595000   0.52753835   -8.5058739    697.62734  0.012651929   0.01109658            3 
 4596000   0.51984781   -8.5184089    698.21373  0.012659808  0.011092866            8 
 4597000   0.50698975   -8.5105482    696.98405  0.012634763  0.011089151            2 
 4598000   0.52224482   -8.5050894    697.84338  0.012647589  0.011085439            1 
 4599000   0.51571254   -8.5007624    698.36639  0.012654316   0.01108173            6 
 4600000    0.5134109   -8.5055526    698.42142  0.012652562  0.011078023            4 
 4601000   0.51649736   -8.5060873    696.79076  0.012620277  0.011074319            2 
 4602000   0.52936694   -8.5181472    697.74206  0.012634761  0.011070618            3 
 4603000   0.51156435   -8.5070502    697.56505  0.012628812  0.011066915            2 
 4604000   0.52800411   -8.5030373    698.18705  0.012637327  0.011063213            5 
 4605000   0.52049482   -8.5104414    697.05292  0.012614059  0.011059512            3 
 4606000   0.51739185   -8.5023153    698.43238  0.012636278  0.011055812            7 
 4607000   0.51294239   -8.5090404    697.08055  0.012609083  0.011052114            3 
 4608000   0.52044546   -8.5089728     697.6743  0.012617084  0.011048417            4 
 4609000   0.52131091   -8.5238284    697.39558  0.012609307  0.011044722            3 
 4610000    0.5093518   -8.5078228    698.25559  0.012622118  0.011041029            4 
 4611000    0.5224409   -8.5103565    697.12868  0.012599015   0.01103734            3 
 4612000   0.50974712   -8.4858553    697.59121   0.01260464  0.011033649            3 
 4613000   0.51174613   -8.5074663    697.60837  0.012602218  0.011029962            4 
 4614000   0.51285942   -8.5135602    696.67952  0.012582711  0.011026275            3 
 4615000   0.51310741    -8.507742    696.65344  0.012579513  0.011022591            1 
 4616000   0.51316045   -8.5012341    697.64365  0.012594664  0.011018905            2 
 4617000   0.50348589   -8.4950099     696.2287  0.012566398  0.011015223            3 
 4618000   0.51609091   -8.5047422    697.34679  0.012583853  0.011011542            3 
 4619000   0.52080995   -8.5210441    697.33935  0.012580994  0.011007861            2 
 4620000   0.50631371   -8.4902811    698.44637  0.012598239  0.011004181            6 
 4621000   0.52540864   -8.5061452    698.09549  0.012589185  0.011000505            1 
 4622000   0.50992789   -8.5136997    697.27773  0.012571717  0.010996828            7 
 4623000   0.50275624     -8.49946    696.04337  0.012546748  0.010993152            3 
 4624000   0.51066713   -8.5082744     696.0284  0.012543764  0.010989477            2 
 4625000    0.5043489   -8.5015722    696.91503  0.012557028  0.010985801            3 
 4626000    0.5113918     -8.51023    697.94648  0.012572894  0.010982127            2 
 4627000    0.5155961   -8.5148223     697.7407   0.01256647  0.010978452            1 
 4628000   0.50763133   -8.5024749    696.81655  0.012547114  0.010974785            4 
 4629000   0.51847569    -8.517748    697.40601  0.012555016  0.010971114            2 
 4630000   0.51377591   -8.5020605    697.53335  0.012554596  0.010967446            2 
 4631000   0.51782745   -8.5167558    698.29765  0.012565638   0.01096378            3 
 4632000   0.50518858   -8.5218427    697.83199  0.012554548   0.01096012            1 
 4633000   0.50715959   -8.5095516    697.65125  0.012548587  0.010956457            5 
 4634000   0.50363424   -8.5032034     696.9144  0.012532628  0.010952792            4 
 4635000   0.50386245   -8.5113177    697.53559  0.012541093  0.010949129            3 
 4636000     0.513122   -8.5264585    696.46175  0.012519085  0.010945467            4 
 4637000   0.50782443   -8.5122997    697.29591  0.012531376  0.010941808            2 
 4638000   0.51197183   -8.5059432    697.21054  0.012527141  0.010938151            1 
 4639000   0.51362366   -8.5134136    697.21636  0.012524545  0.010934494            3 
 4640000   0.51715315   -8.5223863     697.6263  0.012529208  0.010930838            2 
 4641000   0.51638593   -8.5252011    697.27356  0.012520175  0.010927184            4 
 4642000   0.50370755   -8.5067406    697.88915  0.012528528  0.010923532            3 
 4643000   0.50244212   -8.5265971    697.05927  0.012510935  0.010919879            2 
 4644000   0.50878643   -8.5080769    697.09374   0.01250886   0.01091623            6 
 4645000    0.5082102   -8.5172303     697.5787  0.012514867   0.01091258            2 
 4646000    0.5093137   -8.5282574    697.70575  0.012514452   0.01090893            4 
 4647000   0.50163415   -8.5139202    697.30389  0.012504553  0.010905283            2 
 4648000    0.5123776   -8.5047664    697.67191  0.012508461   0.01090164            2 
 4649000   0.50638664    -8.531292    697.94615  0.012510686     0.010898            3 
 4650000   0.50382421    -8.514077    697.17172  0.012494117  0.010894358            1 
 4651000   0.50995777   -8.5193226      697.266   0.01249312  0.010890717            3 
 4652000   0.50605036   -8.5289311    695.82759  0.012464667  0.010887077            4 
 4653000   0.51303631   -8.5149449    697.40173  0.012490181   0.01088344            2 
 4654000   0.50346683   -8.5213644    696.84911  0.012477602  0.010879804            6 
 4655000   0.49916708    -8.526534    696.34883  0.012465966  0.010876169            4 
 4656000   0.50543343   -8.5214343    696.98366   0.01247465  0.010872539            1 
 4657000   0.50681571   -8.5310833    696.98068  0.012471918  0.010868909            4 
 4658000   0.50128939   -8.5100012    696.91693    0.0124681  0.010865281            4 
 4659000   0.50608123   -8.5277683    697.07415  0.012468236  0.010861654            2 
 4660000   0.50631624   -8.5298242       697.17  0.012467275   0.01085803            2 
 4661000   0.51306367   -8.5364931     698.0281  0.012479942  0.010854404            3 
 4662000   0.50681085   -8.5341568    697.22798  0.012462963  0.010850786            3 
 4663000   0.50169978   -8.5234103     696.8812  0.012454093  0.010847164            2 
 4664000   0.51396297   -8.5316814    698.43394  0.012479166  0.010843544            3 
 4665000    0.5068417   -8.5244176    695.51656  0.012424376  0.010839925            3 
 4666000   0.50432366   -8.5298009    697.53669  0.012457792  0.010836305            2 
 4667000   0.49825201   -8.5231867     696.2278  0.012431751  0.010832687            3 
 4668000   0.50654841   -8.5328653    697.44253  0.012450774  0.010829066            5 
 4669000   0.49591171   -8.5300495    696.06351  0.012423494  0.010825448            3 
 4670000   0.51220386   -8.5179113    696.79713  0.012433924  0.010821832            3 
 4671000   0.50752795   -8.5121347    696.73282  0.012430115  0.010818221            2 
 4672000   0.50899363   -8.5326365    697.49195  0.012440995  0.010814612            5 
 4673000   0.49892522   -8.5232185    698.13432  0.012449788  0.010811004            2 
 4674000   0.49516858   -8.5142698    696.21381  0.012412883  0.010807396            2 
 4675000   0.50249104   -8.5337582    696.51808  0.012415652  0.010803793            3 
 4676000   0.50701347   -8.5452952    697.55374  0.012431454  0.010800193            2 
 4677000    0.5072195   -8.5361608    697.91649  0.012435259  0.010796594            2 
 4678000   0.49066433   -8.5230019     697.0184  0.012416603  0.010792993            3 
 4679000   0.50178217   -8.5085772    696.47138  0.012404206  0.010789395            7 
 4680000   0.49942707   -8.5130662    696.75145  0.012406543    0.0107858            2 
 4681000   0.50614574   -8.5245475    697.08615  0.012409851  0.010782206            5 
 4682000   0.50421393   -8.5268663     696.3196  0.012393557  0.010778612            1 
 4683000   0.51007385    -8.539649    696.98691  0.012402785  0.010775022            1 
 4684000   0.50368092   -8.5260181    696.09131  0.012384203  0.010771431            3 
 4685000   0.51664457   -8.5163887    696.85499  0.012395144  0.010767843            2 
 4686000   0.50847121    -8.553093    697.35871  0.012401457  0.010764254            3 
 4687000    0.5073118   -8.5197311    697.09068  0.012394045  0.010760669            4 
 4688000   0.50435286   -8.5283951    696.66575  0.012383848  0.010757083            5 
 4689000   0.50665431   -8.5114593    696.82285  0.012383999  0.010753501            2 
 4690000   0.50513417   -8.5307591    696.80387  0.012381021  0.010749921            3 
 4691000   0.50162702    -8.546348     696.4218  0.012371594  0.010746342            8 
 4692000   0.49917625   -8.5160437    696.63811    0.0123728  0.010742765            3 
 4693000   0.50207508   -8.5154239    696.41605   0.01236622  0.010739191            3 
 4694000   0.50166911   -8.5319817    696.35913  0.012362575  0.010735618            3 
 4695000   0.50709799   -8.5155523      695.487  0.012344462  0.010732045            1 
 4696000   0.51834783   -8.5223829    697.20003  0.012372232  0.010728474            2 
 4697000   0.50030998   -8.5235734    696.38082  0.012355064  0.010724903            2 
 4698000   0.49437895   -8.5344312    696.66371  0.012357452  0.010721335            2 
 4699000   0.50700257   -8.5394616    696.20105  0.012346617  0.010717764            1 
 4700000   0.51121424   -8.5169104    696.40192  0.012347552  0.010714197            2 
 4701000   0.50283289   -8.5539193    697.19384  0.012358963  0.010710634            4 
 4702000   0.48778723   -8.5380425    696.04967  0.012336057   0.01070707            2 
 4703000   0.49589576   -8.5292919    696.80969  0.012346901  0.010703504            2 
 4704000   0.50280391   -8.5227384    697.21755  0.012351501  0.010699947            2 
 4705000   0.51062063   -8.5201962    696.54904  0.012337036  0.010696389            3 
 4706000   0.49336347   -8.5422846    696.41234  0.012331994  0.010692829            1 
 4707000   0.49976416   -8.5374733    696.01607  0.012322358  0.010689272            2 
 4708000   0.50825369   -8.5257324    695.66509  0.012313528  0.010685718            7 
 4709000   0.49276441   -8.5271735    696.10736   0.01231874  0.010682166            2 
 4710000   0.50051118   -8.5375345    696.54592  0.012323884  0.010678613            1 
 4711000   0.49919549   -8.5333625     696.0957  0.012313304  0.010675064            3 
 4712000   0.50242431   -8.5356376    697.11858  0.012328781  0.010671514            5 
 4713000   0.49395224   -8.5241083    696.84484  0.012321325  0.010667967            2 
 4714000   0.49254718   -8.5195728     696.8266  0.012318389  0.010664421            3 
 4715000   0.49859369   -8.5370448    696.86454  0.012316446  0.010660876            3 
 4716000   0.49267071   -8.5355294    695.70566  0.012293357  0.010657334            3 
 4717000   0.49336166   -8.5337329    695.98208  0.012295634   0.01065379            6 
 4718000   0.49872725   -8.5350824    696.36597  0.012299809  0.010650249            2 
 4719000   0.49342499   -8.5462155    696.17562  0.012293841  0.010646707            1 
 4720000   0.48899263   -8.5465074    696.58408  0.012298448  0.010643167            2 
 4721000   0.49730619   -8.5337208    696.33074  0.012291371  0.010639631            1 
 4722000   0.49555823   -8.5368236    697.16694  0.012303525  0.010636095            3 
 4723000   0.48820472   -8.5100007    696.50827  0.012289298   0.01063256            6 
 4724000   0.49781067   -8.5400501    695.79612  0.012274134   0.01062903            4 
 4725000   0.48842387   -8.5445804    696.48711  0.012283723  0.010625497            4 
 4726000   0.50027758   -8.5346838    695.60659  0.012265598  0.010621968            3 
 4727000   0.48687035   -8.5363523    696.94921  0.012286673   0.01061844            3 
 4728000   0.50299889   -8.5330967     695.5471  0.012259361  0.010614912            3 
 4729000   0.50181274   -8.5425719     697.4347  0.012290031  0.010611389            1 
 4730000   0.49013165   -8.5452447    695.84175  0.012259368  0.010607864            3 
 4731000   0.49525338   -8.5305482    696.65363  0.012271078  0.010604341            2 
 4732000   0.50417358    -8.532624    696.73687  0.012269951  0.010600819            6 
 4733000   0.50346609   -8.5293133    696.62747  0.012265432    0.0105973            2 
 4734000   0.48646323   -8.5215012    695.92097  0.012250404  0.010593782            3 
 4735000   0.49140555   -8.5327127    695.47418  0.012239954  0.010590266            6 
 4736000   0.48847198    -8.529593    696.44886   0.01225452  0.010586752            2 
 4737000   0.48726412   -8.5453332     696.9363  0.012260508  0.010583237            3 
 4738000   0.50725733   -8.5240692    695.46329  0.012232012  0.010579725            3 
 4739000   0.48233931   -8.5368728    695.29814  0.012226527   0.01057621            6 
 4740000   0.50085296   -8.5352603     696.1477  0.012238884  0.010572701            2 
 4741000   0.48424805   -8.5313273    696.63368  0.012244844  0.010569191            7 
 4742000   0.49531966   -8.5246681    696.85404  0.012246135  0.010565687            1 
 4743000   0.48962914   -8.5409606    695.78987  0.012224855   0.01056218            2 
 4744000   0.49162466   -8.5426492    695.88232  0.012223903  0.010558676            3 
 4745000   0.49820651   -8.5448192    695.96977  0.012222862   0.01055517            3 
 4746000    0.5069097   -8.5371254    696.00921  0.012220979   0.01055167            1 
 4747000   0.48335586   -8.5383196    695.54176  0.012210199  0.010548171            5 
 4748000   0.48416414    -8.536838    696.24812  0.012220025   0.01054467            2 
 4749000   0.48857973   -8.5410435    695.43694  0.012203217  0.010541169            2 
 4750000   0.48599967   -8.5480844    696.23207  0.012214598  0.010537673            2 
 4751000   0.49614834   -8.5367609    695.74369  0.012203461  0.010534181            4 
 4752000   0.49122646   -8.5344641    695.97489  0.012204947   0.01053069            3 
 4753000   0.49898404   -8.5455982    696.34281   0.01220883  0.010527199            1 
 4754000   0.48446173   -8.5532179    695.87051  0.012197983  0.010523713            2 
 4755000   0.48736465    -8.544905    696.13648  0.012200078  0.010520224           11 
 4756000    0.4941365    -8.537086    695.86389  0.012192737   0.01051674            2 
 4757000   0.49059054   -8.5570327    696.21585   0.01219634  0.010513256            4 
 4758000   0.50721941   -8.5471803     696.2173  0.012193802  0.010509775            5 
 4759000   0.50172448   -8.5515909    696.09126  0.012189032  0.010506297            2 
 4760000   0.47958548   -8.5456963     696.3164  0.012190413  0.010502817            3 
 4761000   0.49222892   -8.5498906    695.16061  0.012167623  0.010499336            5 
 4762000   0.48185383   -8.5496476     695.5826  0.012172452  0.010495856            3 
 4763000   0.48538509    -8.545837    695.74751  0.012172782  0.010492377            2 
 4764000   0.48935897   -8.5515406    696.46017  0.012182693  0.010488901            2 
 4765000   0.49525258   -8.5376808    695.38819  0.012161388   0.01048543            3 
 4766000   0.49612617   -8.5498825    696.57075  0.012179514  0.010481961            2 
 4767000   0.48968497   -8.5454635    695.39758   0.01215645  0.010478489            2 
 4768000   0.48010484   -8.5397343    695.94339   0.01216344  0.010475018            4 
 4769000   0.49052108   -8.5619869    696.07057  0.012163112  0.010471552            4 
 4770000   0.48665914   -8.5499663    696.34299  0.012165321  0.010468083            3 
 4771000   0.49018777   -8.5438405    695.59339  0.012149678  0.010464617            3 
 4772000   0.47961331    -8.560916    696.02924  0.012154744  0.010461153            4 
 4773000   0.49701568    -8.543423    696.09638  0.012153369  0.010457693            4 
 4774000   0.49088216   -8.5442603    695.37459  0.012138224  0.010454231            2 
 4775000   0.47985199    -8.550058    695.94377  0.012145615  0.010450772            4 
 4776000   0.48563186   -8.5379312    696.06375  0.012145166  0.010447312            4 
 4777000   0.47248315   -8.5509888    696.07538  0.012142826  0.010443856            4 
 4778000   0.48451463    -8.529166    694.97006  0.012121007  0.010440399            6 
 4779000    0.4874251   -8.5572287    695.01774  0.012119302  0.010436946            2 
 4780000    0.4858615   -8.5451559    695.12101  0.012118567  0.010433492            1 
 4781000   0.48628817   -8.5527367    695.73893  0.012126803  0.010430043            3 
 4782000   0.48861876   -8.5499983    694.65336  0.012105349  0.010426592            2 
 4783000   0.50027612   -8.5448698    696.92441  0.012142386  0.010423143            1 
 4784000   0.47908499   -8.5550182    696.59293  0.012134074  0.010419698            1 
 4785000    0.4852567   -8.5379788    695.86296  0.012118825  0.010416253            2 
 4786000    0.4790463   -8.5495956    694.79556  0.012097708  0.010412808            2 
 4787000   0.48943489   -8.5645264    696.45727  0.012124108  0.010409366            3 
 4788000   0.47963307   -8.5550179    696.30929     0.012119  0.010405928            2 
 4789000   0.47550113   -8.5627947    695.53413  0.012102981  0.010402486            7 
 4790000   0.49105447   -8.5586091    695.76581  0.012104485  0.010399046            5 
 4791000   0.47961254   -8.5506711    695.90298  0.012104345   0.01039561            5 
 4792000    0.4857587   -8.5553812     695.7655  0.012099428  0.010392174            3 
 4793000   0.48661415   -8.5639149    695.33414  0.012089404  0.010388743            6 
 4794000   0.48020348   -8.5360724    696.14212  0.012100927  0.010385313            3 
 4795000   0.48079259   -8.5436366    694.66358  0.012072707  0.010381886            5 
 4796000   0.48520123   -8.5502084    696.09541  0.012095069  0.010378458            3 
 4797000   0.48311446   -8.5415785    695.15783   0.01207626   0.01037503            3 
 4798000   0.48066735   -8.5536895    695.59768  0.012081382  0.010371607            6 
 4799000   0.49628521   -8.5593717    695.79695  0.012082325  0.010368184            3 
 4800000   0.49216103   -8.5452724    696.37238  0.012089798  0.010364757            5 
 4801000   0.47742946   -8.5326213    694.33368  0.012051893  0.010361333            9 
 4802000   0.48385907   -8.5571797    695.11944   0.01206302  0.010357911            4 
 4803000   0.48550364   -8.5553242    695.28153   0.01206332  0.010354488            4 
 4804000   0.47946839   -8.5618025    695.48483  0.012064336  0.010351072            2 
 4805000   0.47337689   -8.5621766     696.1536  0.012073423  0.010347655            3 
 4806000   0.48118066   -8.5634565    695.40524  0.012057935  0.010344238            2 
 4807000   0.47832483   -8.5711737    696.27481  0.012070502  0.010340822            3 
 4808000   0.48056489   -8.5482677    695.65726  0.012057288  0.010337408            3 
 4809000    0.4892809   -8.5557086    695.63218  0.012054346  0.010333997            1 
 4810000   0.48713392   -8.5638364    695.14988  0.012043484  0.010330585            3 
 4811000   0.48993171   -8.5567954    695.29811  0.012043548  0.010327177            2 
 4812000   0.48246737   -8.5519966    695.83851  0.012050404  0.010323771            2 
 4813000    0.4803646   -8.5674463     696.6789  0.012062451  0.010320367            3 
 4814000   0.48679682   -8.5552634    695.25858  0.012035358  0.010316965            2 
 4815000   0.47797773   -8.5498397    695.78686  0.012042002  0.010313562            1 
 4816000   0.49064979   -8.5495973    695.89979  0.012041455  0.010310163            3 
 4817000   0.47707316    -8.560268    694.97064  0.012022882  0.010306763            2 
 4818000   0.48059709   -8.5581034    695.42556  0.012028254  0.010303363            1 
 4819000   0.47050406    -8.563173    695.32512  0.012024022  0.010299966            5 
 4820000   0.48184774   -8.5522932    696.46045  0.012041156  0.010296573            3 
 4821000   0.48027315    -8.553332    694.89238  0.012011553  0.010293179            2 
 4822000   0.48180619   -8.5406688    695.42518   0.01201827  0.010289788            3 
 4823000   0.48394688    -8.554746    696.34245  0.012031627  0.010286398            3 
 4824000   0.48645171   -8.5450664    696.10664  0.012025059  0.010283008            5 
 4825000   0.47818162   -8.5407676    695.03074  0.012003985  0.010279617            4 
 4826000    0.4695879   -8.5586876    695.99974   0.01201823  0.010276228            3 
 4827000   0.49523154   -8.5712157    695.05386  0.011999411  0.010272841            3 
 4828000   0.48455748   -8.5724374    696.11566  0.012015252  0.010269457            1 
 4829000   0.47742347   -8.5686698    696.24293   0.01201496  0.010266074            2 
 4830000   0.48654557   -8.5644936    694.73187  0.011986402  0.010262691            4 
 4831000   0.46497099   -8.5576968    695.37589   0.01199503  0.010259309            6 
 4832000   0.49587452   -8.5492586    694.90344    0.0119844  0.010255929            3 
 4833000    0.4824417   -8.5602239    696.10694  0.012002672  0.010252551            1 
 4834000   0.48497626   -8.5592039    694.64024  0.011974904  0.010249173            2 
 4835000   0.47933092    -8.562044    696.61649  0.012006489  0.010245796            2 
 4836000   0.47826345   -8.5645678    695.93374  0.011992241  0.010242418            4 
 4837000   0.47260249   -8.5703065    695.41265  0.011980784  0.010239045            6 
 4838000   0.47400794   -8.5679418    696.99453  0.012005556  0.010235674            2 
 4839000   0.48273902   -8.5591122    695.18647  0.011971938  0.010232303            4 
 4840000   0.47432213   -8.5692452     696.3808  0.011990027  0.010228934            6 
 4841000   0.47286877   -8.5563613    694.59741  0.011956851  0.010225567            6 
 4842000   0.48192639   -8.5592449     694.6664  0.011955569  0.010222201            3 
 4843000   0.48362607   -8.5726834    694.63696  0.011952594  0.010218837            2 
 4844000   0.47089711    -8.557554     695.1642  0.011959197  0.010215472            8 
 4845000   0.47271517   -8.5740718    694.08242  0.011938122  0.010212107            2 
 4846000   0.47491676   -8.5715087    696.08136  0.011970033  0.010208742            6 
 4847000   0.48445189   -8.5823633    695.68021  0.011960666   0.01020538            3 
 4848000   0.47332581    -8.575932     696.3527  0.011969759   0.01020202            3 
 4849000   0.46695506    -8.553075    695.74588  0.011956862   0.01019866            3 
 4850000   0.46547768   -8.5603874    694.90555  0.011939958  0.010195303            3 
 4851000   0.46963609    -8.571029     694.3168  0.011927383  0.010191945            5 
 4852000   0.46508493   -8.5662042    695.30146  0.011941836   0.01018859            4 
 4853000   0.47466903   -8.5709241    695.44466  0.011941834  0.010185237            5 
 4854000   0.47542311   -8.5817271    695.16257  0.011934531  0.010181885            4 
 4855000   0.47151909   -8.5750308    694.17059  0.011915046  0.010178535            4 
 4856000   0.47972825   -8.5597092    695.23078  0.011930786  0.010175185            2 
 4857000    0.4788029   -8.5766876    695.54867  0.011933784  0.010171837            3 
 4858000    0.4849983   -8.5754263    693.88688  0.011902821  0.010168488            2 
 4859000   0.47493849   -8.5772332    695.01504   0.01191972  0.010165142            4 
 4860000   0.47979447   -8.5617049    693.47768  0.011890907  0.010161798            4 
 4861000   0.46008891   -8.5610408    694.78384  0.011910852  0.010158453            4 
 4862000   0.46862068   -8.5561978    695.25404  0.011916462  0.010155111            5 
 4863000   0.46999319   -8.5508587    694.63562  0.011903414  0.010151772            7 
 4864000   0.48183832   -8.5845916    694.80265  0.011903828  0.010148436            3 
 4865000   0.46628406   -8.5819576    695.23621  0.011908808    0.0101451            5 
 4866000   0.45891123   -8.5793925    693.18366  0.011871209  0.010141761            6 
 4867000   0.47413854   -8.5586485    695.51141  0.011908626  0.010138425            2 
 4868000   0.47281698   -8.5631639    694.15418  0.011882946  0.010135092            2 
 4869000   0.47058881   -8.5642611    695.53665  0.011904167  0.010131763            3 
 4870000   0.47700342   -8.5730975    694.67881  0.011887043  0.010128432            2 
 4871000   0.46210489   -8.5634374    695.05767  0.011891084  0.010125102            2 
 4872000   0.47622249   -8.5550283    695.36099  0.011893832  0.010121773            2 
 4873000   0.46670139   -8.5722572    695.13192  0.011887474  0.010118448            2 
 4874000   0.47141532   -8.5598824    695.46507  0.011890731  0.010115126            2 
 4875000   0.47062209   -8.5851476     694.9531   0.01187954  0.010111803            2 
 4876000    0.4572276   -8.5680145    694.16827  0.011863691  0.010108481            3 
 4877000   0.48012033   -8.5657753     694.4173  0.011865513   0.01010516            2 
 4878000   0.47430798   -8.5640493    695.19815   0.01187642  0.010101839            2 
 4879000   0.46404014   -8.5742848    694.25348  0.011857851  0.010098519            3 
 4880000   0.47847851   -8.5670931    694.74805  0.011863867  0.010095203            4 
 4881000   0.47592569   -8.5815721    694.94723  0.011864837  0.010091887            2 
 4882000   0.46920004   -8.5832877    695.50926     0.011872  0.010088573            2 
 4883000    0.4608973   -8.5755776    695.91061  0.011876418  0.010085259            2 
 4884000   0.47610508   -8.5820108    695.12292  0.011860547  0.010081947            2 
 4885000    0.4723565   -8.5794622    694.71087   0.01185109  0.010078635            3 
 4886000   0.47203967   -8.5720593    695.26384  0.011858095  0.010075325            2 
 4887000   0.47080665   -8.5617586    694.93643  0.011850086   0.01007202            3 
 4888000   0.47345316   -8.5841318    694.69195  0.011843493  0.010068715            4 
 4889000   0.46456023   -8.5780545    694.85292  0.011843815   0.01006541            4 
 4890000   0.46761889   -8.5689749    694.95183  0.011843078   0.01006211            5 
 4891000   0.46901532   -8.5686707    694.92599  0.011840217  0.010058808            5 
 4892000    0.4598783   -8.5742286    695.38508  0.011845617  0.010055507            8 
 4893000   0.46303575   -8.5770619    694.46799  0.011827577  0.010052206            3 
 4894000   0.46654764   -8.5701013    695.65939  0.011845447   0.01004891            4 
 4895000   0.46322841   -8.5866305    694.72275  0.011827081  0.010045613            3 
 4896000   0.47082094    -8.571327     695.0384  0.011830038   0.01004232            4 
 4897000   0.48123921   -8.5901757    694.92642  0.011825717  0.010039025            4 
 4898000   0.47252664   -8.5948299    695.04453  0.011825312  0.010035731            2 
 4899000   0.47319033    -8.592114    694.20095  0.011808548  0.010032439            2 
 4900000   0.47084101   -8.5872155    695.09065   0.01182127  0.010029147            1 
 4901000   0.46560112    -8.573755    694.71233  0.011812425  0.010025859            3 
 4902000   0.47213471    -8.573584     693.8153  0.011794766  0.010022573            4 
 4903000   0.47520622   -8.5781443    693.95479  0.011794731  0.010019286            3 
 4904000   0.45715953   -8.5931286    695.20282  0.011813533  0.010016002            4 
 4905000   0.47021511     -8.57702    695.04642  0.011808468  0.010012716            3 
 4906000   0.47136927   -8.5826502    694.94098   0.01180427  0.010009432            3 
 4907000    0.4693134   -8.5856177    694.94292  0.011801897   0.01000615            3 
 4908000   0.45882117   -8.5838625    694.16463  0.011786278   0.01000287            3 
 4909000   0.46687784   -8.5751774    694.24271  0.011785203 0.0099995928            2 
 4910000   0.46025395   -8.5723798    694.86425  0.011793351 0.0099963194            4 
 4911000   0.46614476    -8.575708    695.13174  0.011795489 0.0099930449            3 
 4912000   0.46831598   -8.5761416    694.33869  0.011779633 0.0099897726            5 
 4913000   0.46644762   -8.5828951    694.23746  0.011775518 0.0099865009            1 
 4914000   0.45891397   -8.5895564    695.39254   0.01179271 0.0099832308            2 
 4915000   0.46737664    -8.587854    694.82476  0.011780684  0.009979963            3 
 4916000    0.4636848   -8.5763728    694.20715  0.011767818  0.009976698            2 
 4917000   0.46099007   -8.5878116    695.90143   0.01179414 0.0099734311            2 
 4918000   0.45253158   -8.5674533    694.77467  0.011772649 0.0099701688            4 
 4919000   0.46423989   -8.5749189       695.11  0.011775937 0.0099669035            3 
 4920000   0.46122458   -8.5820587    695.17248  0.011774602 0.0099636426            2 
 4921000   0.47129905   -8.5856744    695.27696  0.011773978 0.0099603817            3 
 4922000   0.48118105   -8.5677259     694.6594   0.01176113 0.0099571247            4 
 4923000    0.4703172   -8.5839621    693.73824  0.011743148 0.0099538676            2 
 4924000   0.47555726   -8.6049213    694.62221  0.011755724 0.0099506088            2 
 4925000   0.46857289   -8.5764266    694.43493  0.011750168 0.0099473508            5 
 4926000   0.46171837    -8.593079    695.30029  0.011762422 0.0099440974            5 
 4927000   0.45408776   -8.5821971    693.87223  0.011735881 0.0099408424            1 
 4928000   0.46450543   -8.5856673    695.29496  0.011757558 0.0099375885            1 
 4929000   0.46414984    -8.581176    694.13414  0.011735547 0.0099343358            1 
 4930000   0.45608402   -8.5901674    694.91775  0.011746412 0.0099310846            2 
 4931000   0.46170991   -8.5854306    693.86278  0.011726201  0.009927837            2 
 4932000   0.46707128   -8.5904227    694.98569  0.011742797 0.0099245904            2 
 4933000    0.4614137   -8.5911562    693.49605  0.011715252 0.0099213461            3 
 4934000   0.46745308    -8.570535    695.24155  0.011742358 0.0099181042            4 
 4935000   0.46328347   -8.5907858    694.28932  0.011723899 0.0099148633            2 
 4936000   0.45914812   -8.5894013    694.22115  0.011720373 0.0099116209            3 
 4937000   0.46326083   -8.5987506    693.59528  0.011707435 0.0099083805            3 
 4938000   0.47311792   -8.5870795    694.21501  0.011715523 0.0099051447            3 
 4939000   0.45904146   -8.5887166    694.75801  0.011722312 0.0099019049            2 
 4940000   0.46353972   -8.6057893    693.87656   0.01170507 0.0098986664            2 
 4941000   0.46724902   -8.5886771    694.98195  0.011721344 0.0098954316            3 
 4942000   0.45792515   -8.5976036    694.08704  0.011703882 0.0098921985            5 
 4943000   0.47288375   -8.5776074    693.91081  0.011698544  0.009888968            2 
 4944000     0.457899   -8.5880157    695.05588  0.011715478 0.0098857369            3 
 4945000   0.45770065   -8.5974705     694.0185  0.011695627 0.0098825068            4 
 4946000   0.44780551   -8.5896058     693.7874  0.011689368 0.0098792777            3 
 4947000   0.45832605   -8.5893708    693.70852  0.011685677 0.0098760498            3 
 4948000   0.46877514   -8.5992963    696.30511  0.011727047 0.0098728248            4 
 4949000   0.44189357   -8.5992849    694.67178  0.011697174 0.0098695984            3 
 4950000   0.46469287   -8.6021082    693.64604  0.011677543  0.009866374            3 
 4951000   0.45693558   -8.5969675     693.4521   0.01167192 0.0098631517            3 
 4952000   0.47069541   -8.5871355    693.91534  0.011677358 0.0098599319            2 
 4953000   0.46415346   -8.5870257    694.60267  0.011686565 0.0098567127            2 
 4954000   0.44958658   -8.5895813    694.88227  0.011688909 0.0098534957            3 
 4955000   0.46437224   -8.5829191    693.59838  0.011664958 0.0098502786            2 
 4956000   0.45650747   -8.6018248    693.87444  0.011667246  0.009847063            4 
 4957000   0.45180163   -8.5964358    693.54439  0.011659344 0.0098438495            4 
 4958000   0.46643911   -8.5828654    693.37924  0.011654216 0.0098406351            3 
 4959000   0.45820786   -8.5824222    694.09338  0.011663867 0.0098374236            3 
 4960000   0.45753196   -8.5920174    694.18631  0.011663076 0.0098342146            4 
 4961000   0.45811667   -8.5947561    693.47885  0.011648842 0.0098310043            4 
 4962000   0.45994422   -8.6081124    694.37252  0.011661503 0.0098277961            4 
 4963000   0.45159682    -8.601135    693.79582   0.01164947 0.0098245919            2 
 4964000   0.45140037   -8.6042668    694.00355   0.01165061 0.0098213849            3 
 4965000   0.46852098   -8.6075477    693.39423  0.011638037  0.009818182            2 
 4966000   0.45840839   -8.5937293    694.03744  0.011646487  0.009814982            3 
 4967000   0.45427654   -8.5953776     694.5312  0.011652426 0.0098117812            5 
 4968000   0.46219642   -8.5919131    693.91179   0.01163969 0.0098085821            2 
 4969000   0.45647174   -8.5951081     693.9255  0.011637578 0.0098053844            3 
 4970000    0.4501548   -8.5972329    694.32672  0.011641964 0.0098021866            3 
 4971000   0.47403717   -8.6073796    694.44932  0.011641677 0.0097989903            3 
 4972000   0.45202042   -8.6074834    694.13179  0.011634014 0.0097957972            4 
 4973000   0.44725809   -8.5915538    693.94186  0.011628491  0.009792604            2 
 4974000   0.46042851   -8.6036239     694.0992   0.01162879 0.0097894119            4 
 4975000   0.45669693   -8.6040067    694.79541  0.011638114 0.0097862206            4 
 4976000   0.45680008   -8.5851377    694.27607  0.011627078 0.0097830282            4 
 4977000   0.45491427   -8.5874663    694.44216  0.011627523 0.0097798408            3 
 4978000   0.45915927   -8.6072069    694.36038  0.011623818 0.0097766539            4 
 4979000   0.45839233   -8.5800256    693.70871  0.011610576 0.0097734688            3 
 4980000   0.44975659   -8.6197503    693.29044  0.011601246  0.009770285            5 
 4981000   0.44871034   -8.5896901    693.67699  0.011605384 0.0097671006            2 
 4982000   0.45565918   -8.6009053     693.8486  0.011605925 0.0097639177            2 
 4983000   0.45633345    -8.585633    693.14038  0.011591752 0.0097607389            1 
 4984000   0.44937215   -8.6122184    694.44907  0.011611307 0.0097575583            3 
 4985000   0.45512191    -8.606594    693.78532  0.011597882 0.0097543813            6 
 4986000   0.45265709   -8.6045824    693.22014   0.01158611 0.0097512043            3 
 4987000   0.44942047   -8.6018901    694.24022  0.011600832 0.0097480285            4 
 4988000   0.46363584   -8.5928296    694.52559  0.011603274 0.0097448535            5 
 4989000   0.45238826   -8.6058389    693.10911  0.011577289 0.0097416815            3 
 4990000   0.44808882   -8.5881102     693.5573  0.011582453 0.0097385133            3 
 4991000   0.45264205   -8.6113985    693.17007  0.011573667 0.0097353406            4 
 4992000   0.44792529   -8.6081144    694.54531  0.011594306 0.0097321734            4 
 4993000   0.45734558   -8.6145151    693.56984  0.011575703 0.0097290029            2 
 4994000   0.45503045   -8.5883386    695.48448  0.011605334  0.009725836            1 
 4995000   0.44065972   -8.6084398    693.51633  0.011570176 0.0097226693            4 
 4996000   0.45928367   -8.5983989    694.55078  0.011585114 0.0097195049            7 
 4997000   0.45618251   -8.5887578    694.62322  0.011584004  0.009716343            2 
 4998000   0.46290783   -8.5961637    694.13727  0.011573584 0.0097131832            2 
 4999000   0.45560015   -8.6088099    693.61374  0.011562542 0.0097100205            3 
 5000000    0.4487452     -8.58101     694.0209  0.011567015 0.0097068632            2 
 5001000   0.46114556    -8.608017    695.12571  0.011583112 0.0097037057            2 
 5002000   0.44672784   -8.5958845    692.64863  0.011539528 0.0097005484            4 
 5003000   0.45250521   -8.5865417    694.35742  0.011565684 0.0096973932            2 
 5004000   0.46169478   -8.6084724    693.58484  0.011550507 0.0096942392            3 
 5005000   0.44354942   -8.5921778    693.45554  0.011546046 0.0096910877            1 
 5006000   0.45295668    -8.598253    693.40804  0.011542949 0.0096879372            3 
 5007000   0.45671227   -8.6066447    693.90289   0.01154888 0.0096847862            2 
 5008000   0.45079398   -8.6037196    693.74046  0.011543871 0.0096816361            4 
 5009000   0.45025978   -8.6213915    693.89405  0.011544121 0.0096784869            3 
 5010000    0.4538554   -8.6041492    693.90735  0.011542038 0.0096753397            6 
 5011000   0.44657729   -8.6140985    693.08552  0.011526068 0.0096721959            1 
 5012000   0.44767259   -8.5976828    693.68093  0.011533668 0.0096690517            3 
Loop time of 11843 on 48 procs for 5000000 steps with 4000 atoms

Performance: 72954.230 tau/day, 422.189 timesteps/s
99.4% CPU use with 48 MPI tasks x no OpenMP threads

MPI task timing breakdown:
Section |  min time  |  avg time  |  max time  |%varavg| %total
---------------------------------------------------------------
Pair    | 740.42     | 805.64     | 869.62     | 110.2 |  6.80
Neigh   | 77.679     | 80.964     | 84.357     |  19.0 |  0.68
Comm    | 734.72     | 806.14     | 888.77     | 123.4 |  6.81
Output  | 13.861     | 13.866     | 13.951     |   0.3 |  0.12
Modify  | 10012      | 10034      | 10058      |  10.4 | 84.72
Other   |            | 102.9      |            |       |  0.87

Nlocal:        83.3333 ave          90 max          72 min
Histogram: 1 0 0 6 6 7 8 7 10 3
Nghost:        2036.79 ave        2061 max        2005 min
Histogram: 1 1 2 3 10 9 12 4 4 2
Neighs:        13160.0 ave       14796 max       11323 min
Histogram: 1 2 5 5 8 8 8 7 3 1
FullNghs:      26319.1 ave       28623 max       22374 min
Histogram: 1 0 0 6 6 9 7 5 10 4

Total # of neighbors = 1263319
Ave neighs/atom = 315.82975
Neighbor list builds = 267963
Dangerous builds = 0

#clear
#
#next RN
#
#jump SELF
Total wall time: 3:17:26
