
units lj                  # Use reduced LJ style units
atom_style atomic         # Uncharged point particles
atom_modify map hash      # Needed for indexing of clusters etc
                          # Used to be able to find where atoms are in relation to each other.

lattice fcc 1.0 spacing 1 1 1
Lattice spacing in x,y,z = 1.5874011 1.5874011 1.5874011
region box block 0 10 0 10 0 10 units lattice
create_box 2 box
Created orthogonal box = (0.0000000 0.0000000 0.0000000) to (15.874011 15.874011 15.874011)
  3 by 4 by 4 MPI processor grid
create_atoms 1 box
Created 4000 atoms
  using lattice units in orthogonal box = (0.0000000 0.0000000 0.0000000) to (15.874011 15.874011 15.874011)
  create_atoms CPU = 0.004 seconds
set type 1 type/fraction 2 0.81 78393
Setting atom values ...
  3229 settings made for type/fraction
mass 1 1.0
mass 2 1.0
pair_style lj/cut  3.5
pair_modify tail  yes
pair_coeff 1  1  1.0  1.0   # Intearaction between 1 and 1 set with epsilon = 1 and sigma = 1
pair_coeff 1  2  1.5  0.8
pair_coeff 2  2  0.5  0.88

write_data data.0
System init for write_data ...
Neighbor list info ...
  update every 1 steps, delay 10 steps, check yes
  max neighbors/atom: 2000, page size: 100000
  master list distance cutoff = 3.8
  ghost atom cutoff = 3.8
  binsize = 1.9, bins = 9 9 9
  1 neighbor lists, perpetual/occasional/extra = 1 0 0
  (1) pair lj/cut, perpetual
      attributes: half, newton on
      pair build: half/bin/atomonly/newton
      stencil: half/bin/3d
      bin: standard
WARNING: Not all mixed pair coeffs generated from mixing. Use write_data with 'pair ij' option to store all pair coeffs. (../write_data.cpp:312)


#############################
#   M E L T   S Y S T E M   #
#############################

velocity all create 2.4 9622624 mom yes dist gaussian # Assign velocities
                                                    # Temperature 2.4, random number seed, zero linear momentum
                                                                                # Gaussian distribution

timestep 0.002   # simulation timestep
thermo 1000       # output thermodynamic data every 1000 steps bf 100

# Define a fix  in this case with index 1 applied to all
# particles in the simulation. This fix is for simulations
# in the anisotropic NPT ensemble. Note that we use the MTK
# correction.
fix 1 all npt temp 2.4 2.4 0.1 iso 5.68 5.68 0.5 mtk yes tchain 5 pchain 5 # Use NPT ensemble
                                                                         # Set temperature and pressure and damping
                                                                         # Numbers of thermostats in chain and in barostat
run 10000          # run for 10000 steps
Per MPI rank memory allocation (min/avg/max) = 3.642 | 3.644 | 3.648 Mbytes
Step Temp E_pair E_mol TotEng Press Volume 
       0          2.4   -3.6458899            0 -0.046789881   -3.2123361         4000 
    1000    2.4208734   -2.9810042            0   0.64939802    6.0168015     3780.254 
    2000    2.4062375   -2.9394285            0   0.66902538    5.9046221    3801.5546 
    3000    2.3959075   -2.9930991            0   0.59986362    5.6742127    3806.3322 
    4000    2.4449617   -3.0143591            0   0.65216669    5.7082314    3795.5744 
    5000    2.4041329   -3.0234459            0   0.58185195    5.5922578    3798.3439 
    6000    2.3401287   -2.9855948            0   0.52372069    5.5747446    3817.2918 
    7000    2.3850012   -2.9649779            0   0.61162957     5.659132    3829.9733 
    8000    2.3649604   -2.9785405            0   0.56801319    5.5615666    3826.6637 
    9000    2.4262759   -2.9582239            0    0.6802801    5.5981404     3829.517 
   10000    2.3854983   -2.9982695            0   0.57908333    5.9663063    3760.8424 
Loop time of 2.6651 on 48 procs for 10000 steps with 4000 atoms

Performance: 648382.110 tau/day, 3752.211 timesteps/s
99.6% CPU use with 48 MPI tasks x no OpenMP threads

MPI task timing breakdown:
Section |  min time  |  avg time  |  max time  |%varavg| %total
---------------------------------------------------------------
Pair    | 1.1168     | 1.2108     | 1.2939     |   3.0 | 45.43
Neigh   | 0.2063     | 0.21893    | 0.23159    |   1.0 |  8.21
Comm    | 0.80532    | 0.89351    | 1.0115     |   4.4 | 33.53
Output  | 0.00024379 | 0.0002512  | 0.0003245  |   0.0 |  0.01
Modify  | 0.2839     | 0.32623    | 0.37179    |   4.5 | 12.24
Other   |            | 0.01532    |            |       |  0.57

Nlocal:        83.3333 ave          95 max          76 min
Histogram: 5 4 8 11 6 5 6 1 0 2
Nghost:        1712.00 ave        1740 max        1688 min
Histogram: 4 3 5 6 4 16 5 3 0 2
Neighs:        10149.6 ave       12128 max        8944 min
Histogram: 1 12 7 8 6 7 5 0 1 1

Total # of neighbors = 487179
Ave neighs/atom = 121.79475
Neighbor list builds = 906
Dangerous builds = 186

# Equilibrate just above the melting temperature to avoid step fn in T

fix 1 all npt temp 1.25 1.25 0.1 iso 5.68 5.68 0.5 mtk yes tchain 5 pchain 5
run 2000
Per MPI rank memory allocation (min/avg/max) = 3.644 | 3.646 | 3.649 Mbytes
Step Temp E_pair E_mol TotEng Press Volume 
   10000    2.3854983   -2.9982695            0   0.57908333    5.9663063    3760.8424 
   11000    1.2408982   -4.3889918            0   -2.5281098    5.9439275    2917.3199 
   12000    1.2540941   -4.4331434            0   -2.5524726    5.9034964    2901.3896 
Loop time of 0.7301 on 48 procs for 2000 steps with 4000 atoms

Performance: 473359.541 tau/day, 2739.349 timesteps/s
99.3% CPU use with 48 MPI tasks x no OpenMP threads

MPI task timing breakdown:
Section |  min time  |  avg time  |  max time  |%varavg| %total
---------------------------------------------------------------
Pair    | 0.28181    | 0.30827    | 0.34071    |   2.2 | 42.22
Neigh   | 0.040805   | 0.042543   | 0.045593   |   0.5 |  5.83
Comm    | 0.22664    | 0.26707    | 0.31653    |   3.4 | 36.58
Output  | 5.3167e-05 | 5.4197e-05 | 7.0709e-05 |   0.0 |  0.01
Modify  | 0.058197   | 0.10737    | 0.11628    |   4.0 | 14.71
Other   |            | 0.004794   |            |       |  0.66

Nlocal:        83.3333 ave          90 max          76 min
Histogram: 4 1 3 7 5 8 7 9 1 3
Nghost:        2040.52 ave        2066 max        2019 min
Histogram: 4 5 2 10 6 8 1 9 1 2
Neighs:        13150.4 ave       14566 max       11428 min
Histogram: 1 2 2 5 10 10 5 6 3 4

Total # of neighbors = 631221
Ave neighs/atom = 157.80525
Neighbor list builds = 143
Dangerous builds = 15

#############################
# L I N E A R  Q U E N C H  #
#############################

# Define solid atoms. This closely follows ten Wolde  Ruiz-Montero and Frenkel  Faraday Discuss  1996  104  93-110
# Compute components of the per-atom q6 vector
compute q6 all orientorder/atom degrees 1 6 components 6 nnn NULL cutoff 1.3 # compute the Q6 parameter.
                                                                             # Use all neighbours within 1.3 unit cell.

# get number of connections
compute coord_number all coord/atom orientorder q6 0.5

# An atom is solid if it has 8 or more connections (of a possible 14)
variable is_solid atom c_coord_number>=8
group solid dynamic all var is_solid    # Must be dynamic to update
dynamic group solid defined

# do clustering
compute cluster solid cluster/atom 1.3 # Create a cluster where all atoms within are solid and max 1.3 units from another member

# define chunks one chunk per cluster
compute clus_chunks solid chunk/atom c_cluster nchunk every compress yes  # Says which atoms are in which chunk

# count the size of each chunk
compute size_chunks solid property/chunk clus_chunks count


# Find the maximum entry in the vector of chunk sizes
variable max_n equal max(c_size_chunks)


# Thermo style which includes this variable
# thermo_style custom step temp pe vol v_max_n

thermo ${N}  # Print the thermo information every 100 steps
thermo 1000  

# Reset the npt fix at a lower temperature (below freezing)
fix 1  all npt temp  ${temp} ${temp}  0.1  iso  5.68  5.68  0.5  mtk yes tchain  5  pchain  5
fix 1  all npt temp  0.45 ${temp}  0.1  iso  5.68  5.68  0.5  mtk yes tchain  5  pchain  5
fix 1  all npt temp  0.45 0.45  0.1  iso  5.68  5.68  0.5  mtk yes tchain  5  pchain  5

dump dmp2 all dcd ${N} traj.dcd
dump dmp2 all dcd 1000 traj.dcd


compute msd all msd com yes
variable twopoint equal c_msd[4]/6/(step*dt+1.0e-6)
fix 9 all vector 10 c_msd[4]
variable fit equal slope(f_9)/6/(10*dt)
thermo_style custom step temp pe c_msd[4] v_twopoint v_fit v_max_n

fix 1 all npt temp 1.25 ${temp} 0.1 iso 5.68 5.68 0.5 mtk yes tchain 5 pchain 5
fix 1 all npt temp 1.25 0.45 0.1 iso 5.68 5.68 0.5 mtk yes tchain 5 pchain 5
run 2000000 # 5000000  # Run for this many steps
Neighbor list info ...
  update every 1 steps, delay 10 steps, check yes
  max neighbors/atom: 2000, page size: 100000
  master list distance cutoff = 3.8
  ghost atom cutoff = 3.8
  binsize = 1.9, bins = 8 8 8
  4 neighbor lists, perpetual/occasional/extra = 1 3 0
  (1) pair lj/cut, perpetual
      attributes: half, newton on
      pair build: half/bin/atomonly/newton
      stencil: half/bin/3d
      bin: standard
  (2) compute orientorder/atom, occasional
      attributes: full, newton on
      pair build: full/bin/atomonly
      stencil: full/bin/3d
      bin: standard
  (3) compute coord/atom, occasional
      attributes: full, newton on
      pair build: full/bin/atomonly
      stencil: full/bin/3d
      bin: standard
  (4) compute cluster/atom, occasional
      attributes: full, newton on
      pair build: full/bin/atomonly
      stencil: full/bin/3d
      bin: standard
Per MPI rank memory allocation (min/avg/max) = 9.837 | 9.842 | 9.848 Mbytes
Step Temp PotEng c_msd[4] v_twopoint v_fit v_max_n 
   12000    1.2540941   -4.4331434 8.4072851e-31 5.8383922e-33 8.3333333e+20            1 
   13000    1.2555305   -4.4165115   0.79188509 0.0050761863  0.067031159            3 
   14000    1.2708549   -4.4437821     1.640457 0.0097646244  0.068946935            2 
   15000     1.259469   -4.3886152    2.5314122    0.0140634  0.070664955            2 
   16000    1.2784117   -4.4199949    3.3776613  0.017591985  0.070645853            1 
   17000    1.2420456   -4.3993862    4.2699409  0.020931082  0.071267166            2 
   18000    1.2247254   -4.3950753    5.0674977  0.023460637   0.07120051            1 
   19000    1.2520135   -4.3802584    5.8006251  0.025441337  0.070377719            3 
   20000     1.242748   -4.4041722    6.6802515  0.027834381   0.06996999            4 
   21000    1.2306231   -4.4244297    7.5578432  0.029991441   0.07009412            5 
   22000    1.2585212   -4.4302444    8.5277132  0.032301943  0.070380936            3 
   23000    1.2446305   -4.4247461    9.3727628  0.033959285   0.07073258            2 
   24000    1.2428447   -4.4310136    10.342207  0.035910442  0.071122331            2 
   25000    1.2324338   -4.4550451    11.166683  0.037222276  0.071659957            2 
   26000    1.2555726   -4.3635611    12.200707  0.039104828  0.072075397            1 
   27000    1.2227659   -4.4677186    12.941047  0.039941501  0.072381961            3 
   28000    1.2388766   -4.4508445    13.730512  0.040864618  0.072345865            2 
   29000    1.2582242   -4.4434061    14.380325  0.041322772  0.072128416            4 
   30000    1.2443562   -4.3421713    15.425942  0.042849837  0.071871607            3 
   31000    1.2493724   -4.4284563    16.311754  0.043848799  0.071873127            2 
   32000    1.2188307   -4.4068621    17.206599  0.044808851  0.071862342            2 
   33000    1.2639533   -4.4120517    18.104356  0.045718069  0.071883651            2 
   34000    1.2522152   -4.4285734    19.269161  0.047228334  0.072059618            4 
   35000    1.2539912   -4.4282598    20.001567  0.047622777  0.072346281            2 
   36000    1.2498557    -4.380173    20.909493  0.048401604  0.072511403            3 
   37000    1.2397232   -4.4493025    21.574253   0.04859066  0.072593244            3 
   38000    1.2460659   -4.4711186    22.172311  0.048623488   0.07251044            1 
   39000    1.2448664   -4.4337487    23.066304  0.049286973  0.072368147            3 
   40000    1.2080725   -4.4357712    23.970611  0.049938772  0.072285664            2 
   41000    1.2214542   -4.4101754    24.713555  0.050230803    0.0721521            1 
   42000    1.2671977   -4.4137672    25.527861  0.050650518  0.071961894            2 
   43000    1.2319263   -4.4449576    26.188755  0.050753401  0.071773553            2 
   44000    1.2394153   -4.3842001     27.16407  0.051447102  0.071580479            2 
   45000    1.2471738   -4.4234602    28.093618  0.052025218   0.07145739            3 
   46000    1.2414591   -4.4459553    28.642181  0.051888008  0.071336522            1 
   47000     1.240823   -4.4756099    29.662711  0.052593459  0.071222667            2 
   48000    1.2482172    -4.428723       30.479   0.05291493   0.07109738            2 
   49000    1.2176011   -4.4382117    31.107582   0.05290405  0.070953886            3 
   50000    1.2163884   -4.4723979    32.254641  0.053757734  0.070873382            4 
   51000    1.2101706   -4.4188225    33.246547  0.054324423  0.070848898            2 
   52000    1.2187866   -4.4558001    34.211249  0.054825718   0.07090553            1 
   53000    1.2487811   -4.4184483    35.228447  0.055390639  0.070934727            1 
   54000    1.2168628    -4.427332    35.845053   0.05531644  0.070937678            5 
   55000     1.197141   -4.4072871    36.501648  0.055305527   0.07091998            4 
   56000    1.2303187   -4.4890487    36.999352  0.055058558  0.070875418            2 
   57000    1.2126463   -4.4514478    37.705324  0.055124742  0.070768583            3 
   58000    1.2426058   -4.4105686     38.88294  0.055866293  0.070677132            3 
   59000     1.213079   -4.4781874    39.549973  0.055861543  0.070584131            1 
   60000     1.236429   -4.4421205    40.194794  0.055826102  0.070460312            4 
   61000    1.2178326   -4.4208554    40.746521  0.055664645  0.070310262            3 
   62000    1.2395751   -4.4466022    41.413088  0.055662753  0.070134676            1 
   63000    1.2184876   -4.4515978    42.102063   0.05569056  0.069973458            2 
   64000    1.2191872   -4.4543041    43.076423  0.056089091   0.06984014            2 
   65000    1.2196869   -4.4764308    43.745852  0.056084426  0.069711301            1 
   66000    1.1975879   -4.4578512    44.428925  0.056097127    0.0695632            3 
   67000     1.228038   -4.4167818    45.268303  0.056303859  0.069407047            2 
   68000    1.2152251   -4.4692563    45.983678  0.056352546  0.069244464            2 
   69000    1.2393157   -4.4558581    46.534465  0.056201045   0.06906729            4 
   70000    1.2194793    -4.483132    47.336026  0.056352411  0.068895544            3 
   71000    1.2037563   -4.4094554    48.185634  0.056555909  0.068739403            2 
   72000      1.25122   -4.4374944    49.119979  0.056851827   0.06859322            2 
   73000    1.2339202   -4.4846247    49.662224  0.056692036  0.068465133            1 
   74000    1.2033595   -4.4946971    50.384825  0.056739668  0.068340313            2 
   75000    1.1938838   -4.4101448    51.422991  0.057136656  0.068235622            2 
   76000     1.195502   -4.4469436    52.102869  0.057130338  0.068129124            3 
   77000    1.2152105    -4.449669    52.964891   0.05732131  0.068035472            3 
   78000    1.2491555   -4.4498696    53.717874   0.05739089  0.067944512            4 
   79000    1.2132216   -4.4947363    54.593695  0.057588285  0.067862933            2 
   80000    1.2051087   -4.4693038    55.756481  0.058079667  0.067812975            3 
   81000    1.2223734   -4.4155783    56.507716   0.05813551  0.067762206            1 
   82000    1.2159805   -4.4854281    57.072121  0.058000122  0.067709261            2 
   83000    1.1934508   -4.4455811     58.01815  0.058251154  0.067663895            2 
   84000    1.2303452    -4.484933     58.49859  0.058034315  0.067627906            2 
   85000    1.2305971   -4.4782727    59.228918  0.058067566   0.06757769            3 
   86000    1.2320497   -4.4604933    60.425788  0.058552119  0.067539671            2 
   87000    1.2144759   -4.4795606     61.34854  0.058762969  0.067509802            2 
   88000    1.2299536   -4.4494253    62.125668  0.058831125  0.067513286            1 
   89000    1.1959464     -4.49866    63.098307  0.059080811  0.067506678            2 
   90000    1.1999664   -4.4544909     64.20752  0.059451407  0.067506611            2 
   91000    1.1945816    -4.426034    64.564087  0.059124622  0.067489336            3 
   92000      1.20574   -4.4658954    65.300789  0.059149265  0.067463396            2 
   93000    1.2012104   -4.4766638    65.947765  0.059092979  0.067428808            3 
   94000    1.2384921   -4.4568822    66.853065  0.059266901  0.067392174            1 
   95000    1.2276101   -4.4678109    67.480383  0.059193318  0.067357374            5 
   96000    1.2141431   -4.4331004    68.394792  0.059370479  0.067322774            3 
   97000     1.217727   -4.4663467    69.095563  0.059360449  0.067282759            2 
   98000    1.1999833   -4.4591774    70.002226  0.059525702  0.067247614            3 
   99000    1.2415775   -4.4877057    70.201849  0.059092465  0.067206835            1 
  100000    1.2011115   -4.4221392     71.30023  0.059416858  0.067156036            3 
  101000    1.1963114   -4.4775429    72.176502  0.059551569  0.067114536            2 
  102000    1.2248259   -4.4666728     72.28969  0.059060204  0.067056898            4 
  103000    1.2306896    -4.493845    73.261327  0.059272918  0.066993932            1 
  104000    1.1849162    -4.465944    74.168601  0.059429969  0.066945623            2 
  105000    1.2133467   -4.4562935    75.076991  0.059584913  0.066904524            1 
  106000    1.1879191   -4.4776303    75.668203  0.059487581  0.066871872            3 
  107000    1.2010262    -4.478999     76.16063  0.059315132  0.066846533            1 
  108000    1.1972951   -4.5207334    76.800356  0.059259534  0.066811089            4 
  109000    1.2016239   -4.4588398    78.109672  0.059716875  0.066782225            3 
  110000    1.2274411    -4.462451    78.903296  0.059775224  0.066755945            1 
  111000    1.2096125   -4.4908867    79.770271  0.059887591  0.066724657            2 
  112000    1.2219785   -4.4550509    80.251446  0.059710897  0.066678078            3 
  113000    1.2216421     -4.51744    80.995858  0.059731458   0.06663976            3 
  114000    1.2381458    -4.487082    81.823044  0.059812166  0.066596984            6 
  115000    1.2061255    -4.445171      83.0497  0.060180942  0.066561582            3 
  116000    1.2178427   -4.4310927    83.569727  0.060035723  0.066532262            1 
  117000     1.208728   -4.5212079    83.952782  0.059795429  0.066503212            3 
  118000    1.1993298   -4.5071702     85.29799  0.060238693  0.066484263            2 
  119000    1.2132947   -4.4997631      86.0928  0.060289075  0.066467991            2 
  120000    1.2179252   -4.5073601    86.728867   0.06022838  0.066446777            1 
  121000    1.2103089   -4.4775456    87.479392  0.060247515  0.066412807            5 
  122000    1.1924139   -4.5012449     88.69916  0.060586857  0.066393316            2 
  123000    1.1803083   -4.5286221    88.763768  0.060138054  0.066370314            5 
  124000    1.1939646   -4.4711228    90.046599  0.060515187  0.066347735            2 
  125000    1.2031725   -4.4729438    90.828785  0.060552523  0.066328877            1 
  126000    1.1831027   -4.4890801    91.674709  0.060631421  0.066310022            1 
  127000    1.2270038   -4.5083968    92.716845  0.060837824  0.066295651            2 
  128000    1.2103919   -4.4779055     93.33621  0.060765762  0.066282896            5 
  129000    1.1949055   -4.4790047    94.311224  0.060924563  0.066267539            1 
  130000    1.2115983   -4.4582251    94.588659  0.060633756   0.06625711            3 
  131000    1.2123409   -4.4643029    95.499374  0.060750238  0.066248121            3 
  132000    1.1940772   -4.5060888    95.934547  0.060564739  0.066232311            3 
  133000    1.1960378   -4.5117421    96.727952  0.060606486   0.06621708            2 
  134000    1.2023051   -4.5238983    97.955158  0.060917387  0.066207232            1 
  135000    1.2060607   -4.5181365    99.084328  0.061163165  0.066202774            5 
  136000    1.2310093   -4.4646237    100.60752  0.061646764  0.066206205            3 
  137000    1.1657556   -4.4688374    100.67789  0.061239593  0.066208162            3 
  138000    1.2234784   -4.5067216    101.24396  0.061137659  0.066204513            2 
  139000    1.1821016   -4.5018971    101.83947  0.061054835  0.066195048            2 
  140000    1.1881594   -4.4706143    103.00257  0.061311054  0.066179486            2 
  141000    1.2025027   -4.4760722    103.04249  0.060899817  0.066161309            4 
  142000     1.193706   -4.4924767    103.12463  0.060519149  0.066133562            2 
  143000    1.2029516   -4.5032559    104.65422  0.060987307  0.066104965            1 
  144000    1.2072296   -4.5252871    104.59419  0.060529047  0.066067664            2 
  145000    1.1884993   -4.4974174    105.98347  0.060910041  0.066033216            1 
  146000     1.203763   -4.5106828    106.59019  0.060839149  0.066008164            4 
  147000    1.2331154   -4.5396755    107.18915  0.060764823  0.065979608            2 
  148000    1.2000712   -4.4934095    108.16131  0.060901641  0.065952961            5 
  149000    1.1732816    -4.490545    109.44904  0.061213108  0.065933168            3 
  150000    1.1965584   -4.4684403    110.07152  0.061150845   0.06591778            2 
  151000    1.1712327   -4.4982892    110.64353  0.061061552  0.065900854            1 
  152000    1.1950913   -4.4780595    111.15451  0.060939971   0.06587927            4 
  153000    1.1875232   -4.5053668    111.99493  0.060999417  0.065857607            2 
  154000    1.1704336   -4.5013629    112.94193  0.061115763  0.065843781            4 
  155000    1.1897577   -4.5335048    113.66128  0.061108216  0.065824274            3 
  156000     1.211399   -4.4852902    114.41746  0.061120437  0.065805121            1 
  157000    1.1788517   -4.5228994    115.51308  0.061312672  0.065785602            2 
  158000    1.1975337   -4.5018598     115.6171  0.060979485  0.065761471            3 
  159000    1.1765249   -4.4895751    116.18022  0.060891101  0.065736527            1 
  160000    1.1879726    -4.504123    116.98836  0.060931436  0.065708317            2 
  161000    1.1861419   -4.4903635    118.03716   0.06109584  0.065684797            2 
  162000    1.1999122   -4.5265597    118.65579   0.06103693  0.065665057            4 
  163000    1.1821704   -4.4868003    120.35385  0.061530596  0.065645299            1 
  164000    1.2035645   -4.5005584    120.56494  0.061262672  0.065626166            3 
  165000    1.1586768   -4.4978045    121.03976  0.061131193  0.065597761            1 
  166000    1.2062683    -4.509709     120.8455  0.060665412  0.065563987            2 
  167000    1.2000015   -4.4942625    122.20841  0.060982238  0.065534565            2 
  168000    1.1967286   -4.5291707    122.76543  0.060895548  0.065506948            4 
  169000    1.1984794    -4.524129    123.81072  0.061050649  0.065483722            2 
  170000    1.2060378   -4.5146882    124.99009  0.061269651  0.065460933            2 
  171000      1.15273   -4.5083503    124.96835  0.060900756  0.065438844            3 
  172000    1.2067205   -4.4909354      126.197  0.061141955  0.065411673            2 
  173000    1.1736182   -4.5053229    126.89957  0.061126962  0.065388925            3 
  174000    1.1785285   -4.5482044    127.35108  0.060991897  0.065366235            3 
  175000    1.2082722   -4.5110825    128.65988  0.061266611  0.065346406            2 
  176000    1.1932435   -4.5354825    128.99919  0.061079161  0.065321206            1 
  177000    1.2014193   -4.5148899    129.95601  0.061184564    0.0652968            2 
  178000    1.1761164   -4.5173991     130.6231  0.061153136  0.065271466            3 
  179000    1.1944969    -4.518877    131.20644  0.061083073   0.06524715            1 
  180000    1.1519048   -4.5168155    131.42409  0.060844487  0.065221006            2 
  181000    1.1676979   -4.5453317     132.8465  0.061163212  0.065193768            1 
  182000    1.1873151   -4.5295256     133.1595  0.060970467  0.065170331            2 
  183000    1.1873822   -4.5140282    134.71482  0.061345547  0.065151391            2 
  184000    1.1852781   -4.5271242    135.36819  0.061308058  0.065135724            5 
  185000    1.1843041   -4.4692121    136.47181  0.061473787  0.065120933            1 
  186000    1.1949847   -4.4809862    137.21953  0.061478285  0.065106664            5 
  187000    1.1826849   -4.5197711    138.01687  0.061504845  0.065096045            2 
  188000    1.1520978   -4.5181861     138.8949  0.061566887  0.065083244            4 
  189000    1.1723222   -4.5215739    139.14336  0.061350689  0.065072956            2 
  190000    1.2048231     -4.55163    140.45931  0.061604959  0.065064396            2 
  191000    1.1637055   -4.5345937    141.25467  0.061629436  0.065059113            3 
  192000    1.1926472   -4.5214789    142.35672  0.061786772  0.065054335            5 
  193000    1.1651681   -4.4939821    142.78471   0.06165143  0.065043713            1 
  194000    1.2097251   -4.5180969    143.41172  0.061602974  0.065032915            2 
  195000    1.1792926    -4.554616     143.8875  0.061490386  0.065022997            2 
  196000    1.2020474   -4.5435507    144.92288  0.061616871  0.065013053            2 
  197000    1.1800573   -4.5193611    146.07822  0.061792816   0.06500389            1 
  198000    1.1609998   -4.5570958    147.06848  0.061897509  0.064998379            3 
  199000    1.1863937   -4.5108171    147.69331  0.061848121  0.064991492            2 
  200000    1.1948239   -4.5279267    147.59833  0.061499303  0.064987452            1 
  201000    1.1719541   -4.5334546    148.85328   0.06171363  0.064978032            1 
  202000    1.1592906   -4.5527444    149.41169  0.061638486  0.064966596            1 
  203000    1.1971608   -4.5300301    149.83118  0.061507051   0.06495357            3 
  204000    1.1482447   -4.5531762    150.27121  0.061385296  0.064938426            2 
  205000    1.1678134   -4.5787821    151.25657  0.061486408  0.064922502            2 
  206000     1.178098   -4.5080585    152.34157  0.061626849  0.064907074            1 
  207000    1.1847071   -4.5690578     153.1818  0.061667389  0.064894892            3 
  208000    1.1480475   -4.5072123    153.82233  0.061627537  0.064884836            4 
  209000    1.1619938   -4.5185307    154.51566  0.061609116  0.064875956            6 
  210000    1.1768786   -4.5521259    154.63968  0.061364952  0.064861077            2 
  211000    1.1671153   -4.5151152    155.61602  0.061459724  0.064843481            2 
  212000    1.1802964   -4.5673145     156.0063  0.061323232  0.064825713            2 
  213000    1.1814242   -4.5676169     157.2941  0.061539164   0.06480921            2 
  214000    1.1902307    -4.542694    157.64338  0.061387608  0.064791354            2 
  215000    1.1503342   -4.5476853    158.32139  0.061364879  0.064771557            3 
  216000     1.168164   -4.5453735    158.74379  0.061243746  0.064748267            2 
  217000    1.1704458   -4.5724014     159.8122  0.061371812  0.064726228            1 
  218000    1.1776696   -4.5105111     160.3722  0.061304358  0.064700501            2 
  219000     1.164323   -4.5745043    160.16244  0.060944612  0.064673683            4 
  220000    1.1771907   -4.5588359    161.77075    0.0612768  0.064650641            2 
  221000      1.17307   -4.5708421      162.265  0.061185896  0.064633373            2 
  222000     1.162272    -4.537596    162.90699  0.061151271  0.064613158            3 
  223000    1.1501703   -4.5742094     163.6841   0.06116745  0.064588893            2 
  224000    1.1703603   -4.5694456    164.41122  0.061164887  0.064567632            1 
  225000    1.1476611   -4.5509563     165.8186  0.061414297  0.064548914            3 
  226000    1.1634738   -4.5306178    166.38012  0.061349603  0.064528769            2 
  227000    1.1537035   -4.5484616    167.71586    0.0615697   0.06451454            5 
  228000    1.1309019   -4.5456496    168.49805  0.061585543   0.06449502            4 
  229000    1.1613802   -4.5407014    168.71194  0.061394448  0.064476611            2 
  230000    1.1467644   -4.5549168    169.81028  0.061525465  0.064456373            1 
  231000    1.1650504   -4.5741707    169.90507  0.061293316  0.064437066            4 
  232000    1.1630405   -4.5786603    170.46873  0.061231586  0.064417818            4 
  233000    1.1606757   -4.5605841    170.70991  0.061055045  0.064395549            5 
  234000     1.155801    -4.545357    171.64559  0.061127346  0.064367829            3 
  235000    1.1353143   -4.5704449    171.47029  0.060805066  0.064336537            4 
  236000    1.1666379   -4.5723517    173.12364  0.061131229  0.064307653            4 
  237000    1.1396627   -4.5651498    174.45772  0.061342377  0.064284651            3 
  238000    1.1743443   -4.5801159    174.46314  0.061086532  0.064263601            3 
  239000    1.1764951   -4.5603277    175.20569  0.061089848   0.06423814            3 
  240000    1.1631787    -4.548713    175.26966  0.060857521  0.064212139            3 
  241000     1.169536   -4.5620989    176.25949  0.060947266   0.06418402            2 
  242000    1.1476446   -4.5637084    176.89181  0.060913159  0.064154905            3 
  243000    1.1755069   -4.5521128    177.27688   0.06079454  0.064123161            2 
  244000    1.1542645   -4.5668839    177.64904  0.060672488  0.064092177            2 
  245000    1.1646019   -4.5776081    178.74004  0.060795933  0.064063352            6 
  246000    1.1316136    -4.574016    179.81464  0.060912819  0.064034612            1 
  247000    1.1496065   -4.5958619    180.55223  0.060915058  0.064006988            1 
  248000    1.1604733   -4.5772809    180.83657  0.060764976  0.063975967            6 
  249000     1.169736   -4.5864161    181.06279   0.06059665  0.063942058            3 
  250000    1.1772114   -4.5655774     181.1212  0.060373735  0.063908576            3 
  251000    1.1471488   -4.6177426    181.96879  0.060414605  0.063877532            6 
  252000     1.177589   -4.5524072    183.25052  0.060598716   0.06384437            2 
  253000    1.1232385   -4.5749405    183.56277  0.060462046  0.063810919            2 
  254000    1.1396675    -4.572858    184.52993  0.060541314  0.063774664            2 
  255000     1.144224   -4.5388291    184.59783   0.06032609  0.063739671            1 
  256000    1.1543503   -4.5656036    185.87767  0.060507055  0.063703375            4 
  257000    1.1324813   -4.5737891    186.35471  0.060426301  0.063669131            1 
  258000    1.1439248    -4.571306    186.62358  0.060278933  0.063633417            2 
  259000    1.1627215   -4.5577918    187.19163  0.060228967  0.063600409            2 
  260000    1.1430118   -4.5867404    189.07267  0.060600216  0.063568539            2 
  261000    1.1429138   -4.6098412     189.3037  0.060441795  0.063538058            2 
  262000    1.1421811   -4.5287953     190.4167  0.060565108  0.063511344            2 
  263000    1.1338278   -4.5659294    191.06824  0.060541268  0.063486896            2 
  264000    1.1440272   -4.6159956     190.5484  0.060147854  0.063458605            1 
  265000    1.1605177   -4.5468018    192.17107  0.060431152  0.063425015            2 
  266000    1.1414615   -4.5512277    193.10154  0.060495471  0.063389465            2 
  267000    1.1359544   -4.5744937    192.42237   0.06005692  0.063355293            3 
  268000    1.1429891   -4.5659365    193.06931  0.060033991  0.063319002            2 
  269000    1.1612818   -4.5753093    193.42816  0.059921982   0.06328032            2 
  270000    1.1168599   -4.5633413    194.62945  0.060070818  0.063242388            3 
  271000    1.1429006   -4.6011389    194.81989  0.059907714  0.063202772            2 
  272000    1.1480916   -4.5700312      195.657  0.059943934  0.063163015            1 
  273000     1.149488   -4.5972879     196.1554  0.059876496  0.063127813            4 
  274000    1.1245157   -4.5747966    196.76889  0.059844554  0.063088646            2 
  275000    1.1478601   -4.6071817    197.66225   0.05989765  0.063053736            3 
  276000    1.1273183   -4.5752016    198.55076    0.0599489  0.063016017            2 
  277000    1.1367213   -4.5845198    198.87133   0.05982892  0.062979338            2 
  278000    1.1614057   -4.5901723    200.13747  0.059993247  0.062941677            2 
  279000    1.1374017   -4.6312557     200.2199  0.059802839  0.062903493            2 
  280000    1.1429855   -4.5819662    201.94393  0.060102359  0.062868972            2 
  281000    1.1356729   -4.5995232    202.15954  0.059952413  0.062835244            1 
  282000    1.1378984   -4.6012921    203.89682  0.060253199   0.06280288            6 
  283000     1.147356   -4.5981921    203.43639  0.059904707  0.062770215            4 
  284000    1.1477716    -4.621246    203.43928  0.059694626  0.062735942            5 
  285000    1.1363074   -4.5824709    204.24095  0.059719575  0.062701515            2 
  286000    1.1475067    -4.628934    204.10571  0.059471361  0.062666766            4 
  287000    1.1410492    -4.600719    205.78404  0.059751462  0.062635732            1 
  288000    1.1575888   -4.6001059    206.14817  0.059649355  0.062600708            5 
  289000    1.1432317   -4.6227425    206.94512  0.059672758  0.062566164            4 
  290000    1.1163285   -4.5831781     208.5481  0.059927614  0.062533913            2 
  291000    1.1563766    -4.624359    208.74997  0.059779487  0.062502772            2 
  292000    1.1492303   -4.5840308    210.28503   0.06001285  0.062471535            2 
  293000    1.1358388   -4.6149646    211.00795  0.060013638  0.062442976            1 
  294000    1.1312942   -4.5928149     210.8768  0.059772335  0.062413227            2 
  295000    1.1351213   -4.5918725    212.16395  0.059933318  0.062385245            5 
  296000    1.1125628    -4.590705    212.13191  0.059721821  0.062356745            3 
  297000    1.1501303   -4.6259381    212.90029  0.059736332  0.062325875            3 
  298000    1.1466549   -4.6111212    213.37055  0.059667379  0.062297851            2 
  299000    1.1309953   -4.6253149    213.98675  0.059639562  0.062268499            7 
  300000    1.1717874   -4.6016949    215.15093  0.059764147  0.062241463            4 
  301000    1.1356995   -4.5860923    214.96349  0.059513702  0.062208217            1 
  302000    1.1551648    -4.605672    215.44702   0.05945006  0.062174987            3 
  303000    1.1218181   -4.6410471    215.21135   0.05918904  0.062141683            1 
  304000    1.1423642   -4.6138946    215.88367  0.059178639  0.062107308            3 
  305000    1.1223595   -4.6094574    217.15342  0.059331536  0.062072128            2 
  306000    1.1445892   -4.6192302    217.49044  0.059229423   0.06203695            2 
  307000    1.1297552   -4.5980654    217.67316   0.05908609  0.062000817            6 
  308000    1.1430709   -4.6189482    219.17078  0.059299453   0.06196342            4 
  309000    1.1371413   -4.5977437    219.66399  0.059240558  0.061926799            2 
  310000     1.126374   -4.6338888    218.94148  0.058855235  0.061890554            1 
  311000    1.1471678   -4.6343261    220.70075  0.059137393  0.061854424            3 
  312000     1.121534   -4.5921643    220.28918  0.058837922   0.06181769            3 
  313000    1.1277018   -4.5875521    221.26086  0.058908643  0.061779794            4 
  314000    1.1263744    -4.667941    220.39611  0.058491536  0.061737663            4 
  315000    1.1232123   -4.6078574    222.67985  0.058910013  0.061697831            2 
  316000    1.1205976   -4.6002368    224.46372  0.059194018   0.06166073            2 
  317000    1.1094816   -4.6152838    223.65253  0.058794039  0.061623681            2 
  318000    1.1165334    -4.644235    223.82003  0.058653048  0.061586333            3 
  319000    1.1101216   -4.6204604    224.55721  0.058661758  0.061548674            4 
  320000    1.1446762   -4.6332719    225.30038  0.058671975  0.061510762            1 
  321000    1.1306055   -4.6296306    225.74162  0.058603744  0.061471512            3 
  322000    1.0911648   -4.5952344    226.11492  0.058518355  0.061433269            2 
  323000    1.1312403   -4.6291157    227.17072  0.058609577  0.061393167            2 
  324000       1.1287   -4.6131665    228.19416  0.058691914  0.061353022            2 
  325000    1.1209457   -4.5862107     229.0772  0.058737743  0.061316407            2 
  326000    1.1005373   -4.6279202     228.6136   0.05843906  0.061278711            3 
  327000    1.1006012   -4.6070737    229.64054  0.058522054  0.061241356            2 
  328000    1.1354203   -4.6262259    230.66761  0.058604576  0.061205541            1 
  329000     1.110509   -4.6388906    231.48073  0.058632403  0.061169374            4 
  330000    1.0936381   -4.6031169    233.21316  0.058892212  0.061135722            4 
  331000     1.156688   -4.6063658    234.05006   0.05892499  0.061103208            5 
  332000    1.1227523   -4.5983962    234.52593  0.058866951  0.061072424            2 
  333000    1.1299332   -4.6423398    235.93308  0.059042313  0.061042491            2 
  334000    1.1133284   -4.6434813    234.35959  0.058472953  0.061011374            1 
  335000    1.0864608   -4.6226349    235.61304   0.05861021  0.060980497            1 
  336000    1.1094658   -4.6452433    236.41971  0.058635841  0.060950707            1 
  337000     1.143653    -4.651392    236.76898  0.058548216  0.060920996            3 
  338000    1.0922073   -4.6693113    237.28298  0.058501721  0.060888536            7 
  339000    1.1128796   -4.6421556    238.47598  0.058622414    0.0608582            2 
  340000    1.1380032   -4.6337564    239.70587  0.058751439  0.060828214            3 
  341000    1.1249273   -4.6229564    240.25146  0.058712479  0.060796397            3 
  342000    1.1203567   -4.6182729    240.82848  0.058681403  0.060766958            2 
  343000    1.1172651   -4.6551114    240.70427  0.058480143  0.060736404            2 
  344000    1.0940966   -4.6428831    241.54463  0.058513719  0.060706454            3 
  345000    1.1351157     -4.64583    243.18635  0.058740664  0.060678061            2 
  346000    1.1319778   -4.6274986    243.95595  0.058756249  0.060651694            3 
  347000     1.120047   -4.6548354    243.27708  0.058423891  0.060623455            4 
  348000    1.1358552   -4.6289496    244.46989  0.058541641  0.060595366            1 
  349000    1.1144092   -4.6508175    244.76333  0.058443967  0.060566948            1 
  350000    1.1054323   -4.6790534    245.21061  0.058383479  0.060538798            2 
  351000    1.0860038   -4.6394717     246.9638   0.05863338   0.06051114            3 
  352000    1.0848008    -4.601549    247.84997  0.058676603  0.060481516            3 
  353000    1.1293781   -4.6455585    247.57944  0.058446516  0.060449787            2 
  354000    1.1232088   -4.6464454    248.01726  0.058384478   0.06041824            3 
  355000    1.0856632   -4.6584259    247.90747  0.058194243  0.060386722            7 
  356000    1.1345952   -4.6593551    248.68222  0.058212131  0.060354247            4 
  357000    1.1265579    -4.661398    248.90763  0.058101687  0.060320513            5 
  358000    1.1286538   -4.6531073     249.2041  0.058008403  0.060287632            3 
  359000     1.091504   -4.6570413    250.16002  0.058068714  0.060254032            3 
  360000    1.0892118   -4.6684455    250.62746  0.058015615  0.060221971            3 
  361000    1.1375502   -4.6327751    252.15228  0.058206898  0.060191526            1 
  362000     1.081407   -4.6511287    252.32924  0.058086842  0.060160853            2 
  363000    1.1119168   -4.6431571    252.84221  0.058044584  0.060129218            1 
  364000    1.1020439   -4.6160695    253.84949  0.058115725   0.06009912            1 
  365000    1.1088028   -4.6750702    253.82768  0.057951525  0.060067515            2 
  366000     1.096983   -4.6113826    255.43211  0.058158495  0.060035752            4 
  367000    1.1093284   -4.6727433    254.88253  0.057875233  0.060003339            3 
  368000     1.111397   -4.6635304    256.17963  0.058011692  0.059971926            4 
  369000    1.1272971   -4.6164584     257.3232  0.058112738  0.059940107            3 
  370000    1.0929115   -4.6643287    255.84764  0.057623342  0.059909003            4 
  371000     1.112613   -4.6750049    258.19464  0.057995203   0.05987786            2 
  372000    1.0904139   -4.6359563    258.90424  0.057998262   0.05984747            2 
  373000    1.1080722   -4.6466344    259.90902  0.058067252  0.059817415            3 
  374000     1.114676   -4.6582738    259.22114  0.057758722  0.059788463            4 
  375000     1.084167   -4.6715616    260.42143   0.05787143  0.059758123            5 
  376000    1.0720294   -4.7079963    259.26683  0.057461619   0.05972779            3 
  377000    1.0970038   -4.6473762    260.51736  0.057585623  0.059695543            1 
  378000    1.0911181   -4.6742785    261.08578  0.057558593  0.059662331            2 
  379000    1.1005554   -4.6704911    262.02775   0.05761384  0.059628913            4 
  380000    1.1081683   -4.6632235    262.83807  0.057639927  0.059597255            3 
  381000    1.0864391   -4.6280003    264.27963  0.057803944  0.059567743            2 
  382000     1.107695     -4.65339    263.73519  0.057533855   0.05953726            4 
  383000    1.1112001   -4.6744499    263.87035  0.057413044  0.059506569            3 
  384000    1.1109758   -4.6719603    265.50876  0.057619089  0.059476282            2 
  385000    1.0887345   -4.6512448    266.07447  0.057591877  0.059447421            2 
  386000    1.0862488   -4.6256709     267.4368  0.057736788  0.059418371            2 
  387000    1.1037875   -4.7283546    265.52583  0.057176104  0.059388681            3 
  388000    1.0984302   -4.6449485    267.74822  0.057506061  0.059359134            2 
  389000    1.1097929   -4.6310178    269.97815  0.057835936  0.059331053            2 
  390000    1.0929511   -4.6692597    270.24818  0.057745338  0.059303194            3 
  391000    1.1285068   -4.6691214    270.97382  0.057752305  0.059274304            3 
  392000    1.0836296   -4.6604367    270.37041  0.057476703  0.059246683            2 
  393000    1.1102976   -4.6704328    270.23996  0.057302791  0.059217422            4 
  394000    1.1150559   -4.6531466    272.83722  0.057706688  0.059188857            3 
  395000    1.1079981   -4.7015179    271.41192  0.057259899  0.059160019            7 
  396000    1.0746471   -4.6680793    274.53125  0.057771728  0.059131071            3 
  397000    1.0793625   -4.6846141    274.56528   0.05763335  0.059103694            2 
  398000    1.0795074   -4.6605108    276.13252  0.057816692  0.059076026            3 
  399000    1.0595292   -4.6963606    274.97157  0.057429317  0.059050346            3 
  400000    1.1118089   -4.6835489    276.13988  0.057529142  0.059022702            3 
  401000      1.09167   -4.6745938     276.4303   0.05744603  0.058994877            2 
  402000    1.1070753   -4.6975022    275.62955  0.057137136  0.058966709            2 
  403000    1.0943137   -4.6763371    276.75651  0.057228392  0.058938438            3 
  404000    1.0808015   -4.6735641    277.70587  0.057282564  0.058909303            7 
  405000    1.0860352   -4.6573746    278.30147  0.057263677  0.058881851            2 
  406000    1.0955818   -4.6915708    279.18013  0.057302983  0.058852601            3 
  407000    1.0915033   -4.6619566    279.74458  0.057277761  0.058825192            2 
  408000    1.0918268   -4.6961678    280.52457  0.057296686   0.05879602            2 
  409000    1.0839886     -4.67391    279.48898  0.056945594  0.058766142            3 
  410000    1.0780184   -4.6659074    281.19494  0.057153444  0.058738015            4 
  411000    1.0892236   -4.7100138    281.12279  0.056999754  0.058707969            4 
  412000    1.1006684   -4.6709268    282.42318  0.057124429  0.058678699            1 
  413000    1.0953542   -4.6865603    282.52614  0.057006889  0.058650336            1 
  414000    1.0797296   -4.6699384    284.43556  0.057253535  0.058622865            4 
  415000    1.0895517   -4.6944135    282.31871  0.056690503  0.058593568            3 
  416000    1.0854683   -4.6866741    283.11706  0.056714155  0.058562668            4 
  417000    1.0802493   -4.6641008    286.40494  0.057235199  0.058532964            5 
  418000     1.080041   -4.6883007    285.94425   0.05700643  0.058503445            2 
  419000    1.1085913   -4.6972413    286.06237  0.056893869  0.058473126            2 
  420000     1.074826     -4.69094    286.17424  0.056780603  0.058442578            5 
  421000    1.0791121   -4.6981618    286.63017  0.056735979  0.058413189            2 
  422000    1.0898591   -4.6862889    287.48993  0.056771313  0.058383331            2 
  423000    1.0752753   -4.6768348    288.27022  0.056790824  0.058352103            3 
  424000    1.0755269   -4.6922315     287.6309   0.05653123  0.058321474            3 
  425000    1.0959279   -4.6813806    288.73608  0.056614917  0.058288922            3 
  426000    1.1090691   -4.7186939    287.92019  0.056322416  0.058257301            5 
  427000    1.0817281   -4.6879776    290.97746  0.056787171  0.058226063            3 
  428000    1.0589142   -4.7068164    289.90685  0.056446037  0.058194316            1 
  429000     1.074667   -4.7161069    290.17716  0.056366969  0.058161388            3 
  430000    1.0844817    -4.716705    290.80943  0.056358416   0.05812706            2 
  431000    1.0665346   -4.7087512    290.57064  0.056181484  0.058092586            3 
  432000    1.0852214   -4.7007238    290.92513  0.056119816   0.05806011            2 
  433000    1.0946681   -4.6986925    292.63213  0.056318732  0.058027854            5 
  434000    1.0717872   -4.7139876    292.75029  0.056211653  0.057995417            4 
  435000    1.0875961   -4.6897813    293.09221  0.056147932  0.057963164            3 
  436000    1.0908415   -4.6993654    294.57609  0.056302769  0.057931457            3 
  437000    1.0662896   -4.6852721    294.61959  0.056182225  0.057899059            2 
  438000     1.084015   -4.6792993    295.63754   0.05624763  0.057866477            3 
  439000    1.0957662   -4.7136902    294.97997  0.055994679  0.057835103            2 
  440000    1.0904369   -4.7095112    294.77316  0.055828251  0.057803104            3 
  441000    1.0837957   -4.6999046    296.53236  0.056034082  0.057770489            3 
  442000     1.062451   -4.6966919    297.35487  0.056062381  0.057737805            3 
  443000     1.071522   -4.7009338    297.51132   0.05596526  0.057703308            5 
  444000     1.073328   -4.7316312    295.79785  0.055517615  0.057667167            3 
  445000    1.0691652   -4.7281502    297.59666  0.055729712    0.0576323            4 
  446000    1.0745099   -4.7133649    297.26405  0.055542611    0.0575966            2 
  447000    1.1061607   -4.6838452    300.21255  0.055968037  0.057561962            4 
  448000    1.1014251   -4.7141896    299.42056  0.055695788  0.057526766            4 
  449000      1.06462   -4.7054943    299.26872  0.055543564  0.057490222            2 
  450000    1.0762673   -4.7206596    299.75101  0.055509447   0.05745371            3 
  451000    1.0730212   -4.7034142    300.29822  0.055487476  0.057416605            6 
  452000    1.0908678   -4.7311162    299.99302  0.055308447  0.057379479            4 
  453000    1.0878615   -4.6787408    301.15904  0.055400854  0.057341671            2 
  454000    1.0960596   -4.7277582    301.24284  0.055294207   0.05730424            3 
  455000    1.0876914   -4.6973211    302.90136  0.055476439  0.057267941            3 
  456000    1.0770134   -4.7189944    302.63598  0.055306283  0.057232911            3 
  457000    1.0744763   -4.7607291    301.76428  0.055026308  0.057197249            3 
  458000    1.0995191   -4.7323746    303.55471  0.055231934  0.057162001            5 
  459000    1.0899463   -4.7383095    304.77264  0.055332722  0.057127832            2 
  460000    1.0784038   -4.7293484    305.38108  0.055322659  0.057094221            1 
  461000    1.0952897   -4.7207317    305.41787  0.055209304  0.057059628            5 
  462000    1.0838145   -4.7158605    307.04113    0.0553826  0.057025091            2 
  463000    1.0630771   -4.6959098    306.89212  0.055236162  0.056990583            3 
  464000    1.0686115   -4.6971459    308.77224  0.055454784  0.056956283            2 
  465000    1.0643016   -4.7189671     307.1933  0.055052562  0.056922681            4 
  466000     1.074407   -4.7195384    308.49011  0.055166328  0.056887877            2 
  467000    1.0568039   -4.7431121     308.5003  0.055050017  0.056852841            2 
  468000    1.0529888    -4.696322    308.78647  0.054983345  0.056816405            3 
  469000    1.0576706   -4.7233451    308.56791  0.054827276  0.056779986            1 
  470000    1.0865935   -4.7466813     308.4347  0.054687004  0.056743037            3 
  471000    1.0712522   -4.7156635    309.97359   0.05484317  0.056705683            4 
  472000    1.0522451   -4.7537695    310.32873  0.054789677     0.056668            3 
  473000     1.066055   -4.6880845    310.54013  0.054711087  0.056630337            2 
  474000    1.0650864   -4.7499634    310.82113  0.054645066  0.056593326            2 
  475000    1.0566955   -4.7381453    312.25938  0.054782347  0.056555416            1 
  476000    1.0539814   -4.7417448    311.41863  0.054520067  0.056519006            2 
  477000    1.0564443    -4.707939    314.34689  0.054917347  0.056482449            4 
  478000    1.0914985   -4.6635394    314.55995  0.054839602  0.056445943            3 
  479000    1.0667614   -4.7531471    314.17142  0.054657519  0.056409843            3 
  480000    1.0562914   -4.7358134    314.48561  0.054598195  0.056374354            2 
  481000    1.0862625   -4.7034693    316.36246   0.05480985  0.056339607            4 
  482000    1.0439299   -4.7335629    314.81183  0.054428049  0.056305153            2 
  483000    1.0832636   -4.7226516    316.59807  0.054623545  0.056270282            2 
  484000     1.079746   -4.7510736    315.84387  0.054380832  0.056234679            2 
  485000    1.0577217   -4.7376811    317.03138  0.054472745  0.056197756            7 
  486000     1.049862   -4.7183148     317.5567  0.054450738  0.056161755            4 
  487000    1.0553874   -4.7077797    317.93207   0.05440316   0.05612588            2 
  488000    1.0481573   -4.7222122    318.02322  0.054307243  0.056090087            4 
  489000    1.0939138   -4.7734124    318.78928  0.054326735  0.056054707            2 
  490000    1.0590764   -4.7288957    320.80242  0.054558235  0.056020312            4 
  491000     1.078522   -4.7885449    318.74098  0.054097247  0.055985944            3 
  492000    1.0332919    -4.745315    321.34532  0.054428407  0.055951464            2 
  493000    1.0660751   -4.7593204    320.85541  0.054235195  0.055916948            2 
  494000    1.0506301   -4.7940724    320.48187  0.054062394  0.055883752            3 
  495000    1.0629752   -4.7598694    321.49644  0.054123979  0.055849131            6 
  496000    1.0600667    -4.749841    323.62636  0.054372708  0.055814418            2 
  497000     1.060051    -4.773742    323.69087  0.054274123  0.055780244            1 
  498000     1.042436   -4.7662905    323.33141  0.054104988  0.055746724            6 
  499000    1.0530445   -4.7740903    324.30387  0.054158962  0.055712644            2 
  500000    1.0624704   -4.8058936    322.97942  0.053829903  0.055678046            2 
  501000    1.0417562   -4.7685189     325.5839  0.054155672  0.055645256            3 
  502000    1.0430881   -4.7310252    326.98054  0.054279638  0.055611952            4 
  503000    1.0687784   -4.7476239    326.61896  0.054111823  0.055579971            4 
  504000    1.0411071   -4.7451812     327.8238  0.054203671  0.055547897            3 
  505000    1.0692462   -4.7504435     326.8454  0.053934885  0.055514064            5 
  506000    1.0642202    -4.762115    327.29858  0.053902929  0.055480428            2 
  507000    1.0402547   -4.7405584    329.12673  0.054097096  0.055447175            3 
  508000    1.0706299   -4.7556392    329.51752  0.054054712  0.055414589            3 
  509000    1.0305717   -4.7577823    329.38209  0.053926341  0.055381799            2 
  510000    1.0358296   -4.7177637    331.45797    0.0541598  0.055349588            1 
  511000    1.0328733   -4.7513932    331.49427   0.05405973  0.055317741            1 
  512000    1.0297918   -4.7592508    331.54507  0.053962414  0.055285533            2 
  513000    1.0625185   -4.7537782    332.15969  0.053957064  0.055252958            2 
  514000    1.0257179   -4.7545076    332.17041  0.053853828  0.055219943            2 
  515000    1.0613927   -4.7724312    332.17077  0.053749316  0.055186651            2 
  516000    1.0507476   -4.7662984    332.14623  0.053641186  0.055154046            4 
  517000     1.058331   -4.7487774    334.51965  0.053919995  0.055121216            4 
  518000    1.0424967   -4.7671837    334.01231  0.053734284    0.0550885            2 
  519000    1.0708791   -4.7570167    332.80893  0.053437529  0.055054648            2 
  520000    1.0484897   -4.7942602    333.70964  0.053479109  0.055021702            2 
  521000    1.0758023   -4.7736209    334.64554  0.053526158  0.054988489            2 
  522000    1.0470103   -4.7350867    334.52093  0.053403724  0.054956019            6 
  523000    1.0558692    -4.770899    337.05426  0.053705267  0.054923277            4 
  524000    1.0489097    -4.790281     336.6325  0.053535703  0.054890798            3 
  525000    1.0325036   -4.7936398    336.23013  0.053369863  0.054858304            3 
  526000      1.04607   -4.7683191    338.16572   0.05357505  0.054825735            4 
  527000    1.0302301   -4.7641476    338.50618  0.053527227  0.054793273            3 
  528000    1.0478603   -4.7554935    338.84396   0.05347916  0.054761232            2 
  529000    1.0268116   -4.7932482    339.14456  0.053425419  0.054730501            3 
  530000    1.0533349   -4.7602339    340.82368  0.053588629  0.054699904            1 
  531000    1.0533221   -4.7642212    340.88965  0.053498062  0.054669674            2 
  532000    1.0484453   -4.7884313    341.47005  0.053488416  0.054638341            6 
  533000    1.0368497   -4.7621544    342.39555  0.053532763  0.054608318            2 
  534000     1.068885   -4.8302948    342.36856  0.053428301  0.054577775            3 
  535000    1.0460497   -4.7892475    342.94649  0.053418456  0.054548219            2 
  536000    1.0502684   -4.7660674    343.65135  0.053428382  0.054519582            4 
  537000    1.0357151   -4.7695303    345.56211  0.053625405  0.054491141            4 
  538000      1.06149   -4.7565657    345.90257  0.053578465  0.054463657            2 
  539000    1.0178829   -4.7731009    345.63925  0.053438351  0.054435503            2 
  540000    1.0516536     -4.77477    346.30889   0.05344273  0.054408351            4 
  541000    1.0608047   -4.7839163    348.33405  0.053655892  0.054380678            3 
  542000    1.0344194   -4.7796978    347.21721  0.053385179  0.054353774            3 
  543000    1.0608605   -4.7941066     347.2243  0.053287952  0.054325824            2 
  544000    1.0422372   -4.7767707    348.34564  0.053361771   0.05429648            3 
  545000    1.0386722   -4.8187982    348.05111  0.053218824  0.054267834            5 
  546000    1.0196991   -4.7821334    350.82301  0.053544416  0.054239821            2 
  547000    1.0522519   -4.7892145    350.43248  0.053387033  0.054212307            4 
  548000    1.0243843   -4.7403943    351.17951   0.05340321  0.054184757            2 
  549000    1.0202617   -4.7956007     350.5245  0.053206512  0.054157519            3 
  550000    1.0482313   -4.8024445    349.83679  0.053005575   0.05412973            3 
  551000    1.0182957   -4.7956723    353.19836  0.053417779  0.054101876            3 
  552000    1.0262246   -4.8040092    351.75806  0.053103571  0.054074328            4 
  553000    1.0359998   -4.7423813    353.86874  0.053325609  0.054046966            2 
  554000    1.0461519   -4.8193297    353.74238  0.053210345  0.054020074            4 
  555000    1.0318429   -4.7892876    354.68948  0.053256678  0.053993874            4 
  556000    1.0533247   -4.7881991    354.71409  0.053164581  0.053967781            4 
  557000    1.0379342   -4.8210587    356.12743  0.053280585  0.053942029            2 
  558000    1.0312668   -4.7937053     354.3592  0.052921028  0.053915473            3 
  559000    1.0438671   -4.7908327     356.8051   0.05319098  0.053887898            3 
  560000    1.0257061   -4.7772391    356.99073   0.05312362  0.053861025            2 
  561000    1.0113059   -4.7707723    357.35692  0.053083322  0.053834576            6 
  562000     1.031563   -4.7743172    357.80587  0.053055438  0.053807062            2 
  563000    1.0398849   -4.7901204    358.47952  0.053060912   0.05377992            2 
  564000    1.0058815   -4.7741877     359.1827  0.053070729  0.053754032            5 
  565000    1.0248144   -4.8323605    358.54059  0.052882093   0.05372726            5 
  566000    1.0176045   -4.7879891    360.35193  0.053055349    0.0536998            3 
  567000    1.0116854   -4.8266744    359.37779  0.052818605  0.053672957            5 
  568000    1.0354627   -4.8065275     361.8144  0.053083099  0.053646628            2 
  569000    1.0307871   -4.8161699    361.35214  0.052922107  0.053620031            4 
  570000     1.004828   -4.7864263    362.46795   0.05299239   0.05359363            2 
  571000     1.027397   -4.8319356     362.6228  0.052922184  0.053566863            5 
  572000    1.0080269    -4.793465    361.89708  0.052723933  0.053540926            4 
  573000    1.0152032   -4.7961269     364.1465  0.052959061  0.053515284            2 
  574000    1.0324921   -4.8217949    364.21028  0.052876057  0.053490489            3 
  575000     1.028799   -4.7513011    365.97966  0.053040531  0.053464712            3 
  576000   0.99714477   -4.8578998    363.12293  0.052535146  0.053439585            4 
  577000    1.0283819   -4.7928428    365.79363  0.052829814  0.053414822            4 
  578000    1.0389842   -4.8012794    367.97018  0.053052217  0.053389802            2 
  579000    1.0293151   -4.8261859    367.20836  0.052850944  0.053365283            4 
  580000    1.0183962   -4.8213739    366.06383  0.052595378  0.053339746            2 
  581000    1.0112125    -4.796546    366.98157  0.052636485  0.053315292            4 
  582000    1.0192236   -4.8174754     368.0937  0.052705283  0.053291078            4 
  583000    1.0328313   -4.8162024    369.15406  0.052766446  0.053267107            4 
  584000    1.0213493   -4.8079068    369.90961  0.052783905  0.053243144            4 
  585000    1.0402872   -4.8009773    370.39781  0.052763221  0.053219269            5 
  586000   0.99532104   -4.8562692    368.97335  0.052470612  0.053194456            6 
  587000    1.0142534   -4.8105627    370.75624  0.052634332  0.053169214            4 
  588000    1.0168401   -4.7814381    372.08983  0.052733819  0.053144307            2 
  589000   0.99688767   -4.8212958    372.63853   0.05272192  0.053119317            4 
  590000    1.0089726   -4.8005492    372.33151  0.052589196  0.053094831           10 
  591000    1.0067495   -4.8210078    372.01711  0.052455881  0.053070251            3 
  592000    1.0209124   -4.8167174     373.1392  0.052525225  0.053045667            7 
  593000    1.0057768   -4.8230549    373.92457  0.052547017  0.053021333            3 
  594000    1.0151985   -4.8043181    374.69675  0.052566884  0.052996253            3 
  595000    1.0007134   -4.8225658    373.60097  0.052325066  0.052971265            3 
  596000    1.0236116    -4.849505    374.02733  0.052296886  0.052945833            4 
  597000    1.0208898   -4.7827547    375.39889  0.052400738  0.052920836            3 
  598000    1.0292941   -4.8388236    374.08546  0.052130081  0.052896287            5 
  599000    1.0087126    -4.844758    376.79237  0.052419639  0.052870756            4 
  600000    0.9904748    -4.844477    376.71774  0.052321909  0.052846101            2 
  601000    1.0118519   -4.8327519    377.25457  0.052309286  0.052822304            4 
  602000    1.0009083   -4.7907725     378.4674  0.052390283  0.052797957            2 
  603000    1.0254234   -4.8200973    378.82963  0.052353458  0.052773064            3 
  604000    1.0337314   -4.8314226     377.7716  0.052120806  0.052748507            3 
  605000   0.99205528   -4.8094331    379.73484  0.052305074  0.052723941            3 
  606000    1.0034527   -4.8195983     379.3731  0.052169018  0.052698613            3 
  607000    1.0121685   -4.8271313    380.64877  0.052258205  0.052673368            5 
  608000    1.0004995   -4.8027404     380.2274  0.052114501  0.052647922            3 
  609000    1.0022337   -4.8257488    379.82027  0.051973217  0.052622661            3 
  610000    1.0103854   -4.8056068    381.31416  0.052092098  0.052597151            3 
  611000    0.9905021   -4.8333149    382.15072  0.052120938  0.052572228            4 
  612000    1.0122362   -4.8569901    380.86107  0.051860168  0.052547224            2 
  613000    1.0163806   -4.8390372    380.91017  0.051782242  0.052522063            3 
  614000    1.0177525   -4.8335685    383.39384  0.052034994  0.052497057            3 
  615000    1.0274841   -4.8277417    384.37665  0.052083556  0.052472403            3 
  616000    1.0027485   -4.8470913    385.38604  0.052135557  0.052448153            3 
  617000    1.0262957   -4.8495832     385.4272  0.052056619  0.052424288            4 
  618000    1.0105372   -4.8479114    385.44944  0.051975383  0.052399724            4 
  619000    0.9960601   -4.8330273    384.67253  0.051786824  0.052376155            4 
  620000   0.99291018   -4.8337584    385.93901  0.051873523  0.052351003            3 
  621000     1.003572   -4.8512224    386.46868  0.051861068  0.052326403            5 
  622000    1.0023639   -4.8603817     386.5278  0.051785611  0.052302603            4 
  623000   0.99106997   -4.8513619    388.48882  0.051964796  0.052279106            2 
  624000   0.98144636    -4.844074    388.11039  0.051830981   0.05225498            3 
  625000    1.0139205   -4.8018907    388.97704  0.051863605  0.052231273            3 
  626000   0.99679586   -4.8481213    388.72687  0.051747453  0.052206941            7 
  627000    1.0350882   -4.8447149    390.57653  0.051910756  0.052183413            3 
  628000   0.99288404   -4.8198216    391.50361  0.051951116  0.052160482            1 
  629000      1.00748   -4.8438357    389.99129  0.051668163  0.052137911            2 
  630000    1.0093395   -4.8580117     390.8045  0.051693717  0.052114245            4 
  631000    1.0180103   -4.8734824    391.40744  0.051691421  0.052090548            4 
  632000   0.99999032   -4.8212149    393.54666  0.051891701  0.052067095            5 
  633000     1.013343   -4.8788923    393.66719  0.051825591  0.052044308            3 
  634000    1.0037814   -4.8723998    392.33612   0.05156889  0.052021265            4 
  635000    1.0201331   -4.8833803    391.60016  0.051391097  0.051997703            6 
  636000   0.99789179   -4.8503032    394.77024   0.05172566  0.051974525            3 
  637000   0.99560007   -4.8514689    395.27448  0.051710424  0.051951645            3 
  638000    1.0012681   -4.8614061    394.55555  0.051535468  0.051929054            6 
  639000    1.0047937     -4.84774    396.35678  0.051689721  0.051905953            2 
  640000   0.98355126   -4.8437995     397.7706  0.051793047  0.051883529            2 
  641000   0.99501068   -4.8444946     396.3754  0.051530863  0.051860329            6 
  642000   0.98341474   -4.8447493    397.36892  0.051579559  0.051836957            2 
  643000    1.0039861   -4.8515339     397.2849  0.051488453  0.051814443            3 
  644000   0.98750963   -4.8458719    398.34864  0.051546149  0.051790731            5 
  645000     1.006405   -4.8423242    398.18599  0.051445218  0.051767568            2 
  646000    1.0068519   -4.8679497    398.53887  0.051411103  0.051744718            3 
  647000    1.0065087   -4.8868729      398.481  0.051324189  0.051721358            4 
  648000    1.0077573   -4.8783761    400.24637  0.051472013  0.051698765            2 
  649000   0.99722319   -4.8905712    399.39916  0.051283919  0.051675388            4 
  650000   0.99836564   -4.8775866    400.40144  0.051333518  0.051652317            2 
  651000   0.99868323   -4.8604053    401.43801  0.051387354  0.051629784            5 
  652000   0.99726095   -4.8337436    402.67194   0.05146625  0.051607582            3 
  653000   0.98966378    -4.854967    402.35648  0.051347177  0.051584596            4 
  654000     1.006718    -4.858608    403.13858  0.051368321   0.05156268            7 
  655000   0.98032208   -4.8730081    403.36912  0.051319227   0.05153995            4 
  656000    0.9901476   -4.8642389    403.87941  0.051305819  0.051517888            2 
  657000    1.0026566   -4.8115322    407.46787  0.051682886  0.051496565            4 
  658000    1.0096493   -4.8797123    404.67198  0.051250251  0.051475026            4 
  659000   0.99347316   -4.8901997     404.7034  0.051176454  0.051452746            2 
  660000   0.98069623   -4.8450852    406.67554  0.051347922  0.051431145            4 
  661000    0.9913709   -4.8824711    406.53298  0.051252267  0.051408933            4 
  662000   0.97022761   -4.8712695    406.14269  0.051125717  0.051387102            3 
  663000   0.98410304   -4.8694164    405.48726  0.050966222   0.05136495            5 
  664000   0.99804344   -4.9043981    406.68576   0.05103988  0.051342585            5 
  665000   0.98290266   -4.8906028    407.76171  0.051097958  0.051320341            4 
  666000     0.994605   -4.8608823    409.10453  0.051189256  0.051298478            4 
  667000   0.99320103   -4.8719464    410.15132  0.051243293  0.051277239            4 
  668000   0.97897105   -4.8776505    410.15435  0.051166959   0.05125569            3 
  669000    1.0209101   -4.8618707    410.04418  0.051076754  0.051234408            3 
  670000    1.0019743    -4.854356     410.3033  0.051032749  0.051213228            5 
  671000   0.98367262   -4.8787547    410.51551  0.050983049  0.051190893            2 
  672000   0.98530412   -4.8885086     411.0167  0.050969332  0.051168078           10 
  673000   0.97588542    -4.881117      410.844  0.050872214  0.051145947            3 
  674000   0.99555092    -4.878867    412.22134   0.05096703  0.051123941            3 
  675000     1.006099   -4.8790136    412.03442  0.050868447  0.051101476            3 
  676000   0.98190593   -4.8434595    413.03464  0.050916499  0.051079209            4 
  677000    0.9699469   -4.8634261    411.24056  0.050620453  0.051056412            4 
  678000   0.97849931   -4.8851729    413.34931  0.050804979  0.051033268            5 
  679000   0.99357813   -4.8545268    413.13785  0.050704204  0.051010305            5 
  680000   0.97828445   -4.8717535    413.68244  0.050696378  0.050987125            5 
  681000   0.99769632   -4.8809041    412.54109  0.050482267  0.050963119            2 
  682000   0.98139339    -4.856966    414.62567  0.050662961  0.050938883            2 
  683000   0.99505263   -4.9177965    413.26637  0.050422934  0.050914557            5 
  684000   0.96886605   -4.8909337    413.75339  0.050408551  0.050890572            7 
  685000    0.9759893   -4.9066869    414.09016  0.050375932  0.050865843            5 
  686000    0.9908599   -4.8869278    414.38373   0.05033816  0.050840774            4 
  687000   0.98765941   -4.8790278    416.28829  0.050495911  0.050815944            4 
  688000   0.98260488   -4.8804437    414.22628  0.050172757  0.050791509            3 
  689000   0.98065557   -4.8776394    416.40194  0.050363079  0.050767349            3 
  690000   0.97923567   -4.8984702    416.26162  0.050273142  0.050742994            4 
  691000   0.98780986   -4.9078693    417.55161  0.050355958  0.050718153            4 
  692000   0.97556171   -4.9186269    416.85614  0.050199438  0.050694073            2 
  693000   0.97831091    -4.896955    417.74258  0.050233595  0.050669027            3 
  694000   0.95834841   -4.8942172    418.97939  0.050309726  0.050644726            3 
  695000   0.98108382   -4.9192138    418.39105  0.050166792  0.050620843            6 
  696000   0.93867585   -4.9130066    419.85494  0.050269988  0.050597148            5 
  697000   0.99136599   -4.8997577    421.49794  0.050394302  0.050574077            2 
  698000   0.95634424   -4.8943157    419.65263  0.050101795  0.050550173            5 
  699000   0.97438406   -4.9245192    420.94906  0.050184675  0.050526773            4 
  700000   0.97556436   -4.9029757    420.98181  0.050116882  0.050503171            4 
  701000   0.97212523   -4.9096907    420.14952  0.049946448  0.050480063            3 
  702000   0.95868659   -4.8957453    423.02237  0.050216331  0.050456107            3 
  703000   0.97969275   -4.8747252     422.1924  0.050046514  0.050432147            3 
  704000   0.98798371   -4.8984411    422.78578  0.050045666  0.050408889            2 
  705000   0.99201325   -4.8936102     422.8998  0.049988157  0.050385377            6 
  706000   0.97399119   -4.9338011    423.22486   0.04995572  0.050361889            4 
  707000   0.97706076   -4.8770621     426.8939  0.050317527  0.050338435            4 
  708000   0.95478792   -4.8886603    425.25358  0.050053387    0.0503148            3 
  709000   0.97404179   -4.8945634    425.35232  0.049994396  0.050291037            3 
  710000   0.95272489   -4.9380816    424.57358   0.04983258  0.050266874            4 
  711000   0.96020239   -4.8864025    426.61656  0.050001941  0.050242362            2 
  712000   0.95094849   -4.9160156    425.05628  0.049749097  0.050217438            2 
  713000    0.9499373   -4.9311098    425.09384  0.049683712  0.050193019            3 
  714000    0.9836452   -4.8796117    428.12325    0.0499677   0.05016877            3 
  715000   0.98781018   -4.9104384    426.90004   0.04975525  0.050143979            3 
  716000   0.96251861   -4.9555088    426.71304  0.049663994  0.050119705            6 
  717000   0.97590478   -4.9152267    425.91344  0.049501794  0.050094823            4 
  718000   0.97028673   -4.9098257    426.04517  0.049448139  0.050070506            2 
  719000    0.9565329   -4.9294903    426.87888  0.049475994   0.05004544            3 
  720000   0.96086389   -4.9330396     427.4632  0.049474907  0.050020068            5 
  721000     0.960057   -4.9076347     429.3473  0.049624052  0.049994803            4 
  722000    0.9663355   -4.9602454    428.63306  0.049472884  0.049969365            5 
  723000   0.95382933   -4.9418795    427.94605   0.04932527  0.049944051            4 
  724000   0.96095792   -4.9430933     428.4305  0.049312902  0.049919081            7 
  725000   0.96132568    -4.910776    430.21767  0.049450307  0.049893805            8 
  726000    0.9511332   -4.9420391    429.70437  0.049323275   0.04986867            3 
  727000   0.97693633    -4.943711    429.93694  0.049282089  0.049842895            8 
  728000   0.93945218   -4.9300261    428.89317  0.049094914  0.049816461            5 
  729000   0.97871185    -4.934453    429.60641  0.049109101  0.049790528            8 
  730000   0.94206464   -4.9282191    429.16236  0.048991137  0.049764005            3 
  731000   0.96809123   -4.9414862     431.1143  0.049146637   0.04973785            4 
  732000   0.96481522   -4.9455224     430.7405  0.049036942  0.049712063            3 
  733000   0.95876462   -4.9398169    433.01741  0.049228901  0.049686142            3 
  734000    0.9625255   -4.9550313     432.2126  0.049070459  0.049660061            4 
  735000    0.9787875     -4.91361    433.81649  0.049185543  0.049634228            2 
  736000   0.94050541   -4.9176084    434.34893     0.049179  0.049608861            2 
  737000   0.97937838   -4.8954967    434.76701  0.049159544  0.049583467            5 
  738000   0.98578486   -4.9213961    434.99587  0.049118775  0.049558261            7 
  739000   0.97643316   -4.9354934    435.96962  0.049162113  0.049533394            6 
  740000   0.94548206   -4.9532732     434.5646  0.048937455  0.049508491            3 
  741000   0.96957807   -4.9433749    435.35362  0.048960146  0.049483129            5 
  742000   0.98398692   -4.9158367    435.99424   0.04896611  0.049457946            3 
  743000   0.98081433   -4.9120942    436.87824  0.048999354  0.049433148            4 
  744000   0.96187656   -4.9206003    438.92712  0.049162984  0.049409085            5 
  745000   0.93522847    -4.936908    439.22788  0.049130635  0.049384947            6 
  746000   0.96072293   -4.9452916    439.30075  0.049072917  0.049360493            8 
  747000   0.93547395   -4.9397614    439.43216  0.049021883    0.0493366            3 
  748000   0.95014848   -4.9131225    440.44546  0.049069236  0.049313015            5 
  749000   0.97306679   -4.9633973    439.68905  0.048919565  0.049289148           12 
  750000   0.96100847   -4.9496136    439.81971  0.048868857  0.049264611            4 
  751000   0.93475382   -4.9177672    441.12313  0.048948416    0.0492407            8 
  752000   0.93362767   -4.9400692     440.8496  0.048853014  0.049216616            6 
  753000   0.94593282   -4.9290948    441.51029  0.048861254  0.049191996            9 
  754000   0.94725759    -4.967691    442.38983  0.048893659   0.04916784            5 
  755000   0.96486667   -4.9669834    441.13172  0.048690035  0.049143496            3 
  756000   0.95180079   -4.9322698    442.83942  0.048813869  0.049118938            3 
  757000   0.94722984   -4.9821857    440.19778  0.048458584  0.049094416            4 
  758000   0.94548768   -4.9377137     443.0391  0.048707025  0.049070163            2 
  759000    0.9519805   -4.9488672    444.42923  0.048795479  0.049045901            5 
  760000   0.94268431   -4.9476663    442.58535  0.048529095  0.049021954            4 
  761000   0.95371276   -4.9529244    444.97249  0.048726729  0.048998004            5 
  762000   0.94726271   -4.9275442    445.04173  0.048670355  0.048974011            3 
  763000   0.94471625   -4.9456775     446.1569  0.048728363  0.048950327            3 
  764000   0.94661422   -4.9591952    444.77691  0.048514061  0.048927248            2 
  765000    0.9601923   -4.9609493    447.30855  0.048726421  0.048903937            2 
  766000   0.93717059   -4.9471777    448.21286   0.04876119  0.048880848            4 
  767000   0.95192269   -4.9550175    449.35576   0.04882179  0.048858171            8 
  768000   0.93859595    -4.969676    449.40188  0.048763224  0.048834855            4 
  769000   0.92882454   -4.9668411    448.22749   0.04857255  0.048811963            3 
  770000   0.95119461   -4.9675653    448.38847   0.04852689  0.048789146            2 
  771000   0.93419939   -4.9847157    447.00357  0.048314264  0.048765978            3 
  772000   0.93068698   -4.9417617    450.41786  0.048620235  0.048743052            3 
  773000   0.94835272   -4.9372017    451.33709  0.048656434  0.048720188            6 
  774000   0.95139953   -4.9410622    450.67814  0.048522625  0.048697247            2 
  775000   0.94065108   -4.9686347    449.84023  0.048369918  0.048674198            3 
  776000   0.95544632   -4.9984503     450.1804  0.048344115  0.048650155            2 
  777000   0.97878421    -4.963995    451.96351  0.048473135  0.048627159            2 
  778000   0.93275677   -4.9373925     453.2719  0.048550975  0.048604334            2 
  779000   0.93637186   -4.9857644    450.26395  0.048166875   0.04858086            6 
  780000   0.95629996   -4.9528364    454.00171  0.048504456  0.048558028            5 
  781000   0.94265883    -4.956948    452.89707  0.048324484  0.048535285            4 
  782000   0.94269266   -4.9715395    452.80826  0.048253224  0.048512761            6 
  783000   0.93688109   -4.9880472     454.6391  0.048386452  0.048489727            8 
  784000    0.9477446   -4.9283724    453.84961  0.048240817  0.048466798            3 
  785000   0.94876356   -4.9968801    453.46266  0.048138286  0.048444023            4 
  786000   0.91628476   -4.9675908    455.46335  0.048289159  0.048420591            3 
  787000   0.93640636   -4.9756159    455.43615  0.048224921  0.048396971            2 
  788000   0.94685679   -4.9200197    455.97648  0.048220863  0.048374076            3 
  789000   0.91066677    -4.995209    454.42057  0.047995413   0.04835062            5 
  790000   0.95230472   -4.9746423    456.64495  0.048169298  0.048326464            5 
  791000   0.94445748   -4.9809317    456.13367  0.048054538  0.048302477            3 
  792000   0.93117447   -4.9748599    456.04922  0.047984977  0.048278689            3 
  793000   0.92769574   -4.9736523     457.3622  0.048062442  0.048255146            6 
  794000   0.93248046   -5.0089377     456.3918  0.047900063  0.048231506            4 
  795000   0.95331037   -4.9764477    458.05553  0.048014207  0.048207932            2 
  796000   0.93181436   -4.9963305    458.54247  0.048004865  0.048184473            3 
  797000   0.97067138   -4.9696703    458.62332  0.047953087  0.048161051            9 
  798000   0.94433059   -4.9508884    459.38987  0.047973044   0.04813814            7 
  799000   0.95255762   -4.9954493    461.03641  0.048084732  0.048115731            2 
  800000   0.94913686   -4.9589328    459.58489  0.047873426  0.048093083            2 
  801000   0.92446078   -4.9994358    458.98123  0.047750856  0.048069522            2 
  802000   0.92063511   -4.9778419    460.75786   0.04787592  0.048046271            3 
  803000   0.94080082   -5.0075954    460.76003  0.047816524  0.048022562            6 
  804000   0.92068616   -4.9910743    461.53842   0.04783773  0.047999153            7 
  805000   0.95390439    -4.997047    461.00857  0.047723455  0.047975901            2 
  806000   0.93574442   -4.9958077    461.70896  0.047736658  0.047952159            2 
  807000   0.94584863   -4.9982692    461.84726  0.047691786  0.047928092            2 
  808000   0.93427811   -5.0156535    461.94729  0.047643079  0.047904445            3 
  809000   0.91392079   -4.9803368     461.5534  0.047543614   0.04788019            3 
  810000   0.94869701   -4.9965046    460.64732    0.0473917  0.047855777            4 
  811000   0.94316683   -5.0119837    462.56796  0.047530617  0.047831493            4 
  812000   0.91182857   -4.9940227    462.85041  0.047501068  0.047807666            3 
  813000   0.93772283   -4.9658829     464.9739  0.047660301  0.047783589            4 
  814000    0.9453374   -4.9607705    464.94768  0.047599066  0.047760205            2 
  815000   0.91797512   -4.9980839    464.00725  0.047444504  0.047736611           12 
  816000   0.92650169   -4.9999663    464.82115  0.047469481  0.047712505            5 
  817000   0.93730437   -4.9821448    464.79704  0.047408918  0.047688301            2 
  818000   0.93098701   -4.9906071    464.61869  0.047332792  0.047663219           11 
  819000   0.91070699   -4.9991421    464.81202   0.04729467  0.047638967            4 
  820000   0.92311356   -5.0243453    464.85637  0.047241501  0.047614421            3 
  821000   0.93163791   -5.0158397    466.72189  0.047373314  0.047589974            3 
  822000   0.91765968   -4.9885469    466.88255   0.04733197  0.047565843            3 
  823000   0.91537365   -5.0241569    466.16373  0.047201674  0.047541277            2 
  824000    0.9130229    -4.989176    466.63691  0.047192244  0.047516771            4 
  825000   0.92062006   -5.0150257    466.67374  0.047138762  0.047492168            5 
  826000   0.93321991   -5.0062798    468.75181  0.047291345  0.047467954            4 
  827000   0.91734923   -5.0040065    469.06038  0.047265254   0.04744345            4 
  828000   0.92283685   -4.9845463     467.5616  0.047057327  0.047418876            3 
  829000   0.94125476   -4.9980578    468.92815  0.047137932  0.047394047            5 
  830000   0.93167968   -5.0311323    468.98231  0.047086577  0.047369454            2 
  831000   0.91119178   -5.0244493     467.5813  0.046889421  0.047345154            5 
  832000   0.92071802   -5.0205105    469.15713  0.046990898  0.047320964            3 
  833000   0.93892908   -5.0300637    467.62194  0.046780907  0.047296875            4 
  834000   0.89798199    -5.028869     471.1165  0.047073991  0.047272439            4 
  835000   0.91664343    -5.042531    469.72242  0.046878485  0.047248444            3 
  836000   0.91797634    -5.044197    469.31418  0.046781716  0.047224245            6 
  837000   0.93113222   -4.9986238    471.37766  0.046931268  0.047200459            5 
  838000   0.93364694   -5.0288671    470.51306  0.046789286  0.047176436            6 
  839000   0.91186463   -5.0012597    471.73702  0.046855087  0.047151795            6 
  840000   0.92247839   -4.9887897    474.49669  0.047073084  0.047127364            4 
  841000    0.9345949   -5.0239542    471.02742  0.046673348  0.047102665            3 
  842000   0.92600812   -5.0226792    471.52234  0.046666898  0.047077829            5 
  843000   0.91953449   -5.0343372     471.8861  0.046647499  0.047053005            4 
  844000   0.91366374   -5.0041837    474.28047   0.04682864  0.047028302            3 
  845000   0.90258085   -5.0146271    473.17199  0.046663905  0.047004129            6 
  846000   0.92838343   -5.0418973    474.56334  0.046745798    0.0469792            4 
  847000   0.92192758   -5.0214694    474.61969  0.046696152  0.046954543            3 
  848000   0.91446705   -5.0144669    474.69569  0.046648555   0.04693011            6 
  849000   0.93104908   -5.0128009    475.56943  0.046679371  0.046906203            5 
  850000   0.88829961    -4.998197    476.52482  0.046718119  0.046882603            5 
  851000   0.91367271   -5.0409896    477.09488  0.046719044  0.046859086            6 
  852000    0.9118852   -5.0076601    477.92843  0.046745738  0.046835855            5 
  853000   0.89080393   -5.0324745    476.01361  0.046503869  0.046812345            7 
  854000   0.90137893   -4.9993981    480.21711  0.046859593  0.046788875            3 
  855000   0.92256482   -5.0506744    478.40382  0.046628053  0.046765632            4 
  856000   0.88724971    -4.984422    478.67075  0.046599567  0.046742363            3 
  857000   0.91299484   -5.0315044    478.14136  0.046493715  0.046718972            5 
  858000   0.88570533   -5.0250931    478.81991   0.04650543    0.0466951            5 
  859000   0.93694258   -5.0461092    479.71979  0.046538591  0.046671303            3 
  860000   0.89085906   -5.0449305    477.68065  0.046286885  0.046647432            3 
  861000    0.9081068   -5.0205827     479.8402  0.046442141  0.046623238            5 
  862000    0.9270854   -5.0065937    479.85505  0.046389699  0.046599878            6 
  863000    0.9316884   -5.0559708    478.74892  0.046229135  0.046576318            5 
  864000   0.91131867   -5.0051875    482.33461  0.046521471  0.046552727            9 
  865000   0.89074851   -5.0124851    482.21854  0.046456506  0.046528983            6 
  866000   0.90075256   -5.0326839    480.93215  0.046279075  0.046505567            9 
  867000   0.91082003   -5.0487092    481.92596  0.046321219  0.046482188            5 
  868000   0.89998758   -5.0401882    483.14653  0.046385036  0.046459005            7 
  869000   0.91347823   -5.0554844    484.14157  0.046427078  0.046436227            2 
  870000   0.90293047   -5.0287448    485.02394  0.046458232  0.046413119            4 
  871000   0.87096578   -5.0310076    484.63946  0.046368107  0.046390358            5 
  872000   0.89852062   -5.0399662    485.05907  0.046355034  0.046367211            4 
  873000   0.89735915   -5.0504603    483.37287  0.046140977  0.046344061            6 
  874000   0.92858828    -5.053076    484.05934  0.046153637  0.046320788            3 
  875000   0.92227309   -5.0418911    485.71168  0.046258255  0.046297939            4 
  876000   0.93138384   -5.0487886    486.96302  0.046324488  0.046275445            6 
  877000   0.91555183   -5.0603043    485.36583    0.0461199  0.046252842            3 
  878000   0.88900472   -5.0442516     487.5537  0.046275028  0.046230507            5 
  879000   0.89396024   -5.0450453    488.38463   0.04630116   0.04620796            5 
  880000   0.91625389   -5.0416128      488.087   0.04622036  0.046185945            4 
  881000   0.89893731   -5.0366242    488.55991  0.046212629  0.046163834            5 
  882000   0.87648142   -5.0726692     487.2137  0.046033041  0.046141492            7 
  883000     0.896385    -5.019713    490.09665  0.046252987  0.046119073            3 
  884000   0.90932759   -5.0286526    491.26765  0.046311053  0.046096729            6 
  885000   0.88537154    -5.008941    487.99806  0.045950853  0.046074431            3 
  886000   0.89819999   -5.0596763    488.87333  0.045981314  0.046051657            7 
  887000   0.88545308   -5.0484985    488.88015  0.045930116  0.046028698            3 
  888000   0.90571463   -5.0771456    489.42395  0.045929425  0.046005547            6 
  889000   0.90338614     -5.05548    488.90227  0.045828859  0.045982548            6 
  890000   0.91633912   -5.0562574    490.65429  0.045941413  0.045959626            4 
  891000   0.89075669   -5.0723954    489.63175  0.045794215  0.045936531            5 
  892000   0.89731693   -5.0782921    491.14016  0.045883797  0.045913466            6 
  893000   0.89195567   -5.0401401     491.2515  0.045842805  0.045890987            3 
  894000   0.87628967    -5.046843    492.35307  0.045894209  0.045868775            3 
  895000   0.89389907    -5.065924    490.14059  0.045636927  0.045846388            6 
  896000    0.8649863   -5.0433196    494.36894  0.045979254  0.045823913            7 
  897000   0.90074909   -5.0437731    492.57297  0.045761146  0.045801994            3 
  898000   0.89787265   -5.0600515    493.97772  0.045840545  0.045779794            4 
  899000   0.92321973   -5.0704088    492.12124  0.045617468  0.045757158            5 
  900000   0.90593435    -5.055964    495.82493  0.045909716  0.045734475            4 
  901000   0.88592365   -5.0738362    492.26377  0.045529391  0.045711848            5 
  902000   0.88771034   -5.0980733    494.66231  0.045700509  0.045689275            3 
  903000   0.87829166   -5.0705742    495.26607  0.045705618  0.045666629            5 
  904000   0.88278422   -5.0688369    496.33775  0.045753849  0.045644183            5 
  905000   0.89704695   -5.0482381    496.24885  0.045695106  0.045622169            5 
  906000   0.89014234   -5.0480077    496.61393   0.04567825  0.045600053            6 
  907000   0.89062027   -5.0528073    497.26465  0.045687675  0.045577834            3 
  908000   0.87675469   -5.0372618    497.11756  0.045623858  0.045555773            7 
  909000   0.85931948   -5.0705135     498.6897  0.045717794  0.045534017            6 
  910000    0.8888701   -5.0829624     497.7389  0.045580486  0.045512287            4 
  911000   0.89168667   -5.0661844    497.36157  0.045495936  0.045490081            7 
  912000    0.9050923   -5.0902424    498.38279  0.045539363  0.045467839            5 
  913000     0.883324   -5.0517376    498.98278  0.045544248  0.045445464            6 
  914000   0.89369451    -5.072684    497.64369  0.045372327   0.04542301            6 
  915000   0.88495248   -5.0637313    499.81435  0.045520432  0.045400535            6 
  916000   0.89398925    -5.078939    498.39584  0.045341688  0.045378458            4 
  917000   0.88120575   -5.0821706    498.35404  0.045288444  0.045356229            5 
  918000   0.88598536   -5.0659201    500.26915  0.045412958  0.045334004            4 
  919000   0.87448065    -5.069613    500.49342  0.045383879  0.045311901            6 
  920000    0.8909772    -5.086477    500.57767   0.04534218  0.045289949            7 
  921000   0.87813756   -5.0831262     503.0299   0.04551483  0.045268227            3 
  922000   0.89363421   -5.0859241    502.29869  0.045399375  0.045246502           10 
  923000   0.88179456   -5.0852065    501.76924  0.045302387  0.045224714            7 
  924000   0.88570874   -5.0585242    503.65042  0.045423017  0.045203412            2 
  925000   0.89343183   -5.0683387    502.15967   0.04523961  0.045181697            4 
  926000    0.8954346   -5.0795471     502.8696  0.045254644  0.045159596           10 
  927000   0.89042012   -5.0381104    503.01562  0.045218951  0.045136784           13 
  928000   0.87037976   -5.1024158    501.67043  0.045049428  0.045113834            5 
  929000   0.90722067   -5.0857809    504.52024   0.04525657  0.045091452            6 
  930000    0.8993419   -5.0493711    504.69606  0.045223661  0.045069381            8 
  931000   0.88602876   -5.0648383    504.76958  0.045181666  0.045047584            2 
  932000   0.87195957   -5.1356821    503.07976  0.044982096   0.04502525            4 
  933000   0.88020368   -5.0806424    503.23228  0.044947506  0.045002589            5 
  934000   0.88190124   -5.0938201    503.82795  0.044952529  0.044979813            4 
  935000   0.86431708   -5.1077406    505.09497  0.045017377  0.044957412            8 
  936000   0.89237259   -5.0781381    504.41578  0.044908813  0.044934864            6 
  937000   0.88101093   -5.0684842    502.88211  0.044724485  0.044912041            5 
  938000   0.87356366   -5.1061796    504.08495  0.044783666  0.044889045            3 
  939000   0.88146361   -5.0962098     504.2157  0.044747578  0.044866012            5 
  940000    0.8760084   -5.0809357     505.4788   0.04481195  0.044842748            3 
  941000   0.85911465   -5.0966127    506.12834  0.044821851  0.044819875            8 
  942000   0.88551588   -5.0918944    505.74498  0.044740355  0.044796776            3 
  943000   0.87055169   -5.1386481    505.08703  0.044634768  0.044773627           10 
  944000   0.86527256   -5.1246042     503.4931  0.044446778  0.044750644            6 
  945000   0.87793656   -5.0867542    506.25519  0.044643315  0.044727498            4 
  946000   0.87195038   -5.0948137    508.26499  0.044773167  0.044704893            3 
  947000   0.86651545   -5.1095249    507.25123   0.04463668  0.044682031            3 
  948000   0.88585663   -5.0929972    508.86873   0.04473178  0.044659146            4 
  949000   0.88609725   -5.1032266    509.02949  0.044698761  0.044636501            3 
  950000   0.86040542   -5.0692735    507.23894  0.044494644  0.044613408            4 
  951000   0.88343783   -5.1093111    508.66048  0.044572422  0.044590664            9 
  952000   0.87201372   -5.1126719     509.4455  0.044594319  0.044568016            5 
  953000   0.84291259   -5.0907085    510.64823  0.044652696  0.044545115            2 
  954000   0.87564534   -5.1172552    510.03377  0.044552216  0.044522256            5 
  955000   0.84283552   -5.0692567    511.12929  0.044601159   0.04450008            5 
  956000   0.88284871   -5.1206838    510.35548  0.044487054  0.044478027            4 
  957000   0.88323706   -5.1150155    510.35485  0.044440513  0.044455671            5 
  958000   0.87289257   -5.1252001    509.76114  0.044342479  0.044433076            2 
  959000   0.89703301   -5.0755844    511.86586  0.044479133  0.044410532           12 
  960000   0.86963397   -5.1026007    512.04077  0.044447984  0.044388266            8 
  961000   0.87908203   -5.1340218    511.43004  0.044348772  0.044365905            5 
  962000   0.89295431   -5.1092059     511.6706   0.04432351  0.044343808            5 
  963000   0.87067626   -5.0977107    512.91667  0.044385313    0.0443215            5 
  964000   0.87910361   -5.0905292    513.30238  0.044372612  0.044299147            4 
  965000   0.87057573   -5.0997868    513.15259  0.044313695  0.044276808            5 
  966000   0.86839279   -5.1259795    511.74181  0.044146119  0.044253958            5 
  967000   0.86057168   -5.0993127    512.89957  0.044200239  0.044231398            5 
  968000   0.86683635   -5.1000292    515.39669   0.04436955  0.044209182           11 
  969000   0.85459979   -5.1128726    515.40213  0.044324229  0.044187261            4 
  970000   0.86744838   -5.0933569    516.13751   0.04434171  0.044165518            4 
  971000    0.8521331   -5.1375339    516.54232  0.044330786  0.044143594            3 
  972000   0.85512155   -5.1187494    514.14024  0.044079239  0.044121272            5 
  973000   0.86418717   -5.1255123    515.43513  0.044144838  0.044098918            5 
  974000   0.88581553   -5.1298655    514.72144  0.044038453  0.044076693            4 
  975000   0.85533301   -5.1017855    516.92976  0.044182031   0.04405436            5 
  976000    0.8627486   -5.0912287    516.42931  0.044094033  0.044032064            8 
  977000   0.86234624   -5.0943366    515.80001  0.043995224  0.044010017            4 
  978000   0.85522128   -5.1434856    516.09523  0.043975394  0.043987972            8 
  979000   0.85965297   -5.1316896    517.45977  0.044046626  0.043965793            2 
  980000    0.8404738   -5.1242762    515.77135  0.043858108  0.043943315           11 
  981000    0.8734691   -5.1122834    518.49864  0.044045077  0.043920823            6 
  982000    0.8611335   -5.1444506    517.15866  0.043886512    0.0438982            2 
  983000   0.86558077   -5.0862953    519.24825  0.044019011  0.043876029            3 
  984000    0.8436894   -5.1046834    518.23736  0.043888666  0.043853525            5 
  985000    0.8689537   -5.1202589    517.83331  0.043809924  0.043830819            4 
  986000   0.87007771   -5.1122842    518.64117   0.04383377  0.043808369            3 
  987000   0.81901992   -5.1297683    519.55092   0.04386617  0.043785748            6 
  988000   0.85181527   -5.1699974    517.14257  0.043618638  0.043762915            6 
  989000   0.86439685    -5.136946    517.71957  0.043623152  0.043740021            5 
  990000   0.87128194   -5.1211897    519.50895   0.04372971  0.043717147            7 
  991000   0.86550613   -5.1091526    519.97458  0.043724738  0.043694215            4 
  992000   0.87651401    -5.130966    518.93629  0.043593438  0.043671186            6 
  993000   0.85430826   -5.1339953     516.8026  0.043370477  0.043648019            4 
  994000   0.84008142   -5.1513076    519.35587  0.043540901  0.043624501           11 
  995000   0.88234693   -5.1686973    518.11263  0.043393018   0.04360086            5 
  996000   0.86094681   -5.1521711    517.68117  0.043313351  0.043577171            4 
  997000   0.86539913   -5.1774298    519.11889  0.043390078  0.043553205            7 
  998000    0.8756494   -5.1188369    520.06914  0.043425947  0.043529557            4 
  999000   0.85884205   -5.1305563    519.81011   0.04336087  0.043505749            4 
 1000000    0.8859962   -5.1077582     519.8474  0.043320617  0.043482084            4 
 1001000   0.85817786   -5.1324187    519.79448  0.043272934  0.043458005            3 
 1002000   0.86553637    -5.145649    519.11469  0.043173211  0.043434202            7 
 1003000   0.84689363   -5.1492922    520.81496  0.043271433  0.043410179            8 
 1004000   0.85536352   -5.1321668    519.30039  0.043102622  0.043386181            9 
 1005000   0.84569867    -5.128629    521.03994  0.043203975  0.043362365            6 
 1006000   0.86588924   -5.1282976    521.05745  0.043162479  0.043337948            3 
 1007000   0.84465982   -5.1287439    520.92498  0.043108655  0.043313773            6 
 1008000   0.84659265   -5.1540452    519.49442  0.042947621   0.04328958            2 
 1009000   0.85987763   -5.1122835    521.64843  0.043082956  0.043265482            8 
 1010000    0.8480449   -5.1763438    519.84177  0.042891235   0.04324098            7 
 1011000   0.82424542   -5.1435208    520.78336  0.042926422  0.043216356            8 
 1012000   0.86437728   -5.1390464    521.93577    0.0429789  0.043191982            7 
 1013000   0.85031962   -5.1420243    521.97314  0.042939547  0.043168101            6 
 1014000   0.85874478   -5.1755728    519.79428  0.042718136  0.043143665            5 
 1015000   0.86525904   -5.1345132    522.30015  0.042881786  0.043118995            6 
 1016000   0.86249003   -5.1468631    520.94697   0.04272859  0.043094524            5 
 1017000   0.85499933    -5.183745      520.951  0.042686906  0.043069934            4 
 1018000   0.85508514   -5.1528071    521.15754  0.042661881  0.043045041            6 
 1019000   0.84479918   -5.1825491    521.15621  0.042619906  0.043020124           20 
 1020000    0.8624864   -5.1780005    520.87051  0.042554781  0.042995002            4 
 1021000     0.848704   -5.1586404    523.89587  0.042760029  0.042970074            7 
 1022000   0.84332738   -5.1536855    523.44907  0.042681757  0.042945563            4 
 1023000   0.83657945   -5.1758184    522.54426  0.042566329  0.042920697            5 
 1024000   0.83524389   -5.1518447    523.56548  0.042607868  0.042896059            4 
 1025000   0.85057729   -5.1533196    522.47301   0.04247748  0.042871912            6 
 1026000   0.84594321   -5.1522184    522.95351  0.042475106  0.042847349            5 
 1027000   0.82577724   -5.1790632    523.69706  0.042494081  0.042822921            5 
 1028000   0.84457426   -5.1456527    525.68613  0.042613986  0.042798551            3 
 1029000   0.84676187   -5.1456851    527.16146  0.042692052  0.042774512            4 
 1030000    0.8464638   -5.1918764    523.67173  0.042368263   0.04275019            6 
 1031000   0.85529648   -5.1523221    524.63595  0.042405105  0.042725879            9 
 1032000   0.85837544   -5.1499175    528.07411  0.042641643  0.042701515            3 
 1033000   0.84586332   -5.1678769    524.74027  0.042331419  0.042677046            5 
 1034000   0.84251251   -5.1694097    525.09251  0.042318868  0.042652471           15 
 1035000    0.8500309   -5.1921974    525.93025   0.04234543  0.042627695            6 
 1036000   0.83290206   -5.1704067     526.6722  0.042364238  0.042603215           11 
 1037000   0.83751698   -5.1957334    526.57271  0.042315389  0.042579045            5 
 1038000   0.84264053   -5.1515793     525.3079  0.042173081  0.042554912            6 
 1039000   0.84738702    -5.171211    528.35168  0.042376619  0.042530794            5 
 1040000   0.82552496   -5.1922011    528.32808  0.042333981  0.042506667            9 
 1041000   0.84198636   -5.1762867    527.40713  0.042219591  0.042482553           10 
 1042000    0.8269794   -5.1782503    527.86749   0.04221589   0.04245839            6 
 1043000   0.85002119    -5.180414    527.85501  0.042174417   0.04243436            6 
 1044000   0.84149331   -5.1887163    528.11064  0.042154425  0.042410444            6 
 1045000   0.84492319   -5.1983216     527.8081   0.04208996  0.042386209            5 
 1046000   0.83736373   -5.1561789    530.13631  0.042235207  0.042362111            8 
 1047000   0.83334757   -5.1790024    529.79299  0.042167541   0.04233819            9 
 1048000   0.85216931   -5.1557667    533.11171  0.042391198  0.042314262            4 
 1049000   0.82302586   -5.1808928    531.37854  0.042213103  0.042290555           10 
 1050000   0.83371423   -5.2050264     529.1087  0.041992754  0.042266799            4 
 1051000   0.83804139   -5.1742435    531.91193  0.042175066  0.042242956            4 
 1052000   0.83721133   -5.1886662    529.98519   0.04198235  0.042219298            4 
 1053000   0.84199379   -5.1932848    529.86211  0.041932741  0.042195293            7 
 1054000   0.82776196   -5.1855512    529.12075  0.041834342  0.042171246            7 
 1055000   0.83783641   -5.1614446    532.40017  0.042053726  0.042147362            3 
 1056000    0.8295116   -5.1741904    532.15137  0.041994268   0.04212382            6 
 1057000   0.83095636   -5.1989222    532.70193  0.041997944  0.042100158            3 
 1058000   0.82905339   -5.2181062    532.29202  0.041925962  0.042076333            9 
 1059000   0.83780433   -5.1674274    533.03821  0.041945091  0.042052707            5 
 1060000   0.83918969   -5.2041474    532.83963  0.041889908  0.042028942            4 
 1061000   0.83233678   -5.1838013    532.44299  0.041819273  0.042005005            4 
 1062000    0.8161309   -5.2058401    531.43341  0.041700676  0.041981149            7 
 1063000   0.82261512   -5.2056018    535.17781  0.041954987   0.04195774            4 
 1064000   0.83574085   -5.2097746    533.59498  0.041791587  0.041934489            6 
 1065000   0.82699632   -5.1923697    534.33308    0.0418101  0.041911162            7 
 1066000   0.82663983   -5.1776388    535.14808  0.041834591  0.041887834            4 
 1067000   0.82542913   -5.1823273    535.34199  0.041810527  0.041864539            5 
 1068000   0.83658411   -5.1993917    534.97181  0.041742494  0.041840922           13 
 1069000   0.81932589   -5.2190252    536.90696    0.0418543  0.041817328            5 
 1070000   0.82181977   -5.1885012    535.08767  0.041673495  0.041793767            4 
 1071000   0.82704409   -5.2131081    535.19308  0.041642786  0.041770358            5 
 1072000   0.82252295    -5.219796     533.7481  0.041491612  0.041746555            5 
 1073000    0.8266124   -5.2002184    535.36159  0.041578253  0.041722728            8 
 1074000   0.82865227   -5.1820907    534.97493  0.041509538  0.041699086            5 
 1075000   0.82115599    -5.180877    537.33803  0.041654111  0.041675586            7 
 1076000   0.83060411   -5.1940496    536.85769  0.041578198  0.041651978            5 
 1077000   0.83841466   -5.1707209    535.81766  0.041459119  0.041628451            5 
 1078000   0.81153403   -5.2016872    535.97871   0.04143311  0.041604746            6 
 1079000   0.80810374   -5.2112718    535.65982  0.041370082  0.041580888            4 
 1080000    0.8070474    -5.165385    535.69367  0.041334388  0.041556975            8 
 1081000   0.83145567    -5.181423    538.08005  0.041480115  0.041533227           10 
 1082000   0.83416193   -5.2187027    536.84976  0.041347024  0.041509769            4 
 1083000   0.82426246   -5.2107295    538.38478  0.041426961  0.041485833            3 
 1084000   0.82741696   -5.2129719    537.32788  0.041307494  0.041462311            8 
 1085000   0.81907551   -5.2238827    538.17715  0.041334651  0.041438706            4 
 1086000    0.8198534   -5.1988172    538.37873  0.041312058  0.041415219            4 
 1087000   0.82683568   -5.2128686    537.97789  0.041243322  0.041391471            3 
 1088000   0.80955323   -5.2090002    538.14009  0.041217837  0.041368039            4 
 1089000   0.82229293   -5.1929927      539.739  0.041302342  0.041344751            8 
 1090000   0.79239194   -5.2081003    539.58049  0.041252331  0.041321631            2 
 1091000   0.82350751   -5.2234812    539.26187  0.041190182  0.041298349            8 
 1092000   0.82562245   -5.2088222    541.40476  0.041315992  0.041275238            6 
 1093000   0.81643957   -5.2451608     541.3885  0.041276951  0.041252144            4 
 1094000   0.80563691   -5.2542617    540.55784  0.041175948  0.041228953            5 
 1095000   0.82468148   -5.2047768    541.09189  0.041178987  0.041205593            5 
 1096000   0.81066151   -5.2575185    539.74768  0.041039209  0.041182038            6 
 1097000   0.83094403   -5.2318516    540.19031  0.041035423  0.041158462            4 
 1098000   0.81274489   -5.2410399    541.20503  0.041075063   0.04113497            3 
 1099000   0.81126984   -5.2214687    542.18586  0.041112061  0.041111675           11 
 1100000   0.80254313   -5.2350844    541.23732  0.041002828  0.041088262            5 
 1101000   0.80277939   -5.2100437    542.81282  0.041084834  0.041065213            4 
 1102000   0.80997804   -5.2100479    541.38583  0.040939643  0.041042016            3 
 1103000   0.81909491   -5.2392228    542.39961  0.040979118  0.041018811            2 
 1104000   0.82470058   -5.2018318    544.71359  0.041116666  0.040995668            7 
 1105000   0.82444292   -5.2159872    541.73279   0.04085466  0.040972543            7 
 1106000   0.80884185   -5.2545844    542.22578  0.040854865  0.040949094            8 
 1107000   0.81094117   -5.2209366    544.10459  0.040959394  0.040925628            4 
 1108000   0.81190591   -5.2399029    543.64074  0.040887541  0.040901988            4 
 1109000   0.80068688   -5.2061088    541.64327  0.040700577  0.040878324            6 
 1110000    0.7998735   -5.2503369    542.73349  0.040745758   0.04085451            5 
 1111000   0.81181392   -5.2444714    543.65748  0.040778389  0.040830869            4 
 1112000    0.8216987   -5.2322733    543.36691  0.040719943  0.040807205            5 
 1113000   0.80841539   -5.2756055     541.8355  0.040568696  0.040783318            8 
 1114000   0.82449391   -5.2113055    543.57539  0.040662432  0.040759532            4 
 1115000   0.79353908   -5.2399079    543.31725   0.04060667  0.040735875            3 
 1116000    0.8149305   -5.2402082    543.55379  0.040587947  0.040712304            4 
 1117000   0.81382886   -5.2447014    543.92076  0.040578989  0.040688799            6 
 1118000   0.79980196   -5.2317532    544.12542  0.040557948  0.040665337            8 
 1119000   0.81443535   -5.2412768     542.9383  0.040433296  0.040641568           14 
 1120000   0.80091495   -5.2225801    544.54562  0.040516787   0.04061762            6 
 1121000   0.80515133   -5.2263592    545.12995  0.040524082  0.040593934           12 
 1122000   0.81718559   -5.2408272    544.76013  0.040460496  0.040570204           10 
 1123000    0.8215714   -5.2663495    544.78644   0.04042642  0.040546697           11 
 1124000   0.79490577   -5.2870362    544.93233   0.04040127   0.04052275            6 
 1125000   0.80028427   -5.2562951    546.65031  0.040492616  0.040499222            6 
 1126000      0.78895   -5.2556835    544.78366  0.040318507   0.04047525            5 
 1127000   0.81310365   -5.2552433    545.51454  0.040336774  0.040451502            7 
 1128000   0.80122377   -5.2481721    545.36926  0.040290282  0.040427897            3 
 1129000   0.81623358    -5.251772    546.32414  0.040325077  0.040404424           10 
 1130000   0.79053129   -5.2441287     546.4434  0.040298186  0.040380852            7 
 1131000   0.80234826   -5.2477654    547.83313  0.040364952  0.040357235            7 
 1132000    0.8161598   -5.2277915    546.79571  0.040252923  0.040334096            5 
 1133000   0.81027558   -5.2461421    546.92354  0.040226797  0.040310775           11 
 1134000   0.79658842   -5.2383534    549.03194  0.040346262  0.040287797            4 
 1135000   0.79376036   -5.2566848    548.56473  0.040276412  0.040264561            6 
 1136000    0.8025237   -5.2458672    546.95952  0.040123204  0.040241269            5 
 1137000   0.79281671    -5.271183    548.01869  0.040165544  0.040217759            8 
 1138000   0.80279584   -5.2812466    549.09829  0.040209307  0.040194453            2 
 1139000   0.82350568   -5.2348939    548.52631  0.040132156  0.040171232            6 
 1140000   0.81127208   -5.2455315    547.21796  0.040001313  0.040148029            5 
 1141000   0.79740396   -5.2495516     551.1039  0.040250066  0.040124745            4 
 1142000   0.79294933   -5.2627865    548.07731  0.039993966  0.040101367            4 
 1143000   0.79106052    -5.231333     550.9912   0.04017142  0.040078026            6 
 1144000   0.80430736   -5.2980994    549.58047  0.040033542  0.040054693            8 
 1145000   0.77887135   -5.2522051    549.92828  0.040023892  0.040031305            4 
 1146000   0.80684228   -5.3048582     548.5084  0.039885719  0.040007662            6 
 1147000   0.81571848   -5.2562147    550.11002  0.039967308   0.03998427            7 
 1148000    0.7777015   -5.2563689    549.51844   0.03988955  0.039960988            4 
 1149000   0.79505586   -5.2892915      548.364  0.039771105  0.039937363            6 
 1150000   0.80373122   -5.2495795    550.48043  0.039889886  0.039914021            4 
 1151000   0.77783802   -5.2748584    550.39608  0.039849122  0.039890547            7 
 1152000   0.78575427   -5.2407848     550.4545  0.039818757  0.039867326            6 
 1153000   0.77994606   -5.2748186    551.37885   0.03985103   0.03984409           11 
 1154000   0.80615091   -5.2746623     549.9881  0.039716068  0.039820598           10 
 1155000   0.79071752   -5.2627478    551.06767  0.039759572   0.03979724            9 
 1156000   0.79393929   -5.2530903    550.40109  0.039677126  0.039773848            4 
 1157000   0.77449001   -5.2417382    551.46351  0.039719354  0.039750341            5 
 1158000   0.78622586   -5.2637061     550.7339  0.039632549  0.039727033           14 
 1159000   0.78929193   -5.2630514    551.68892   0.03966702  0.039703358            6 
 1160000   0.78923066   -5.2743507    550.64126  0.039557562  0.039680038            8 
 1161000   0.78982636   -5.2426323    550.05274  0.039481247  0.039656528           11 
 1162000   0.79671871   -5.2732168    552.03066  0.039589118  0.039632881            3 
 1163000   0.80763261   -5.2809657    551.69245  0.039530843   0.03960918            8 
 1164000   0.78498947   -5.2765546    550.19477   0.03938966  0.039585572            7 
 1165000   0.79753362   -5.2551359     551.9664  0.039482575  0.039561842           10 
 1166000   0.79145367   -5.2863587    551.35543  0.039405048  0.039538063            5 
 1167000   0.77278172   -5.2750954    552.22083  0.039433078  0.039514356            6 
 1168000    0.7989498   -5.2839903    550.31351  0.039263236  0.039490525            5 
 1169000   0.78906394   -5.3132671    551.27214  0.039297985  0.039466616           10 
 1170000   0.79234226   -5.2683986    553.51637  0.039424243  0.039442692            3 
 1171000   0.79052497   -5.2950982    551.59098  0.039253557  0.039418734            5 
 1172000   0.79891452   -5.3097414     550.5235  0.039144162  0.039394528            7 
 1173000   0.78045966   -5.2816489    551.54613  0.039183442  0.039370425            7 
 1174000    0.8041611   -5.2752271    551.65768  0.039157984  0.039346569            7 
 1175000   0.77769961   -5.3011305    552.20675  0.039163599  0.039322561            7 
 1176000   0.78980104   -5.2775245    551.33268  0.039068359  0.039298465            5 
 1177000   0.77238413   -5.2886285    552.11729  0.039090717  0.039274135           13 
 1178000   0.77238396   -5.2691936    553.37978  0.039146844  0.039249836           10 
 1179000   0.78682437   -5.2801409    551.46256  0.038978128  0.039225547            8 
 1180000   0.78894021   -5.2978438    553.39684  0.039081698  0.039201292            9 
 1181000   0.78501697    -5.257314     551.9347  0.038945434  0.039177076            7 
 1182000   0.77406128    -5.279845    552.98067  0.038986229  0.039152982            6 
 1183000   0.78780033   -5.3151738    552.13203  0.038893493  0.039128864            9 
 1184000   0.77243316   -5.2925401    552.11961   0.03885977  0.039104754            9 
 1185000   0.79896169    -5.303402    552.50745  0.038854251   0.03908066           28 
 1186000   0.76912601   -5.2763779    553.59952  0.038898224  0.039056415            7 
 1187000   0.76135683   -5.3284796     552.5652  0.038792839  0.039032192            5 
 1188000   0.76530674   -5.3093021     552.1518  0.038731187  0.039008148           14 
 1189000   0.76674588    -5.318625    554.56537  0.038867772  0.038983925            2 
 1190000   0.78373136   -5.3088786    554.08785   0.03880167  0.038959785            7 
 1191000   0.76917889   -5.3145502    554.56412  0.038802416  0.038935856           15 
 1192000   0.78312448   -5.2860932    554.13289  0.038739715  0.038911853            5 
 1193000   0.77844375   -5.2775203    554.30864  0.038719519  0.038887876            7 
 1194000    0.7774411   -5.2934164    555.65175  0.038780832  0.038864188           10 
 1195000   0.76598922   -5.3235916    553.77004  0.038617158  0.038840169           18 
 1196000   0.76800373   -5.3106837    555.57319  0.038710506  0.038816264            3 
 1197000    0.7752956   -5.3158672    555.18662  0.038651255  0.038792441            5 
 1198000   0.77377801   -5.3088052    556.17329  0.038687624  0.038768739            4 
 1199000   0.75892547   -5.3281616    554.50258  0.038539239  0.038744895            5 
 1200000   0.75930028   -5.3223444    555.08891  0.038547841  0.038720907            4 
 1201000   0.80926649   -5.3132476    555.23092  0.038525598  0.038696865            7 
 1202000   0.78319588   -5.2986688    556.35995  0.038571821  0.038673116            5 
 1203000   0.76274857    -5.314204    556.20613  0.038529103  0.038649372            5 
 1204000   0.77447403   -5.3115681       555.66  0.038459302  0.038625289           10 
 1205000   0.76206267   -5.3182567      557.564  0.038559059  0.038601484            3 
 1206000    0.7608795   -5.3317585    556.49759  0.038453399  0.038577761            8 
 1207000   0.77268623   -5.3101304    557.79655  0.038511223  0.038553963            7 
 1208000   0.76429319   -5.3026993    555.00727  0.038286925  0.038530108            5 
 1209000   0.76725569   -5.2923939    556.99464  0.038392241  0.038506397            6 
 1210000   0.76660678    -5.302584     558.4431  0.038460269  0.038482643            6 
 1211000   0.76808769   -5.3216727    557.37978  0.038355338  0.038458756            4 
 1212000   0.76865802   -5.3248717    555.16263  0.038171248  0.038434542            6 
 1213000   0.77665808   -5.3409435    555.16735  0.038140104  0.038410214            7 
 1214000   0.74950905   -5.3424757    556.91799  0.038228857  0.038385875            5 
 1215000   0.75512454   -5.3100371    557.34537  0.038226706   0.03836183            6 
 1216000   0.77567004   -5.3362815    556.89484  0.038164394  0.038337741            8 
 1217000    0.7547107   -5.3381282    556.98514  0.038139218  0.038313503           12 
 1218000   0.75794269   -5.3165661    556.96463  0.038106502  0.038289296            5 
 1219000   0.77025041    -5.333477    555.84389  0.037998626  0.038265155            5 
 1220000   0.77512053   -5.3482217    557.38379  0.038072663  0.038240943           12 
 1221000   0.76905041    -5.333362     558.2444  0.038100218   0.03821698            6 
 1222000   0.78022485    -5.307369    557.82445  0.038040402  0.038193242            6 
 1223000   0.76766121   -5.3221442    557.99539  0.038020945  0.038169189            6 
 1224000   0.76736793   -5.3454232    558.63075  0.038033139    0.0381451            3 
 1225000   0.78135662    -5.327202      558.619  0.038001293  0.038121086           15 
 1226000   0.74634673   -5.3392691     558.6525  0.037972574  0.038097112            7 
 1227000   0.78012099   -5.3242467    559.43932  0.037995064  0.038073226            3 
 1228000   0.76613451   -5.3277125    559.80191  0.037988729  0.038049276            9 
 1229000   0.76706732   -5.3722233     558.6237  0.037877929  0.038025275            9 
 1230000   0.75418468   -5.3307543    560.39858  0.037967383  0.038001366           12 
 1231000   0.75243842   -5.3561524     558.6604  0.037818874  0.037977272           13 
 1232000   0.75126832   -5.3314134    559.14941  0.037821253  0.037953471            7 
 1233000   0.76384782   -5.3187261    558.30536  0.037733533   0.03792944           14 
 1234000   0.78565508   -5.3173516    559.76552  0.037801562   0.03790546            6 
 1235000   0.76799389   -5.3350267    559.47178  0.037751132   0.03788146           13 
 1236000    0.7597245   -5.3498109    557.73135  0.037603246  0.037857417            8 
 1237000   0.74305517   -5.3062941    561.23705  0.037809017  0.037833478            7 
 1238000   0.76019295   -5.3430098    559.95264  0.037692019  0.037809701            5 
 1239000   0.75797881   -5.3396328    560.00925  0.037665405  0.037785817           10 
 1240000   0.76207146   -5.3243322     560.7576  0.037685322  0.037762046            8 
 1241000   0.75823477   -5.3399723    561.08963  0.037677251  0.037738308            5 
 1242000   0.74818214   -5.3572019    560.38709  0.037599778  0.037714492            9 
 1243000   0.77353134   -5.3272299    560.66973  0.037588477  0.037690785            3 
 1244000   0.76366748   -5.3573914    562.27926  0.037666081  0.037667023           10 
 1245000   0.74799575   -5.3502545    560.80037  0.037536839  0.037643214           14 
 1246000   0.76899384    -5.354603    562.39216  0.037613173  0.037619533            6 
 1247000   0.76085777   -5.3495115    561.72148   0.03753819  0.037595726            4 
 1248000   0.75458522   -5.3715412    559.54554  0.037362817  0.037571698            6 
 1249000   0.73542676   -5.3484058    561.38058  0.037455336   0.03754785            7 
 1250000   0.75665632   -5.3591989    559.89085  0.037326057  0.037523932           10 
 1251000   0.75421809   -5.3722749    561.46215  0.037400889  0.037500092           17 
 1252000   0.75574511   -5.3527963    562.71743  0.037454568  0.037476289            5 
 1253000   0.74495394   -5.3525919    561.32897  0.037332334  0.037452546           14 
 1254000   0.74802525   -5.3602174    561.97349  0.037345394  0.037428845            8 
 1255000    0.7433008   -5.3338361    561.87151  0.037308865  0.037405149            5 
 1256000   0.76195422   -5.3865104    562.65189  0.037330937  0.037381586            3 
 1257000   0.74927783    -5.352093    565.69935  0.037503271  0.037358187           12 
 1258000   0.74554663   -5.3780901    563.21189  0.037308684  0.037334567            6 
 1259000   0.76574055   -5.3584253    562.15949  0.037209392  0.037311006            6 
 1260000   0.74278572   -5.3456115    564.56517  0.037338967  0.037287626            5 
 1261000   0.73588426   -5.3912541    563.45227  0.037235809  0.037264192            6 
 1262000   0.73993907   -5.3954145     564.9886  0.037307752  0.037240714            8 
 1263000   0.74425942   -5.3817437    562.47621  0.037112445  0.037217283            4 
 1264000   0.74052714   -5.3702949    565.70091  0.037295682  0.037193931            6 
 1265000   0.72949504   -5.3637431    563.28743  0.037107209   0.03717062           12 
 1266000   0.74616019   -5.3704166    562.99504  0.037058652  0.037147232            7 
 1267000   0.74448891   -5.3913465    563.88667  0.037088048  0.037123877            7 
 1268000    0.7476215   -5.3485585    565.54525    0.0371678  0.037100545            8 
 1269000   0.74589139   -5.3608653    562.13967  0.036914872  0.037077065           12 
 1270000   0.76263378   -5.3570892    564.41493    0.0370351  0.037053658            4 
 1271000   0.75036225   -5.3736714    565.66624  0.037088005  0.037030121            9 
 1272000   0.73770344   -5.3506934    565.58867  0.037053765  0.037006784            7 
 1273000   0.74402536    -5.353408    566.84779  0.037107083  0.036983445            7 
 1274000   0.74280064   -5.3953979    564.06164  0.036895712  0.036960064            5 
 1275000   0.75683605   -5.3657929    564.88444  0.036920551  0.036936546            4 
 1276000   0.73041378   -5.3849346    566.35603  0.036987724  0.036913138           10 
 1277000   0.75528172   -5.4153462    565.52957  0.036904827  0.036889634           13 
 1278000   0.75707873   -5.3775984    564.22787  0.036791071  0.036866062            6 
 1279000   0.75226068   -5.3976331     564.9253  0.036807747  0.036842597            7 
 1280000   0.74177547   -5.3664589    563.89039  0.036711614  0.036819235            6 
 1281000   0.74055289   -5.3982041    565.61687  0.036795269  0.036795843            9 
 1282000   0.72767898   -5.3916683    564.72203    0.0367084  0.036772386           15 
 1283000   0.73083572   -5.3709132    566.60199  0.036801896  0.036749058            4 
 1284000   0.74329453   -5.4038003    565.63279  0.036710332  0.036725712            6 
 1285000   0.72630612   -5.3956158    565.96573  0.036703355  0.036702323            6 
 1286000   0.73943784   -5.3718769    566.56332  0.036713538  0.036678979            8 
 1287000   0.73744326   -5.3961791    564.63121  0.036559907  0.036655676           16 
 1288000   0.73222188   -5.3748073    567.50449  0.036717423  0.036632398            3 
 1289000   0.74329736   -5.3583084    567.29913  0.036675661  0.036609018            8 
 1290000   0.74247983   -5.3692192    566.27472  0.036581054  0.036585598            6 
 1291000   0.74208842   -5.4068831    565.20262  0.036483516  0.036562076            9 
 1292000   0.71768036   -5.3855216    566.92054  0.036566082  0.036538508            7 
 1293000   0.73381606   -5.3665081    566.29077  0.036497214  0.036515023            5 
 1294000   0.73504272    -5.384849    566.42152  0.036477429  0.036491448            5 
 1295000   0.72871244    -5.407137    566.74739  0.036470231  0.036467879            4 
 1296000   0.74963218   -5.3947568    567.12309  0.036466248  0.036444254            6 
 1297000   0.74686119   -5.4031464    565.46976  0.036331904  0.036420642            9 
 1298000   0.74619059   -5.3998809    566.19327  0.036350364  0.036396938           10 
 1299000   0.72510086   -5.4071477    567.15899  0.036384334   0.03637307            9 
 1300000   0.73069958   -5.3979891     564.3023  0.036173224  0.036349451            6 
 1301000    0.7532681    -5.415337    565.59512  0.036228229  0.036325775            7 
 1302000    0.7387822   -5.3786085    567.40816  0.036316446  0.036302035            7 
 1303000   0.73287577   -5.4273429    565.73994  0.036181884  0.036278442            8 
 1304000   0.73414552   -5.3982279    567.05887  0.036238425  0.036254807            4 
 1305000   0.73766653   -5.4072593    565.99265   0.03614257  0.036231056            7 
 1306000   0.71784705   -5.4159265    566.87169  0.036170986  0.036207177           20 
 1307000   0.72668828    -5.408661    568.02578  0.036216895  0.036183454            8 
 1308000   0.74731779   -5.4120508    566.52789  0.036093775  0.036159668            5 
 1309000   0.73064111   -5.4285955    566.20107  0.036045395   0.03613579            9 
 1310000   0.72986162   -5.4121979    565.39389  0.035966533  0.036111833            7 
 1311000   0.72871536   -5.3776591    567.68762  0.036084898  0.036088069            9 
 1312000   0.72711792   -5.4002015     566.7486  0.035997751  0.036064601           14 
 1313000   0.73665725   -5.3858023    566.33748  0.035944242  0.036040955            9 
 1314000   0.72981903   -5.4116521    566.27886   0.03591317  0.036017344            8 
 1315000   0.73127831    -5.415199    567.18594  0.035943342  0.035993466           10 
 1316000   0.72245208   -5.4057378     566.3987  0.035866179  0.035969696           11 
 1317000   0.72630198   -5.4148951    568.41634  0.035966612   0.03594607           12 
 1318000   0.73316309   -5.4130563    567.12291  0.035857543  0.035922309            8 
 1319000   0.74843432   -5.4077976    568.94948   0.03594576  0.035898747           10 
 1320000   0.72507604   -5.4201061    568.52441  0.035891692  0.035875268            6 
 1321000   0.71933859   -5.4385287    566.96238  0.035765984  0.035851646            6 
 1322000   0.73950987   -5.4172688    567.33371  0.035762337  0.035827867           13 
 1323000   0.72326173   -5.4255725    569.21223   0.03585363  0.035804144            5 
 1324000    0.7225568   -5.4471718     567.0088  0.035687865   0.03578027            7 
 1325000   0.72513016   -5.3952978    569.06644  0.035790342  0.035756449            9 
 1326000   0.71781447   -5.4165343    569.04706  0.035762133  0.035733048            6 
 1327000   0.73501477   -5.3795801    569.18221  0.035743671  0.035709617            6 
 1328000   0.71205841   -5.4100155    568.62389   0.03568172  0.035686322            6 
 1329000   0.71196782   -5.4189608    569.67311  0.035720662  0.035662906            8 
 1330000   0.72772361   -5.4137445    569.56769  0.035687198  0.035639468           11 
 1331000   0.70525875   -5.4222712    569.49136  0.035655607  0.035616211            5 
 1332000   0.71645482   -5.4241248    570.08888  0.035666221  0.035592759            6 
 1333000   0.73707677    -5.409605    569.13938  0.035580106  0.035569348           11 
 1334000   0.70400323   -5.4288639    571.10028  0.035675929  0.035546042            3 
 1335000   0.73499383   -5.4451134    569.27334  0.035535165  0.035522589            8 
 1336000    0.7233383   -5.4482867    568.14909  0.035438441  0.035499008           24 
 1337000   0.72491819    -5.434861    570.30565  0.035546351  0.035475601            8 
 1338000    0.7130499    -5.439855    567.36997  0.035336944  0.035452088            7 
 1339000   0.71589229   -5.4220231    570.73377  0.035519901  0.035428692            8 
 1340000   0.73157693   -5.4374172    568.06678  0.035327536  0.035405204           15 
 1341000   0.71025147   -5.4236232    570.12698  0.035429218  0.035381744           11 
 1342000   0.71339943   -5.4306962    569.75431  0.035379677   0.03535837            9 
 1343000   0.70293064   -5.4242139    569.54277  0.035340207  0.035334863            4 
 1344000   0.72234287   -5.4509122    567.34174  0.035177439  0.035311218            8 
 1345000   0.71743757   -5.4638959    568.50602  0.035223421  0.035287455           12 
 1346000   0.71305879   -5.4730283    568.00637  0.035166318  0.035263827            9 
 1347000    0.7197783   -5.4360408    568.46197  0.035168397  0.035240253           11 
 1348000   0.71360704   -5.4467974     568.0488  0.035116766  0.035216475           14 
 1349000   0.70696876   -5.4499004    569.77829  0.035197572  0.035192718           10 
 1350000   0.72533614   -5.4353281    569.73372  0.035168748  0.035169092            8 
 1351000   0.72310155   -5.4475393    569.29879  0.035115889  0.035145619            5 
 1352000   0.69780882   -5.4491554    568.90252  0.035065491  0.035122042            4 
 1353000   0.71273119   -5.4477348    569.40174  0.035070322  0.035098319            8 
 1354000   0.72016688   -5.4521292    570.63193  0.035120133  0.035074656            5 
 1355000   0.71789147   -5.4462594    568.84114   0.03498408  0.035050998            7 
 1356000   0.70916793   -5.4359925    568.59735  0.034943298  0.035027457            9 
 1357000   0.71899112    -5.446615    569.34784  0.034963636   0.03500387           12 
 1358000   0.69282895    -5.451991    569.34642  0.034937802  0.034980385            8 
 1359000   0.69768539   -5.4303634    570.25821  0.034968004  0.034956853            6 
 1360000   0.71283657   -5.4377391    570.88964  0.034980983  0.034933425            6 
 1361000   0.70964907   -5.4606845    570.16683  0.034911023  0.034909923           16 
 1362000   0.71596787    -5.440877    569.61159  0.034851419  0.034886471            5 
 1363000    0.7096224   -5.4215936    570.88562  0.034903743  0.034863179           14 
 1364000    0.7055058   -5.4477911    571.18626  0.034896521  0.034839834            6 
 1365000   0.70678576   -5.4872458    569.38139  0.034760768  0.034816472           12 
 1366000   0.69331564   -5.4943497    570.27722  0.034789972  0.034793091            5 
 1367000   0.70496054   -5.4491053    571.30707  0.034827303  0.034769647            6 
 1368000    0.6943627   -5.4470748    571.23944  0.034797724  0.034746293            8 
 1369000   0.71769505   -5.4561121    572.03695  0.034820852  0.034722915            6 
 1370000   0.69466135   -5.4475574    571.64753  0.034771748  0.034699723            5 
 1371000   0.72058782   -5.4587032    571.35262   0.03472846  0.034676636            9 
 1372000   0.70529395   -5.4647938    571.74105   0.03472674  0.034653549            5 
 1373000   0.69018319    -5.422193    574.04998  0.034841586  0.034630523            7 
 1374000   0.70712301   -5.4680783    572.38032  0.034714964  0.034607488            4 
 1375000   0.69622065   -5.4347372    573.36813  0.034749584  0.034584612            8 
 1376000   0.69953509   -5.4423466    572.50976  0.034672345  0.034561687            9 
 1377000   0.71125598   -5.4400527      572.048  0.034619221  0.034538579            5 
 1378000   0.71398788   -5.4766608    572.13928  0.034599618  0.034515644           11 
 1379000   0.69390996   -5.4620611    572.69681  0.034608219   0.03449267           15 
 1380000   0.71151533   -5.4563972     572.4371  0.034567457  0.034469675            7 
 1381000   0.71126368   -5.4910316    571.49644  0.034485665  0.034446555            7 
 1382000   0.70178244   -5.4745448     572.2529  0.034506325  0.034423483           15 
 1383000   0.68713875   -5.4756656     573.1122  0.034533152  0.034400316           15 
 1384000   0.69637432   -5.4798214    573.12746   0.03450912  0.034377162           17 
 1385000   0.70481731   -5.4752383    572.11167  0.034423085  0.034354031            4 
 1386000   0.69744682   -5.4849842    573.00784  0.034452131  0.034330984            5 
 1387000    0.6987489   -5.4932094    573.93345  0.034482904  0.034308065           16 
 1388000   0.69075202   -5.4699044    573.89705  0.034455875   0.03428496           11 
 1389000    0.6983526    -5.467706    575.09201   0.03450276   0.03426205           11 
 1390000   0.70762527   -5.4313902    572.92526  0.034348037  0.034239083           21 
 1391000   0.70902074   -5.4693829     573.4698  0.034355967  0.034216026            7 
 1392000   0.68561344   -5.4446634    574.14901  0.034371947   0.03419302            5 
 1393000   0.69295548   -5.5026651     571.8117  0.034207448  0.034169921           12 
 1394000   0.70653372   -5.4988828    570.84328  0.034125017  0.034146743            5 
 1395000   0.68484624   -5.4821227    573.42537  0.034254801  0.034123738            8 
 1396000   0.69640217   -5.4904809    573.51516  0.034235623  0.034100841           12 
 1397000   0.70997924   -5.4900734    573.42437  0.034205701  0.034078084           16 
 1398000   0.68353944   -5.4767374    574.43674  0.034241579  0.034055247            6 
 1399000   0.68655743   -5.4971423    572.29934  0.034089787  0.034032434           18 
 1400000    0.6795109   -5.4771837    574.15431  0.034175852  0.034009678            7 
 1401000   0.69739009   -5.4820943    573.68934  0.034123801  0.033986812            6 
 1402000   0.69132429    -5.482156    573.90809  0.034112464  0.033964137           11 
 1403000   0.69564334   -5.4888352    574.21606  0.034106442   0.03394151           11 
 1404000   0.69840217    -5.491637    575.22583  0.034142084  0.033918743           22 
 1405000   0.69342643   -5.4877321    575.79186  0.034151356  0.033896123           14 
 1406000   0.69918819   -5.4986792    574.58331  0.034055435  0.033873472           12 
 1407000   0.69606057   -5.4835422    575.91648  0.034110192  0.033851089            7 
 1408000   0.70195663   -5.5108678     574.3695  0.033994407  0.033828572            5 
 1409000    0.6924794   -5.4734455    574.99682  0.034007382  0.033806124           18 
 1410000   0.67347028   -5.4667144    576.07472   0.03404697  0.033783725            8 
 1411000   0.69762675   -5.4982787    573.36707  0.033862926   0.03376125           12 
 1412000   0.68451958   -5.4901637    575.77069  0.033980801  0.033738669            9 
 1413000   0.68829596   -5.4937894    576.01602  0.033971221  0.033716253            6 
 1414000   0.69205445   -5.4740686    575.61328   0.03392346  0.033693837           11 
 1415000   0.68416395   -5.5123797    576.13182  0.033930025  0.033671263            6 
 1416000   0.69488712    -5.511976    573.87594  0.033773302   0.03364874           10 
 1417000   0.69219851   -5.5185151    574.81371  0.033804617  0.033626059           10 
 1418000   0.69189287   -5.4948068    576.50376  0.033880099  0.033603483           10 
 1419000   0.68568665   -5.5030546    575.88602  0.033819945  0.033580773            9 
 1420000   0.69316242   -5.5127177    575.79686  0.033790896  0.033558223           12 
 1421000   0.68971191   -5.5172301    573.34365  0.033623249  0.033535538            9 
 1422000   0.68147563   -5.5056079    575.12723  0.033704127  0.033512998            5 
 1423000   0.68090255    -5.518675    573.86145  0.033606316  0.033490407           22 
 1424000   0.68692724   -5.5029529    575.49155   0.03367811  0.033467749           10 
 1425000   0.69000673   -5.5008941    576.08755   0.03368933  0.033445214            5 
 1426000   0.68695493   -5.4693266    577.30267  0.033736715   0.03342296            7 
 1427000   0.69648436   -5.5001508    575.60339   0.03361384  0.033400539            8 
 1428000   0.67408876   -5.5107295    574.98486  0.033554205  0.033378032           11 
 1429000   0.67494023   -5.4672253    576.40227  0.033613382  0.033355517            8 
 1430000   0.67489943   -5.5317064     576.6338  0.033603368  0.033333091            8 
 1431000   0.66532809   -5.5050147    577.16536  0.033610841  0.033310653           10 
 1432000   0.67069826   -5.5412251    575.86863  0.033511908  0.033288245           10 
 1433000   0.68467179   -5.5200527    577.79166  0.033600352  0.033265807           10 
 1434000   0.69902183   -5.5115369     578.0815  0.033593764  0.033243449           12 
 1435000   0.68952493   -5.5455116      576.519  0.033479617  0.033221226            9 
 1436000   0.68540388    -5.537584    576.46348   0.03345308  0.033199071           11 
 1437000    0.6633112   -5.5604969    576.53628  0.033434022  0.033176879           16 
 1438000   0.67107057   -5.5214981    578.36377  0.033516677   0.03315481           10 
 1439000   0.68637939   -5.5266444    578.35995  0.033493164  0.033132743           12 
 1440000   0.67129704   -5.5361341    577.39843  0.033414261   0.03311064           11 
 1441000   0.67128249   -5.5222111    578.82418  0.033473524  0.033088632            8 
 1442000    0.6787136   -5.5273797     577.7348  0.033387355  0.033066636            7 
 1443000   0.68083361   -5.5318534    579.63006  0.033473669  0.033044712           10 
 1444000   0.66585821   -5.4999469    579.59851  0.033448667  0.033022762            6 
 1445000   0.66320522   -5.5224871    578.22185  0.033346128  0.033000913            9 
 1446000   0.67166794   -5.5303207    577.88164   0.03330346  0.032979139           13 
 1447000   0.67883916   -5.5156108    579.04047  0.033347182  0.032957325            8 
 1448000    0.6654022   -5.5347764    578.22646  0.033277305  0.032935447           10 
 1449000   0.68721939   -5.5157714    579.74143  0.033341467  0.032913593            5 
 1450000   0.66384195   -5.5468567    579.93624  0.033329669  0.032891758            9 
 1451000   0.67163482   -5.5473784    577.80359  0.033184217  0.032869838            7 
 1452000   0.68323689   -5.5305317    579.67817  0.033268949   0.03284804           13 
 1453000   0.67130781   -5.5426034    579.61439  0.033242394  0.032826127           19 
 1454000   0.67956479   -5.5366457    579.41878   0.03320832   0.03280435           17 
 1455000    0.6734571   -5.5542666    578.73365  0.033146257  0.032782612            9 
 1456000   0.66013087   -5.5635723    578.09031   0.03308667  0.032760872           11 
 1457000   0.67476214   -5.5281351    579.37523  0.033137453  0.032739089           12 
 1458000   0.67341484   -5.5190188    581.04242  0.033210015  0.032717269           20 
 1459000   0.67668526   -5.5663037    579.18011  0.033080884  0.032695579           16 
 1460000   0.64963288   -5.5390183    580.29641  0.033121941   0.03267388            9 
 1461000   0.67177792   -5.5288248    579.21353  0.033037505  0.032652193           11 
 1462000   0.66204764   -5.5422789    580.10556  0.033065752  0.032630432           10 
 1463000   0.69084777   -5.5391612    579.05669  0.032983407  0.032608755            5 
 1464000   0.66749931   -5.5569733     578.4485  0.032926258   0.03258709           11 
 1465000   0.65671116    -5.542172    578.67989  0.032916945  0.032565304           14 
 1466000   0.66453592   -5.5381425    579.82006  0.032959303  0.032543537           10 
 1467000   0.66657461   -5.5349809    579.60913  0.032924854  0.032521924            8 
 1468000   0.66184491   -5.5610908     579.6752  0.032906176  0.032500133            8 
 1469000   0.66850919   -5.5614361    578.70433  0.032828701  0.032478283           14 
 1470000   0.67124924   -5.5830819    579.29506  0.032839856  0.032456307           22 
 1471000   0.66255197   -5.5864774     578.3616   0.03276465  0.032434352           10 
 1472000   0.66212978   -5.5412727    579.84604  0.032826429  0.032412524           17 
 1473000   0.66730545   -5.5568913    580.77781  0.032856857  0.032390741            9 
 1474000   0.64882968   -5.5615055     579.1972  0.032745206  0.032368973           11 
 1475000   0.66143459   -5.5372617    577.82053  0.032645228  0.032347194           10 
 1476000   0.67494365   -5.5584569    578.59714  0.032666957  0.032325428           13 
 1477000    0.6611072    -5.598474    578.42995  0.032635407  0.032303423            8 
 1478000   0.66812245   -5.5769637    579.11359  0.032651871  0.032281457            9 
 1479000   0.65542198   -5.5853192    579.01813  0.032624416  0.032259557            9 
 1480000   0.66484186   -5.5564808    579.03344  0.032603234  0.032237497           11 
 1481000   0.66361241   -5.5642813    579.20281   0.03259075  0.032215497           13 
 1482000   0.65251052   -5.5771982    579.21967  0.032569707  0.032193514           20 
 1483000   0.67401509   -5.5783221    577.85404  0.032471007  0.032171526           19 
 1484000   0.64668588   -5.5761429     580.0827  0.032574275  0.032149693           15 
 1485000    0.6652037   -5.5755623     580.3806  0.032569058  0.032127829           21 
 1486000   0.66704529   -5.5774715    579.60917  0.032503879  0.032106097            5 
 1487000   0.65494074   -5.5505632    580.77318  0.032547253  0.032084386           13 
 1488000   0.66762074   -5.5900906     580.4345  0.032506413  0.032062692           10 
 1489000   0.66270247   -5.5662477    579.92885  0.032456282  0.032040921           15 
 1490000   0.65061866   -5.5683216    579.35491    0.0324024   0.03201907            8 
 1491000   0.68141241   -5.5498821     579.8216  0.032406752  0.031997332           10 
 1492000   0.64607902   -5.5730232    580.64975  0.032431286  0.031975678            5 
 1493000   0.64678229   -5.5925128    578.68362  0.032299823   0.03195391           17 
 1494000   0.66795426   -5.5799542    580.86153  0.032399684  0.031932204           29 
 1495000   0.66063037   -5.5787632      579.838  0.032320959  0.031910481           14 
 1496000   0.65077241    -5.602763     578.3792  0.032218093  0.031888677           21 
 1497000   0.66696458   -5.5669012     579.9546  0.032284269  0.031866893           16 
 1498000   0.66014212   -5.5833407    581.06113  0.032324273  0.031845131            8 
 1499000   0.67231201    -5.582751    578.97212  0.032186576  0.031823512           13 
 1500000   0.64689173   -5.5501827    581.85202  0.032325112   0.03180207            8 
 1501000   0.64989719   -5.5804932    580.39415  0.032222638  0.031780527           10 
 1502000   0.65117332     -5.56455    579.75512   0.03216573  0.031758874            9 
 1503000   0.64628789   -5.5873743     579.7205  0.032142409  0.031737219           13 
 1504000   0.63947064   -5.5901735     580.2029  0.032147767  0.031715639            8 
 1505000   0.65553332   -5.5978565    580.68063  0.032152859  0.031693932           15 
 1506000     0.646063   -5.6088346    581.75285  0.032190839  0.031672387           21 
 1507000   0.65245989   -5.5644785     581.8546  0.032175105  0.031650875           29 
 1508000   0.64675331   -5.6096953    579.70933   0.03203522  0.031629378           11 
 1509000   0.63520192   -5.5964006    580.80964  0.032074754   0.03160789            7 
 1510000   0.64739646   -5.6041634    580.94241  0.032060839  0.031586425           11 
 1511000   0.63746842   -5.5854678    581.02426  0.032044135  0.031564876            8 
 1512000   0.63862729   -5.6026159    579.27788  0.031926691  0.031543309           15 
 1513000    0.6484676   -5.5803811    580.19502  0.031956104  0.031521772            7 
 1514000    0.6584919   -5.5719235    580.87929   0.03197266  0.031500394           36 
 1515000   0.65796069   -5.6235184    581.34638  0.031977249  0.031478972            7 
 1516000   0.63415073   -5.5872756    581.10273  0.031942762  0.031457657           13 
 1517000   0.64728118     -5.59334     581.3489  0.031935228  0.031436292           12 
 1518000   0.65543688   -5.5798547    582.11953  0.031956496  0.031414871            4 
 1519000   0.65145555   -5.5871892    581.36707  0.031894178  0.031393541            8 
 1520000   0.64359578   -5.5970858    580.67879   0.03183546  0.031372045           10 
 1521000    0.6378199   -5.5819513    581.24031  0.031845294  0.031350736           10 
 1522000   0.65288308   -5.5941066    581.86475   0.03185856  0.031329521            7 
 1523000   0.64104605   -5.5981735    580.87749  0.031783623   0.03130821           17 
 1524000   0.64512774   -5.6039413    581.35379  0.031788812  0.031286888           14 
 1525000   0.64502523   -5.5903263    582.87187  0.031850922  0.031265619            8 
 1526000   0.65297346   -5.5821878    581.56057  0.031758441  0.031244417            8 
 1527000   0.63454916   -5.6114362    581.39381  0.031728543  0.031223123            9 
 1528000   0.64832686   -5.5890861    583.90004  0.031844461   0.03120187           16 
 1529000   0.63535345   -5.6045527    581.31704  0.031682856    0.0311806           18 
 1530000   0.63113487    -5.577717    581.30558  0.031661524  0.031159211            5 
 1531000   0.63205797   -5.6030547    582.01533  0.031679476  0.031138049           10 
 1532000   0.63008833    -5.616071    582.40126   0.03167979  0.031116807           12 
 1533000   0.65058163   -5.5926913    580.56777  0.031559457  0.031095559            7 
 1534000   0.62925309   -5.5826217    583.01076  0.031671597  0.031074451           10 
 1535000   0.64313815    -5.608576    581.18781  0.031551998  0.031053297           13 
 1536000   0.63724165    -5.622961    581.47359  0.031546961  0.031032111           15 
 1537000   0.65126252   -5.6220443    582.56282  0.031585492  0.031010895            5 
 1538000   0.63824279   -5.6552682     582.0555  0.031537468  0.030989701            8 
 1539000   0.63901716   -5.6059852    582.76713  0.031555509  0.030968508            9 
 1540000   0.63421244   -5.6002958    583.00447  0.031547861  0.030947376           21 
 1541000   0.63094979   -5.6456656    583.52208   0.03155538  0.030926288           14 
 1542000   0.62782199   -5.6531413    580.38908  0.031365601  0.030905151           17 
 1543000   0.63471466   -5.6057643    582.71145  0.031470698  0.030884027           29 
 1544000   0.64428122   -5.6289584    581.48989  0.031384385  0.030863001            6 
 1545000   0.62335836   -5.6317141    582.32278  0.031408996  0.030841974           12 
 1546000    0.6480562   -5.6184753    584.02019  0.031480174   0.03082099            6 
 1547000   0.62390048   -5.6085916    583.11831  0.031411243   0.03079999           10 
 1548000   0.63906658   -5.6248674    583.66493  0.031420378  0.030779054           12 
 1549000   0.63570857   -5.6241135    581.29016  0.031272335   0.03075806           16 
 1550000   0.61993929   -5.6154062    581.15182  0.031244722  0.030736964           11 
 1551000   0.62329213   -5.6266352    582.22418  0.031282193   0.03071595            6 
 1552000   0.62926812   -5.6156406    581.80036  0.031239281  0.030694895            8 
 1553000     0.629086   -5.6378777     582.1276  0.031236725  0.030673862            9 
 1554000   0.63316936   -5.6325715    580.72827  0.031141584  0.030652769            8 
 1555000   0.63981264   -5.6179307    581.80744  0.031179391  0.030631673            8 
 1556000   0.62910606   -5.6147354    581.51889  0.031143899  0.030610644            9 
 1557000   0.62073313   -5.6403757    582.51961  0.031177457  0.030589617           13 
 1558000   0.61973055    -5.647059    580.67656  0.031058866   0.03056851            8 
 1559000   0.63165905    -5.636155    582.43478  0.031132926  0.030547473            8 
 1560000   0.63251712   -5.6321914    581.85008  0.031081735  0.030526476           14 
 1561000    0.6364563   -5.6196837    582.27063  0.031084274  0.030505485           13 
 1562000   0.61730825   -5.6458997    582.24519  0.031063017  0.030484556           11 
 1563000   0.63406938   -5.6398719    580.27347  0.030938018  0.030463564           10 
 1564000   0.61837417   -5.6212196    581.90299  0.031005062  0.030442619            7 
 1565000   0.63246596   -5.6408994    581.75341  0.030977285  0.030421634           15 
 1566000   0.63019927   -5.6379516    581.03928  0.030919502  0.030400666           25 
 1567000   0.62150937   -5.6518951    581.85513  0.030943157  0.030379715           22 
 1568000   0.61610687   -5.6553359    583.44592  0.031007968  0.030358729           28 
 1569000   0.61384531   -5.6641641    581.08798  0.030862969  0.030337716            9 
 1570000   0.63262884   -5.6566649    582.59059  0.030923068  0.030316633           28 
 1571000    0.6191679   -5.6401364    580.89876  0.030813641  0.030295584           28 
 1572000   0.62581045   -5.6431555    583.02615  0.030906814  0.030274588           13 
 1573000   0.62644984   -5.6254786    581.76005  0.030820091  0.030253745           22 
 1574000    0.6205402   -5.6583254    581.83979  0.030804733    0.0302328           11 
 1575000   0.61757947   -5.6444213    580.85074  0.030732843  0.030211726            9 
 1576000   0.62803933   -5.6638687    582.27918  0.030788874  0.030190734           10 
 1577000   0.62485836   -5.6553049    582.06146  0.030757845  0.030169696            9 
 1578000   0.62459805   -5.6480037     581.6061  0.030714306    0.0301486           10 
 1579000   0.62283271   -5.6589867    581.15281  0.030670932  0.030127574           12 
 1580000   0.62443558   -5.6531514    580.45555  0.030614744   0.03010657           22 
 1581000   0.62655192   -5.6368536    582.36651  0.030696105  0.030085663           11 
 1582000   0.62550256    -5.650521    582.36348  0.030676542   0.03006483            6 
 1583000   0.62108821   -5.6328347    584.36419  0.030762486   0.03004405           10 
 1584000   0.63383095   -5.6558002    581.59603  0.030597434  0.030023168           10 
 1585000   0.62807533   -5.6576969    583.99378  0.030704194  0.030002243           20 
 1586000   0.62613147   -5.6381451    582.72619  0.030618232  0.029981388            9 
 1587000   0.61319279   -5.6417513    581.06279  0.030511594  0.029960512           12 
 1588000   0.61600294   -5.6264235    582.23409  0.030553846  0.029939611           15 
 1589000   0.62925789   -5.6523445    581.97764  0.030521168  0.029918681           18 
 1590000   0.62242284   -5.6534485    582.12685  0.030509793  0.029897696           14 
 1591000   0.62100352   -5.6525146    581.50372  0.030457978  0.029876867           18 
 1592000   0.62273723   -5.6786916    580.27068  0.030374303  0.029855988           15 
 1593000   0.61572816   -5.6571935    581.43486  0.030416136  0.029835145           11 
 1594000   0.61355871    -5.655691    581.38858  0.030394635  0.029814308           23 
 1595000   0.60432308    -5.659042    581.70797  0.030392266  0.029793485           20 
 1596000   0.61625689   -5.6788653    581.86766  0.030381561  0.029772746           13 
 1597000   0.62402282   -5.6678074    582.33694  0.030387025  0.029751936           20 
 1598000   0.61645196   -5.6574474    582.17495  0.030359561  0.029731145           10 
 1599000   0.60273365   -5.6475436    583.35017  0.030401823  0.029710466           12 
 1600000   0.60774338   -5.6848778    582.95636   0.03036231  0.029689809           12 
 1601000   0.61097201   -5.6714555    583.73716  0.030383987  0.029669205           20 
 1602000   0.61796425   -5.6779132    583.16031  0.030335014  0.029648634           15 
 1603000   0.61583385   -5.6995455     582.9837  0.030306909  0.029627963            8 
 1604000   0.62274985   -5.6951866    582.54059  0.030264993  0.029607278           11 
 1605000   0.61219132   -5.6924606    583.49253  0.030295562   0.02958654           10 
 1606000   0.60673204   -5.6950855    581.70414  0.030183901   0.02956581           36 
 1607000   0.60734875   -5.6834633    582.91105  0.030227704  0.029545147           14 
 1608000   0.62156304   -5.6751659    583.09534  0.030218457  0.029524548           20 
 1609000   0.61712878   -5.6902664    582.81436  0.030185123  0.029503868           13 
 1610000   0.62034276   -5.6756459    583.11727  0.030182053  0.029483349            7 
 1611000   0.61306926   -5.6742934    581.57763  0.030083676  0.029462802           10 
 1612000   0.60470251   -5.6688664    583.18439  0.030148077   0.02944228           13 
 1613000   0.60781891   -5.7365233    582.91644  0.030115542  0.029421714           18 
 1614000   0.59618847   -5.6867363    583.15944   0.03010943  0.029401169           18 
 1615000   0.61254082   -5.7045642    583.48809  0.030107744  0.029380663           11 
 1616000    0.6144876   -5.6621313    584.98479  0.030166295  0.029360233           21 
 1617000   0.60549652   -5.6972217    582.45019  0.030017017  0.029339729           57 
 1618000   0.60835284    -5.716201    582.04254  0.029977469  0.029319134           50 
 1619000   0.59696302   -5.6816193    582.25258  0.029969764  0.029298572           54 
 1620000   0.60319812   -5.7168577    582.24358  0.029950801  0.029278026           20 
 1621000   0.59304552   -5.6919198    582.07333  0.029923572  0.029257493           21 
 1622000   0.60340754   -5.6959283    582.35321  0.029919503  0.029236875           11 
 1623000   0.61056288   -5.6906928    582.26823  0.029896705  0.029216288           19 
 1624000   0.61391932    -5.685884    583.30432  0.029931462  0.029195731           15 
 1625000   0.61995466    -5.701815    580.65339  0.029777097  0.029175177           16 
 1626000   0.60316881   -5.6946829    583.06585  0.029882424  0.029154579           21 
 1627000   0.60214609   -5.7169877    581.64806  0.029791439  0.029134034           19 
 1628000   0.59948783    -5.693838    583.15811  0.029850436  0.029113531           17 
 1629000   0.59366917    -5.709382    582.92821  0.029820351  0.029093049           33 
 1630000   0.60835325   -5.7179168    581.90315   0.02974965  0.029072533           32 
 1631000   0.59186773   -5.7255993    581.88224  0.029730341  0.029052035           13 
 1632000    0.5992469   -5.7155006    580.26045  0.029629312  0.029031462           13 
 1633000    0.5940155   -5.7233723    582.83468  0.029742533  0.029010891           38 
 1634000   0.59452705     -5.71624    580.60921  0.029610833   0.02899028           21 
 1635000   0.60045541    -5.706414    580.97385  0.029611307  0.028969734           31 
 1636000   0.59292841   -5.7037178    581.26627  0.029608102   0.02894921           12 
 1637000    0.5905959    -5.725332    582.06528   0.02963069  0.028928638           16 
 1638000    0.5959846   -5.7370576    581.55693  0.029586738   0.02890807           21 
 1639000   0.58046965   -5.6977617    582.47652  0.029615442  0.028887558           21 
 1640000   0.61114676   -5.7235971    581.93759  0.029569999  0.028867079           29 
 1641000   0.59767126   -5.7220142    582.39129   0.02957502  0.028846644           16 
 1642000    0.5960943   -5.7271511    581.99051  0.029536668  0.028826201           19 
 1643000   0.59369935   -5.7232814    581.97838  0.029518076  0.028805712           36 
 1644000   0.59246777   -5.7393802    581.59971  0.029480926  0.028785338           15 
 1645000   0.59048729   -5.6961271    581.97762  0.029482149  0.028764977           30 
 1646000   0.59554235   -5.7102134    582.33181  0.029482169  0.028744678           26 
 1647000   0.60541546   -5.6994134    583.05152  0.029500684  0.028724383           28 
 1648000   0.60458573   -5.7187975     582.8713   0.02947367  0.028704075           23 
 1649000   0.59382507   -5.7212385    581.23982  0.029373348  0.028683751           32 
 1650000   0.59173585   -5.7240599    583.35059  0.029462151  0.028663431           10 
 1651000   0.60412225   -5.7560517    581.97942  0.029375097  0.028643187           44 
 1652000   0.59906087   -5.7239096    581.98329   0.02935751  0.028622969           26 
 1653000   0.59222722   -5.7186543     582.4527  0.029363415  0.028602757           10 
 1654000    0.5911181   -5.7018847    581.82325  0.029313948  0.028582536           15 
 1655000   0.58526983   -5.7268537    582.67141  0.029338943   0.02856232           33 
 1656000   0.59511646   -5.7297132    583.00445  0.029337986  0.028542134           13 
 1657000      0.58284   -5.7434866    582.43627  0.029291705  0.028521894           25 
 1658000   0.60375893   -5.7136504    583.49116  0.029327059  0.028501647           24 
 1659000   0.58174465   -5.6978569    583.10741  0.029290105  0.028481485           16 
 1660000    0.6020456   -5.7258679     584.6025  0.029347515  0.028461385           14 
 1661000   0.60074979    -5.729774    582.04824  0.029201698   0.02844126           34 
 1662000   0.59621765   -5.7058047    582.33444  0.029198478  0.028421123           21 
 1663000   0.59547118   -5.7166877     582.1037  0.029169358  0.028401013           24 
 1664000   0.59745813   -5.7415327    582.02482  0.029147877  0.028380872           26 
 1665000   0.57993117   -5.7278552    581.50521  0.029104365  0.028360678           27 
 1666000   0.60117295   -5.7366958    582.93212   0.02915827  0.028340564           21 
 1667000   0.58299221   -5.7112615    582.26168  0.029107263  0.028320481           13 
 1668000   0.58190184   -5.7389372    581.07245  0.029030398  0.028300398           19 
 1669000   0.57693849   -5.7305122    581.29599  0.029024166  0.028280367           16 
 1670000   0.59322403   -5.7541158    581.85847  0.029034854  0.028260288           36 
 1671000   0.59273025   -5.7244976    581.20461   0.02898487  0.028240178           25 
 1672000   0.59950507    -5.735457    582.19599  0.029016945  0.028220159           32 
 1673000    0.5826085   -5.7378459     582.6216  0.029020801  0.028200148           37 
 1674000    0.5837363   -5.7379949    581.56801  0.028951016  0.028180103           14 
 1675000   0.59598439    -5.733725    581.91665  0.028951077  0.028160135           13 
 1676000   0.58812083    -5.750032     582.1624  0.028946022  0.028140131           21 
 1677000    0.5846468   -5.7568864     581.3249  0.028887145  0.028120064           30 
 1678000   0.57941979   -5.7407634    581.90906   0.02889894  0.028100007           28 
 1679000   0.57869045   -5.7288606    582.14179  0.028893279  0.028079957           26 
 1680000   0.59359739   -5.7580018    581.65078  0.028851725  0.028059924           63 
 1681000   0.58310716   -5.7593394    581.39313  0.028821789  0.028039945           55 
 1682000   0.58177406   -5.7635098     581.5044  0.028810166  0.028019892           54 
 1683000   0.59122547   -5.7676033    581.37691  0.028786735  0.027999845           78 
 1684000   0.57559748   -5.7345765    582.06171  0.028803529  0.027979761          102 
 1685000   0.57922083   -5.7516392    580.48898  0.028708654  0.027959699           43 
 1686000   0.57583171   -5.7531714    580.87672  0.028710791  0.027939633           61 
 1687000   0.58650992   -5.7420032      581.093  0.028704455  0.027919649           74 
 1688000   0.57844531   -5.7506231    581.62514  0.028713722  0.027899689           23 
 1689000   0.57841024   -5.7576873    582.03456  0.028716921  0.027879733           43 
 1690000   0.58236711   -5.7546319      583.141  0.028754487  0.027859788           37 
 1691000   0.57149119   -5.7568045    581.55985  0.028659563  0.027839904           36 
 1692000   0.56652322   -5.7636856     582.4388  0.028685914  0.027820069           33 
 1693000    0.5858737   -5.7653241    581.58186   0.02862679  0.027800193           31 
 1694000   0.58845552   -5.7621477    581.87164  0.028624146  0.027780327           34 
 1695000   0.56942344   -5.7601505    582.57258   0.02864172  0.027760458           25 
 1696000     0.583278   -5.7519372    581.71634   0.02858276  0.027740669           17 
 1697000   0.57231567   -5.7695182    582.56985   0.02860783  0.027720865           27 
 1698000   0.56848629   -5.7671531    582.81103  0.028602818  0.027701005           15 
 1699000   0.57380222   -5.7812315    582.17321  0.028554699  0.027681232           13 
 1700000   0.57689586   -5.7976876    580.85821  0.028473442    0.0276614           34 
 1701000    0.5774163   -5.7463468    583.29397  0.028576032  0.027641685           28 
 1702000   0.56150082   -5.7777024    582.62946  0.028526707  0.027622031           19 
 1703000   0.59020847   -5.7818185     581.2893  0.028444378  0.027602307           16 
 1704000   0.55739071   -5.7673723    583.11296   0.02851687   0.02758255           22 
 1705000   0.57865997   -5.7674384    581.38471  0.028415675  0.027562878           16 
 1706000   0.57797552   -5.8047044     581.4867     0.028404  0.027543122           26 
 1707000   0.57406128   -5.7819116    582.43192  0.028433505  0.027523371           66 
 1708000    0.5652605   -5.7863766    582.13677  0.028402458   0.02750362           32 
 1709000   0.56947418   -5.7668324     582.1765  0.028387776  0.027483883           25 
 1710000   0.58063324   -5.7642226    581.44112  0.028335337  0.027464171           34 
 1711000   0.56891131   -5.7700633    582.84537   0.02838717  0.027444523           16 
 1712000   0.56452454    -5.786802    581.40953  0.028300698  0.027424889           29 
 1713000   0.57700986   -5.7933529    582.20942  0.028323089  0.027405225           33 
 1714000   0.57039731   -5.7835338    581.31502   0.02826308  0.027385545           11 
 1715000   0.56697197    -5.799098    581.28388  0.028245087    0.0273659           43 
 1716000   0.57261938   -5.7717898    581.81059  0.028254205  0.027346194           26 
 1717000   0.56749424   -5.7946691    581.58168  0.028226639  0.027326537           11 
 1718000   0.56595567   -5.7813399    583.14099  0.028285845  0.027306944           14 
 1719000   0.56611061    -5.788543    581.51439  0.028190536  0.027287333           12 
 1720000   0.55845338   -5.7956581    581.09081  0.028153624  0.027267654           13 
 1721000   0.55810695   -5.7908101    581.31548  0.028148144  0.027248045           18 
 1722000    0.5666967   -5.7819335    581.92929  0.028161502  0.027228516           23 
 1723000   0.55815689   -5.7714775    581.59126  0.028128809  0.027208986           13 
 1724000   0.56358863   -5.7787246    581.71905   0.02811867  0.027189434           20 
 1725000   0.57074623   -5.7819861    581.40795  0.028087341  0.027169928           19 
 1726000   0.56598643   -5.7696748    582.48686  0.028123158  0.027150416           15 
 1727000   0.55766665   -5.7582976    582.46095  0.028105624  0.027130924           13 
 1728000   0.57760791   -5.8002888      582.351  0.028084056  0.027111492           19 
 1729000    0.5649702   -5.8084498    581.76675  0.028039654  0.027092124           13 
 1730000   0.56815053   -5.7924081    582.79617  0.028073033  0.027072754           16 
 1731000   0.57080884   -5.7865152    582.25866  0.028030939   0.02705341           16 
 1732000   0.56402446   -5.8175448    582.19041  0.028011471  0.027034003           18 
 1733000   0.57484132   -5.8039369    582.36653  0.028003776  0.027014666           12 
 1734000    0.5676458   -5.7920567    582.62403  0.028000001  0.026995319           17 
 1735000   0.56887349    -5.814444    582.49321   0.02797758  0.026975967           16 
 1736000   0.56410224   -5.8176653    581.15386  0.027897171  0.026956609           19 
 1737000   0.56689852   -5.7941483    581.97834  0.027920665  0.026937259           29 
 1738000    0.5571427   -5.7927059    582.26852  0.027918513  0.026917958           27 
 1739000   0.55372702   -5.8193968    582.84161  0.027929922  0.026898654           28 
 1740000   0.55812361   -5.8175412    582.65432  0.027904901  0.026879384           44 
 1741000   0.56588298   -5.8101521    582.54124   0.02788346   0.02686012           60 
 1742000   0.56756908   -5.8126019    581.55569  0.027820307  0.026840824           27 
 1743000   0.56214561   -5.7983367    581.81769  0.027816872  0.026821522           33 
 1744000   0.56758788   -5.7984399    583.64197  0.027888091  0.026802287           28 
 1745000   0.55325667   -5.8200785    581.97796  0.027792644  0.026783016           21 
 1746000   0.54208807   -5.8224704    583.16884  0.027833564  0.026763773           19 
 1747000   0.57317728   -5.8242705    581.61279  0.027743407  0.026744539           26 
 1748000   0.53827566   -5.8239442    580.52075  0.027675474  0.026725295           20 
 1749000    0.5675454   -5.8281677    581.09053  0.027686798  0.026706122           26 
 1750000   0.56015561   -5.8101289    582.11766  0.027719889  0.026686988           35 
 1751000   0.56780211   -5.8109277    583.22145  0.027756589  0.026667946           16 
 1752000   0.54641741   -5.8201287    582.70541  0.027716201  0.026648902           19 
 1753000   0.54577991   -5.7961755    582.72341  0.027701246  0.026629921           15 
 1754000   0.54639293   -5.8129049    581.49255  0.027626974  0.026610923           33 
 1755000   0.54912542   -5.8031147    582.83544  0.027674997  0.026591987           36 
 1756000   0.54525393   -5.8080262    583.03552  0.027668732  0.026573047           26 
 1757000   0.54531965     -5.82967    583.05281  0.027653804  0.026554047           24 
 1758000   0.54607115   -5.8008995    581.90575  0.027583701  0.026535107           25 
 1759000   0.55047568   -5.8122118    583.27626  0.027632948  0.026516196           22 
 1760000   0.54605844   -5.8233283    582.63508  0.027586888  0.026497311           25 
 1761000   0.55437108   -5.8255084    583.31672  0.027603479  0.026478478           23 
 1762000   0.55633864   -5.8042584     582.8692  0.027566648  0.026459693           14 
 1763000   0.54289143   -5.8133441    583.65618  0.027588211   0.02644089           21 
 1764000   0.55285214   -5.7974195    583.60658  0.027570228  0.026422142           12 
 1765000   0.54799794     -5.84032     583.4663  0.027547984  0.026403404           51 
 1766000   0.55843177   -5.8242458     583.1319  0.027516605  0.026384663           43 
 1767000   0.55270033   -5.8265172    581.59809  0.027428697  0.026365919           15 
 1768000   0.54903316   -5.8362511    582.72047  0.027466086  0.026347182           32 
 1769000    0.5344931   -5.8431145    583.08032  0.027467511  0.026328442           51 
 1770000   0.54595178   -5.8376517      583.587  0.027475847  0.026309713           35 
 1771000   0.54325419   -5.8305594    583.31729  0.027447642   0.02629101           38 
 1772000   0.54674675   -5.8346241    582.96281  0.027415482   0.02627229           63 
 1773000   0.55203393   -5.8245173    582.02297  0.027355846  0.026253593           47 
 1774000   0.53882266   -5.8178947    582.32348  0.027354542  0.026234923           41 
 1775000   0.54895983   -5.8379963    583.63879  0.027400882  0.026216266           25 
 1776000   0.53098147   -5.8412773    583.31973  0.027370483  0.026197617           18 
 1777000   0.54823184   -5.8433923     583.0453  0.027342211  0.026178988           26 
 1778000   0.54193194   -5.8622531    581.95626   0.02727579   0.02616035           23 
 1779000   0.53862168   -5.8336845    582.67384  0.027294072  0.026141682           39 
 1780000    0.5370069   -5.8516726    582.36791  0.027264415  0.026123037           23 
 1781000   0.54314466   -5.8545829    582.62915   0.02726133  0.026104413           16 
 1782000   0.54108446   -5.8482392    582.32737   0.02723192  0.026085861           19 
 1783000   0.53974037   -5.8410615    584.05708  0.027297489  0.026067335           22 
 1784000   0.54814964   -5.8349061    584.35075  0.027295906  0.026048732           46 
 1785000   0.55831233   -5.8416384    582.36428  0.027187875  0.026030149           42 
 1786000   0.54052074    -5.837727    583.01162  0.027202856  0.026011549           52 
 1787000   0.54165312   -5.8579651    583.09945   0.02719173  0.025992979           31 
 1788000   0.54422741    -5.845509     582.6204  0.027154195  0.025974346           46 
 1789000   0.54474077   -5.8410672    581.45777   0.02708486  0.025955793           67 
 1790000   0.53458939   -5.8601111    581.61698  0.027077141  0.025937298           70 
 1791000   0.55633188   -5.8540192    581.95323  0.027077668  0.025918766          178 
 1792000   0.54210423   -5.8425443    582.93859   0.02710838  0.025900295           27 
 1793000   0.53629189   -5.8456275    582.90852  0.027091863  0.025881871           28 
 1794000   0.54442713   -5.8694693    581.41199  0.027007246  0.025863413           28 
 1795000   0.54036693   -5.8490379    582.83998  0.027058495  0.025844981           60 
 1796000   0.53927439   -5.8450604    583.83187  0.027089452  0.025826601           35 
 1797000   0.52958706   -5.8550593    583.63606  0.027065297  0.025808228           26 
 1798000   0.55089997   -5.8667011    582.54649  0.026999745  0.025789808           19 
 1799000   0.54281035   -5.8604098    582.28581  0.026972661  0.025771396           53 
 1800000   0.53542102   -5.8455866     582.0681  0.026947597  0.025753006           54 
 1801000   0.53121916   -5.8610752    582.35192  0.026945767  0.025734588           61 
 1802000   0.53038852   -5.8739976    581.98172  0.026913694  0.025716199           52 
 1803000   0.54286173    -5.863977    582.52993  0.026924105  0.025697843           94 
 1804000   0.52944217   -5.8818602    581.56735  0.026864715  0.025679449           87 
 1805000   0.52343332   -5.8564865    582.64399  0.026899538  0.025661069           76 
 1806000   0.53163417   -5.8871417     581.6422  0.026838418  0.025642689          148 
 1807000    0.5368689   -5.8767921    583.06708  0.026889277  0.025624294           74 
 1808000   0.53894463   -5.8811997    581.96964  0.026823822  0.025605865          112 
 1809000   0.52936533   -5.8797185    582.08205  0.026814172  0.025587503           53 
 1810000    0.5507403   -5.8743222    581.30285  0.026763483   0.02556918           25 
 1811000   0.52775989    -5.880296    582.62263  0.026809435  0.025550849           25 
 1812000   0.52622781   -5.8626164    583.09812  0.026816507  0.025532588           33 
 1813000   0.53153937   -5.8684056    583.12075  0.026802756   0.02551435           48 
 1814000   0.52440928    -5.870989    582.77885  0.026772274  0.025496175           19 
 1815000   0.52296345   -5.8568419    582.18613  0.026730309  0.025478042           31 
 1816000   0.53746942   -5.8583133    583.30024  0.026766714  0.025459878           34 
 1817000   0.53031287   -5.8824147    583.34966   0.02675425  0.025441709           44 
 1818000   0.52980681   -5.8710372    582.12809  0.026683539  0.025423566           67 
 1819000   0.53503769   -5.8789543    582.15536  0.026670119  0.025405438           51 
 1820000   0.51485766   -5.8775785    582.78161  0.026684139  0.025387303           51 
 1821000     0.511514   -5.8762453    582.66382  0.026664096  0.025369186           47 
 1822000   0.52784125   -5.8954655    583.29888  0.026678507  0.025351069          112 
 1823000   0.52286704   -5.8654616     583.4086  0.026668888   0.02533298           70 
 1824000   0.52503405   -5.8737855    582.24092  0.026600919  0.025314929           85 
 1825000   0.52859761   -5.8755199    583.27887  0.026633738  0.025296877           49 
 1826000   0.53385152   -5.8769646     583.1138  0.026611619  0.025278805           62 
 1827000    0.5340616   -5.8987776    583.58592  0.026618588  0.025260778           61 
 1828000   0.51610625   -5.8835411    581.53323   0.02651045  0.025242668           36 
 1829000   0.52446437   -5.8853016    581.07842  0.026475233  0.025224535           35 
 1830000   0.52628747   -5.9192652    581.87654   0.02649711  0.025206412          178 
 1831000   0.51922571   -5.9062102    581.42062  0.026461889  0.025188295           38 
 1832000   0.51047377   -5.9266469    581.67295  0.026458922  0.025170225           51 
 1833000   0.52378479    -5.895512    581.94313  0.026456771  0.025152188           56 
 1834000   0.52958591   -5.8962928    581.81093  0.026436338   0.02513417           41 
 1835000   0.51940186   -5.8877102    583.06023  0.026478666  0.025116219           39 
 1836000   0.52267924   -5.8878545    581.47606  0.026392341  0.025098303           38 
 1837000   0.52218928   -5.8994225    583.66926  0.026477466   0.02508046           42 
 1838000   0.52484313   -5.8992556    582.15309  0.026394318  0.025062578           38 
 1839000   0.51898934   -5.8876754    582.52841  0.026396973  0.025044706           35 
 1840000   0.51891509   -5.8924265    582.97607  0.026402902  0.025026838           72 
 1841000   0.52855771   -5.9046659    582.20263   0.02635355  0.025009007           80 
 1842000   0.52013515   -5.8792793     584.1897  0.026429139  0.024991209           40 
 1843000   0.52231847   -5.8949949    582.07947  0.026319383  0.024973449           33 
 1844000    0.5122515   -5.8860431    582.81343  0.026338279  0.024955676           17 
 1845000   0.51643887   -5.8844905    583.24372  0.026343438  0.024937928           78 
 1846000   0.52000675   -5.9067587    582.49044  0.026295163  0.024920178           64 
 1847000   0.51299822   -5.9057023    581.88594  0.026253652  0.024902421           60 
 1848000   0.52433571   -5.9008087    581.98268  0.026243808  0.024884639           35 
 1849000   0.51607986   -5.9075181     583.3649   0.02629191  0.024866832           26 
 1850000    0.5145124   -5.9147738    582.32454  0.026230835   0.02484909           59 
 1851000   0.52152583   -5.9063237     582.1329  0.026208036  0.024831356           89 
 1852000   0.51196935   -5.9084866    583.73856  0.026266134  0.024813645          105 
 1853000   0.51664679   -5.9166523    583.46206  0.026239524  0.024795923           49 
 1854000   0.51068491   -5.9246517    582.11869   0.02616499  0.024778232           33 
 1855000   0.52075841   -5.9029759    582.53951  0.026169789   0.02476054           60 
 1856000   0.49876047   -5.8977505    582.21862  0.026141281  0.024742879          114 
 1857000   0.52090061   -5.9079714    582.61593  0.026145033  0.024725184           39 
 1858000   0.51464675    -5.922741    581.66999  0.026088536  0.024707509           25 
 1859000   0.51731583   -5.9246867    581.14659   0.02605104  0.024689815           21 
 1860000    0.5035842   -5.9183826    581.70648  0.026062118  0.024672116           63 
 1861000   0.51483817   -5.9268906    581.62934  0.026044659  0.024654403           25 
 1862000   0.52107178   -5.9142491    581.43888  0.026022148    0.0246367           42 
 1863000   0.50081357   -5.9265547    582.29036  0.026046268  0.024619036           66 
 1864000   0.51225902   -5.9281696    581.32718  0.025989234  0.024601404           34 
 1865000   0.51292312   -5.9189089    582.60195  0.026032259  0.024583795           36 
 1866000   0.51782001   -5.9238716    582.27872  0.026003873  0.024566171           20 
 1867000   0.51512156   -5.9257676     581.0465  0.025934945  0.024548598           48 
 1868000   0.49682802   -5.9286087    580.90015  0.025914532  0.024531014           20 
 1869000   0.50440476   -5.9269316    583.11374  0.025999364   0.02451342           36 
 1870000   0.50842437   -5.9270216    581.55196  0.025915863  0.024495868           22 
 1871000    0.5039247   -5.9258518    583.27264   0.02597865  0.024478282           34 
 1872000   0.51320688   -5.9244239    581.18782  0.025871965  0.024460746           29 
 1873000   0.51728222   -5.9482552    580.97746  0.025848793  0.024443204           21 
 1874000   0.50664871   -5.9357748    582.08618  0.025884302  0.024425617           24 
 1875000   0.49506916   -5.9409153    580.75572  0.025811365  0.024408072           26 
 1876000    0.5094281   -5.9502213    581.24362   0.02581928  0.024390571           21 
 1877000   0.51158821   -5.9406934    581.85228  0.025832547  0.024373066           46 
 1878000   0.50777696   -5.9549754    581.37082  0.025797427  0.024355614           39 
 1879000   0.50540471   -5.9420022    582.08682  0.025815453  0.024338119           48 
 1880000   0.48910074   -5.9435463     581.6048  0.025780355  0.024320613           28 
 1881000   0.50836293   -5.9613169    581.23803    0.0257504  0.024303128           23 
 1882000    0.5056368   -5.9587116    579.32281  0.025651913  0.024285622           25 
 1883000   0.51093513   -5.9439274    581.67714  0.025742483   0.02426815           15 
 1884000   0.50734849   -5.9512364     581.5345   0.02572251   0.02425072           23 
 1885000   0.50799276   -5.9463992    580.65712  0.025670076  0.024233326           25 
 1886000    0.5031902   -5.9442147    580.69292  0.025658047  0.024215921           32 
 1887000   0.49394695   -5.9376175    581.67348  0.025687753   0.02419857           35 
 1888000   0.49990817   -5.9468771    581.19563  0.025653056  0.024181189           36 
 1889000   0.49925368   -5.9447327    580.46829  0.025607389  0.024163843           61 
 1890000   0.49655531   -5.9389495    580.72796  0.025605289   0.02414653           44 
 1891000   0.50218714   -5.9468821    580.26283  0.025571251   0.02412915           65 
 1892000   0.49725646   -5.9651566    581.63926  0.025618361  0.024111794           85 
 1893000   0.50061088   -5.9429242    580.73457  0.025565001  0.024094478           41 
 1894000   0.49023596   -5.9455143    581.20949  0.025572399  0.024077199           68 
 1895000   0.49887194    -5.938737    581.63583  0.025577653  0.024059949           60 
 1896000   0.48872598   -5.9515949     581.6678  0.025565568  0.024042652          102 
 1897000    0.4938854   -5.9612498    579.90494   0.02547465  0.024025368           54 
 1898000   0.51142015   -5.9595884    581.30029  0.025522492   0.02400809           77 
 1899000   0.48992755   -5.9554734    580.14175  0.025458213  0.023990806           36 
 1900000   0.50100619   -5.9596081    582.19881  0.025535036  0.023973523           39 
 1901000    0.4953602   -5.9694441     580.3403  0.025440132  0.023956269           39 
 1902000   0.50334084   -5.9640943    581.76126  0.025489014  0.023939042           37 
 1903000   0.49548035   -5.9572148    581.30381  0.025455588  0.023921854           50 
 1904000   0.48783747   -5.9662847    581.09167  0.025432934  0.023904672           37 
 1905000   0.49050432   -5.9543945    579.46365  0.025348366  0.023887457           48 
 1906000   0.49454278   -5.9794819    581.11108  0.025407095  0.023870274           52 
 1907000   0.48750559   -5.9536658    579.90043  0.025340868  0.023853068          108 
 1908000   0.48787802    -5.943087    581.70656  0.025406471  0.023835864           41 
 1909000   0.49009403   -5.9706927     581.4027  0.025379898  0.023818693           49 
 1910000   0.49695058   -5.9631016    579.91688  0.025301783  0.023801535           42 
 1911000   0.49581646   -5.9662205    580.15647  0.025298991  0.023784387           89 
 1912000   0.48379998   -5.9828395    580.00977  0.025279366  0.023767245          125 
 1913000   0.48935234   -5.9682807    580.32132  0.025279723  0.023750099           71 
 1914000   0.49746422   -5.9454419    581.61788  0.025322966  0.023732996           37 
 1915000   0.48768371   -5.9871251    579.83824  0.025232299  0.023715915           90 
 1916000   0.47979876   -5.9858725    581.85825  0.025306987  0.023698839           48 
 1917000   0.49886373   -5.9834092    580.72949  0.025244718  0.023681818          115 
 1918000   0.48980475   -5.9653828    581.00646   0.02524359  0.023664755           89 
 1919000   0.49034673   -5.9755999    580.90959  0.025226228  0.023647702           89 
 1920000   0.48377837   -5.9638296    581.22993  0.025226993  0.023630658           53 
 1921000   0.48248485   -5.9596325    580.57979  0.025185658  0.023613678           51 
 1922000   0.49433517   -5.9761167    580.14782  0.025153825  0.023596725           87 
 1923000   0.48398589   -5.9834045    580.58416  0.025159653  0.023579772           61 
 1924000   0.48308883   -5.9692328    581.79708  0.025199111  0.023562841           99 
 1925000   0.48106794   -5.9553209    581.57245  0.025176296  0.023545911           48 
 1926000   0.48433738   -5.9700357    581.14463  0.025144714  0.023529008           54 
 1927000   0.47857482   -5.9749528    579.88014  0.025076982  0.023512117           70 
 1928000   0.49154725   -5.9560776    581.09563  0.025116512  0.023495214           39 
 1929000   0.47289991   -5.9739651    580.75724  0.025088874  0.023478351           54 
 1930000    0.4828612   -5.9884165    581.06712  0.025089254  0.023461479           45 
 1931000   0.48792156   -5.9808935    581.07473  0.025076589  0.023444624           78 
 1932000   0.47517325   -5.9746355    580.18494   0.02502523   0.02342775           72 
 1933000   0.49128916   -5.9927068    580.76452   0.02503727  0.023410864           82 
 1934000   0.48243894   -6.0021422    580.49966  0.025012912  0.023393977           81 
 1935000    0.4911561   -5.9792099    579.76133  0.024968188  0.023377117           45 
 1936000   0.48444412   -6.0002997    580.03253  0.024966965  0.023360299           96 
 1937000   0.47912985   -5.9861914    580.25489  0.024963642  0.023343466           50 
 1938000   0.47823758   -6.0004986    579.49587  0.024918123  0.023326667           59 
 1939000   0.48012487   -5.9792627    579.10085  0.024888295  0.023309865           88 
 1940000   0.47185463   -5.9886642    580.32647  0.024928113   0.02329309           71 
 1941000   0.48121984   -5.9976738    579.22849   0.02486813  0.023276331          103 
 1942000   0.47741041   -6.0084398    578.77527  0.024835877  0.023259579           81 
 1943000   0.48560462    -5.983713    579.69127  0.024862381   0.02324283           90 
 1944000   0.47910375   -6.0012372    579.12207  0.024825191  0.023226086           58 
 1945000   0.46809396   -5.9760463    580.38591  0.024866577  0.023209335          126 
 1946000   0.46752694   -5.9943383    579.38857   0.02481109  0.023192585           79 
 1947000   0.47961333   -6.0069623    579.52897  0.024804356  0.023175879          185 
 1948000   0.47891079   -6.0004589    579.91031  0.024807936  0.023159184          107 
 1949000    0.4800711   -5.9921192    580.20623   0.02480786   0.02314248          173 
 1950000   0.48306863   -6.0084966    578.87994  0.024738459  0.023125785          211 
 1951000   0.47694467   -5.9982583     579.5441  0.024754147  0.023109129          200 
 1952000   0.48248695   -6.0019768    579.52274  0.024740554  0.023092444          197 
 1953000   0.48728827   -6.0081604    578.92193   0.02470225  0.023075789          114 
 1954000   0.47454443   -5.9902096    579.72019  0.024723652  0.023059137          144 
 1955000    0.4795713   -6.0011124    579.22258  0.024689794    0.0230425          250 
 1956000   0.47629816   -5.9913901    579.96567   0.02470883  0.023025919          114 
 1957000   0.47036936   -5.9975002    579.10663  0.024659625   0.02300933          145 
 1958000   0.47427087   -6.0150183    579.66719  0.024670888  0.022992752          110 
 1959000   0.45419172   -6.0082143    579.97357  0.024671328    0.0229762          182 
 1960000   0.46857623   -6.0087763    579.90361  0.024655766  0.022959616          256 
 1961000   0.46874706   -6.0129272    578.44892  0.024581375  0.022943039          354 
 1962000   0.46347221   -6.0131691    578.81924  0.024584575  0.022926488          406 
 1963000   0.47141051   -6.0028779    578.99197  0.024579384  0.022909919          342 
 1964000   0.47684752   -6.0171979    579.58996  0.024592242  0.022893396          127 
 1965000   0.46605511    -6.026469    578.42712  0.024530412  0.022876863          326 
 1966000   0.46736622   -6.0106096    579.27069  0.024553691  0.022860368          315 
 1967000   0.47359114   -6.0207811    579.48753  0.024550395  0.022843856          298 
 1968000   0.46649689    -6.028698    578.79387  0.024508548  0.022827361          309 
 1969000   0.46579453   -6.0148167    579.29883  0.024517472  0.022810894          264 
 1970000   0.46152848   -6.0210077    578.84055  0.024485641   0.02279441          227 
 1971000   0.45000416   -6.0160121    578.15899  0.024444402  0.022777936          252 
 1972000   0.46692588   -6.0189928    579.95698  0.024507986  0.022761499          199 
 1973000   0.46651559      -6.0281    578.85441  0.024448995  0.022745102          322 
 1974000   0.45940226   -6.0144332    579.07031  0.024445724  0.022728696          200 
 1975000   0.47001027     -6.02045     578.8797  0.024425304  0.022712293          339 
 1976000   0.45449534   -6.0202289    579.22905  0.024427676  0.022695884          354 
 1977000   0.46473835   -6.0348286     578.9473  0.024403444  0.022679509          348 
 1978000   0.46382954   -6.0202623    578.72738  0.024381841  0.022663127          376 
 1979000   0.45807892   -6.0110359    579.39947  0.024397822   0.02264676          291 
 1980000    0.4702469    -6.035085    578.63974  0.024353524  0.022630394          262 
 1981000   0.46437776   -6.0341767    579.51415  0.024378014  0.022614075          378 
 1982000   0.45096392   -6.0281432    578.90259  0.024340001  0.022597723          395 
 1983000   0.46609844   -6.0228184       578.84  0.024325097  0.022581385          366 
 1984000   0.46049513   -6.0338504     578.6848  0.024306317  0.022565065          363 
 1985000   0.46721238   -6.0193613    577.60063  0.024248557  0.022548778          366 
 1986000   0.46545065   -6.0398827     578.4717  0.024272898  0.022532479          418 
 1987000   0.46701914   -6.0263947    578.39591  0.024257504  0.022516213          371 
 1988000   0.46358299   -6.0373314    578.86249   0.02426486  0.022499978          373 
 1989000   0.46528146    -6.033293    579.04325  0.024260233  0.022483742          448 
 1990000   0.45334582   -6.0459917    579.06883  0.024249114  0.022467508          406 
 1991000   0.46013799    -6.036389    578.91525  0.024230506  0.022451294          399 
 1992000   0.45265955   -6.0344285    578.23865  0.024190037  0.022435071          479 
 1993000    0.4603211   -6.0414119    578.24343    0.0241781  0.022418855          462 
 1994000   0.45739766   -6.0447586    578.09806  0.024159899  0.022402643          495 
 1995000   0.45614231    -6.037482    577.80146  0.024135399  0.022386466          511 
 1996000    0.4646476   -6.0441888    578.55202  0.024154643  0.022370285          522 
 1997000   0.45655312   -6.0468371    578.46879  0.024139075   0.02235408          532 
 1998000   0.45328565   -6.0547952    577.71678  0.024095628  0.022337907          534 
 1999000   0.45993229   -6.0400651    577.54408  0.024076375  0.022321724          483 
 2000000   0.46632227   -6.0668885     576.9771  0.024040712  0.022305586          514 
 2001000   0.44613457   -6.0482062     577.7556  0.024061119   0.02228943          568 
 2002000   0.45264232   -6.0428183    577.20617  0.024026231  0.022273321          437 
 2003000   0.44661759    -6.028116    578.85134  0.024082682  0.022257209          485 
 2004000   0.44907165   -6.0578509    578.68477  0.024063738  0.022241104          520 
 2005000   0.45429517   -6.0504432    577.74381  0.024012627   0.02222496          488 
 2006000   0.46588804   -6.0408212     577.8774  0.024006207  0.022208863          534 
 2007000   0.45344046   -6.0406914    577.83608  0.023992529  0.022192784          438 
 2008000   0.44347164   -6.0549671    578.15105  0.023993652  0.022176696          505 
 2009000   0.44708707   -6.0548002    577.76743  0.023965797  0.022160639          563 
 2010000   0.45596573   -6.0466558    577.33751  0.023936049  0.022144569          671 
 2011000   0.44617674   -6.0616867    577.18213  0.023917708  0.022128517          618 
 2012000   0.45397703   -6.0478532    577.31226   0.02391121  0.022112464          623 
Loop time of 5079.98 on 48 procs for 2000000 steps with 4000 atoms

Performance: 68031.737 tau/day, 393.702 timesteps/s
99.4% CPU use with 48 MPI tasks x no OpenMP threads

MPI task timing breakdown:
Section |  min time  |  avg time  |  max time  |%varavg| %total
---------------------------------------------------------------
Pair    | 350.5      | 376.96     | 410.28     |  72.0 |  7.42
Neigh   | 34.247     | 35.911     | 38.182     |  15.1 |  0.71
Comm    | 317.99     | 355.16     | 380.86     |  75.2 |  6.99
Output  | 4.3095     | 4.3113     | 4.3453     |   0.2 |  0.08
Modify  | 4252.7     | 4260.3     | 4270.7     |   7.0 | 83.87
Other   |            | 47.31      |            |       |  0.93

Nlocal:        83.3333 ave          90 max          74 min
Histogram: 1 1 2 6 4 9 12 5 5 3
Nghost:        2342.77 ave        2362 max        2325 min
Histogram: 2 4 8 3 8 8 5 6 3 1
Neighs:        16052.6 ave       17830 max       13376 min
Histogram: 1 1 1 5 5 10 9 10 5 1
FullNghs:      32104.7 ave       34602 max       28294 min
Histogram: 1 1 2 4 6 8 8 10 5 3

Total # of neighbors = 1541027
Ave neighs/atom = 385.25675
Neighbor list builds = 107604
Dangerous builds = 0

#clear
#
#next RN
#
#jump SELF
Total wall time: 1:24:43
