
units lj                  # Use reduced LJ style units
atom_style atomic         # Uncharged point particles
atom_modify map hash      # Needed for indexing of clusters etc
                          # Used to be able to find where atoms are in relation to each other.

lattice fcc 1.0 spacing 1 1 1
Lattice spacing in x,y,z = 1.5874011 1.5874011 1.5874011
region box block 0 10 0 10 0 10 units lattice
create_box 2 box
Created orthogonal box = (0.0000000 0.0000000 0.0000000) to (15.874011 15.874011 15.874011)
  3 by 4 by 4 MPI processor grid
create_atoms 1 box
Created 4000 atoms
  using lattice units in orthogonal box = (0.0000000 0.0000000 0.0000000) to (15.874011 15.874011 15.874011)
  create_atoms CPU = 0.003 seconds
set type 1 type/fraction 2 0.63 78393
Setting atom values ...
  2531 settings made for type/fraction
mass 1 1.0
mass 2 1.0
pair_style lj/cut  3.5
pair_modify tail  yes
pair_coeff 1  1  1.0  1.0   # Intearaction between 1 and 1 set with epsilon = 1 and sigma = 1
pair_coeff 1  2  1.5  0.8
pair_coeff 2  2  0.5  0.88

write_data data.0
System init for write_data ...
Neighbor list info ...
  update every 1 steps, delay 10 steps, check yes
  max neighbors/atom: 2000, page size: 100000
  master list distance cutoff = 3.8
  ghost atom cutoff = 3.8
  binsize = 1.9, bins = 9 9 9
  1 neighbor lists, perpetual/occasional/extra = 1 0 0
  (1) pair lj/cut, perpetual
      attributes: half, newton on
      pair build: half/bin/atomonly/newton
      stencil: half/bin/3d
      bin: standard
WARNING: Not all mixed pair coeffs generated from mixing. Use write_data with 'pair ij' option to store all pair coeffs. (../write_data.cpp:312)


#############################
#   M E L T   S Y S T E M   #
#############################

velocity all create 2.4 1741580 mom yes dist gaussian # Assign velocities
                                                    # Temperature 2.4, random number seed, zero linear momentum
                                                                                # Gaussian distribution

timestep 0.002   # simulation timestep
thermo 1000       # output thermodynamic data every 1000 steps bf 100

# Define a fix  in this case with index 1 applied to all
# particles in the simulation. This fix is for simulations
# in the anisotropic NPT ensemble. Note that we use the MTK
# correction.
fix 1 all npt temp 2.4 2.4 0.1 iso 5.68 5.68 0.5 mtk yes tchain 5 pchain 5 # Use NPT ensemble
                                                                         # Set temperature and pressure and damping
                                                                         # Numbers of thermostats in chain and in barostat
run 10000          # run for 10000 steps
Per MPI rank memory allocation (min/avg/max) = 3.642 | 3.644 | 3.648 Mbytes
Step Temp E_pair E_mol TotEng Press Volume 
       0          2.4    -4.562992            0  -0.96389204   -3.9987934         4000 
    1000    2.4138971   -4.3363306            0  -0.71639011    5.7266123    3589.8278 
    2000    2.3836851   -4.2969184            0   -0.7222847    5.6135797    3622.7984 
    3000    2.4001744   -4.2382412            0  -0.63887969    5.5110541    3666.3304 
    4000    2.3567783    -4.377046            0  -0.84276243    5.5096034    3581.5502 
    5000    2.3844016   -4.3391271            0  -0.76341885    5.7372491    3586.3458 
    6000    2.3968833   -4.2768605            0   -0.6824344    5.4218349    3643.1478 
    7000    2.4067998   -4.2826889            0  -0.67339178    5.8798445    3599.6313 
    8000    2.3771359   -4.3435582            0  -0.77874579    5.2857117    3616.2322 
    9000    2.4017926   -4.3004705            0  -0.69868224    5.7986322    3596.1215 
   10000    2.4370445   -4.2607319            0  -0.60607906    5.3493505    3659.9766 
Loop time of 2.65727 on 48 procs for 10000 steps with 4000 atoms

Performance: 650290.271 tau/day, 3763.254 timesteps/s
99.6% CPU use with 48 MPI tasks x no OpenMP threads

MPI task timing breakdown:
Section |  min time  |  avg time  |  max time  |%varavg| %total
---------------------------------------------------------------
Pair    | 1.1987     | 1.2708     | 1.3606     |   3.0 | 47.82
Neigh   | 0.21852    | 0.22502    | 0.23938    |   0.7 |  8.47
Comm    | 0.80834    | 0.90318    | 0.9875     |   4.4 | 33.99
Output  | 0.00024806 | 0.00025268 | 0.0003165  |   0.0 |  0.01
Modify  | 0.20784    | 0.24256    | 0.274      |   3.8 |  9.13
Other   |            | 0.01548    |            |       |  0.58

Nlocal:        83.3333 ave          93 max          74 min
Histogram: 2 0 8 6 9 10 4 6 0 3
Nghost:        1740.54 ave        1765 max        1709 min
Histogram: 1 1 0 7 9 9 11 4 3 3
Neighs:        10430.0 ave       11976 max        9284 min
Histogram: 5 4 8 6 6 7 5 2 4 1

Total # of neighbors = 500642
Ave neighs/atom = 125.16050
Neighbor list builds = 911
Dangerous builds = 226

# Equilibrate just above the melting temperature to avoid step fn in T

fix 1 all npt temp 1.25 1.25 0.1 iso 5.68 5.68 0.5 mtk yes tchain 5 pchain 5
run 2000
Per MPI rank memory allocation (min/avg/max) = 3.644 | 3.646 | 3.650 Mbytes
Step Temp E_pair E_mol TotEng Press Volume 
   10000    2.4370445   -4.2607319            0  -0.60607906    5.3493505    3659.9766 
   11000    1.2454665   -6.2900223            0   -4.4222896    5.6834914    2767.4889 
   12000    1.2192358   -6.3604023            0   -4.5320058    5.7457889    2744.5756 
Loop time of 0.665357 on 48 procs for 2000 steps with 4000 atoms

Performance: 519420.273 tau/day, 3005.904 timesteps/s
99.6% CPU use with 48 MPI tasks x no OpenMP threads

MPI task timing breakdown:
Section |  min time  |  avg time  |  max time  |%varavg| %total
---------------------------------------------------------------
Pair    | 0.29299    | 0.3246     | 0.36224    |   2.5 | 48.79
Neigh   | 0.041759   | 0.044199   | 0.048904   |   0.6 |  6.64
Comm    | 0.20516    | 0.24643    | 0.27954    |   3.2 | 37.04
Output  | 5.2234e-05 | 5.3715e-05 | 7.0487e-05 |   0.0 |  0.01
Modify  | 0.039363   | 0.045069   | 0.049613   |   1.4 |  6.77
Other   |            | 0.005001   |            |       |  0.75

Nlocal:        83.3333 ave          88 max          77 min
Histogram: 3 1 4 4 7 8 6 1 3 11
Nghost:        2119.04 ave        2141 max        2101 min
Histogram: 4 4 8 2 5 12 4 4 2 3
Neighs:        13926.7 ave       15555 max       12071 min
Histogram: 2 1 4 7 10 6 7 5 3 3

Total # of neighbors = 668481
Ave neighs/atom = 167.12025
Neighbor list builds = 145
Dangerous builds = 16

#############################
# L I N E A R  Q U E N C H  #
#############################

# Define solid atoms. This closely follows ten Wolde  Ruiz-Montero and Frenkel  Faraday Discuss  1996  104  93-110
# Compute components of the per-atom q6 vector
compute q6 all orientorder/atom degrees 1 6 components 6 nnn NULL cutoff 1.3 # compute the Q6 parameter.
                                                                             # Use all neighbours within 1.3 unit cell.

# get number of connections
compute coord_number all coord/atom orientorder q6 0.5

# An atom is solid if it has 8 or more connections (of a possible 14)
variable is_solid atom c_coord_number>=8
group solid dynamic all var is_solid    # Must be dynamic to update
dynamic group solid defined

# do clustering
compute cluster solid cluster/atom 1.3 # Create a cluster where all atoms within are solid and max 1.3 units from another member

# define chunks one chunk per cluster
compute clus_chunks solid chunk/atom c_cluster nchunk every compress yes  # Says which atoms are in which chunk

# count the size of each chunk
compute size_chunks solid property/chunk clus_chunks count


# Find the maximum entry in the vector of chunk sizes
variable max_n equal max(c_size_chunks)


# Thermo style which includes this variable
# thermo_style custom step temp pe vol v_max_n

thermo ${N}  # Print the thermo information every 100 steps
thermo 1000  

# Reset the npt fix at a lower temperature (below freezing)
fix 1  all npt temp  ${temp} ${temp}  0.1  iso  5.68  5.68  0.5  mtk yes tchain  5  pchain  5
fix 1  all npt temp  0.45 ${temp}  0.1  iso  5.68  5.68  0.5  mtk yes tchain  5  pchain  5
fix 1  all npt temp  0.45 0.45  0.1  iso  5.68  5.68  0.5  mtk yes tchain  5  pchain  5

dump dmp2 all dcd ${N} traj.dcd
dump dmp2 all dcd 1000 traj.dcd


compute msd all msd com yes
variable twopoint equal c_msd[4]/6/(step*dt+1.0e-6)
fix 9 all vector 10 c_msd[4]
variable fit equal slope(f_9)/6/(10*dt)
thermo_style custom step temp pe c_msd[4] v_twopoint v_fit v_max_n

fix 1 all npt temp 1.25 ${temp} 0.1 iso 5.68 5.68 0.5 mtk yes tchain 5 pchain 5
fix 1 all npt temp 1.25 0.45 0.1 iso 5.68 5.68 0.5 mtk yes tchain 5 pchain 5
run 500000 # 5000000  # Run for this many steps
Neighbor list info ...
  update every 1 steps, delay 10 steps, check yes
  max neighbors/atom: 2000, page size: 100000
  master list distance cutoff = 3.8
  ghost atom cutoff = 3.8
  binsize = 1.9, bins = 8 8 8
  4 neighbor lists, perpetual/occasional/extra = 1 3 0
  (1) pair lj/cut, perpetual
      attributes: half, newton on
      pair build: half/bin/atomonly/newton
      stencil: half/bin/3d
      bin: standard
  (2) compute orientorder/atom, occasional
      attributes: full, newton on
      pair build: full/bin/atomonly
      stencil: full/bin/3d
      bin: standard
  (3) compute coord/atom, occasional
      attributes: full, newton on
      pair build: full/bin/atomonly
      stencil: full/bin/3d
      bin: standard
  (4) compute cluster/atom, occasional
      attributes: full, newton on
      pair build: full/bin/atomonly
      stencil: full/bin/3d
      bin: standard
Per MPI rank memory allocation (min/avg/max) = 9.846 | 9.853 | 9.859 Mbytes
Step Temp PotEng c_msd[4] v_twopoint v_fit v_max_n 
   12000    1.2192358   -6.3604023 7.7111153e-31 5.354941e-33 8.3333333e+20            3 
   13000    1.2368429    -6.467184   0.50299385 0.0032243194  0.041458671            1 
   14000    1.2399171   -6.3746302   0.94651178 0.0056339985  0.039048101            2 
   15000    1.2307754     -6.38105    1.4067467 0.0078152594  0.037916552            1 
   16000      1.24127   -6.3758268    1.8363413 0.0095642775  0.037291417            4 
   17000      1.26784   -6.4018981    2.3324663  0.011433658  0.037834483            2 
   18000     1.230965   -6.4025061    2.8206255  0.013058451  0.038360978            1 
   19000    1.2313859   -6.4094807    3.2084984  0.014072361  0.038243224            4 
   20000     1.251475   -6.4537703    3.6765985   0.01531916  0.038008128            2 
   21000    1.2284839   -6.4352276    4.1260595  0.016373252  0.037897857            2 
   22000    1.2244132   -6.4459218    4.5794396  0.017346362   0.03775723            2 
   23000    1.2362391   -6.4151429    5.1097418  0.018513557  0.037903737            3 
   24000    1.2269683    -6.423772    5.5366602  0.019224514  0.038137976            1 
   25000     1.239775   -6.4003721    5.9586406  0.019862135  0.038169438            2 
   26000    1.2491098   -6.4285454    6.4113512  0.020549202  0.038081287            5 
   27000    1.2157049   -6.4263187    6.7970928  0.020978681  0.037929244            3 
   28000    1.2315187   -6.4423199    7.2071271  0.021449783   0.03779399            2 
   29000    1.2174871   -6.3925006    7.7364272  0.022231112   0.03771912            4 
   30000    1.2263594    -6.496142    8.1946994  0.022763053  0.037658534            2 
   31000    1.2304962   -6.4398153    8.6415142  0.023229877   0.03768658            2 
   32000    1.2152736   -6.4364194    9.2199234  0.024010217  0.037754972            3 
   33000    1.2123974     -6.46591    9.5981099  0.024237651  0.037818927            2 
   34000    1.1957412   -6.4591165    10.092329    0.0247361  0.037889108            2 
   35000    1.2282843   -6.4608746    10.447389  0.024874735   0.03789047            3 
   36000    1.2254435   -6.5012104    10.904446  0.025241773  0.037837729            5 
   37000    1.2155803   -6.5145317    11.271634  0.025386564  0.037774445            3 
   38000    1.1996254   -6.4981676    11.798426   0.02587374  0.037708895            3 
   39000    1.1980149     -6.50237    12.191053  0.026049258  0.037686423            1 
   40000    1.1994921   -6.5244591    12.667455  0.026390531  0.037669244            2 
   41000    1.2071571   -6.5522616    12.979728   0.02638156   0.03759883            1 
   42000    1.2145058   -6.4769581    13.351705  0.026491477   0.03749482            2 
   43000    1.2192647   -6.4716983    13.800966  0.026746057  0.037377093            4 
   44000    1.1852375   -6.4723035    14.270405  0.027027281  0.037281323            1 
   45000    1.1836658   -6.4868036    14.712097  0.027244623  0.037191619            1 
   46000    1.1956154    -6.505467    15.018943   0.02720823  0.037073663            2 
   47000    1.1979041   -6.5438257     15.29697  0.027122287  0.036945005            3 
   48000    1.1845262   -6.5319617    15.727326  0.027304386   0.03681415            5 
   49000    1.1788872   -6.5796967    16.120181  0.027415274  0.036700211            8 
   50000     1.178316   -6.5385236    16.579265  0.027632108  0.036575962            5 
   51000     1.210685   -6.5712872     16.99825  0.027774918  0.036468764            5 
   52000    1.1995383   -6.5605717    17.415162  0.027908913  0.036367472            3 
   53000    1.1958192   -6.5350895    17.860649  0.028082781   0.03628776            3 
   54000    1.1938981   -6.4690157    18.404458  0.028401942  0.036218224            3 
   55000    1.1766414   -6.5493077    18.616727  0.028207162  0.036152519            3 
   56000    1.1512202   -6.5486788    18.957672  0.028210821  0.036052822            3 
   57000    1.1790908   -6.5321467    19.326507  0.028255126  0.035949034            2 
   58000    1.1972367   -6.6372119    19.598567   0.02815886   0.03584236            3 
   59000    1.1953851   -6.5576094    20.172419  0.028492117  0.035751461            2 
   60000    1.1911194   -6.5913271    20.512943  0.028490198  0.035666036            2 
   61000    1.1579309   -6.5273476    20.862636  0.028500869  0.035576259            2 
   62000    1.1760906   -6.5904953    21.153916  0.028432683  0.035479972            2 
   63000    1.1671203   -6.5976358    21.603104  0.028575534  0.035367077            2 
   64000    1.1347459   -6.5582522    22.089469  0.028762329  0.035274054            2 
   65000    1.1611216    -6.584449    22.451574  0.028784069  0.035213016            7 
   66000    1.1662388   -6.6683841     22.80135  0.028789583  0.035150625            3 
   67000     1.166333   -6.6297809     23.24746  0.028914751  0.035086539            5 
   68000    1.1550419   -6.6449738    23.463434  0.028754208  0.035018294            3 
   69000    1.1689795   -6.6385413    23.825109  0.028774286  0.034936546            3 
   70000    1.1615835   -6.6605674    24.243419  0.028861213  0.034859267            6 
   71000    1.1474783    -6.599793    24.707739  0.028999693  0.034788622            9 
   72000    1.1391282   -6.6097133    24.848825  0.028760214  0.034698353            3 
   73000    1.1951103   -6.6402338    25.170458  0.028733399  0.034596277            4 
   74000    1.1645155   -6.5927099    25.605181  0.028834663    0.0345048            2 
   75000     1.151166   -6.6339181     25.79508    0.0286612  0.034412909            4 
   76000    1.1220257   -6.6321637    26.249805   0.02878268  0.034318616            4 
   77000    1.1549143   -6.6487317    26.461751  0.028638258  0.034217679            5 
   78000    1.1493792   -6.6078186    26.854784  0.028691009  0.034109461            6 
   79000    1.1636589   -6.6464781    27.039395  0.028522568  0.034005431            3 
   80000    1.1485584   -6.6913476    27.454144  0.028598067  0.033898025            3 
   81000    1.1441536   -6.6602881    27.706044   0.02850416  0.033778843            3 
   82000    1.1517913   -6.6965437    28.095075  0.028551905  0.033670266            2 
   83000    1.1328731   -6.7030897    28.390045  0.028504061  0.033573871            5 
   84000     1.149144   -6.6653651    28.603358  0.028376347  0.033462782            2 
   85000    1.1173532   -6.6519098    29.029035  0.028459838  0.033353523            2 
   86000    1.1290216   -6.6530419    29.223854  0.028317688  0.033244995            4 
   87000    1.1212674   -6.6765736    29.451765  0.028210502  0.033128045            6 
   88000     1.131147   -6.7226658    29.646353  0.028074198  0.033005929            2 
   89000    1.1375478   -6.7194108    30.147195  0.028227711  0.032886419            2 
   90000    1.1378034   -6.7095183    30.524244  0.028263188  0.032777456            3 
   91000    1.1571526   -6.7361497    30.731561  0.028142455  0.032672037            5 
   92000    1.1280678   -6.7239459     31.05993  0.028133994  0.032565721            3 
   93000    1.0996438   -6.7124581    31.468265   0.02819737  0.032464601            2 
   94000    1.1199894   -6.7364655    31.776681  0.028170817   0.03236147            3 
   95000    1.1212837   -6.7569394    31.899415  0.027981943   0.03226156            2 
   96000    1.1284458   -6.7036624    32.258549  0.028002213  0.032159538            4 
   97000    1.1115016    -6.737532    32.647773  0.028047915  0.032058678            4 
   98000    1.1314644   -6.7240674    32.783738  0.027877328   0.03195573            2 
   99000    1.1060969    -6.668657     33.39392   0.02810936  0.031857196            3 
  100000    1.1110437   -6.6933187    33.390012   0.02782501  0.031757284            5 
  101000    1.0761183   -6.7558705    33.540065  0.027673321  0.031652822            3 
  102000    1.1032999   -6.7417074    33.815745  0.027627243  0.031540948            2 
  103000    1.1122425   -6.7346872    34.213907  0.027681155  0.031429432            4 
  104000    1.0968141   -6.7572295    34.402612  0.027566195  0.031323099            3 
  105000    1.1101151   -6.7347458    34.847968  0.027657117  0.031219384            2 
  106000    1.1156954   -6.7667184    34.905418  0.027441366  0.031115059            2 
  107000    1.0990256   -6.7650602    35.224468  0.027433386  0.031011694            4 
  108000    1.0995547   -6.7666157    35.537425  0.027420853  0.030914102            8 
  109000    1.0714803   -6.7198095    35.820477  0.027385686  0.030815017            2 
  110000    1.0869734   -6.7942754    35.995017  0.027268952  0.030714238            4 
  111000    1.0890908   -6.8509347    36.158885   0.02714631  0.030611704            3 
  112000    1.0730162   -6.7871253    36.542809   0.02718959  0.030507854            2 
  113000    1.0769768   -6.7770478    36.935403  0.027238497   0.03041025            3 
  114000    1.0650288   -6.8388098    37.092591  0.027114467  0.030314415            2 
  115000    1.0839643   -6.7849996     37.50579  0.027178108  0.030223046            5 
  116000    1.0991498   -6.7424122    37.912172  0.027235756  0.030134965            3 
  117000    1.0572285   -6.7812177    38.183686  0.027196357  0.030052403            2 
  118000    1.0745638   -6.7802384    38.384442  0.027107657  0.029966826            4 
  119000    1.0850878   -6.7756624    38.549378  0.026995362  0.029879128            4 
  120000    1.0868827   -6.8044659     38.80875   0.02695052  0.029789281            2 
  121000    1.0769791   -6.8553555    39.190701  0.026990841  0.029705018            3 
  122000    1.0766321   -6.8909169    39.415055  0.026922851  0.029624131            5 
  123000    1.0935796    -6.835958    39.853473  0.027000998  0.029549209            2 
  124000    1.0676679   -6.8648185    39.874918   0.02679766   0.02947029            6 
  125000    1.1056615   -6.8500013    40.094784  0.026729856  0.029386652            6 
  126000    1.0787217   -6.8414068    40.429822    0.0267393   0.02930373            4 
  127000    1.0548896   -6.8600259    40.737656  0.026730745  0.029221539            3 
  128000    1.0646096   -6.8722946    41.121653  0.026771909  0.029143359            4 
  129000    1.0541277   -6.8183482    41.416356  0.026754752  0.029069059            2 
  130000    1.0680765   -6.8958302    41.542095  0.026629548  0.028992369            4 
  131000    1.0545674   -6.9157126    41.616091   0.02647334  0.028912897            8 
  132000    1.0472554   -6.8803468    41.876826   0.02643739  0.028832725            4 
  133000    1.0455117   -6.8668034    42.094588  0.026375055  0.028754477            6 
  134000    1.0175539   -6.8739627    42.286301   0.02629745  0.028672002            4 
  135000    1.0469603   -6.8823105    42.523991  0.026249377  0.028590729            9 
  136000    1.0341452   -6.9290549      42.5277   0.02605864  0.028504202            7 
  137000    1.0510994   -6.9228078    42.613876  0.025920849  0.028415084            2 
  138000    1.0471227   -6.9310115    42.997441  0.025964638  0.028328325            2 
  139000    1.0522922   -6.9095935    43.172251  0.025882644  0.028241067            5 
  140000    1.0566797   -6.9281545    43.334338  0.025794249  0.028152391           14 
  141000    1.0135997   -6.9297772    43.604686  0.025771091  0.028064396            3 
  142000    1.0649107   -6.9284038    43.883612  0.025753293  0.027977731            4 
  143000    1.0360778   -6.9293897    44.192093  0.025752968  0.027894315            7 
  144000    1.0553341    -6.957435    44.206896  0.025582695  0.027812553            3 
  145000    1.0356413   -6.9001523    44.693785  0.025686083  0.027730063            4 
  146000    1.0360094   -6.9227787    44.695622    0.0255112  0.027648271            3 
  147000    1.0282119   -6.9692634    44.934039  0.025472811  0.027562849            8 
  148000    1.0494465   -6.9624367    45.162261  0.025429201  0.027480952            4 
  149000    1.0350553   -7.0080927    45.477396  0.025434785  0.027401864            3 
  150000    1.0486635   -7.0149648    45.550595  0.025305886  0.027322877            3 
  151000    1.0296416   -6.9654107    45.902244  0.025332364  0.027241851            8 
  152000    1.0157746   -6.9605214    46.067565   0.02525634  0.027164579            4 
  153000    1.0241555   -6.9639135     46.36231  0.025251803  0.027089971            4 
  154000    1.0248311   -6.9434291    46.827874  0.025339758   0.02701644           17 
  155000    1.0347742   -6.9846602    46.849295  0.025187793  0.026942192            7 
  156000    1.0160727   -6.9740788    47.016995  0.025115916  0.026866566            4 
  157000   0.99580147   -6.9767126    47.117405  0.025009238  0.026789801            2 
  158000    1.0107251   -6.9976363    47.319698  0.024957647  0.026715717            6 
  159000    1.0158052   -7.0234784    47.423155  0.024854903  0.026638707            4 
  160000   0.99737825   -7.0604958    47.477592  0.024727912  0.026561015            5 
  161000    1.0189007   -6.9727668    47.903419   0.02479473  0.026484273            6 
  162000    1.0143816   -7.0129587    47.952316  0.024666829  0.026408444            3 
  163000    1.0056264   -6.9767611    48.423929   0.02475661  0.026331672            5 
  164000    1.0030468   -7.0517712    48.275292  0.024530128  0.026254493            2 
  165000    1.0131676   -6.9938372    48.665371   0.02457847  0.026177407            4 
  166000   0.98411036   -6.9627067    48.887724   0.02454203   0.02610011            6 
  167000    1.0003824   -7.0206809    48.947919  0.024425109  0.026026125            3 
  168000    1.0147932   -7.0303526    49.165269  0.024387534  0.025951173            3 
  169000    1.0198248   -7.0476663    49.442972  0.024380164  0.025876176            5 
  170000   0.98230913   -7.0562348    49.511898  0.024270538   0.02580136            6 
  171000   0.97602382   -7.0325476     49.64474  0.024193343  0.025727482            4 
  172000    1.0015395   -7.0530386    49.952685  0.024201882  0.025655844            7 
  173000     1.004752   -7.0879815    50.095693  0.024130873  0.025584729            5 
  174000   0.99051556   -7.0794601    50.257691  0.024069775  0.025513822            8 
  175000    1.0103463   -7.0783574    50.441271  0.024019653   0.02544037            5 
  176000   0.96276062   -7.0731008    50.651309  0.023982627  0.025367677           10 
  177000   0.97702703   -7.0858906    50.796785  0.023915624  0.025296549            3 
  178000   0.97876891   -7.0577365    51.108664  0.023927277   0.02522478            8 
  179000   0.99378675   -7.0564975    51.201318   0.02383674  0.025152701            7 
  180000   0.98414176   -7.0836951    51.397219  0.023795009  0.025079585            6 
  181000   0.98372748   -7.0767117    51.648598  0.023779281  0.025008631            3 
  182000   0.98577805   -7.1166225    51.529648  0.023594161  0.024937202            7 
  183000   0.98933804   -7.1366378    51.861692  0.023616435  0.024866739            6 
  184000   0.95578183   -7.0741518    52.072433  0.023583529  0.024796933            6 
  185000    0.9679418   -7.0424911     52.37702  0.023593252  0.024726479            4 
  186000   0.94894073     -7.11089    52.328993  0.023444889  0.024655557            3 
  187000   0.95506916    -7.121339    52.231526  0.023276081  0.024584221            9 
  188000   0.96397315   -7.1354589    52.523122  0.023281526   0.02451246            8 
  189000   0.95797212   -7.1506501    52.644595  0.023211902   0.02444074           10 
  190000   0.96323365    -7.128315    52.857326  0.023183038   0.02437032           15 
  191000   0.97075341   -7.1371204    52.852966  0.023059758   0.02429868            3 
  192000   0.96658366   -7.1767798    52.882183  0.022952336  0.024225302            7 
  193000   0.95791896    -7.156222    53.200495  0.022970853  0.024153991            9 
  194000   0.97724677   -7.1814859    53.212571  0.022857633  0.024082654            9 
  195000   0.94654699   -7.2292305     53.56383  0.022890526  0.024011448            6 
  196000   0.95874688   -7.1455679    53.888604  0.022911821   0.02394334            5 
  197000   0.94413835   -7.1731737    53.897198  0.022799153  0.023876013            4 
  198000   0.96188267   -7.1876982    54.078276  0.022760217  0.023807549            4 
  199000   0.95192209   -7.2247752     54.23377  0.022710959  0.023738808            3 
  200000   0.96384102    -7.196585    54.363982  0.022651659  0.023671093            3 
  201000   0.96511733   -7.1648371    54.575158  0.022626516  0.023602719            7 
  202000   0.96148597   -7.2169015    54.522753  0.022492885  0.023533544            5 
  203000   0.95319171   -7.1978634     54.59351  0.022411129  0.023463275            6 
  204000   0.93341616   -7.1860852     54.96697  0.022453828  0.023394101            5 
  205000   0.93059933   -7.2101756    55.093057  0.022395552  0.023325694            7 
  206000   0.94772535   -7.1975016    55.280042  0.022362477  0.023257472            8 
  207000    0.9258861   -7.2390326    55.205153  0.022224297  0.023188717            3 
  208000   0.93806466   -7.2040764    55.454026  0.022217158  0.023121102            3 
  209000   0.92227328   -7.2634185    55.364942  0.022075335  0.023053198            4 
  210000   0.93171874   -7.2265682    55.480489  0.022016067  0.022984611            5 
  211000   0.94476231   -7.2755699    55.693768  0.021995959  0.022916026            5 
  212000   0.91899025   -7.2372898    55.899142  0.021972933  0.022846865            8 
  213000    0.9191758   -7.2663487    55.800481  0.021831174  0.022777582           10 
  214000   0.92228732    -7.290755    55.905338  0.021769991  0.022707235            9 
  215000   0.93692914   -7.2546199    55.818036  0.021634898  0.022637311            9 
  216000    0.9174375   -7.2562162    56.159189  0.021666354  0.022566455            4 
  217000   0.93259446   -7.2402818    56.229869  0.021593652  0.022497117            8 
  218000   0.92193263   -7.2858782    56.327314  0.021531848  0.022426953            8 
  219000    0.9239189   -7.2777155    56.601227  0.021537758  0.022356992            4 
  220000   0.90004892   -7.3337874    56.408967  0.021367033  0.022286628            8 
  221000   0.91420142    -7.267967    56.742613  0.021396159  0.022216526            7 
  222000   0.88815005   -7.3016762    56.587103  0.021241405  0.022146615            6 
  223000   0.90532148   -7.2704024    56.936195  0.021276605  0.022078206            5 
  224000   0.89839488    -7.297224    57.083376  0.021236375  0.022010282            4 
  225000   0.91670066   -7.2998377    57.085398   0.02114274  0.021943081            3 
  226000   0.88683516   -7.2764047    57.382464  0.021158726  0.021876074            8 
  227000   0.91503669   -7.3213236    57.371492  0.021061488  0.021808987            9 
  228000   0.90346885   -7.2986828    57.449001  0.020997442  0.021742499           20 
  229000   0.91322653   -7.3400983    57.609025  0.020963983  0.021674979            5 
  230000   0.90601169   -7.3412414      57.5562  0.020853695  0.021607152            4 
  231000   0.89838628   -7.3379854    57.634454   0.02079165  0.021539139            6 
  232000    0.9003608    -7.367763    57.607284  0.020692271  0.021471085           12 
  233000   0.90966586   -7.4039244    57.788412  0.020668245  0.021403444            6 
  234000   0.88793662   -7.3487791    58.035781  0.020668013  0.021337164            6 
  235000   0.88978145   -7.3644633    57.888817  0.020527949  0.021270179            3 
  236000   0.86439856   -7.3522862    58.226844  0.020560326  0.021203391           11 
  237000   0.88534512   -7.3460237    58.232883  0.020475697  0.021136495            4 
  238000   0.88923668    -7.373976     58.25534  0.020397528  0.021069529            6 
  239000   0.88718887    -7.401469    58.250822  0.020310607  0.021002153           20 
  240000   0.89666202   -7.3885446    58.492673  0.020309956  0.020934999            6 
  241000   0.88070736   -7.4236739     58.49394   0.02022612  0.020867057            4 
  242000   0.86762153   -7.4135367    58.617417  0.020185061   0.02080006            7 
  243000   0.87839786   -7.4098021    58.758341  0.020150323  0.020733511           15 
  244000   0.88452278   -7.4305393    58.823363  0.020089946  0.020666725           17 
  245000   0.85137745    -7.406265    58.845342  0.020015422  0.020600371            7 
  246000   0.86392029   -7.4588203    58.764645  0.019906723  0.020533701           11 
  247000   0.86579794   -7.4084538    59.129363  0.019949178   0.02046746            5 
  248000   0.84698571   -7.4056257    58.991482  0.019822406  0.020401998            9 
  249000   0.86646392   -7.4359123    59.095853  0.019777729  0.020336636            8 
  250000   0.87758013    -7.444578    59.247921  0.019749307  0.020271273           13 
  251000   0.87629531   -7.4462546    59.053027  0.019605919  0.020205683           10 
  252000   0.86968952   -7.4354373    59.239343   0.01958973  0.020138962            7 
  253000    0.8566322   -7.4753331    59.332483  0.019542978   0.02007271            9 
  254000   0.86236624   -7.4601326    59.453988  0.019505901  0.020007135            8 
  255000   0.85320203   -7.4665585    59.467749  0.019433905  0.019942438           30 
  256000   0.87585464   -7.4504033    59.445212  0.019350655  0.019877329           17 
  257000   0.87123368   -7.4780544     59.49984  0.019293074  0.019811688            6 
  258000   0.85586113   -7.4964605    59.417748  0.019191779  0.019746287            7 
  259000   0.86485104   -7.4427941    59.967733  0.019294637  0.019681774           11 
  260000   0.86318525   -7.5174461    59.667959  0.019124346  0.019617471            8 
  261000   0.84946479   -7.4648599    59.747019  0.019076315  0.019552391            6 
  262000   0.86742377   -7.4617733    60.048752  0.019099476  0.019488336           11 
  263000   0.82807694   -7.5163809    59.954341   0.01899694  0.019424305           11 
  264000   0.82296562   -7.4999835    60.012845  0.018943449  0.019360017            7 
  265000   0.83824031   -7.4958511    60.110387  0.018902637  0.019296429           15 
  266000   0.85422453    -7.522712    60.062456  0.018816559  0.019232097            7 
  267000   0.84868778   -7.5196431    60.066894   0.01874747  0.019168038           13 
  268000   0.84132089   -7.5026104    60.087361  0.018683881  0.019103196           16 
  269000   0.82844437   -7.5510539    60.194289  0.018647549  0.019039401            5 
  270000   0.85486647    -7.524747    60.106081  0.018551259  0.018975377            5 
  271000   0.84087467   -7.5292856    60.367827  0.018563292  0.018911283            8 
  272000   0.82604112   -7.5033409    60.320515   0.01848055  0.018846724           11 
  273000   0.82795704   -7.5428474     60.14872  0.018360415  0.018781991           10 
  274000   0.84305009   -7.5835071    60.162119  0.018297482  0.018716899            5 
  275000   0.82669406   -7.5746397    60.015732  0.018186585  0.018651838            8 
  276000   0.81383293   -7.5587923    60.355138   0.01822317  0.018586704           22 
  277000    0.8182285   -7.6024911     60.08224  0.018075283  0.018522021           20 
  278000   0.82472911   -7.5553039    60.180847  0.018039822  0.018457178            9 
  279000   0.80502873   -7.5962719    60.255306  0.017997403  0.018391876            8 
  280000   0.81542089   -7.5904948    60.272316  0.017938189  0.018326894           17 
  281000    0.8152059   -7.6040175    60.280778  0.017876862  0.018262304            9 
  282000   0.80624271   -7.6020321    60.337923  0.017830355  0.018197983           11 
  283000   0.81145615   -7.6228698    60.285109  0.017751799  0.018132848            7 
  284000   0.82078998   -7.6018454    60.252098  0.017679606   0.01806725            8 
  285000   0.80785356   -7.5966096    60.436815  0.017671583  0.018002452           10 
  286000   0.80756825   -7.6267201    60.293654  0.017568081  0.017937815           13 
  287000   0.80314534    -7.626967    60.205379  0.017481237  0.017872888           33 
  288000   0.80802955   -7.6019234    60.401839  0.017477384   0.01780779           10 
  289000   0.81500727    -7.635558    60.318864  0.017392983   0.01774308            6 
  290000   0.80688798   -7.6258115     60.53731  0.017395779  0.017678968           12 
  291000   0.80647937    -7.653235    60.401622  0.017297142  0.017614923           16 
  292000    0.7883781   -7.6296215    60.438464   0.01724842  0.017550818           14 
  293000   0.79387355   -7.6398172    60.369351  0.017169895  0.017486692           16 
  294000   0.78774896   -7.6600116    60.440052  0.017131534  0.017422766           10 
  295000   0.80500778   -7.6707706    60.447108  0.017075454  0.017359401            7 
  296000   0.79425943   -7.6504969    60.581046  0.017055475   0.01729657           25 
  297000   0.78319685   -7.6883767     60.57451  0.016996215  0.017234126           15 
  298000   0.80505458   -7.6947675    60.669766  0.016965818  0.017171357           31 
  299000   0.79272392   -7.6552113    60.815147  0.016949595  0.017109101           18 
  300000   0.79060699   -7.6932874    60.509542  0.016808206  0.017046317           10 
  301000   0.78333332   -7.6964404    60.751775  0.016819428  0.016983411            8 
  302000   0.78117927   -7.7191753    60.670621  0.016741341  0.016921013           11 
  303000   0.78212948   -7.6941379    60.799209  0.016721455  0.016858635           20 
  304000    0.7793964   -7.7180072    60.758204  0.016655209  0.016796891           30 
  305000   0.78403354    -7.715351    60.759929  0.016601074  0.016735239           27 
  306000   0.78803298    -7.743555     60.72944  0.016538518  0.016673478           45 
  307000   0.76858081   -7.7362961    60.651389  0.016463461  0.016611323           86 
  308000   0.76151791   -7.7341173    60.629396  0.016404057  0.016549426           25 
  309000   0.77188033   -7.7336506    60.673984  0.016362995  0.016488092           32 
  310000   0.76611738   -7.7364756    60.732088   0.01632583  0.016426984           71 
  311000   0.78527829   -7.7514577    60.688552   0.01626167  0.016365865           38 
  312000   0.76548417   -7.7335997    60.703886  0.016213645  0.016305191           56 
  313000   0.76242849   -7.7470703    60.911063  0.016217003  0.016244735           13 
  314000   0.77173019   -7.7675938    60.706729  0.016111128  0.016184116           15 
  315000     0.770237   -7.7827116    60.841714  0.016095692   0.01612359           14 
  316000   0.76815679   -7.7770993    60.658238  0.015996371    0.0160633           28 
  317000   0.74798297   -7.7587838    60.668038  0.015948485  0.016003052           21 
  318000   0.74095472   -7.7653698    60.962712  0.015975553  0.015943289           18 
  319000   0.75727827   -7.8341966    60.703477  0.015857753  0.015883416           12 
  320000   0.75788809    -7.790652    60.793114   0.01583154  0.015823845           21 
  321000   0.75006661   -7.7957361    60.974045  0.015829191  0.015764841           31 
  322000   0.74479334   -7.7836374    60.895671  0.015759749  0.015705987           24 
  323000   0.76036089   -7.7849998    60.750153  0.015673414  0.015647274           13 
  324000   0.73553882   -7.8237376     60.86044  0.015653405  0.015588792           30 
  325000   0.75047536   -7.8175329    60.759324  0.015579314  0.015530352           12 
  326000   0.74102432   -7.8099977    60.891866  0.015565406  0.015472363           11 
  327000   0.74184269   -7.8284536    60.870621  0.015512391  0.015414444           15 
  328000     0.744367   -7.8410114    60.842171  0.015457869  0.015356428           26 
  329000   0.75963011    -7.828933    60.928137  0.015432659  0.015298698           34 
  330000   0.73470109    -7.854485    60.816317  0.015357656  0.015241149           15 
  331000   0.74713134   -7.8856233    60.745142  0.015293339  0.015183533           14 
  332000   0.73567457   -7.8863198    60.676983  0.015230166  0.015125785           20 
  333000   0.74908672   -7.8991693    60.595756  0.015164103  0.015068266           25 
  334000   0.73988587   -7.8927473    60.699296  0.015144535  0.015010792           35 
  335000   0.72114614   -7.9129417    60.643789   0.01508552  0.014953809           86 
  336000   0.73923122   -7.8969284    60.631907  0.015037675  0.014897085           34 
  337000   0.71976922   -7.9309512    60.691531  0.015007797    0.0148405           43 
  338000   0.72820754   -7.9201225    60.794768  0.014988848   0.01478425           40 
  339000   0.73166828   -7.9016168    60.739273  0.014930991  0.014728434           33 
  340000   0.71727535   -7.9123191    60.682789  0.014873233  0.014672956           33 
  341000   0.71848387   -7.8999435    60.863347  0.014873741  0.014617482           39 
  342000   0.73041829    -7.917592    60.686892  0.014787254  0.014562098           43 
  343000   0.71762075   -7.9052083    60.817561  0.014775889  0.014507032           74 
  344000   0.72124387    -7.933502    60.664759   0.01469592  0.014451946           32 
  345000   0.72765155   -7.9336931    60.714257  0.014665279  0.014396984           30 
  346000   0.72231495   -7.9196025    60.661962  0.014610299  0.014342111           50 
  347000   0.70810829   -7.9391622    60.726122  0.014583603  0.014287637           58 
  348000   0.71680463   -7.9578312    60.652747  0.014524125  0.014233293           36 
  349000   0.71249183   -7.9601307    60.631551  0.014477448  0.014179042           54 
  350000   0.71299022   -7.9531672    60.709011  0.014454527  0.014125052           32 
  351000    0.7139133    -7.969738    60.622729  0.014392861  0.014071131           23 
  352000   0.70561358   -7.9674661      60.7231  0.014375734  0.014017618           23 
  353000   0.71221586    -7.958902    60.784902  0.014349599  0.013964482           36 
  354000   0.70900604   -7.9531906    60.679223  0.014284186  0.013911329           37 
  355000   0.70341771   -7.9690721    60.679349  0.014243979  0.013858427           66 
  356000   0.69498812   -7.9686139    60.822898   0.01423757  0.013805789           36 
  357000   0.69843953    -7.976734      60.7577   0.01418247  0.013753271           46 
  358000    0.6860702   -7.9729889    60.770085  0.014145737  0.013701123           67 
  359000    0.6841282   -7.9984758    60.661792  0.014081196  0.013649059           43 
  360000   0.70383588   -7.9880212    60.718061  0.014055107  0.013597202           32 
  361000   0.68441141   -7.9926288    60.744181  0.014022202  0.013545618           50 
  362000   0.69281522   -7.9761681    60.773639  0.013990248  0.013494086           93 
  363000   0.68779578   -7.9973078    60.667206  0.013927274  0.013442853           18 
  364000   0.67505122   -8.0179312    60.792425   0.01391768  0.013391946           31 
  365000   0.68409889   -7.9761998    60.751013  0.013870094  0.013341018           60 
  366000   0.68974021   -8.0084321     60.70664  0.013822095  0.013290323           36 
  367000   0.66505306     -7.99994    60.762558  0.013797129  0.013239859           48 
  368000   0.66429361   -8.0197842    60.722202  0.013750499  0.013189751           47 
  369000   0.68135965   -8.0118604    60.646726  0.013696189  0.013139673           67 
  370000   0.66750915    -8.008089     60.53071  0.013633043  0.013089895           43 
  371000   0.67771481   -8.0461362    60.578327  0.013606992  0.013040279           31 
  372000   0.68087719    -8.043912    60.582419   0.01357133   0.01299079           22 
  373000   0.66425173   -8.0353384    60.798421  0.013583204  0.012941542           64 
  374000   0.67203298   -8.0431565    60.684035  0.013521398  0.012892716           51 
  375000   0.66913402   -8.0519293    60.646944  0.013477099  0.012844067           35 
  376000   0.69269104   -8.0577101    60.732604   0.01346024  0.012795515           29 
  377000   0.65913686    -8.039943    60.695956  0.013416436  0.012747343           33 
  378000   0.66358319   -8.0610253    60.603854  0.013360638  0.012699254           29 
  379000   0.65070118   -8.0857119    60.670303  0.013339996  0.012651321           61 
  380000   0.66285843   -8.0730619    60.603752  0.013290296  0.012603696           55 
  381000   0.66800603    -8.069209    60.621873  0.013259377  0.012556271           32 
  382000   0.67052803   -8.0624089    60.665567  0.013234199   0.01250899           35 
  383000   0.66542539   -8.0559566    60.563486  0.013177434  0.012461995           44 
  384000   0.65079534   -8.0758358    60.649461  0.013161775  0.012414964           68 
  385000   0.65794907   -8.0650368    60.637324  0.013124962  0.012368329           88 
  386000   0.65703758   -8.0945556    60.481563  0.013057332  0.012321852           56 
  387000   0.63885214   -8.0482822    60.772505  0.013086241   0.01227552           90 
  388000     0.643077   -8.0906319    60.627906  0.013021458  0.012229359           74 
  389000   0.64629154    -8.103522    60.550875  0.012971481  0.012183432           59 
  390000   0.63818958   -8.0995719    60.671964  0.012964095  0.012137635           99 
  391000   0.64709628   -8.1064738    60.621248   0.01292013  0.012092076           56 
  392000   0.62801971   -8.1031986     60.49502  0.012860336  0.012046659           50 
  393000   0.64750998       -8.126    60.416716  0.012811008  0.012001327           50 
  394000   0.63838288   -8.1056994    60.613722  0.012820161  0.011956288           74 
  395000   0.64028255   -8.1277757    60.470185  0.012757423  0.011911444           66 
  396000   0.64187521   -8.1103926    60.631525  0.012759159  0.011866811           43 
  397000   0.61651986   -8.1163975    60.579052  0.012716006  0.011822322           46 
  398000   0.62461658   -8.0988749    60.577709  0.012683775  0.011778052           50 
  399000   0.63719215   -8.1172489    60.516188  0.012639137  0.011733911           43 
  400000   0.63652618   -8.1181295    60.384727  0.012580151   0.01168989           59 
  401000   0.63117039   -8.1356394    60.460841  0.012564597  0.011646281           38 
  402000   0.62874576   -8.1493827    60.500817  0.012541629  0.011602586           26 
  403000   0.62194425   -8.1213819    60.390959  0.012487791  0.011559163           47 
  404000   0.61617495   -8.1311819    60.496954  0.012478745  0.011515862           52 
  405000    0.6230948   -8.1596828     60.29229  0.012405821   0.01147276           29 
  406000   0.62674662   -8.1393275    60.342585  0.012385588  0.011429884           41 
  407000   0.61017545   -8.1340136    60.404092   0.01236775  0.011387226           49 
  408000   0.61725864   -8.1539679    60.345687  0.012325508  0.011344729           84 
  409000   0.60668406   -8.1507553    60.527388  0.012332394  0.011302432           26 
  410000   0.61524392   -8.1724168    60.420727  0.012280636  0.011260345           88 
  411000   0.61661842   -8.1494603    60.367427  0.012239949  0.011218456           44 
  412000   0.61190785   -8.1840946    60.398643  0.012216554  0.011176683           49 
  413000   0.61859988   -8.1792683    60.490254  0.012205459   0.01113521           32 
  414000   0.61212672   -8.1941442    60.397026  0.012157211  0.011093949           37 
  415000   0.60231354   -8.1747971    60.384081  0.012125318   0.01105284           52 
  416000   0.59223959   -8.1888584     60.36475  0.012092298  0.011011872           66 
  417000   0.61377301    -8.189111    60.338684   0.01205809  0.010971139           40 
  418000   0.59139299   -8.2057898     60.36426  0.012034342   0.01093053          107 
  419000   0.60411771   -8.1988409    60.341169  0.012001028  0.010890129           30 
  420000   0.58868253   -8.2060994    60.376118  0.011979388  0.010849762           29 
  421000   0.60564298   -8.2015591    60.288047  0.011933501   0.01080961           62 
  422000   0.59484247    -8.185378    60.437472   0.01193473  0.010769674           52 
  423000   0.60819778   -8.2053585    60.324823  0.011884323  0.010729979           90 
  424000   0.57797244    -8.182216    60.254051  0.011842384  0.010690386           66 
  425000   0.58863813   -8.2129943    60.211522  0.011806181  0.010650929           88 
  426000   0.57899207   -8.2127069    60.243433  0.011784709  0.010611701           57 
  427000    0.5715199   -8.2098734    60.236827  0.011755821  0.010572701           62 
  428000   0.57998494   -8.2258306    60.354233  0.011751214  0.010533805           55 
  429000   0.58036431   -8.2165588    60.226298   0.01169897  0.010495109           72 
  430000   0.58512929   -8.2232456    60.323756   0.01169065  0.010456583           68 
  431000   0.57328949   -8.2364814    60.192966  0.011638238  0.010418099           81 
  432000   0.56719519   -8.2354261    60.347911  0.011641187  0.010379973           40 
  433000   0.56766078   -8.2470853    60.232784  0.011592145  0.010341883           90 
  434000   0.56990145   -8.2307478    60.161323  0.011551713  0.010304025           73 
  435000   0.57333056   -8.2269541    60.281939  0.011548264  0.010266295           41 
  436000   0.56688943    -8.239561     60.13579  0.011493844  0.010228795           55 
  437000   0.56834894   -8.2472889    60.324928   0.01150361  0.010191449           60 
  438000   0.56263416   -8.2366878    60.146477  0.011443394   0.01015427           44 
  439000   0.57011868   -8.2552883    60.142384   0.01141655  0.010117235           55 
  440000    0.5521003   -8.2708575    60.216744  0.011404686    0.0100804           64 
  441000   0.58075507   -8.2455636    60.192934  0.011374326  0.010043719           47 
  442000   0.55452965   -8.2509489    60.200223  0.011349967  0.010007239           40 
  443000   0.56931155   -8.2584245    60.205634  0.011325364 0.0099708746           59 
  444000   0.56762369   -8.2662731    60.131145  0.011285876 0.0099347027           57 
  445000   0.55095431   -8.2541887     60.20083  0.011273564 0.0098987384           68 
  446000   0.55246071    -8.257268    60.113427  0.011231956 0.0098629627           59 
  447000   0.55001117   -8.2777687    60.090033  0.011202467 0.0098271781           45 
  448000   0.54974121   -8.2704988       60.146  0.011187872 0.0097916692           42 
  449000   0.54134004   -8.2654765    60.133884  0.011160706 0.0097562854           44 
  450000   0.54795535   -8.2556939    60.006623  0.011112338 0.0097210456           55 
  451000    0.5455089   -8.2743521    60.250984   0.01113285 0.0096859548           53 
  452000   0.53639509   -8.2560142    60.112765  0.011082737 0.0096511467           99 
  453000   0.55258798   -8.2812853    60.028011   0.01104268  0.009616407           65 
  454000   0.52607382   -8.2590958    60.064631  0.011025079 0.0095817753           65 
  455000   0.54124984   -8.2812117     60.12003  0.011010994 0.0095473133          147 
  456000   0.54809248   -8.2897551    60.060399   0.01097595 0.0095130174          116 
  457000   0.54864378   -8.2903381    60.084097  0.010956254 0.0094788702           53 
  458000   0.53111239   -8.2890791    60.076271  0.010930908  0.009444873           30 
  459000   0.52673311   -8.2902951    60.029777  0.010898652 0.0094110099           50 
  460000   0.52283939   -8.2992212    59.913824  0.010853954 0.0093772594           41 
  461000   0.54621797   -8.3075614    60.044355  0.010854005 0.0093436922           43 
  462000   0.52362365   -8.3030321    60.085567  0.010837945  0.009310264           47 
  463000   0.52909734   -8.2857445    60.006068  0.010800228 0.0092769771           42 
  464000   0.52779531   -8.3126366    59.990369  0.010774132 0.0092438648           50 
  465000    0.5293546    -8.311694    60.159907  0.010781345 0.0092109319           53 
  466000   0.52282058   -8.3406141    59.863579  0.010705218 0.0091781538           59 
  467000   0.52447197   -8.3146561    59.967441  0.010700828 0.0091454458           47 
  468000   0.52018196   -8.3114304    60.101196   0.01070178 0.0091130101           52 
  469000   0.52086724   -8.3097893    60.041945  0.010668434 0.0090807068           49 
  470000    0.5208353   -8.3506114    59.963646  0.010631852 0.0090485469          100 
  471000    0.5059859   -8.3234742    59.923255  0.010602133 0.0090165171           54 
  472000   0.50757006   -8.3310545    60.010435  0.010595063 0.0089845779           57 
  473000   0.51764597   -8.3351569    59.884618  0.010550497 0.0089528069           67 
  474000   0.51681943   -8.3272011    60.103761  0.010566765 0.0089211365           48 
  475000   0.50584213   -8.3455033    60.026776  0.010531013 0.0088896083           61 
  476000   0.50130431   -8.3332041    59.936675  0.010493115 0.0088582189           42 
  477000   0.51967784   -8.3312548    59.937485  0.010471259 0.0088269994           44 
  478000   0.50132721   -8.3385574     59.88034   0.01043939 0.0087958453           65 
  479000   0.50471996   -8.3474356    59.758221   0.01039635 0.0087648364           63 
  480000   0.50899101   -8.3456871     59.80756  0.010383257 0.0087339691           48 
  481000   0.50448523    -8.379859    59.901039  0.010377865 0.0087032418           62 
  482000   0.49811223   -8.3576668    59.772846  0.010334171 0.0086726385          104 
  483000   0.49428885   -8.3514437    59.869572  0.010329464  0.008642158           41 
  484000   0.50118138   -8.3516739    59.765381  0.010290183 0.0086118271           75 
  485000     0.491773   -8.3502192    59.825354   0.01027927 0.0085816303           46 
  486000   0.48683794   -8.3902129    59.777412  0.010249899 0.0085515607           54 
  487000   0.49667897   -8.3829412     59.77379  0.010228232  0.008521659           46 
  488000   0.48946068   -8.3633216    59.875855  0.010224702 0.0084918779           40 
  489000   0.48742793   -8.3793376    59.853222  0.010199936 0.0084622954           70 
  490000   0.48741574   -8.3798986    59.847467  0.010178141  0.008432857           88 
  491000   0.48248661   -8.3873509    59.772852  0.010144747 0.0084035265           44 
  492000   0.49196291   -8.3936925    59.739299  0.010118445 0.0083743319           77 
  493000   0.48551787   -8.3894542    59.816112  0.010110905 0.0083452521           53 
  494000   0.49105472   -8.3882832    59.798088  0.010087397 0.0083163256          103 
  495000   0.47955274   -8.3883394    59.746788  0.010058382 0.0082875113           57 
  496000   0.47623188   -8.3714216     59.83196  0.010052413 0.0082587876           73 
  497000   0.47552575   -8.4046826    59.673293  0.010005582  0.008230212           59 
  498000   0.48675433   -8.4050747    59.671193 0.0099851395 0.0082017829          104 
  499000   0.46893698    -8.418417    59.643341 0.0099604778 0.0081734236           53 
  500000    0.4803586   -8.4004862    59.702411 0.0099504019 0.0081452489           63 
  501000   0.45873252   -8.4131963    59.697751 0.0099297656 0.0081172107           41 
  502000   0.47201073   -8.3962909    59.696125 0.0099097153 0.0080892225           54 
  503000   0.46232252   -8.4057421    59.626669 0.0098785071 0.0080613821           69 
  504000   0.46010144   -8.4226299    59.710768 0.0098728122 0.0080336044           66 
  505000   0.45116155   -8.4124156    59.576144 0.0098310468 0.0080060291           69 
  506000   0.45959908   -8.4144657    59.613804 0.0098178202 0.0079785538           45 
  507000   0.45871855   -8.4257545    59.625167 0.0098003232 0.0079511931           49 
  508000   0.44718229   -8.4206704    59.717299 0.0097961448 0.0079239622           74 
  509000   0.44818022   -8.4286268    59.614867 0.0097601289 0.0078968595          159 
  510000   0.45081531   -8.4248719    59.646995  0.009746241 0.0078698242           91 
  511000   0.44785757   -8.4375183     59.63759 0.0097256344 0.0078429409           94 
  512000   0.45691155   -8.4387547    59.758081 0.0097262502 0.0078161887           59 
Loop time of 1322.51 on 48 procs for 500000 steps with 4000 atoms

Performance: 65330.528 tau/day, 378.070 timesteps/s
99.4% CPU use with 48 MPI tasks x no OpenMP threads

MPI task timing breakdown:
Section |  min time  |  avg time  |  max time  |%varavg| %total
---------------------------------------------------------------
Pair    | 91.649     | 100.66     | 111.92     |  41.3 |  7.61
Neigh   | 9.1434     | 9.5426     | 9.9456     |   6.7 |  0.72
Comm    | 83.905     | 94.419     | 103.02     |  45.4 |  7.14
Output  | 0.96391    | 0.96476    | 0.9898     |   0.4 |  0.07
Modify  | 1099.4     | 1103.7     | 1107.2     |   5.5 | 83.45
Other   |            | 13.25      |            |       |  1.00

Nlocal:        83.3333 ave          88 max          76 min
Histogram: 1 1 2 2 4 16 4 6 6 6
Nghost:        2410.60 ave        2430 max        2388 min
Histogram: 1 1 6 1 9 12 10 5 1 2
Neighs:        16696.8 ave       19295 max       14325 min
Histogram: 3 5 4 8 6 8 4 3 5 2
FullNghs:      33392.5 ave       35574 max       30633 min
Histogram: 2 1 2 5 10 7 6 9 5 1

Total # of neighbors = 1602842
Ave neighs/atom = 400.71050
Neighbor list builds = 26628
Dangerous builds = 0

#clear
#
#next RN
#
#jump SELF
Total wall time: 0:22:06
