
units lj                  # Use reduced LJ style units
atom_style atomic         # Uncharged point particles
atom_modify map hash      # Needed for indexing of clusters etc
                          # Used to be able to find where atoms are in relation to each other.

lattice fcc 1.0 spacing 1 1 1
Lattice spacing in x,y,z = 1.5874011 1.5874011 1.5874011
region box block 0 10 0 10 0 10 units lattice
create_box 2 box
Created orthogonal box = (0.0000000 0.0000000 0.0000000) to (15.874011 15.874011 15.874011)
  3 by 4 by 4 MPI processor grid
create_atoms 1 box
Created 4000 atoms
  using lattice units in orthogonal box = (0.0000000 0.0000000 0.0000000) to (15.874011 15.874011 15.874011)
  create_atoms CPU = 0.002 seconds
set type 1 type/fraction 2 0.72 78393
Setting atom values ...
  2894 settings made for type/fraction
mass 1 1.0
mass 2 1.0
pair_style lj/cut  3.5
pair_modify tail  yes
pair_coeff 1  1  1.0  1.0   # Intearaction between 1 and 1 set with epsilon = 1 and sigma = 1
pair_coeff 1  2  1.5  0.8
pair_coeff 2  2  0.5  0.88

write_data data.0
System init for write_data ...
Neighbor list info ...
  update every 1 steps, delay 10 steps, check yes
  max neighbors/atom: 2000, page size: 100000
  master list distance cutoff = 3.8
  ghost atom cutoff = 3.8
  binsize = 1.9, bins = 9 9 9
  1 neighbor lists, perpetual/occasional/extra = 1 0 0
  (1) pair lj/cut, perpetual
      attributes: half, newton on
      pair build: half/bin/atomonly/newton
      stencil: half/bin/3d
      bin: standard
WARNING: Not all mixed pair coeffs generated from mixing. Use write_data with 'pair ij' option to store all pair coeffs. (../write_data.cpp:312)


#############################
#   M E L T   S Y S T E M   #
#############################

velocity all create 2.4 9580093 mom yes dist gaussian # Assign velocities
                                                    # Temperature 2.4, random number seed, zero linear momentum
                                                                                # Gaussian distribution

timestep 0.002   # simulation timestep
thermo 1000       # output thermodynamic data every 1000 steps bf 100

# Define a fix  in this case with index 1 applied to all
# particles in the simulation. This fix is for simulations
# in the anisotropic NPT ensemble. Note that we use the MTK
# correction.
fix 1 all npt temp 2.4 2.4 0.1 iso 5.68 5.68 0.5 mtk yes tchain 5 pchain 5 # Use NPT ensemble
                                                                         # Set temperature and pressure and damping
                                                                         # Numbers of thermostats in chain and in barostat
run 10000          # run for 10000 steps
Per MPI rank memory allocation (min/avg/max) = 3.642 | 3.644 | 3.648 Mbytes
Step Temp E_pair E_mol TotEng Press Volume 
       0          2.4   -4.0785584            0  -0.47945841   -3.6688173         4000 
    1000    2.3696287   -3.6750474            0  -0.12149293    5.7355413    3665.2221 
    2000    2.3943592   -3.6533602            0 -0.062719264    5.8784512     3662.128 
    3000    2.4108035   -3.6618363            0 -0.046535106     5.497742    3684.0401 
    4000    2.3965816   -3.6847792            0 -0.090805603    5.5425323    3670.7166 
    5000    2.3851402    -3.683504            0  -0.10668812    5.6407361    3666.1442 
    6000    2.4376021   -3.6530099            0 0.0024791746    5.8076169    3659.5889 
    7000    2.3926245   -3.6479503            0 -0.059910777      5.50906    3690.9766 
    8000    2.3947128   -3.6618404            0 -0.070669139    5.7585637    3674.6581 
    9000    2.4374914   -3.6444145            0  0.010908587    5.7927946    3676.6773 
   10000    2.3786191   -3.7270299            0  -0.15999333    5.6481166    3638.7834 
Loop time of 2.67399 on 48 procs for 10000 steps with 4000 atoms

Performance: 646225.780 tau/day, 3739.733 timesteps/s
99.6% CPU use with 48 MPI tasks x no OpenMP threads

MPI task timing breakdown:
Section |  min time  |  avg time  |  max time  |%varavg| %total
---------------------------------------------------------------
Pair    | 1.2032     | 1.2655     | 1.3409     |   2.8 | 47.32
Neigh   | 0.21923    | 0.22621    | 0.24229    |   0.9 |  8.46
Comm    | 0.81234    | 0.89952    | 0.96832    |   3.7 | 33.64
Output  | 0.00025734 | 0.00026161 | 0.00032595 |   0.0 |  0.01
Modify  | 0.23167    | 0.26692    | 0.29929    |   3.4 |  9.98
Other   |            | 0.01562    |            |       |  0.58

Nlocal:        83.3333 ave          97 max          75 min
Histogram: 4 6 8 8 6 12 2 0 1 1
Nghost:        1746.85 ave        1766 max        1718 min
Histogram: 1 1 1 5 7 11 5 7 7 3
Neighs:        10494.2 ave       12176 max        9192 min
Histogram: 3 3 7 6 13 6 7 1 0 2

Total # of neighbors = 503721
Ave neighs/atom = 125.93025
Neighbor list builds = 909
Dangerous builds = 228

# Equilibrate just above the melting temperature to avoid step fn in T

fix 1 all npt temp 1.25 1.25 0.1 iso 5.68 5.68 0.5 mtk yes tchain 5 pchain 5
run 2000
Per MPI rank memory allocation (min/avg/max) = 3.644 | 3.646 | 3.649 Mbytes
Step Temp E_pair E_mol TotEng Press Volume 
   10000    2.3786191   -3.7270299            0  -0.15999333    5.6481166    3638.7834 
   11000     1.241648   -5.3934907            0   -3.5314843    5.5439755    2814.7123 
   12000    1.2642165   -5.4009155            0   -3.5050649    6.1218565    2787.1974 
Loop time of 0.666307 on 48 procs for 2000 steps with 4000 atoms

Performance: 518680.191 tau/day, 3001.621 timesteps/s
99.6% CPU use with 48 MPI tasks x no OpenMP threads

MPI task timing breakdown:
Section |  min time  |  avg time  |  max time  |%varavg| %total
---------------------------------------------------------------
Pair    | 0.30047    | 0.32771    | 0.36678    |   2.5 | 49.18
Neigh   | 0.042555   | 0.044907   | 0.050239   |   0.7 |  6.74
Comm    | 0.20143    | 0.24298    | 0.27247    |   3.1 | 36.47
Output  | 5.3811e-05 | 5.5249e-05 | 7.3377e-05 |   0.0 |  0.01
Modify  | 0.041748   | 0.045673   | 0.048641   |   0.9 |  6.85
Other   |            | 0.004982   |            |       |  0.75

Nlocal:        83.3333 ave          89 max          75 min
Histogram: 1 0 5 6 5 8 3 11 3 6
Nghost:        2093.44 ave        2116 max        2075 min
Histogram: 2 7 6 6 6 7 9 2 2 1
Neighs:        13701.1 ave       15271 max       12346 min
Histogram: 2 7 5 11 2 7 4 3 3 4

Total # of neighbors = 657651
Ave neighs/atom = 164.41275
Neighbor list builds = 144
Dangerous builds = 8

#############################
# L I N E A R  Q U E N C H  #
#############################

# Define solid atoms. This closely follows ten Wolde  Ruiz-Montero and Frenkel  Faraday Discuss  1996  104  93-110
# Compute components of the per-atom q6 vector
compute q6 all orientorder/atom degrees 1 6 components 6 nnn NULL cutoff 1.3 # compute the Q6 parameter.
                                                                             # Use all neighbours within 1.3 unit cell.

# get number of connections
compute coord_number all coord/atom orientorder q6 0.5

# An atom is solid if it has 8 or more connections (of a possible 14)
variable is_solid atom c_coord_number>=8
group solid dynamic all var is_solid    # Must be dynamic to update
dynamic group solid defined

# do clustering
compute cluster solid cluster/atom 1.3 # Create a cluster where all atoms within are solid and max 1.3 units from another member

# define chunks one chunk per cluster
compute clus_chunks solid chunk/atom c_cluster nchunk every compress yes  # Says which atoms are in which chunk

# count the size of each chunk
compute size_chunks solid property/chunk clus_chunks count


# Find the maximum entry in the vector of chunk sizes
variable max_n equal max(c_size_chunks)


# Thermo style which includes this variable
# thermo_style custom step temp pe vol v_max_n

thermo ${N}  # Print the thermo information every 100 steps
thermo 1000  

# Reset the npt fix at a lower temperature (below freezing)
fix 1  all npt temp  ${temp} ${temp}  0.1  iso  5.68  5.68  0.5  mtk yes tchain  5  pchain  5
fix 1  all npt temp  0.45 ${temp}  0.1  iso  5.68  5.68  0.5  mtk yes tchain  5  pchain  5
fix 1  all npt temp  0.45 0.45  0.1  iso  5.68  5.68  0.5  mtk yes tchain  5  pchain  5

dump dmp2 all dcd ${N} traj.dcd
dump dmp2 all dcd 1000 traj.dcd


compute msd all msd com yes
variable twopoint equal c_msd[4]/6/(step*dt+1.0e-6)
fix 9 all vector 10 c_msd[4]
variable fit equal slope(f_9)/6/(10*dt)
thermo_style custom step temp pe c_msd[4] v_twopoint v_fit v_max_n

fix 1 all npt temp 1.25 ${temp} 0.1 iso 5.68 5.68 0.5 mtk yes tchain 5 pchain 5
fix 1 all npt temp 1.25 0.45 0.1 iso 5.68 5.68 0.5 mtk yes tchain 5 pchain 5
run 500000 # 5000000  # Run for this many steps
Neighbor list info ...
  update every 1 steps, delay 10 steps, check yes
  max neighbors/atom: 2000, page size: 100000
  master list distance cutoff = 3.8
  ghost atom cutoff = 3.8
  binsize = 1.9, bins = 8 8 8
  4 neighbor lists, perpetual/occasional/extra = 1 3 0
  (1) pair lj/cut, perpetual
      attributes: half, newton on
      pair build: half/bin/atomonly/newton
      stencil: half/bin/3d
      bin: standard
  (2) compute orientorder/atom, occasional
      attributes: full, newton on
      pair build: full/bin/atomonly
      stencil: full/bin/3d
      bin: standard
  (3) compute coord/atom, occasional
      attributes: full, newton on
      pair build: full/bin/atomonly
      stencil: full/bin/3d
      bin: standard
  (4) compute cluster/atom, occasional
      attributes: full, newton on
      pair build: full/bin/atomonly
      stencil: full/bin/3d
      bin: standard
Per MPI rank memory allocation (min/avg/max) = 9.845 | 9.848 | 9.852 Mbytes
Step Temp PotEng c_msd[4] v_twopoint v_fit v_max_n 
   12000    1.2642165   -5.4009155 8.3678421e-31 5.8110012e-33 8.3333333e+20            1 
   13000    1.2576576   -5.3967655   0.67482091 0.0043257749  0.056425624            2 
   14000    1.2367804   -5.4061015    1.3405739 0.0079796061  0.055432557            2 
   15000    1.2491852   -5.4511211    2.0394413  0.011330229  0.056190357            2 
   16000    1.2437942   -5.4718073    2.7224835  0.014179601   0.05669118            2 
   17000    1.2752174   -5.4539691    3.4286892    0.0168073   0.05714275            4 
   18000    1.2328204   -5.4933957    4.0614359  0.018802944  0.057169332            2 
   19000    1.2518383   -5.4130985    4.7626755  0.020888927  0.056988005            2 
   20000    1.2463009   -5.4783688     5.335128  0.022229699  0.056645002            2 
   21000    1.2352821   -5.4734071    5.9194576  0.023489911   0.05574774            5 
   22000     1.205776   -5.4429239    6.5632954  0.024860967  0.055114683            3 
   23000    1.2029965   -5.4780592    7.1536257  0.025918933  0.054755947            2 
   24000    1.2253867   -5.4328967    7.6978544  0.026728661   0.05417925            4 
   25000    1.2278657   -5.4874257     8.320611   0.02773537  0.053599716            2 
   26000    1.2229185   -5.4147091    8.9950639  0.028830332  0.053238854            3 
   27000    1.2175941   -5.4156668     9.636058  0.029740919  0.053029142            1 
   28000    1.2035652   -5.4904768    10.203203  0.030366676  0.052822809            2 
   29000    1.2246803   -5.4947671    10.680492  0.030691068  0.052553581            1 
   30000    1.2566723   -5.4748015    11.309801  0.031416113  0.052247557            1 
   31000     1.231259   -5.5038502    11.902464   0.03199587  0.052057068            4 
   32000    1.1916591   -5.4804175    12.569975   0.03273431  0.051840586            4 
   33000    1.2082759   -5.4835828    13.189466  0.033306732  0.051684454            1 
   34000    1.2339602   -5.5139889    13.732791  0.033658801  0.051588578            2 
   35000    1.2304844   -5.5408862    14.298968  0.034045162  0.051421434            2 
   36000    1.2280487   -5.5198111    14.925138   0.03454893  0.051287457            4 
   37000    1.2044097   -5.4950856    15.552372  0.035027864  0.051186305            4 
   38000     1.210574   -5.5080799    16.201886  0.035530451  0.051169879            6 
   39000    1.2077324   -5.5337673    16.933387  0.036182451  0.051165556            2 
   40000    1.1907362   -5.4940229    17.591433  0.036648819  0.051204844            2 
   41000    1.2051868   -5.4887833    18.295575  0.037186127  0.051262042            4 
   42000    1.1863125   -5.4629645    18.971064  0.037640999   0.05133534            1 
   43000    1.2000961   -5.5518259    19.414207  0.037624431  0.051395802            1 
   44000    1.1667453   -5.5526337    20.134838  0.038134162  0.051419336            1 
   45000    1.1830529   -5.5126436    20.844531  0.038600983  0.051480299            2 
   46000    1.2170832   -5.5520325    21.376301  0.038725183  0.051558676            1 
   47000    1.2092491   -5.5393906    22.086291   0.03916009  0.051609392            3 
   48000    1.1747628    -5.573216    22.718006  0.039440983  0.051645658            3 
   49000    1.1761892   -5.5144742    23.308913  0.039641007  0.051692771            2 
   50000    1.1800304    -5.530552    23.757783  0.039596304  0.051712217            2 
   51000    1.2072465   -5.5483186    24.282031   0.03967652  0.051674199            3 
   52000     1.174438   -5.5220716    24.851084  0.039825455  0.051625627            4 
   53000    1.1661571   -5.5523196    25.526826  0.040136518   0.05158119            2 
   54000     1.180388   -5.5679428    25.895846  0.039962724   0.05153387            3 
   55000     1.183892   -5.6169091    26.322731  0.039882925  0.051429358            3 
   56000    1.1836556   -5.5538766    27.107693  0.040338829  0.051334703            3 
   57000    1.1842348    -5.562822    27.615581  0.040373656  0.051259797            2 
   58000    1.1601552   -5.5775594    28.244587  0.040581302  0.051178128            5 
   59000    1.1494816   -5.5777505    28.723823   0.04057037   0.05108772            2 
   60000    1.1714375   -5.6055665    29.147608  0.040482788   0.05096734            2 
   61000    1.1655855   -5.6107642    29.808332  0.040721765  0.050870853            7 
   62000    1.1704996   -5.5896244     30.29035  0.040712836  0.050775289            2 
   63000     1.183764   -5.6101887    30.623982  0.040507912  0.050637579            3 
   64000    1.1466881   -5.5917373    31.045621  0.040423986  0.050480414            3 
   65000    1.1560335   -5.5910353     31.58707  0.040496244  0.050305038            2 
   66000    1.1499414   -5.6128762    32.001688  0.040406172  0.050129034            2 
   67000    1.1719401   -5.6139692    32.415852  0.040318224  0.049947689            3 
   68000     1.161324   -5.5940389    32.943087   0.04037143  0.049760131            4 
   69000    1.1767656   -5.6732168    33.346882  0.040274012  0.049575691            2 
   70000    1.1618517   -5.6132397    33.835954  0.040280897  0.049381066            4 
   71000    1.1745076   -5.5857612    34.366945   0.04033679  0.049194293            2 
   72000    1.1581059   -5.6191754    34.680275  0.040139207  0.049004629            1 
   73000    1.1598267   -5.6322835    35.133452   0.04010668  0.048816595            2 
   74000    1.1596089   -5.6791175    35.737569  0.040245009  0.048641816            4 
   75000    1.1439712   -5.6089517    36.307569  0.040341743  0.048475242            2 
   76000    1.1381156   -5.6478202    36.537652  0.040063215  0.048299087            3 
   77000    1.1527666   -5.6366834    37.001077  0.040044455  0.048116852            1 
   78000    1.1654618   -5.6131175    37.628665  0.040201565  0.047947119            5 
   79000    1.1487541   -5.6498152    37.716298  0.039785124  0.047769951            2 
   80000    1.1227944    -5.665774    38.312536  0.039908892  0.047598563            5 
   81000    1.1497405   -5.6738484    38.662245  0.039775972  0.047415347            2 
   82000    1.1272238   -5.6872656    39.211368  0.039848951  0.047230231            2 
   83000    1.1321932   -5.6768198    39.783184  0.039942956  0.047059616            3 
   84000    1.1450225   -5.6233604    40.133865  0.039815342  0.046887335            4 
   85000    1.1277021   -5.6450172    40.688698   0.03989088   0.04672284            2 
   86000    1.1163271   -5.6864204    40.959294  0.039689238   0.04656472            4 
   87000    1.1624383   -5.6848354    41.613152  0.039859341  0.046418182            2 
   88000    1.1193231   -5.6508658    42.208689  0.039970349  0.046269153            3 
   89000    1.1225131   -5.6890801    42.674514   0.03995741  0.046136017            3 
   90000    1.1147818   -5.6889005    43.324126  0.040114931  0.046019815            8 
   91000    1.1590174   -5.7176019    43.678269  0.039998414   0.04590566            2 
   92000    1.1144323   -5.6623303    44.537807  0.040342216  0.045801049            4 
   93000     1.155441   -5.6671334    44.901279  0.040234121  0.045707785            2 
   94000    1.0996551   -5.6896364    45.199774  0.040070721  0.045610406            5 
   95000    1.1383155   -5.7225322     45.64578  0.040040158  0.045505142            3 
   96000    1.1202696    -5.703926    45.946968  0.039884521  0.045402809            2 
   97000    1.1372785   -5.7300293    46.397685  0.039860554  0.045286761            3 
   98000    1.1128473   -5.7348146     46.46407  0.039510263  0.045166634            5 
   99000    1.1140803   -5.6897584    46.995442  0.039558453  0.045037336            4 
  100000    1.0889099   -5.7356087    47.336388  0.039446989  0.044903768            4 
  101000    1.1284593   -5.7177003    47.827258  0.039461434  0.044771386            4 
  102000    1.0981535   -5.7230404    48.144982  0.039334135  0.044646045           10 
  103000    1.0843601   -5.7453354    48.625256  0.039340822  0.044518566            5 
  104000    1.1073385   -5.7045611    49.170866  0.039399732  0.044397711            4 
  105000     1.087724   -5.7112461    49.613897  0.039376109  0.044278488            5 
  106000    1.1296074   -5.7402905    49.897268  0.039227412  0.044158566            4 
  107000    1.0946565   -5.7691548    50.270621  0.039151574   0.04403509            3 
  108000    1.0977079   -5.7685576    50.611214  0.039051862  0.043911904            2 
  109000    1.0879615   -5.7588714    51.128741  0.039089252  0.043790444            3 
  110000    1.0832074    -5.758115    51.268993  0.038840146  0.043667401            6 
  111000    1.0975664   -5.7540988    51.817331    0.0389019  0.043539401            2 
  112000    1.0973695   -5.7407834    52.306652  0.038918639   0.04341626            2 
  113000    1.1102724   -5.7822812    52.675719    0.0388464  0.043293045            3 
  114000    1.0770334    -5.782922    52.985872  0.038732363  0.043175369            3 
  115000    1.0799206   -5.7752722    53.669249   0.03889076  0.043059569            1 
  116000    1.1124362   -5.7565719    54.387417   0.03907142  0.042959064            4 
  117000    1.0979687   -5.7793055    55.014229  0.039183923  0.042870785            2 
  118000    1.0645804   -5.8315958    55.051292  0.038878031  0.042785645            4 
  119000    1.1143206   -5.8013009    55.453546  0.038833015  0.042692522            5 
  120000    1.0790048   -5.7846905    56.006987  0.038893741  0.042601797            4 
  121000    1.0801285   -5.7987728    56.199638  0.038704985  0.042505419            2 
  122000    1.0677698   -5.7902198    56.659941  0.038702146  0.042413134            2 
  123000    1.0846415   -5.8173879    57.165659  0.038730121  0.042322139            2 
  124000     1.068643   -5.7919975    57.528306  0.038661496  0.042231729            3 
  125000    1.0507127    -5.798061    57.941138  0.038627425  0.042144742            5 
  126000    1.0813118   -5.8118457    58.655828  0.038793537  0.042061032            2 
  127000    1.0515254   -5.7956866    58.980261  0.038700958  0.041983974            4 
  128000    1.0653226   -5.8374101    59.110361  0.038483308  0.041901038            3 
  129000    1.0867484   -5.8434446    59.666639  0.038544341  0.041815855            2 
  130000    1.0766616   -5.8164832    59.820678  0.038346588  0.041729581            7 
  131000    1.0665181   -5.8568202    60.198474  0.038294194  0.041642785            5 
  132000    1.0687009   -5.8497017    60.654883  0.038292224  0.041558236            3 
  133000    1.0609879   -5.8430729    61.137999  0.038307017  0.041472617            5 
  134000    1.0236341   -5.8576761    61.270614  0.038103616  0.041384333            4 
  135000    1.0507197   -5.8445558     61.78266  0.038137444  0.041296638            4 
  136000    1.0749744   -5.8742881    61.973948  0.037974233  0.041205435            2 
  137000    1.0680284   -5.8385055     62.70284  0.038140413    0.0411157            1 
  138000    1.0453108   -5.8878945    62.754692  0.037895345  0.041028146            2 
  139000    1.0643451   -5.8830752    63.265955  0.037929229  0.040940404            3 
  140000    1.0458124    -5.835301    63.707154  0.037920925  0.040852908            3 
  141000    1.0262771   -5.8574046     64.20677  0.037947264  0.040769594            3 
  142000    1.0309643   -5.8862331    64.566368  0.037891061  0.040685748            5 
  143000    1.0560392   -5.8746148    65.051641  0.037908882  0.040605044            4 
  144000    1.0352558   -5.9041534    65.171195  0.037714812  0.040525966            3 
  145000    1.0374274   -5.8774983      65.6028  0.037702758  0.040448324            4 
  146000    1.0351426   -5.8784103    66.388116   0.03789276  0.040372022            3 
  147000    1.0628559   -5.8697379    66.728299  0.037827834  0.040300707            5 
  148000    1.0018261   -5.9020895    67.160665  0.037815689  0.040232966            3 
  149000    1.0386908   -5.8669999    67.498283  0.037750717  0.040164735            4 
  150000    1.0162696   -5.9343262    67.620891  0.037567161  0.040096144            4 
  151000     1.023303   -5.9373336    67.981274  0.037517259  0.040024463            3 
  152000    1.0306355    -5.910266    68.265456  0.037426237  0.039948699            4 
  153000   0.99922647    -5.893171    68.822657  0.037485107  0.039873693            5 
  154000    1.0302098   -5.9128534    69.034934  0.037356566  0.039799906            7 
  155000    1.0181393   -5.9353551    69.383936  0.037303191   0.03972581            2 
  156000    1.0377654   -5.8992214    70.001414  0.037393917  0.039654792            5 
  157000    1.0115178   -5.9207358    70.205776  0.037264212  0.039583215            4 
  158000   0.98853631   -5.9203489    70.607556  0.037240272  0.039510395            2 
  159000    1.0092427   -5.9353537    71.178846  0.037305475  0.039441823            2 
  160000    1.0138229    -5.946702    71.304072  0.037137537  0.039370977            3 
  161000    1.0275222   -5.9402942    71.636055  0.037078703  0.039300627            1 
  162000    1.0163713   -5.9572176    71.802256  0.036935317  0.039227464            2 
  163000    1.0150795   -5.9684679    72.202295  0.036913239   0.03915146            7 
  164000    0.9801897   -5.9740767    72.535583  0.036857512  0.039076241            4 
  165000    1.0040445   -5.9652978    72.754702  0.036744799  0.038999238            4 
  166000    1.0037541   -5.9469903    72.772099  0.036532178  0.038920731            5 
  167000   0.98222986   -5.9744449    73.070349   0.03646225  0.038837648            6 
  168000    1.0036821   -5.9801999    73.272986  0.036345727  0.038756434            4 
  169000   0.99825332   -5.9766097    74.010223  0.036494193   0.03867553            2 
  170000   0.97053336   -5.9704784    74.233114  0.036388781  0.038595563            5 
  171000    1.0081345   -5.9924946    74.369852  0.036242618  0.038515977            5 
  172000   0.99286483   -5.9820645    75.004196  0.036339242  0.038437361            6 
  173000    0.9976163   -5.9954033    75.148176  0.036198543  0.038360613            4 
  174000   0.98257332   -5.9834686    75.360018  0.036091963  0.038283524            9 
  175000   0.99103422   -6.0264442    75.715406  0.036054955  0.038206321            6 
  176000   0.97631872   -5.9932222    76.258038  0.036107025  0.038129081            2 
  177000   0.96454371   -5.9987881    76.320399  0.035932391  0.038048597            4 
  178000   0.98364431   -6.0043613    76.489613  0.035809744  0.037967826            9 
  179000   0.97416069   -5.9785039    76.990715  0.035842977  0.037886578            3 
  180000   0.99659803    -6.000296    77.212079  0.035746333  0.037806455            4 
  181000   0.98904988   -6.0108972    77.399737  0.035635238   0.03772558            2 
  182000   0.97475125   -6.0013898    77.519404  0.035494232  0.037642795            3 
  183000   0.96965466   -6.0268355    77.935637  0.035489816   0.03756006            2 
  184000   0.97989498   -6.0072121    78.179593  0.035407424   0.03747726            2 
  185000   0.97334008   -6.0355518    78.502813  0.035361627  0.037394585            5 
  186000   0.95325483   -5.9928169    78.521006  0.035179662  0.037310027            7 
  187000   0.97016167   -6.0707353    78.540825  0.035000368  0.037220617            4 
  188000   0.95509152   -6.0527768    78.905681  0.034975922  0.037131424            3 
  189000   0.95592986   -6.0429304    79.188064  0.034915372  0.037040967            3 
  190000   0.98056216   -5.9927689    79.682954  0.034948664   0.03695273            6 
  191000   0.96203085   -6.0357909    79.852775   0.03483978   0.03686408            5 
  192000   0.94838363   -6.0480093    80.085196  0.034759199   0.03677571            3 
  193000   0.95677514   -6.0547798    80.106648  0.034588363  0.036689864            5 
  194000   0.95765371   -6.0943586    80.486789  0.034573363  0.036603125            3 
  195000   0.94669309   -6.0814699     80.60635  0.034447158  0.036513561            5 
  196000   0.98181879   -6.0633098    80.828079   0.03436568  0.036423757            9 
  197000   0.94779201   -6.0843352    81.062195  0.034290268  0.036332637            3 
  198000   0.96071302   -6.0764992    81.334578  0.034231725  0.036242268            3 
  199000   0.93690037   -6.0994277    81.362808  0.034071528  0.036153301            5 
  200000    0.9293037   -6.1102067    81.974776  0.034156157    0.0360657            5 
  201000   0.91646225   -6.0983212    82.167329  0.034066057  0.035977601            6 
  202000   0.93930192   -6.0794962    82.474188  0.034024005  0.035891659            7 
  203000   0.94556025   -6.1276819     82.60273  0.033909167  0.035807454            5 
  204000   0.94429727   -6.0882108    83.168524   0.03397407  0.035723754            4 
  205000   0.94684992   -6.1116509    83.097292  0.033779387    0.0356376            5 
  206000    0.9417094   -6.1545053    83.510994  0.033782765  0.035551541            5 
  207000   0.93459032   -6.1397896    83.509404  0.033618923  0.035464446            9 
  208000    0.9549167   -6.0898259    83.811591  0.033578362  0.035378397            4 
  209000   0.92711522   -6.1486718      84.0208  0.033501116  0.035291537            4 
  210000   0.94166357   -6.1088395    84.400545   0.03349228   0.03520465           10 
  211000   0.93484729   -6.1380416    84.754746  0.033473438  0.035119279            5 
  212000   0.94547764   -6.1306433      84.8326  0.033346148  0.035034206            3 
  213000   0.91517968   -6.1313246    85.114548  0.033299901  0.034949052            3 
  214000    0.9284525   -6.1725882    85.114353  0.033144218  0.034864231            6 
  215000   0.92483608   -6.1700631    85.138495  0.032999417  0.034776276            9 
  216000   0.92754683    -6.143506    85.605467    0.0330268  0.034688571            4 
  217000   0.89135151   -6.1328371    85.817954  0.032956204  0.034602373            4 
  218000   0.90668282   -6.1205252    85.759659  0.032782744  0.034514903            6 
  219000   0.91660718   -6.1496782    86.066883  0.032749955  0.034426017            3 
  220000   0.92872957   -6.1692774    86.366705  0.032714661  0.034338208            5 
  221000   0.91914346   -6.1562105     86.42626  0.032589087   0.03425115            3 
  222000   0.89087545   -6.1767289    86.643309  0.032523765  0.034164277            6 
  223000   0.90207642   -6.1911607    86.968544  0.032499456    0.0340775            8 
  224000   0.92537413    -6.156258    86.935714  0.032342156  0.033991129            4 
  225000   0.90769375    -6.170932    87.547092  0.032424849   0.03390513            4 
  226000   0.89323296   -6.2243128    87.172679  0.032143318  0.033819171            6 
  227000   0.91499189    -6.190029    87.399856  0.032085116   0.03373242            6 
  228000    0.9003544   -6.1979968     88.00514  0.032165621  0.033645312            4 
  229000   0.89937916   -6.1762576    88.178954  0.032088411  0.033558559            2 
  230000   0.88421825   -6.1577681     88.50061  0.032065438  0.033474176            3 
  231000   0.89586313   -6.1963571    88.564819   0.03194979  0.033390423            4 
  232000   0.89253642   -6.1899092     88.52677  0.031798409  0.033306248            6 
  233000   0.87839538   -6.1831241    88.993386  0.031828822   0.03322175            5 
  234000   0.90562969   -6.1935265    88.939111  0.031673473  0.033136627            3 
  235000   0.89519717   -6.2329388    88.871795  0.031514821   0.03305009           10 
  236000   0.90265494    -6.262987    88.861874   0.03137778  0.032961444            7 
  237000    0.8708333   -6.2475746    89.054741    0.0313132  0.032873022            6 
  238000   0.86648077   -6.2604883    89.227052  0.031241965    0.0327837            6 
  239000   0.89665598   -6.2521008    89.710626  0.031279856  0.032696612            4 
  240000   0.88595331     -6.25983    89.910253  0.031218838   0.03260952            6 
  241000    0.8789265   -6.2506719    89.855896  0.031070503  0.032521132           10 
  242000   0.89786362   -6.2581031    89.714898   0.03089356  0.032433591            4 
  243000    0.8791773   -6.2514863    90.102165  0.030899234  0.032345102            4 
  244000   0.89318403   -6.2733416    90.104881  0.030773525  0.032256896            4 
  245000   0.88625957   -6.2735064    90.143797  0.030661155  0.032167923            4 
  246000   0.87923003   -6.2570122    90.582229  0.030685037  0.032079645            6 
  247000   0.85764075   -6.2915296    90.406842  0.030501634  0.031990612           10 
  248000    0.8728589   -6.2859583    90.649658  0.030460234  0.031900477            3 
  249000   0.87456578   -6.2822935    90.872887  0.030412613  0.031809427            6 
  250000   0.86670941   -6.2780853    90.758287  0.030252762  0.031719396            7 
  251000   0.86415613   -6.2683412    90.984265  0.030207259  0.031629216            4 
  252000   0.86167054   -6.2629729    91.072818  0.030116673  0.031538861            7 
  253000   0.86525519   -6.3034517    91.090093  0.030003324  0.031447585            6 
  254000   0.86623688   -6.2733256    91.308207  0.029956761   0.03135606            3 
  255000   0.85965257    -6.284304    91.678628  0.029960336  0.031264566            6 
  256000   0.85469638   -6.3261748    91.211843  0.029691355  0.031174789            7 
  257000   0.86740029   -6.2970806    91.481542  0.029663276  0.031084751           13 
  258000   0.85588312   -6.3703954    91.513947  0.029558768  0.030993287            4 
  259000   0.86192133    -6.354664    91.694669  0.029502789  0.030901524            8 
  260000   0.85551754   -6.3345514     91.76105  0.029410593  0.030811003            4 
  261000    0.8366437   -6.3195325    91.958529  0.029360961  0.030721637            4 
  262000   0.84566077   -6.3287079    92.382682  0.029383805  0.030632638            6 
  263000   0.83384228   -6.3269466    92.422677  0.029284752  0.030544685            6 
  264000   0.82840246   -6.3273839     92.80219  0.029293621  0.030456775            4 
  265000   0.85228276   -6.3128951    92.624071  0.029127066  0.030368584            8 
  266000   0.85966086   -6.3404056    92.486125   0.02897435  0.030279477            9 
  267000   0.85667845   -6.3221903     92.78023  0.028957625  0.030189674            5 
  268000   0.84333928   -6.3739215    92.659398  0.028812002  0.030100212           16 
  269000   0.84456627   -6.3525913    92.713858  0.028721765  0.030010305            6 
  270000   0.83434897   -6.3732033    92.773877  0.028633913  0.029920241            8 
  271000    0.8363548   -6.3543057    93.006782  0.028599871  0.029830338            5 
  272000   0.82519687    -6.376024    92.980124  0.028486558  0.029740832           20 
  273000   0.83125794   -6.3759092     92.91619  0.028362695  0.029650839            5 
  274000   0.83061666   -6.3926346    93.189881  0.028342421  0.029560951            7 
  275000   0.83890641   -6.4002549    93.169212  0.028233095   0.02947114           10 
  276000   0.83674909   -6.3965704    93.419712  0.028206435  0.029381975            7 
  277000   0.83480223   -6.3735356    93.700571  0.028189101  0.029292752            4 
  278000   0.81581617   -6.3584879    93.849571  0.028132365  0.029204995            4 
  279000    0.8101577   -6.3996969    93.949208  0.028061293  0.029117637            5 
  280000   0.81984812   -6.4174296    93.853816  0.027932683  0.029030533            5 
  281000   0.84044422   -6.4017106    94.409959  0.027998208  0.028944423            4 
  282000   0.82874249   -6.4107911    94.319964   0.02787233   0.02885882           17 
  283000   0.82788686   -6.4133287    94.575187  0.027848995  0.028774075            6 
  284000   0.84240452   -6.4398587    94.379276   0.02769345  0.028689224           18 
  285000   0.82272471   -6.4082688    94.980074  0.027771951   0.02860501            5 
  286000   0.81652054   -6.4328468    94.514519  0.027539196  0.028520822           11 
  287000   0.80892415   -6.4487118    94.881198  0.027549709  0.028436682            6 
  288000   0.79825875   -6.4587781    94.898041  0.027458924  0.028352042            9 
  289000   0.81087039   -6.4730653    94.835277  0.027345812  0.028267387            8 
  290000   0.79638888   -6.4711379    95.241895   0.02736836   0.02818285            8 
  291000   0.81369962   -6.4564824    95.293747   0.02728916  0.028099123            4 
  292000   0.77804831   -6.4383595    95.591138  0.027280576  0.028016267           13 
  293000   0.79743195     -6.46472    95.446063  0.027146207  0.027932955           16 
  294000   0.79527534   -6.4438536    95.728198  0.027133843  0.027850463            4 
  295000   0.78851896   -6.4622941     96.05519  0.027134234  0.027769345            5 
  296000   0.79821411    -6.464174    96.057185  0.027043126  0.027689334            6 
  297000   0.78396749   -6.4692693    95.906729  0.026909857  0.027609304            6 
  298000   0.80920794   -6.4825566    96.064189  0.026863587  0.027528016           11 
  299000   0.80176563   -6.4872376    96.289406  0.026836512  0.027447606           11 
  300000   0.77611325   -6.4834059    96.281451  0.026744847  0.027367359            6 
  301000   0.77972307   -6.4842724    96.357653  0.026677091  0.027288402            5 
  302000   0.79381102   -6.4916446    96.293229  0.026570979  0.027208365            6 
  303000   0.81180333   -6.4902697     96.45157  0.026526834  0.027128783            7 
  304000   0.77986592   -6.4910593    96.799903  0.026535061  0.027049344            8 
  305000   0.79755352   -6.5250701    96.581565  0.026388406  0.026970502            8 
  306000   0.78219143   -6.4988349    97.224858  0.026477358  0.026892523            9 
  307000   0.78546189   -6.5279937    96.927474  0.026310389  0.026813974            9 
  308000    0.7832465   -6.5203147    97.004618  0.026245838  0.026735233            9 
  309000   0.77108309   -6.5389515    96.945735   0.02614502  0.026656254            7 
  310000   0.77813045   -6.5472574    96.793095  0.026019649  0.026576823           11 
  311000   0.77591446   -6.5473213    97.189055  0.026042083  0.026497192            7 
  312000   0.77449193   -6.5651542    97.045595  0.025920298  0.026418234           11 
  313000   0.74486073   -6.5101328    97.469162  0.025950256  0.026340732            7 
  314000   0.74567914   -6.5388151     97.38599  0.025845539  0.026263974            6 
  315000   0.77233336   -6.5285519    97.400466  0.025767319  0.026186952            5 
  316000   0.77017183    -6.567973    97.756255  0.025779603   0.02611006            5 
  317000   0.76480591   -6.5947768    97.546833  0.025643226  0.026033425            9 
  318000   0.76481456   -6.5701208    97.623143  0.025582584  0.025956432           24 
  319000   0.76640738   -6.5713088    97.605715  0.025497836  0.025880061            6 
  320000   0.75253343   -6.5331458    98.009301  0.025523255  0.025803864           10 
  321000   0.75140259    -6.576232    97.751937  0.025376931  0.025727006            6 
  322000    0.7597144   -6.5962516     97.49273  0.025231038  0.025649503           20 
  323000   0.76110363   -6.6187569    97.325032  0.025109657   0.02557265            7 
  324000   0.74240447   -6.6117932    97.776524  0.025148283  0.025495696           20 
  325000   0.74332454   -6.5897581    97.861535  0.025092701  0.025419203           12 
  326000   0.75712407   -6.6067912    97.872521  0.025018538  0.025342994           11 
  327000   0.76163857   -6.6267098    97.970255  0.024966936  0.025267434           15 
  328000   0.75004605   -6.6052503     97.80954  0.024849985  0.025191385           11 
  329000   0.73546752   -6.6088233    98.145981  0.024859671  0.025115858            7 
  330000   0.74767678   -6.6097966    98.466129  0.024865184  0.025040975           10 
  331000   0.73531131   -6.6146325    98.264834  0.024739384  0.024966321           17 
  332000   0.75417719   -6.6308633    98.598374  0.024748588  0.024891674           24 
  333000    0.7372403   -6.6362435    98.368544  0.024616753  0.024817223           12 
  334000   0.74632262   -6.5938248    98.732446  0.024633844  0.024743503           13 
  335000   0.73671895   -6.6294771      98.6723  0.024545348  0.024669886           10 
  336000   0.71350068   -6.6687527    98.546704  0.024441147   0.02459657           12 
  337000   0.71919155   -6.6582078    98.505229  0.024358365  0.024523082           12 
  338000   0.72584901   -6.6713676    98.624409  0.024315683  0.024449612           10 
  339000   0.72348896    -6.659077    98.676408  0.024256737  0.024376858           13 
  340000   0.71522952   -6.6789587    99.090182  0.024286809  0.024303799           10 
  341000   0.71528452   -6.6867147    98.793608   0.02414311  0.024231138           15 
  342000   0.73499108   -6.6549547     98.87044  0.024091238  0.024158723           10 
  343000   0.72809037   -6.6809895    98.870389  0.024020989  0.024086432           12 
  344000    0.7171637   -6.6829699    98.970406  0.023975389  0.024013842            9 
  345000    0.7232047   -6.6711635     99.14444  0.023947932  0.023941157           30 
  346000   0.70917083   -6.6862728    99.248568  0.023903798  0.023869599            7 
  347000   0.71706383   -6.6739649    99.204546  0.023824339  0.023798547           10 
  348000   0.70571422    -6.673878    99.258261  0.023768741  0.023727623           21 
  349000   0.71002459   -6.6877563    99.079958  0.023658061  0.023656397            9 
  350000   0.70326463   -6.6717111    99.118866   0.02359973  0.023584969           10 
  351000   0.70992337   -6.6858185    99.274788  0.023569513  0.023513606            8 
  352000   0.69671663   -6.7269115    98.771066  0.023383302  0.023442009           16 
  353000    0.6995831   -6.7135974    99.129751  0.023401735  0.023370678           14 
  354000   0.71634504   -6.7217696    99.014109  0.023308406  0.023299403           19 
  355000   0.70083924   -6.7308064    99.196474  0.023285557  0.023227893           15 
  356000   0.70324241   -6.7350146    99.079907  0.023192862  0.023156948           19 
  357000    0.7011637   -6.7387166    98.946832  0.023096833  0.023086296           18 
  358000   0.70268607    -6.765972    99.003598   0.02304553  0.023015572           31 
  359000   0.69384086    -6.742416    98.959014  0.022970987  0.022945256           37 
  360000   0.68716514   -6.7555617    98.977063  0.022911357  0.022874616           11 
  361000   0.68324056    -6.735704     99.49179  0.022966711  0.022804492           49 
  362000   0.69136025   -6.7584017    99.213146  0.022839122  0.022734469           21 
  363000   0.68756096    -6.778978    99.127765  0.022756604  0.022664508           24 
  364000   0.68697206   -6.7639819    99.108532  0.022689682   0.02259452           21 
  365000   0.70160139   -6.7949286    99.023328  0.022608066  0.022524596           14 
  366000   0.68221351   -6.7849389     99.32411  0.022614779  0.022454603           14 
  367000   0.69050694   -6.7820159    99.264014  0.022539513  0.022385323           17 
  368000   0.67883048   -6.7777675    99.115901  0.022444724  0.022315736           14 
  369000    0.6852409   -6.7891395    99.367155   0.02244064  0.022246552           16 
  370000   0.67771816    -6.795769    99.402902  0.022388041  0.022177366           12 
  371000   0.66598924   -6.8095562    99.308537    0.0223065  0.022108339           14 
  372000   0.67873777   -6.7955525    99.202778  0.022222844  0.022039234           12 
  373000   0.66490589   -6.8023321    99.075852  0.022134909  0.021970168           48 
  374000   0.66873767   -6.7802836     99.47431  0.022164507  0.021901619           20 
  375000   0.66165933   -6.7986315    99.414793  0.022092176  0.021833252           27 
  376000   0.66880639   -6.8146521    99.232785  0.021993082  0.021764901           12 
  377000   0.65813881   -6.8292169    98.989268  0.021880917   0.02169654           20 
  378000   0.65766097   -6.8383794    99.107403  0.021849075  0.021628115           15 
  379000   0.67277747   -6.8020573    99.410023  0.021857964  0.021560006           11 
  380000    0.6520326    -6.828748    99.230556  0.021761087  0.021491994           36 
  381000   0.66770154   -6.8575794    99.266488   0.02171183  0.021424146           12 
  382000   0.64725094    -6.859859    99.131533  0.021625553   0.02135661           16 
  383000   0.66050152    -6.831344    99.343608  0.021615232  0.021289276           64 
  384000   0.64602566   -6.8647571    99.117622    0.0215099   0.02122201           39 
  385000   0.64676101    -6.851829    99.136694  0.021458159  0.021154887           28 
  386000   0.64766345   -6.8621295    99.185482  0.021413101  0.021088002           28 
  387000   0.66100515   -6.8704084     99.33855   0.02139073  0.021021029           20 
  388000   0.64209372   -6.8608163    99.342426  0.021336432  0.020954525           16 
  389000   0.64885913   -6.8903093    99.040842  0.021216975  0.020888153           21 
  390000   0.64708936   -6.9038914    99.249918  0.021207247  0.020822129           40 
  391000   0.64426173   -6.8678625    99.353151  0.021175011  0.020756297           18 
  392000   0.62002218   -6.8950645    99.344031  0.021119054  0.020690604           26 
  393000   0.64565077   -6.9070512    99.223055  0.021039664  0.020625169           10 
  394000   0.63659849   -6.9238828    99.395463  0.021022729   0.02055976           17 
  395000   0.64670935   -6.9039736    99.278678  0.020944869  0.020494386           18 
  396000   0.64171037    -6.897784    99.206157  0.020876716  0.020429398           17 
  397000   0.62519662   -6.8894712    99.311478  0.020846238  0.020364424           28 
  398000   0.63014767   -6.9120845    99.453796  0.020823659  0.020299602           26 
  399000   0.63032752   -6.9271592    99.212053   0.02072098  0.020235037           17 
  400000   0.62753566   -6.9481991    99.401703  0.020708688  0.020170753           23 
  401000    0.6292971   -6.9265331    99.372528  0.020650983  0.020107177           20 
  402000   0.63231491   -6.9252974    99.185403  0.020560822  0.020043508           14 
  403000   0.62982894   -6.9327904    99.490604  0.020572912  0.019979916           22 
  404000   0.60476905   -6.9431448    99.251525  0.020472674  0.019916589           17 
  405000   0.64037259   -6.9359667     99.35892  0.020444222  0.019853374           33 
  406000   0.62208455   -6.9549602    99.205346  0.020362345  0.019790134           41 
  407000   0.62130177   -6.9661521    99.385773  0.020349257  0.019727045           52 
  408000   0.62029914   -6.9652756    99.191525  0.020259707  0.019664043           36 
  409000   0.61577136   -6.9831358     99.10905  0.020193368  0.019601168           56 
  410000   0.61519449    -6.945425    99.077911  0.020137787  0.019538499           22 
  411000   0.61420818   -6.9744554    99.198295  0.020113198  0.019476028           17 
  412000   0.61388175   -6.9571495    99.431555   0.02011156  0.019413669           31 
  413000   0.61668075   -6.9691749    99.186633  0.020013445  0.019351562           26 
  414000   0.60351688   -6.9919197    98.933123  0.019914075  0.019289709           27 
  415000   0.60371439   -6.9708424    99.164136  0.019912477   0.01922806           22 
  416000   0.61341384   -6.9777624    99.194081  0.019870609  0.019166482           79 
  417000   0.61798725   -6.9998435    99.199569  0.019824055  0.019105151           71 
  418000   0.60026872    -6.975891    99.190057  0.019774732  0.019043904           37 
  419000   0.60379677   -6.9656616    99.154994  0.019720564  0.018983048           83 
  420000    0.5930926   -6.9989497    99.081329  0.019658994  0.018922303          116 
  421000   0.59862804   -7.0104534    98.858686  0.019568228  0.018861654           24 
  422000   0.59219888   -6.9942397    99.096475  0.019568814  0.018801063           26 
  423000   0.59575966   -7.0017897    98.997421  0.019503038  0.018740706           49 
  424000   0.59351217   -6.9929541     99.20202  0.019497252   0.01868031           57 
  425000   0.60166536   -7.0080729    99.020892  0.019415861  0.018620283           59 
  426000   0.59323078    -7.019993    98.811649  0.019329352  0.018560357           95 
  427000    0.5896959   -7.0271443    99.072672  0.019335026  0.018500594          163 
  428000   0.58391001   -7.0230958    98.996641  0.019275047   0.01844114           39 
  429000   0.58751057   -7.0489032    99.052094  0.019240889  0.018381786           24 
  430000   0.59462263   -7.0444958     98.86691  0.019160254  0.018322638           32 
  431000   0.57478662   -7.0268555    98.841302  0.019110847   0.01826364           40 
  432000   0.58404586   -7.0383874    98.964483  0.019090371  0.018204966           41 
  433000   0.58440256   -7.0278592    98.819653  0.019018409  0.018146491           73 
  434000   0.57827303    -7.068153    99.117855  0.019031846  0.018088149           64 
  435000   0.57243958   -7.0373513    98.847042  0.018936215  0.018030097           49 
  436000   0.57543709   -7.0504163    98.907193   0.01890428  0.017972091           19 
  437000   0.56235654   -7.0641839    98.886475   0.01885707   0.01791434           49 
  438000   0.57048472   -7.0627325    98.951794  0.018826445  0.017856918           66 
  439000   0.56076882   -7.0538257    99.145149  0.018820264  0.017799655           69 
  440000   0.55404719   -7.0540555    98.888049  0.018728797  0.017742631           43 
  441000   0.56242863   -7.0912899    99.014624  0.018710246  0.017685933           43 
  442000   0.55146488   -7.0540391    98.918541    0.0186498  0.017629404           71 
  443000   0.55719913   -7.0717898    98.681706   0.01856315  0.017573009           31 
  444000   0.56228753     -7.09244    98.897666  0.018561874  0.017516758           75 
  445000   0.56346302   -7.0986463    98.949166  0.018529806  0.017460753           55 
  446000   0.56558194   -7.0962339    98.796246  0.018459687  0.017404898           47 
  447000   0.54899386   -7.0989015    99.035324  0.018462961  0.017349245           70 
  448000   0.55908572   -7.0751644    99.031772  0.018421088  0.017293845           28 
  449000   0.54255655   -7.0916334    98.855035   0.01834726  0.017238746           59 
  450000   0.54768555   -7.1052513    98.823511   0.01830065  0.017183671           67 
  451000   0.54686608   -7.1273338    98.839107  0.018262954  0.017128735          111 
  452000   0.55357432   -7.1015696    98.690785  0.018195204  0.017073984          194 
  453000   0.53871108   -7.1331046     98.65347  0.018148173  0.017019517           89 
  454000   0.52960117   -7.1099331    99.098568  0.018189899  0.016965182          147 
  455000   0.54095627    -7.142973    98.746773   0.01808549  0.016911013           90 
  456000   0.54314714   -7.1507538     98.86837   0.01806805  0.016857101           64 
  457000   0.53736956   -7.1386535    98.772498  0.018011032   0.01680325           77 
  458000   0.54964595   -7.1331994    98.634247  0.017946551  0.016749619          123 
  459000   0.53765085   -7.1337021    98.817706   0.01794076  0.016696182           77 
  460000   0.54545956   -7.1335039    98.517605  0.017847392  0.016642941           76 
  461000   0.53495401   -7.1249857    98.703285  0.017842242  0.016589863          126 
  462000   0.51560962   -7.1566512    98.664125  0.017796559  0.016536874          118 
  463000   0.53425004   -7.1704488     98.61925  0.017750045  0.016483983          162 
  464000   0.52300827   -7.1594465    98.697683  0.017725877  0.016431376          104 
  465000   0.53300029   -7.1524024    98.766927  0.017700166  0.016378876          139 
  466000   0.51853362    -7.149807    98.535118  0.017620729  0.016326654          100 
  467000   0.51487115   -7.1732369    98.550652  0.017585769  0.016274507          116 
  468000   0.51569911   -7.1696838    98.441114  0.017528688  0.016222576           95 
  469000   0.52245657   -7.1639834    98.339604  0.017473277  0.016170786          108 
  470000   0.51339472   -7.1820787     98.50431  0.017465303  0.016119158          152 
  471000   0.50881237   -7.1742231     98.54422  0.017435283  0.016067781          132 
  472000   0.51762047   -7.1819856    98.630609  0.017413596  0.016016598          139 
  473000   0.51418966   -7.2013011    98.373891  0.017331552  0.015965415           75 
  474000   0.52260151   -7.2008138    98.418064  0.017302754  0.015914491          178 
  475000   0.50482124    -7.199983    98.318148  0.017248798  0.015863749          194 
  476000   0.51165434   -7.1993981     98.33302  0.017215165  0.015813049          185 
  477000   0.51030606   -7.2157654    98.206618  0.017156991  0.015762599          180 
  478000   0.51118312   -7.2243633    98.310826  0.017139265  0.015712249          154 
  479000    0.5089675   -7.2100288    98.414822  0.017121576  0.015662096           73 
  480000   0.50441042   -7.2074488    98.300896  0.017066128  0.015612196          157 
  481000   0.50392441   -7.2114046    98.400689  0.017047936  0.015562475          129 
  482000   0.49995496   -7.2043922    98.292338  0.016993834  0.015512962           69 
  483000   0.50892075   -7.2175589    98.200023  0.016942723  0.015463501           86 
  484000   0.49321431   -7.2308101     98.12672  0.016895096  0.015414213          156 
  485000   0.48480764   -7.2314831    98.308947  0.016891572  0.015365154          185 
  486000   0.49405474   -7.2287244    98.109862  0.016822679   0.01531633           96 
  487000   0.48816132   -7.2387635    98.185679  0.016801109  0.015267697           98 
  488000   0.48662943   -7.2215921    98.237934  0.016775603   0.01521932          168 
  489000   0.48535781   -7.2385263    98.180312  0.016731478  0.015171028          118 
  490000   0.49141543   -7.2162957    98.296307  0.016717059  0.015122895          149 
  491000   0.47940075   -7.2425883    98.211371  0.016668597  0.015074997           61 
  492000   0.47333109   -7.2445024    98.251144  0.016641454  0.015027235          201 
  493000   0.49212425   -7.2488824    98.085319  0.016579668    0.0149796          107 
  494000   0.48090176   -7.2414884    98.115761  0.016551242  0.014932188          175 
  495000   0.48786186   -7.2529936    98.162161  0.016525616  0.014884928          255 
  496000   0.47596671   -7.2528382    98.376529  0.016528315  0.014837853          229 
  497000    0.4823797   -7.2649451    98.124741   0.01645284  0.014790934          242 
  498000   0.46940116   -7.2666071    97.940506  0.016388974  0.014744188          186 
  499000   0.46573229   -7.2584934    98.119943  0.016386096  0.014697683          152 
  500000   0.46163228   -7.2614356    98.241255  0.016373543  0.014651301          120 
  501000   0.47228375   -7.2621189     97.90728  0.016285309  0.014605012          270 
  502000   0.46002228   -7.2742622    98.105645  0.016285798  0.014558881          140 
  503000   0.46488987   -7.2741596    98.056298  0.016245245   0.01451298          270 
  504000   0.46399155   -7.2638847    98.075356  0.016216163  0.014467269          153 
  505000   0.46590921   -7.2663322    97.937848  0.016161361  0.014421673          193 
  506000    0.4581749   -7.2754371    97.859554  0.016116527  0.014376216          181 
  507000   0.45548927   -7.2955887    97.925688  0.016095609  0.014330962          214 
  508000   0.45443444   -7.2895632    97.955127  0.016068754  0.014285904          314 
  509000   0.45561591   -7.2968177     97.96473  0.016038757  0.014241046          243 
  510000   0.44971012   -7.2802496    97.956411   0.01600595  0.014196269          205 
  511000   0.45075223    -7.302525    98.059712  0.015991473  0.014151712          278 
  512000   0.44651044   -7.3054252    97.715795  0.015904263  0.014107233          269 
Loop time of 1302.31 on 48 procs for 500000 steps with 4000 atoms

Performance: 66343.827 tau/day, 383.934 timesteps/s
99.4% CPU use with 48 MPI tasks x no OpenMP threads

MPI task timing breakdown:
Section |  min time  |  avg time  |  max time  |%varavg| %total
---------------------------------------------------------------
Pair    | 91.304     | 99.901     | 108.43     |  37.2 |  7.67
Neigh   | 9.0797     | 9.3856     | 9.7451     |   5.3 |  0.72
Comm    | 84.338     | 91.187     | 101.22     |  42.4 |  7.00
Output  | 0.9435     | 0.94425    | 0.96701    |   0.3 |  0.07
Modify  | 1083.3     | 1088.7     | 1094.1     |   6.7 | 83.60
Other   |            | 12.16      |            |       |  0.93

Nlocal:        83.3333 ave          89 max          79 min
Histogram: 1 5 7 5 11 4 5 6 0 4
Nghost:        2407.23 ave        2432 max        2389 min
Histogram: 5 3 7 7 7 5 10 3 0 1
Neighs:        16664.6 ave       19442 max       14769 min
Histogram: 7 3 10 4 7 5 7 4 0 1
FullNghs:      33328.8 ave       35854 max       31493 min
Histogram: 2 6 9 5 11 4 6 1 2 2

Total # of neighbors = 1599784
Ave neighs/atom = 399.94600
Neighbor list builds = 26771
Dangerous builds = 0

#clear
#
#next RN
#
#jump SELF
Total wall time: 0:21:45
