
units lj                  # Use reduced LJ style units
atom_style atomic         # Uncharged point particles
atom_modify map hash      # Needed for indexing of clusters etc
                          # Used to be able to find where atoms are in relation to each other.

lattice fcc 1.0 spacing 1 1 1
Lattice spacing in x,y,z = 1.5874011 1.5874011 1.5874011
region box block 0 10 0 10 0 10 units lattice
create_box 2 box
Created orthogonal box = (0.0000000 0.0000000 0.0000000) to (15.874011 15.874011 15.874011)
  3 by 4 by 4 MPI processor grid
create_atoms 1 box
Created 4000 atoms
  using lattice units in orthogonal box = (0.0000000 0.0000000 0.0000000) to (15.874011 15.874011 15.874011)
  create_atoms CPU = 0.002 seconds
set type 1 type/fraction 2 0.89 78393
Setting atom values ...
  3550 settings made for type/fraction
mass 1 1.0
mass 2 1.0
pair_style lj/cut  3.5
pair_modify tail  yes
pair_coeff 1  1  1.0  1.0   # Intearaction between 1 and 1 set with epsilon = 1 and sigma = 1
pair_coeff 1  2  1.5  0.8
pair_coeff 2  2  0.5  0.88

write_data data.0
System init for write_data ...
Neighbor list info ...
  update every 1 steps, delay 10 steps, check yes
  max neighbors/atom: 2000, page size: 100000
  master list distance cutoff = 3.8
  ghost atom cutoff = 3.8
  binsize = 1.9, bins = 9 9 9
  1 neighbor lists, perpetual/occasional/extra = 1 0 0
  (1) pair lj/cut, perpetual
      attributes: half, newton on
      pair build: half/bin/atomonly/newton
      stencil: half/bin/3d
      bin: standard
WARNING: Not all mixed pair coeffs generated from mixing. Use write_data with 'pair ij' option to store all pair coeffs. (../write_data.cpp:312)


#############################
#   M E L T   S Y S T E M   #
#############################

velocity all create 2.4 6583654 mom yes dist gaussian # Assign velocities
                                                    # Temperature 2.4, random number seed, zero linear momentum
                                                                                # Gaussian distribution

timestep 0.002   # simulation timestep
thermo 1000       # output thermodynamic data every 1000 steps bf 100

# Define a fix  in this case with index 1 applied to all
# particles in the simulation. This fix is for simulations
# in the anisotropic NPT ensemble. Note that we use the MTK
# correction.
fix 1 all npt temp 2.4 2.4 0.1 iso 5.68 5.68 0.5 mtk yes tchain 5 pchain 5 # Use NPT ensemble
                                                                         # Set temperature and pressure and damping
                                                                         # Numbers of thermostats in chain and in barostat
run 10000          # run for 10000 steps
Per MPI rank memory allocation (min/avg/max) = 3.642 | 3.644 | 3.648 Mbytes
Step Temp E_pair E_mol TotEng Press Volume 
       0          2.4   -3.2438273            0   0.35527274   -2.6679874         4000 
    1000    2.4410604   -2.3367996            0    1.3238757    5.5812669    3989.6218 
    2000    2.4621748   -2.2776747            0    1.4146642    5.9918682    3962.4621 
    3000    2.4201174   -2.3001221            0    1.3291464    5.6770131    3994.8691 
    4000    2.4052921   -2.3094981            0    1.2975382    5.5367359    4016.9985 
    5000     2.372212   -2.3091524            0     1.248276     5.791032    3977.1686 
    6000    2.3811993   -2.3597839            0    1.2111221    5.5281452    3964.8846 
    7000     2.366029   -2.3264671            0    1.2216892    5.7138636    3962.9317 
    8000    2.4235302   -2.3371755            0     1.297211     5.687552    3976.7651 
    9000     2.414399    -2.321722            0    1.2989711    5.8663752    3962.1307 
   10000    2.4382952   -2.3018576            0    1.3546707    5.7400129    4001.1779 
Loop time of 2.50864 on 48 procs for 10000 steps with 4000 atoms

Performance: 688819.702 tau/day, 3986.225 timesteps/s
99.6% CPU use with 48 MPI tasks x no OpenMP threads

MPI task timing breakdown:
Section |  min time  |  avg time  |  max time  |%varavg| %total
---------------------------------------------------------------
Pair    | 1.0881     | 1.1611     | 1.2308     |   2.8 | 46.28
Neigh   | 0.20521    | 0.21519    | 0.22345    |   0.8 |  8.58
Comm    | 0.79229    | 0.86001    | 0.93815    |   3.6 | 34.28
Output  | 0.00024778 | 0.00025582 | 0.00038936 |   0.0 |  0.01
Modify  | 0.23548    | 0.25681    | 0.28627    |   2.4 | 10.24
Other   |            | 0.01527    |            |       |  0.61

Nlocal:        83.3333 ave          92 max          68 min
Histogram: 1 0 1 1 3 15 8 12 3 4
Nghost:        1640.46 ave        1660 max        1619 min
Histogram: 1 5 2 7 7 6 9 5 1 5
Neighs:        9541.27 ave       10860 max        7398 min
Histogram: 1 0 1 2 8 8 10 13 3 2

Total # of neighbors = 457981
Ave neighs/atom = 114.49525
Neighbor list builds = 907
Dangerous builds = 212

# Equilibrate just above the melting temperature to avoid step fn in T

fix 1 all npt temp 1.25 1.25 0.1 iso 5.68 5.68 0.5 mtk yes tchain 5 pchain 5
run 2000
Per MPI rank memory allocation (min/avg/max) = 3.643 | 3.645 | 3.649 Mbytes
Step Temp E_pair E_mol TotEng Press Volume 
   10000    2.4382952   -2.3018576            0    1.3546707    5.7400129    4001.1779 
   11000    1.2696992   -3.4601423            0   -1.5560697    5.7941212    3072.3353 
   12000    1.2267956   -3.4401053            0    -1.600372    5.7922232    3077.8765 
Loop time of 0.613263 on 48 procs for 2000 steps with 4000 atoms

Performance: 563543.151 tau/day, 3261.245 timesteps/s
99.7% CPU use with 48 MPI tasks x no OpenMP threads

MPI task timing breakdown:
Section |  min time  |  avg time  |  max time  |%varavg| %total
---------------------------------------------------------------
Pair    | 0.26983    | 0.29486    | 0.34117    |   2.5 | 48.08
Neigh   | 0.039966   | 0.04197    | 0.048322   |   0.7 |  6.84
Comm    | 0.17638    | 0.2286     | 0.25982    |   3.3 | 37.28
Output  | 5.0085e-05 | 5.2374e-05 | 6.798e-05  |   0.0 |  0.01
Modify  | 0.038563   | 0.043084   | 0.046621   |   1.2 |  7.03
Other   |            | 0.004701   |            |       |  0.77

Nlocal:        83.3333 ave          91 max          75 min
Histogram: 1 1 3 8 8 13 5 3 4 2
Nghost:        1958.81 ave        1977 max        1945 min
Histogram: 9 6 6 2 4 5 3 5 6 2
Neighs:        12387.5 ave       14204 max       10742 min
Histogram: 2 4 4 7 14 5 4 4 2 2

Total # of neighbors = 594601
Ave neighs/atom = 148.65025
Neighbor list builds = 144
Dangerous builds = 11

#############################
# L I N E A R  Q U E N C H  #
#############################

# Define solid atoms. This closely follows ten Wolde  Ruiz-Montero and Frenkel  Faraday Discuss  1996  104  93-110
# Compute components of the per-atom q6 vector
compute q6 all orientorder/atom degrees 1 6 components 6 nnn NULL cutoff 1.3 # compute the Q6 parameter.
                                                                             # Use all neighbours within 1.3 unit cell.

# get number of connections
compute coord_number all coord/atom orientorder q6 0.5

# An atom is solid if it has 8 or more connections (of a possible 14)
variable is_solid atom c_coord_number>=8
group solid dynamic all var is_solid    # Must be dynamic to update
dynamic group solid defined

# do clustering
compute cluster solid cluster/atom 1.3 # Create a cluster where all atoms within are solid and max 1.3 units from another member

# define chunks one chunk per cluster
compute clus_chunks solid chunk/atom c_cluster nchunk every compress yes  # Says which atoms are in which chunk

# count the size of each chunk
compute size_chunks solid property/chunk clus_chunks count


# Find the maximum entry in the vector of chunk sizes
variable max_n equal max(c_size_chunks)


# Thermo style which includes this variable
# thermo_style custom step temp pe vol v_max_n

thermo ${N}  # Print the thermo information every 100 steps
thermo 1000  

# Reset the npt fix at a lower temperature (below freezing)
fix 1  all npt temp  ${temp} ${temp}  0.1  iso  5.68  5.68  0.5  mtk yes tchain  5  pchain  5
fix 1  all npt temp  0.45 ${temp}  0.1  iso  5.68  5.68  0.5  mtk yes tchain  5  pchain  5
fix 1  all npt temp  0.45 0.45  0.1  iso  5.68  5.68  0.5  mtk yes tchain  5  pchain  5

dump dmp2 all dcd ${N} traj.dcd
dump dmp2 all dcd 1000 traj.dcd


compute msd all msd com yes
variable twopoint equal c_msd[4]/6/(step*dt+1.0e-6)
fix 9 all vector 10 c_msd[4]
variable fit equal slope(f_9)/6/(10*dt)
thermo_style custom step temp pe c_msd[4] v_twopoint v_fit v_max_n

fix 1 all npt temp 1.25 ${temp} 0.1 iso 5.68 5.68 0.5 mtk yes tchain 5 pchain 5
fix 1 all npt temp 1.25 0.45 0.1 iso 5.68 5.68 0.5 mtk yes tchain 5 pchain 5
run 500000 # 5000000  # Run for this many steps
Neighbor list info ...
  update every 1 steps, delay 10 steps, check yes
  max neighbors/atom: 2000, page size: 100000
  master list distance cutoff = 3.8
  ghost atom cutoff = 3.8
  binsize = 1.9, bins = 8 8 8
  4 neighbor lists, perpetual/occasional/extra = 1 3 0
  (1) pair lj/cut, perpetual
      attributes: half, newton on
      pair build: half/bin/atomonly/newton
      stencil: half/bin/3d
      bin: standard
  (2) compute orientorder/atom, occasional
      attributes: full, newton on
      pair build: full/bin/atomonly
      stencil: full/bin/3d
      bin: standard
  (3) compute coord/atom, occasional
      attributes: full, newton on
      pair build: full/bin/atomonly
      stencil: full/bin/3d
      bin: standard
  (4) compute cluster/atom, occasional
      attributes: full, newton on
      pair build: full/bin/atomonly
      stencil: full/bin/3d
      bin: standard
Per MPI rank memory allocation (min/avg/max) = 9.824 | 9.830 | 9.835 Mbytes
Step Temp PotEng c_msd[4] v_twopoint v_fit v_max_n 
   12000    1.2267956   -3.4401053 1.1402984e-30 7.9187388e-33 8.3333333e+20            1 
   13000    1.2471716   -3.4502423      1.00401 0.0064359615   0.08549562            1 
   14000    1.2627292   -3.4617537    2.0584617  0.012252748  0.086262025            1 
   15000    1.2436143   -3.4974795    3.1932432  0.017740239  0.089100153            4 
   16000    1.2422025   -3.4841762    4.2326351  0.022044974  0.090104323            2 
   17000    1.2628446   -3.4976475    5.2918692  0.025940534  0.089660074            1 
   18000    1.2492477   -3.4790192    6.4152838  0.029700387  0.090032798            1 
   19000    1.2263654   -3.5007654    7.4274166  0.032576388  0.089504164            2 
   20000    1.2138413   -3.4843518    8.4383412  0.035159754  0.089153566            3 
   21000    1.2618441   -3.4834319    9.4787792  0.037614202  0.088769706            2 
   22000    1.2479563   -3.4828846    10.521825  0.039855396   0.08857318            1 
   23000    1.2282249   -3.5012079    11.598933  0.042025118  0.088404079            1 
   24000    1.2180222   -3.4690307    12.744823  0.044252856  0.088274497            2 
   25000    1.2574708   -3.5080141      13.6015  0.045338334  0.088261332            2 
   26000    1.2225676   -3.4818176    14.562535  0.046674792  0.087851243            2 
   27000    1.2012594   -3.4994656    15.542651  0.047971144  0.087324831            2 
   28000    1.2211283    -3.467847    16.635153  0.049509382  0.086835704            6 
   29000    1.2233887   -3.5135064    17.515962  0.050333224  0.086458082            3 
   30000     1.200219   -3.5064689    18.581346   0.05161485  0.086152005            1 
   31000    1.2321904   -3.5079156    19.636768   0.05278701   0.08597842            2 
   32000    1.2066451   -3.5510153     20.54237  0.053495755  0.085814014            2 
   33000    1.2212255   -3.5267986    21.370236  0.053965241  0.085532795            2 
   34000    1.2382846   -3.5103888    22.402461  0.054907992  0.085131467            2 
   35000    1.1880096      -3.5298    23.445007  0.055821445   0.08482616            1 
   36000     1.199348   -3.4775183    24.452573  0.056603176  0.084675195            1 
   37000    1.2006776   -3.4916166    25.578056  0.057608235  0.084561008            1 
   38000    1.2075805   -3.5355012    26.270974  0.057611784  0.084408389            2 
   39000    1.2152208   -3.5230234    27.280776  0.058292255  0.084169987            1 
   40000    1.2006497   -3.5356913    27.991073  0.058314735  0.083942156            2 
   41000    1.1775205   -3.5259502    28.997529  0.058938066  0.083687363            2 
   42000    1.2291877     -3.51809    29.744651  0.059017164  0.083375561            1 
   43000    1.1876409   -3.5050901    30.811081  0.059711396  0.083027683            3 
   44000     1.206124   -3.5435558    31.477841  0.059617123  0.082738644            1 
   45000    1.2124039   -3.5172564    32.537405  0.060254453  0.082479802            3 
   46000     1.182317   -3.5149011    33.637191   0.06093694   0.08228013            2 
   47000    1.1928751    -3.529411    34.398623  0.060990465  0.082107595            3 
   48000    1.1881619   -3.5509034    35.768293  0.062097731  0.081942128            2 
   49000    1.1861029   -3.5418126    36.720332  0.062449543  0.081816041            3 
   50000    1.1984963   -3.4928867    37.603396  0.062672326  0.081674301            3 
   51000    1.1968209   -3.5495977    38.191645  0.062404649    0.0815457            1 
   52000    1.1808319   -3.5809833    39.237457  0.062880539   0.08136015            1 
   53000    1.1899514   -3.5642486    40.340358  0.063428235  0.081227566            3 
   54000    1.1769745   -3.5420398    41.335263  0.063788986  0.081169413            3 
   55000    1.1890186   -3.5430606    42.429349  0.064286891  0.081130914            2 
   56000     1.148899   -3.5525148    43.464321  0.064679049  0.081106558            3 
   57000    1.1857978   -3.5599483    44.530996  0.065103795  0.081105765            2 
   58000     1.178134    -3.581748    45.686524  0.065641557  0.081128583            1 
   59000    1.1693984   -3.5451949    46.452563  0.065610964  0.081141936            3 
   60000     1.181327   -3.5532143    47.262515  0.065642381  0.081135789            3 
   61000    1.1815249    -3.612847    48.085238  0.065690215  0.081113666            5 
   62000    1.1958733   -3.5740404    49.428757  0.066436501  0.081077734            3 
   63000    1.1863713   -3.5860284    50.478249   0.06677017  0.081093137            1 
   64000     1.180936   -3.5659139    51.356208  0.066870062  0.081136119            6 
   65000    1.1721908   -3.5474338    52.327372  0.067086374  0.081140675            3 
   66000    1.1756255   -3.5334092     53.26843  0.067258118  0.081114699            2 
   67000    1.1781996   -3.5719938    53.884966  0.067021102  0.081067662            2 
   68000    1.1499013   -3.5671768    54.636578   0.06695659   0.08099437            2 
   69000    1.1697711   -3.5609161    55.666565   0.06723015  0.080925631            4 
   70000    1.1602482   -3.6026526    56.076718  0.066757997  0.080813995            3 
   71000    1.1739787   -3.5911862    57.007123  0.066909769  0.080677803            2 
   72000    1.1485153     -3.58111    57.836563  0.066940467  0.080518999            3 
   73000     1.136669   -3.5895055     58.49032  0.066769771  0.080360758            2 
   74000      1.17572   -3.5686657    59.455485  0.066954374  0.080214689            1 
   75000    1.1523489   -3.6025241    60.290078  0.066988975  0.080082134            3 
   76000    1.1441164   -3.6007006    60.748147   0.06660981  0.079904165            3 
   77000     1.151702   -3.5824235    61.657598  0.066729001  0.079713874            1 
   78000    1.1554192   -3.6121804    62.328885  0.066590688  0.079510974            2 
   79000    1.1178866   -3.6105469    63.134073  0.066597123  0.079303961            1 
   80000    1.1329868   -3.5751936    63.566697  0.066215309  0.079074901            1 
   81000    1.1353203    -3.578543     64.67506  0.066538127  0.078849095            2 
   82000    1.1486691    -3.581944    65.629207  0.066696348  0.078649913            1 
   83000    1.1127463   -3.6224454    66.835146   0.06710356  0.078479206            2 
   84000    1.1342034   -3.6104238    67.744833  0.067207175  0.078325351            2 
   85000    1.1362294   -3.6096458    68.546294  0.067202248  0.078190624            5 
   86000    1.1093833   -3.6317192    69.512738  0.067357304  0.078052498            1 
   87000    1.1431104   -3.6291504    70.691021  0.067711706  0.077953395            3 
   88000    1.1349133   -3.5998904    71.572422  0.067776914  0.077854661            3 
   89000    1.1084138   -3.6191002    72.397726  0.067788133  0.077767277            2 
   90000    1.1143944   -3.5938789    73.214586  0.067791283  0.077693564            3 
   91000    1.1048639   -3.6382794    74.013158  0.067777617  0.077605073            4 
   92000    1.1124276   -3.6041584    74.903318  0.067847208  0.077512664            2 
   93000    1.1356071   -3.6429841    75.468433  0.067624044  0.077413226            4 
   94000    1.1215965    -3.651833    76.294739   0.06763718  0.077310062            1 
   95000    1.1144585   -3.6326969    77.445643  0.067934774  0.077211554            2 
   96000    1.0952146   -3.6793446    78.327709  0.067992802  0.077133391            5 
   97000    1.1201189   -3.6741864    78.621448  0.067544199  0.077032227            3 
   98000     1.093615   -3.6280361    79.618191  0.067702543  0.076928643            2 
   99000    1.1134407   -3.6543073      80.3317  0.067619276  0.076816797            2 
  100000    1.1114247   -3.6371741    81.048693  0.067540577  0.076701347            3 
  101000     1.116885   -3.6633891    81.691591  0.067402302  0.076566133            2 
  102000    1.1092792   -3.6668327    82.569716  0.067458918  0.076434874            1 
  103000    1.0994997   -3.6343115    83.285481  0.067383075   0.07630488            2 
  104000    1.0862199   -3.6578524    83.916053  0.067240426  0.076175935            2 
  105000    1.0817672   -3.6521023    84.915032  0.067392882  0.076049145            2 
  106000     1.102262   -3.6576789    85.483402  0.067203932    0.0759235            2 
  107000     1.114325   -3.6810441    86.367831  0.067264665  0.075785374            3 
  108000    1.1006884   -3.6681972    86.655261  0.066863627  0.075639979            2 
  109000    1.0922378   -3.6970018    87.601866  0.066973904  0.075497472            2 
  110000    1.0846055   -3.7069545    88.384694  0.066958101  0.075362784            2 
  111000     1.094208   -3.6535797    88.489302  0.066433409  0.075214892            2 
  112000    1.1198405   -3.6791658    89.144375   0.06632766  0.075049859            3 
  113000    1.0942788   -3.7106239    90.106654  0.066450334  0.074897866            5 
  114000    1.0790935   -3.6687106    91.076244  0.066576201  0.074736711            2 
  115000    1.1040335   -3.6808212    91.314949  0.066170252  0.074563344            3 
  116000    1.0709207   -3.6571272    91.893895  0.066015729  0.074383679            1 
  117000    1.1118356   -3.7232169    92.551934  0.065920181  0.074203843            2 
  118000    1.0760745   -3.6963114    93.160727  0.065791473  0.074031993            4 
  119000    1.0763696   -3.6774049    94.084751   0.06588568  0.073859856            2 
  120000    1.0553561   -3.6839967     94.82112     0.065848  0.073684668            5 
  121000    1.0800814   -3.7264256    95.117779  0.065508112  0.073506728            4 
  122000      1.07002   -3.7245728     95.70559  0.065372671   0.07332607            2 
  123000     1.075931   -3.7064448    96.414102  0.065321207  0.073142832            1 
  124000    1.0655141   -3.6886126    97.244164   0.06535226  0.072963137            4 
  125000    1.0765998   -3.7357299    97.111057  0.064740704  0.072784197            2 
  126000    1.0864142   -3.7353155    97.857084  0.064720293  0.072610002            3 
  127000    1.0565185   -3.7173206    98.790368  0.064823076  0.072430297            2 
  128000    1.0871834    -3.725795    99.830218  0.064993631  0.072248853            3 
  129000    1.0519648   -3.7316269    100.30264  0.064794988  0.072075183            3 
  130000    1.0486349   -3.6999256    100.89226  0.064674527  0.071902211            2 
  131000    1.0543138   -3.7209123    101.36913  0.064484181  0.071728138            2 
  132000    1.0543758   -3.7510262    102.28272  0.064572426   0.07155612            1 
  133000    1.0714471   -3.7621684    103.08811  0.064591547  0.071385476            2 
  134000     1.063294   -3.7362733    103.52027  0.064378276   0.07122147            2 
  135000    1.0522023     -3.70401    104.74344  0.064656445  0.071058119            2 
  136000    1.0653168   -3.7393796        104.7  0.064154414  0.070893806            2 
  137000    1.0441088   -3.7192756    105.66649  0.064274019  0.070733633            2 
  138000    1.0355511    -3.723506    106.26886  0.064172017  0.070581792            3 
  139000    1.0457699   -3.7658634    107.33115   0.06434721  0.070434262            3 
  140000     1.028938   -3.7612456    107.38871  0.063921853  0.070282254            2 
  141000    1.0363063   -3.7586528    108.28517  0.063998328  0.070124541            2 
  142000    1.0388531    -3.770276    109.13969  0.064049113  0.069969184            2 
  143000     1.046127   -3.7584178    109.62118  0.063881804  0.069820824            2 
  144000    1.0397256   -3.7525128    111.33855  0.064432033  0.069682683            3 
  145000    1.0370739     -3.76797    111.44954  0.064051459  0.069546439            3 
  146000    1.0260589   -3.7523762    112.51263  0.064219539  0.069414231            5 
  147000    1.0400791   -3.7162638    112.80074  0.063945999  0.069281862            3 
  148000     1.020167    -3.748906    113.24048  0.063761533  0.069153455            2 
  149000    1.0132332   -3.7820393    113.68032    0.0635796  0.069020192            3 
  150000    1.0610581   -3.7432071    114.65077  0.063694874  0.068885087            2 
  151000     0.992221   -3.7555103    115.01632  0.063474788  0.068751881            2 
  152000    1.0187405   -3.7653021    115.55703  0.063353633  0.068625426            3 
  153000    1.0076198   -3.7831978    116.35561  0.063374514  0.068489758            4 
  154000    1.0304937    -3.772192    117.15449  0.063395289  0.068360769            3 
  155000    1.0355081    -3.780912    117.30287  0.063066061  0.068227717            2 
  156000    1.0102717   -3.7735068    118.73467   0.06342664  0.068102503            3 
  157000    1.0183986   -3.7360669    119.48939  0.063423242  0.067982603            3 
  158000    1.0209424   -3.8124288    119.39598  0.062972562  0.067859861            2 
  159000    1.0059383   -3.7810595    120.48545  0.063147509  0.067731303            2 
  160000    1.0044127   -3.8295751    120.88458  0.062960719  0.067613394            4 
  161000    1.0142153   -3.7843922    121.55211  0.062915171  0.067493997            3 
  162000    1.0112079   -3.7875341    122.44916  0.062988252  0.067378303            3 
  163000   0.99388263   -3.8380369    122.78827  0.062775187  0.067264174            3 
  164000     1.011446   -3.8177344    123.95461  0.062985066  0.067152579            1 
  165000   0.99511109   -3.8178071    124.18941  0.062721925   0.06704554            2 
  166000     1.009803    -3.785623    125.01791  0.062759997  0.066931655            3 
  167000   0.99844632   -3.8359991    124.88667  0.062318699  0.066813235            4 
  168000   0.98661434    -3.828984    126.48535  0.062740749  0.066697632            4 
  169000   0.98718262   -3.8125174    126.67849   0.06246474  0.066583609            2 
  170000    1.0007153   -3.8156353    127.00655  0.062258111  0.066467354            1 
  171000   0.99470107   -3.8114959       127.49  0.062129628  0.066348327            4 
  172000   0.99554119   -3.8411356    128.05383  0.062041583  0.066231878            3 
  173000    1.0022125   -3.8595425    128.44206  0.061869973    0.0661136            3 
  174000   0.99620152   -3.8268358    129.09116   0.06182527  0.065995968            3 
  175000   0.96757401   -3.8190103    130.17582  0.061988486  0.065878163            2 
  176000   0.98394497   -3.8305193    130.59671  0.061835563  0.065759825            9 
  177000    1.0118499    -3.800055    131.53759  0.061929186  0.065642843            3 
  178000   0.99965705   -3.8269776    131.54966  0.061586919  0.065523602            2 
  179000   0.97389235   -3.8536369    131.97932  0.061442887  0.065402965            5 
  180000   0.98469062   -3.8537617    132.42934  0.061309879  0.065288366            3 
  181000   0.98336911   -3.8502717    133.74083  0.061574966  0.065174307            2 
  182000   0.98217982   -3.8706329    133.99054  0.061350977  0.065062887            4 
  183000   0.97824254   -3.8785364    134.72069  0.061348222  0.064955068            3 
  184000   0.98246955   -3.8398884     135.7188  0.061466847  0.064848892            2 
  185000   0.99057509   -3.8603987    135.78014  0.061162225  0.064743404            2 
  186000   0.97614422   -3.8289641    136.51333  0.061161886  0.064634773            4 
  187000   0.98060366   -3.9014547    136.93843  0.061024258   0.06452883            3 
  188000   0.94998852   -3.8786437    137.34662  0.060880592  0.064418143            2 
  189000   0.94722308   -3.8800274    137.93401  0.060817464  0.064302427            3 
  190000   0.97146571   -3.8458906    138.90003  0.060921065  0.064190461            2 
  191000   0.96560864   -3.8400119    139.01253  0.060651189  0.064083783            3 
  192000   0.96507583   -3.8647374    139.70505  0.060635873  0.063975112            7 
  193000   0.96839595   -3.8804228    140.29293   0.06057553  0.063866006            4 
  194000   0.95921501   -3.8847622    140.38086  0.060301058  0.063752637            2 
  195000   0.94532481   -3.8695091    140.96854  0.060242967  0.063635971            3 
  196000   0.94770284   -3.8672807    141.11534  0.059998019  0.063518836            4 
  197000   0.94800374   -3.8960135    141.71105  0.059945452  0.063404626            8 
  198000   0.94690783   -3.8859875    142.69094  0.060055111  0.063285484            4 
  199000   0.96246243    -3.867338    142.71333  0.059762701  0.063167609            1 
  200000   0.95511379   -3.8878669    143.43743  0.059765595  0.063052248            2 
  201000   0.92862201   -3.8852427    143.91805  0.059667515  0.062938549            2 
  202000   0.94514688   -3.8934298    144.02995  0.059418297  0.062826726            4 
  203000   0.93688641   -3.8827376    145.01392  0.059529525  0.062715919            4 
  204000    0.9379516   -3.9196876    145.83202  0.059571905   0.06260793            4 
  205000   0.94164595   -3.8999964    146.49227  0.059549703  0.062500209            4 
  206000   0.92974642   -3.8958827    147.28744  0.059582297  0.062389889            2 
  207000    0.9399177   -3.9244604    147.32646  0.059310168   0.06228184            7 
  208000   0.93065886   -3.9222406    148.08252  0.059327932  0.062172383            5 
  209000   0.93094133    -3.889509    148.49328  0.059207846  0.062064752            2 
  210000    0.9371102   -3.9232428    148.78335   0.05904101  0.061957019            2 
  211000   0.95411125   -3.9201195    149.36088  0.058989288  0.061849722            4 
  212000      0.92596   -3.8900536    150.23393  0.059054217   0.06174201            2 
  213000   0.95353566   -3.9328862    150.24689  0.058782038  0.061636861            3 
  214000   0.91898731   -3.9375541    151.21972  0.058886184  0.061529622            4 
  215000   0.93700846   -3.9354139    151.26071  0.058628181  0.061422065            6 
  216000   0.90105451    -3.957446    151.24669  0.058351347  0.061313125            2 
  217000   0.92753183   -3.9432715    151.96513  0.058358343  0.061202735            2 
  218000   0.92748516   -3.9392554    152.67374  0.058361523  0.061094555            4 
  219000   0.92466628   -3.9250247    154.03372  0.058612527  0.060985674            3 
  220000   0.89870363   -3.9703507    153.50813   0.05814702   0.06087877            8 
  221000   0.92542869   -3.9677078    153.44697   0.05786085  0.060767073            2 
  222000    0.8978036    -3.952131    154.17189  0.057872331  0.060652722            3 
  223000   0.90622742   -3.9368189    154.71478  0.057815686  0.060538607            8 
  224000   0.90472148   -3.9285922     155.1743  0.057728533  0.060423479            5 
  225000   0.90047049   -3.9641091    154.93644  0.057383868  0.060306909            2 
  226000   0.91544219   -3.9608913     155.6934  0.057409072  0.060189423            2 
  227000   0.92593278   -3.9705921    155.39587  0.057046943  0.060074466            4 
  228000   0.90989564   -3.9665822    156.83305  0.057322022  0.059958713            2 
  229000   0.91653035   -4.0109513    156.23337  0.056853481  0.059839968            3 
  230000   0.89065567    -3.977298    156.54689  0.056719888  0.059717082            3 
  231000   0.88533094    -3.980438     156.6065  0.056495851  0.059592642            4 
  232000   0.89937717   -3.9860211    156.82138  0.056329519  0.059466952            6 
  233000   0.89612464    -3.956426    158.11567  0.056550668  0.059342919            3 
  234000   0.87940409   -3.9670779    158.34392  0.056390285  0.059220815            4 
  235000    0.8793809   -3.9686051    158.59351  0.056238835  0.059101523            3 
  236000   0.87877046   -3.9999782     159.1612  0.056200987  0.058978888            6 
  237000   0.87965855   -3.9778461    159.49167  0.056080053  0.058858945            2 
  238000   0.89097966    -3.984202    159.55275  0.055865807  0.058738031            4 
  239000   0.88739716    -3.970684    160.11717  0.055828861   0.05861626            5 
  240000   0.88357927   -4.0043046    160.72016  0.055805612  0.058491936            3 
  241000   0.87039956   -4.0173549    160.11296  0.055364093  0.058367525            4 
  242000   0.88611939   -3.9926411     161.3626  0.055565633  0.058247378            7 
  243000   0.86561209   -4.0222259     161.3352  0.055327573  0.058124467            4 
  244000    0.8677787   -4.0287064    161.65146  0.055208833  0.058001838            3 
  245000   0.88086814   -4.0128359    162.80858  0.055377069  0.057881046            3 
  246000   0.87170857   -4.0102518    163.20798  0.055287257  0.057760871            3 
  247000    0.8888154   -4.0214103     162.5173  0.054830397  0.057642568            3 
  248000   0.87282211   -4.0410135    163.47967  0.054932685  0.057524275            3 
  249000   0.87462854   -4.0130627     164.3744  0.055011514  0.057406867            5 
  250000   0.83275288   -4.0381758    164.87552  0.054958508  0.057291914            3 
  251000   0.85151625   -4.0242424      165.407  0.054916003  0.057176517            4 
  252000    0.8507764   -4.0145738    165.58738  0.054757731  0.057061198            7 
  253000   0.87477028    -4.022951    165.81228  0.054615375   0.05694658            4 
  254000   0.85743301   -4.0149668    166.70133  0.054692038  0.056830288            3 
  255000   0.86064053   -4.0567956    166.12192  0.054288208  0.056715494            3 
  256000   0.86242134   -4.0291984    166.82825   0.05430607  0.056598776            9 
  257000   0.83749475   -4.0588252    167.20844  0.054218042  0.056481892           12 
  258000   0.84819718   -4.0481564    167.76354  0.054187191  0.056365566            4 
  259000   0.86257292   -4.0425741    167.28421  0.053823749  0.056248507            4 
  260000   0.85222296   -4.0297351    168.09643  0.053877061   0.05613258            2 
  261000   0.85143606   -4.0534901     168.6788  0.053856576  0.056018993            2 
  262000   0.84369515   -4.0396462    169.20845  0.053819483  0.055904194            2 
  263000   0.86451923   -4.0598398    168.67534  0.053445925   0.05578913            4 
  264000    0.8471037   -4.0686092    169.51936  0.053509898  0.055674132            6 
  265000   0.84503258   -4.0763575    169.46813  0.053291864   0.05555972            3 
  266000   0.85446649   -4.0809803    169.54185  0.053114616  0.055444027            8 
  267000    0.8414586   -4.0622289    170.91393  0.053343923  0.055329664            4 
  268000    0.8490459   -4.0940167    170.95549  0.053157802  0.055215756            6 
  269000   0.84204463    -4.081433    171.26791  0.053056975  0.055102159            7 
  270000   0.86240222   -4.1083337    171.62895  0.052971897  0.054987781            2 
  271000   0.83346265   -4.0868786    171.99334  0.052888482  0.054875051            6 
  272000    0.8320384   -4.0770562     172.1596  0.052744977   0.05476221            3 
  273000   0.84519602   -4.0845714    172.33926  0.052606613  0.054648853            7 
  274000   0.85384399   -4.0926488    172.45614  0.052450163  0.054536657            4 
  275000   0.82899132   -4.0976723     172.9119  0.052397546  0.054423106            4 
  276000    0.8182266   -4.1119945    173.75194  0.052461335  0.054310329            3 
  277000   0.82487149   -4.0978814    173.99982  0.052346516  0.054199129            6 
  278000   0.81960272    -4.108389    174.61077  0.052341358  0.054088103            2 
  279000   0.82820271   -4.1020598    174.83273   0.05222005  0.053978356            2 
  280000   0.81342791    -4.101182    174.57536  0.051956953  0.053866977            5 
  281000   0.81929899     -4.11644    175.40304  0.052017508  0.053757224            3 
  282000   0.83609804   -4.1256514    175.72768  0.051928984  0.053648358            3 
  283000   0.81572422   -4.1391314    176.58288  0.051997314  0.053541216            2 
  284000   0.82679808   -4.1127786    177.02716   0.05194459  0.053435695            5 
  285000   0.82003374   -4.1037538    177.32197  0.051848528  0.053326934            5 
  286000   0.80594924    -4.141459    176.91633  0.051549047  0.053218283            3 
  287000   0.80230656   -4.1263048    177.54368  0.051551592   0.05310871            3 
  288000   0.79128624   -4.1304455    177.14399  0.051256942  0.052998299            6 
  289000   0.79524645    -4.143285    177.76679  0.051259168   0.05288805            4 
  290000   0.79333245   -4.1410777    178.03562  0.051159661  0.052777907           10 
  291000   0.80851932   -4.1407096    178.86746  0.051222066  0.052670524           11 
  292000   0.81377273   -4.1470174    178.79833   0.05102692  0.052562257            7 
  293000   0.80821759   -4.1246803    179.66587  0.051099507  0.052455756           10 
  294000   0.77957173   -4.1382927    180.09664  0.051047801  0.052350987            5 
  295000   0.80699518    -4.164503    180.06841  0.050866781  0.052246567            9 
  296000   0.79090602    -4.152657    180.52262  0.050822811   0.05214322            5 
  297000    0.8005224   -4.1553806    180.85221  0.050744167   0.05204014           10 
  298000   0.78372108   -4.1435435     181.2437  0.050683362  0.051937429            7 
  299000   0.79563895    -4.151267    181.25005   0.05051562  0.051832501            2 
  300000    0.7836591   -4.1853248    181.82959  0.050508219  0.051729003            3 
  301000    0.7830626    -4.186377    181.80896  0.050334708   0.05162533            5 
  302000   0.79795044   -4.1721128    182.01364  0.050224513  0.051520865            4 
  303000   0.78052837   -4.1853545    182.08978  0.050079696  0.051416665            4 
  304000   0.78739646   -4.1661252    182.44015  0.050011006  0.051311829            4 
  305000   0.78560496   -4.1565835    182.15576  0.049769334  0.051205923           12 
  306000   0.78809202   -4.1950676    183.25725  0.049906659  0.051099825            7 
  307000   0.75865826   -4.2024778    183.04037  0.049685224   0.05099455            7 
  308000   0.76973544   -4.1857525    183.82464  0.049736105  0.050890589            2 
  309000    0.7795543   -4.2097016    184.12287  0.049655574  0.050787606            3 
  310000   0.79103413   -4.1845303    184.22154  0.049521919  0.050684797            8 
  311000   0.76330932   -4.2152099    183.67288  0.049215671  0.050581007            5 
  312000   0.76718178   -4.1775941    184.21603  0.049202998   0.05047654            7 
  313000   0.77060068   -4.2045178    185.13445  0.049290322  0.050371941            5 
  314000    0.7632392   -4.2159091    184.50356  0.048965913  0.050267125            5 
  315000   0.77551454   -4.1929693    184.73084  0.048870591  0.050162043            3 
  316000   0.75950775   -4.2126223    184.70466  0.048709035  0.050056978            3 
  317000    0.7691215   -4.2386834    184.81884  0.048585394  0.049953021            8 
  318000   0.76067569   -4.2296961    185.39158  0.048582699  0.049848406            6 
  319000   0.77841692   -4.2064285    186.90615  0.048826057  0.049744854            5 
  320000   0.76952207   -4.2065197    186.53889  0.048577837  0.049641189            4 
  321000   0.74187411   -4.1977641    186.70056  0.048468473  0.049536898            5 
  322000   0.74492856   -4.2550846    185.87403  0.048104045   0.04943018           12 
  323000   0.78024495   -4.2305918    186.39408  0.048089288   0.04932355            1 
  324000   0.75221773   -4.2539436    186.41257  0.047945619   0.04921834            8 
  325000   0.76179608   -4.2405051    186.98372  0.047944544  0.049112228           11 
  326000   0.73453693   -4.2409526    187.69521  0.047979349  0.049006817            5 
  327000   0.75911945   -4.2399889    187.09549  0.047679789  0.048902091           11 
  328000    0.7388241   -4.2570896    187.32172  0.047591901  0.048796746            9 
  329000    0.7500984   -4.2688362    187.26414   0.04743266  0.048690743            5 
  330000   0.74599084   -4.2474878    187.71979  0.047403988  0.048585164            4 
  331000   0.73223134   -4.2529459    188.07594  0.047350439   0.04847817           13 
  332000   0.73247177   -4.2479265     187.9642  0.047179768   0.04837132            7 
  333000   0.72444243   -4.2411076    187.98855  0.047044182  0.048264842            5 
  334000   0.74214924    -4.229312    188.40381  0.047006938  0.048157918            3 
  335000   0.75578711   -4.2685085    188.49328  0.046888875  0.048051256            6 
  336000   0.74748073   -4.2780446    188.47708  0.046745307  0.047945168            8 
  337000    0.7421649    -4.264441    188.84105    0.0466966  0.047838066            6 
  338000    0.7294001   -4.2876215    189.12611  0.046628726  0.047731163            9 
  339000   0.71235086   -4.2958111    189.09903  0.046484521  0.047624665            7 
  340000   0.72059646   -4.2773627    189.53825  0.046455452  0.047519094            7 
  341000   0.71796056   -4.2914612    189.55276  0.046322767  0.047413648            3 
  342000   0.73437042   -4.2819202    189.31624  0.046129689  0.047307684            5 
  343000   0.73887795   -4.3078309    189.66387  0.046079657  0.047200452            5 
  344000   0.72471022    -4.274017     190.5546  0.046161482   0.04709467            6 
  345000   0.71686877   -4.2882106    190.53578  0.046023134  0.046989257            6 
  346000   0.73691454   -4.2972932    190.31799  0.045837666  0.046884601            5 
  347000    0.7000135   -4.3036794    190.47315   0.04574283  0.046778952            4 
  348000   0.69154083   -4.3209457    190.64878  0.045653443  0.046672173            4 
  349000   0.70103052   -4.3131622    190.86407  0.045574037  0.046564961            4 
  350000   0.71528577   -4.2920959    190.63854  0.045390129  0.046458004           10 
  351000   0.71079296    -4.299173    191.50469   0.04546645  0.046351584            6 
  352000   0.70701293   -4.3384824     191.3134  0.045291998  0.046245563           12 
  353000   0.71071304   -4.3280602    191.01531  0.045093322  0.046139261            5 
  354000   0.70482329   -4.3069752    191.04375  0.044972635  0.046033185            7 
  355000   0.69863526   -4.3322575    191.19066  0.044880438  0.045926377            6 
  356000   0.69650274   -4.3463361    191.51121  0.044829404  0.045818802            8 
  357000   0.68640415   -4.3291672    191.68825  0.044745157  0.045712436            6 
  358000   0.68390489   -4.3461921    191.52251   0.04458159  0.045606286            6 
  359000   0.69415889   -4.3510825      191.864  0.044536676  0.045499525            1 
  360000   0.68394085   -4.3722131    191.62854  0.044358457  0.045391912            5 
  361000   0.68291047   -4.3231768    191.73392  0.044259908  0.045284548            7 
  362000   0.67934991   -4.3526661    191.79676  0.044152109  0.045177997            7 
  363000   0.69666493   -4.3633428    191.88091  0.044049796  0.045071771            4 
  364000   0.68148049   -4.3474121    193.08906  0.044205372  0.044966258            6 
  365000   0.68563212   -4.3602219    192.78858  0.044015657  0.044861063            8 
  366000   0.68102387    -4.361096    192.49012  0.043827442  0.044755246            6 
  367000    0.6990271   -4.3581095    193.10116  0.043846766  0.044650688            3 
  368000   0.68494118   -4.3668349    192.19009  0.043521307   0.04454637            5 
  369000   0.68531028   -4.3528796    193.32051  0.043658651  0.044442155            4 
  370000   0.66381104   -4.3635365    193.80141  0.043648965   0.04433867            8 
  371000   0.65611654   -4.3696342     193.3286  0.043425112  0.044234636            5 
  372000   0.66371787   -4.3787902    193.78515  0.043410652  0.044129874            9 
  373000   0.66683033   -4.3683059    193.66489  0.043267401  0.044026132            3 
  374000   0.66858766    -4.393557    194.22319  0.043276111  0.043923748           17 
  375000    0.6611967   -4.3756214    194.29932  0.043177627  0.043820585            4 
  376000   0.66417736   -4.4135657     193.8948  0.042973139   0.04371731           13 
  377000   0.66621286   -4.4062326    194.48941  0.042990586  0.043614039           20 
  378000   0.67442272   -4.4078297    194.00598  0.042770277  0.043510908            7 
  379000     0.668523     -4.39788    194.22891  0.042706444  0.043408165           10 
  380000   0.66528363   -4.3877067    194.65158   0.04268675  0.043305828           10 
  381000   0.67113929   -4.4269982    194.79216  0.042605459  0.043202881            5 
  382000   0.65632528   -4.4146463    194.38412  0.042404913  0.043101315            4 
  383000   0.65403686   -4.3871023    195.14455  0.042459651  0.043000899            6 
  384000   0.65742782   -4.4053197    195.15066  0.042350404  0.042900648            6 
  385000   0.65170341    -4.420168    195.69183  0.042357538   0.04280018            5 
  386000    0.6529553   -4.4134576     195.9511  0.042303779  0.042700308            6 
  387000   0.65233959   -4.4187603    195.73884   0.04214876   0.04260101            8 
  388000   0.64285808   -4.4291161     195.8297  0.042059644  0.042501396            6 
  389000   0.64722794   -4.4502417    196.60899  0.042118465   0.04240294            7 
  390000   0.64838589   -4.4189359    196.41196  0.041968367  0.042303545            6 
  391000   0.65037158   -4.4566512     196.1085  0.041796356  0.042204658            8 
  392000   0.66245548   -4.4430269     196.2189  0.041713202  0.042106167            5 
  393000   0.65106535   -4.4485213    196.49714   0.04166606  0.042007531            7 
  394000   0.63455382   -4.4447858    196.69913  0.041603032  0.041909345            9 
  395000   0.64057413   -4.4509338    196.35756  0.041425645   0.04181117            6 
  396000   0.65149637   -4.4613474    196.42192   0.04133458  0.041712807            9 
  397000   0.63803309   -4.4655985    197.07369  0.041367274  0.041614691            4 
  398000   0.63628917   -4.4590301    196.77953  0.041201744  0.041516357            9 
  399000   0.62022935   -4.4952339    196.99436   0.04114335  0.041418683           10 
  400000   0.62936323   -4.4529831    197.67331  0.041181939  0.041320738            7 
  401000   0.62577725   -4.4735665    196.79318  0.040896338  0.041223057            5 
  402000   0.63953608   -4.4870288    197.24272  0.040887795  0.041125081            6 
  403000   0.61733477   -4.4865875    196.99913  0.040735965  0.041027352           11 
  404000   0.60776306   -4.4799142    197.55042  0.040748849  0.040930469           13 
  405000   0.61914629   -4.4903724    197.39507  0.040616269  0.040833929            5 
  406000   0.62637104   -4.5012279    197.77417   0.04059404  0.040737747            6 
  407000   0.62555427   -4.5004194    198.22641  0.040586897  0.040641905           20 
  408000   0.59704649   -4.4918378    198.22557  0.040487248  0.040546677           12 
  409000   0.61567677   -4.5017869    197.71801  0.040284843  0.040451588            7 
  410000   0.60864006   -4.4888641    198.36185  0.040317448  0.040356302            7 
  411000   0.60966875    -4.520474    198.43173  0.040233522  0.040261517            7 
  412000   0.61231586    -4.492441     198.2752  0.040104207  0.040166754           16 
  413000   0.61174037   -4.5136623    198.65968  0.040084681   0.04007227           16 
  414000    0.6038802   -4.5165521    198.89756  0.040035741  0.039977667            8 
  415000   0.60538295   -4.5380948    198.92827  0.039945435  0.039882849           13 
  416000   0.60331426   -4.5227088    198.26238  0.039716022  0.039787532           18 
  417000   0.60351876   -4.5240564    198.64541  0.039697324  0.039693082           15 
  418000   0.60981424   -4.5364336    198.89574  0.039652261  0.039599217           18 
  419000    0.6018074   -4.5274929    198.39998  0.039459025  0.039504328           14 
  420000   0.59037073   -4.5535431    198.93667  0.039471561  0.039409155           14 
  421000   0.59272195   -4.5438629    198.78118  0.039347026  0.039315332           16 
  422000    0.6060374   -4.5467603    198.74096  0.039245846  0.039221913            9 
  423000   0.58271949   -4.5360549    198.72318  0.039149563  0.039128125            6 
  424000   0.60034276   -4.5497912    198.57077  0.039027274  0.039034077            9 
  425000   0.58868449   -4.5576034    198.87798  0.038995683  0.038939952           11 
  426000   0.58070491   -4.5537443    198.32487  0.038795944  0.038845988           14 
  427000    0.5910555   -4.5593315    198.76273  0.038790541  0.038751659            7 
  428000   0.58713109   -4.5651447    198.52301  0.038653233  0.038657881           10 
  429000   0.59564047   -4.5465565    198.76629   0.03861039  0.038564142            3 
  430000   0.57646513   -4.5577646    198.43884  0.038457139   0.03846984            9 
  431000   0.56595392   -4.5660917     198.7519  0.038428441  0.038375513           32 
  432000   0.57509989   -4.5595149    198.50314    0.0382915  0.038281424           26 
  433000   0.56366106    -4.581239     198.7487  0.038250327  0.038187263            7 
  434000   0.57798239   -4.5807141    198.61852  0.038137196  0.038093248           12 
  435000   0.56605096   -4.5850313    198.83903  0.038091767  0.037999048            6 
  436000   0.56991546   -4.5852987    198.34986  0.037910905  0.037905087           13 
  437000   0.57869271   -4.5809378    198.81181  0.037912245  0.037811096            9 
  438000   0.58257129   -4.5950568    198.52624  0.037771354  0.037716996           13 
  439000   0.57604208   -4.5670445    198.74535  0.037726907  0.037622955           27 
  440000   0.57005018   -4.5835452    198.48562  0.037591973  0.037529081           34 
  441000   0.56254865   -4.5849147    198.61898  0.037531931  0.037435451           21 
  442000   0.56051641   -4.5898976    198.28682  0.037384394  0.037341575           12 
  443000   0.55150757   -4.6005677    198.96414  0.037427416   0.03724756           20 
  444000   0.55425135   -4.6065477    198.46167  0.037248813  0.037153774           16 
  445000   0.55738341   -4.6178953    198.55457  0.037182504  0.037060157           38 
  446000   0.55821889    -4.615453     198.3365   0.03705839  0.036966355           52 
  447000   0.55734293   -4.6107988    197.94798  0.036903054   0.03687276           11 
  448000   0.55285236   -4.6109215    198.50463  0.036924224  0.036779166           17 
  449000   0.56066901   -4.5943194    198.62228  0.036863824  0.036685477           15 
  450000   0.54989356   -4.6196515    198.46378  0.036752552  0.036592041           19 
  451000   0.53152254   -4.6036968    198.52002  0.036681453  0.036499042            8 
  452000   0.54185409    -4.632667     198.5567  0.036607061  0.036405704           23 
  453000   0.53596417   -4.6489226    197.72125  0.036372562  0.036311999           14 
  454000   0.54964497   -4.6553992    197.89717  0.036324738  0.036217476           18 
  455000    0.5426486   -4.6539939     197.8794  0.036241648  0.036123945           27 
  456000   0.55124514   -4.6358217    198.05245  0.036193795  0.036030673           16 
  457000   0.54832057   -4.6482298    198.46439  0.036189713  0.035938112            7 
  458000    0.5382417   -4.6425128    198.31103  0.036082792  0.035845452            9 
  459000   0.53161636   -4.6480502    198.37507  0.036015808  0.035753167           11 
  460000   0.52380801   -4.6644453    198.14714  0.035896221  0.035660775           11 
  461000    0.5202428    -4.652743    198.32137   0.03584985  0.035568194           21 
  462000   0.53224523   -4.6543704    197.97762   0.03571025  0.035475898            7 
  463000   0.52367451   -4.6734947    198.13792  0.035661973  0.035384037            7 
  464000   0.53132236    -4.685311    198.04704  0.035568793  0.035292122            8 
  465000    0.5193673   -4.6750004    197.82538  0.035452578  0.035200301           10 
  466000   0.53608391   -4.6895769    198.11881  0.035428972  0.035108723           32 
  467000   0.52066226   -4.6908736    198.12335  0.035353916  0.035017661            6 
  468000   0.52146798   -4.6845222    198.43821   0.03533444  0.034927017            9 
  469000   0.51654386   -4.6961462    198.36108  0.035245394  0.034836935           11 
  470000   0.52393606   -4.6927743    198.47812  0.035191156  0.034746666           10 
  471000   0.50200076   -4.6900373     198.5316  0.035125903  0.034656366           10 
  472000   0.51355144   -4.6988875     198.2319   0.03499857  0.034566677           23 
  473000   0.50935608   -4.7122115    198.29947  0.034936482  0.034477067           26 
  474000   0.52000131   -4.6980081    197.96451  0.034803887  0.034387148           26 
  475000    0.4929597   -4.7114832    198.25583  0.034781724  0.034297405           10 
  476000   0.50698107   -4.7036281    198.65215  0.034778037  0.034208191           16 
  477000   0.50044896   -4.6990656    198.00336  0.034591783  0.034119384           12 
  478000   0.50664692   -4.7151432    198.39791  0.034588199  0.034030487           19 
  479000   0.50781594   -4.7313013    198.26927  0.034493609  0.033942037           14 
  480000   0.50890329   -4.7331026    198.74275   0.03450395  0.033853631           20 
  481000   0.50107259   -4.7254873    198.47322  0.034385519  0.033765665           31 
  482000    0.5108859   -4.7462763    197.88801  0.034213003  0.033677496           42 
  483000   0.49566123   -4.7351297    198.50722  0.034249003  0.033589398           45 
  484000   0.49171286   -4.7252666    197.81704  0.034059407   0.03350156           35 
  485000   0.48962422   -4.7523882     197.9059   0.03400445  0.033413738           51 
  486000   0.48622315   -4.7514095    197.99428  0.033949637  0.033326179           42 
  487000   0.49019192   -4.7546484    197.87036   0.03385872  0.033238796           12 
  488000    0.4859619   -4.7605941    197.79658  0.033776738    0.0331515           26 
  489000   0.49503709   -4.7481747    198.40132  0.033810722  0.033064407           14 
  490000   0.48328991   -4.7544105    198.27776  0.033720708   0.03297754           18 
  491000   0.47593982   -4.7527792     197.8176   0.03357393  0.032890948           19 
  492000   0.47800328   -4.7707735    198.16687  0.033564849  0.032804433           21 
  493000   0.47955882   -4.7725674    197.63279  0.033406489  0.032718036           69 
  494000   0.47828042   -4.7619206    197.63763   0.03333968  0.032631772          120 
  495000   0.48489189   -4.7762207    197.40634  0.033233391  0.032545755           57 
  496000   0.48180984   -4.7773277    197.70858  0.033217167  0.032459818           41 
  497000    0.4798776   -4.7822683    197.87192   0.03317772  0.032373815           47 
  498000   0.47767548    -4.773411    197.90594  0.033116791  0.032288331           38 
  499000   0.47128461   -4.7793049    197.83563  0.033038683  0.032202989           35 
  500000   0.47179141    -4.784294    197.60921  0.032934868  0.032117796           58 
  501000   0.47387758   -4.8029834    197.53394  0.032856611  0.032032502           28 
  502000   0.47637148   -4.8095444    197.77058  0.032830442  0.031947556           37 
  503000    0.4701101     -4.80006    197.34366  0.032694444  0.031862759           62 
  504000   0.47154548   -4.8119192    197.37271  0.032634377  0.031778014           41 
  505000    0.4619003    -4.810265    197.20153  0.032541507  0.031693376           24 
  506000   0.46005818   -4.8026896    197.40326  0.032510419  0.031608883           77 
  507000   0.45536007    -4.803141    197.23758  0.032419063  0.031524459           55 
  508000   0.46006829   -4.8150206    197.56662  0.032409223  0.031440402           49 
  509000   0.46930275   -4.8141767    197.37468  0.032314126  0.031356346           52 
  510000   0.45418838   -4.8200315    197.41521  0.032257387  0.031272693           20 
  511000   0.45033244   -4.8143139    197.29307  0.032174343  0.031189151           24 
  512000   0.45494984   -4.8335584    196.76798  0.032026039  0.031105447           24 
Loop time of 1241.39 on 48 procs for 500000 steps with 4000 atoms

Performance: 69599.350 tau/day, 402.774 timesteps/s
99.4% CPU use with 48 MPI tasks x no OpenMP threads

MPI task timing breakdown:
Section |  min time  |  avg time  |  max time  |%varavg| %total
---------------------------------------------------------------
Pair    | 83.405     | 89.125     | 94.785     |  30.8 |  7.18
Neigh   | 8.2899     | 8.7177     | 9.1335     |   7.6 |  0.70
Comm    | 78.933     | 86.279     | 93.311     |  36.6 |  6.95
Output  | 0.92175    | 0.92258    | 0.94553    |   0.3 |  0.07
Modify  | 1041.1     | 1044.5     | 1048.1     |   5.7 | 84.14
Other   |            | 11.84      |            |       |  0.95

Nlocal:        83.3333 ave          90 max          77 min
Histogram: 2 4 3 11 6 5 10 4 2 1
Nghost:        2273.98 ave        2292 max        2257 min
Histogram: 3 1 5 6 11 7 9 1 2 3
Neighs:        15291.4 ave       17176 max       13287 min
Histogram: 1 1 2 10 11 9 6 5 0 3
FullNghs:      30582.2 ave       33248 max       27931 min
Histogram: 1 4 4 4 12 6 11 3 2 1

Total # of neighbors = 1467945
Ave neighs/atom = 366.98625
Neighbor list builds = 27040
Dangerous builds = 0

#clear
#
#next RN
#
#jump SELF
Total wall time: 0:20:44
