
units lj                  # Use reduced LJ style units
atom_style atomic         # Uncharged point particles
atom_modify map hash      # Needed for indexing of clusters etc
                          # Used to be able to find where atoms are in relation to each other.

lattice fcc 1.0 spacing 1 1 1
Lattice spacing in x,y,z = 1.5874011 1.5874011 1.5874011
region box block 0 10 0 10 0 10 units lattice
create_box 2 box
Created orthogonal box = (0.0000000 0.0000000 0.0000000) to (15.874011 15.874011 15.874011)
  3 by 4 by 4 MPI processor grid
create_atoms 1 box
Created 4000 atoms
  using lattice units in orthogonal box = (0.0000000 0.0000000 0.0000000) to (15.874011 15.874011 15.874011)
  create_atoms CPU = 0.002 seconds
set type 1 type/fraction 2 0.88 78393
Setting atom values ...
  3511 settings made for type/fraction
mass 1 1.0
mass 2 1.0
pair_style lj/cut  3.5
pair_modify tail  yes
pair_coeff 1  1  1.0  1.0   # Intearaction between 1 and 1 set with epsilon = 1 and sigma = 1
pair_coeff 1  2  1.5  0.8
pair_coeff 2  2  0.5  0.88

write_data data.0
System init for write_data ...
Neighbor list info ...
  update every 1 steps, delay 10 steps, check yes
  max neighbors/atom: 2000, page size: 100000
  master list distance cutoff = 3.8
  ghost atom cutoff = 3.8
  binsize = 1.9, bins = 9 9 9
  1 neighbor lists, perpetual/occasional/extra = 1 0 0
  (1) pair lj/cut, perpetual
      attributes: half, newton on
      pair build: half/bin/atomonly/newton
      stencil: half/bin/3d
      bin: standard
WARNING: Not all mixed pair coeffs generated from mixing. Use write_data with 'pair ij' option to store all pair coeffs. (../write_data.cpp:312)


#############################
#   M E L T   S Y S T E M   #
#############################

velocity all create 2.4 6583654 mom yes dist gaussian # Assign velocities
                                                    # Temperature 2.4, random number seed, zero linear momentum
                                                                                # Gaussian distribution

timestep 0.002   # simulation timestep
thermo 1000       # output thermodynamic data every 1000 steps bf 100

# Define a fix  in this case with index 1 applied to all
# particles in the simulation. This fix is for simulations
# in the anisotropic NPT ensemble. Note that we use the MTK
# correction.
fix 1 all npt temp 2.4 2.4 0.1 iso 5.68 5.68 0.5 mtk yes tchain 5 pchain 5 # Use NPT ensemble
                                                                         # Set temperature and pressure and damping
                                                                         # Numbers of thermostats in chain and in barostat
run 10000          # run for 10000 steps
Per MPI rank memory allocation (min/avg/max) = 3.642 | 3.644 | 3.648 Mbytes
Step Temp E_pair E_mol TotEng Press Volume 
       0          2.4   -3.2921436            0   0.30695645   -2.7369977         4000 
    1000    2.3998184    -2.417458            0    1.1813697    5.6440535    3931.2147 
    2000    2.3196542   -2.3965002            0    1.0821113    5.9274912    3906.5769 
    3000    2.4178051   -2.3905384            0    1.2352626    5.8311429    3943.7974 
    4000    2.3787617   -2.3953769            0    1.1718737    5.9029035    3931.8466 
    5000    2.4217857   -2.3862764            0    1.2454939    5.7684329     3967.045 
    6000    2.4399609   -2.3910615            0    1.2679648    5.7914277    3949.9952 
    7000    2.4009577   -2.3852966            0    1.2152395    5.5746589    3985.4083 
    8000    2.3759283   -2.3507298            0    1.2122717    5.7787624    3974.1815 
    9000    2.3900617    -2.390087            0    1.1941093    5.7585157    3950.2608 
   10000    2.3726071   -2.3902109            0      1.16781    5.4493965    3998.4768 
Loop time of 2.48499 on 48 procs for 10000 steps with 4000 atoms

Performance: 695376.239 tau/day, 4024.168 timesteps/s
99.6% CPU use with 48 MPI tasks x no OpenMP threads

MPI task timing breakdown:
Section |  min time  |  avg time  |  max time  |%varavg| %total
---------------------------------------------------------------
Pair    | 1.1179     | 1.164      | 1.2263     |   2.3 | 46.84
Neigh   | 0.21018    | 0.21544    | 0.22398    |   0.6 |  8.67
Comm    | 0.79071    | 0.84697    | 0.89731    |   2.8 | 34.08
Output  | 0.00024408 | 0.0002493  | 0.00031082 |   0.0 |  0.01
Modify  | 0.22221    | 0.24317    | 0.27429    |   2.3 |  9.79
Other   |            | 0.01514    |            |       |  0.61

Nlocal:        83.3333 ave          93 max          74 min
Histogram: 1 4 6 3 12 11 2 4 2 3
Nghost:        1645.56 ave        1674 max        1612 min
Histogram: 3 1 0 4 10 11 9 8 0 2
Neighs:        9556.15 ave       11311 max        8017 min
Histogram: 2 2 5 9 12 7 5 3 1 2

Total # of neighbors = 458695
Ave neighs/atom = 114.67375
Neighbor list builds = 907
Dangerous builds = 196

# Equilibrate just above the melting temperature to avoid step fn in T

fix 1 all npt temp 1.25 1.25 0.1 iso 5.68 5.68 0.5 mtk yes tchain 5 pchain 5
run 2000
Per MPI rank memory allocation (min/avg/max) = 3.643 | 3.645 | 3.649 Mbytes
Step Temp E_pair E_mol TotEng Press Volume 
   10000    2.3726071   -2.3902109            0      1.16781    5.4493965    3998.4768 
   11000    1.2221895   -3.5747116            0   -1.7418857    5.6515068    3061.6776 
   12000    1.2721618   -3.5848251            0   -1.6770595    5.8175881    3049.1553 
Loop time of 0.615603 on 48 procs for 2000 steps with 4000 atoms

Performance: 561401.187 tau/day, 3248.849 timesteps/s
99.6% CPU use with 48 MPI tasks x no OpenMP threads

MPI task timing breakdown:
Section |  min time  |  avg time  |  max time  |%varavg| %total
---------------------------------------------------------------
Pair    | 0.26899    | 0.29592    | 0.32299    |   2.3 | 48.07
Neigh   | 0.039297   | 0.042019   | 0.045989   |   0.6 |  6.83
Comm    | 0.19631    | 0.22801    | 0.2564     |   2.8 | 37.04
Output  | 4.9758e-05 | 5.1853e-05 | 6.6722e-05 |   0.0 |  0.01
Modify  | 0.040059   | 0.0449     | 0.049407   |   1.2 |  7.29
Other   |            | 0.004701   |            |       |  0.76

Nlocal:        83.3333 ave          91 max          76 min
Histogram: 4 1 4 3 14 2 14 1 2 3
Nghost:        1966.29 ave        1996 max        1935 min
Histogram: 2 3 4 6 8 7 7 8 1 2
Neighs:        12527.9 ave       14185 max       11010 min
Histogram: 1 4 7 7 4 10 9 3 1 2

Total # of neighbors = 601339
Ave neighs/atom = 150.33475
Neighbor list builds = 144
Dangerous builds = 16

#############################
# L I N E A R  Q U E N C H  #
#############################

# Define solid atoms. This closely follows ten Wolde  Ruiz-Montero and Frenkel  Faraday Discuss  1996  104  93-110
# Compute components of the per-atom q6 vector
compute q6 all orientorder/atom degrees 1 6 components 6 nnn NULL cutoff 1.3 # compute the Q6 parameter.
                                                                             # Use all neighbours within 1.3 unit cell.

# get number of connections
compute coord_number all coord/atom orientorder q6 0.5

# An atom is solid if it has 8 or more connections (of a possible 14)
variable is_solid atom c_coord_number>=8
group solid dynamic all var is_solid    # Must be dynamic to update
dynamic group solid defined

# do clustering
compute cluster solid cluster/atom 1.3 # Create a cluster where all atoms within are solid and max 1.3 units from another member

# define chunks one chunk per cluster
compute clus_chunks solid chunk/atom c_cluster nchunk every compress yes  # Says which atoms are in which chunk

# count the size of each chunk
compute size_chunks solid property/chunk clus_chunks count


# Find the maximum entry in the vector of chunk sizes
variable max_n equal max(c_size_chunks)


# Thermo style which includes this variable
# thermo_style custom step temp pe vol v_max_n

thermo ${N}  # Print the thermo information every 100 steps
thermo 1000  

# Reset the npt fix at a lower temperature (below freezing)
fix 1  all npt temp  ${temp} ${temp}  0.1  iso  5.68  5.68  0.5  mtk yes tchain  5  pchain  5
fix 1  all npt temp  0.45 ${temp}  0.1  iso  5.68  5.68  0.5  mtk yes tchain  5  pchain  5
fix 1  all npt temp  0.45 0.45  0.1  iso  5.68  5.68  0.5  mtk yes tchain  5  pchain  5

dump dmp2 all dcd ${N} traj.dcd
dump dmp2 all dcd 1000 traj.dcd


compute msd all msd com yes
variable twopoint equal c_msd[4]/6/(step*dt+1.0e-6)
fix 9 all vector 10 c_msd[4]
variable fit equal slope(f_9)/6/(10*dt)
thermo_style custom step temp pe c_msd[4] v_twopoint v_fit v_max_n

fix 1 all npt temp 1.25 ${temp} 0.1 iso 5.68 5.68 0.5 mtk yes tchain 5 pchain 5
fix 1 all npt temp 1.25 0.45 0.1 iso 5.68 5.68 0.5 mtk yes tchain 5 pchain 5
run 500000 # 5000000  # Run for this many steps
Neighbor list info ...
  update every 1 steps, delay 10 steps, check yes
  max neighbors/atom: 2000, page size: 100000
  master list distance cutoff = 3.8
  ghost atom cutoff = 3.8
  binsize = 1.9, bins = 8 8 8
  4 neighbor lists, perpetual/occasional/extra = 1 3 0
  (1) pair lj/cut, perpetual
      attributes: half, newton on
      pair build: half/bin/atomonly/newton
      stencil: half/bin/3d
      bin: standard
  (2) compute orientorder/atom, occasional
      attributes: full, newton on
      pair build: full/bin/atomonly
      stencil: full/bin/3d
      bin: standard
  (3) compute coord/atom, occasional
      attributes: full, newton on
      pair build: full/bin/atomonly
      stencil: full/bin/3d
      bin: standard
  (4) compute cluster/atom, occasional
      attributes: full, newton on
      pair build: full/bin/atomonly
      stencil: full/bin/3d
      bin: standard
Per MPI rank memory allocation (min/avg/max) = 9.824 | 9.832 | 9.837 Mbytes
Step Temp PotEng c_msd[4] v_twopoint v_fit v_max_n 
   12000    1.2721618   -3.5848251 2.2650169e-30 1.5729283e-32 8.3333333e+20            1 
   13000    1.2305845   -3.5689177   0.92622529 0.0059373414  0.079360574            1 
   14000    1.2479765   -3.5620385    1.9217233  0.011438829  0.080011356            2 
   15000    1.2443475   -3.6187494    2.9870447  0.016594692  0.083780649            1 
   16000    1.2472978   -3.5492752    4.0674378  0.021184571  0.085936248            2 
   17000    1.2412959   -3.5662451    5.0930891  0.024966122  0.086717311            2 
   18000    1.2344801   -3.6160835    6.1388504  0.028420603  0.086748023            1 
   19000    1.2416023   -3.5789533    7.2248196  0.031687804  0.087206673            1 
   20000    1.2660197   -3.5644998     8.169043  0.034037678   0.08699458            2 
   21000    1.2251728   -3.5795751    9.1594567   0.03634705  0.086326834            1 
   22000    1.2490443   -3.6090075     10.11082   0.03829856  0.085998305            2 
   23000    1.2123269   -3.5901629    11.187422  0.040534136  0.085631183            3 
   24000    1.2238124   -3.5990868    12.039958   0.04180541  0.085194333            2 
   25000    1.2367016   -3.5783391    13.307897  0.044359657  0.085123708            2 
   26000    1.2295016    -3.637737    14.333098  0.045939417  0.085218583            3 
   27000    1.2167291    -3.603993    15.297567  0.047214712  0.085286341            1 
   28000    1.2133763   -3.6058625    16.400163  0.048810009  0.085405716            2 
   29000    1.2078931   -3.5953897    17.348316  0.049851482  0.085408129            2 
   30000    1.2454187   -3.6011754    18.424585  0.051179403  0.085480715            1 
   31000    1.2373255   -3.6144658    19.364655  0.052055524  0.085498908            7 
   32000    1.2096333   -3.6448659    20.182001  0.052557294  0.085327735            3 
   33000    1.1750787   -3.6054605    21.198971  0.053532755  0.085039146            1 
   34000    1.2324699   -3.6276337    22.081922  0.054122358  0.084785701            1 
   35000    1.2107972    -3.636937    23.068333  0.054924602  0.084508421            1 
   36000    1.2113668   -3.6339716    24.196521  0.056010465  0.084271394            1 
   37000    1.2089148   -3.6021549    25.307819  0.056999591  0.084152518            2 
   38000    1.2125872   -3.6454932      25.9723  0.056956798     0.084013            2 
   39000    1.2046359    -3.636346    26.811449  0.057289419  0.083745388            3 
   40000    1.1949133   -3.6264202    27.791136    0.0578982  0.083469333            2 
   41000    1.1911054   -3.6465335     28.47877  0.057883677  0.083110421            2 
   42000    1.1876333   -3.6576345     29.36547  0.058264821  0.082737876            1 
   43000    1.2201429   -3.6329759    30.227028  0.058579511  0.082394265            2 
   44000    1.2051695   -3.6399964    30.930979  0.058581399  0.082003516            2 
   45000    1.1998093     -3.66106    31.864915  0.059009101  0.081598449            3 
   46000    1.1829523    -3.639403    32.753324  0.059335731  0.081219769            1 
   47000    1.2006234   -3.6665188    33.691095  0.059735984  0.080895542            2 
   48000    1.1741768   -3.6615154     34.50046  0.059896631  0.080624886            2 
   49000    1.1927356   -3.6466092    35.543794  0.060448628  0.080358518            1 
   50000    1.1913215   -3.6398008    36.344038  0.060573396  0.080146753            2 
   51000    1.1876307   -3.6631408    37.466314  0.061219466  0.079924741            2 
   52000     1.199189   -3.6640803     38.13336  0.061111153  0.079735043            4 
   53000    1.1835131    -3.673779    39.059182  0.061413808  0.079522425            3 
   54000    1.1884055   -3.6815713    39.660793  0.061204927  0.079290414            1 
   55000    1.1669756   -3.6948968    40.430117  0.061257753  0.079040721            1 
   56000    1.1619049   -3.6722057    41.449545   0.06168087  0.078800509            2 
   57000    1.1992987   -3.6855142     42.28207  0.061815891  0.078572012            3 
   58000    1.1639744   -3.7044903     43.38177  0.062330128  0.078379422            1 
   59000    1.1708912   -3.6976785    44.288363  0.062554184  0.078202769            3 
   60000    1.1651454    -3.665575    45.128385  0.062678312  0.078022471            2 
   61000    1.1775799   -3.7099597    46.088844  0.062962901  0.077854731            4 
   62000    1.1580528   -3.7014363    47.004534  0.063178136  0.077710479            2 
   63000      1.15236   -3.7239289    47.513695  0.062848803  0.077564625            2 
   64000    1.1722339   -3.6980374    48.489431   0.06313728  0.077411024            3 
   65000    1.1579621   -3.6880534    49.608863  0.063601105  0.077277804            2 
   66000    1.1730491   -3.7012807    50.260536  0.063460272  0.077152889            1 
   67000     1.145474   -3.6941844    51.345085  0.063862045   0.07701895            4 
   68000    1.1726056   -3.7429025    52.097277  0.063844702  0.076901034            2 
   69000    1.1560496   -3.6812763    53.261144  0.064325052  0.076795035            3 
   70000    1.1537879   -3.6904506    54.262115  0.064597756  0.076717234            1 
   71000    1.1518027   -3.6785865    55.035108  0.064595197  0.076637175            1 
   72000    1.1532764    -3.733865     55.93198  0.064736087  0.076567469            2 
   73000    1.1484717   -3.6733262      56.8338  0.064878766  0.076516505            2 
   74000    1.1462416   -3.7323953    57.670327  0.064944061  0.076457125            2 
   75000     1.151288   -3.7025959    58.521291  0.065023656  0.076387644            2 
   76000    1.1625214   -3.7040767    59.158467  0.064866739  0.076308145            3 
   77000    1.1601811   -3.6982244    59.836145  0.064757733  0.076226058            2 
   78000     1.148863   -3.7328234    60.989107  0.065159302  0.076137685            3 
   79000    1.1428187   -3.7254539    61.604662  0.064983821  0.076063207            2 
   80000    1.1189549   -3.7059172    62.542306  0.065148235  0.075975396            2 
   81000    1.1378836   -3.7180541    63.217644  0.065038728   0.07588276            4 
   82000    1.1644255   -3.7866844    63.910473  0.064949667  0.075774471            3 
   83000    1.1273404   -3.7091802     64.95299  0.065213845  0.075669178            1 
   84000    1.1214776   -3.7185731    65.747283  0.065225479   0.07557165            2 
   85000    1.1124611   -3.7048862    66.432898  0.065130292  0.075480235            4 
   86000    1.1569054    -3.731437    67.316949  0.065229602  0.075371807            3 
   87000    1.1263564     -3.75044    68.112823  0.065242168   0.07527779            5 
   88000    1.1216291   -3.7451281    69.206979  0.065536912  0.075177426            2 
   89000    1.1359541   -3.7180094    70.026104  0.065567513  0.075098525            2 
   90000    1.1243735   -3.6923288    71.034652  0.065772826   0.07501024            2 
   91000    1.1418703    -3.739406     71.98403  0.065919441  0.074941148            1 
   92000    1.1148233   -3.7619679    72.440022  0.065615961  0.074856131            2 
   93000    1.1337567   -3.7744495    73.483806  0.065845704  0.074771675            3 
   94000    1.1141266   -3.7695544    73.986417  0.065590795  0.074680621            1 
   95000     1.087701    -3.759931    74.588445   0.06542846  0.074574705            3 
   96000    1.1186335   -3.7625866    75.324052  0.065385461  0.074469592            2 
   97000     1.118222   -3.7353063    76.400255  0.065635958  0.074372513            2 
   98000    1.1070473   -3.7413433    77.447966  0.065857113  0.074282034            3 
   99000    1.1276933   -3.7779452    78.164622  0.065795136  0.074201292            3 
  100000    1.1047599   -3.7695986    79.171365  0.065976137  0.074131665            1 
  101000    1.1112312   -3.7623801    79.751144  0.065801273  0.074058734            3 
  102000    1.1117423   -3.7942399    80.304154  0.065607968  0.073982865            5 
  103000    1.1159212   -3.7965489    81.824471  0.066201028  0.073905648            3 
  104000    1.0970574   -3.7693718    82.208287  0.065872024  0.073830266            2 
  105000     1.092807   -3.7773563    82.918781  0.065808556   0.07373934            7 
  106000    1.0925013    -3.759783     83.40355  0.065568828  0.073643516            5 
  107000    1.0998637   -3.8076922    84.121797  0.065515418  0.073530305            3 
  108000    1.0865883   -3.8052738    84.468226    0.0651761  0.073410593            2 
  109000    1.0942475   -3.7844231    85.526286  0.065387068  0.073288809            3 
  110000    1.0866418   -3.7632521    86.350924  0.065417366  0.073168105            1 
  111000    1.0814675   -3.7745314    87.250031  0.065503026  0.073054651            3 
  112000    1.0743895   -3.7807658    87.477477  0.065087408  0.072934339            3 
  113000    1.1119151   -3.7941699    87.885042  0.064811978  0.072803328            5 
  114000    1.0725496   -3.7896402    89.184666  0.065193469  0.072672715            3 
  115000    1.1067289   -3.8432925    89.756589  0.065041006  0.072555154            5 
  116000    1.0868006   -3.8194685    90.814793  0.065240512  0.072438806            3 
  117000    1.0692243   -3.7929597    91.809514  0.065391391  0.072342088            5 
  118000    1.0954308   -3.8066695    92.529549  0.065345726  0.072256672            3 
  119000    1.0912927   -3.8012967     93.55969   0.06551799   0.07216789            2 
  120000     1.106307   -3.8296474    93.852384  0.065175267    0.0720719            3 
  121000    1.0575779   -3.8358067    94.445663  0.065045222  0.071970856            1 
  122000    1.0657573   -3.8255045    94.736985  0.064711055  0.071871155            2 
  123000     1.045954   -3.8347041    95.740328   0.06486472  0.071757535            5 
  124000    1.0861434   -3.8168967    96.581276  0.064906771  0.071645706            3 
  125000    1.0656776   -3.8577804    96.991095   0.06466073   0.07153213            1 
  126000    1.0617795   -3.8280067    98.092346   0.06487589  0.071411808            2 
  127000    1.0810024   -3.8611842    98.337858  0.064526153  0.071303145            1 
  128000    1.0778787   -3.8394502    98.833471  0.064344707  0.071191593            3 
  129000    1.0745607   -3.8370536    99.882942  0.064523864  0.071079265            2 
  130000     1.052527   -3.8640125    100.61654  0.064497783   0.07097043            4 
  131000    1.0591853   -3.8671532    101.38947  0.064497118  0.070859732            3 
  132000    1.0471716   -3.8343953    102.19851  0.064519261  0.070746091            7 
  133000    1.0381783   -3.8512731    102.80246   0.06441257   0.07063175            5 
  134000    1.0449539   -3.8580665    102.98797  0.064047246  0.070518199            2 
  135000     1.041703   -3.8562112    103.47572  0.063873901  0.070396331            3 
  136000    1.0622174   -3.8386186    104.68117  0.064142873  0.070275548            1 
  137000    1.0483169   -3.8432392    105.73576  0.064316156  0.070159596            3 
  138000    1.0551205   -3.8765285    106.50931  0.064317216  0.070050575            2 
  139000    1.0459018   -3.8774089    106.95869  0.064123917  0.069939145            2 
  140000    1.0407237   -3.8644115    107.25466   0.06384206   0.06982298            2 
  141000    1.0396876   -3.8971368    107.71837  0.063663342  0.069699159            3 
  142000    1.0490763   -3.9040562    108.00862  0.063385343  0.069577009            2 
  143000     1.037121   -3.8768147    108.60611  0.063290275  0.069442585            2 
  144000    1.0619571   -3.8593872    109.07679  0.063123143  0.069312575            4 
  145000    1.0202341   -3.9209935    109.56554  0.062968699  0.069177805            5 
  146000    1.0353283   -3.9202261    109.92592  0.062743103  0.069037153            4 
  147000    1.0388336   -3.9198207    110.63601  0.062718824  0.068893103            5 
  148000    1.0291785   -3.8577155    111.43301  0.062743809  0.068746085            2 
  149000    1.0493304   -3.8878236    111.81906  0.062538623  0.068606447            2 
  150000    1.0374432   -3.8963478    113.17224  0.062873468  0.068469603            4 
  151000    1.0250777   -3.9230661    113.00847  0.062366704  0.068337163            1 
  152000     1.009687   -3.9120055    113.64141  0.062303406  0.068200606            3 
  153000    1.0252896   -3.9387589    114.55285   0.06239262  0.068064631            2 
  154000    1.0379478   -3.9155269    115.12828  0.062298853  0.067929378            3 
  155000    1.0195734   -3.8931859    115.91768  0.062321335  0.067790765            2 
  156000   0.99810734   -3.9288521     115.9027  0.061913836  0.067650844            3 
  157000    1.0156897   -3.9147615    116.34054  0.061751881  0.067511239            2 
  158000     1.024858   -3.8791078    117.58278  0.062016235  0.067374086            3 
  159000    1.0053119   -3.9247119    117.65321   0.06166311  0.067233973            4 
  160000     1.035382   -3.9201613    118.40644  0.061670019  0.067089853            4 
  161000    1.0293942   -3.8965997     119.0317  0.061610608  0.066947418            3 
  162000    1.0144934   -3.9426184      119.143  0.061287551  0.066806954            2 
  163000    1.0291541   -3.9378505     119.6398  0.061165541  0.066663284            3 
  164000    1.0250378   -3.9512978     120.2276  0.061091258  0.066517347            3 
  165000    1.0091292   -3.9646063    120.99681  0.061109499  0.066374826            1 
  166000    1.0067208   -3.9245927    121.82775  0.061158509  0.066233929            5 
  167000    0.9953537   -3.9448049    122.31871  0.061037279  0.066095577            1 
  168000     1.002388   -3.9390265    123.02626  0.061024929   0.06596397            3 
  169000   0.99421413   -3.9376336     123.9407  0.061114746  0.065831977            3 
  170000   0.98538813   -3.9657713    123.60748  0.060591901  0.065699603            3 
  171000   0.99615034    -3.944972    125.18738  0.061007497  0.065572812            4 
  172000   0.99421539   -3.9348787    125.87352  0.060985232   0.06544985            5 
  173000   0.99935015   -3.9404615     126.3475   0.06086103  0.065329395            1 
  174000   0.96798273   -3.9573223    126.66209  0.060661919  0.065203789            2 
  175000    1.0005826   -3.9834743    126.99231  0.060472529  0.065075446            4 
  176000   0.97477681   -3.9705355    127.64257  0.060436821  0.064952556            3 
  177000    0.9971265   -3.9194335    129.07971  0.060771992  0.064834698            2 
  178000   0.97971919   -3.9088778    129.22278  0.060497557  0.064716978            3 
  179000   0.99382009   -3.9672953    129.09036  0.060097931  0.064590586            2 
  180000   0.97446806    -3.953188    130.18592  0.060271257  0.064464163            2 
  181000   0.98999363   -3.9575379    130.53568  0.060099302  0.064334456            3 
  182000   0.99860066   -3.9859145    130.68544  0.059837657  0.064206126            4 
  183000   0.97058758   -3.9711908    130.94288  0.059627907  0.064077645            3 
  184000    0.9744224   -3.9788272      131.898  0.059736414  0.063949131            3 
  185000    0.9436215   -4.0061522    132.00143  0.059460102  0.063818515            5 
  186000   0.94353134   -3.9653104    132.86264  0.059526274  0.063684435            2 
  187000   0.95678756    -3.998409    133.03791  0.059286054  0.063552295            5 
  188000   0.99132932   -3.9682653     133.2338  0.059057536  0.063420861            5 
  189000   0.98049492   -3.9971584    133.74948  0.058972435  0.063289073            4 
  190000   0.96107725   -3.9996304    134.35653  0.058928302  0.063155713            2 
  191000   0.96527184   -4.0074824    135.10545  0.058946532  0.063022536            6 
  192000   0.98409586   -4.0044185    135.75856  0.058922985  0.062891359            2 
  193000   0.94544451   -4.0044607    135.93173  0.058692457  0.062760326            4 
  194000   0.95115824   -3.9857469    136.19667  0.058503722  0.062628961            2 
  195000   0.95734968    -4.011109    137.15817  0.058614604  0.062499437            6 
  196000   0.96653087   -3.9906798    136.90909  0.058209645  0.062370611            6 
  197000   0.96293341   -4.0052903    137.88555  0.058327219  0.062243776            2 
  198000   0.96296967   -4.0320055    137.43582  0.057843359  0.062109809            4 
  199000   0.95906408   -4.0276794    138.33267  0.057928254  0.061971206            3 
  200000   0.94990444   -4.0140871    137.97232  0.057488468   0.06182929            8 
  201000   0.95565519   -4.0169655    139.22318  0.057721055  0.061687564            3 
  202000   0.94175268   -4.0352334    139.03556  0.057357903  0.061546975            3 
  203000   0.94314661   -4.0094323     139.6257  0.057317609  0.061401732            3 
  204000   0.94652528   -4.0696627    139.59849  0.057025526  0.061257633            5 
  205000   0.93408894   -4.0083153    140.61923   0.05716229  0.061113067            2 
  206000   0.94762595   -4.0341967    140.78509  0.056951896  0.060974237            5 
  207000   0.94904465   -4.0429087    141.35824  0.056907502  0.060832577            2 
  208000   0.96047611   -4.0768606    141.72343  0.056780218  0.060693461            4 
  209000    0.9385565   -4.0471156    142.34285  0.056755523  0.060554128            2 
  210000   0.93633871   -4.0489343     143.0358  0.056760236  0.060417633            4 
  211000   0.91726607   -4.0438272    143.56142  0.056698822  0.060286722            3 
  212000   0.93868082   -4.0577882    144.17639   0.05667311  0.060154758            4 
  213000   0.92827254   -4.0667728    144.68944   0.05660776  0.060023463            5 
  214000   0.92329193   -4.0464944    145.70756  0.056739703  0.059899795            4 
  215000   0.91529561   -4.0454394    146.18463   0.05666071  0.059777534            3 
  216000   0.91828565   -4.0813486    146.92119  0.056682558  0.059657931            5 
  217000   0.92747908   -4.0765429    146.65863  0.056320517  0.059537758            5 
  218000   0.91426805    -4.082241    147.33589  0.056321059  0.059416513            4 
  219000   0.91356034   -4.0914526    148.15483  0.056375507  0.059299548            5 
  220000   0.90673323   -4.0666917    148.57946  0.056280099  0.059186909            5 
  221000   0.91547804   -4.0679581    149.64258  0.056426311  0.059074776            2 
  222000   0.93658418   -4.0509479     150.9077  0.056647034  0.058964207            3 
  223000   0.89205732   -4.0502539    150.39818   0.05620261  0.058855302            3 
  224000   0.93441871   -4.0749851    150.90902   0.05614175  0.058742699            4 
  225000   0.89129349   -4.0967971    151.07992  0.055955527  0.058632475            3 
  226000   0.90306821   -4.1022085    151.53114  0.055874315  0.058520599            8 
  227000   0.89484469   -4.1168746    151.42423  0.055588923  0.058407014            5 
  228000   0.91074664   -4.0899538    152.49416  0.055736168  0.058292662            5 
  229000   0.89960285   -4.0983913    152.31095  0.055426108  0.058177752            3 
  230000   0.90550158    -4.111582    153.22279  0.055515505  0.058062596            2 
  231000   0.90790093   -4.0998523    153.50377  0.055376539  0.057950076            3 
  232000    0.9086216   -4.1188545    153.79021  0.055240735  0.057835608            2 
  233000   0.90755054   -4.0973341    154.35457  0.055205496  0.057723522            3 
  234000   0.89016458   -4.1023545    154.52332  0.055029672   0.05761049            4 
  235000   0.89438479   -4.1103538    154.50718  0.054789781  0.057494568            4 
  236000   0.87237559   -4.1278531    155.39171  0.054869954  0.057380098            6 
  237000   0.89668187   -4.0806246    156.22158  0.054930232  0.057265139            4 
  238000   0.90282782   -4.1025618    155.87433  0.054577846  0.057153243            3 
  239000   0.88656717   -4.1188987    156.81566  0.054677706  0.057038554            4 
  240000   0.87199787   -4.1655121     156.2816  0.054264446   0.05692155            2 
  241000   0.88276947    -4.136532    156.61164  0.054153401  0.056803745            6 
  242000   0.89264647    -4.127094    156.80482  0.053996149  0.056684629            4 
  243000   0.86807672    -4.160889    157.09918   0.05387489   0.05656776            2 
  244000   0.86892153   -4.1406242    157.59827  0.053824545  0.056448276            3 
  245000   0.87054864   -4.1149193    158.08316  0.053769784  0.056328948            4 
  246000   0.90127636   -4.1851018    158.60084  0.053726573  0.056209521           10 
  247000   0.88209483   -4.1564254    159.33474   0.05375666  0.056092604            3 
  248000   0.85238556   -4.1245312    159.78212  0.053690229  0.055976454            6 
  249000   0.86111587    -4.146531    160.32641  0.053656764  0.055858595            4 
  250000   0.85284426   -4.1560143    160.17464  0.053391545  0.055746093            2 
  251000   0.85872542   -4.1348945    160.98152  0.053446721   0.05563366           10 
  252000   0.87040197   -4.1548953    161.48365  0.053400678  0.055522602            2 
  253000   0.85376745   -4.1760469    162.33523    0.0534701  0.055413365            8 
  254000    0.8618871   -4.1636252    161.96523  0.053138199  0.055302959            4 
  255000   0.86516137   -4.1432101     162.2476  0.053022091  0.055195805            5 
  256000   0.89229511   -4.1803501    162.49603  0.052895843  0.055085831            6 
  257000   0.85700089   -4.1599142    163.08349  0.052880508  0.054974236            5 
  258000   0.85813471   -4.1979384    163.09146  0.052678118  0.054862085            5 
  259000   0.85586144   -4.1734904    163.65469  0.052655948  0.054749804            6 
  260000    0.8537126   -4.1709082    163.75876  0.052486781  0.054636317            2 
  261000   0.85382284   -4.1716869    163.78733  0.052294804  0.054521563            5 
  262000   0.85423087   -4.1914462    163.69019   0.05206431  0.054406756            3 
  263000   0.83320162    -4.185402     164.6443  0.052168664  0.054291882            4 
  264000   0.83166653   -4.1943685    164.80062  0.052020398  0.054177791            5 
  265000   0.84718798   -4.2116237    165.11484  0.051922905  0.054064284            6 
  266000   0.84196696    -4.200461    166.23148  0.052077532  0.053951466            3 
  267000   0.82630813   -4.1926291    166.28683  0.051899759  0.053840659            6 
  268000    0.8475276   -4.2031547    166.70614  0.051836486  0.053728704            5 
  269000   0.85077896    -4.195388    167.16636  0.051786357  0.053618723            3 
  270000   0.84904138    -4.202625    167.62861  0.051737226  0.053510679            4 
  271000   0.82211748   -4.2171323    167.74223  0.051581252  0.053403033            5 
  272000   0.82944923   -4.1809406     168.8607  0.051734282  0.053294537            5 
  273000   0.84050918   -4.1940439    168.60638  0.051467149  0.053187357            5 
  274000   0.81905172     -4.20039    169.28394  0.051485382  0.053079568            7 
  275000   0.82913438   -4.1967563    168.72855  0.051129864  0.052971515            5 
  276000   0.82672919   -4.2335295    168.99985  0.051026525  0.052862193            5 
  277000   0.82108539   -4.2172274    169.77659  0.051075991  0.052751803            3 
  278000    0.8292258    -4.235845    169.61178  0.050842859  0.052640701            4 
  279000   0.83396838   -4.2564914    169.70209  0.050687601  0.052529338            6 
  280000   0.81458047    -4.220034    170.28679  0.050680593   0.05242043            5 
  281000   0.83824415   -4.2397098     170.3806  0.050528054  0.052312237            6 
  282000   0.80786484   -4.2282686    171.37886  0.050643872   0.05220343            3 
  283000   0.78652864   -4.2504394    171.15474  0.050398923  0.052093584            3 
  284000    0.8324478   -4.2844648    171.42588   0.05030102  0.051982331            3 
  285000   0.81678852     -4.25817    171.49724  0.050145393  0.051871851            2 
  286000   0.80550132   -4.2791826     171.8126  0.050061946  0.051761118            4 
  287000   0.79643466   -4.2789911    172.07522   0.04996377  0.051650638           15 
  288000   0.81132748    -4.241693    172.17659  0.049819615  0.051539212            3 
  289000   0.79005531   -4.2770897    172.54167  0.049752501  0.051427778            5 
  290000   0.81016721   -4.2918346     172.3913  0.049537728  0.051317771            9 
  291000   0.80464207   -4.2645273    172.48848  0.049395327   0.05120711            5 
  292000   0.81028293   -4.2729424    173.30851  0.049460191  0.051096101            5 
  293000   0.80113626   -4.2800949    173.52848  0.049353947  0.050985544            6 
  294000   0.81014648   -4.2885905    173.81111  0.049266186  0.050876103            9 
  295000   0.78494106   -4.2821162    174.57527  0.049315048  0.050767736            6 
  296000   0.77888843   -4.3105301    173.93809  0.048969058  0.050657708            6 
  297000   0.79915356   -4.2909718    174.36691  0.048924499  0.050547168           12 
  298000   0.77712685    -4.286829    174.77465  0.048874343  0.050437609            6 
  299000   0.78391896   -4.3265816    175.21534  0.048833707   0.05032824            7 
  300000   0.81090113   -4.3252336    174.90497  0.048584713  0.050218315            6 
  301000   0.77546243   -4.2977082    175.69061  0.048640812  0.050109054            7 
  302000   0.78347248   -4.3114713    175.65972  0.048471225  0.049999293            3 
  303000    0.7808861   -4.3086724    175.94362  0.048389334  0.049890925            4 
  304000   0.78008375   -4.3142396    176.09587  0.048271894   0.04978168            5 
  305000   0.77390879   -4.3096827    176.26836  0.048160754  0.049671923            5 
  306000   0.78579742   -4.3124626    176.63259  0.048102557  0.049561612            6 
  307000   0.77381241   -4.3012431    176.78842  0.047988171  0.049451939            6 
  308000   0.76681468   -4.3374792    176.79047   0.04783292  0.049342095            3 
  309000   0.76904586   -4.3450802    176.98341  0.047730152  0.049233702            7 
  310000    0.7837297   -4.3366028    177.12913  0.047615358  0.049124828            4 
  311000    0.7907875   -4.2986631    178.24924  0.047762391  0.049017165            4 
  312000   0.77519514    -4.334716    176.99641  0.047274683   0.04890856            4 
  313000   0.74564466   -4.3282786    178.24912  0.047457167  0.048799804            5 
  314000   0.76831959   -4.3271953    178.15929  0.047282191  0.048691747            3 
  315000   0.76698056   -4.3313313     178.6832  0.047270687  0.048583759            4 
  316000   0.75776281   -4.3534124    178.81444  0.047155706   0.04847649           11 
  317000   0.77320848   -4.3303877    179.45262  0.047174715  0.048368776            9 
  318000   0.75291297   -4.3335757    179.31868  0.046991268  0.048261527            4 
  319000   0.74308096   -4.3499393    179.34633  0.046851182  0.048154203            6 
  320000   0.75098869   -4.3534683    179.23893  0.046676805   0.04804634            9 
  321000   0.77303774   -4.3764927     179.2433   0.04653253  0.047937273            6 
  322000   0.75628045   -4.3974796    179.40729  0.046430457  0.047827668            5 
  323000   0.72794639   -4.3546816    179.92424  0.046420084   0.04771821            6 
  324000   0.76280416   -4.3705937    180.34265  0.046384427  0.047608606           10 
  325000     0.758609   -4.3621807    180.29959  0.046230663  0.047499634            9 
  326000   0.72937202   -4.3819274    180.35551  0.046103145  0.047390285           21 
  327000   0.75070254   -4.3964472    180.15949  0.045912205  0.047279804            3 
  328000   0.74798937   -4.3705454    181.07027  0.046003626  0.047170345           13 
  329000   0.73987197   -4.3831639     180.8917  0.045818567  0.047060753            7 
  330000   0.73915846    -4.396395    180.28435  0.045526351  0.046950188            5 
  331000   0.73249348   -4.3888993    180.69104  0.045491199  0.046839955            6 
  332000   0.74299338   -4.3996344    181.36509  0.045523366  0.046730852            7 
  333000   0.74215398   -4.4015369    181.11893  0.045325057  0.046621362            7 
  334000   0.73958785   -4.4123471     181.2244  0.045215669  0.046511256            5 
  335000   0.73318178    -4.416222    181.52629  0.045155793  0.046402027            4 
  336000   0.72355882    -4.403326    182.34325   0.04522402  0.046292508            6 
  337000   0.73232404   -4.4104602     182.6909  0.045175791  0.046185232            8 
  338000   0.73441903   -4.4129582    182.76929  0.045061461  0.046078275            4 
  339000   0.72027615    -4.387875    182.83273  0.044944132   0.04597177            7 
  340000   0.72768313   -4.4380749    182.73251   0.04478738   0.04586468            7 
  341000   0.71632449   -4.4314338    182.62807  0.044630516  0.045757304            3 
  342000   0.72770173    -4.408876    182.38952  0.044441891  0.045649712            4 
  343000   0.72124587   -4.4110176    183.26061  0.044523957  0.045542783            4 
  344000   0.73359016   -4.4328909    182.98075  0.044326732  0.045435873            3 
  345000   0.72173917   -4.4373787    183.55957  0.044338061  0.045330306            5 
  346000   0.70200483   -4.4286589    183.44549  0.044182441  0.045224327            4 
  347000    0.7114524   -4.4185885    184.21764  0.044240547  0.045118854            4 
  348000   0.71204944   -4.4283056    184.50371  0.044181922  0.045015145            8 
  349000    0.7041988   -4.4303609    185.00002  0.044173835  0.044912247            7 
  350000   0.71457598   -4.4741692     184.7674  0.043992238  0.044808089            3 
  351000   0.72111521   -4.4495711    184.96148  0.043912983   0.04470402            6 
  352000   0.70990448   -4.4560377    184.25895   0.04362191  0.044599858            6 
  353000   0.70831663   -4.4533488    184.61626  0.043582687  0.044496127           14 
  354000      0.70755   -4.4477799    185.12235  0.043578707  0.044392404            8 
  355000   0.71914655   -4.4505382    185.56718   0.04356037  0.044289212            5 
  356000   0.70006504   -4.4678057    185.34781   0.04338666  0.044186358            8 
  357000   0.70687203   -4.4520257    185.59471  0.043322762  0.044083566            7 
  358000   0.69052956   -4.5049012    185.38268  0.043152393   0.04398007            4 
  359000    0.7092365   -4.4832209    185.60848  0.043084605  0.043877572            6 
  360000    0.7006667   -4.4790161    186.59332  0.043192898  0.043776479           11 
  361000   0.69724874   -4.4477177    186.44657  0.043039374   0.04367607            8 
  362000   0.68921508   -4.4890917    186.55267  0.042944906  0.043575153            8 
  363000   0.69396659   -4.4878248     186.4634  0.042806108   0.04347438           10 
  364000   0.68498314   -4.4855833    187.21366  0.042860271  0.043373601            4 
  365000   0.67714368   -4.5178059    186.07198  0.042482187   0.04327256           16 
  366000   0.69187609   -4.4884995    186.79935  0.042531728  0.043171797            3 
  367000   0.68598583   -4.5091267    187.25685  0.042519721  0.043071508            5 
  368000   0.67530626   -4.5148823    186.76191  0.042292099  0.042971044            9 
  369000   0.69758499   -4.5111688    187.36132  0.042312856  0.042871223            4 
  370000   0.69519941   -4.5308773    188.02162  0.042347211  0.042771757            8 
  371000   0.66959835   -4.4875209     188.1834  0.042269407  0.042673617           10 
  372000   0.66800356   -4.5154292    188.26218  0.042173426  0.042574927            6 
  373000     0.659778   -4.5008998    188.81484  0.042183833  0.042477379            6 
  374000   0.65231772   -4.5051716    188.85132  0.042079172  0.042379447            9 
  375000   0.67948029   -4.5360242    188.80821   0.04195738  0.042281681           13 
  376000   0.67073393   -4.5189384    188.05257  0.041678317  0.042183114            6 
  377000   0.65385975   -4.5399194    188.66952  0.041704137  0.042085194            5 
  378000   0.67113984   -4.5266125    189.02291  0.041671716  0.041987362           15 
  379000   0.66262123    -4.538159     188.7555  0.041502968  0.041889701            5 
  380000   0.66459235   -4.5323408    189.51539  0.041560392  0.041792162            8 
  381000   0.66753631   -4.5338928    189.15915  0.041373392  0.041695344           16 
  382000   0.66400181   -4.5575527    189.58476  0.041357933  0.041599384            6 
  383000   0.66779094   -4.5534209     189.0472  0.041132986  0.041503575           20 
  384000   0.64032092   -4.5450577    189.86234  0.041202764  0.041407665            6 
  385000   0.63453391   -4.5550342    189.78676  0.041079385  0.041312483           11 
  386000   0.65077261   -4.5594906    190.26086  0.041075314   0.04121686            5 
  387000    0.6465477   -4.5685087    189.72172  0.040853084  0.041121658            5 
  388000   0.65447705   -4.5673238    190.53204  0.040921831     0.041027           11 
  389000   0.63309092   -4.5604959    190.20722  0.040747048  0.040931666            7 
  390000   0.65087545   -4.5701506    190.28411  0.040658999  0.040837894            6 
  391000   0.64092998    -4.558707    190.79154  0.040663158  0.040744333            6 
  392000   0.64483253   -4.5652631    190.42421  0.040481337  0.040650685            9 
  393000   0.64329518   -4.5717084    191.05523  0.040512136  0.040557559            8 
  394000    0.6333025   -4.5740801     191.1462  0.040428553   0.04046431           10 
  395000   0.64308294   -4.5716186    190.65862  0.040223338  0.040370342            5 
  396000   0.64743502   -4.5908718    190.71305  0.040133218  0.040276367            7 
  397000   0.62718883    -4.582162    191.72603  0.040244759  0.040184118            7 
  398000   0.63595727   -4.5857129    191.66579  0.040131029  0.040092765            6 
  399000   0.62942547   -4.6062732    191.64004  0.040025071  0.040000387            6 
  400000   0.63213023   -4.6162162    191.02989  0.039797894  0.039907909            7 
  401000   0.61609131    -4.582779    191.96894  0.039893796  0.039816091            7 
  402000   0.61314216    -4.619272    192.42649  0.039889405  0.039724671           14 
  403000   0.63299437   -4.6189218    192.68219  0.039843298  0.039633231           10 
  404000   0.62881764   -4.6076015    192.34122  0.039674344  0.039541921            7 
  405000   0.63588492   -4.6056948    192.65313  0.039640561  0.039450982           10 
  406000   0.61806647   -4.6185329    192.51312  0.039514186  0.039359742            6 
  407000   0.62315607    -4.652678    192.02922  0.039318022  0.039268078            7 
  408000   0.59466254   -4.6332252    192.44108  0.039305775  0.039177171           10 
  409000   0.61225441   -4.6464069    192.00465  0.039120751  0.039085878           34 
  410000   0.61127698   -4.6431543    192.45646  0.039117167  0.038994345           16 
  411000    0.6151679   -4.6408432    191.65917  0.038860335   0.03890273           15 
  412000    0.6040457   -4.6348563    192.96631  0.039030402  0.038811769           12 
  413000   0.60901928   -4.6534122    192.58513  0.038858985   0.03872158           14 
  414000   0.60429158   -4.6256347    193.50052  0.038949381  0.038631279           23 
  415000   0.59900672   -4.6701129    193.15999  0.038787146  0.038540475           12 
  416000   0.60533291   -4.6597074    193.38374   0.03873873  0.038449992           17 
  417000   0.61039339   -4.6533317    193.63003   0.03869505  0.038359754            9 
  418000   0.59948861   -4.6568605    192.73638  0.038424319  0.038269141            8 
  419000   0.58968251   -4.6607754    192.56966  0.038299455  0.038178569           15 
  420000   0.58796557   -4.6670475    192.97843  0.038289371  0.038088207           12 
  421000   0.58789693   -4.6803402    193.15165   0.03823271   0.03799702            9 
  422000   0.59149722   -4.6792935    192.76567  0.038065891  0.037906096           13 
  423000    0.6020448   -4.6926164    192.69165  0.037961317  0.037815571            6 
  424000    0.5888257   -4.6562371    192.88062  0.037908927   0.03772539           21 
  425000   0.60376118    -4.686826    193.36437  0.037914581  0.037634809           28 
  426000    0.5894675   -4.6670048    193.23826  0.037800911  0.037544304           15 
  427000   0.59300272   -4.6993014    192.63042  0.037593758  0.037453536           19 
  428000   0.59196042   -4.6885816    193.02613  0.037582969  0.037362962           24 
  429000   0.57043397   -4.6760679     193.0048  0.037491221  0.037272164           11 
  430000   0.58420703   -4.6923425    193.13942  0.037430119  0.037181092           17 
  431000   0.57569759   -4.6909559     192.5994  0.037238862   0.03708987           19 
  432000   0.57873453   -4.7169625    192.49287  0.037132112  0.036998344           10 
  433000   0.59383879   -4.7315001    193.09805  0.037162827  0.036907004           10 
  434000   0.57565164   -4.7045373    192.65769  0.036992644  0.036815252            8 
  435000   0.57244293   -4.7129331    192.53117  0.036883366  0.036724302            5 
  436000    0.5769551   -4.7269204    192.17976  0.036731605    0.0366334            8 
  437000   0.57059588   -4.7289382    192.74754  0.036755824  0.036542622           22 
  438000   0.55876843   -4.7333527    192.79914  0.036681723  0.036451548            6 
  439000   0.57726013   -4.7302794    192.99847  0.036636005  0.036361107           17 
  440000   0.55697722   -4.7304196    193.16042  0.036583413  0.036270889           10 
  441000    0.5695933   -4.7131273    193.36938  0.036539942  0.036181226           17 
  442000   0.55724724   -4.7464502    192.96984  0.036381945  0.036092239           33 
  443000   0.56918764   -4.7198854    193.64749  0.036427293  0.036003344           22 
  444000   0.57180868   -4.7336241    193.26888  0.036274189  0.035914664            8 
  445000   0.53907632    -4.758261    193.05746  0.036153083   0.03582551            8 
  446000   0.54304618   -4.7477174    193.22081  0.036102542  0.035736795           16 
  447000   0.56727471   -4.7339032    193.64226  0.036100346  0.035648663            4 
  448000   0.55894295   -4.7672639    193.55402  0.036003353  0.035560852           20 
  449000   0.54909955   -4.7576315    193.51049  0.035915088  0.035473453           12 
  450000   0.54825959   -4.7463492    193.51887  0.035836828  0.035386362           20 
  451000   0.54593772   -4.7937125    193.62541  0.035777054  0.035298934           20 
  452000   0.54366241   -4.7794904    193.70859  0.035713236  0.035211679           16 
  453000   0.53364578   -4.7745717    193.78426  0.035648318  0.035124801           23 
  454000   0.54354296   -4.7756323    193.73573  0.035560889  0.035038068           22 
  455000    0.5487746   -4.7698794    193.89855  0.035512555  0.034951882           17 
  456000   0.54462749   -4.7803281    193.63865   0.03538718  0.034865463           16 
  457000   0.53428871   -4.7877445     194.0552  0.035385704  0.034779112           10 
  458000   0.53712863   -4.7730538    193.63173  0.035231392  0.034692624           29 
  459000   0.53776567   -4.8067488    194.09688  0.035239084   0.03460641           14 
  460000   0.53913387   -4.8094308    193.75048  0.035099725  0.034520542           24 
  461000   0.53136027   -4.7990344    193.78627  0.035030056  0.034434585           45 
  462000   0.52406635   -4.7818993    194.16253  0.035022101  0.034348644           21 
  463000   0.53301095   -4.8102225    193.54934  0.034836094  0.034262949           20 
  464000    0.5301696   -4.7918146     194.0655  0.034853718  0.034177468           15 
  465000    0.5172346   -4.8100274    193.86837  0.034743436  0.034091958           18 
  466000      0.51123   -4.8221986    193.87682   0.03467039  0.034006398            8 
  467000   0.51298114   -4.8254339     193.3969   0.03451051  0.033921174           31 
  468000   0.52329552   -4.8290676    193.91152  0.034528404  0.033835693           16 
  469000   0.51700234   -4.8555039    193.78112  0.034431612  0.033750506           10 
  470000   0.52392395   -4.8185798    193.36055  0.034283785  0.033665059           45 
  471000   0.51951069   -4.8322901    193.50823  0.034237125  0.033579737           14 
  472000   0.51760247   -4.8309187    193.36453  0.034139218  0.033494679           38 
  473000   0.52001133   -4.8306741    193.79333  0.034142588  0.033409944           17 
  474000   0.50574096   -4.8508172    193.59951  0.034036481  0.033325189           29 
  475000   0.51081837   -4.8352488    193.22955  0.033899921  0.033240465           52 
  476000   0.50475325    -4.842929    193.55564  0.033885792  0.033156057           34 
  477000   0.49441391   -4.8472929    193.82585  0.033861958  0.033071951           27 
  478000   0.50007772   -4.8616876    193.83638  0.033792953  0.032988435           39 
  479000     0.513429   -4.8574719    194.01424  0.033753348  0.032905101            9 
  480000   0.50681775   -4.8869822    193.60022   0.03361115  0.032821905           20 
  481000   0.50286096   -4.8896255    193.41191  0.033508648  0.032738466           18 
  482000   0.50311315   -4.8808406    194.02799  0.033545642  0.032655251           11 
  483000   0.49996208   -4.8817319     193.5519  0.033394047  0.032572756           21 
  484000   0.49491346   -4.8780767    193.30215   0.03328205  0.032489969           21 
  485000   0.49088828   -4.8925349     193.5535  0.033256615  0.032407556           14 
  486000   0.49167851   -4.8890165    193.30487  0.033145554  0.032325155           27 
  487000    0.4955475   -4.8890654    193.70102   0.03314528  0.032242722           21 
  488000   0.49388118   -4.8983667      193.704  0.033077868  0.032160378           27 
  489000   0.48593023   -4.9015557    193.64809  0.033000698   0.03207799           22 
  490000   0.48948916   -4.8988268    193.35737  0.032883906   0.03199591           17 
  491000    0.4768883   -4.9152561    193.48715   0.03283896  0.031913977           20 
  492000   0.47875441   -4.8972744    193.23769  0.032729961  0.031832345           26 
  493000   0.47715331   -4.9143367    193.47751  0.032704109  0.031750622           39 
  494000   0.48580595   -4.8992454    193.15784  0.032583981  0.031669031           28 
  495000   0.47721721    -4.917392    193.19955  0.032525176  0.031587692           14 
  496000   0.47925607   -4.9256519    193.20347   0.03246026  0.031506506           24 
  497000   0.47795555   -4.9200237     193.5183  0.032447737  0.031425033           11 
  498000   0.47355395   -4.9210784    193.16414  0.032323317  0.031343726           19 
  499000   0.47149688   -4.9290052    193.45999  0.032307947  0.031262994           12 
  500000   0.46982168   -4.9312955     193.4108  0.032235134  0.031182266           22 
  501000   0.47300585    -4.925414    192.83771  0.032075467   0.03110178           21 
  502000   0.46490967    -4.931621    192.98379  0.032035821  0.031021115           19 
  503000   0.45561029   -4.9417935    192.85881  0.031951426   0.03094046           18 
  504000   0.46990013   -4.9530792    192.79283  0.031877121  0.030860393           22 
  505000    0.4595153   -4.9387498     192.8147  0.031817607  0.030780298           30 
  506000   0.46121137   -4.9473352    192.73064  0.031740883  0.030700399           30 
  507000   0.44910248   -4.9543564    192.56332  0.031650775  0.030620444           26 
  508000   0.46261335   -4.9494552    192.52376  0.031581982  0.030540527           32 
  509000   0.46036004   -4.9498656    192.86741  0.031576196  0.030460538           28 
  510000   0.46555217   -4.9631451    192.32196  0.031425157  0.030380764           61 
  511000   0.45471164    -4.975335    192.36746   0.03137108  0.030301149           35 
  512000   0.43827809   -4.9826359    192.68723  0.031361854  0.030221791           35 
Loop time of 1249.76 on 48 procs for 500000 steps with 4000 atoms

Performance: 69133.119 tau/day, 400.076 timesteps/s
99.4% CPU use with 48 MPI tasks x no OpenMP threads

MPI task timing breakdown:
Section |  min time  |  avg time  |  max time  |%varavg| %total
---------------------------------------------------------------
Pair    | 83.93      | 89.946     | 94.762     |  30.9 |  7.20
Neigh   | 8.3986     | 8.7658     | 9.1736     |   7.0 |  0.70
Comm    | 79.283     | 86.135     | 93.266     |  40.9 |  6.89
Output  | 0.94923    | 0.95014    | 0.98023    |   0.5 |  0.08
Modify  | 1047.5     | 1051.9     | 1055.9     |   6.7 | 84.17
Other   |            | 12.03      |            |       |  0.96

Nlocal:        83.3333 ave          91 max          75 min
Histogram: 2 3 0 9 2 12 11 3 4 2
Nghost:        2284.23 ave        2306 max        2260 min
Histogram: 1 3 3 8 6 9 8 5 2 3
Neighs:        15371.1 ave       16885 max       13459 min
Histogram: 2 4 2 3 5 9 9 7 5 2
FullNghs:      30742.7 ave       33933 max       27475 min
Histogram: 2 2 2 9 7 14 4 3 4 1

Total # of neighbors = 1475651
Ave neighs/atom = 368.91275
Neighbor list builds = 26990
Dangerous builds = 0

#clear
#
#next RN
#
#jump SELF
Total wall time: 0:20:53
