
units lj                  # Use reduced LJ style units
atom_style atomic         # Uncharged point particles
atom_modify map hash      # Needed for indexing of clusters etc
                          # Used to be able to find where atoms are in relation to each other.

lattice fcc 1.0 spacing 1 1 1
Lattice spacing in x,y,z = 1.5874011 1.5874011 1.5874011
region box block 0 10 0 10 0 10 units lattice
create_box 2 box
Created orthogonal box = (0.0000000 0.0000000 0.0000000) to (15.874011 15.874011 15.874011)
  3 by 4 by 4 MPI processor grid
create_atoms 1 box
Created 4000 atoms
  using lattice units in orthogonal box = (0.0000000 0.0000000 0.0000000) to (15.874011 15.874011 15.874011)
  create_atoms CPU = 0.004 seconds
set type 1 type/fraction 2 0.65 78393
Setting atom values ...
  2613 settings made for type/fraction
mass 1 1.0
mass 2 1.0
pair_style lj/cut  3.5
pair_modify tail  yes
pair_coeff 1  1  1.0  1.0   # Intearaction between 1 and 1 set with epsilon = 1 and sigma = 1
pair_coeff 1  2  1.5  0.8
pair_coeff 2  2  0.5  0.88

write_data data.0
System init for write_data ...
Neighbor list info ...
  update every 1 steps, delay 10 steps, check yes
  max neighbors/atom: 2000, page size: 100000
  master list distance cutoff = 3.8
  ghost atom cutoff = 3.8
  binsize = 1.9, bins = 9 9 9
  1 neighbor lists, perpetual/occasional/extra = 1 0 0
  (1) pair lj/cut, perpetual
      attributes: half, newton on
      pair build: half/bin/atomonly/newton
      stencil: half/bin/3d
      bin: standard
WARNING: Not all mixed pair coeffs generated from mixing. Use write_data with 'pair ij' option to store all pair coeffs. (../write_data.cpp:312)


#############################
#   M E L T   S Y S T E M   #
#############################

velocity all create 2.4 6583654 mom yes dist gaussian # Assign velocities
                                                    # Temperature 2.4, random number seed, zero linear momentum
                                                                                # Gaussian distribution

timestep 0.002   # simulation timestep
thermo 1000       # output thermodynamic data every 1000 steps bf 100

# Define a fix  in this case with index 1 applied to all
# particles in the simulation. This fix is for simulations
# in the anisotropic NPT ensemble. Note that we use the MTK
# correction.
fix 1 all npt temp 2.4 2.4 0.1 iso 5.68 5.68 0.5 mtk yes tchain 5 pchain 5 # Use NPT ensemble
                                                                         # Set temperature and pressure and damping
                                                                         # Numbers of thermostats in chain and in barostat
run 10000          # run for 10000 steps
Per MPI rank memory allocation (min/avg/max) = 3.642 | 3.644 | 3.648 Mbytes
Step Temp E_pair E_mol TotEng Press Volume 
       0          2.4   -4.4517567            0  -0.85265669   -3.9326408         4000 
    1000    2.4384003   -4.1407122            0  -0.48402614    5.7824028    3626.8325 
    2000    2.3998618   -4.1845718            0    -0.585679    5.8858251    3597.1196 
    3000    2.4022277   -4.1418243            0   -0.5393836     5.605356    3634.1395 
    4000     2.431551    -4.192263            0  -0.54584833    5.6518886    3613.4469 
    5000    2.4396313   -4.1845081            0  -0.52597604    5.8034018    3610.4457 
    6000    2.4182068    -4.138914            0   -0.5125106    5.4401922     3655.533 
    7000     2.468579   -4.1402029            0  -0.43826012    5.4207135    3655.9315 
    8000    2.3923431    -4.095596            0  -0.50797849    5.9446869    3640.0879 
    9000    2.4146793   -4.1622028            0  -0.54108936    5.8277564    3612.7507 
   10000    2.4078289   -4.1645841            0  -0.55374369    5.1686975    3662.0505 
Loop time of 2.67588 on 48 procs for 10000 steps with 4000 atoms

Performance: 645767.876 tau/day, 3737.083 timesteps/s
99.6% CPU use with 48 MPI tasks x no OpenMP threads

MPI task timing breakdown:
Section |  min time  |  avg time  |  max time  |%varavg| %total
---------------------------------------------------------------
Pair    | 1.2292     | 1.274      | 1.3821     |   2.8 | 47.61
Neigh   | 0.21885    | 0.22496    | 0.24061    |   0.8 |  8.41
Comm    | 0.82334    | 0.90927    | 0.981      |   3.7 | 33.98
Output  | 0.00024773 | 0.00025219 | 0.00031902 |   0.0 |  0.01
Modify  | 0.21755    | 0.25171    | 0.30842    |   5.4 |  9.41
Other   |            | 0.01565    |            |       |  0.58

Nlocal:        83.3333 ave          90 max          72 min
Histogram: 1 1 3 6 1 6 8 9 9 4
Nghost:        1742.15 ave        1790 max        1720 min
Histogram: 1 14 5 15 8 3 0 1 0 1
Neighs:        10428.5 ave       11456 max        8598 min
Histogram: 1 2 1 2 4 10 8 5 9 6

Total # of neighbors = 500570
Ave neighs/atom = 125.14250
Neighbor list builds = 907
Dangerous builds = 208

# Equilibrate just above the melting temperature to avoid step fn in T

fix 1 all npt temp 1.25 1.25 0.1 iso 5.68 5.68 0.5 mtk yes tchain 5 pchain 5
run 2000
Per MPI rank memory allocation (min/avg/max) = 3.644 | 3.646 | 3.650 Mbytes
Step Temp E_pair E_mol TotEng Press Volume 
   10000    2.4078289   -4.1645841            0  -0.55374369    5.1686975    3662.0505 
   11000    1.2530509   -6.1432822            0   -4.2641758    5.7710121    2757.0813 
   12000    1.2614115   -6.1634055            0   -4.2717612     5.890459    2747.5901 
Loop time of 0.675281 on 48 procs for 2000 steps with 4000 atoms

Performance: 511786.954 tau/day, 2961.730 timesteps/s
99.6% CPU use with 48 MPI tasks x no OpenMP threads

MPI task timing breakdown:
Section |  min time  |  avg time  |  max time  |%varavg| %total
---------------------------------------------------------------
Pair    | 0.29953    | 0.32774    | 0.36034    |   2.5 | 48.53
Neigh   | 0.042359   | 0.045542   | 0.048909   |   0.6 |  6.74
Comm    | 0.22041    | 0.25018    | 0.28001    |   3.1 | 37.05
Output  | 5.2706e-05 | 5.6512e-05 | 0.00018698 |   0.0 |  0.01
Modify  | 0.041124   | 0.046976   | 0.05171    |   1.5 |  6.96
Other   |            | 0.004782   |            |       |  0.71

Nlocal:        83.3333 ave          88 max          77 min
Histogram: 4 2 4 4 3 6 7 5 4 9
Nghost:        2116.25 ave        2131 max        2099 min
Histogram: 1 3 3 4 5 14 6 8 2 2
Neighs:        13881.1 ave       15145 max       12602 min
Histogram: 3 3 5 6 6 9 6 4 3 3

Total # of neighbors = 666294
Ave neighs/atom = 166.57350
Neighbor list builds = 148
Dangerous builds = 17

#############################
# L I N E A R  Q U E N C H  #
#############################

# Define solid atoms. This closely follows ten Wolde  Ruiz-Montero and Frenkel  Faraday Discuss  1996  104  93-110
# Compute components of the per-atom q6 vector
compute q6 all orientorder/atom degrees 1 6 components 6 nnn NULL cutoff 1.3 # compute the Q6 parameter.
                                                                             # Use all neighbours within 1.3 unit cell.

# get number of connections
compute coord_number all coord/atom orientorder q6 0.5

# An atom is solid if it has 8 or more connections (of a possible 14)
variable is_solid atom c_coord_number>=8
group solid dynamic all var is_solid    # Must be dynamic to update
dynamic group solid defined

# do clustering
compute cluster solid cluster/atom 1.3 # Create a cluster where all atoms within are solid and max 1.3 units from another member

# define chunks one chunk per cluster
compute clus_chunks solid chunk/atom c_cluster nchunk every compress yes  # Says which atoms are in which chunk

# count the size of each chunk
compute size_chunks solid property/chunk clus_chunks count


# Find the maximum entry in the vector of chunk sizes
variable max_n equal max(c_size_chunks)


# Thermo style which includes this variable
# thermo_style custom step temp pe vol v_max_n

thermo ${N}  # Print the thermo information every 100 steps
thermo 1000  

# Reset the npt fix at a lower temperature (below freezing)
fix 1  all npt temp  ${temp} ${temp}  0.1  iso  5.68  5.68  0.5  mtk yes tchain  5  pchain  5
fix 1  all npt temp  0.45 ${temp}  0.1  iso  5.68  5.68  0.5  mtk yes tchain  5  pchain  5
fix 1  all npt temp  0.45 0.45  0.1  iso  5.68  5.68  0.5  mtk yes tchain  5  pchain  5

dump dmp2 all dcd ${N} traj.dcd
dump dmp2 all dcd 1000 traj.dcd


compute msd all msd com yes
variable twopoint equal c_msd[4]/6/(step*dt+1.0e-6)
fix 9 all vector 10 c_msd[4]
variable fit equal slope(f_9)/6/(10*dt)
thermo_style custom step temp pe c_msd[4] v_twopoint v_fit v_max_n

fix 1 all npt temp 1.25 ${temp} 0.1 iso 5.68 5.68 0.5 mtk yes tchain 5 pchain 5
fix 1 all npt temp 1.25 0.45 0.1 iso 5.68 5.68 0.5 mtk yes tchain 5 pchain 5
run 5000000 # 5000000  # Run for this many steps
Neighbor list info ...
  update every 1 steps, delay 10 steps, check yes
  max neighbors/atom: 2000, page size: 100000
  master list distance cutoff = 3.8
  ghost atom cutoff = 3.8
  binsize = 1.9, bins = 8 8 8
  4 neighbor lists, perpetual/occasional/extra = 1 3 0
  (1) pair lj/cut, perpetual
      attributes: half, newton on
      pair build: half/bin/atomonly/newton
      stencil: half/bin/3d
      bin: standard
  (2) compute orientorder/atom, occasional
      attributes: full, newton on
      pair build: full/bin/atomonly
      stencil: full/bin/3d
      bin: standard
  (3) compute coord/atom, occasional
      attributes: full, newton on
      pair build: full/bin/atomonly
      stencil: full/bin/3d
      bin: standard
  (4) compute cluster/atom, occasional
      attributes: full, newton on
      pair build: full/bin/atomonly
      stencil: full/bin/3d
      bin: standard
Per MPI rank memory allocation (min/avg/max) = 9.848 | 9.851 | 9.856 Mbytes
Step Temp PotEng c_msd[4] v_twopoint v_fit v_max_n 
   12000    1.2614115   -6.1634055 1.8139857e-30 1.2597122e-32 8.3333333e+20            3 
   13000    1.2351529   -6.1771621   0.55827603 0.0035786924  0.045498263            3 
   14000    1.2112187   -6.1810733    1.0549411  0.006279411  0.043341524            2 
   15000    1.2575267   -6.1632907    1.5510562 0.0086169787  0.042440191            2 
   16000    1.2320933   -6.1939095    2.0514794  0.010684788  0.041972213            2 
   17000    1.2251806   -6.1842991    2.5819693  0.012656712   0.04187808            3 
   18000    1.2813274   -6.1926391    3.0723341  0.014223769  0.041936888            2 
   19000    1.2509882   -6.2363347    3.5649935  0.015635936  0.041996582            1 
   20000    1.2444294   -6.1727472    4.1269811  0.017195754  0.042216436            1 
   21000    1.2465915   -6.2068847    4.6253665  0.018354629  0.042429818            3 
   22000    1.2735931   -6.2619169    5.0541041  0.019144333  0.042358568            2 
   23000    1.2378334   -6.2140833    5.5724445  0.020190016  0.042261674            1 
   24000    1.2648713    -6.234529    6.1194089  0.021247947  0.042268048            3 
   25000    1.2707951   -6.1849891     6.633053  0.022110176  0.042287847            2 
   26000    1.2337407   -6.1672694    7.1072413  0.022779619  0.042259568            2 
   27000    1.2676914   -6.1817987    7.6959645  0.023752977  0.042318152            2 
   28000     1.254078   -6.1659708    8.2532082  0.024563119  0.042366606            1 
   29000    1.2826274   -6.2017196    8.6264752  0.024788721  0.042382478            2 
   30000    1.2457188    -6.203881    9.0386773  0.025107437  0.042211266            4 
   31000    1.2309493   -6.2188549     9.541036  0.025647946  0.042048636            6 
   32000    1.2501492   -6.1981992    10.121289  0.026357523  0.041982477            2 
   33000    1.2220342    -6.255904    10.655101  0.026906819   0.04199065            4 
   34000    1.2354253   -6.1558589    11.257147  0.027591047  0.042060374            3 
   35000    1.2255989   -6.1442194    11.738505  0.027948821  0.042123048            3 
   36000    1.2453832   -6.1878156    12.085875  0.027976563  0.042134864            2 
   37000    1.2267972    -6.196556    12.689672  0.028580341  0.042094636            4 
   38000    1.2604414   -6.2298974    13.205773  0.028960027   0.04209538            2 
   39000    1.2416194   -6.1947736    13.777745  0.029439625  0.042128952            7 
   40000    1.2600366   -6.2140387    14.225236  0.029635909  0.042152135            2 
   41000    1.2511905   -6.2229326     14.80033  0.030081971  0.042180169            1 
   42000    1.2159472   -6.1887785    15.267673  0.030293001  0.042202628            2 
   43000    1.2419125   -6.1796986    15.461664  0.029964465  0.042137091            2 
   44000    1.2670824   -6.2307142    15.929368  0.030169258  0.041991843            1 
   45000    1.2456163   -6.1822489     16.43257  0.030430684  0.041868397            3 
   46000    1.2625367   -6.2188796    16.845484  0.030517182  0.041741192            2 
   47000    1.2511434   -6.2239817    17.492127   0.03101441  0.041650826            4 
   48000    1.2441923   -6.2262594    17.839837  0.030971939  0.041580151            4 
   49000    1.2372077   -6.2090894    18.321446  0.031158922  0.041494477            2 
   50000    1.2337792   -6.1927097    18.888466  0.031480776  0.041448627            3 
   51000    1.2552075   -6.2303194    19.365292  0.031642634  0.041396237            2 
   52000    1.2438673   -6.2096092    19.853017  0.031815732  0.041361496            5 
   53000     1.237967   -6.1926526    20.414352  0.032098037  0.041326005            3 
   54000    1.2266134   -6.2191422    20.929945  0.032299298  0.041310259            2 
   55000    1.2358663   -6.2101281    21.468774  0.032528445  0.041307466            3 
   56000     1.245353   -6.2102594    21.927217  0.032629786  0.041280209            2 
   57000    1.2714699    -6.173094    22.441056  0.032808562  0.041265062            3 
   58000    1.2266353   -6.2177373    22.922715  0.032934935  0.041251504            3 
   59000     1.228811   -6.2397603    23.350704   0.03298122  0.041234435            2 
   60000    1.2696691   -6.2039123    23.965489  0.033285401  0.041239007            3 
   61000    1.2308072   -6.2340356    24.422566  0.033364161  0.041252871            2 
   62000    1.2569343   -6.1988087    24.855872   0.03340843   0.04125581            2 
   63000    1.2636437   -6.1866862    25.363598  0.033549732  0.041234175            3 
   64000     1.275723   -6.1998418    25.910549  0.033737693  0.041241147            2 
   65000    1.2219108   -6.1685506    26.628281  0.034138822  0.041269774            1 
   66000    1.2659179   -6.2416491    27.069425  0.034178567  0.041304961            4 
   67000    1.2397399   -6.2456035    27.566732   0.03428698  0.041347461            2 
   68000    1.2280066   -6.2399447     28.16425  0.034515012  0.041380937            4 
   69000    1.2178839   -6.2056469    28.443547   0.03435211  0.041387101            1 
   70000    1.2602327   -6.2446126    28.863265   0.03436103  0.041391062            4 
   71000    1.2663895   -6.1904118    29.384315  0.034488632  0.041385876            1 
   72000     1.266083   -6.2028627    29.855477  0.034554951  0.041380438            2 
   73000    1.2568399    -6.200103    30.239359  0.034519816  0.041362092            1 
   74000    1.2492245   -6.2330326    30.689077  0.034559771  0.041340852            2 
   75000    1.2437388   -6.1969448    31.056572  0.034507302  0.041305458            3 
   76000    1.2447939   -6.2361272    31.401976  0.034431991  0.041253419            2 
   77000    1.2282679   -6.2680244    31.860297  0.034480841  0.041206653            4 
   78000    1.2261768    -6.184014    32.753449  0.034993001  0.041185023            6 
   79000    1.2282658   -6.2249779    32.883031  0.034686741  0.041146809            6 
   80000    1.2149683    -6.209436    33.352368   0.03474205  0.041099455            5 
   81000     1.227531   -6.2090374    34.094164    0.0350763  0.041065411            3 
   82000    1.2276108   -6.2099748    34.597143  0.035159698  0.041039993            3 
   83000    1.2243882   -6.2078911    35.067589  0.035208422  0.041024621            2 
   84000    1.2360781   -6.1937589    35.677592  0.035394436   0.04102083            1 
   85000    1.2147759   -6.2214919    36.174378  0.035465076  0.041018595            3 
   86000     1.226897   -6.2246603     36.55355  0.035420107  0.041012026            1 
   87000    1.2466015    -6.190549    37.143968  0.035578514  0.041002615            2 
   88000    1.2417344   -6.2530739    37.521629  0.035531845  0.040987289            1 
   89000    1.2396335   -6.2379677     37.95654  0.035539831  0.040978366            3 
   90000    1.2418178   -6.1974971    38.469212   0.03561964  0.040974167            6 
   91000    1.2402471    -6.210693    38.946436  0.035665234  0.040963679            2 
   92000     1.235407   -6.1753666    39.467432  0.035749486  0.040961684            3 
   93000     1.261416   -6.2358812    40.113593   0.03594408  0.040959155            3 
   94000     1.253889   -6.1694659    40.681157  0.036064855  0.040954753            1 
   95000    1.2553195   -6.1846778    40.984288  0.035951129  0.040949651            1 
   96000    1.2459273   -6.3004896     41.33072  0.035877361  0.040938646            3 
   97000     1.269509   -6.2412671    41.842548  0.035947206  0.040929827            6 
   98000    1.2557513   -6.2236438    42.290175  0.035961033  0.040922426            2 
   99000    1.2358174   -6.2131061    42.984756  0.036182455  0.040926454            3 
  100000     1.248996   -6.2032875     43.80029  0.036500242   0.04093761            2 
  101000    1.2398317   -6.2377941    44.038236  0.036335178  0.040948599            2 
  102000    1.2352182   -6.1866236    44.745155  0.036556499  0.040962781            3 
  103000    1.2482691   -6.1916738    45.223456  0.036588556  0.040978815            2 
  104000     1.247495   -6.2117067    45.721253   0.03663562  0.040998752            2 
  105000    1.2459648   -6.1877145    46.560555  0.036952821  0.041018178            3 
  106000    1.2037344   -6.1972627    46.982944  0.036936277  0.041039615            2 
  107000    1.2346595    -6.240126    47.525116   0.03701333  0.041065528            2 
  108000     1.202395    -6.224685    48.473436  0.037402342  0.041102116            2 
  109000     1.248314   -6.2412405    49.081323  0.037523947  0.041145176            2 
  110000    1.2375313     -6.22442    49.746716  0.037686906  0.041193313            7 
  111000    1.2225223   -6.2453658    49.952484  0.037501864  0.041238388            4 
  112000    1.2206224    -6.216726    50.443679  0.037532499  0.041282942            3 
  113000    1.2265471   -6.2319517    51.158201  0.037727287  0.041334306            2 
  114000    1.2043433   -6.2172872    51.739217  0.037821065  0.041386947            5 
  115000    1.2358457   -6.2563578    52.319392  0.037912603  0.041433308            2 
  116000    1.2578676   -6.2523876    52.487111  0.037706258    0.0414817            1 
  117000    1.2537346   -6.2334673    52.925145  0.037695972  0.041512473            3 
  118000    1.2365216   -6.2237326    53.468787  0.037760442  0.041538673            2 
  119000    1.2252553   -6.2680581    53.613055  0.037544156  0.041559551            3 
  120000    1.2269022   -6.2160687    54.104844  0.037572808  0.041579881            3 
  121000    1.2376632   -6.2201893    54.663434  0.037646993   0.04159406            2 
  122000    1.2392037   -6.2519257    54.829719  0.037451993  0.041599435            3 
  123000    1.2395205   -6.2198776    55.171648  0.037379165  0.041597593            1 
  124000        1.257   -6.2428421    55.828571  0.037519201  0.041593803            1 
  125000    1.2614429   -6.2357963    56.142956  0.037428637  0.041588404            2 
  126000    1.2052416   -6.2302456    56.718811  0.037512441  0.041582536            1 
  127000    1.2397793   -6.2360961    56.917391  0.037347369  0.041575624            4 
  128000    1.2436647   -6.2332778    57.519057  0.037447303  0.041564633            2 
  129000    1.2412472    -6.251163     58.09703  0.037530381  0.041556621            1 
  130000     1.234835   -6.2557899    58.496251  0.037497597  0.041548427            2 
  131000    1.1960815   -6.2318678    58.870788   0.03744961  0.041536792            4 
  132000    1.2247506   -6.2553318    59.185746  0.037364739   0.04152446            4 
  133000     1.218589   -6.2075167    60.035124  0.037615992  0.041507914            2 
  134000    1.2398882   -6.2073709    60.515926  0.037634282  0.041500197            2 
  135000    1.2528528   -6.2660993    60.795681  0.037528198  0.041488248            2 
  136000    1.1945319   -6.2375716    61.357072  0.037596245  0.041476515            2 
  137000    1.2125416   -6.2507446    61.813754  0.037599607  0.041461768            2 
  138000    1.2240054   -6.2408512    62.147472  0.037528666  0.041446112            1 
  139000    1.2419572   -6.2512843    62.438595   0.03743321  0.041429858            3 
  140000    1.2288043   -6.2412814    63.126751  0.037575447  0.041410836            1 
  141000    1.2462877   -6.2085254     63.50467  0.037532311  0.041388282            4 
  142000    1.2365723   -6.2095174     63.82014  0.037453134  0.041367263            1 
  143000    1.2376748   -6.2461556    64.305189  0.037473886  0.041343564            3 
  144000    1.2211497   -6.2442975    65.089338  0.037667441  0.041323589            2 
  145000    1.2686076   -6.2230639    65.226904  0.037486726  0.041303679            2 
  146000    1.2327668   -6.2702589    65.568659  0.037425034   0.04128109            2 
  147000    1.1989569    -6.211321     66.35073  0.037613792  0.041261918            4 
  148000    1.2261755   -6.2469115    66.753839  0.037586621  0.041242542            2 
  149000    1.2313404   -6.2176898     67.45728  0.037727785  0.041224286            3 
  150000    1.2070621    -6.244584    67.758862  0.037643812  0.041206128            1 
  151000    1.2468455   -6.2789885    68.288095  0.037686587  0.041190641            1 
  152000    1.2168498   -6.2712189    69.021477  0.037840722  0.041182576            4 
  153000    1.2381321   -6.2281841    69.605281  0.037911373  0.041177044            3 
  154000    1.2285955   -6.2718562    70.053877  0.037907942  0.041174203            3 
  155000    1.2370869   -6.1935365    71.145424  0.038250228  0.041171984            2 
  156000    1.2173472   -6.2945411     70.86771  0.037856683   0.04116987            2 
  157000    1.2426691   -6.2656495    71.659045  0.038035586  0.041164682            2 
  158000    1.2359198   -6.3027328    72.151502   0.03805459  0.041162748            2 
  159000     1.245334    -6.190231    72.890835  0.038202744   0.04116146            3 
  160000    1.2335138   -6.2492581    73.205548  0.038127889  0.041162575            1 
  161000    1.2361835   -6.2165616    73.810631   0.03820426  0.041160821            1 
  162000    1.2267027   -6.2112246    74.699809  0.038425828  0.041163499            2 
  163000    1.2180289   -6.1677319    75.095061  0.038392158   0.04116271            3 
  164000    1.2210872    -6.286428    75.450778   0.03833881  0.041162221            2 
  165000    1.2469157   -6.2705596    75.497667  0.038130135    0.0411578            2 
  166000    1.2373253   -6.2764706    75.997689   0.03815145   0.04115375            4 
  167000    1.2216992   -6.2726216    76.423505  0.038135481  0.041148655            3 
  168000    1.2573866    -6.253621    76.869672  0.038129797  0.041146157            1 
  169000    1.1950524   -6.2581897    77.144239  0.038039566  0.041141968            2 
  170000    1.2159215   -6.2926657    77.803342  0.038138893  0.041135798            2 
  171000    1.2293451   -6.2294727    78.369968  0.038191992  0.041129271            2 
  172000    1.2346272   -6.2214373    78.461443  0.038014265  0.041120742            4 
  173000     1.233653   -6.2962606    78.782111  0.037948994  0.041108786            2 
  174000    1.2164217     -6.23377    79.814823   0.03822549  0.041097508            3 
  175000    1.2286494   -6.2797213    80.048178   0.03811818  0.041087289            1 
  176000     1.197759   -6.2761063       80.436  0.038085227  0.041076236            2 
  177000    1.2308878   -6.2539294    81.338932  0.038295166  0.041066095            1 
  178000     1.250852   -6.2666162    81.877904  0.038332352  0.041059254            5 
  179000    1.2098305   -6.2574491    82.243624  0.038288465  0.041055487            7 
  180000    1.2194637   -6.2583386    83.257769  0.038545264  0.041050409            2 
  181000    1.1850803   -6.2607368    83.247972  0.038327795  0.041045449            2 
  182000    1.2380233   -6.2636835    83.753991  0.038348897  0.041038172            2 
  183000    1.2321457   -6.2112565    84.398913  0.038433021  0.041032757            2 
  184000    1.2320168   -6.2283317    84.574468  0.038303654  0.041027148            2 
  185000    1.2220773   -6.2481668    85.063106  0.038316714  0.041020408            3 
  186000    1.2273282   -6.2500105    85.318396  0.038225088  0.041012431            1 
  187000     1.232492   -6.2607168     86.18696  0.038407736  0.041006016            2 
  188000    1.2246846   -6.2654122     86.70519  0.038433152  0.040998624            4 
  189000    1.2206937    -6.260333    87.030834  0.038373383  0.040990168            6 
  190000    1.2185526   -6.2387471    87.454158  0.038357087  0.040981931            4 
  191000    1.2325084   -6.2356358    87.807201  0.038310297   0.04097379            3 
  192000    1.2245561   -6.2989663    88.086889  0.038232157  0.040964801            1 
  193000    1.2337605   -6.2632314    88.673789  0.038287474  0.040954649            2 
  194000    1.2336503   -6.2529606    88.900174   0.03818736  0.040944348            4 
  195000    1.2139563   -6.2303431    89.744773  0.038352467  0.040935018            4 
  196000    1.2138665   -6.2851501    90.162481  0.038334388   0.04092604            1 
  197000    1.2225873   -6.2442769    90.253985  0.038178505  0.040915631            3 
  198000    1.2221037   -6.2865665    90.947411   0.03827753  0.040901384            1 
  199000    1.2395914   -6.2759031    90.888273  0.038060416   0.04088725            2 
  200000    1.2019438   -6.2284855     91.54221  0.038142587  0.040872042            4 
  201000    1.2065708   -6.2804875    92.133612  0.038198015  0.040858893            5 
  202000    1.2147934   -6.2724037    92.575513  0.038191218   0.04084605            5 
  203000    1.2296035   -6.2943392    93.203125  0.038260725  0.040831782            3 
  204000    1.2137626   -6.2233274    94.330742    0.0385338  0.040822046            3 
  205000    1.2018933   -6.2248532    94.616486  0.038461986  0.040816531            3 
  206000     1.218602   -6.2371215    95.113669  0.038476403  0.040808014            2 
  207000    1.2182742   -6.2526164    95.310181  0.038369638  0.040800514            2 
  208000    1.2361762   -6.2340228    95.773176  0.038370663  0.040790152            2 
  209000    1.2187538   -6.2982308    95.671917  0.038146697  0.040779948            2 
  210000    1.2070305   -6.2733324    96.144257  0.038152483  0.040766773            2 
  211000    1.2421585   -6.2663078     96.59943  0.038151434  0.040750757            4 
  212000     1.231722   -6.2918882    96.741933  0.038027489  0.040735055            4 
  213000    1.2030186   -6.2347027    97.132055  0.038001586  0.040717997            4 
  214000    1.2240366   -6.3164653    97.601151  0.038006679  0.040700419            3 
  215000    1.2288537    -6.256927    98.810732  0.038298733  0.040684722            2 
  216000    1.2004425    -6.280984     98.54463  0.038018762  0.040667341            3 
  217000    1.2087677   -6.2677095    99.532714  0.038223008  0.040652525            2 
  218000    1.2153911   -6.2626114    99.820306  0.038157609  0.040638942            3 
  219000    1.2325903   -6.2675782    100.07451  0.038080103   0.04062419            3 
  220000     1.215075   -6.3143386    100.81765  0.038188504  0.040611041            3 
  221000    1.2258598   -6.2197758    101.62265  0.038319251  0.040598968            3 
  222000    1.2143523   -6.3013087    101.80547  0.038215265  0.040585639            1 
  223000    1.1970532   -6.2719209    102.54815   0.03832143  0.040573963            4 
  224000    1.2406696    -6.301535    102.98063  0.038311245  0.040565189            4 
  225000    1.2220343   -6.2479175     103.4128  0.038301039  0.040554887            4 
  226000    1.1933004   -6.2905594    103.85807  0.038295748  0.040543707            3 
  227000    1.2249756   -6.2497672    104.64382    0.0384155  0.040534831            2 
  228000    1.2242487   -6.2410574    105.16047  0.038435842  0.040528246            2 
  229000    1.1646095   -6.2617711    105.52492  0.038400627   0.04052152            2 
  230000    1.1977446   -6.2903558    106.04556  0.038422304  0.040513832            3 
  231000    1.2371399   -6.2804148    106.56857  0.038444651  0.040506202            2 
  232000    1.2173886   -6.2961337    107.30819  0.038544608  0.040499788            2 
  233000    1.2037431    -6.299369    107.55422  0.038467174  0.040495381            2 
  234000    1.2055524   -6.2535172    108.33501  0.038580843  0.040491599            1 
  235000    1.2355526    -6.263845    108.84252   0.03859664  0.040488437            1 
  236000    1.2095283   -6.2915935    108.91503  0.038458698  0.040482999            3 
  237000    1.2080481   -6.3014149    109.36157  0.038453435  0.040478945            3 
  238000     1.206347   -6.2464168    110.32259  0.038628358  0.040476442            3 
  239000    1.2045485   -6.3363176    110.07401  0.038380058  0.040471471            1 
  240000     1.189034   -6.3321725    110.89723  0.038505981  0.040466145            1 
  241000    1.2369081   -6.3185567    110.88606  0.038342346  0.040460912            3 
  242000    1.1921102   -6.2634156    111.96266  0.038554635  0.040455028            4 
  243000    1.2016134   -6.2322574    112.54666   0.03859625  0.040448211            3 
  244000      1.22041   -6.3217618    112.14507  0.038300911  0.040440305            4 
  245000    1.1955072   -6.2791581    113.12256  0.038477061  0.040432154            4 
  246000    1.2327196   -6.3010197     113.1918  0.038344104  0.040425249            5 
  247000    1.2386991   -6.2806009    113.86526   0.03841608  0.040417763            3 
  248000    1.2255016   -6.2937609    113.97573  0.038298298  0.040408242            2 
  249000    1.2154402   -6.2958597    114.77881  0.038413255  0.040399985            2 
  250000    1.2176166   -6.2931132    114.75437  0.038251457  0.040388611            4 
  251000    1.2184846   -6.3099807    115.99545  0.038511104  0.040378815            5 
  252000    1.1805921    -6.315141    116.43699  0.038504297  0.040370749            3 
  253000    1.1976951   -6.2818991    117.08215  0.038564607  0.040363638            2 
  254000    1.2027942   -6.3090493    117.47819  0.038542713  0.040358793            3 
  255000    1.1877426   -6.2786281    118.01537  0.038567116  0.040354887            2 
  256000    1.2096557   -6.2870824    118.75679  0.038657808  0.040351093            5 
  257000    1.2073161   -6.2422309    119.01499  0.038591113  0.040347397            3 
  258000    1.1901016   -6.2617171    119.43379  0.038576805   0.04034361            2 
  259000    1.1862511   -6.3052351      119.601  0.038481661  0.040338362            4 
  260000    1.2182136   -6.2887515    120.22265    0.0385329  0.040335544            3 
  261000    1.2149079   -6.2780436    120.32238  0.038417106  0.040330603            3 
  262000    1.1993622   -6.2853725    120.89433  0.038452395   0.04032444            2 
  263000    1.1990294   -6.3329106    121.22733  0.038411701  0.040318283            2 
  264000    1.2555187   -6.2974817    122.04993  0.038525862  0.040312356            1 
  265000    1.2125764   -6.2844965    122.35635  0.038476841  0.040308158            2 
  266000    1.2135573   -6.2768735    123.11233  0.038569026  0.040301419            8 
  267000    1.2207751   -6.2835388    123.30525  0.038484784  0.040297462            4 
  268000    1.2399401   -6.2711043    124.22569   0.03862739  0.040293011            8 
  269000    1.2027444   -6.3030714    123.84538   0.03836598  0.040288006            2 
  270000    1.2378736   -6.2504708    124.75949  0.038506016  0.040279714            3 
  271000    1.1985267   -6.2922292    125.02481  0.038445512  0.040271022            3 
  272000     1.211288   -6.2721074      125.641  0.038492954  0.040263792            2 
  273000    1.2344029   -6.3163891     126.2188  0.038528328  0.040256514            1 
  274000    1.2096028   -6.2703665     126.7983  0.038563961  0.040250564            2 
  275000    1.2263422   -6.2684975    127.21338  0.038549509  0.040244409            2 
  276000    1.2296645   -6.2894404     127.5646  0.038515881  0.040238775            3 
  277000    1.2207622    -6.260016     128.1195  0.038543773  0.040232078            2 
  278000     1.210808   -6.3212431    128.52225  0.038525854  0.040225911            3 
  279000    1.2346914   -6.3112538    128.76119  0.038459137  0.040218048            5 
  280000    1.2190653   -6.2747378     129.5313  0.038550981  0.040210379            2 
  281000    1.2032809   -6.2680421    129.97032  0.038543985  0.040203756            2 
  282000     1.231554   -6.2637714    130.28179  0.038499347  0.040198377            2 
  283000    1.2181891   -6.2488934    130.50199  0.038428149  0.040189582            3 
  284000    1.1851083   -6.3063006    131.00191  0.038439527  0.040180694            2 
  285000    1.2168561   -6.3049616    130.93105  0.038283932  0.040171171            4 
  286000     1.212979   -6.2967143    131.54949  0.038330271  0.040161543            2 
  287000     1.187981   -6.2658467    132.40858  0.038446162  0.040150653            3 
  288000    1.2082323   -6.2749775    132.76316  0.038415266   0.04013978            6 
  289000    1.2221314   -6.3352481    132.22099  0.038126006  0.040128744            2 
  290000    1.1931248    -6.318461    133.39026  0.038330536  0.040118328            9 
  291000    1.2217996   -6.3457334    133.43084  0.038210435  0.040108654            1 
  292000    1.2199756   -6.2757283    134.27941   0.03832175  0.040099394            1 
  293000    1.2407427   -6.2925717    134.68918  0.038307503  0.040088319            4 
  294000    1.1970962   -6.3122557    134.62877  0.038160082   0.04007715            2 
  295000     1.207237   -6.3445992    134.70594  0.038052526  0.040065311            1 
  296000     1.212969   -6.3243062    135.72407  0.038210606  0.040052305            4 
  297000    1.1976527   -6.3505331    135.96431  0.038149359  0.040038667            5 
  298000    1.2214444   -6.3330504    136.16839   0.03807841   0.04002477            3 
  299000    1.2266379   -6.2695801    137.05142  0.038197164  0.040013625            4 
  300000    1.2060869     -6.35324     137.0276  0.038063221   0.04000068            1 
  301000    1.1933128   -6.3029055    137.99916  0.038205748  0.039987604            2 
  302000    1.2279327   -6.2708177    138.73383  0.038281962  0.039976375            2 
  303000    1.1753879   -6.3025214    138.28725  0.038032796   0.03996424            2 
  304000    1.1887865   -6.3199604    139.09982  0.038130434  0.039951022            1 
  305000    1.1953606   -6.2907984    140.11365  0.038282417  0.039941289            2 
  306000    1.1921126   -6.3465531    140.30647  0.038209824   0.03993162            2 
  307000    1.2028291   -6.3813503    140.24489  0.038068646  0.039919663            2 
  308000    1.2134264   -6.3569925    140.75308  0.038082542  0.039907185            3 
  309000    1.2164253    -6.289021    142.01316  0.038299127  0.039898069            4 
  310000    1.2091757   -6.3005594    143.07572  0.038461215  0.039889891            2 
  311000    1.1911813    -6.313463    142.47608  0.038176871  0.039881636            4 
  312000    1.2018201   -6.2919808    143.92983  0.038442798  0.039873959            2 
  313000     1.231146   -6.3017417    144.43163  0.038453575  0.039867017            2 
  314000    1.1963409   -6.3127881    144.26911  0.038287981  0.039860362            3 
  315000    1.2220688   -6.2764187    144.75206  0.038294195  0.039852815            3 
  316000    1.1984415   -6.2736457    145.73457  0.038432111  0.039845261            2 
  317000    1.1908897   -6.2444818    146.64014  0.038548933  0.039837119            4 
  318000    1.2121603   -6.3144788      146.613  0.038420597  0.039829627            4 
  319000     1.212924   -6.3220881    146.76405  0.038339615  0.039822824            5 
  320000    1.2197906   -6.2986484    146.99072  0.038278833   0.03981531            3 
  321000    1.1972111   -6.3227422     147.4389  0.038275934  0.039806697            3 
  322000    1.2254496   -6.3370558    147.96789  0.038293967  0.039797637            2 
  323000    1.2217696   -6.3332763    148.06446  0.038200326  0.039787838            2 
  324000     1.169634   -6.3012254     148.6724  0.038238786  0.039778667            4 
  325000    1.2007761   -6.2915087    149.42732  0.038314698  0.039769505            2 
  326000    1.1994745   -6.2928508    150.09096  0.038366809  0.039761514            1 
  327000    1.2053845   -6.3229278    150.12932  0.038259255  0.039755019            1 
  328000    1.1939442   -6.3267357    150.70915  0.038289927  0.039747834            4 
  329000    1.2004469    -6.311738    151.55238  0.038387128  0.039739813            4 
  330000    1.2101301   -6.3075215    152.23284  0.038442635  0.039733197            3 
  331000    1.2211286   -6.3406542    152.22284  0.038323977  0.039727359            2 
  332000    1.1899601   -6.3279627    152.49904  0.038277872  0.039721474            2 
  333000     1.205343   -6.3173777    152.84936  0.038250589  0.039714964            2 
  334000    1.2041085   -6.3131607    154.11975  0.038453031  0.039709182            2 
  335000    1.1870042   -6.3194538    154.40986  0.038410414  0.039703318            2 
  336000    1.1798124   -6.2936095    154.28138   0.03826423   0.03969561            4 
  337000    1.2118815   -6.3388499    154.27911  0.038150127  0.039686862            3 
  338000    1.1756212   -6.3094671    155.44695  0.038325185  0.039678772            2 
  339000    1.1748399   -6.3399753    155.51379  0.038228561  0.039670002            2 
  340000    1.2157027   -6.2885497    155.88793  0.038207827  0.039661706            3 
  341000    1.2140088   -6.3223571    156.04409  0.038133943  0.039653939            2 
  342000    1.1769483   -6.3242293    156.55501  0.038146931  0.039645665            3 
  343000    1.1979976   -6.3670888    156.78532  0.038091671    0.0396368            4 
  344000    1.1841226   -6.3520667    157.73079  0.038209979  0.039627761            3 
  345000    1.2122685   -6.3203978     158.4023  0.038261425  0.039618606            4 
  346000    1.2099486   -6.3085228    159.01288  0.038297899  0.039610836            9 
  347000    1.1877485   -6.2964097    159.47847  0.038299343  0.039602724            2 
  348000     1.194237   -6.3353025    159.77353  0.038259944  0.039595979            2 
  349000    1.1957491   -6.3183109    160.37309  0.038293479  0.039589258            3 
  350000    1.1970105    -6.356822     161.0105  0.038335834  0.039583965            6 
  351000    1.1949541   -6.3268488    161.90822  0.038439748  0.039579499            6 
  352000    1.2038996   -6.3137387    162.21874  0.038404058  0.039575463            1 
  353000    1.2102578   -6.3345525    163.09794  0.038502818  0.039570671            3 
  354000    1.2090404   -6.3386114    162.67049  0.038293429  0.039565076            2 
  355000    1.1754969   -6.3591425     163.1082  0.038288309  0.039558816            2 
  356000    1.2057841   -6.3386296    163.77809  0.038337568  0.039552792            3 
  357000    1.1920506   -6.3167347    164.22475  0.038334441  0.039546742            2 
  358000    1.2029296    -6.315746    165.04684  0.038418725  0.039541463            2 
  359000    1.1718479   -6.3440534    164.81546  0.038257998  0.039535832            6 
  360000    1.2141815   -6.3000189     165.6367  0.038341828  0.039530882            1 
  361000    1.1746367   -6.3304584    166.25635  0.038378658  0.039527103            3 
  362000    1.2021632   -6.3461834     166.3299  0.038289571  0.039521623            1 
  363000    1.1896554   -6.2952475    167.11344  0.038363968  0.039516412            4 
  364000    1.2036339   -6.3315792    167.12098  0.038260298  0.039510892            2 
  365000    1.1846811   -6.3456488    167.31501  0.038199774  0.039505505            4 
  366000    1.2090083      -6.3134    168.37799  0.038337429  0.039500281            3 
  367000     1.185169   -6.2850384     168.6718  0.038299683  0.039494135            3 
  368000    1.1686703      -6.3233    168.61309  0.038182312  0.039487776            2 
  369000    1.1834027    -6.350756    169.50257  0.038279713  0.039481408            4 
  370000    1.1914223   -6.3689949    169.80979  0.038245448  0.039475107            4 
  371000    1.2014819   -6.3384872    169.83875  0.038148865  0.039467226            2 
  372000    1.1936073   -6.3062009    170.21518  0.038130641  0.039460103            2 
  373000    1.2185907   -6.3492677    171.02392  0.038209098  0.039453967            4 
  374000    1.1785189   -6.3327759    171.66858  0.038250575  0.039447435            4 
  375000    1.1846498   -6.3362855    171.94214  0.038209365  0.039440037            5 
  376000    1.1953851   -6.3877863    171.96216   0.03811218  0.039431649            3 
  377000    1.1836411    -6.405819    171.35685  0.037877288   0.03942289            8 
  378000    1.1752918   -6.3571651    171.91544   0.03790023  0.039413373            2 
  379000    1.1891047   -6.2838943    174.00528  0.038259735  0.039405504            3 
  380000    1.1862479   -6.3524039    173.27669  0.037999273  0.039396891            2 
  381000    1.1937717    -6.361089    173.96758  0.038050651  0.039387754            2 
  382000    1.1894133   -6.3349042    173.68178  0.037888695  0.039376937            2 
  383000    1.1970535   -6.3759326    174.00888   0.03786094  0.039365384            6 
  384000    1.2026975   -6.3463261    174.26975  0.037818956  0.039354374            4 
  385000    1.2216771   -6.3791977    174.32745  0.037733214  0.039342446            2 
  386000    1.1824667   -6.3257887    175.19881  0.037823577  0.039330445            3 
  387000    1.1908657   -6.3460852    175.14958   0.03771524  0.039318414            5 
  388000     1.168621   -6.3180877    176.66815   0.03794419  0.039306485            2 
  389000    1.1728921   -6.3165505    176.71777  0.037857277  0.039294904            3 
  390000    1.2072226   -6.3356092    176.79589  0.037776899  0.039283439            4 
  391000    1.2006499   -6.3408835     177.0432  0.037732993  0.039271745            3 
  392000    1.2099215   -6.3360911    177.33652   0.03769909  0.039260724            5 
  393000    1.1807362   -6.3483608    178.38036  0.037824503  0.039249415            4 
  394000    1.1819866   -6.3923651    177.95269  0.037638048  0.039236252            2 
  395000    1.1805536   -6.3999644    178.82292  0.037726354  0.039223439            5 
  396000    1.1981593   -6.3802432     179.3771  0.037747707  0.039210911            2 
  397000    1.1844662   -6.3625107    179.52444  0.037683551  0.039197298            1 
  398000    1.1945623   -6.3705088    178.82383  0.037442176  0.039182469            2 
  399000    1.1893552   -6.3462319    179.82559  0.037557559  0.039167631            6 
  400000    1.2165049   -6.3607022    180.29259  0.037560957  0.039152313            2 
  401000    1.1882926   -6.3171564     181.6441  0.037748151  0.039137852            2 
  402000    1.1999937   -6.3680545    181.03905  0.037528825  0.039124408            2 
  403000    1.1897862   -6.2998221    181.96744  0.037627676  0.039110705            1 
  404000     1.185733   -6.3110742    181.73999  0.037487622  0.039096287            1 
  405000    1.2030891   -6.3392272    182.45968  0.037543143  0.039082758            5 
  406000    1.2041385   -6.3526693     182.1419  0.037385447  0.039068075            5 
  407000    1.1882855   -6.3447044    182.88613  0.037445973   0.03905205            2 
  408000     1.177253    -6.307823    184.16166  0.037614719  0.039037361            4 
  409000    1.2270125   -6.3077024    183.18529  0.037323815  0.039021393            3 
  410000    1.1683517   -6.3699474    183.59096  0.037315237  0.039004855            5 
  411000    1.1842776   -6.3470245    183.53376  0.037212847   0.03898802            1 
  412000    1.1952048   -6.3526943    184.39262  0.037296242  0.038971434            6 
  413000    1.1794189   -6.3263604    184.49575  0.037226745  0.038953772            4 
  414000    1.1737374   -6.3207389    185.57232  0.037353526  0.038936542            3 
  415000     1.185309   -6.3406129    185.11374  0.037171434  0.038919662            2 
  416000    1.2112438   -6.3321353    185.56016  0.037171507  0.038901625            2 
  417000    1.1736797   -6.3553647    186.51952  0.037274085  0.038884153            2 
  418000    1.1894953   -6.3303583    186.54665  0.037190321  0.038867068            2 
  419000    1.2175171   -6.3174457      187.395  0.037270286  0.038849552            2 
  420000    1.2125099    -6.318454    187.02404  0.037107945  0.038832511            4 
  421000    1.1409759   -6.3297006    187.55229  0.037124365  0.038814139            2 
  422000    1.2033507   -6.3560191    186.88193  0.036904015  0.038795248            2 
  423000    1.2112352   -6.3648392      187.787  0.036995075  0.038775615            2 
  424000    1.2088853   -6.3497551    188.43281   0.03703475  0.038756446            4 
  425000    1.1813265   -6.3316346    189.61224   0.03717887  0.038737816            2 
  426000    1.1817056   -6.3784806    188.49132  0.036872324  0.038718754            3 
  427000    1.1574682   -6.3513479    188.81848  0.036849821   0.03869941            3 
  428000    1.2119783   -6.4085153    190.08654  0.037010619  0.038680408            2 
  429000    1.1657773   -6.3386002    190.87719  0.037077931  0.038662506            3 
  430000    1.1727088   -6.3405598    191.71417  0.037153908  0.038644968            3 
  431000    1.1793042   -6.3687328    192.10071  0.037142442  0.038627757            2 
  432000    1.1638721   -6.3725675    192.01475  0.037039883  0.038610575            3 
  433000    1.1957626   -6.3455285     192.1812  0.036986374  0.038593056            2 
  434000    1.1665215   -6.3966951    192.31846  0.036927508  0.038577271            2 
  435000    1.1904154   -6.3603522    192.72728  0.036920934  0.038560831            2 
  436000    1.1981924   -6.3552916    194.41751  0.037159309  0.038544837            3 
  437000    1.1999274   -6.3588273    193.95062  0.036985244  0.038529077            3 
  438000    1.1573202   -6.3551592    193.62015  0.036837928  0.038512319            3 
  439000    1.1689708    -6.366012    193.77136  0.036782718    0.0384949            1 
  440000    1.2162772   -6.3488171    194.71948   0.03687869  0.038477238            1 
  441000    1.1877227   -6.3740614    194.67547  0.036786748  0.038459791            3 
  442000    1.1891508   -6.3945828    194.74613  0.036716843  0.038441985            3 
  443000    1.1547506   -6.3648736    196.06148  0.036881392  0.038423455            3 
  444000    1.1754575   -6.3702056    196.21187  0.036826553   0.03840572            3 
  445000    1.1898599   -6.3998603    196.70588  0.036836307  0.038388173            4 
  446000    1.1761433   -6.3688685    197.01756   0.03681195   0.03837122            3 
  447000    1.1811937   -6.3614821    197.64362  0.036846312    0.0383542            2 
  448000     1.196499   -6.3458453    198.14006   0.03685641  0.038338219            5 
  449000    1.1782652   -6.4121377    198.19689  0.036784872  0.038321377            2 
  450000    1.2050867   -6.3396611    198.66913  0.036790579  0.038305111            2 
  451000    1.1833127   -6.3404469    199.36082  0.036836812  0.038288638            2 
  452000    1.1894615   -6.3288957    199.67481  0.036813202  0.038272113            4 
  453000    1.1859661    -6.393769    199.73447  0.036742912  0.038255037            5 
  454000    1.1832106   -6.3577855    200.25313  0.036757183  0.038237945            3 
  455000    1.1895958   -6.3871265    200.52428  0.036726058  0.038221451            1 
  456000    1.1911875   -6.3736872    200.75248  0.036687223  0.038205126            3 
  457000    1.1668293   -6.3719379    201.06174  0.036663338  0.038187975            5 
  458000    1.1689592   -6.3521552    201.17777  0.036604398  0.038169534            2 
  459000    1.1678878   -6.3347111    201.75739  0.036629881  0.038153063           10 
  460000     1.207992   -6.3301884    202.44524  0.036674861  0.038136072            2 
  461000    1.1991566   -6.3863927    201.23308  0.036376189  0.038116816            2 
  462000      1.17299   -6.3711417    201.59543  0.036362812  0.038097194            4 
  463000    1.1855696   -6.4039257    202.26238  0.036404316  0.038077939            4 
  464000    1.1745784   -6.3438723    203.12949   0.03648159  0.038059123            1 
  465000    1.1966968   -6.4098681    202.92679  0.036366808  0.038040291            2 
  466000    1.1911289   -6.4258529    202.84264   0.03627372  0.038020777            2 
  467000    1.2087982   -6.3095908    205.08805  0.036596726  0.038002193            2 
  468000    1.1692487   -6.3332221     205.6279  0.036614655  0.037984888            3 
  469000    1.1831057   -6.3403441    204.93702  0.036413828  0.037966566            2 
  470000    1.1689103   -6.3269804    205.86577  0.036501022  0.037948356            8 
  471000    1.1726168   -6.4024537    204.97032  0.036265095  0.037929818            2 
  472000     1.165157   -6.3816697    206.15695  0.036397766  0.037911402            2 
  473000    1.1881244   -6.3868435    207.03803  0.036476044  0.037893431            3 
  474000    1.1784156   -6.4076469    206.64641   0.03633024  0.037876063            6 
  475000    1.1743606   -6.3742759    207.35952  0.036378864  0.037859332            2 
  476000    1.1821739   -6.3644504    208.33881  0.036473881  0.037841931            4 
  477000    1.1841683   -6.3303708    209.30015  0.036565365  0.037826552            3 
  478000    1.1570849   -6.4011752    208.72986  0.036389446  0.037810721            3 
  479000    1.1899644   -6.3938254    209.15272  0.036387043  0.037794698            4 
  480000    1.1783255   -6.3761057    210.13972   0.03648259  0.037778612            3 
  481000    1.1509059     -6.33844    211.17532  0.036586161  0.037763098            2 
  482000    1.1767183   -6.3424875    211.09852  0.036496977  0.037747072            2 
  483000    1.1923176   -6.3850435    210.74736  0.036360828  0.037730838            4 
  484000    1.1758084   -6.3900938    210.81315  0.036297031  0.037715008            7 
  485000    1.1796493   -6.3883164    212.35629  0.036487334  0.037699914            2 
  486000     1.149165   -6.3451271    212.49461  0.036435976  0.037684712            3 
  487000    1.1416989   -6.3527637     213.5372  0.036539561   0.03766926            3 
  488000    1.1862859   -6.3792926    213.46629  0.036452576  0.037653518            2 
  489000    1.1879729   -6.3543842    213.03979   0.03630535  0.037638105            2 
  490000    1.1849006   -6.3844012    213.86483   0.03637157  0.037622771            2 
  491000    1.1909187   -6.3791631    214.27702  0.036367451  0.037606989            3 
  492000    1.1928181   -6.4160791    213.80923  0.036214301  0.037591243            5 
  493000    1.1659433   -6.3554108    214.53639  0.036263757  0.037575863            3 
  494000    1.1802594   -6.3897046    215.01691  0.036271409  0.037560168            1 
  495000    1.1881625   -6.4025124    215.28268  0.036242875  0.037543884            5 
  496000    1.1877953   -6.3987399    216.08548  0.036304685  0.037528423            3 
  497000    1.1619191   -6.3976971     216.2501  0.036259238  0.037513004            3 
  498000    1.1693443   -6.3863333    217.01667  0.036314704   0.03749788            3 
  499000    1.2032229   -6.3961313    216.68153   0.03618596  0.037482674            3 
  500000    1.1749895   -6.3481817    217.79082   0.03629847  0.037467123            2 
  501000    1.1643071   -6.3646422    217.99329  0.036259695  0.037451698            3 
  502000    1.1839145   -6.3722976    218.33844  0.036244761  0.037436245            4 
  503000      1.19591    -6.354068    219.37797  0.036344926  0.037421331            2 
  504000    1.1608032   -6.3888933    219.90739  0.036360348  0.037406625            2 
  505000    1.1890329   -6.3981907    220.09541  0.036319375  0.037393282            2 
  506000    1.1744204   -6.4091233    219.74974  0.036190668  0.037380203            2 
  507000    1.1519047   -6.3887746    220.56341  0.036253026  0.037366422            3 
  508000    1.1974478   -6.3847924    221.22093  0.036289523  0.037352786            5 
  509000     1.179331   -6.3614968    222.95593   0.03650228  0.037339297            4 
  510000    1.1793993   -6.3867795     221.9553  0.036267206  0.037326876            6 
  511000    1.1632082   -6.3792944    222.70503  0.036318498    0.0373134            4 
  512000    1.1826891   -6.3713001    223.77048  0.036420977  0.037300521            2 
  513000    1.1815181   -6.3887327    223.65428  0.036331105  0.037287165            2 
  514000    1.1958296   -6.4294706    224.00475  0.036317242  0.037273908            3 
  515000    1.1649596   -6.3511696    224.74518  0.036366533  0.037261572            2 
  516000    1.1650534   -6.4240581    224.62876  0.036277254  0.037248527            2 
  517000    1.1582645   -6.3650872    225.27606  0.036311422  0.037235819            2 
  518000    1.1851852   -6.3816712    224.98262  0.036194116  0.037222814            4 
  519000    1.1671364   -6.3745021    225.69143  0.036238187  0.037209928            2 
  520000     1.173534   -6.4178052    225.80402  0.036186542  0.037197395            2 
  521000    1.1708574   -6.4046869    225.96973   0.03614359  0.037183711            5 
  522000    1.1316662   -6.3581281    226.43504  0.036148634  0.037170318            1 
  523000    1.1815659   -6.3775901    227.12448  0.036189369  0.037156974            2 
  524000     1.160902   -6.4030423    227.07466  0.036112382    0.0371438            3 
  525000    1.1808626   -6.3366025     227.7227   0.03614646  0.037130757            3 
  526000    1.1948517   -6.4108026    227.56256   0.03605237  0.037117232            2 
  527000    1.1771056   -6.3822235    228.30786  0.036101812  0.037103601            2 
  528000    1.1404619   -6.3867218     228.6823  0.036092535   0.03709026            6 
  529000    1.1789712   -6.4251682    229.01972  0.036077461  0.037077175            3 
  530000    1.1992074   -6.3739692    229.03469  0.036011744  0.037064273            3 
  531000    1.1705503   -6.4047002    229.86431  0.036074123  0.037051909            3 
  532000    1.1499611   -6.4345094      230.249  0.036066573  0.037038942            4 
  533000    1.2066083   -6.3993557    230.63606  0.036059422  0.037026217            2 
  534000    1.1601534    -6.414121    230.49164  0.035969357  0.037013211            1 
  535000    1.1795555   -6.3506661    231.13488  0.036002317   0.03699969            3 
  536000    1.1605985   -6.3674444    231.87838  0.036050742  0.036986675            4 
  537000    1.1605898   -6.3455961    232.83848  0.036132601  0.036973931            4 
  538000    1.1892467   -6.3753398     232.4913  0.036011663  0.036961069            4 
  539000    1.1578655   -6.3927391    231.70439  0.035823189  0.036947328            2 
  540000     1.128423   -6.4033979    233.48002  0.036030867   0.03693369            2 
  541000    1.1682565   -6.4091222    233.71346  0.036000226   0.03692136            3 
  542000    1.1572004   -6.3824668     234.5237   0.03605838  0.036909173            2 
  543000    1.1767298   -6.3618104    233.73475  0.035870895  0.036896653            4 
  544000     1.156984   -6.3563574    234.84271   0.03597468  0.036883949            4 
  545000    1.1676978   -6.4071227    234.89474  0.035916626  0.036870983            2 
  546000    1.1620734   -6.4300075    234.75617  0.035829697  0.036858134            2 
  547000    1.1578117   -6.4295499    235.42164  0.035865576   0.03684503            2 
  548000    1.1379294   -6.3760484    236.06751  0.035898344  0.036832352            1 
  549000    1.1555161   -6.4238741    235.94632   0.03581456  0.036819066            2 
  550000    1.1751878   -6.3911361    236.59548    0.0358478  0.036805712            4 
  551000    1.1729306   -6.4213847     236.6473  0.035790577  0.036792427            1 
  552000    1.1828634   -6.3900423    237.89597  0.035914247  0.036778995            3 
  553000    1.1526394   -6.3765647    238.50566  0.035941179  0.036766015            3 
  554000    1.1515766   -6.3964998    238.52789  0.035879647  0.036752628            4 
  555000    1.1765542     -6.43224    238.70708  0.035841903  0.036740247            3 
  556000    1.1477106    -6.440531    239.50509  0.035897045  0.036727595            7 
  557000    1.1917206   -6.4117405    240.29858  0.035951314    0.0367149            5 
  558000    1.2000599   -6.4387061    239.46389   0.03576223  0.036702974            2 
  559000    1.1783336    -6.399681    240.55871  0.035861465  0.036690321            4 
  560000    1.1720244   -6.4055599    240.69915  0.035818325  0.036677572            4 
  561000    1.1650612   -6.3858246    241.24003  0.035834823  0.036665293            4 
  562000    1.1622324   -6.4370478    241.51429  0.035811727  0.036653376            2 
  563000    1.1499062   -6.3980956    242.87564  0.035949622  0.036642061            3 
  564000    1.2018938   -6.3877984    242.71112  0.035861572  0.036630865            1 
  565000    1.1490625   -6.3940105    242.59326  0.035780717  0.036619229            3 
  566000    1.1722858   -6.3783959    243.77375  0.035891306  0.036607841            4 
  567000     1.120028   -6.4476624    244.62766  0.035953507  0.036596671            4 
  568000    1.1562921   -6.4032351    244.77924  0.035912447  0.036585661            1 
  569000     1.149965   -6.4753623    244.12368  0.035753322  0.036574095            2 
  570000    1.1687943   -6.3960857    245.47663  0.035888396  0.036562696            3 
  571000    1.1772953   -6.4118716    245.57961  0.035840574  0.036552095            3 
  572000    1.1523508   -6.4085101    245.94625   0.03583133  0.036541084            2 
  573000    1.1961015   -6.3666202    247.26402  0.035960446  0.036531197            3 
  574000    1.1854104   -6.4037309    247.28528  0.035900882  0.036520775            2 
  575000    1.1821457   -6.3979967    247.38886  0.035853458  0.036510117            2 
  576000    1.1470712   -6.3968403    248.51121  0.035953589  0.036499237            4 
  577000    1.1523724    -6.383654    248.46816  0.035885061  0.036489715            3 
  578000     1.152851   -6.3884942     249.0926  0.035913004  0.036479562            3 
  579000    1.1697973    -6.384347    249.10669  0.035853006  0.036469661            6 
  580000    1.1771092   -6.3908351    248.93802  0.035766957  0.036460232            4 
  581000    1.1660962   -6.3908688    250.55691  0.035937595  0.036450566            8 
  582000    1.1601873   -6.3879934    250.75964  0.035904875  0.036440342            5 
  583000    1.1466575   -6.4547155     249.9711  0.035730574  0.036430571            3 
  584000    1.1530269     -6.41951    250.76814  0.035783125  0.036420724            5 
  585000    1.1631201   -6.4110579    251.64005   0.03584616  0.036410788            1 
  586000    1.1468842   -6.4314444    251.81284  0.035809561  0.036401543            3 
  587000    1.1643602   -6.4461715    251.82817  0.035750733  0.036392288            3 
  588000    1.1039081   -6.4241806     252.6638  0.035808362  0.036382413            5 
  589000    1.1570415   -6.3919076    253.54609  0.035872395  0.036373173            2 
  590000    1.1503751   -6.4543756    253.12186  0.035751675  0.036363487            3 
  591000    1.1329316    -6.418395    254.12434  0.035832536  0.036353102            2 
  592000    1.1585218   -6.4565906    253.41051  0.035671524  0.036343423            2 
  593000    1.1641696   -6.4194489     254.3911  0.035749171  0.036333418            2 
  594000    1.1628943   -6.4175781    254.71083  0.035733842  0.036323783            2 
  595000     1.182706   -6.4133672    255.60541  0.035799077  0.036314687            2 
  596000    1.1490216   -6.4216035    256.37668  0.035846852  0.036305638            2 
  597000    1.1572839   -6.4303928    257.03326  0.035878456  0.036296978            3 
  598000    1.1511009   -6.3989786    257.58848  0.035895831  0.036288917            5 
  599000    1.1217509   -6.4256526    256.92434  0.035743509  0.036280934            2 
  600000    1.1299622   -6.4348942    258.38826  0.035887259  0.036272571            1 
  601000    1.1436118   -6.4172719    258.20405  0.035802003  0.036263728            2 
  602000    1.1711979   -6.4391761    258.82856  0.035828981  0.036255162            4 
  603000    1.1802148   -6.4289195    259.33008  0.035838872  0.036246603            4 
  604000    1.1517426     -6.39593      259.775  0.035840922  0.036237832            2 
  605000    1.1619985   -6.4133445    259.69552  0.035770733  0.036229139            3 
  606000    1.1850191     -6.39815    260.99875  0.035890917  0.036220117            4 
  607000    1.1467567   -6.4423557    259.88193  0.035678464  0.036211448            3 
  608000    1.1830168   -6.4314545    259.80165  0.035608779  0.036202093            3 
  609000    1.1351333   -6.3913947    260.74237  0.035679033  0.036192565            4 
  610000    1.1503238   -6.3991864    262.07891   0.03580313  0.036183708            3 
  611000    1.1529037   -6.4005644    262.28089   0.03577208  0.036175274            3 
  612000    1.1543237   -6.4078771    262.02608  0.035678933  0.036167008            3 
  613000    1.1660783   -6.4412535    263.12577  0.035770225  0.036158626            5 
  614000    1.1812608    -6.403173    263.41261  0.035750897  0.036150294            4 
  615000    1.1577566   -6.4711845    264.07165  0.035782066  0.036142419            3 
  616000    1.1662653   -6.4850309    263.61469  0.035662161  0.036134051            4 
  617000    1.1909627   -6.4329805    264.89842  0.035777744  0.036125665            3 
  618000    1.1328313   -6.3817982    265.71523  0.035829994   0.03611804            2 
  619000    1.1378656   -6.4618764    265.67358  0.035766502  0.036110778            7 
  620000    1.1632904    -6.411861    266.33007  0.035797053  0.036103036            3 
  621000    1.1427168   -6.4224528    266.54653  0.035768455  0.036095949            2 
  622000    1.1577639   -6.3977974     267.6106   0.03585351  0.036089015            4 
  623000    1.1562448   -6.4381949    266.54215  0.035653043   0.03608124            5 
  624000    1.1558065   -6.4440846    267.63514  0.035741873  0.036073496           13 
  625000    1.1563276   -6.4254477    267.41295   0.03565506  0.036065992            3 
  626000    1.1406441   -6.4210556    268.36682  0.035725083  0.036058627            4 
  627000    1.1547287   -6.4124222    268.77279  0.035722061   0.03605162            3 
  628000    1.1531555   -6.4178125     269.0634  0.035703742  0.036044875            2 
  629000    1.1337727   -6.4149632    269.59351  0.035717211  0.036037736            1 
  630000    1.1537165   -6.4445987     270.4696  0.035776402  0.036031153            4 
  631000    1.1630207   -6.4270409    270.09899  0.035670759  0.036024263            1 
  632000    1.1339195   -6.4108477    271.90594  0.035852577  0.036017337            2 
  633000    1.1554415    -6.398316    271.49738  0.035742151    0.0360102            2 
  634000     1.151148   -6.3992552    271.83319  0.035729915  0.036002716            5 
  635000     1.141773   -6.4196951    271.62328    0.0356461  0.035995352            3 
  636000    1.1268519    -6.468546    271.12965  0.035525374  0.035987417            3 
  637000    1.1504219   -6.4903433    271.31774   0.03549421  0.035978872            3 
  638000    1.1531139   -6.4160613    272.77552  0.035628986  0.035970412            6 
  639000    1.1309345   -6.4699144    272.60265  0.035550685  0.035961871            2 
  640000      1.15529   -6.4269338    273.02827  0.035550556  0.035953407            4 
  641000    1.1520603   -6.4139992    273.99807  0.035621174  0.035945179            7 
  642000    1.1291112   -6.4218772    274.64771  0.035650014  0.035937002            4 
  643000     1.142584   -6.3967124    275.15181  0.035659903  0.035929337            4 
  644000    1.1512443   -6.4238052     274.7255  0.035549365  0.035921328            2 
  645000    1.1640851    -6.429783     275.3878   0.03557982  0.035913366            4 
  646000    1.1492595   -6.4118953    275.93306   0.03559508  0.035905083            3 
  647000    1.1277367   -6.4180154    274.82747  0.035397665  0.035896433            3 
  648000     1.124329   -6.4286888    274.78536  0.035337624  0.035887419           12 
  649000    1.1775614   -6.4216474    275.06707  0.035319346  0.035878132            1 
  650000    1.1209738   -6.3979357    277.29849  0.035551089  0.035869227            3 
  651000    1.1480527   -6.4388955    276.57127  0.035403388  0.035860624            4 
  652000    1.1651885   -6.4753365    275.44094  0.035204619  0.035851489            2 
  653000    1.1311293   -6.4344662    276.92261  0.035339792  0.035842464            2 
  654000    1.1512975   -6.4524168    277.87456  0.035407054  0.035833471            3 
  655000    1.1154215   -6.4569144    277.78839  0.035342034  0.035824208            3 
  656000    1.1473909   -6.4100223    277.88292  0.035300168  0.035815122            4 
  657000    1.1300286    -6.448211    279.47544  0.035448433  0.035806285            3 
  658000    1.1605935   -6.4732818    278.77882  0.035306335  0.035797509            1 
  659000    1.1417794    -6.454056    279.48845  0.035342495  0.035788677            2 
  660000    1.1480006   -6.4278531    280.22267   0.03538165  0.035780282            3 
  661000    1.1334528   -6.4176006     281.4293  0.035480244  0.035771827            3 
  662000    1.1336148   -6.4280935    280.93671  0.035364642  0.035763473            8 
  663000    1.1305735   -6.4442872    282.83257  0.035549595  0.035756148            3 
  664000    1.1386988   -6.4201908    281.58698  0.035339732  0.035749182            2 
  665000    1.1356578   -6.4429543    282.77822  0.035435867  0.035741854            3 
  666000    1.1270184   -6.4723001     283.1066  0.035423749  0.035734547            5 
  667000    1.1477584   -6.4072626    283.81815  0.035459539  0.035727241            1 
  668000    1.1358062   -6.4575563    284.20597  0.035454836  0.035719931            6 
  669000     1.120477   -6.4723318    283.73187  0.035342784  0.035712674            2 
  670000    1.1476988   -6.4403092    284.32543   0.03536386  0.035704784            5 
  671000    1.1438949   -6.4187016    285.88302  0.035504598  0.035697408            3 
  672000    1.1495076   -6.4920164    285.29408   0.03537873  0.035689856            2 
  673000     1.161022   -6.5019229    285.61434  0.035365817  0.035682907            4 
  674000    1.1337273   -6.4765825    286.42791  0.035413935  0.035675692            2 
  675000    1.1335821   -6.4335151    286.78754  0.035405869  0.035669147            3 
  676000    1.1554823   -6.4504964    287.12129  0.035394636  0.035662028            2 
  677000    1.1317336   -6.4166506     287.6505  0.035407496  0.035655268            3 
  678000    1.1114452   -6.4586951    287.47097  0.035333207  0.035647542            2 
  679000    1.1326214   -6.4767579     287.5944  0.035296318  0.035640153            4 
  680000    1.1463708   -6.4879732    288.46594  0.035351219  0.035632871            4 
  681000    1.1367897     -6.45334    289.46071  0.035421036  0.035625807            2 
  682000    1.1421038   -6.4745022    289.78884  0.035409194  0.035618739            3 
  683000    1.1234649   -6.4397875    289.74251  0.035351698  0.035611426            4 
  684000    1.1336182   -6.4525946    290.52985  0.035395937  0.035604149            2 
  685000    1.1570941   -6.4729815    290.25106  0.035310348  0.035596966            1 
  686000    1.1513581   -6.4495908    290.82853  0.035329024  0.035589834            9 
  687000    1.1487078   -6.4503974    291.43453  0.035351107  0.035582554            4 
  688000    1.1354976   -6.4557357    291.69315   0.03533105  0.035575181            1 
  689000    1.1281401   -6.4785795    291.40228  0.035244591  0.035568219            6 
  690000    1.1159642   -6.4564922    292.51712  0.035328155  0.035561545            3 
  691000    1.1433545    -6.436197    293.36486  0.035379264  0.035554838            3 
  692000    1.1232033   -6.4171917    293.46323  0.035339984  0.035547645            2 
  693000    1.1472902   -6.4927685     293.9992   0.03535344  0.035540447            3 
  694000    1.1297252   -6.4598958    294.53619  0.035366977  0.035533192            4 
  695000    1.1303655   -6.4454751    294.64189  0.035328764  0.035525686            2 
  696000    1.1387341   -6.4918006    293.73695  0.035169654   0.03551806            3 
  697000    1.1458869   -6.5108581    294.97674  0.035267425   0.03551028            3 
  698000    1.1556289   -6.4581992    293.96561   0.03509618   0.03550227            5 
  699000    1.1177877   -6.4376229    294.57603  0.035118745  0.035494237            2 
  700000    1.1783806   -6.4446482    296.67496  0.035318448  0.035486905            2 
  701000     1.151478    -6.487007    294.99714  0.035068609  0.035479014            2 
  702000    1.1537385    -6.477128    295.44737    0.0350721  0.035470074            2 
  703000    1.1170106   -6.4516589    296.09934  0.035099495  0.035461245            2 
  704000    1.1178042   -6.4950247    294.40328  0.034848873  0.035452147            4 
  705000    1.1448981    -6.480408    295.27271  0.034902212  0.035442661            2 
  706000    1.1246175   -6.4844935    296.34071  0.034978837  0.035433034            3 
  707000    1.1705021   -6.4861547    296.58823  0.034958537  0.035423818            3 
  708000    1.1275613    -6.468288    297.61857  0.035030434  0.035414889            3 
  709000    1.1591249   -6.4983871    297.41154  0.034956693  0.035405824            6 
  710000    1.1383046    -6.458499     298.2285  0.035003345  0.035396817            5 
  711000    1.1410973   -6.5122689    297.80517  0.034904497  0.035387713            4 
  712000    1.1551595   -6.4459292    298.54013  0.034941495  0.035378379            2 
  713000    1.1539589   -6.4459429    298.61369  0.034901085  0.035369328            3 
  714000    1.0978272   -6.4483043    298.49147   0.03483794  0.035359698            2 
  715000    1.1258399   -6.4776045    299.25506  0.034878213  0.035350018            3 
  716000    1.1423908   -6.4631183    299.09219  0.034810543  0.035340386            2 
  717000    1.1432717   -6.4436607    300.38917  0.034912735  0.035330758            3 
  718000    1.1073489   -6.4713743     300.7457   0.03490549  0.035321803            3 
  719000    1.1222968   -6.4936504    301.10977  0.034899138  0.035312571            3 
  720000    1.1356428   -6.4949089    301.70426  0.034919475  0.035303596            3 
  721000    1.1354638   -6.4324612     302.5054  0.034963639  0.035294871            3 
  722000    1.1148994   -6.4411418    303.50127  0.035030155  0.035286322            4 
  723000    1.1333874   -6.4399224    303.36951  0.034966518  0.035277804            5 
  724000    1.1365666   -6.4892792    302.73413  0.034845088     0.035269            9 
  725000    1.1354123   -6.4492343    303.21411  0.034852196  0.035259851            2 
  726000    1.1342093    -6.503862    302.79348  0.034755909  0.035250613            2 
  727000    1.1297484   -6.4622582    304.37909  0.034889855  0.035242073            4 
  728000     1.112842   -6.4448686    305.51426  0.034971871  0.035233593            5 
  729000    1.1229323   -6.4827381    304.70584  0.034831486  0.035225343            4 
  730000     1.137259   -6.4522587    305.62691  0.034888916  0.035217052            3 
  731000    1.1369087   -6.4636873    305.78082  0.034858734  0.035208563            3 
  732000    1.1546363   -6.4889965    305.92352  0.034827359   0.03519997            4 
  733000      1.14143   -6.4556926    307.60125  0.034970584  0.035191486            1 
  734000    1.1177794    -6.454276    307.13681   0.03487021  0.035183199            3 
  735000    1.1153491   -6.5102958    306.40426  0.034739712   0.03517395            1 
  736000    1.1313768   -6.4795285    306.91144  0.034749937  0.035164979            1 
  737000     1.128629   -6.4454458      309.082  0.034948213   0.03515668            4 
  738000    1.1329543   -6.4718363    308.23863  0.034805626  0.035148657            3 
  739000    1.1486334   -6.4638699    308.13897   0.03474729  0.035140677            3 
  740000    1.1236585   -6.5289664    309.17405  0.034816897  0.035132929            2 
  741000    1.1268781   -6.4644164    309.52393  0.034809258  0.035124936            1 
  742000     1.122596   -6.4692006    309.43189  0.034752009  0.035117108            3 
  743000    1.1392997   -6.4788124    309.95426  0.034763824   0.03510898            4 
  744000    1.1459764   -6.4746409    310.25859  0.034751186  0.035100297            2 
  745000    1.1301124   -6.4649664    310.27597  0.034706485  0.035091851            2 
  746000    1.1303349   -6.4174525    311.45046  0.034791159  0.035083751            5 
  747000    1.1278488   -6.4673487    310.83738  0.034676192  0.035074997            2 
  748000    1.1302007   -6.4692694    311.22742  0.034673286  0.035066286            2 
  749000    1.1216663   -6.4912332    310.78665  0.034577954  0.035057498            3 
  750000    1.1232665   -6.4651148    312.45091  0.034716768   0.03504886            2 
  751000    1.1275192   -6.5190306    311.84259  0.034603039   0.03503973            4 
  752000    1.1318945   -6.4789302    312.46427  0.034625916  0.035030278            2 
  753000    1.1252744   -6.4665987    312.90633  0.034628854  0.035021336            2 
  754000    1.1452925   -6.5202966    312.03085  0.034486168  0.035012112            3 
  755000      1.10365   -6.4897573    312.87051  0.034533169  0.035002207            2 
  756000    1.1243868   -6.5081875    312.86179  0.034486528  0.034992629            3 
  757000    1.1254437   -6.5189847    312.69773  0.034422912  0.034982526            3 
  758000    1.1568141   -6.4833753    312.92603  0.034402597  0.034972817            2 
  759000    1.1356433   -6.4582455    315.27881  0.034615592  0.034963407            2 
  760000    1.1342305    -6.490517    312.89448  0.034308606  0.034953911            2 
  761000    1.1273554    -6.500555    314.20445   0.03440697  0.034943891            5 
  762000    1.1427238   -6.4937982    314.72448  0.034418687  0.034933913            3 
  763000    1.1032673   -6.4780535    315.71513  0.034481775  0.034923736            4 
  764000    1.1244098   -6.5067756    315.56674  0.034420456  0.034913534            2 
  765000    1.1527689    -6.499128     316.7992  0.034509717  0.034903645            3 
  766000    1.1302611   -6.5035638    315.76617  0.034352282   0.03489365            5 
  767000    1.1015551   -6.4837857    315.54394  0.034283349  0.034884241            3 
  768000    1.1198317   -6.4477141    317.58131  0.034459778  0.034874666            6 
  769000    1.1330273   -6.4696192    318.11824  0.034473152  0.034865067            3 
  770000    1.1587665   -6.4809236    318.01812  0.034417545  0.034855343            4 
  771000    1.1477021   -6.4838531    318.18424   0.03439086  0.034845762            3 
  772000    1.1339325   -6.4777637    318.91049  0.034424707  0.034836332            2 
  773000    1.1304441   -6.4750653    317.62852  0.034241971   0.03482664            7 
  774000    1.1351877   -6.4670119    320.15787  0.034470055  0.034817004            4 
  775000    1.1253265   -6.4491283    320.51842  0.034464346  0.034807733            3 
  776000    1.1244372   -6.4676802    319.91769  0.034355422   0.03479882            3 
  777000    1.1330355   -6.5157157    319.65422   0.03428295  0.034789517            3 
  778000    1.1590276   -6.4953653     319.5625   0.03422906  0.034779757            3 
  779000     1.105173   -6.4868506    320.55394  0.034291179  0.034770005            4 
  780000    1.1465567   -6.4844196    320.65509  0.034258023   0.03476016            3 
  781000    1.1101472    -6.503362    321.75837  0.034331878  0.034750746            3 
  782000    1.0844781   -6.5032864       321.85  0.034297741  0.034741582            4 
  783000    1.1218933   -6.5263849    322.25286  0.034296814  0.034731614            5 
  784000    1.1175466   -6.4510471    323.20487  0.034354259  0.034721701            4 
  785000     1.140157   -6.4367579    322.74174  0.034261332  0.034712497            5 
  786000    1.1558887   -6.5111216    321.88684  0.034127103  0.034702393            6 
  787000    1.1353131   -6.5060939    322.05446  0.034101489  0.034692432            4 
  788000    1.1307824   -6.5506738    323.04023   0.03416246  0.034682432            5 
  789000    1.1287192   -6.5168333    322.92366   0.03410685  0.034672166            3 
  790000    1.1344324    -6.520249    322.52732   0.03402187  0.034661658            2 
  791000    1.1238266   -6.4624842    323.36105  0.034066693   0.03465109            2 
  792000    1.1483091    -6.492626    323.52935  0.034041388  0.034641046            4 
  793000    1.1257614   -6.5195214    323.94164  0.034041787  0.034630644            4 
  794000    1.1195278   -6.5148547    324.19755  0.034025772  0.034620499            3 
  795000    1.1246406   -6.4833023    325.29737  0.034098257  0.034610355            4 
  796000    1.1475022   -6.4702406    326.23078  0.034153138  0.034599806            2 
  797000    1.1318938   -6.4510107    326.63564  0.034152618  0.034589666            3 
  798000    1.1247516   -6.4805178    326.36116  0.034081157  0.034579476            4 
  799000    1.1426667   -6.5352158    326.80794  0.034085101  0.034568971            6 
  800000     1.107264    -6.510637     327.1476  0.034077875  0.034558373            4 
  801000     1.145593   -6.5077273    327.07964  0.034028261  0.034547799            6 
  802000    1.1043791   -6.4661852    326.58346  0.033934275  0.034537116            4 
  803000    1.1141414    -6.468284     329.0791  0.034151006  0.034526234            2 
  804000    1.1336893   -6.5315452    327.57149  0.033952269  0.034515582            3 
  805000    1.1441021   -6.5081095    327.70755  0.033924177   0.03450511            3 
  806000    1.1189245   -6.4977503    327.84408  0.033896204  0.034494107            2 
  807000     1.131622   -6.5208605    328.86308  0.033959425  0.034483488            2 
  808000    1.1146985   -6.4271363    330.29868  0.034065458  0.034472947            8 
  809000    1.1049151    -6.432038      331.014  0.034097034  0.034462509            2 
  810000    1.1187859   -6.5213962    329.26857  0.033875367  0.034451915            3 
  811000    1.1168355   -6.5034367    330.60999  0.033971434  0.034441709            2 
  812000    1.1135794   -6.4936807    331.17698  0.033987786  0.034431296            3 
  813000    1.1179147   -6.5212881    330.92533  0.033920186  0.034420852            5 
  814000     1.119876   -6.5132523    331.78104  0.033966118  0.034410515            2 
  815000    1.1135707   -6.5480193    331.05938  0.033850652   0.03440031            3 
  816000    1.1426568   -6.5008853    332.01032  0.033906283  0.034389963            3 
  817000    1.1262741   -6.4800625    331.96879  0.033860546  0.034379761            4 
  818000    1.1182243   -6.5011999    332.14629  0.033837234  0.034369785            3 
  819000     1.118843   -6.5508444    331.96491  0.033777463   0.03435966            2 
  820000    1.1280084   -6.5051768    333.71925  0.033914557  0.034349414            5 
  821000    1.1075243   -6.5033081    334.32768  0.033935006  0.034339415            6 
  822000    1.1083116   -6.4920271    334.25153  0.033886002  0.034329715            6 
  823000    1.1324117   -6.4943922    334.34746  0.033854542  0.034320311            4 
  824000    1.1326232   -6.4892627    335.66665   0.03394687  0.034310763            3 
  825000    1.1337835    -6.482167    336.38887  0.033978674  0.034301025            9 
  826000    1.1265435   -6.5279101    335.74793  0.033872874  0.034291186            3 
  827000    1.1334946   -6.4968867    335.67868  0.033824937  0.034281231            2 
  828000    1.1305006    -6.491519    337.02325  0.033919409  0.034271232            2 
  829000    1.1079536   -6.4925821    337.02439  0.033878608  0.034261696            4 
  830000    1.1285391   -6.5488248      336.912  0.033826506  0.034251961            3 
  831000    1.1251445   -6.5177834    337.61986  0.033856785  0.034242283            3 
  832000    1.1166216   -6.5029706    336.61252  0.033715197  0.034232871            3 
  833000    1.1217942   -6.5492582    337.26754   0.03374025  0.034223463            3 
  834000    1.1449243   -6.4915992    337.53555  0.033726574  0.034213856            3 
  835000     1.127738   -6.5069412    339.15802  0.033848106  0.034204475            2 
  836000    1.1203423   -6.5278971     338.6569  0.033757666  0.034194747            2 
  837000    1.1166506   -6.5037504    339.58595  0.033809831  0.034184977            3 
  838000    1.1249987   -6.4902636    339.32937  0.033743971  0.034175035            2 
  839000    1.0981137   -6.5036908    339.85359  0.033755819  0.034165331            2 
  840000    1.1117141    -6.541363    338.70345  0.033601533  0.034155489            3 
  841000     1.097887   -6.5444299    339.48239  0.033638762  0.034145275            2 
  842000    1.0816556   -6.5118947    340.84427  0.033733597  0.034135741            3 
  843000    1.1102386   -6.5491622    339.65811  0.033576326  0.034126123            2 
  844000    1.1328153   -6.5330964    340.99729  0.033668769  0.034115824            4 
  845000     1.124313   -6.5131827    341.04314  0.033633446  0.034106003            2 
  846000    1.0887537   -6.5300618     340.5491  0.033545026  0.034095905            8 
  847000    1.1033542   -6.5236125    341.95426   0.03364367  0.034085724            3 
  848000    1.1138321   -6.4950124     342.1108  0.033619379  0.034075701            5 
  849000    1.0958128   -6.4798586    342.90974    0.0336582  0.034066136            4 
  850000    1.1149253   -6.5324962    342.52137  0.033580527  0.034056443            7 
  851000    1.1440897   -6.4621162    344.59601  0.033744223  0.034046818            3 
  852000    1.1015076   -6.4867838     343.5803  0.033605272  0.034037207            3 
  853000    1.1152065   -6.5471275    342.97316  0.033506561   0.03402703            3 
  854000    1.1017672   -6.5359619    344.10254  0.033577531  0.034017039            2 
  855000    1.1168658    -6.544538    344.08198  0.033536256  0.034006767            3 
  856000    1.0887736     -6.48635    343.64839  0.033454867  0.033996864            3 
  857000    1.1129665   -6.4933921    345.32391  0.033578754  0.033986908            6 
  858000    1.1170685   -6.5076391    345.83825  0.033589574  0.033976953            3 
  859000    1.1307151   -6.5260898    345.48625  0.033516322  0.033966722            2 
  860000    1.1330787   -6.5818362     345.1165  0.033441522  0.033955984            4 
  861000    1.1128723    -6.521798    346.18406  0.033506007  0.033945447            4 
  862000    1.1099698   -6.5067908    346.03108  0.033452347  0.033934949            2 
  863000    1.1298896   -6.5109396    346.28375  0.033437983  0.033924264            3 
  864000    1.1149088   -6.5573222    344.73322  0.033249732   0.03391325            4 
  865000    1.1012631   -6.4974264    346.35196  0.033367241  0.033902143            7 
  866000    1.1206394   -6.5607151    345.41961  0.033238993  0.033891197            2 
  867000    1.1042628   -6.5184749    346.38024  0.033292987  0.033880026            1 
  868000    1.1237035   -6.5485042    346.52273  0.033268312  0.033868752            3 
  869000    1.1092289   -6.5232152    346.68308  0.033245404  0.033857507            2 
  870000    1.1498227   -6.5085418    347.03725  0.033241116  0.033846289            3 
  871000    1.1103165   -6.5418229    346.80685  0.033180908  0.033835004            2 
  872000    1.1321149   -6.5457151    347.73001  0.033231079  0.033823569            5 
  873000     1.115025   -6.5164477    348.23592  0.033241306  0.033812186            2 
  874000    1.1301094   -6.5440735    347.41295  0.033124804  0.033800912            3 
  875000    1.0953705   -6.5722812    346.36565  0.032987204   0.03378922            4 
  876000    1.0885114   -6.5222481     347.7805  0.033084141  0.033777665            2 
  877000     1.104852   -6.6040988    348.26899  0.033092834  0.033766184            4 
  878000    1.1050553   -6.5175207    349.60378  0.033181832  0.033754549            4 
  879000     1.087641   -6.4956497    350.21578  0.033202103   0.03374369            2 
  880000    1.1083037   -6.5033572    349.86784  0.033131425  0.033732768            6 
  881000     1.129627   -6.5395111    350.57256  0.033160477  0.033721876            3 
  882000    1.1146182   -6.5673576    349.76232  0.033046327  0.033710753            5 
  883000    1.1219986   -6.5442411    350.83537  0.033110171  0.033699649            2 
  884000    1.1055411   -6.5985479    350.00942  0.032994855  0.033688211            3 
  885000    1.0971418   -6.5791224    350.09345  0.032965485  0.033676721            2 
  886000    1.0959981    -6.560698    351.33955   0.03304548  0.033665135            3 
  887000    1.1150054   -6.5209542    351.63908  0.033036366  0.033653661            2 
  888000    1.0855605   -6.5153115     352.1902  0.033050882  0.033642586            3 
  889000    1.1053308   -6.5349533    351.77382  0.032974674  0.033631136            3 
  890000    1.1630145   -6.4982791     352.9037  0.033043417  0.033620215            2 
  891000    1.1004865   -6.5087121    353.72025  0.033082702   0.03360906            2 
  892000    1.1002431   -6.5615433    351.29117  0.032818682  0.033597391            2 
  893000    1.1293822   -6.5442999     353.2772  0.032967264  0.033585502            1 
  894000    1.1036009   -6.5396273     353.0313  0.032907466   0.03357386            2 
  895000    1.1000248   -6.5159211    353.66231  0.032929451  0.033562107            4 
  896000    1.0790346    -6.532492    353.36912  0.032865431  0.033550687            2 
  897000    1.1049833   -6.5220647    353.88325  0.032876556  0.033538739            3 
  898000    1.1353274   -6.5259485      352.941  0.032752506  0.033526773            4 
  899000    1.0959145   -6.5642857     353.5134  0.032769132  0.033514447            3 
  900000    1.1263539   -6.5293173    353.78443  0.032757817  0.033502477            3 
  901000    1.1159808    -6.538588    354.89574  0.032824245  0.033490308            2 
  902000    1.0985026   -6.5559546    355.21808  0.032817635  0.033478601            4 
  903000    1.1107597   -6.5513226     355.9247  0.032846502  0.033467152            2 
  904000    1.1040329   -6.5178432    356.89297  0.032899425  0.033455757            2 
  905000    1.1159716   -6.5754149    355.49448  0.032734299  0.033444007            5 
  906000    1.0977556    -6.526656    357.01387   0.03283792  0.033432378            3 
  907000    1.1234331   -6.5003119    356.94855  0.032795714  0.033420997            5 
  908000    1.1032242   -6.5293819    357.69936  0.032828502  0.033410239            2 
  909000    1.1220276   -6.5527843    358.22554  0.032840625  0.033398804            8 
  910000    1.1331864   -6.5167163    358.49111  0.032828856  0.033387287            2 
  911000     1.094396   -6.5596945    357.18499  0.032673344  0.033376156            3 
  912000    1.0944279   -6.5719531    356.65771  0.032589337  0.033364332            3 
  913000    1.1104835   -6.4835155    359.03657  0.032770772  0.033353128            4 
  914000    1.0954197   -6.5332468    359.54936   0.03278167  0.033341961            3 
  915000    1.1244184   -6.5724896     358.8348  0.032680765  0.033330998            3 
  916000     1.089495   -6.5445781    359.65758   0.03271994  0.033319955            4 
  917000    1.1388409   -6.5373634    359.31236  0.032652887  0.033308668            5 
  918000    1.1186655   -6.5774198    359.67338  0.032650089  0.033297235            3 
  919000    1.1133123   -6.5535401    360.65825  0.032703868  0.033285989            2 
  920000    1.0898859    -6.540592    360.79764  0.032680945   0.03327433            4 
  921000    1.1123595   -6.5774331    361.01667   0.03266528  0.033262848            4 
  922000    1.1245821   -6.5324214    362.21335  0.032738011  0.033251788            2 
  923000    1.1159479   -6.5198351    362.73081  0.032749261  0.033241083            2 
  924000    1.1036051   -6.5144008    362.37467  0.032681699  0.033230367            6 
  925000    1.0990691   -6.5573288    362.20175  0.032630788  0.033219185            4 
  926000    1.0942393    -6.557463    362.78028  0.032647613  0.033207616            2 
  927000    1.1136003   -6.5494496    363.00131  0.032632264  0.033196126            3 
  928000    1.1043862   -6.5824772    362.89801  0.032587824   0.03318458            8 
  929000    1.0881604   -6.5899256    362.69059   0.03253414  0.033173553            6 
  930000    1.1117825   -6.5606154    363.27353  0.032551392  0.033162312            4 
  931000    1.1073073   -6.5397792    363.73795  0.032557998  0.033150976            4 
  932000    1.1069058   -6.5455006    363.46277  0.032498459  0.033139974            1 
  933000    1.1129626   -6.5004623    365.61548  0.032655902  0.033128912            2 
  934000    1.1169522   -6.6028705    362.54001  0.032346539  0.033117747            6 
  935000    1.1100988   -6.5446827    365.06624  0.032537098  0.033106397            2 
  936000    1.0901978   -6.5748201    366.16188  0.032599883  0.033095431            4 
  937000    1.1042065   -6.5664709    365.34179  0.032492155   0.03308434            2 
  938000    1.0894827    -6.553163    366.33779  0.032546001  0.033073386            4 
  939000    1.1000074   -6.5608244     366.4485  0.032521166  0.033062284            4 
  940000    1.0924863   -6.5376404    366.66183  0.032505482  0.033051269            5 
  941000    1.1003224   -6.5703985    366.89859  0.032491905  0.033039973            5 
  942000    1.0818911   -6.5683505    366.45937  0.032418557  0.033028415            4 
  943000    1.0961463    -6.552902    367.44161   0.03247098  0.033017238            6 
  944000    1.1143579   -6.5458598     367.5877  0.032449479  0.033005998            1 
  945000    1.0967423   -6.5266639    369.14751   0.03255269  0.032994808            4 
  946000    1.0948622   -6.5592829    367.47781  0.032371195  0.032983629            4 
  947000    1.0953857   -6.5578534    368.50283  0.032427211  0.032972206            4 
  948000    1.0990318   -6.5535197    369.37812  0.032469947  0.032961016            3 
  949000    1.1092423   -6.5242217    368.26982  0.032338411   0.03295002            3 
  950000    1.0947406   -6.5752494    368.25566  0.032303128  0.032938768            3 
  951000    1.1212198   -6.5107711    369.70166  0.032395869  0.032927757            5 
  952000    1.1126363   -6.5648376     370.1732  0.032403117  0.032916627            3 
  953000    1.0996622   -6.5618267    370.12984  0.032365323  0.032905681            3 
  954000    1.0998011   -6.5330353     371.9699   0.03249213  0.032894874            2 
  955000    1.0900874    -6.548691    372.20558  0.032478672  0.032883906            5 
  956000    1.1264266   -6.5634778    369.93597   0.03224686  0.032872894            6 
  957000    1.0948551   -6.5890386    370.57975  0.032269223  0.032861702            3 
  958000    1.0992303   -6.5408592    372.41671   0.03239533  0.032850754            2 
  959000    1.1016248   -6.5597978    372.13291  0.032336888  0.032839662            5 
  960000    1.1182351    -6.538432    372.16802  0.032306252  0.032828547            5 
  961000    1.0933807   -6.5891979     371.7271    0.0322344  0.032817252            3 
  962000    1.1088765   -6.5578654    373.20043   0.03232852  0.032805904            2 
  963000    1.1151315   -6.5518496    373.21201  0.032295951  0.032794631            2 
  964000     1.101879   -6.6088552    371.83302  0.032143242  0.032783332            2 
  965000    1.0803565   -6.5492591    374.00949  0.032297883  0.032772041            2 
  966000    1.1002569   -6.5198016    375.14396  0.032362316  0.032760945            1 
  967000    1.0861557   -6.5789894     373.7802  0.032211324  0.032749677            3 
  968000    1.1145627   -6.6037682    374.07314  0.032203266  0.032738786            2 
  969000    1.0748383   -6.5461613    374.59377  0.032214806  0.032727851            1 
  970000    1.0949887   -6.5804157    373.59389  0.032095695  0.032716499            4 
  971000    1.1193678   -6.5195622    375.82359  0.032253999  0.032705198            2 
  972000    1.1070145   -6.5853678    374.32392  0.032092243  0.032693607            4 
  973000    1.0993966   -6.5771071    374.54114  0.032077864  0.032681914            3 
  974000    1.1058774   -6.5596642     376.1998  0.032186841   0.03267046            2 
  975000    1.0963179   -6.5675259    375.85693  0.032124524  0.032658994            3 
  976000    1.1024797   -6.5820745      374.638  0.031987534   0.03264722            4 
  977000    1.1153547   -6.6006762    375.31841  0.032012829  0.032635546            5 
  978000    1.0974423    -6.616177    375.11257  0.031962557  0.032623793            3 
  979000    1.1374338   -6.5577767    376.72189  0.032066895  0.032612306            4 
  980000    1.0940127   -6.5732946    376.14145  0.031984817  0.032600855            6 
  981000     1.093031   -6.5906747    376.16775  0.031954447  0.032589238            2 
  982000    1.1122879   -6.6089179    376.55196  0.031954511  0.032577813            8 
  983000     1.107927   -6.5611286    377.32081  0.031987183  0.032566322            4 
  984000    1.1170403   -6.5482476    378.95007  0.032092655  0.032555082            5 
  985000    1.0986068    -6.592727    377.68148  0.031952747  0.032543887            2 
  986000     1.094508   -6.5804657    379.19498  0.032048257  0.032532704            2 
  987000    1.0771915   -6.5551698    380.14068  0.032095633  0.032521406            2 
  988000    1.1180613   -6.6106112    379.38964  0.031999801  0.032510315            4 
  989000    1.1012242   -6.5913409     380.0238   0.03202088  0.032499607            2 
  990000    1.0754127   -6.6159052     379.0316  0.031905017  0.032488778            3 
  991000    1.1170163   -6.5411756    381.86659  0.032111217  0.032477902            4 
  992000    1.0940621   -6.5592208     380.2973  0.031947018   0.03246709            3 
  993000    1.0877153   -6.6130578    380.02014  0.031891586  0.032455793            4 
  994000    1.0742131   -6.6129658    380.34537  0.031886768  0.032444605            4 
  995000    1.0905456   -6.6436308    380.07853  0.031832373  0.032433371            3 
  996000    1.0818311   -6.5825392    381.72235  0.031937947  0.032422342            5 
  997000    1.0862106   -6.5514146    383.37529  0.032044073  0.032411579            3 
  998000    1.0657333   -6.5651959    382.54381  0.031942536    0.0324008            4 
  999000    1.0795488   -6.5679761    382.39816  0.031898412  0.032389995            2 
 1000000    1.0909387   -6.6258065    382.06751   0.03183896  0.032379181            3 
 1001000    1.0849546   -6.5648485    383.69978  0.031943039   0.03236842            2 
 1002000    1.0855676   -6.5894356    383.59372  0.031902339  0.032357719            3 
 1003000     1.095547   -6.5406872    385.98092   0.03206887  0.032346864            3 
 1004000    1.1023656   -6.5487238    384.13944  0.031884083   0.03233608            4 
 1005000    1.0821702   -6.5801604    383.84441  0.031827895  0.032325249            3 
 1006000    1.0931119   -6.5851671    383.35029  0.031755325  0.032314363            3 
 1007000    1.0998497   -6.6041264    383.93066  0.031771819   0.03230339            4 
 1008000    1.1011753   -6.6155727    384.92346  0.031822376  0.032292222            6 
 1009000    1.0996126   -6.6023735    385.09321  0.031804857  0.032281216            3 
 1010000    1.0777673   -6.5846917    386.18395  0.031863362   0.03227026            2 
 1011000    1.0793709   -6.5612702    386.81783  0.031884094  0.032259787           13 
 1012000    1.0881151   -6.5326465    386.64114  0.031838039   0.03224909            3 
 1013000     1.085796   -6.5788131    387.97197  0.031916088  0.032238301            4 
 1014000    1.1023842   -6.6517819    385.85802  0.031710883   0.03222735            3 
 1015000    1.0678736   -6.5927096    386.44163  0.031727556  0.032216691            6 
 1016000    1.0805544   -6.5933503    386.86376  0.031730952  0.032205939            3 
 1017000    1.0715254   -6.6018236    386.98074  0.031709336  0.032195227            2 
 1018000    1.0781217   -6.5937493    387.99302  0.031761053  0.032184567            3 
 1019000    1.0968737   -6.5197441    389.60781   0.03186194  0.032173803            4 
 1020000    1.0833842   -6.5927445    387.67073  0.031672445   0.03216305            3 
 1021000    1.0984745   -6.5859615    389.91526  0.031824621  0.032152308            3 
 1022000    1.0803924   -6.5859487    389.03286  0.031721532  0.032141534            5 
 1023000    1.0755331   -6.6403136    387.80086  0.031590164  0.032130797            4 
 1024000    1.0778895    -6.555607     390.4291  0.031773201  0.032120222            3 
 1025000    1.0536445   -6.6020001    389.02179  0.031627788  0.032109398            2 
 1026000    1.1022787   -6.5732832    390.83023  0.031743846  0.032098384            2 
 1027000    1.0897642   -6.5707711    390.58391   0.03169295  0.032087759            2 
 1028000    1.0958461   -6.6119289    390.48215   0.03165387  0.032076935            3 
 1029000    1.1033527   -6.6053268    390.39433  0.031615997  0.032066349            4 
 1030000    1.1090477    -6.618948    391.03896  0.031637456  0.032055577            3 
 1031000    1.1164636   -6.5994219    391.22338  0.031621676   0.03204503            2 
 1032000    1.0725762   -6.5838521    392.01712  0.031655129  0.032034491            3 
 1033000    1.0735541   -6.6001274    392.26347  0.031644358  0.032024088            4 
 1034000    1.0824753    -6.619282    392.32122  0.031618409  0.032013603            4 
 1035000    1.0841329   -6.5980417    393.45293   0.03167898  0.032003124            6 
 1036000    1.1057042   -6.5814808    394.12009  0.031702067  0.031992755            4 
 1037000    1.0745118   -6.5956573    394.32011  0.031687569  0.031982654            2 
 1038000    1.0968022   -6.5967498    394.24742  0.031651205  0.031972558            3 
 1039000    1.0648637   -6.5808824    395.17086  0.031694807  0.031962536            4 
 1040000    1.0984844   -6.6105992    394.01747  0.031571913  0.031952342            7 
 1041000    1.0756055   -6.6320763     394.4771  0.031578378  0.031942301            6 
 1042000    1.1037402   -6.5750599    397.07685  0.031755986  0.031932299            3 
 1043000    1.0981472   -6.6204833    395.72725  0.031617709  0.031922456            2 
 1044000    1.0961328   -6.6212158    396.48067  0.031647563   0.03191266            3 
 1045000    1.0625557   -6.5726941    397.39822  0.031690448  0.031902856            3 
 1046000    1.1116454   -6.6319523    396.80992  0.031613283  0.031893151            5 
 1047000    1.0734671   -6.5845499    397.17801  0.031612386  0.031883289            3 
 1048000    1.0844628   -6.6093181    396.67193  0.031541979  0.031873726            2 
 1049000    1.1031183   -6.5967824    398.17408  0.031631242  0.031864143            2 
 1050000    1.0819911   -6.6297085    397.73637  0.031566378  0.031854414            3 
 1051000    1.0588683   -6.6389458    399.70773  0.031692652  0.031844779            2 
 1052000    1.1026778   -6.6008641    398.65372  0.031579033  0.031835229            1 
 1053000    1.0946384   -6.5747316    400.04869   0.03165944  0.031825784            5 
 1054000    1.1025788   -6.6144062    399.75916  0.031606512  0.031816151            3 
 1055000     1.090371   -6.6028336    400.70226  0.031651048  0.031806629            3 
 1056000    1.0881935   -6.5816093    401.44959  0.031680049  0.031797119            5 
 1057000    1.0506093   -6.6340781    399.66733  0.031509566   0.03178759            4 
 1058000    1.0796706   -6.6321207    400.61137  0.031554141  0.031778139            3 
 1059000    1.1017146   -6.6047154    401.15203  0.031566889  0.031768791            3 
 1060000    1.0776423   -6.5992264    401.87926  0.031594282  0.031759439            3 
 1061000    1.0781984   -6.6130041     401.7087  0.031551107   0.03175011            7 
 1062000    1.0624436   -6.6301736    403.64109   0.03167303  0.031740859            2 
 1063000    1.0771322   -6.5840387    404.01226  0.031672331  0.031731778            4 
 1064000    1.0662699   -6.6137331    403.14099  0.031574326  0.031722582            5 
 1065000    1.0861793   -6.5922702    403.49494  0.031572374  0.031713401            4 
 1066000    1.0921125   -6.5732842    404.68331  0.031635656  0.031704201            4 
 1067000    1.0841178   -6.5938093    403.90283   0.03154505  0.031694858            2 
 1068000    1.0787571   -6.5872376    404.06103  0.031527858  0.031685359            2 
 1069000    1.1011993    -6.606765    404.77719  0.031554193  0.031676189            2 
 1070000    1.0771891   -6.6034177    405.33842  0.031568413  0.031666953            3 
 1071000       1.0691   -6.5556298    405.11792  0.031521781  0.031657628            5 
 1072000    1.0826398   -6.6160205    403.30603  0.031351526  0.031647996            2 
 1073000    1.0752332   -6.6011796    405.12983  0.031463951  0.031638354            3 
 1074000    1.0967678   -6.6019395    403.59758  0.031315765  0.031628749            1 
 1075000    1.0624611   -6.6206228     402.4682  0.031199085  0.031618593            4 
 1076000    1.0728694   -6.6227446    403.71747  0.031266842  0.031608331            2 
 1077000    1.0725708   -6.6352324    402.97349  0.031180245   0.03159803            4 
 1078000    1.0751971   -6.6236406     406.4205  0.031417787  0.031587497            4 
 1079000    1.0922478   -6.6219047    405.44934  0.031313665  0.031577331            4 
 1080000    1.0927732   -6.6026502    404.05543  0.031177116  0.031567025            2 
 1081000    1.0652871   -6.6274952    404.12186  0.031153397   0.03155676            2 
 1082000    1.0889611   -6.6224454    404.98843  0.031191346  0.031546512            7 
 1083000    1.0694378   -6.6294912    404.66098  0.031137349  0.031536066            4 
 1084000    1.0901295   -6.6058202     404.4905  0.031095518  0.031525738            4 
 1085000    1.0862813   -6.6047647    406.30455  0.031206187  0.031515272            4 
 1086000      1.09511   -6.5879822    406.44993  0.031188607  0.031504822            3 
 1087000    1.0781638    -6.606027    406.53797  0.031166665  0.031494392            2 
 1088000    1.0777442   -6.6285646     406.0478  0.031100475  0.031484301            1 
 1089000    1.0581275   -6.6039582    407.75677  0.031202691  0.031474053            7 
 1090000    1.0705002   -6.6212902    407.95097  0.031188912  0.031463727            4 
 1091000    1.0962702   -6.6580084    408.30841  0.031187626  0.031453617            5 
 1092000    1.0779385   -6.5973096    407.92028  0.031129447  0.031443524            2 
 1093000    1.0805198   -6.6239159    408.32249  0.031131632  0.031433828            9 
 1094000    1.1054732   -6.6106443    408.67513  0.031130037  0.031424035            6 
 1095000     1.072576   -6.6318399    408.85269  0.031115121  0.031413951            3 
 1096000    1.0749441   -6.6567185    410.12164  0.031183215  0.031403934            3 
 1097000     1.090748   -6.6220048    408.76472  0.031051711  0.031393832            5 
 1098000     1.079331   -6.6229895    409.50609  0.031079697  0.031383883            3 
 1099000    1.0896148   -6.6544881    409.37424   0.03104142   0.03137379            5 
 1100000    1.0739028   -6.6364496    410.67938  0.031112074  0.031364087            2 
 1101000    1.0995453   -6.6206559    412.27636   0.03120469   0.03135434            3 
 1102000    1.0620951   -6.6487674    411.28036  0.031101055  0.031344581            4 
 1103000     1.084417   -6.6194246    412.04992     0.031131  0.031334597            4 
 1104000    1.0436599   -6.6568064    411.84666  0.031087459  0.031324693            2 
 1105000    1.0814467   -6.6133952    412.72318  0.031125428  0.031314806            2 
 1106000    1.0778763   -6.5915555    413.18379  0.031131991  0.031305054            2 
 1107000    1.1028733   -6.6268254    412.73299  0.031069933  0.031295522            3 
 1108000     1.068848   -6.5723196     414.8621  0.031202023   0.03128599            2 
 1109000    1.0874668   -6.6350104     413.6388  0.031081966  0.031276297            2 
 1110000    1.0565274    -6.633466    413.44361   0.03103931  0.031266652            4 
 1111000     1.096632   -6.6078951    414.02183  0.031054743  0.031256964            3 
 1112000    1.0666583    -6.646575    415.12881  0.031109773  0.031247344            5 
 1113000    1.0530303    -6.643699    414.49045  0.031034026  0.031237718            3 
 1114000    1.0866131   -6.6107002    414.40126  0.030999496  0.031228135            6 
 1115000    1.0796303    -6.614105    414.83319  0.031003975  0.031218681            1 
 1116000    1.0819343   -6.6405251    416.89333  0.031130028  0.031209356            4 
 1117000    1.0991685   -6.5824319    417.24617  0.031128482  0.031200036            5 
 1118000    1.0640756   -6.6370816    417.07825  0.031088122  0.031190691            3 
 1119000    1.0706839   -6.6296088     417.0971  0.031061744  0.031181343            7 
 1120000    1.0850977   -6.6322121     418.4675  0.031135974  0.031172193            2 
 1121000    1.0938793   -6.6221863    417.89266  0.031065467  0.031162838           10 
 1122000    1.0711299   -6.6539192    416.66925  0.030946914  0.031153293            5 
 1123000    1.0771567   -6.6310309      418.752  0.031073909  0.031143676            4 
 1124000    1.0731812   -6.6154885    418.73164  0.031044754  0.031134194            4 
 1125000    1.0706507   -6.6381708    417.96488  0.030960362  0.031124772            4 
 1126000    1.0823839   -6.6584616    418.50536  0.030972866  0.031115554            3 
 1127000    1.0707643   -6.6551366    419.46237  0.031016147  0.031106227            4 
 1128000    1.0418594   -6.6480288    418.60621  0.030925399  0.031096956            7 
 1129000    1.0606825    -6.607345    418.94109  0.030922726   0.03108764            4 
 1130000    1.0767094   -6.6368305    420.44021  0.031005915  0.031078434            2 
 1131000    1.0787696   -6.6507423    419.45865  0.030906178  0.031069027            7 
 1132000     1.068064   -6.6162336    420.61267   0.03096383  0.031059904            3 
 1133000    1.0685055   -6.6087108    421.62565  0.031011007  0.031050601            4 
 1134000    1.0564426   -6.6632323    421.50636  0.030974894  0.031041491            5 
 1135000    1.0721983   -6.6369083     421.0987  0.030917673  0.031032279            2 
 1136000    1.0830431   -6.6131111    421.81809  0.030943229  0.031022851            8 
 1137000     1.049141   -6.6143735    422.14191  0.030939747  0.031014008           10 
 1138000    1.0597367   -6.6060278    422.63829  0.030948908  0.031004893            2 
 1139000    1.0526702   -6.6131871    421.36302  0.030828433   0.03099568            3 
 1140000    1.0739422   -6.6464164    422.39631  0.030876923  0.030986293            3 
 1141000    1.0633099   -6.6854507    420.65338  0.030722566  0.030976629            5 
 1142000    1.0774652   -6.6283345    422.11465  0.030802295  0.030967216            4 
 1143000    1.0749281   -6.6313761    423.15256  0.030851018  0.030958112            4 
 1144000    1.0520034   -6.6675625    423.44364  0.030845253  0.030948713            7 
 1145000    1.0934961   -6.6552976    422.39497  0.030741992  0.030939372            2 
 1146000    1.0672882   -6.6112354    424.95894   0.03090161  0.030930355            2 
 1147000    1.0888397    -6.638058    423.44821  0.030764909   0.03092135            3 
 1148000    1.0843912   -6.6266815    424.54262  0.030817554   0.03091203            5 
 1149000    1.0762903   -6.6420528    423.01248  0.030679756  0.030902538            3 
 1150000    1.0628783   -6.6583309    423.24003  0.030669568  0.030893062            7 
 1151000    1.0805683   -6.6864662    424.00444  0.030698265  0.030883387            5 
 1152000    1.0533234   -6.6200687    425.39747  0.030772387  0.030873874           12 
 1153000    1.0583364     -6.65237    424.65103  0.030691748   0.03086449            5 
 1154000    1.0788185    -6.642281    425.39999  0.030719237  0.030855356            4 
 1155000    1.0515357   -6.6592129    424.58419   0.03063378  0.030846089            3 
 1156000    1.0598301   -6.6410821    426.21711  0.030724993  0.030836625            4 
 1157000    1.0698032   -6.6470581    425.68728  0.030660277  0.030827431            3 
 1158000    1.0704222   -6.6120794    428.03998  0.030803107  0.030818316            4 
 1159000    1.0596995   -6.6274402    426.10527  0.030637422  0.030809051            2 
 1160000    1.0691855   -6.6083321    427.24868  0.030693152  0.030799901            2 
 1161000    1.0748309   -6.6433561    426.70223  0.030627493   0.03079086            5 
 1162000    1.0695705   -6.6849073    426.92502  0.030617113  0.030781205            7 
 1163000    1.0573455   -6.6231245    428.69584  0.030717673  0.030771806            5 
 1164000    1.0677131   -6.6209956    430.45151  0.030816975  0.030762772            3 
 1165000    1.0869492   -6.6756109    428.27331  0.030634714   0.03075363            1 
 1166000    1.0413594   -6.6511046      429.288  0.030680961  0.030744448            4 
 1167000    1.0523267   -6.6732597    429.15461  0.030645145  0.030735232            4 
 1168000    1.0744586   -6.6310693    429.89056  0.030671416  0.030726141            3 
 1169000    1.1016819   -6.6744742    429.91671  0.030647043  0.030717148            9 
 1170000    1.0474524   -6.6888214    427.64417  0.030458986   0.03070774            5 
 1171000    1.0682478   -6.6962537    429.16237  0.030541017   0.03069835            4 
 1172000    1.0566346   -6.6555339    429.08058  0.030509142  0.030688945            8 
 1173000    1.0542335   -6.6762402    429.91285   0.03054226  0.030679555            3 
 1174000    1.0493591   -6.6026587    432.23788   0.03068128   0.03067052            2 
 1175000    1.0661745   -6.6372849    429.18493  0.030438648  0.030661381            4 
 1176000    1.0486784   -6.6720844    431.26013  0.030559816  0.030652391            2 
 1177000    1.0678737   -6.6872528    432.04466  0.030589398  0.030643123            2 
 1178000    1.0484456   -6.6724252    431.74919  0.030542529  0.030633972            3 
 1179000    1.0871362   -6.6573553    432.93594  0.030600504  0.030625054            3 
 1180000    1.0467172    -6.695266     432.0473  0.030511815  0.030615943            3 
 1181000     1.054378    -6.669825    432.61864  0.030526294  0.030606734            5 
 1182000    1.0481778   -6.6771926    432.54742  0.030495447  0.030597711            4 
 1183000    1.0550555   -6.6376653    433.85913  0.030562069  0.030588869            2 
 1184000    1.0628615   -6.6750694    433.08568  0.030481819  0.030580067            3 
 1185000    1.0518195   -6.6829532    433.42325  0.030479835  0.030570989            3 
 1186000    1.0439754   -6.6474667    433.86648  0.030485278  0.030562094            2 
 1187000    1.0626557    -6.661556     436.0261  0.030611212  0.030553393            5 
 1188000    1.0824091   -6.7091734    434.38036  0.030470002   0.03054506            4 
 1189000    1.0887853   -6.6651342    435.44719  0.030519147  0.030536333            2 
 1190000    1.0637623   -6.7095395    434.45112  0.030423748  0.030527384           10 
 1191000    1.0547961   -6.6376511    435.90149  0.030499685  0.030518381            2 
 1192000    1.0337016    -6.662271    436.01053  0.030481721  0.030509734            5 
 1193000    1.0393081   -6.6665114    434.98964  0.030384859  0.030500981            3 
 1194000    1.0547452   -6.6722763    436.98622  0.030498759  0.030492144            4 
 1195000    1.0650251   -6.6683449    436.87548  0.030465515  0.030483369            4 
 1196000    1.0691167   -6.6192726    438.41587  0.030547371  0.030474743            6 
 1197000    1.0643062   -6.6387777    438.17996  0.030505427  0.030466297            5 
 1198000    1.0643271   -6.6358693    436.65368  0.030373795  0.030457667            2 
 1199000    1.0648835   -6.6766972      437.464  0.030404782  0.030448749            7 
 1200000    1.0495087   -6.6705505    437.19847  0.030361005  0.030439799            4 
 1201000    1.0546514   -6.6335809    439.01303  0.030461631  0.030431059            3 
 1202000    1.0570161   -6.6499262    438.52296  0.030402312  0.030422141            4 
 1203000    1.0673726   -6.6587314    437.97778  0.030339275  0.030413505            3 
 1204000    1.0633684   -6.6707129    437.23562  0.030262709  0.030404594            8 
 1205000    1.0375826   -6.6649086    438.01524   0.03029151   0.03039549            3 
 1206000    1.0627899   -6.6736398     437.5291  0.030232801  0.030386641            5 
 1207000    1.0793081   -6.7016263     437.2469   0.03018827  0.030377378            4 
 1208000    1.0765322   -6.6985352    437.16213  0.030157431  0.030368039            2 
 1209000    1.0563925   -6.6836576    439.92497  0.030322923    0.0303588            3 
 1210000    1.0708831   -6.6538527    439.44904  0.030265086  0.030349529            3 
 1211000    1.0511215   -6.6804708    437.65532  0.030116661  0.030340465            7 
 1212000     1.065454   -6.6685702    440.13352  0.030262205  0.030331456            6 
 1213000    1.0607872   -6.6679075    441.52214  0.030332656  0.030322778            3 
 1214000    1.0575984    -6.662536     440.1806  0.030215582  0.030313873            2 
 1215000    1.0661691   -6.6771605    440.72735  0.030228213  0.030305016            5 
 1216000    1.0619534   -6.6611986    440.56884  0.030192492  0.030296187            2 
 1217000    1.0675804   -6.6848712    441.66013  0.030242408   0.03028724            3 
 1218000    1.0644918   -6.6716031    442.17615  0.030252884  0.030278428            4 
 1219000    1.0592027    -6.645921    442.55286  0.030253819  0.030269613            2 
 1220000    1.0570202   -6.6453046    442.92265  0.030254279   0.03026095            2 
 1221000    1.0609049   -6.6214033     444.4099  0.030331006  0.030252171            2 
 1222000      1.03662   -6.6637943    442.83959  0.030199099  0.030243372            4 
 1223000    1.0747144    -6.647793     441.7124  0.030097601  0.030234304            3 
 1224000    1.0612699   -6.6225948     443.5019  0.030194846  0.030225457            3 
 1225000    1.0563551   -6.6711502    442.39495  0.030094895  0.030216501            3 
 1226000    1.0540731   -6.6367054    444.20791  0.030193577  0.030207664            3 
 1227000    1.0303242   -6.6460645    444.65919  0.030199619  0.030198889            3 
 1228000    1.0370537   -6.6593356    445.19574  0.030211437  0.030190009            3 
 1229000     1.033053   -6.6791323    445.58566  0.030213294  0.030181147            3 
 1230000    1.0494302   -6.6335313    444.87392   0.03014051  0.030172116            3 
 1231000    1.0414908   -6.6447013    445.68172  0.030170709  0.030163245            3 
 1232000    1.0396699   -6.6575842    445.31101  0.030121145  0.030154277            4 
 1233000    1.0582083   -6.6657961    445.13876  0.030085074  0.030145296            5 
 1234000    1.0285328   -6.6612972    444.86235  0.030042028  0.030136332            3 
 1235000    1.0579031   -6.6751282    446.02479   0.03009614  0.030127171            3 
 1236000    1.0661408   -6.6659128    446.44336   0.03010001  0.030118277            3 
 1237000    1.0595282    -6.658517    446.09443  0.030052171  0.030109575            2 
 1238000    1.0491372   -6.6904279    445.25821  0.029971608  0.030100502            7 
 1239000    1.0522124   -6.6554288    447.65859  0.030108864  0.030091333            2 
 1240000    1.0439979   -6.6544619    445.54235  0.029942362  0.030082365            3 
 1241000    1.0470818   -6.6832367    446.00418  0.029949247  0.030073198            2 
 1242000    1.0437684   -6.6852691    445.34601  0.029880972  0.030063919            3 
 1243000    1.0444956   -6.6824128     446.7203  0.029949068  0.030054648            2 
 1244000    1.0589093   -6.6787744    447.06804  0.029948288  0.030045788            4 
 1245000    1.0592419   -6.6905035    446.98159  0.029918446  0.030036733            5 
 1246000    1.0655029   -6.6814062     447.9257  0.029957578  0.030027809            2 
 1247000    1.0465988   -6.6693342    447.05428   0.02987532  0.030018581            3 
 1248000    1.0556109   -6.6545921    447.55375  0.029884732  0.030009474            4 
 1249000    1.0502267   -6.6850708    449.50512  0.029991001  0.030000327            3 
 1250000    1.0398091   -6.7552369    448.29415  0.029886277  0.029991203            3 
 1251000    1.0542516   -6.7303291     446.4854    0.0297419  0.029981905            5 
 1252000    1.0827213   -6.6797214    449.05622  0.029889258  0.029972755            5 
 1253000    1.0265891   -6.6912567    448.62805  0.029836928  0.029963626            5 
 1254000    1.0534107   -6.6654887    448.84833  0.029827773  0.029954447            3 
 1255000    1.0240029   -6.6754375    448.68611  0.029793234  0.029945163            2 
 1256000    1.0769905   -6.6863584    449.23327  0.029805817  0.029935866            4 
 1257000    1.0624252   -6.6880073    448.53796  0.029736009  0.029926717            5 
 1258000    1.0543675   -6.7155915    450.74421   0.02985852  0.029917433           11 
 1259000    1.0362119   -6.7055672    450.20741  0.029799272  0.029907862            3 
 1260000    1.0618217   -6.6641015    451.31786  0.029849065  0.029898694            4 
 1261000    1.0596359   -6.6904479    450.68694  0.029783699  0.029889447            5 
 1262000    1.0860615   -6.6914152     450.5105  0.029748448  0.029880268            3 
 1263000     1.042398   -6.6806931    449.65061  0.029668158  0.029870875            5 
 1264000    1.0453983   -6.7407833    449.55891  0.029638641  0.029861442            2 
 1265000    1.0338084    -6.693895    452.04249   0.02977882  0.029851928            3 
 1266000    1.0551077    -6.735613    450.55245  0.029657218  0.029842411            8 
 1267000    1.0799662   -6.6929633    450.72233  0.029644984  0.029832944            7 
 1268000    1.0559675   -6.7358482    450.70093  0.029620198  0.029823311            5 
 1269000    1.0626128   -6.6952937     451.9774   0.02968068  0.029813438            4 
 1270000    1.0767469   -6.7151758    450.13583  0.029536472  0.029803778            5 
 1271000    1.0530992   -6.7116509    451.88157  0.029627693  0.029794023            4 
 1272000    1.0391132   -6.7019675    452.39137    0.0296378  0.029784326            4 
 1273000    1.0673199   -6.6793552    452.33911  0.029611097  0.029774798            4 
 1274000    1.0365783   -6.6954192    451.72132  0.029547444   0.02976531            3 
 1275000    1.0553372   -6.7082866    453.04645  0.029610879  0.029755728            3 
 1276000    1.0444915   -6.7102579    452.84269  0.029574366  0.029746104           10 
 1277000    1.0447668   -6.6832145    451.85214  0.029486566  0.029736543            3 
 1278000    1.0374307   -6.7287619    453.33511  0.029560192  0.029726932            5 
 1279000    1.0601395   -6.7047152    453.44563  0.029544282   0.02971746            4 
 1280000    1.0221574   -6.6593932    455.07688  0.029627401  0.029708028            3 
 1281000    1.0277293   -6.7044594    455.45576   0.02962892  0.029698765            1 
 1282000    1.0392154   -6.6770181    455.64543  0.029618138  0.029689557            3 
 1283000    1.0691161   -6.6786505    454.90766  0.029547133  0.029680128            3 
 1284000     1.010568   -6.6882585    456.02782  0.029596821  0.029670819            5 
 1285000    1.0588575   -6.6976003     454.5094  0.029475318  0.029661504            6 
 1286000    1.0665865   -6.7023333    455.43995  0.029512697  0.029652233            2 
 1287000    1.0587282   -6.6938599    456.73061  0.029573337  0.029643119            2 
 1288000    1.0332534   -6.7058796    455.48292  0.029469651  0.029633861            2 
 1289000    1.0575999   -6.7334487    455.70761  0.029461315   0.02962457            5 
 1290000    1.0276593   -6.6903474    457.34211  0.029544064  0.029615081            3 
 1291000    1.0422349   -6.6800062    456.44689  0.029463394  0.029605909            3 
 1292000    1.0510367   -6.7293349    459.28192  0.029623447  0.029596739            7 
 1293000    1.0434519   -6.7177286    456.72167  0.029435529  0.029587451            5 
 1294000    1.0414036   -6.6851741    457.71553  0.029476786  0.029578303            6 
 1295000    1.0387368   -6.6829026    458.06299  0.029476383  0.029569088            4 
 1296000    1.0665203   -6.7133549    457.17894  0.029396794  0.029560037            3 
 1297000    1.0491688   -6.7491483    457.12469  0.029370643  0.029550614            6 
 1298000    1.0492085    -6.726533    457.92414  0.029399341  0.029541251            8 
 1299000    1.0650829    -6.699136    459.85815  0.029500779   0.02953189            4 
 1300000    1.0345884   -6.6871049     458.5798  0.029396141  0.029522563            3 
 1301000    1.0469249   -6.7339374     457.5532  0.029307789  0.029513099            4 
 1302000    1.0475289   -6.7686558    458.22913  0.029328542  0.029503663            3 
 1303000    1.0373405   -6.7119338    459.15045  0.029364956  0.029494152            6 
 1304000    1.0551583   -6.7129711    460.47117  0.029426838  0.029484727            3 
 1305000    1.0532286   -6.7062753    458.88873  0.029303239  0.029475309            3 
 1306000    1.0410265   -6.7478556    459.49168  0.029319275  0.029465924            4 
 1307000    1.0345707   -6.6751417    461.19665   0.02940555  0.029456658            2 
 1308000    1.0647825    -6.745776    458.20877  0.029192709  0.029447227            6 
 1309000    1.0199035    -6.723937     460.3052  0.029303871  0.029437784            3 
 1310000    1.0234745   -6.7361314    459.51827  0.029231442  0.029428189            4 
 1311000    1.0559669   -6.7432252    460.02083   0.02924109  0.029418729            4 
 1312000    1.0661646   -6.7105984    461.17271  0.029291966  0.029409134            6 
 1313000    1.0376113   -6.6794552    461.08066  0.029263814  0.029399777            5 
 1314000    1.0534746   -6.7334446    460.94243  0.029232777   0.02939035            4 
 1315000    1.0533289   -6.7051511    461.87814  0.029269844  0.029381012            5 
 1316000    1.0330072   -6.7469351    461.80205  0.029242784  0.029371701            3 
 1317000    1.0295102   -6.7042489    464.14629  0.029368912   0.02936259            3 
 1318000    1.0423381   -6.7147776    462.21382  0.029224445  0.029353541            5 
 1319000    1.0360536     -6.69614    463.45991  0.029281015  0.029344254            5 
 1320000    1.0481654   -6.7399443    461.80196  0.029154164  0.029334924            4 
 1321000    1.0425199    -6.733581    463.04349  0.029210415   0.02932554            4 
 1322000    1.0512782    -6.697931    464.26191  0.029265123  0.029316308            3 
 1323000    1.0552704   -6.6908208    465.28402  0.029307383  0.029307156            3 
 1324000    1.0567045   -6.7025362    463.72051  0.029186839  0.029298171            5 
 1325000     1.034199   -6.7486272    464.04886  0.029185463  0.029288987            3 
 1326000    1.0374785   -6.7524359    463.57303  0.029133549   0.02927975            6 
 1327000    1.0336706   -6.7186009    465.27616  0.029218548   0.02927052            7 
 1328000    1.0212821   -6.6736762    465.06338  0.029183194  0.029261549            3 
 1329000    1.0517718   -6.7042427    463.63325  0.029071561  0.029252338            3 
 1330000    1.0596358    -6.668002    465.78314  0.029184407  0.029243204            5 
 1331000    1.0249864   -6.7074861      466.563  0.029211307  0.029234115            5 
 1332000      1.03836   -6.7091092    465.78631  0.029140785   0.02922486            3 
 1333000    1.0295593   -6.7155935     466.0639  0.029136278  0.029215548            3 
 1334000    1.0622423   -6.7077285    465.59622  0.029085221  0.029206279            7 
 1335000    1.0389588   -6.7215998    466.80725  0.029139029  0.029196931            4 
 1336000    1.0207418   -6.6709476    467.07521  0.029133933   0.02918774            2 
 1337000     1.044882      -6.7136    465.72425  0.029027939  0.029178642           15 
 1338000    1.0320168   -6.6734462    467.08673  0.029091102  0.029169525            2 
 1339000    1.0288419     -6.72348    467.71018  0.029108176  0.029160371            5 
 1340000    1.0546874   -6.7273889      468.208  0.029117413  0.029151227            2 
 1341000    1.0451148   -6.7239603    467.89497  0.029076247   0.02914196            3 
 1342000    1.0363069   -6.6958577    466.44863  0.028964768  0.029132755            6 
 1343000    1.0460846   -6.7490154    467.94392  0.029035984  0.029123302            5 
 1344000    1.0392193   -6.7144646    467.20346  0.028968469  0.029114156            3 
 1345000    1.0587368   -6.7198548    468.11454  0.029003379  0.029105084            3 
 1346000    1.0267026   -6.7219756    468.60643  0.029012285  0.029095857            2 
 1347000    1.0486418   -6.7939748    467.89379  0.028946659  0.029086589            2 
 1348000    1.0261534   -6.7351972    468.65983  0.028972541  0.029077435            6 
 1349000    1.0490009   -6.7483438    469.40374  0.028997019  0.029068286            2 
 1350000    1.0241435   -6.7557618    469.78153   0.02899886    0.0290592            6 
 1351000    1.0534942   -6.7511176    469.85576  0.028981974  0.029050134            5 
 1352000    1.0498717   -6.7580636    470.63495  0.029008565  0.029041115            8 
 1353000    1.0417904   -6.7489976    471.23097  0.029023834  0.029032056           11 
 1354000    1.0392246   -6.7450184    471.55095  0.029022092  0.029022994            5 
 1355000    1.0336123   -6.7272871    471.62029  0.029004938  0.029013732            3 
 1356000    1.0433084   -6.7588816    470.45164  0.028911728  0.029004628            5 
 1357000    1.0373851   -6.7391712    469.95188  0.028859732  0.028995784            4 
 1358000    1.0212145   -6.7518044    471.57776  0.028938252  0.028986925            4 
 1359000    1.0540281   -6.7295952    472.85794  0.028995459  0.028977994            9 
 1360000    1.0487141   -6.7471538     472.6305  0.028960202  0.028969004            6 
 1361000    1.0252006   -6.7362719    472.46296  0.028928665  0.028960174            7 
 1362000    1.0271228   -6.6855027    474.08049  0.029006393  0.028951504            6 
 1363000    1.0363317   -6.7065278    473.55385  0.028952913  0.028942968            3 
 1364000    1.0279303   -6.7481673    473.61709   0.02893555  0.028934273            4 
 1365000    1.0190032   -6.7465971    473.96756  0.028935749  0.028925389            5 
 1366000    1.0244923   -6.6842816    474.39328  0.028940537  0.028916702            7 
 1367000    1.0228432   -6.7042526    473.94463  0.028892016  0.028908086            4 
 1368000     1.029354   -6.7025428    476.09148  0.029001674  0.028899495            4 
 1369000    1.0308188   -6.7442712    476.36916  0.028997392  0.028890943            7 
 1370000    1.0146869   -6.7482277     474.8841  0.028885894  0.028882352            4 
 1371000    1.0444549   -6.7174608    474.75939  0.028857245  0.028873718            6 
 1372000    1.0354387   -6.7006551    476.66425   0.02895191  0.028865043            5 
 1373000    1.0386328   -6.7221242    477.77838  0.028998445  0.028856423            5 
 1374000    1.0319336   -6.7034064    477.66724  0.028970599    0.0288479            7 
 1375000    1.0392834   -6.7476327    476.03401  0.028850546  0.028839312            5 
 1376000    1.0417462   -6.7100664    478.19973  0.028960739  0.028830844            6 
 1377000    1.0308409   -6.7331914    477.80299  0.028915698  0.028822334            6 
 1378000    1.0182588   -6.7455212    475.62832  0.028763203   0.02881365            3 
 1379000    1.0241348   -6.7292864    477.07672  0.028829872  0.028805092            4 
 1380000    1.0257588   -6.7135946    478.02809  0.028866431  0.028796584            2 
 1381000    1.0234958   -6.7310339    479.19101  0.028915702  0.028788075            3 
 1382000    1.0240105   -6.7482751    478.57758  0.028857789  0.028779523            3 
 1383000    1.0390107   -6.7828355    477.56128  0.028775686  0.028770708            4 
 1384000    1.0386902   -6.7446965    479.42095  0.028866869  0.028761879            5 
 1385000    1.0672331   -6.7493669    479.12963  0.028828497  0.028753154            2 
 1386000    1.0196221   -6.7830429    477.21576  0.028692626  0.028744468            5 
 1387000    1.0319773   -6.7452324    478.31137  0.028737765  0.028735733            3 
 1388000    1.0321177   -6.7231845    480.40423  0.028842713   0.02872707            2 
 1389000    1.0088833    -6.745587    478.79787  0.028725574  0.028718482            5 
 1390000    1.0134431   -6.7711185    478.14864  0.028665986  0.028709812            3 
 1391000    1.0176341   -6.7400512    480.26711  0.028772293  0.028701126            5 
 1392000    1.0344955   -6.7393602    480.34636  0.028756367  0.028692514            7 
 1393000    1.0014827     -6.76695    479.40708  0.028679533  0.028683883            2 
 1394000    1.0148351   -6.7784989    480.34835  0.028715229  0.028675123            7 
 1395000    1.0211326   -6.7403775    480.57831  0.028708381   0.02866647            2 
 1396000    1.0384955   -6.7369481    482.20065  0.028784662  0.028658046            3 
 1397000    1.0147076   -6.7753718    480.61636  0.028669552  0.028649521            3 
 1398000    1.0348486   -6.7391344    481.28532   0.02868892  0.028641021            2 
 1399000    1.0265738   -6.7515358    480.80386  0.028639734  0.028632333            3 
 1400000    1.0168688   -6.7523194    482.87206  0.028742384   0.02862385            4 
 1401000    1.0128358   -6.7283279    482.80893  0.028718114   0.02861543            3 
 1402000      1.02081   -6.7495432    481.91635  0.028644576  0.028606937            3 
 1403000    1.0434554   -6.7649665    481.20908   0.02858215  0.028598208            6 
 1404000    1.0409916   -6.7351219    481.91941  0.028603954  0.028589565            3 
 1405000    1.0147834   -6.7739266    481.69433  0.028570245  0.028580823            9 
 1406000    1.0225239   -6.7727698    482.78706  0.028614691  0.028572097            3 
 1407000    1.0402248   -6.7404024    481.76508  0.028533824  0.028563487            4 
 1408000    1.0219381   -6.7564828    483.51123  0.028616905  0.028554829            3 
 1409000    1.0295149   -6.7326403    483.58334   0.02860086  0.028546361            3 
 1410000    1.0266218   -6.7405365    484.83885  0.028654778  0.028537865            2 
 1411000    1.0331572   -6.7789891    483.53572  0.028557507   0.02852929            5 
 1412000    1.0344082    -6.748137    485.62226  0.028660426   0.02852075            3 
 1413000    1.0271104   -6.7207604    486.55883  0.028695378  0.028512194            4 
 1414000    1.0245136   -6.7617227    483.96964  0.028522492  0.028503888            6 
 1415000    1.0025848   -6.7699796    485.22251   0.02857612  0.028495699            3 
 1416000    1.0360013   -6.7249646    486.54103  0.028633535  0.028487493            9 
 1417000    1.0330912   -6.7503352    487.77375  0.028685824  0.028479406            4 
 1418000     1.058784   -6.7596648    487.63104  0.028657208  0.028471201            3 
 1419000     1.033573   -6.7474324     485.9409  0.028537756  0.028462746            6 
 1420000    1.0165648   -6.7455303    486.55054  0.028553436  0.028454354            5 
 1421000    1.0438017   -6.7692642     486.7573  0.028545467  0.028445951            3 
 1422000    1.0419935   -6.7678115    486.69713  0.028521866  0.028437408            7 
 1423000    1.0081321   -6.7752837    487.25938  0.028534749  0.028428844            3 
 1424000    1.0058024   -6.7086423    488.28209  0.028574561  0.028420342            4 
 1425000    1.0246683   -6.7769969    485.90181  0.028415311  0.028411751            4 
 1426000    1.0297606   -6.7882594    487.65044  0.028497571  0.028403114            4 
 1427000    1.0342868   -6.8128113    485.16702  0.028332575  0.028394359            6 
 1428000    1.0187757    -6.779074    486.98358  0.028418743  0.028385664            6 
 1429000    1.0228912   -6.7793793    485.89832  0.028335568  0.028376953            3 
 1430000    1.0233884   -6.7732752    485.11932  0.028270356  0.028368177            4 
 1431000     1.023142    -6.725046    486.69235  0.028342205  0.028359399            6 
 1432000     1.021011   -6.7827114    486.28454  0.028298681  0.028350598            4 
 1433000    1.0268129   -6.7942402    486.51773  0.028292494  0.028341743            5 
 1434000    1.0349115   -6.7433675    488.84039   0.02840774  0.028333124            3 
 1435000    1.0161293   -6.7601405    487.37549  0.028302874  0.028324366            5 
 1436000    1.0353209   -6.7667513    488.96851   0.02837561  0.028315575            4 
 1437000    1.0140362   -6.7636013    489.70437  0.028398537  0.028306794            3 
 1438000    1.0325929   -6.7474329    487.76475  0.028266386  0.028298126            3 
 1439000    1.0281262   -6.7582618    489.51652  0.028348189  0.028289296            7 
 1440000    1.0067494   -6.8115385    486.74173  0.028167924  0.028280391            4 
 1441000    1.0353426   -6.7763195      489.354  0.028299445  0.028271407            7 
 1442000    1.0146796   -6.7778589    488.48911  0.028229838  0.028262591            6 
 1443000    1.0044964   -6.7998231     487.6392  0.028161192  0.028253664            4 
 1444000    1.0187631   -6.7596479    488.57583  0.028195743  0.028244784           11 
 1445000    1.0361558   -6.7413865    490.88987  0.028309681  0.028235902           10 
 1446000    1.0268893   -6.7626895    489.36465  0.028202204  0.028227099            2 
 1447000    1.0428595   -6.7772158    488.42543  0.028128624   0.02821808            3 
 1448000     1.018616   -6.7541294    490.69304  0.028239701   0.02820907            5 
 1449000    1.0241005   -6.7727867    490.24527   0.02819446  0.028200096            6 
 1450000    1.0053775   -6.7609704    490.67843   0.02819991  0.028190994            3 
 1451000    1.0345004   -6.7751596    489.56948  0.028116786  0.028181969            7 
 1452000    1.0200096   -6.7438357    488.96097  0.028062499  0.028172814            6 
 1453000    1.0052644   -6.7781351    489.89206  0.028096585   0.02816356            9 
 1454000    1.0024541   -6.7617899    490.55015  0.028114979  0.028154429            4 
 1455000    1.0322421   -6.7501665    487.79694  0.027937969  0.028145221            8 
 1456000    1.0215762    -6.760018    489.20903  0.027999601  0.028135921            8 
 1457000    1.0227777   -6.7926973    488.70392  0.027951494  0.028126491            4 
 1458000    1.0154866   -6.8015501    488.68885  0.027931462  0.028117023            2 
 1459000    1.0322414   -6.7673577    491.56129  0.028076381  0.028107748            6 
 1460000   0.98493783   -6.7791389    491.03222  0.028026953  0.028098579            2 
 1461000    1.0305232   -6.7814784    490.30164  0.027966099  0.028089433            4 
 1462000    1.0208061   -6.7968944    490.18728  0.027940451  0.028079975            3 
 1463000    1.0316541   -6.7727056    491.01067  0.027968254   0.02807063            5 
 1464000    1.0142005   -6.8151421     488.8647  0.027826998  0.028061146            3 
 1465000    1.0068011   -6.7993138    489.62165  0.027851061  0.028051472            4 
 1466000    1.0136941   -6.7809359    491.42861  0.027934778  0.028041801            5 
 1467000    1.0135811   -6.7539389    492.44594  0.027973526  0.028032288            6 
 1468000    1.0368022   -6.7610865    490.40345  0.027838525  0.028022779           12 
 1469000    1.0431383   -6.8184618    491.14821  0.027861822  0.028013316            9 
 1470000    1.0351328   -6.8016107    491.39143  0.027856657  0.028003862            3 
 1471000   0.99356959   -6.7823588    492.05784  0.027875472  0.027994405            7 
 1472000    1.0153633   -6.7913058    492.90157  0.027904301  0.027985105            2 
 1473000    1.0173151   -6.7927864    493.69193  0.027930071  0.027975828            6 
 1474000    1.0121404   -6.7957142     493.2226  0.027884588  0.027966444            5 
 1475000    1.0170321     -6.80186    491.32364  0.027758398  0.027957079            4 
 1476000   0.99457549   -6.8253515      492.363  0.027798272  0.027947512           13 
 1477000   0.99155785   -6.7524051    494.80162   0.02791704  0.027937983            5 
 1478000    1.0278166   -6.7836113     493.2735  0.027811992  0.027928644            5 
 1479000    1.0203667   -6.7925088    492.90929  0.027772667  0.027919335            2 
 1480000    1.0079003   -6.7502935    494.33187  0.027834002  0.027910073            6 
 1481000     1.014058   -6.7971242    493.45583  0.027765914  0.027900698            6 
 1482000    1.0104711   -6.7864173    493.02109  0.027722733   0.02789147            6 
 1483000    1.0159614   -6.7688851    495.59264  0.027848541  0.027882293            4 
 1484000    1.0399435    -6.796734    494.05376   0.02774336  0.027873044            5 
 1485000    1.0053204   -6.8121236    494.49888  0.027749657  0.027863866            5 
 1486000    1.0204789    -6.778334    496.20443  0.027826628  0.027854631            3 
 1487000    1.0086975   -6.8201525    494.15005  0.027692785  0.027845413            4 
 1488000    1.0171738   -6.7993128    494.77331  0.027709079  0.027836234            2 
 1489000    1.0223722   -6.7938492    495.35524  0.027723038  0.027827028            3 
 1490000    1.0139628   -6.7956068    497.86484   0.02784479  0.027817972            5 
 1491000   0.99871891   -6.8252771    495.92172  0.027717512  0.027808921            3 
 1492000     1.016917   -6.7514588    496.32082  0.027721225  0.027799987            2 
 1493000    1.0171296   -6.7765422    498.58507   0.02782904  0.027791117            2 
 1494000    1.0193262   -6.7555121    498.96926  0.027831842  0.027782247            5 
 1495000    1.0142675   -6.7834719    499.51729  0.027843773  0.027773305            5 
 1496000   0.99758925   -6.7498844     499.2453   0.02781001  0.027764481            3 
 1497000    1.0099317   -6.7972448    498.95776  0.027775426  0.027755669            5 
 1498000    0.9956658   -6.7963697    499.44884  0.027784204  0.027746876            2 
 1499000   0.99415707   -6.8248395    498.68963  0.027723462  0.027737987            3 
 1500000   0.99205403   -6.7791478    498.64468  0.027702482  0.027729182            8 
 1501000    1.0051974   -6.7197505    500.28671  0.027775189  0.027720392            3 
 1502000   0.99671213   -6.7855705    498.21039    0.0276415  0.027711446            4 
 1503000    1.0201789   -6.8220185    498.77557  0.027654445  0.027702462            3 
 1504000    1.0169357   -6.7967684    498.81242  0.027638099  0.027693552            4 
 1505000   0.99461736   -6.7672398     498.4335  0.027598754   0.02768462            4 
 1506000    1.0179492   -6.8087644    498.61535  0.027590491  0.027675555            5 
 1507000    1.0146575   -6.7989697    499.39392  0.027615235  0.027666386            2 
 1508000   0.96091396   -6.7510074    501.02892  0.027687275  0.027657316            3 
 1509000    1.0276397   -6.7696236    501.02388  0.027668648  0.027648161            6 
 1510000     1.006801    -6.823301    499.05176  0.027541488  0.027639034           10 
 1511000    1.0309003   -6.7957248    499.78482   0.02756369  0.027629838            9 
 1512000    1.0209283   -6.7699437    499.81797  0.027547286  0.027620748            5 
 1513000    1.0188434   -6.8110639    499.26037  0.027498368  0.027611643            5 
 1514000    1.0023089   -6.7893218    502.13039  0.027638177  0.027602586            3 
 1515000    1.0014456    -6.812143    500.34274  0.027521603  0.027593541            4 
 1516000   0.99180616   -6.8189906    500.16953  0.027493928  0.027584526            5 
 1517000    1.0133456   -6.7719131    501.23681  0.027534433  0.027575444            6 
 1518000   0.99788758   -6.7871688    501.54161  0.027533026  0.027566488            7 
 1519000    1.0012828   -6.7892084    502.38425  0.027561128  0.027557472            4 
 1520000    1.0045011   -6.8112806    501.96254  0.027519876  0.027548373            4 
 1521000    1.0149013   -6.7966497     501.7885  0.027492248   0.02753931            2 
 1522000   0.99756719   -6.8063987    503.92075   0.02759093  0.027530311            3 
 1523000    1.0319126   -6.7990973    501.09169  0.027418017  0.027521368            2 
 1524000    1.0139483   -6.8358639    502.15873  0.027458373   0.02751229            7 
 1525000    1.0073881   -6.8228144    502.63222  0.027466242  0.027503164            5 
 1526000    1.0186213   -6.8463702    502.34631   0.02743263  0.027493967            6 
 1527000    1.0390346   -6.8114428    502.33181  0.027413873  0.027484761            8 
 1528000    1.0007357   -6.8213989    500.19341  0.027279309  0.027475469            5 
 1529000    1.0132029   -6.7830933    503.85729  0.027461156  0.027466319            3 
 1530000    1.0036616   -6.7861427    503.19019  0.027406873  0.027457094            5 
 1531000    1.0069467    -6.815217    502.42256  0.027347189  0.027447815            3 
 1532000    1.0088204   -6.8002749    501.53425  0.027281019  0.027438574            4 
 1533000   0.99626953   -6.8283646    502.50997  0.027316263  0.027429432            4 
 1534000    1.0084422   -6.8355491    503.56508  0.027355774  0.027420169            4 
 1535000   0.99668209   -6.8342847    502.25493  0.027266826  0.027410907            3 
 1536000    1.0018497   -6.7879296    503.00828  0.027289945  0.027401603            2 
 1537000    1.0307952   -6.8039654    503.62432  0.027305591  0.027392362            3 
 1538000    1.0109315   -6.8236776    503.40869  0.027276153  0.027383048            3 
 1539000   0.99788603   -6.8442747    503.77912  0.027278488  0.027373626            5 
 1540000    1.0112803   -6.8407586    503.05325  0.027221496  0.027364313            3 
 1541000    1.0123981   -6.7871573    505.18942   0.02731935  0.027355111            6 
 1542000    1.0075792   -6.7967293    504.59053  0.027269268  0.027346033            9 
 1543000   0.99100403   -6.8417552    504.46301  0.027244708  0.027336826            8 
 1544000    1.0009755    -6.775957    506.05099  0.027312769  0.027327724            4 
 1545000    1.0021834   -6.7935411    507.11062  0.027352245  0.027318676            4 
 1546000    1.0160425   -6.8312038    505.31742  0.027237894  0.027309695            7 
 1547000    1.0064845    -6.861525    503.91721  0.027144861  0.027300581            6 
 1548000   0.98887916   -6.8606528    504.87594  0.027178937  0.027291362            6 
 1549000     1.000053   -6.8032572    507.46211  0.027300522  0.027282253            5 
 1550000   0.98686639   -6.8133241     506.2013  0.027215124  0.027273139            5 
 1551000    1.0209821   -6.8363089    506.62355  0.027220264  0.027264099            3 
 1552000    1.0168423    -6.803749     507.1741  0.027232286  0.027255139            2 
 1553000   0.99343064   -6.7911176     507.7408   0.02724516  0.027246193            5 
 1554000   0.99918121   -6.8274329    507.27391  0.027202591  0.027237216            2 
 1555000     1.021644   -6.8503165    506.81339  0.027160418  0.027228155            4 
 1556000    1.0159441   -6.8623718    505.15663  0.027054232  0.027219143            3 
 1557000   0.99159744   -6.8321946    508.35014  0.027207779  0.027210141            6 
 1558000    1.0094382   -6.7923628     509.8795  0.027272117  0.027201298            4 
 1559000   0.97548132   -6.8331553    508.18233  0.027163905  0.027192476            6 
 1560000    1.0319561    -6.808911    509.20528  0.027201137  0.027183626            3 
 1561000     1.009784    -6.830982    510.19853  0.027236736  0.027174755            4 
 1562000    0.9970828   -6.8265678    507.28209  0.027063705  0.027165963            5 
 1563000     1.008376    -6.832693    509.38931  0.027158739  0.027157162            2 
 1564000    1.0020578   -6.8299156    509.92954  0.027170159  0.027148402            3 
 1565000    1.0064509   -6.7977849    510.29766  0.027172399   0.02713976            5 
 1566000    1.0162521   -6.7803053    511.08267  0.027196822  0.027131243            3 
 1567000    1.0177311   -6.8255541    511.46612  0.027199858  0.027122493            4 
 1568000    1.0165699   -6.7765361    511.73626  0.027196868  0.027113848            2 
 1569000    1.0080968   -6.7966912    512.90003  0.027241344  0.027105292           13 
 1570000    1.0060995   -6.8416124    510.81606  0.027113379  0.027096613            9 
 1571000   0.99999797   -6.8095895    512.48755  0.027184784  0.027087955            8 
 1572000    1.0031629   -6.7962205    512.75684  0.027181767  0.027079322            4 
 1573000    1.0083474   -6.8603253    510.98412  0.027070572  0.027070667            8 
 1574000    1.0232239   -6.8527669    512.33211  0.027124741  0.027061901            5 
 1575000    1.0017494   -6.8051345    512.14424  0.027097579  0.027053296            2 
 1576000    1.0040955   -6.8228377    513.70647   0.02716299  0.027044794            8 
 1577000    0.9986272   -6.8340065    513.17604  0.027117736  0.027036134            3 
 1578000   0.99640564   -6.8275413    514.14974  0.027151972  0.027027622            4 
 1579000    1.0061289   -6.8086283    515.85182  0.027224605  0.027019444            4 
 1580000   0.99393382   -6.8230882    513.67965  0.027092809  0.027011176            3 
 1581000    1.0069276   -6.8454443    514.76224  0.027132735  0.027002896            7 
 1582000    1.0063556   -6.8319024    515.83626  0.027172159  0.026994729            5 
 1583000    1.0009451   -6.8063969    515.74918  0.027150409  0.026986531            2 
 1584000   0.99708863   -6.8586387     515.4101   0.02711543  0.026978207            4 
 1585000   0.98393558   -6.8266239    516.38178   0.02714941  0.026969794            3 
 1586000   0.99726012   -6.8522526    516.06053  0.027115413  0.026961431            8 
 1587000    1.0128387   -6.8365087    514.31263  0.027006544  0.026953047            6 
 1588000    1.0245377   -6.8256409    516.98716  0.027129889  0.026944672            5 
 1589000    1.0027077   -6.8466564    517.26765  0.027127525  0.026936399            2 
 1590000   0.99946439   -6.8231964    517.69967  0.027133107  0.026928244            4 
 1591000    1.0049187   -6.8112928    518.57239  0.027161764  0.026920041            6 
 1592000   0.97690208   -6.8603453    515.69367  0.026994015   0.02691159            4 
 1593000    1.0186398   -6.8419428    516.93781  0.027042154  0.026903176            3 
 1594000   0.99991756    -6.837635    517.05535  0.027031334  0.026894726            4 
 1595000   0.99181165   -6.8580347    516.23093  0.026971313  0.026886288            3 
 1596000    1.0159055   -6.8252595    518.87331  0.027092383  0.026877774            2 
 1597000    1.0196003   -6.8257185     517.2847  0.026992523  0.026869351            6 
 1598000    0.9799826   -6.8228146    517.49263  0.026986474  0.026860936            5 
 1599000    0.9915306   -6.8302821    518.28917   0.02701111  0.026852645            7 
 1600000   0.99650299   -6.8509673    516.85668  0.026919619  0.026844273            2 
 1601000   0.99808452   -6.8242812     517.2001   0.02692068  0.026835884           14 
 1602000   0.96975538   -6.8747986     517.5257  0.026920813  0.026827432            6 
 1603000   0.99968708    -6.866469    517.66633  0.026911329   0.02681897            2 
 1604000   0.99705009   -6.8423728    517.88142  0.026905726    0.0268106            3 
 1605000    1.0062202   -6.8462525    519.02751  0.026948469   0.02680229            3 
 1606000   0.99923939   -6.8432868    518.04448  0.026880681  0.026793958            4 
 1607000    0.9868389   -6.8883368    519.11124  0.026919272  0.026785518            3 
 1608000   0.98695854   -6.8432797    518.98881  0.026896186  0.026777145            6 
 1609000   0.99051841   -6.8501786    519.61951  0.026912135  0.026768796            3 
 1610000    1.0020371   -6.8360495    519.60428  0.026894632   0.02676042            7 
 1611000   0.99206037   -6.8105646    520.09508  0.026903325  0.026752095            3 
 1612000    1.0272611   -6.8486608    518.74931  0.026817065  0.026743667            4 
 1613000   0.98506179   -6.8837963    518.21431  0.026772799  0.026735227            3 
 1614000    1.0155399   -6.8286907    520.13603  0.026855433  0.026726874            6 
 1615000   0.99324528   -6.8559244    518.70926  0.026765184   0.02671846            6 
 1616000    1.0036042     -6.81738    519.21481  0.026774691  0.026710051            4 
 1617000   0.98178446   -6.8106633    520.83092   0.02684142  0.026701639            5 
 1618000    1.0025287   -6.8528939    518.98571  0.026729795  0.026693197            5 
 1619000   0.98085778   -6.8636229    519.70729  0.026750427  0.026684603            5 
 1620000   0.99537577    -6.879275    520.06104  0.026752111  0.026676159            3 
 1621000    1.0073797   -6.8189043    521.51509  0.026810358  0.026667679            3 
 1622000   0.98903125   -6.8010216    521.75745  0.026806281  0.026659375            2 
 1623000   0.97647796   -6.8154329    522.52979   0.02682942  0.026651048            3 
 1624000   0.99584173   -6.8067303     522.6513  0.026819135  0.026642891            3 
 1625000   0.98783325   -6.8629572    521.85421  0.026761754  0.026634572            6 
 1626000    1.0024267   -6.8571162    521.24334  0.026713988   0.02662604            3 
 1627000   0.99853512   -6.8010372    522.43969  0.026758845  0.026617638            2 
 1628000   0.99451389   -6.8321771    523.46922  0.026795108  0.026609255            3 
 1629000   0.99737264   -6.8379584    522.70249  0.026739436  0.026600692            3 
 1630000     1.003214   -6.8438825    521.54228  0.026663716  0.026592283            4 
 1631000   0.98641222   -6.8820398    521.93778  0.026667575  0.026583718            3 
 1632000   0.98510404   -6.8472292    523.95532  0.026754254  0.026575251            6 
 1633000   0.97570986   -6.9012511    521.56874  0.026616082  0.026566839            7 
 1634000    1.0040551   -6.8248809     523.5936   0.02670306  0.026558319            5 
 1635000     1.000043   -6.8315757    525.32181  0.026774812  0.026549906            5 
 1636000   0.97666252   -6.8575145    524.33145     0.026708  0.026541536            6 
 1637000   0.98309207   -6.8120994    525.00174  0.026725806  0.026533116            3 
 1638000   0.97368058   -6.8360695    523.67278  0.026641879  0.026524813            4 
 1639000   0.98019869   -6.8422612     524.4749  0.026666407  0.026516505            7 
 1640000    1.0043119   -6.8439282    523.55825   0.02660357  0.026508137            8 
 1641000   0.97621333   -6.8698272    524.46975  0.026633646  0.026499695            6 
 1642000   0.97885143    -6.850648    524.74152  0.026631218  0.026491245            4 
 1643000   0.98332605   -6.8535047    525.16124  0.026636298  0.026482815            6 
 1644000   0.98719673    -6.827316    526.69675   0.02669793  0.026474561            6 
 1645000   0.98437693   -6.8710092    524.13174   0.02655176  0.026466304            5 
 1646000   0.99423971   -6.8616241    524.99135  0.026579149  0.026457992            2 
 1647000     0.996649   -6.8316636    527.56046     0.026693  0.026449727            3 
 1648000   0.98091882   -6.8650658    527.50748  0.026674124  0.026441379            2 
 1649000    1.0078835   -6.8600076    526.73293  0.026618806  0.026433086            4 
 1650000   0.99954517    -6.888442    525.78306    0.0265547  0.026424728            8 
 1651000   0.99217871   -6.8285798    527.25767  0.026613046  0.026416371            5 
 1652000   0.98461085   -6.8465727    527.77063  0.026622812  0.026407969            2 
 1653000    1.0133259   -6.8520816    527.20803  0.026578344  0.026399441            3 
 1654000   0.98310495   -6.8799841    526.30872  0.026516965  0.026391042           11 
 1655000    1.0045707   -6.8944601     524.5617  0.026412976  0.026382648            8 
 1656000    1.0001466    -6.895809    526.71372   0.02650532  0.026374301            4 
 1657000   0.97379448   -6.8879078    526.60076  0.026483643  0.026365914            3 
 1658000   0.98274746   -6.8862683    527.93428  0.026534694  0.026357566            2 
 1659000   0.99671881   -6.9113356     527.1948  0.026481555  0.026349216            5 
 1660000   0.98978936   -6.8928687    526.29135  0.026420249  0.026340742            7 
 1661000    0.9772598   -6.8347605    528.56517  0.026518421  0.026332457            7 
 1662000   0.98018173    -6.887412    528.53098  0.026500751  0.026324264            4 
 1663000   0.96771108   -6.8965314    528.27795  0.026472136  0.026316012           13 
 1664000   0.98943365   -6.8827561    527.89262   0.02643693  0.026307721            4 
 1665000   0.95913908   -6.8544034    530.21296  0.026537185  0.026299463            6 
 1666000    1.0026027   -6.8731052    528.03142  0.026412136  0.026291264            5 
 1667000   0.97801842   -6.8611347    529.26635  0.026458026  0.026283053            7 
 1668000    1.0150077   -6.8908615    529.59513  0.026458589  0.026274741            2 
 1669000   0.96119308   -6.8607101    529.75784  0.026450861  0.026266579            6 
 1670000   0.97256651   -6.8487559    529.71805  0.026433037   0.02625841            4 
 1671000   0.96857331   -6.8784443    530.19042  0.026440775  0.026250298            7 
 1672000   0.99629571   -6.9193991    529.78172  0.026404591  0.026242022            7 
 1673000   0.99411081   -6.8765707     531.7018  0.026484449  0.026233752            3 
 1674000    0.9675113   -6.8752572    529.50561    0.0263593  0.026225547            4 
 1675000   0.98499948   -6.8602036    531.10257  0.026423013  0.026217304            8 
 1676000   0.98065781   -6.8477695    532.04515  0.026454114  0.026209185            5 
 1677000    1.0021088   -6.8703549    530.39873  0.026356526  0.026201046            5 
 1678000   0.98095064   -6.8842998    531.04522  0.026372925  0.026192796            3 
 1679000    1.0075734   -6.8828162     531.1782  0.026363818  0.026184512            6 
 1680000   0.96717708   -6.8653621    531.15992  0.026347218  0.026176308            6 
 1681000   0.98469499   -6.8543545    532.59306   0.02640259  0.026168069            5 
 1682000   0.96694826    -6.849124    533.14788  0.026414381  0.026159876            4 
 1683000   0.97003632   -6.8666231    531.72404  0.026328186  0.026151677            3 
 1684000   0.98311985   -6.8551426    533.44323  0.026397626  0.026143646            6 
 1685000   0.96724429   -6.8392888    532.65736  0.026343094  0.026135584            4 
 1686000   0.99097282   -6.8446851    534.61328  0.026424144  0.026127511            9 
 1687000   0.98733763   -6.8656282     534.0804  0.026382157  0.026119428            7 
 1688000   0.98110164   -6.8661704     533.8744  0.026356358  0.026111492            3 
 1689000    0.9882545   -6.8832702    533.10855  0.026302968    0.0261034            6 
 1690000   0.98794405   -6.9174955    534.17846  0.026340161  0.026095329            5 
 1691000   0.98902323   -6.8929098    533.93033  0.026312356  0.026087226            4 
 1692000   0.98438988   -6.8709376    535.59705  0.026378893  0.026079153            9 
 1693000   0.98407481   -6.8585063    534.14864  0.026292018  0.026071123            2 
 1694000   0.96173859   -6.8921548    533.52543   0.02624584  0.026062924            5 
 1695000    0.9745567   -6.9131647    534.79548  0.026292797  0.026054605            3 
 1696000     1.000162   -6.8716511    535.08589  0.026291563  0.026046491            3 
 1697000   0.98082691   -6.8709409    534.09021  0.026227176  0.026038454            9 
 1698000   0.97666989   -6.8893305    534.28323  0.026221203  0.026030541            3 
 1699000   0.97771316   -6.8754679     534.7358  0.026227967  0.026022542            3 
 1700000   0.97185771   -6.9036529    535.03335  0.026227125  0.026014558            5 
 1701000   0.98178018   -6.9122576     535.5632  0.026237664  0.026006511            5 
 1702000   0.98219832   -6.8912978    536.87368  0.026286412  0.025998573            3 
 1703000   0.96387257   -6.8825167    537.82211  0.026317386  0.025990629            5 
 1704000   0.97459355   -6.8911447    536.21464  0.026223329  0.025982727            9 
 1705000   0.95876343   -6.8535908    538.48891  0.026319106  0.025974756            5 
 1706000   0.97799257   -6.8786163    536.77685   0.02622005  0.025966878            3 
 1707000   0.98240733   -6.8569793    538.56567  0.026292017  0.025959102            4 
 1708000   0.96061741   -6.8648214    537.81026  0.026239767  0.025951142            3 
 1709000   0.98483611   -6.8751428    537.16764  0.026193078  0.025943351            7 
 1710000    1.0016847   -6.8286184    538.84954  0.026259724    0.0259355            6 
 1711000    0.9688033   -6.8849319     536.6423  0.026136874  0.025927587           12 
 1712000   0.98483092   -6.8945124    536.51062  0.026115197  0.025919625            6 
 1713000   0.99119459   -6.9447922    537.19487  0.026133239  0.025911782            4 
 1714000   0.98320474   -6.8804279    536.94375  0.026105783   0.02590393           10 
 1715000   0.99161455   -6.9168955    538.10305  0.026146892  0.025896049            5 
 1716000    1.0011917    -6.850845    539.71693  0.026210029  0.025888173            7 
 1717000   0.96745844   -6.8942104    538.39306  0.026130512  0.025880373            7 
 1718000   0.96988775   -6.9155618    539.26317  0.026157507  0.025872528            5 
 1719000   0.98337862   -6.9126423    541.07758  0.026230249  0.025864687            4 
 1720000   0.96653543   -6.9374054    539.08007   0.02611822  0.025856754           11 
 1721000   0.95571816   -6.8791343    541.05171  0.026198514  0.025848941            3 
 1722000    0.9491502   -6.8871714    540.73869  0.026168152  0.025841122            6 
 1723000   0.98583189   -6.9014258     539.5974  0.026097766  0.025833328            6 
 1724000   0.97412054   -6.8978709    540.62153  0.026132131  0.025825522            4 
 1725000   0.97115654   -6.8365406    542.57711  0.026211455  0.025817758            6 
 1726000   0.96507022     -6.90412    541.24864  0.026132128  0.025809993            7 
 1727000   0.97978724   -6.8827249    541.03423  0.026106651  0.025802195            3 
 1728000    0.9889224   -6.9000134    542.14146  0.026144939  0.025794447            3 
 1729000   0.98486477   -6.9018997    540.89323  0.026069656   0.02578664            3 
 1730000   0.95858047   -6.8694556    541.67523  0.026092256   0.02577905            4 
 1731000     1.001845   -6.8460521    542.88412   0.02613538  0.025771485            4 
 1732000   0.96912168   -6.8870945    541.27134  0.026042693  0.025763834            4 
 1733000   0.99332221   -6.8756822    543.24847  0.026122738  0.025756073           13 
 1734000   0.98254755   -6.9129571    541.93514  0.026044557  0.025748399           10 
 1735000   0.97954816   -6.8697924    544.28498   0.02614241  0.025740793            3 
 1736000   0.97484223   -6.9035856    542.92647  0.026062139  0.025733113            5 
 1737000   0.98587183    -6.900198    544.03324  0.026100232  0.025725415            6 
 1738000   0.98912124   -6.8895651    542.94126  0.026032857  0.025717632            6 
 1739000    0.9641246   -6.8879615    543.31989  0.026036031  0.025709942            5 
 1740000   0.97543608   -6.9060987    542.37912  0.025976011  0.025702175            4 
 1741000   0.97848033   -6.8939892    542.93059  0.025987487  0.025694376            3 
 1742000   0.95001609   -6.9150802    542.13198  0.025934365  0.025686576            5 
 1743000    0.9638651   -6.8938078     542.0823  0.025917111  0.025678672            4 
 1744000   0.96116508   -6.8666456    544.73924  0.026029207  0.025670881            4 
 1745000   0.96078317   -6.8796974    543.12035  0.025936979  0.025663105            5 
 1746000   0.97251344   -6.9266381    542.76762  0.025905289  0.025655266            3 
 1747000   0.97093581   -6.8609602    544.92969  0.025993593  0.025647537            5 
 1748000    0.9771935   -6.8495948    546.23157  0.026040788  0.025639856            3 
 1749000   0.97434262   -6.8622617    545.65971  0.025998652  0.025632168            6 
 1750000   0.96445381   -6.8936066    545.14915  0.025959483  0.025624329            5 
 1751000   0.98773067   -6.9663013    542.17162  0.025802951  0.025616327            8 
 1752000    0.9718307   -6.9162563     542.6482  0.025810892  0.025608332            7 
 1753000    0.9715808   -6.8840362    543.96056  0.025858555  0.025600308            4 
 1754000   0.98318074   -6.8884274    545.10606  0.025898236  0.025592433            5 
 1755000   0.97617759   -6.9398855    542.46305  0.025757979  0.025584567           12 
 1756000   0.97260496   -6.8978993    545.00658  0.025864018  0.025576579            4 
 1757000   0.96694752   -6.8868624    545.16049  0.025856597   0.02556871            7 
 1758000   0.97005572   -6.9373283    543.84082  0.025779334  0.025560808            6 
 1759000   0.96091194   -6.9074966    544.41235  0.025791754  0.025552882            4 
 1760000   0.94828026   -6.8826041    546.73118  0.025886893  0.025545078            6 
 1761000   0.96527015   -6.8904428    545.94857  0.025835158  0.025537291            8 
 1762000   0.96615593   -6.9240683    545.88708  0.025817588  0.025529527            5 
 1763000   0.95973395   -6.9092393    547.17977  0.025864047  0.025521629            4 
 1764000   0.94144208   -6.8884878    546.43856  0.025814369  0.025513805            5 
 1765000   0.98457461   -6.9289441    547.80638  0.025864324  0.025506052            3 
 1766000   0.95819521   -6.9114096    547.21192  0.025821627  0.025498304            8 
 1767000   0.95331452   -6.9195045    547.60719  0.025825655  0.025490545            5 
 1768000   0.96685077   -6.9094307    548.38896  0.025847896  0.025482831            5 
 1769000   0.96275465   -6.8925462    547.30166  0.025782064  0.025475146            7 
 1770000   0.97624169   -6.8784616    548.04834  0.025802652  0.025467465            4 
 1771000   0.95464224   -6.9169883    548.17839  0.025794202  0.025459759            3 
 1772000   0.99240451   -6.9438762    546.91743  0.025720345  0.025452043            4 
 1773000    0.9657316   -6.9245066    547.25074  0.025721505  0.025444412           14 
 1774000   0.97636958   -6.9130412    547.80753  0.025733161  0.025436699            4 
 1775000   0.96451164   -6.8853975    547.61834  0.025709781  0.025428987            4 
 1776000   0.98897947    -6.925831    547.27119  0.025679016  0.025421332            7 
 1777000   0.98244418   -6.8930449    548.87107  0.025739592  0.025413738            5 
 1778000   0.95721015   -6.9109951    548.07135  0.025687634  0.025406112           10 
 1779000    0.9628197   -6.9155952    548.43083  0.025690033  0.025398424           10 
 1780000   0.95965665   -6.9159272    548.97109  0.025700894  0.025390811            5 
 1781000   0.94709484   -6.9068009    549.65424  0.025718428    0.0253832            4 
 1782000    0.9702991    -6.916713    550.50741  0.025743893  0.025375579            4 
 1783000   0.98453527    -6.914965    551.21566  0.025762557  0.025367932            4 
 1784000   0.96534692    -6.925207    549.37329  0.025662056  0.025360232            6 
 1785000   0.97382182   -6.8855034    550.21584  0.025687014  0.025352526            9 
 1786000    0.9578875   -6.8767846    549.33029  0.025631312  0.025344893            5 
 1787000   0.99150702   -6.9158284    548.74015  0.025589449  0.025337176            3 
 1788000   0.95246453   -6.9499572    549.24526  0.025598679  0.025329458            2 
 1789000   0.95714684   -6.9317906    550.53281  0.025644346  0.025321624            4 
 1790000   0.98112147   -6.9321655    549.51017   0.02558241   0.02531372            4 
 1791000   0.96442492   -6.9332777    548.39685  0.025516325  0.025305949            5 
 1792000   0.96828549    -6.907682    551.19076  0.025632011  0.025298207            4 
 1793000   0.96925325   -6.9185546    550.13623  0.025568704  0.025290444            5 
 1794000   0.96787108   -6.9225552    552.21755  0.025651131  0.025282633            4 
 1795000   0.95666782   -6.9230638    550.47114  0.025555763  0.025274872            9 
 1796000   0.99188453   -6.9115221    552.70483  0.025645176  0.025267219            5 
 1797000   0.96282914   -6.8749653    553.81225   0.02568226  0.025259628            4 
 1798000   0.94954938   -6.8976868    552.40191   0.02560261  0.025252016            5 
 1799000   0.97128774   -6.9374102    551.83326  0.025562037  0.025244368            3 
 1800000   0.95849026   -6.9476442    551.47748  0.025531365  0.025236669            3 
 1801000   0.96513279   -6.9237778    552.94572  0.025585125  0.025229088            6 
 1802000   0.96678813   -6.9017491    554.18592   0.02562828  0.025221413            4 
 1803000   0.97705481   -6.8902775    554.22915  0.025616064  0.025213858            4 
 1804000   0.97924582   -6.9473351    551.50118  0.025475849  0.025206333            5 
 1805000   0.96214482    -6.890652    554.17346  0.025585109   0.02519881            5 
 1806000   0.96652328   -6.9210916    550.96152  0.025422735  0.025191221            2 
 1807000   0.95266476   -6.9596353    553.09659  0.025507129  0.025183737            4 
 1808000   0.96759081   -6.9200031     554.6195  0.025563215  0.025176161            6 
 1809000   0.95405701   -6.8963523    552.66938  0.025459249  0.025168668            4 
 1810000   0.96016993   -6.8867466    554.38735  0.025524279  0.025161181            6 
 1811000   0.95967675   -6.9153993     554.1537  0.025499434  0.025153709            5 
 1812000   0.95679163    -6.938178    555.41604  0.025543416  0.025146144            4 
 1813000   0.96969225   -6.9339015    553.83611  0.025456706  0.025138583            6 
 1814000   0.98510059   -6.8871357    555.04083  0.025498017   0.02513094            5 
 1815000   0.96710669    -6.897586    554.73863  0.025470093  0.025123312            2 
 1816000   0.95852263    -6.944946    554.18481  0.025430654  0.025115636           10 
 1817000   0.95287072    -6.964163    553.83808  0.025400756  0.025107974            4 
 1818000   0.98093001   -6.9193732    554.57083  0.025420372  0.025100281            5 
 1819000   0.96028636   -6.9564992    553.84668  0.025373221  0.025092519            6 
 1820000   0.96305437   -6.9341407    554.45883  0.025387309  0.025084974            4 
 1821000   0.95590432   -6.9222297    555.91636  0.025440068  0.025077286            4 
 1822000   0.94509287    -6.948992    554.67109   0.02536915  0.025069702            4 
 1823000    0.9674221   -6.9334248    557.18481  0.025470141  0.025062162            6 
 1824000   0.97207063   -6.8852568    558.20069   0.02550259  0.025054681            6 
 1825000   0.94299822   -6.9399089    556.53648  0.025412625  0.025047313            3 
 1826000   0.93645663   -6.9601853    555.62704  0.025357203  0.025039788            9 
 1827000   0.96700568   -6.9262463    558.04656  0.025453684  0.025032317            5 
 1828000   0.95942261   -6.9612897    558.60336  0.025465142  0.025024841            5 
 1829000   0.97119873   -6.9723344    556.31139  0.025346792  0.025017288           10 
 1830000   0.97005668   -6.9976426    555.79542  0.025309445  0.025009625            8 
 1831000   0.96312283   -6.9722228    557.62838  0.025379045  0.025002038            6 
 1832000   0.97612618   -6.9163185    557.95168  0.025379898  0.024994626            6 
 1833000   0.97288551   -6.9782256    558.18447  0.025376635  0.024987209            8 
 1834000   0.95212745   -6.9484856    556.65875  0.025293473  0.024979813           12 
 1835000   0.95308243   -6.9571425    558.26421  0.025352598  0.024972309            7 
 1836000   0.95569489   -6.9960557    556.86444  0.025275256  0.024964821            4 
 1837000   0.94975066   -6.9452933    557.06315  0.025270511  0.024957355            7 
 1838000   0.96601442   -6.9326547    558.31199  0.025313384  0.024949868            9 
 1839000    0.9688772   -6.9423826    557.29764  0.025253654   0.02494239           13 
 1840000   0.96056954   -6.9408962    558.91859  0.025313342  0.024934982            3 
 1841000   0.96060387   -6.9343421    559.69752  0.025334851  0.024927675           12 
 1842000   0.94812271   -6.9773095      557.893  0.025239459  0.024920202            8 
 1843000   0.96359973   -6.9606541    559.19714  0.025284732  0.024912737            7 
 1844000   0.95006917   -6.9058606      561.127  0.025358234  0.024905394            7 
 1845000   0.97688983   -6.9215236    560.21336  0.025303223  0.024898054            5 
 1846000   0.95541806   -6.9179577    562.61674  0.025398011  0.024890741            6 
 1847000   0.93806435   -6.9302366    562.66201  0.025386302  0.024883489            5 
 1848000   0.96111791   -6.9320073    559.81479  0.025244174  0.024876176            7 
 1849000   0.95793684   -6.9526455    561.00932  0.025284357  0.024868744            3 
 1850000   0.97323049     -6.95364    560.24889  0.025236437  0.024861288            4 
 1851000   0.94324233   -6.9438803    562.82867  0.025338946   0.02485383            3 
 1852000   0.93261909    -6.940652    559.36244  0.025169296   0.02484641            2 
 1853000   0.95797584    -6.975873    559.96209  0.025182681  0.024838851            5 
 1854000   0.97497791   -6.9407331     560.7142  0.025202903  0.024831331            3 
 1855000   0.95334033   -6.9701122    560.27217  0.025169459  0.024823893            5 
 1856000   0.95145547   -6.9312406    561.93747  0.025230669  0.024816493            4 
 1857000   0.95930847   -6.9600614    560.69032  0.025161116  0.024809119            3 
 1858000   0.95607784   -6.9411862    561.26647  0.025173416  0.024801736            5 
 1859000   0.96374186   -6.9243924    563.70645  0.025269251  0.024794395            9 
 1860000   0.95566047   -6.9487701    561.55915   0.02515946  0.024787079            3 
 1861000   0.93255926   -6.9781037    561.74512  0.025154268  0.024779705            4 
 1862000    0.9603214   -6.9958931    561.41542  0.025126003  0.024772369            3 
 1863000   0.95204603    -6.916974    564.07142  0.025231321  0.024765115           10 
 1864000   0.96117065   -6.9519379    564.19538  0.025223327  0.024757869            6 
 1865000   0.96620094    -6.887107    564.62716  0.025229096  0.024750662            2 
 1866000   0.95932551    -6.942264    564.43877  0.025207162  0.024743564            8 
 1867000   0.95985671   -6.9610606    564.71346  0.025205921  0.024736328            2 
 1868000   0.95327257   -6.9605639    564.19599  0.025169343  0.024729124            8 
 1869000    0.9539984   -6.9749148    563.63438  0.025130835  0.024721813            2 
 1870000   0.96896516    -6.936489    566.37558  0.025239553  0.024714553            5 
 1871000   0.95146445   -6.9765207     562.6658  0.025060832  0.024707287            5 
 1872000   0.94533365   -6.9675432    564.11321  0.025111877  0.024699949           10 
 1873000   0.95584433   -6.9484189    563.74777  0.025082211  0.024692669            4 
 1874000    0.9572174   -6.9646709    563.35357  0.025051297  0.024685315            3 
 1875000   0.94374586   -6.9648625    564.21246   0.02507611  0.024677987            3 
 1876000   0.93541027   -6.9401874    566.19476  0.025150798  0.024670695            7 
 1877000   0.96006639   -6.9697251    565.69428  0.025115178  0.024663393            6 
 1878000   0.95339395   -6.9348604    565.35454  0.025086729  0.024656123            8 
 1879000   0.94263173   -6.9894355    564.85213  0.025051097  0.024648839            3 
 1880000   0.98093924   -6.9545289    565.66061  0.025073608  0.024641581            6 
 1881000   0.95734304   -6.9715223    565.35392  0.025046691  0.024634354            5 
 1882000   0.96152689   -6.9525064    567.06527   0.02510916  0.024627101            6 
 1883000   0.96162232     -6.91249    567.83184   0.02512975  0.024619955            4 
 1884000    0.9342256   -6.9416403    566.70665  0.025066642  0.024612868            8 
 1885000   0.95506071   -6.9723081    566.33281  0.025036817  0.024605753            5 
 1886000   0.97137748   -6.9338507    567.64504  0.025081524  0.024598611            3 
 1887000   0.96380476   -6.9591306     566.3685  0.025011857  0.024591473            4 
 1888000   0.93747991   -6.9899647    566.15792  0.024989315  0.024584338            8 
 1889000   0.93639962   -6.9744754    568.15939  0.025064381  0.024577083            4 
 1890000   0.96283447   -6.9844334    567.38807  0.025017111  0.024569889            5 
 1891000   0.96080117   -6.9854759    568.38269  0.025047712  0.024562632            6 
 1892000   0.93846735   -6.9461319    569.23758  0.025072128  0.024555477            4 
 1893000   0.93859961   -6.9971426    567.16012  0.024967429  0.024548427           12 
 1894000   0.93817052   -6.9760035    568.01255  0.024991753  0.024541279            5 
 1895000   0.92994582   -6.9550762    569.65636  0.025050851    0.0245341            3 
 1896000   0.95738118   -6.9927955    569.00542  0.025009029  0.024526945            4 
 1897000   0.96192292   -6.9941553    569.07887  0.024999072  0.024519813            5 
 1898000   0.93857256   -6.9939266    568.10392  0.024943094  0.024512674            6 
 1899000   0.96330157     -6.97148    570.77216  0.025047049  0.024505583           11 
 1900000    0.9241043   -6.9562434    570.22227  0.025009749  0.024498492            6 
 1901000   0.95743229   -6.9620122    568.24293  0.024909825  0.024491433            4 
 1902000   0.95185151   -6.9912851    568.28267   0.02489847  0.024484236            5 
 1903000   0.94356783   -7.0074099    567.01651   0.02482994  0.024476988            5 
 1904000    0.9494977   -6.9730036    568.51387  0.024882435  0.024469737            9 
 1905000   0.95065278   -6.9804312    568.61497  0.024873796  0.024462512           13 
 1906000   0.94596813   -6.9504735    570.05624   0.02492376  0.024455241            3 
 1907000   0.95689935   -6.9929795    569.10112  0.024868953  0.024448023            5 
 1908000   0.95646781   -6.9742339    569.87888  0.024889888  0.024440833            5 
 1909000   0.94598958   -6.9606135    569.91938  0.024878618  0.024433633            7 
 1910000   0.94429169   -6.9745145     571.7318  0.024944669  0.024426457            3 
 1911000   0.94916527   -6.9592109    571.64201    0.0249277  0.024419324            4 
 1912000   0.93786284   -6.9225179    574.24269  0.025028011  0.024412262            6 
 1913000   0.95917048   -6.9571456    572.34385  0.024932212  0.024405132            4 
 1914000   0.95601016   -6.9788241    570.80937  0.024852376   0.02439795            4 
 1915000   0.96809733   -7.0010053    570.54902  0.024828069   0.02439081            9 
 1916000   0.93452909   -6.9741752    571.41988  0.024852987  0.024383632            8 
 1917000   0.95579857   -7.0005034    570.20993  0.024787425  0.024376461           10 
 1918000   0.96658354   -6.9850555    570.04393  0.024767289  0.024369364            5 
 1919000   0.95730831   -6.9567438    572.01635  0.024840036  0.024362282            9 
 1920000   0.95447661   -6.9568097    572.36968  0.024842434  0.024355217           11 
 1921000    0.9438133   -6.9807715    571.57864  0.024795187  0.024348212            3 
 1922000   0.95716603   -6.9994536     570.9361  0.024754427  0.024341104            5 
 1923000   0.94954635   -6.9927959    571.86826  0.024781949  0.024334145            9 
 1924000   0.95579665   -6.9671216    572.93713  0.024815364  0.024327193            5 
 1925000   0.93615753    -6.998016    572.41624  0.024779924  0.024320137            4 
 1926000   0.96036273    -6.997487    570.82924  0.024698392  0.024312835            3 
 1927000   0.94290433   -6.9899246    572.41364  0.024754093  0.024305687           10 
 1928000   0.96101263   -6.9699404    574.24842  0.024820558  0.024298585            4 
 1929000   0.95883972   -6.9744459     573.1895  0.024761945  0.024291506            9 
 1930000   0.95128366   -6.9795805    573.33695  0.024755482  0.024284337            4 
 1931000   0.96428213   -6.9863936    570.99107  0.024641424  0.024277136            4 
 1932000   0.91925314   -7.0138374     571.7489  0.024661357  0.024269878            5 
 1933000    0.9396754   -6.9951123    571.68661  0.024645914  0.024262629            9 
 1934000   0.94116867   -6.9894451    572.82899  0.024682394  0.024255411            5 
 1935000   0.94328011   -7.0060177    572.29198  0.024646511  0.024248227            4 
 1936000   0.92658599   -7.0095717    573.24329  0.024674728  0.024241047            4 
 1937000   0.95106409   -6.9803554     574.6552  0.024722733  0.024233878            4 
 1938000    0.9489449   -6.9645004    574.27603  0.024693672  0.024226797            6 
 1939000   0.94344539   -6.9398826    574.43954  0.024687964  0.024219728            4 
 1940000    0.9608628   -6.9879422    573.85847  0.024650278  0.024212589           11 
 1941000    0.9129334   -6.9671479    573.82582  0.024636176  0.024205361            6 
 1942000   0.93764288   -6.9932826    574.27755  0.024642874  0.024198127            6 
 1943000   0.93870756   -6.9889472    571.73038  0.024520946  0.024190839            5 
 1944000   0.94383766   -7.0170798    572.76748   0.02455279  0.024183553            5 
 1945000   0.94957223   -6.9748705    572.75775  0.024539749  0.024176274            5 
 1946000   0.93581396   -6.9716887    573.94192  0.024577849  0.024169104            8 
 1947000   0.93863676   -7.0234576    574.47681  0.024588119   0.02416186            5 
 1948000   0.93446007   -6.9904129    575.20133  0.024606491  0.024154644           12 
 1949000   0.93089081   -6.9745606    574.41068   0.02456006  0.024147402           20 
 1950000   0.95640596   -6.9610782    573.82044  0.024522241  0.024140197            6 
 1951000   0.93437912   -6.9930479    575.33937   0.02457455  0.024133036            8 
 1952000   0.93324643   -6.9987642    576.74829  0.024622109  0.024125875            4 
 1953000   0.93653308   -6.9736955    573.89715  0.024487846  0.024118693            3 
 1954000   0.92765351   -7.0260125    573.38456  0.024453453  0.024111422            5 
 1955000   0.94476701   -7.0077293    575.21708  0.024519057   0.02410418            7 
 1956000   0.95290556   -6.9725298     576.4915  0.024560817     0.024097           15 
 1957000   0.93727753   -7.0265134    577.03787  0.024571532  0.024089783            8 
 1958000   0.91741829   -7.0294002    575.62348  0.024498786   0.02408245           10 
 1959000   0.95339746   -6.9836252      575.191  0.024467883  0.024075291            7 
 1960000   0.92863175   -6.9938709    575.90186  0.024485623  0.024068082            5 
 1961000   0.93744649   -6.9991005    577.39111  0.024536423  0.024060817            8 
 1962000   0.92989424   -7.0115948    575.16288  0.024429276  0.024053565            7 
 1963000   0.94274005   -6.9798107    577.03065  0.024496122  0.024046343            5 
 1964000   0.91832033   -6.9900262    575.03966  0.024399171  0.024038998            5 
 1965000   0.92181304   -6.9965302    575.47727  0.024405313  0.024031704            3 
 1966000   0.94272506   -6.9756597    577.39278  0.024474092  0.024024481            4 
 1967000    0.9323902   -6.9812466    577.34282  0.024459533  0.024017314            9 
 1968000     0.942119   -7.0500021    575.49333  0.024368789  0.024010087            4 
 1969000   0.94233353   -7.0437147    576.37688  0.024393807  0.024002853            4 
 1970000   0.91883385   -7.0009174    575.87579  0.024360228  0.023995617            5 
 1971000   0.94892866    -6.996542    578.79849   0.02447144  0.023988589            3 
 1972000   0.92856575   -6.9941434    578.62638  0.024451757  0.023981459            6 
 1973000   0.92567389   -7.0103091    578.67705  0.024441504  0.023974304            6 
 1974000   0.95090606   -6.9973583     579.3208  0.024456299  0.023967235            5 
 1975000   0.92459722   -7.0068375    580.85397  0.024508606  0.023960251           12 
 1976000   0.93162535   -6.9582913    579.68979  0.024447107  0.023953219           12 
 1977000   0.94091208   -7.0420203    578.92647  0.024402566  0.023946105            5 
 1978000    0.9292489   -6.9997702    579.44668  0.024412145  0.023939006            5 
 1979000   0.92634696   -6.9750729    580.33832  0.024437356  0.023931949            4 
 1980000   0.92817728   -7.0295049    578.70097  0.024356102   0.02392484            3 
 1981000   0.92088216   -7.0021313    578.18005  0.024321893  0.023917778            8 
 1982000    0.9150263   -6.9658227    581.21568  0.024437255  0.023910731            9 
 1983000   0.94026429    -7.004766    579.71974  0.024362067   0.02390367            4 
 1984000   0.94097799   -6.9979133    578.90606  0.024315611  0.023896613            9 
 1985000   0.95412982    -7.048319    579.46486   0.02432682  0.023889559            5 
 1986000   0.91761206   -7.0248989    580.35383  0.024351873  0.023882461            6 
 1987000   0.93311506   -6.9651656    581.74347  0.024397898  0.023875338            5 
 1988000   0.91582191   -7.0433521    579.67583  0.024298953  0.023868273           10 
 1989000   0.93002635   -7.0601533    580.69614  0.024329485  0.023861071            4 
 1990000   0.94285911   -6.9939808    580.49397  0.024308793  0.023853993            8 
 1991000   0.93121667   -7.0238111    581.85177  0.024353414  0.023846892            3 
 1992000   0.94127413   -7.0196906    580.91831  0.024302138  0.023839837            8 
 1993000   0.92636145   -7.0287998    579.63448  0.024236264  0.023832694            6 
 1994000   0.92937882   -7.0432381    579.64705  0.024224634  0.023825615            2 
 1995000   0.93147723   -7.0325273    579.98791   0.02422673  0.023818489            6 
 1996000    0.9409149   -7.0091302    579.77911  0.024205875  0.023811313            6 
 1997000   0.93791109   -6.9836533    582.53627  0.024308808  0.023804219            7 
 1998000   0.93690512   -6.9662822    583.39459   0.02433244  0.023797291           14 
 1999000   0.92611712   -7.0074855    582.47188  0.024281803   0.02379027            5 
 2000000   0.92817921   -7.0129038    581.14706  0.024214461  0.023783188            4 
 2001000   0.92677586   -7.0000137    584.60374  0.024346316  0.023776094            5 
 2002000   0.93416562   -7.0200012    581.86693  0.024220235  0.023769096            7 
 2003000   0.90430356    -6.992225    583.88134  0.024291951  0.023762016           13 
 2004000   0.92555757    -7.022488    582.19912  0.024209877  0.023755059           23 
 2005000    0.9454645   -7.0221888    581.84744  0.024183185  0.023748006            9 
 2006000   0.92205547   -7.0380292     580.5418  0.024116891  0.023740847            4 
 2007000   0.93715467   -7.0288297    581.33085  0.024137637  0.023733693           12 
 2008000   0.90765022   -7.0038923    583.79592  0.024227918  0.023726633            6 
 2009000   0.92114167   -6.9972643    586.09059  0.024311041  0.023719597            6 
 2010000   0.95322812   -7.0007225    584.89588  0.024249415   0.02371262            4 
 2011000   0.94393138   -7.0207659    584.70584  0.024229481  0.023705586            9 
 2012000   0.93779079    -7.001488    584.21427  0.024197079  0.023698612           10 
 2013000   0.95041441    -7.004044    584.65884  0.024203463  0.023691656            2 
 2014000   0.95446099   -7.0201869    582.63546  0.024107723  0.023684668            6 
 2015000   0.91185584   -7.0347934    584.07775  0.024155407  0.023677553           12 
 2016000   0.93632899   -7.0268585    584.01275  0.024140739  0.023670552           12 
 2017000   0.93169897    -7.019787    584.51197  0.024149395  0.023663592            7 
 2018000   0.92243279   -7.0280863    583.93382  0.024113554  0.023656624            4 
 2019000   0.96010325   -7.0688284    583.83065  0.024097352   0.02364969            7 
 2020000   0.93332681   -7.0395355    585.21051  0.024142348  0.023642709            9 
 2021000   0.91365107   -7.0096812    586.95071  0.024202157  0.023635798            4 
 2022000   0.91138418    -7.035857    585.33161  0.024123459  0.023628923            6 
 2023000    0.9308632   -7.0029347    586.84378  0.024173825     0.023622            3 
 2024000   0.91395411   -7.0368227    585.02595  0.024087037  0.023614933            5 
 2025000   0.90957835   -7.0300686    585.78237   0.02410627  0.023608008            4 
 2026000   0.91322387   -7.0450408    585.76791  0.024093777  0.023600986            4 
 2027000   0.91344845    -7.020782    587.13435  0.024138067  0.023594086            4 
 2028000   0.93703818   -7.0331728    586.42703    0.0240971  0.023587238           11 
 2029000    0.9146409   -7.0060319    587.96099  0.024148225  0.023580425           11 
 2030000   0.93881933   -7.0216794    586.01393  0.024056401  0.023573609            5 
 2031000   0.93911383     -7.03749    588.46945  0.024145308  0.023566693            5 
 2032000   0.91973112   -7.0462967    586.26726  0.024043113   0.02355972            7 
 2033000   0.90774415   -7.0420919    586.24651  0.024030436  0.023552754            5 
 2034000   0.91138024   -7.0367527    587.51187  0.024070463  0.023545763            6 
 2035000   0.92597723   -7.0230005    588.23374  0.024088196  0.023538779            2 
 2036000   0.92490285   -7.0280241    587.92246  0.024063624  0.023531988            5 
 2037000   0.92186681   -7.0327485    586.12084  0.023978107  0.023525072            7 
 2038000   0.91356218   -7.0336514    586.99965  0.024002275  0.023518139            5 
 2039000   0.92983514   -7.0442436    586.54642   0.02397198  0.023511239            4 
 2040000    0.9173523    -7.075765    587.75146  0.024009455  0.023504283            8 
 2041000   0.92702459   -7.0425567     588.1701  0.024014784  0.023497289            9 
 2042000   0.91039082   -7.0334431    587.90851  0.023992349  0.023490341            3 
 2043000   0.92747353   -7.0550277    589.09779  0.024029115  0.023483493            6 
 2044000   0.92205074   -7.0361244    589.15055   0.02401951  0.023476685           11 
 2045000   0.92147889   -7.0776086    587.25507  0.023930524  0.023469843            7 
 2046000   0.92083906   -7.0214369    590.45556  0.024049184  0.023462994            5 
 2047000    0.9208402   -7.0534911    589.02389  0.023979152  0.023456126            7 
 2048000   0.91442329   -7.0512714    589.33999  0.023980306  0.023449199            3 
 2049000   0.92038751   -6.9937343    589.05786  0.023957128  0.023442332            5 
 2050000   0.92047428    -7.018061    588.92758  0.023940145  0.023435523            6 
 2051000   0.91595175    -7.009042    590.19012  0.023979771  0.023428661            4 
 2052000   0.92368705   -7.0284127    590.68453  0.023988163  0.023421869           10 
 2053000    0.9359002   -7.0129572    590.76941  0.023979924  0.023415062            7 
 2054000   0.91814365    -7.052418     591.0523  0.023979727  0.023408237            7 
 2055000   0.92345956   -7.0558827    587.78836    0.0238357  0.023401355           11 
 2056000   0.91966475   -7.0512065    588.97337  0.023872137  0.023394507            4 
 2057000   0.92443577    -7.062233    589.18333  0.023869038  0.023387625            8 
 2058000   0.92578934   -7.0809639    589.23316  0.023859457  0.023380637            6 
 2059000    0.9206367   -7.0705808    588.71701   0.02382698   0.02337366           16 
 2060000   0.92363337   -7.0814707    587.33752  0.023759608  0.023366661            7 
 2061000   0.92288935   -7.1011141    588.06172  0.023777362  0.023359639            5 
 2062000   0.91697366   -7.0674206    588.95335  0.023801865  0.023352558            4 
 2063000   0.91508152   -7.0284959    591.06948  0.023875807  0.023345682            3 
 2064000   0.90810445   -7.0205265    590.55418  0.023843434  0.023338822            7 
 2065000   0.93236909   -7.0559181     590.5128  0.023830218  0.023331891            8 
 2066000   0.89909606   -7.0577375    592.65661  0.023905155  0.023324937           10 
 2067000   0.91134653   -7.0240934    591.82363  0.023860008  0.023318043           18 
 2068000   0.94877305   -7.0549691    591.22365  0.023824293  0.023311095            7 
 2069000   0.91207341   -7.0547298    591.17376  0.023810769  0.023304187            4 
 2070000   0.92140976   -7.0450504    592.14166  0.023838231  0.023297255            5 
 2071000   0.91783368   -7.0459559    591.37532  0.023795885  0.023290419           14 
 2072000   0.92711179   -7.0559412    592.59243  0.023833351  0.023283498            4 
 2073000    0.9232066   -7.0512546    590.33688  0.023731182  0.023276561           11 
 2074000    0.9050627   -7.0338558    592.59698  0.023810551  0.023269715            3 
 2075000   0.89771943   -7.0476814    592.82736  0.023808328  0.023262808           10 
 2076000   0.90171245   -7.0353084    591.88814  0.023759158   0.02325585            3 
 2077000   0.92717218   -7.0405501    592.56133  0.023774728  0.023248944            3 
 2078000   0.92347603   -7.0415514    591.40566  0.023716942  0.023241977            4 
 2079000   0.90643183   -7.0820877     592.2115  0.023737835  0.023234957            5 
 2080000   0.90089692   -7.0762857    590.96186  0.023676357  0.023227906            7 
 2081000   0.91652991   -7.0684336    591.21789  0.023675232  0.023220875            4 
 2082000   0.93585173   -7.0508381    591.70962  0.023683542  0.023213837            5 
 2083000   0.91055264    -7.103371    590.98465  0.023643169  0.023206851            7 
 2084000   0.92428899   -7.0867758    590.35337  0.023606581  0.023199786            7 
 2085000   0.91424559   -7.0634248    591.21233  0.023629589  0.023192648            7 
 2086000   0.92218057   -7.0489913    592.99584  0.023689511    0.0231856            8 
 2087000   0.92346591   -7.0597233    592.85525  0.023672546  0.023178594            9 
 2088000   0.92010035   -7.0653377     592.4423  0.023644728  0.023171599           11 
 2089000   0.91223743   -7.0897186    592.26443  0.023626314  0.023164542            4 
 2090000   0.89324647   -7.0770479    590.58193  0.023547924  0.023157558           10 
 2091000   0.91360561   -7.0745437    591.25519  0.023563494  0.023150441            6 
 2092000   0.92055572   -7.0913896    592.86927  0.023616526  0.023143347            5 
 2093000   0.91505805   -7.0741238    592.09567  0.023574441  0.023136304           10 
 2094000   0.90306592   -7.0341494    593.56356    0.0236216  0.023129312            8 
 2095000   0.92984945   -7.0350169    593.02906  0.023589064  0.023122385            3 
 2096000   0.90562283   -7.0706269    593.83898   0.02361001  0.023115378            6 
 2097000    0.9168946   -7.0438805    593.81688  0.023597873  0.023108375           16 
 2098000   0.90990212   -7.0470922    593.12316  0.023559071  0.023101347            5 
 2099000   0.91465801   -7.0428408    593.13683  0.023548389  0.023094412            5 
 2100000   0.90986285   -7.0799612    592.77193  0.023522695  0.023087455            8 
 2101000   0.91505671    -7.039386     595.2455  0.023609611  0.023080538            4 
 2102000   0.91119279   -7.0083251    594.92029  0.023585486  0.023073717            5 
 2103000   0.92339157   -7.0832868    592.34372  0.023472171  0.023066846            6 
 2104000   0.92135483   -7.0666711    593.68018  0.023513949  0.023059884            6 
 2105000    0.9392664    -7.099362    595.90693  0.023590932  0.023052894            4 
 2106000   0.93551754    -7.067952    594.63998  0.023529597  0.023045916            4 
 2107000   0.89332165   -7.0548518    595.00518  0.023532874  0.023038941            6 
 2108000   0.91368643    -7.079352    596.87391  0.023595585  0.023032046            6 
 2109000   0.93063179   -7.0789491    594.61204  0.023495023  0.023025116            5 
 2110000   0.90367834   -7.0918504    594.97402  0.023498184  0.023018177            7 
 2111000   0.89605242   -7.0565364    596.32864  0.023540527  0.023011323            5 
 2112000   0.92171068   -7.0501341     594.1579   0.02344373  0.023004524            7 
 2113000   0.90488748   -7.0533754    597.23264  0.023553898  0.022997601            4 
 2114000   0.91121926   -7.0690595    596.18711  0.023501542  0.022990689            6 
 2115000   0.91587201    -7.036473     596.5468  0.023504602  0.022983823            4 
 2116000   0.91968463   -7.0645688    596.23522  0.023481223  0.022976958            7 
 2117000    0.9197543   -7.0454281    598.08944  0.023543121  0.022970106            7 
 2118000   0.92417771   -7.0361114     596.3518  0.023463637  0.022963231            5 
 2119000   0.93109947   -7.0432339    595.50455  0.023419245   0.02295635            7 
 2120000   0.91791148   -7.1142003    594.89782  0.023384348    0.0229494            5 
 2121000   0.91853367   -7.0769585    596.08069  0.023419798  0.022942352            6 
 2122000    0.9088856   -7.0702263    597.02294  0.023445764  0.022935473            6 
 2123000   0.91482206   -7.0883827    596.75017  0.023424014  0.022928524            6 
 2124000   0.91728663    -7.084467    596.54352  0.023404878  0.022921574            9 
 2125000   0.93886942   -7.0828589    595.78368  0.023364066  0.022914653            7 
 2126000   0.90371082   -7.0614157    597.27962  0.023411713  0.022907733            7 
 2127000   0.93082859   -7.0824586    598.86275  0.023462731  0.022900866            6 
 2128000   0.90811512   -7.0606876    596.89886  0.023374799   0.02289393            5 
 2129000   0.90244131       -7.081     597.0928  0.023371411  0.022887007            8 
 2130000   0.92073231   -7.0721721    596.47031  0.023336084  0.022880155            5 
 2131000   0.89604583    -7.037809    598.43355  0.023401906  0.022873161            5 
 2132000   0.90299441   -7.0581519     597.4944  0.023354221  0.022866209            4 
 2133000    0.9027939   -7.0705571    598.11724  0.023367606  0.022859289           12 
 2134000   0.89876933   -7.0874454    596.61513  0.023297998  0.022852416            7 
 2135000   0.91891382   -7.0578804    597.81953  0.023334096  0.022845529            7 
 2136000   0.91255371   -7.1022372    597.01843  0.023291918  0.022838599            9 
 2137000   0.90348063   -7.1054502    597.08903  0.023283771  0.022831669            4 
 2138000   0.91026858   -7.0728129    598.58236  0.023331087  0.022824781            9 
 2139000    0.9098652   -7.0719703    598.84883  0.023330561   0.02281792            4 
 2140000   0.91250658   -7.0887539    598.58207  0.023309271  0.022811037            5 
 2141000   0.90164358   -7.1158064    599.99404  0.023353341  0.022804087            3 
 2142000   0.90424843   -7.1103669    597.19295  0.023233464  0.022797179            5 
 2143000   0.89187831   -7.0834106    598.96815  0.023291653  0.022790298            6 
 2144000   0.89105487   -7.0963917    599.56925  0.023304153   0.02278346            2 
 2145000   0.91232854   -7.1164294    599.45944  0.023289023  0.022776609            9 
 2146000   0.89835535   -7.0784411    599.95886  0.023297564  0.022769781            5 
 2147000   0.88961077   -7.0696222    600.10263  0.023292293  0.022762989            4 
 2148000   0.92348077   -7.0439713    600.62043  0.023301537  0.022756289           11 
 2149000   0.91160118   -7.0497705    602.22525  0.023352926  0.022749623            8 
 2150000   0.89796058   -7.0512547    601.02375  0.023295494  0.022742864            5 
 2151000   0.88926365   -7.0384915    603.35198  0.023374864  0.022736165            9 
 2152000   0.91587775   -7.0617964    601.87461  0.023306792  0.022729437            6 
 2153000   0.91237719   -7.0695449    601.63981  0.023286879  0.022722691            4 
 2154000   0.91760414   -7.1106003    600.54113  0.023233563  0.022715933            5 
 2155000   0.90096961   -7.0579207    603.30808  0.023329779  0.022709249            3 
 2156000   0.90858564   -7.0955325    601.08884   0.02323318  0.022702535            6 
 2157000   0.89632898   -7.0515649    603.42131  0.023312522  0.022695712           13 
 2158000   0.88958352   -7.1109491    601.48813  0.023227067  0.022688926            5 
 2159000   0.91245403   -7.1134212    601.04164  0.023199075  0.022682077            5 
 2160000   0.89746664   -7.0682479    601.35139  0.023200285  0.022675337            3 
 2161000   0.89719121   -7.0877581    602.93619  0.023250663  0.022668481            8 
 2162000   0.90197003   -7.1143542    602.11072  0.023208091  0.022661674            9 
 2163000   0.89781058   -7.0897484    601.49116  0.023173492   0.02265486            3 
 2164000   0.88946524   -7.0758048     603.7376  0.023249291  0.022648126            5 
 2165000    0.8875139   -7.1173275    600.59413  0.023117557  0.022641266            4 
 2166000    0.9268525   -7.0702079    603.05893  0.023201713  0.022634514            4 
 2167000   0.90630175   -7.0890168    602.68218  0.023176518  0.022627726            6 
 2168000   0.88053476    -7.094057    603.03346   0.02317933  0.022620972           10 
 2169000   0.91580484   -7.0835411    602.65787  0.023154214  0.022614178            7 
 2170000   0.92049285   -7.1129586    601.33958  0.023092918  0.022607366            5 
 2171000   0.90386407   -7.1644391    600.41631  0.023046841  0.022600573            6 
 2172000   0.88852792   -7.1236059      599.757  0.023010935  0.022593646            4 
 2173000   0.90438717   -7.1203635    602.53041  0.023106704  0.022586751            8 
 2174000   0.90628502   -7.1191735    602.83356  0.023107696  0.022579848            6 
 2175000   0.90380766   -7.1423205    600.53682  0.023009074   0.02257292            8 
 2176000   0.90394404   -7.1295841    601.13331  0.023021343  0.022566031            5 
 2177000   0.91091956   -7.0869698    603.86838  0.023115464  0.022559221            7 
 2178000   0.90890148   -7.1040333    603.75783  0.023100621  0.022552441            3 
 2179000   0.89765936   -7.1242061    602.31692  0.023034914   0.02254565            3 
 2180000   0.89733986   -7.1216161    603.70091  0.023077252  0.022538935            3 
 2181000   0.89333642   -7.0727374    604.60356   0.02310116  0.022532272            7 
 2182000   0.90232049    -7.049171    606.24802  0.023153377  0.022525666            4 
 2183000   0.88991388     -7.08079    605.82537  0.023126636  0.022518983            5 
 2184000   0.88626451   -7.0858718    606.41032  0.023138367  0.022512364            6 
 2185000   0.88942249   -7.1090937     605.4715  0.023091972  0.022505723            9 
 2186000   0.89866675    -7.139826    604.17569   0.02303201  0.022499048            7 
 2187000   0.90732964   -7.0942254    605.68562  0.023079013  0.022492371            4 
 2188000   0.88583715   -7.1122833    603.35187  0.022979581  0.022485626            5 
 2189000   0.90859186   -7.1010947    605.71373  0.023058997  0.022478924            6 
 2190000   0.90729645   -7.0944165      604.648  0.023007915  0.022472254            5 
 2191000   0.91457316   -7.1206747    604.15571   0.02297869  0.022465557            9 
 2192000   0.89215482   -7.1070263    604.13383  0.022967375  0.022458806            7 
 2193000   0.88943885   -7.0989491    606.87528  0.023061076  0.022452099            4 
 2194000   0.88832482   -7.1491652    604.91579  0.022976139  0.022445285            9 
 2195000   0.91878886   -7.1258582    604.25404  0.022940548  0.022438507            8 
 2196000   0.90443472   -7.1389525    604.33856  0.022933309  0.022431749            5 
 2197000      0.90201   -7.1164234    606.28268  0.022996612  0.022424958           11 
 2198000   0.89480894   -7.0879231    608.62362  0.023074902  0.022418226           15 
 2199000   0.91668634   -7.1109128    605.11253  0.022931352  0.022411469            8 
 2200000   0.88952572   -7.1261434    605.79548  0.022946799  0.022404704            5 
 2201000   0.89135064   -7.0989761    607.35636   0.02299547  0.022397952            8 
 2202000   0.90285989   -7.1311913     607.3438  0.022984552  0.022391204            8 
 2203000   0.90698296   -7.1093216    605.79383  0.022915488  0.022384434            9 
 2204000   0.89673859   -7.0990012    605.99258  0.022912605  0.022377707            8 
 2205000   0.90435226   -7.1144829    604.85923  0.022859381  0.022370978            8 
 2206000   0.90569129   -7.1150241    605.09435  0.022857901  0.022364236            9 
 2207000   0.89183379   -7.1127932    606.70097  0.022908207  0.022357449           12 
 2208000   0.91868211   -7.1097439    606.52802  0.022891305  0.022350653            6 
 2209000   0.90103338   -7.1279758    604.45246  0.022802643  0.022343912            4 
 2210000   0.90743899   -7.0978687    606.04983  0.022852558  0.022337163            6 
 2211000   0.90951183   -7.1138898    606.29839   0.02285159  0.022330394            5 
 2212000   0.89369797   -7.1236112    606.83018  0.022861294  0.022323599            8 
 2213000   0.90902544   -7.1613785    605.15996  0.022788069  0.022316773            7 
 2214000   0.89254987   -7.1582184    605.95009  0.022807516  0.022309948           12 
 2215000   0.92028421   -7.1253031     607.1199   0.02284123  0.022303151            6 
 2216000   0.90466566    -7.128719    607.75143  0.022854672  0.022296396            9 
 2217000   0.91022618   -7.1240053    607.26856  0.022826212  0.022289647           10 
 2218000   0.89193265   -7.1304673    607.91375  0.022840162  0.022282836            8 
 2219000   0.90747683   -7.1164435    608.28899  0.022843961  0.022276077            6 
 2220000   0.89095149   -7.0987941    608.03254  0.022824044  0.022269386            7 
 2221000   0.90593792   -7.1397799    608.07429  0.022815334  0.022262659            6 
 2222000    0.9180806   -7.1288518    607.07777  0.022767693  0.022255967            6 
 2223000   0.91313512   -7.0910783    609.11915  0.022833976  0.022249291            7 
 2224000   0.89203912   -7.1214735    609.55711   0.02284012  0.022242673            7 
 2225000    0.8940801   -7.1053063    609.62466  0.022832384  0.022236018            3 
 2226000   0.92601715   -7.1426754    608.44735  0.022778053  0.022229398            5 
 2227000   0.89656115    -7.112196    608.66917  0.022776125  0.022222709            9 
 2228000   0.90586537   -7.1440679    608.75136  0.022768977  0.022216074            6 
 2229000   0.91902488   -7.1476227    609.96796  0.022804246   0.02220945            9 
 2230000    0.9006717   -7.0951176    610.30298  0.022806539   0.02220284            3 
 2231000   0.90365296   -7.1098178    609.05013  0.022749519  0.022196269            6 
 2232000   0.90452518   -7.1243111    609.23443  0.022746208  0.022189596           10 
 2233000   0.88794862   -7.1126628    609.08245   0.02273035  0.022182971           13 
 2234000   0.89646019   -7.1264873    610.69431  0.022780301  0.022176325            9 
 2235000   0.88698812   -7.0911899    610.60659  0.022766838  0.022169701            7 
 2236000   0.88827337   -7.1320594     609.9849  0.022733486  0.022163071            3 
 2237000   0.89876457   -7.1320913    612.73299  0.022825696  0.022156491            5 
 2238000   0.90552026    -7.088075    610.90689  0.022747501  0.022149968            7 
 2239000   0.90421784   -7.1400884    610.12084  0.022708085  0.022143418            6 
 2240000    0.8902799   -7.0919877    611.67271  0.022755681  0.022136893            5 
 2241000    0.9174138   -7.1194916    611.65591  0.022744902  0.022130392            5 
 2242000   0.86590584   -7.0776468    612.97143  0.022783654  0.022123831            9 
 2243000   0.90659706   -7.1492487    610.45247   0.02267991   0.02211732           12 
 2244000   0.90870962   -7.0998596    611.74753  0.022717897  0.022110728            6 
 2245000    0.8898245   -7.1141771    610.81793  0.022673271  0.022104092            6 
 2246000   0.90658501   -7.1433468    610.53952  0.022652846  0.022097449            5 
 2247000   0.88871889    -7.142674    611.71592  0.022686394  0.022090839            4 
 2248000    0.8814237   -7.1090217    610.95367  0.022648045  0.022084116            6 
 2249000     0.900767    -7.134148    610.79005  0.022631912  0.022077436            8 
 2250000   0.88449848   -7.1378832     610.8497  0.022624063  0.022070694           11 
 2251000   0.88451507   -7.1484523    609.96281  0.022581179  0.022063942           12 
 2252000   0.88270318    -7.140401    610.33589  0.022584958  0.022057165            7 
 2253000   0.90660708   -7.1658217    609.68872  0.022550996  0.022050402            9 
 2254000   0.91230869   -7.1728203    610.47908  0.022570212   0.02204354           13 
 2255000   0.89736026   -7.1392325    612.00154  0.022616465   0.02203676           16 
 2256000   0.90394327   -7.1351696    610.51498  0.022551528  0.022030046            6 
 2257000    0.9049257   -7.1437478    611.93285  0.022593887  0.022023354            9 
 2258000   0.90704487   -7.1274654    611.31633  0.022561128  0.022016713            6 
 2259000   0.89956895   -7.1384574    609.91803  0.022499558  0.022010101            6 
 2260000    0.8860476   -7.1707852     611.1495  0.022535011  0.022003407            4 
 2261000   0.87965028   -7.1585429    611.38627  0.022533771  0.021996691            6 
 2262000    0.8968241    -7.166374    610.36339  0.022486125  0.021989934            8 
 2263000   0.88357248   -7.1337335    611.21346  0.022507492  0.021983199            4 
 2264000   0.89357779   -7.1283272    611.54516   0.02250976  0.021976511            8 
 2265000   0.88123359   -7.1207628    611.90123  0.022512922  0.021969808            5 
 2266000    0.8835046     -7.12388    611.33043  0.022481996  0.021963077            4 
 2267000   0.88350607   -7.1957449    610.21834  0.022431199  0.021956298            8 
 2268000   0.88544663   -7.1673043      610.182  0.022419973  0.021949448            5 
 2269000   0.90121257   -7.1803675    611.71599  0.022466431   0.02194262            6 
 2270000   0.87486488   -7.1571346    611.22642  0.022438562  0.021935815           16 
 2271000   0.89025909    -7.135961    612.79324  0.022486175   0.02192899            8 
 2272000   0.88455685    -7.136304    611.55221  0.022430759  0.021922211            8 
 2273000   0.89874988   -7.1792796    609.35582  0.022340366  0.021915402            5 
 2274000   0.89833583   -7.1471775    612.00154  0.022427497  0.021908584            5 
 2275000   0.87966755   -7.1115373    612.26542  0.022427305  0.021901803            3 
 2276000   0.85107953   -7.1170179    612.58823   0.02242927  0.021895013            9 
 2277000    0.8964174    -7.139199    613.21067    0.0224422  0.021888229            5 
 2278000   0.88791033   -7.1395361    611.65621  0.022375483  0.021881423            9 
 2279000   0.89218822   -7.1619336    612.19794  0.022385474  0.021874615           11 
 2280000   0.87891845   -7.1908364     611.2178  0.022339832  0.021867782            6 
 2281000   0.87250536   -7.1652563    613.35756  0.022408211   0.02186103            5 
 2282000   0.88595627   -7.0958533    612.83526  0.022379318  0.021854295            6 
 2283000   0.88373805   -7.1562894    613.36976  0.022389026  0.021847622            5 
 2284000   0.90213445   -7.1777366    611.60354  0.022314782  0.021840845           10 
 2285000   0.87890592   -7.1362143    613.86154  0.022387365  0.021834081            6 
 2286000    0.8928549   -7.1815575     611.0121  0.022273699  0.021827307            8 
 2287000   0.88199371   -7.1455668    612.36325  0.022313192  0.021820528           11 
 2288000   0.88875582   -7.1676143    612.67385  0.022314753  0.021813737            7 
 2289000     0.882062   -7.1689733    611.84608  0.022274868  0.021806962           14 
 2290000   0.87336026   -7.1477703    612.58954  0.022292196  0.021800159            9 
 2291000   0.88362001   -7.1605616    612.85923  0.022292275  0.021793351            2 
 2292000     0.887514   -7.1071154    615.21332   0.02236814  0.021786577            6 
 2293000   0.89403863   -7.1511981    613.31229  0.022289297  0.021779787            8 
 2294000   0.86950624   -7.1621262     613.9203  0.022301667  0.021773006           10 
 2295000   0.88421565   -7.1342102    613.54269  0.022278239  0.021766214            9 
 2296000   0.89930241   -7.1316601    614.15627  0.022290805  0.021759481            9 
 2297000   0.87757715   -7.1531273    613.14623  0.022244458   0.02175266            9 
 2298000   0.89827918   -7.1389655     614.5393  0.022285295  0.021745752           16 
 2299000   0.87991917   -7.1602202    614.53232  0.022275349  0.021738924            5 
 2300000   0.89206704   -7.1673836    613.74798  0.022237246  0.021732166            9 
 2301000    0.8908836   -7.1322696    614.15705  0.022242396  0.021725352           18 
 2302000    0.8840592   -7.1494209     613.8108    0.0222202  0.021718535            8 
 2303000   0.89452732   -7.1674632    615.03448   0.02225483   0.02171165            5 
 2304000   0.88597665   -7.1675372    613.42839   0.02218708  0.021704801            8 
 2305000   0.89516462   -7.1871291    613.63716  0.022185002  0.021697935           12 
 2306000    0.8712908   -7.1931496     612.4019  0.022130742  0.021691053            8 
 2307000    0.8845366   -7.2089552    611.06778  0.022072958  0.021684136           14 
 2308000   0.87312098   -7.1510503     614.8986  0.022201712  0.021677277            5 
 2309000   0.86263026   -7.1167107     614.1828  0.022166262   0.02167049            5 
 2310000   0.87206643   -7.1291259      614.911  0.022182937  0.021663711            5 
 2311000    0.8842724   -7.1858522    614.64824  0.022163863  0.021656927            5 
 2312000   0.87268228   -7.1227551    614.22694  0.022139091  0.021650065            8 
 2313000    0.8732247   -7.1666322    615.86527  0.022188545  0.021643245            4 
 2314000   0.88223368   -7.1687261    614.52927  0.022130844    0.0216364           15 
 2315000   0.87217504   -7.2032567    613.64541  0.022089468  0.021629527            8 
 2316000   0.87730514   -7.1562684    613.85213  0.022087368   0.02162266            5 
 2317000   0.89941303   -7.1744432    614.52655  0.022102092  0.021615805            6 
 2318000   0.88601195   -7.1331841    615.04605  0.022111233  0.021608942            4 
 2319000   0.88194691   -7.1549028    614.60738  0.022085934  0.021602044            9 
 2320000   0.88612886   -7.1658632    613.08483  0.022021725  0.021595112            5 
 2321000   0.87627591   -7.2005775    614.06612  0.022047469  0.021588145            7 
 2322000   0.89542556   -7.1845684    613.43525  0.022015333  0.021581218            5 
 2323000   0.89502038   -7.1696575    613.80435  0.022019097  0.021574265            7 
 2324000    0.8698151   -7.1928125    613.30928   0.02199187  0.021567289            6 
 2325000   0.90217221    -7.177749    615.10072  0.022046621  0.021560355           13 
 2326000   0.87492207   -7.1870046    614.50957  0.022015963    0.0215534            7 
 2327000   0.88938157   -7.1444797    613.28878  0.021962784  0.021546429           11 
 2328000   0.87370409    -7.149597    613.84518  0.021973267  0.021539444            7 
 2329000   0.89866177   -7.1723314    614.43799  0.021985043  0.021532579            4 
 2330000   0.86498932   -7.1559645    617.28596  0.022077466  0.021525748            4 
 2331000   0.87526712   -7.1717879    614.42274  0.021965635  0.021518904            4 
 2332000   0.86418033   -7.1936928    613.88475  0.021936991  0.021512002            5 
 2333000   0.88071919   -7.2020264    614.60058  0.021953157  0.021505067           10 
 2334000   0.87387159   -7.1765066    614.89357  0.021954212  0.021498182           10 
 2335000   0.87770053   -7.1911394    613.06028  0.021879382  0.021491277            7 
 2336000    0.8588357    -7.226279    611.91333    0.0218291  0.021484328            7 
 2337000   0.88438534   -7.1846112    614.86685  0.021925077  0.021477341            9 
 2338000   0.86847212   -7.1730071    615.76269   0.02194763   0.02147045            9 
 2339000   0.87352072   -7.1505373    617.31189   0.02199344  0.021463537           10 
 2340000   0.86940435   -7.1703731    615.40791  0.021916236   0.02145672            5 
 2341000   0.86838597   -7.2003984    614.13106  0.021861422  0.021449838           11 
 2342000   0.88188287   -7.1690619    616.71114  0.021943892  0.021443006           13 
 2343000   0.88225989   -7.1477877    615.63634  0.021896299  0.021436162           13 
 2344000   0.86485559   -7.1796455    616.42664  0.021915054  0.021429345            6 
 2345000   0.87897661   -7.1808234    616.35217  0.021903062  0.021422513            6 
 2346000    0.8847981   -7.1710364     615.9828  0.021880605  0.021415692           13 
 2347000   0.87473046   -7.1724967    616.47738  0.021888843  0.021408837            8 
 2348000   0.88008748   -7.1944193    616.13439  0.021867348  0.021402001            4 
 2349000    0.8712237   -7.1868911    614.87391  0.021813322   0.02139516            9 
 2350000    0.8735005   -7.1623755     615.3481  0.021820855  0.021388307            5 
 2351000   0.89786159   -7.1895635    616.07626  0.021837383  0.021381398            4 
 2352000   0.85756618   -7.1951687    615.93144  0.021822968  0.021374554            3 
 2353000   0.85209844   -7.1717926    617.25329  0.021860508  0.021367711            7 
 2354000   0.88182955   -7.1623074     616.5854  0.021827577  0.021360854            6 
 2355000   0.88965648   -7.1506953    617.51713  0.021851279  0.021354017            7 
 2356000   0.87011986   -7.2151645    615.69077  0.021777404  0.021347171           10 
 2357000   0.87789818   -7.1487756    616.91416  0.021811419  0.021340246           11 
 2358000   0.89575121   -7.2184466    614.65626  0.021722373  0.021333395           11 
 2359000   0.88096891    -7.207629    614.57213  0.021710193  0.021326476            6 
 2360000   0.88636562   -7.1699798    617.98814  0.021821615  0.021319599            5 
 2361000   0.87855061   -7.1475247    618.44206  0.021828394  0.021312731           14 
 2362000   0.88806842   -7.2194678    615.39328  0.021711589  0.021305801            3 
 2363000   0.86893508   -7.2205962    616.99134  0.021758758  0.021298805            7 
 2364000   0.86383127   -7.2046999    615.53013  0.021698045  0.021291851            8 
 2365000   0.85054318   -7.1878791    617.79054  0.021768518  0.021284921           14 
 2366000   0.88056893   -7.2035297    617.37839  0.021744801  0.021278012            9 
 2367000   0.87534313    -7.204581    616.06962  0.021689538  0.021271057            4 
 2368000   0.87628907   -7.1839328     617.3501   0.02172544  0.021264167            6 
 2369000   0.86906793   -7.2010931    616.28876  0.021678935  0.021257289            4 
 2370000   0.85539579    -7.208064    617.32022  0.021706055  0.021250399            7 
 2371000   0.86745166    -7.211682    615.55894  0.021634997  0.021243471            5 
 2372000   0.87541891   -7.1899718    617.53957   0.02169546   0.02123653            9 
 2373000   0.86062617   -7.2202103     616.1707  0.021638246  0.021229609            4 
 2374000   0.87993139   -7.2091124      616.784   0.02165066  0.021222612            8 
 2375000   0.87358128   -7.2129098    616.59963  0.021635075  0.021215654            5 
 2376000   0.88465938   -7.1856846    618.09985  0.021678586  0.021208709            6 
 2377000   0.86108255   -7.2056731    616.77563  0.021623041  0.021201771            3 
 2378000   0.88059763   -7.2213775    615.93492  0.021584487   0.02119479            5 
 2379000   0.86457958   -7.2142866    615.99603  0.021577555  0.021187841            9 
 2380000   0.87961873   -7.2220176    616.71123  0.021593531  0.021180914            8 
 2381000   0.86380435   -7.2122358    618.09136  0.021632765  0.021173956           14 
 2382000    0.8734969   -7.2044392    617.81657   0.02161407  0.021167001           17 
 2383000   0.86563043    -7.243982    616.51181  0.021559372  0.021159985           11 
 2384000   0.86879244    -7.206087    617.46038  0.021583486  0.021152943           14 
 2385000   0.86814926   -7.1983051    615.68736  0.021512486  0.021145981           10 
 2386000   0.88375346   -7.1995336    618.58144  0.021604549  0.021139037           10 
 2387000   0.86378327   -7.1818786    617.93336  0.021572872   0.02113212            7 
 2388000   0.86872431   -7.1939861      618.407  0.021580367  0.021125246            9 
 2389000   0.86866377   -7.2176604    616.66276  0.021510491  0.021118415           14 
 2390000   0.88051216    -7.216127    618.14286  0.021553098   0.02111155           13 
 2391000   0.86532484   -7.1704505    618.70938  0.021563829  0.021104737           10 
 2392000   0.85375132   -7.1946117    618.82878  0.021558974  0.021097861            6 
 2393000   0.86522862   -7.1688023    619.58596  0.021576332  0.021090949            4 
 2394000   0.85890258   -7.1887169    618.78335  0.021539381  0.021084074            9 
 2395000   0.87457774   -7.1780098    619.34795  0.021550033  0.021077188            4 
 2396000   0.87523188   -7.1750902    620.25341  0.021572531  0.021070319            7 
 2397000   0.88192592   -7.2272573    617.63195  0.021472394  0.021063453            7 
 2398000   0.87044923    -7.198992    618.71293  0.021501005  0.021056575            5 
 2399000   0.85751373   -7.2232821    618.61892  0.021488777  0.021049632           14 
 2400000   0.86615834   -7.2409992    616.75339  0.021415048  0.021042664           16 
 2401000   0.85789857   -7.2163663    617.70032  0.021438995  0.021035723            4 
 2402000   0.86598551   -7.2026687    618.90234  0.021471771  0.021028815           23 
 2403000    0.8830389   -7.1970809    619.16659     0.021472   0.02102197           18 
 2404000   0.86881589   -7.2289444    619.08867  0.021460367   0.02101507            6 
 2405000   0.87299107   -7.2077587    619.48168  0.021465062  0.021008197           12 
 2406000   0.87615562   -7.2148825    618.79619  0.021432398  0.021001297            5 
 2407000     0.876382   -7.1863019    619.60303  0.021451428  0.020994423            6 
 2408000    0.8766044   -7.1910628     618.2826  0.021396823   0.02098757            5 
 2409000   0.87007739   -7.1822391    619.34631  0.021424737  0.020980679            4 
 2410000   0.85485669   -7.1478149     622.6067  0.021528586  0.020973908            6 
 2411000   0.85195135   -7.1879071    619.16288  0.021400625  0.020967133            5 
 2412000   0.86936498   -7.1944367    622.15394  0.021495092  0.020960335           10 
 2413000   0.87064077   -7.1796904    619.37448  0.021390195  0.020953565            8 
 2414000   0.85650104   -7.1934587    619.64717  0.021390747  0.020946726            9 
 2415000   0.86532855   -7.1985572    620.51152  0.021411716  0.020939875            7 
 2416000   0.86451209   -7.1462697    620.96113  0.021418361  0.020933011           11 
 2417000    0.8665302   -7.2023256    619.60781   0.02136284  0.020926177            6 
 2418000   0.87057842   -7.2164078     620.4444  0.021382837  0.020919323           12 
 2419000   0.85117898   -7.2163874     619.4729   0.02134053  0.020912402            6 
 2420000   0.84923811   -7.2087285     620.9246  0.021381701  0.020905493           11 
 2421000   0.86683707   -7.1956951    621.14482  0.021380449   0.02089863            7 
 2422000   0.88775146   -7.2007138    619.74507  0.021323461  0.020891778            6 
 2423000   0.85467705   -7.2299411    619.73882  0.021314446  0.020884918            4 
 2424000   0.87445373   -7.1910845    621.23284  0.021357015  0.020878076            4 
 2425000   0.85459502   -7.2533632    620.75579  0.021331814  0.020871284            6 
 2426000   0.86468615   -7.2166873    619.85265  0.021291998  0.020864412           10 
 2427000   0.88574381   -7.2160914    622.54628  0.021375713  0.020857529            7 
 2428000   0.87841229   -7.2513892    619.37718  0.021258141  0.020850667            7 
 2429000   0.87149774   -7.2395659    620.53748  0.021289196   0.02084379            9 
 2430000   0.86396452   -7.2224013    621.74004  0.021321675  0.020836926           11 
 2431000   0.89353633   -7.2578987    619.39175  0.021232406  0.020830061            9 
 2432000   0.85814376   -7.2047678    620.98293  0.021278198  0.020823235            4 
 2433000   0.86564721   -7.2157336    622.06148  0.021306394  0.020816448            4 
 2434000   0.85717877   -7.2361736    621.67855   0.02128453   0.02080963            5 
 2435000   0.84454572   -7.2332477    620.95454  0.021251011  0.020802797            7 
 2436000   0.86664396   -7.2428391    620.94697  0.021242028  0.020795953            8 
 2437000   0.84856529   -7.2388317    620.83351  0.021229432  0.020789108            8 
 2438000   0.86303336   -7.1970966      621.445  0.021241626  0.020782277            5 
 2439000   0.86595225   -7.2226568    621.44296  0.021232847  0.020775506            9 
 2440000    0.8343933   -7.1915045     623.4857  0.021293911   0.02076873            9 
 2441000   0.86435016   -7.2102325    621.92875  0.021232034  0.020761945           12 
 2442000   0.87939139   -7.1941841    622.55583  0.021244739  0.020755192            7 
 2443000   0.85255566   -7.2017295    622.82821  0.021245334  0.020748432           10 
 2444000   0.87746704   -7.2268727    622.27189  0.021217672  0.020741615            7 
 2445000   0.85730108   -7.2535469    621.93951  0.021197666  0.020734746           12 
 2446000   0.84567564   -7.2466039    622.21479  0.021198378  0.020727864            7 
 2447000   0.86525479   -7.2434718    621.41727  0.021162555  0.020720998           11 
 2448000   0.84409276   -7.2304201    622.36487  0.021186168  0.020714148           10 
 2449000   0.83666617   -7.2477705    619.88198  0.021093031  0.020707307            7 
 2450000   0.85352145   -7.2304191     622.5994   0.02117685  0.020700426            8 
 2451000   0.87128849   -7.2186625    623.65608  0.021204137  0.020693593           13 
 2452000   0.86784237   -7.2382533    623.44586  0.021188345  0.020686787            6 
 2453000   0.87274996   -7.1722348    625.40094  0.021246125  0.020680015            3 
 2454000   0.87528879   -7.2380936    623.14435  0.021160838    0.0206733            4 
 2455000   0.85655588   -7.1969227    625.50243  0.021232262  0.020666564           11 
 2456000   0.85870471   -7.2477153    622.50392  0.021121876  0.020659772           10 
 2457000   0.85592203   -7.2546489    623.76345  0.021155998  0.020652972            7 
 2458000   0.85358254    -7.228606    622.48029  0.021103888  0.020646173           15 
 2459000   0.84906023   -7.2504968    621.47611  0.021061275  0.020639292            7 
 2460000   0.85473379   -7.2652328    620.93924  0.021034527  0.020632436            7 
 2461000   0.86916267   -7.2627329    620.82105  0.021021978  0.020625551            5 
 2462000   0.85253973   -7.2661945    620.69125  0.021009046   0.02061866            6 
 2463000   0.85918633   -7.2418735    623.37894  0.021091452  0.020611747           15 
 2464000     0.843319   -7.2442139    622.03393  0.021037403  0.020604913           15 
 2465000   0.83627064   -7.2250891    622.94044  0.021059515  0.020598021            9 
 2466000   0.86260462   -7.2566222    621.79392   0.02101223  0.020591174           15 
 2467000    0.8568119    -7.250461    622.27221  0.021019869  0.020584342            6 
 2468000   0.85303461   -7.2244376    624.07903  0.021072361  0.020577563            6 
 2469000   0.85625971   -7.2426228    621.55021  0.020978473  0.020570771            5 
 2470000   0.85077953   -7.2839823    621.94261  0.020983219   0.02056391           10 
 2471000   0.86910729   -7.2493803    623.79179   0.02103709  0.020557047           15 
 2472000   0.84363171   -7.2668089    622.63403  0.020989551  0.020550167           16 
 2473000   0.85363249   -7.2654253     621.9231  0.020957107   0.02054332           13 
 2474000   0.85480629   -7.2395139    623.29741  0.020994928  0.020536427           11 
 2475000   0.87326947   -7.2533936    622.33866  0.020954164  0.020529561            6 
 2476000   0.85038653   -7.2561351    623.15458  0.020973162   0.02052275            8 
 2477000   0.86134715   -7.2277384    622.55219  0.020944428  0.020515945            4 
 2478000   0.85384091   -7.2054461    624.76211  0.021010294    0.0205091            7 
 2479000   0.85663899   -7.2703446    623.05772  0.020944525  0.020502259            6 
 2480000   0.87255587   -7.2358327    623.99221   0.02096748  0.020495469            6 
 2481000   0.86246932   -7.2259696    624.47681  0.020975306  0.020488683            8 
 2482000   0.83944802   -7.2386119    624.32088   0.02096162  0.020481885            6 
 2483000     0.856707   -7.2270308    624.47885  0.020958479  0.020475106            7 
 2484000   0.87747606   -7.2482883    623.06888   0.02090274  0.020468332            9 
 2485000   0.86214311   -7.2223215    626.01029  0.020992967  0.020461517            7 
 2486000   0.85875941    -7.236114    625.26016  0.020959378  0.020454726            6 
 2487000   0.85773922   -7.2007609    626.52711  0.020993403  0.020447947            7 
 2488000   0.85580329   -7.2139932    625.27213   0.02094293  0.020441189            5 
 2489000   0.83712792   -7.2476289    625.03552  0.020926594  0.020434393            6 
 2490000   0.85652422     -7.27456    622.81164  0.020843763  0.020427554            6 
 2491000   0.85216539   -7.2496634    623.60255  0.020861854  0.020420667           18 
 2492000   0.85603051   -7.2703194     622.6431  0.020821399  0.020413811            8 
 2493000   0.84004714    -7.257147    623.57314  0.020844135  0.020406974           11 
 2494000   0.85482537    -7.259881    622.52302  0.020800689  0.020400157            5 
 2495000   0.83334073   -7.2624447    622.76066  0.020800289  0.020393263           14 
 2496000   0.85332151   -7.3048847    622.89633  0.020796485  0.020386298           12 
 2497000   0.87357267   -7.2566253    624.58272  0.020844437  0.020379388            6 
 2498000   0.84911412    -7.312132     624.3142  0.020827135  0.020372511            6 
 2499000   0.83697254   -7.2747506    624.69522  0.020831507  0.020365616           19 
 2500000   0.86360966     -7.27686    623.92915  0.020797638  0.020358671            9 
 2501000   0.82916351   -7.2491577    624.88444  0.020821153  0.020351817            8 
 2502000   0.84535517   -7.2766132    622.94725   0.02074831  0.020344946           12 
 2503000   0.83276271   -7.2805732    623.66258  0.020763836  0.020338068           15 
 2504000   0.85491162   -7.2493347    623.16546     0.020739  0.020331232            6 
 2505000   0.84999253   -7.2680856      625.137  0.020796307  0.020324364            6 
 2506000   0.82249591    -7.274284    623.82216  0.020744286  0.020317532            7 
 2507000   0.85503432   -7.2820744    623.29146  0.020718371  0.020310682            5 
 2508000   0.85489335   -7.2831532    623.35956  0.020712372  0.020303811            5 
 2509000   0.85700679   -7.2382749    624.66211   0.02074738  0.020297004            7 
 2510000   0.82789652   -7.2399361    624.10888  0.020720746  0.020290177            6 
 2511000   0.84218291   -7.2793217    624.58273   0.02072822  0.020283308            7 
 2512000   0.83601136   -7.2527968    624.76176  0.020725908  0.020276458            5 
 2513000   0.84842202   -7.2776009    622.91549  0.020656436  0.020269615           13 
 2514000   0.84000494   -7.2692418    624.45268  0.020699174  0.020262736            9 
 2515000   0.85859061   -7.2609676    625.20574  0.020715896  0.020255911           13 
 2516000    0.8343719    -7.258541    624.98596  0.020700383  0.020249025            4 
 2517000   0.84974978   -7.2550315    624.07715   0.02066207  0.020242131           13 
 2518000    0.8457711   -7.2625419    624.63337  0.020672272  0.020235255            5 
 2519000   0.86456792   -7.2185289    626.15264  0.020714326   0.02022839            9 
 2520000   0.83819351   -7.2782794     625.3899  0.020680883  0.020221581            9 
 2521000    0.8574659   -7.2672539    625.89252  0.020689294  0.020214776            6 
 2522000   0.83238011   -7.2957273    623.34038  0.020596761  0.020207928            7 
 2523000    0.8250001    -7.290111    623.52231  0.020594607  0.020201048            5 
 2524000   0.85898467   -7.2767648    625.73078  0.020659363  0.020194142           17 
 2525000   0.86047858   -7.2703762    624.80376  0.020620586  0.020187314           11 
 2526000   0.84270181   -7.2869055    624.58631  0.020605249  0.020180432           11 
 2527000   0.84536006   -7.2811823    624.66061  0.020599545  0.020173545            5 
 2528000   0.84742465   -7.2809086    625.67614  0.020624873   0.02016668            4 
 2529000   0.85266276   -7.2938549    626.21148  0.020634358   0.02015982            5 
 2530000   0.85951949   -7.2997829    625.02903  0.020587254  0.020152935            5 
 2531000   0.85535128   -7.2839141    625.50413  0.020594763  0.020146088            8 
 2532000   0.84070966   -7.2356842     626.5192  0.020620037  0.020139291            8 
 2533000   0.84317234   -7.2788315    625.99151  0.020594536  0.020132515           12 
 2534000   0.84305615   -7.2957858    625.30762  0.020563918  0.020125696            5 
 2535000   0.84688408   -7.2177401    627.47094  0.020626921  0.020118925            9 
 2536000    0.8404257   -7.2608948    627.02164  0.020604024  0.020112218           10 
 2537000   0.86233836   -7.2758013    626.62756  0.020582957  0.020105519            6 
 2538000   0.83707577   -7.2823585    626.23212  0.020561864  0.020098773            6 
 2539000   0.84396517    -7.258467     626.3865  0.020558832  0.020092003            7 
 2540000    0.8337824   -7.2742663    626.30834  0.020548174  0.020085321            6 
 2541000   0.85673223   -7.2948566    626.39762  0.020543015  0.020078529           11 
 2542000     0.855464   -7.2679767    627.57006  0.020573369  0.020071806            5 
 2543000   0.83077548   -7.2735095    625.86938  0.020509548  0.020065106           12 
 2544000   0.85032374   -7.2841422    627.94744  0.020569557  0.020058378            4 
 2545000    0.8721726   -7.2977947    626.97676  0.020529691  0.020051648           10 
 2546000   0.83599725   -7.2826267    626.64322   0.02051071  0.020044919           12 
 2547000   0.83997529   -7.3049184    627.66212  0.020535994   0.02003821           27 
 2548000   0.85139183   -7.2920232    626.35744  0.020485264  0.020031457           18 
 2549000   0.83807081   -7.3132593    627.07444  0.020500668  0.020024708           20 
 2550000   0.86864363   -7.2929544    628.90023  0.020552295  0.020017987            9 
 2551000   0.83174668   -7.2704124    627.57333  0.020500893  0.020011279            8 
 2552000   0.85742846   -7.2903748    627.88069  0.020502896  0.020004564            5 
 2553000   0.86264021   -7.2808655    629.03036  0.020532392   0.01999784           10 
 2554000   0.83701834   -7.2649978    629.68353  0.020545665  0.019991128           10 
 2555000   0.87143765   -7.2815409    628.39944  0.020495742  0.019984414            7 
 2556000   0.86472738   -7.2742557     630.3119  0.020550075   0.01997773            6 
 2557000   0.84478733   -7.2705473    628.87595   0.02049524  0.019971033            8 
 2558000   0.83371012   -7.3002944    627.67897  0.020448233  0.019964347            6 
 2559000   0.85360571   -7.2726974    627.22691  0.020425521  0.019957648            6 
 2560000   0.83900929   -7.2744617    629.49061  0.020491231   0.01995093            7 
 2561000    0.8398949   -7.3086899     628.2164  0.020441768  0.019944242            6 
 2562000   0.83048695   -7.2813896     629.1159  0.020463046  0.019937549            9 
 2563000   0.84898313   -7.3055894    628.37891    0.0204311  0.019930836            6 
 2564000     0.839564   -7.2708768    630.14251  0.020480451   0.01992407            9 
 2565000   0.83827336     -7.30792    626.47125  0.020353192   0.01991732           15 
 2566000   0.82521573   -7.2739127    628.66958  0.020416653  0.019910619            8 
 2567000   0.84302899   -7.2506732    630.23747  0.020459598  0.019903942           11 
 2568000   0.83460841   -7.2807247    627.33737  0.020357521  0.019897216           17 
 2569000   0.85434719   -7.2895307     628.3723  0.020383168  0.019890502            8 
 2570000   0.85346507   -7.3319708    627.63014  0.020351172    0.0198838            7 
 2571000   0.84154181   -7.3073193    628.52017  0.020372104  0.019877105           35 
 2572000   0.84242775   -7.2732792    628.96788   0.02037869  0.019870382            8 
 2573000   0.83977212   -7.2878502    629.47449  0.020387177  0.019863739            6 
 2574000   0.83449373    -7.321694    628.19507  0.020337836   0.01985703           22 
 2575000   0.84102183    -7.282767    628.87631  0.020351984   0.01985032            6 
 2576000   0.85749645   -7.2791583    628.95956  0.020346777  0.019843618           10 
 2577000   0.84651733   -7.2956863    629.18221  0.020346081  0.019836918           15 
 2578000   0.84682185   -7.3112421    628.89396  0.020328871  0.019830206            7 
 2579000   0.83786408   -7.3099104    627.42324  0.020273466  0.019823474           12 
 2580000   0.84012524   -7.3092535     628.3844  0.020296654  0.019816747            4 
 2581000   0.84688762   -7.2891121     630.0695  0.020343197  0.019809988           10 
 2582000   0.83973172   -7.3126142    627.40419  0.020249296  0.019803272            7 
 2583000   0.83222955    -7.308039    628.54388  0.020278226  0.019796538           11 
 2584000   0.84275351   -7.2807843    630.15002  0.020322176  0.019789832           14 
 2585000   0.84282424    -7.300206    628.51864  0.020261723  0.019783126           13 
 2586000   0.83649956   -7.3207255    628.30744  0.020247082  0.019776419           10 
 2587000   0.84276587   -7.3592942     628.4834  0.020244923  0.019769683           15 
 2588000   0.83734432   -7.3118155    629.29135  0.020263116  0.019762992            8 
 2589000   0.86323102   -7.3319664    627.94019    0.0202118  0.019756293            6 
 2590000   0.83522898   -7.3552096    629.48283   0.02025363  0.019749566           11 
 2591000   0.84305123    -7.343022    626.88284  0.020162191   0.01974284            8 
 2592000    0.8299136   -7.3335407     628.6436  0.020211021  0.019736137           20 
 2593000   0.83818768   -7.3238653    628.72313  0.020205783   0.01972944            9 
 2594000   0.83110249   -7.3238129    629.92563  0.020236624  0.019722776            9 
 2595000   0.83949375   -7.3045987     630.7504  0.020255311    0.0197161            6 
 2596000   0.83469431   -7.3521279    631.26663   0.02026408   0.01970938           12 
 2597000    0.8456308   -7.3075071    629.89846  0.020212375  0.019702686           14 
 2598000   0.83470917   -7.3262588    629.63967  0.020196294  0.019696019           11 
 2599000   0.83683658   -7.3044351    628.17265  0.020141486  0.019689289           14 
 2600000   0.84867217   -7.3306329    629.37759  0.020172359  0.019682574           10 
 2601000   0.86949204   -7.3047586     629.7186  0.020175529  0.019675893            8 
 2602000   0.83803434   -7.3163341    629.69354  0.020166972  0.019669216           11 
 2603000   0.84454738   -7.3233406    630.42078  0.020182507  0.019662553            7 
 2604000   0.83022335    -7.328824    630.97732  0.020192566  0.019655907            8 
 2605000   0.83955459   -7.3141857     631.1906  0.020191638  0.019649288           13 
 2606000   0.83638614    -7.317906    629.90117  0.020142657  0.019642641           10 
 2607000   0.83428245   -7.2895674    631.16756  0.020175411  0.019636006           10 
 2608000   0.83119682   -7.3001846    631.39135  0.020174826  0.019629378           24 
 2609000   0.82175449   -7.3113474    631.48935  0.020170223  0.019622741           10 
 2610000   0.83061004   -7.2987823    629.83909  0.020109805  0.019616137            6 
 2611000   0.85188308    -7.318811    629.19926  0.020081682   0.01960954            9 
 2612000   0.81813793   -7.3173377    632.87523  0.020191272  0.019602935           13 
 2613000   0.84709198   -7.2841984    632.37862  0.020167707  0.019596358           16 
 2614000   0.82760262   -7.2898721    631.07767  0.020118518  0.019589798            4 
 2615000   0.83540456    -7.321965      632.459  0.020154844  0.019583247            8 
 2616000   0.82851733    -7.289864    632.47721  0.020147719  0.019576708           12 
 2617000   0.82161015   -7.3294655    630.84792  0.020088139  0.019570159           12 
 2618000   0.84952195   -7.3041305    632.54467  0.020134475  0.019563612            5 
 2619000   0.81914249   -7.2925602    633.31234  0.020151213  0.019557087            4 
 2620000   0.84657948   -7.2887337    632.74927  0.020125613  0.019550569            9 
 2621000   0.82424522   -7.3219615    633.19035  0.020131958  0.019544036           20 
 2622000   0.84441239   -7.3289799    632.74885  0.020110248  0.019537495           15 
 2623000   0.82336782   -7.3087337    631.91944  0.020076231  0.019530983           10 
 2624000   0.85704226   -7.3313055    631.78845   0.02006442  0.019524446           43 
 2625000    0.8220841    -7.322612    633.85852  0.020122493  0.019517903           14 
 2626000   0.82393115   -7.3082054     632.6036  0.020075006  0.019511376            9 
 2627000   0.83106515    -7.342945    632.28798  0.020057352  0.019504827           28 
 2628000   0.82758692    -7.303831    633.54431  0.020089558  0.019498268           26 
 2629000   0.82067055   -7.3358053    632.16466  0.020038185  0.019491713           18 
 2630000    0.8460237    -7.344836    633.20087  0.020063399  0.019485166            5 
 2631000   0.84026073   -7.3612048    632.80443  0.020043216  0.019478624           10 
 2632000   0.82870785   -7.3372784    631.01684  0.019979003  0.019472056           13 
 2633000   0.84707486   -7.3403937    632.65284  0.020023194  0.019465514            9 
 2634000   0.84551301   -7.3164897    634.39131  0.020070593  0.019458989            9 
 2635000   0.82830663   -7.3211873    631.29605  0.019965087  0.019452459            9 
 2636000   0.83368664   -7.3152224    634.96372  0.020073461  0.019445962           16 
 2637000   0.84319398   -7.3332575    632.89953  0.020000617  0.019439483            5 
 2638000   0.84722033   -7.3206994    632.52339  0.019981153     0.019433           14 
 2639000   0.81644798    -7.346288    633.70837  0.020011001  0.019426555            4 
 2640000   0.82921106   -7.3091739    633.70504  0.020003316  0.019420096           10 
 2641000   0.83030485   -7.3053837    635.28322  0.020045539  0.019413668           10 
 2642000   0.83445171   -7.3275966    634.78102  0.020022111  0.019407254            4 
 2643000   0.82223772   -7.3170177    634.04772  0.019991415  0.019400837            9 
 2644000   0.82190633   -7.3152322    635.31186  0.020023697  0.019394393            8 
 2645000   0.81555202    -7.316707    633.74732  0.019966834  0.019387943            5 
 2646000   0.80856388    -7.329601    633.88501  0.019963625  0.019381498            9 
 2647000   0.80926455   -7.3235534    635.05327  0.019992862  0.019375041           18 
 2648000    0.8261706   -7.3376469     635.0122  0.019984019  0.019368595            9 
 2649000   0.80640478   -7.3380321    633.84251  0.019939679  0.019362129            5 
 2650000   0.81950435   -7.3551542    632.94368  0.019903889   0.01935561            6 
 2651000   0.81645534   -7.3463485    635.13718  0.019965333  0.019349138           12 
 2652000   0.82739137   -7.3115107    634.59627  0.019940808  0.019342684           13 
 2653000   0.82759274   -7.3455769    635.34462  0.019956798  0.019336197            9 
 2654000   0.83248163   -7.3443026    633.41311  0.019888631  0.019329747           16 
 2655000   0.82472484    -7.311098    636.13548  0.019966588  0.019323288           15 
 2656000   0.83844147   -7.3492403    632.86084  0.019856327  0.019316846            7 
 2657000   0.83311869   -7.3220505    635.14611  0.019920528  0.019310433            5 
 2658000   0.83782576   -7.3350129     636.4869  0.019955069  0.019304026           11 
 2659000   0.81767831   -7.3397624    635.72529  0.019923696  0.019297633            7 
 2660000   0.82370591   -7.3296306    636.28464  0.019933729  0.019291213            8 
 2661000   0.82241122   -7.3536278    634.06246  0.019856647  0.019284802           12 
 2662000   0.83179355   -7.3670041    634.64696  0.019867486  0.019278381           10 
 2663000   0.81933884   -7.3039215    636.07216  0.019904624  0.019271942            8 
 2664000   0.83112357   -7.3243907    636.60489  0.019913817   0.01926552           11 
 2665000   0.81720027   -7.3108504    636.81952  0.019913056  0.019259146           14 
 2666000   0.82751291   -7.3464579    634.85792  0.019844271  0.019252739            9 
 2667000   0.81250559   -7.3543316    635.19313  0.019847305  0.019246339            7 
 2668000   0.83083324    -7.338458    636.22863  0.019872208  0.019239936            7 
 2669000   0.81263437   -7.3415558    635.11551  0.019830008  0.019233539           15 
 2670000   0.82142633   -7.3869147    634.65721  0.019808278  0.019227104           12 
 2671000   0.82622777   -7.3051301    635.64618  0.019831716  0.019220673            8 
 2672000   0.81124552   -7.3237382    635.20415  0.019810509  0.019214266            8 
 2673000   0.83314055    -7.319143    635.89657  0.019824684  0.019207881            7 
 2674000   0.82794056   -7.3105945    636.27188  0.019828967  0.019201508           16 
 2675000   0.82505882   -7.3223118    635.14107  0.019786326  0.019195132           10 
 2676000   0.82294469    -7.329106    637.20722  0.019843274  0.019188734           13 
 2677000   0.82651476   -7.3123226     636.3979  0.019810668   0.01918234           13 
 2678000   0.80657183   -7.3597471    634.39905  0.019741071  0.019175964           29 
 2679000   0.80764511   -7.3401701    636.42239   0.01979664  0.019169539            5 
 2680000   0.81487745   -7.3353424    636.14858  0.019780739  0.019163111            5 
 2681000   0.81646504   -7.3419565    636.22109  0.019775615   0.01915673            6 
 2682000   0.80827689   -7.3684297    634.96443  0.019729196  0.019150291            7 
 2683000   0.80143748   -7.3532819    636.96877  0.019784096  0.019143857            4 
 2684000   0.81929184   -7.3499709    635.80774  0.019740677  0.019137401           11 
 2685000   0.83964294   -7.3750051    634.51513  0.019693207  0.019130957            7 
 2686000   0.82096157    -7.356867     636.2156  0.019738632  0.019124534           10 
 2687000   0.83002355   -7.3349982    635.49934  0.019709073  0.019118122           12 
 2688000   0.81652803   -7.3474742    634.81324   0.01968047  0.019111693           13 
 2689000   0.81623577   -7.3547359    633.90761  0.019645085  0.019105245            6 
 2690000   0.82483039   -7.3750158    635.02651  0.019672445  0.019098798            6 
 2691000   0.82453602   -7.3566207    634.07334  0.019635617  0.019092383           13 
 2692000   0.81675392   -7.3805639    633.39612  0.019607359   0.01908592           15 
 2693000   0.82927564   -7.3320398    636.50867  0.019696394  0.019079487            9 
 2694000   0.82543704   -7.3784866    638.08356  0.019737799  0.019073038            9 
 2695000   0.81381002   -7.3662042    635.79606  0.019659742  0.019066615            9 
 2696000   0.81364436   -7.3667998    637.04754  0.019691133  0.019060154           25 
 2697000   0.80058864   -7.3749167    635.43695  0.019634067  0.019053715            9 
 2698000   0.81724415   -7.3719532    636.66481  0.019664715  0.019047274           13 
 2699000    0.8135105   -7.3481805    637.22033  0.019674581  0.019040862            7 
 2700000   0.79126703   -7.3718659    636.08121  0.019632136   0.01903447            7 
 2701000   0.82677366   -7.3485637    638.45014  0.019697956  0.019028061            9 
 2702000    0.8235464   -7.4091623    634.43125  0.019566718  0.019021647            8 
 2703000   0.83387276   -7.3618243    635.34622  0.019587687  0.019015223            4 
 2704000   0.80495578   -7.3773862     636.4445  0.019614291  0.019008787            9 
 2705000   0.81930235   -7.4006563    635.64273  0.019582339  0.019002331            6 
 2706000   0.82068943   -7.3922979    635.11292  0.019558787  0.018995841            6 
 2707000   0.81976074   -7.4038668     636.7256  0.019601207   0.01898936           11 
 2708000   0.82891994   -7.4116203    635.52953  0.019557162  0.018982881           20 
 2709000   0.82133205   -7.3634036    636.59848  0.019582825  0.018976418           20 
 2710000   0.81865909   -7.3493146    637.33908  0.019598373  0.018969997           13 
 2711000   0.83519451    -7.346701    637.42299  0.019593723  0.018963622            8 
 2712000    0.8191803    -7.390132    636.16163  0.019547739  0.018957211           15 
 2713000   0.83041537   -7.3713304    636.46587  0.019549879  0.018950799            6 
 2714000   0.79737719    -7.371127     635.7836  0.019521727  0.018944375           22 
 2715000   0.82194781   -7.3556684    637.71806  0.019573912  0.018937984           12 
 2716000   0.81955758   -7.3595121    637.40941  0.019557235  0.018931568           10 
 2717000   0.81824324   -7.3518252    636.41865  0.019519649  0.018925176           14 
 2718000   0.82435908   -7.3604185     636.4117  0.019512255  0.018918824            6 
 2719000   0.82497807   -7.3509795     636.5313  0.019508744  0.018912464           20 
 2720000    0.8074928   -7.3960962    636.88878  0.019512524  0.018906055           13 
 2721000   0.81623151   -7.3886934    637.24061  0.019516128  0.018899606            6 
 2722000   0.82279902   -7.3983108    637.16686    0.0195067  0.018893138           13 
 2723000   0.83046067   -7.3912781    636.76174  0.019487139  0.018886683            4 
 2724000   0.82761713   -7.4247307    634.34001  0.019405898  0.018880212           13 
 2725000   0.81575137   -7.3446819    637.79462  0.019504423  0.018873846            7 
 2726000   0.81604029   -7.3406156    638.97229  0.019533269  0.018867521            7 
 2727000   0.80733743   -7.3545815    637.27463  0.019474228  0.018861169            7 
 2728000   0.79500724   -7.3668287    638.76426  0.019512593  0.018854786            8 
 2729000   0.80709604    -7.406687     636.6323  0.019440341  0.018848399           10 
 2730000   0.80533978   -7.3737125    637.77402  0.019468071  0.018841999           12 
 2731000   0.80510549   -7.3856698    638.39228  0.019479808  0.018835589           20 
 2732000   0.80608077   -7.3874232    636.65005  0.019419535  0.018829177           22 
 2733000    0.8089684   -7.3811474    638.37362  0.019464984  0.018822768            8 
 2734000   0.80845622   -7.3736024    637.72962  0.019438235  0.018816376            6 
 2735000    0.8246713   -7.3819298    637.65887  0.019428972  0.018810019            9 
 2736000   0.80193884   -7.3545745    638.16611   0.01943732  0.018803707            6 
 2737000   0.80257701   -7.4082231    636.56602  0.019381501  0.018797387           12 
 2738000   0.81401319   -7.3753607    638.24729  0.019425593  0.018791048            9 
 2739000   0.81449489   -7.3654414    640.02835  0.019472689  0.018784731            7 
 2740000   0.80873211   -7.3856993    638.28989  0.019412709  0.018778419           11 
 2741000    0.8174508   -7.3845537    637.46158  0.019380445  0.018772118            9 
 2742000   0.81815625   -7.4025762    638.41409  0.019402325   0.01876579           23 
 2743000   0.81602448   -7.3912968    639.82428  0.019438093  0.018759429            7 
 2744000   0.81629713   -7.3857389    637.23118  0.019352259  0.018753079           19 
 2745000   0.80595812   -7.3983478       638.07  0.019370674  0.018746737            9 
 2746000   0.81539511   -7.3936384    639.54137  0.019408272  0.018740381           18 
 2747000   0.81143717   -7.3980091    638.39121  0.019366315  0.018733998           14 
 2748000   0.81042352   -7.3947874    639.01617   0.01937822  0.018727626            7 
 2749000   0.83315545   -7.3843352    637.80799  0.019334546  0.018721296            8 
 2750000   0.80563548   -7.3661578    639.76774  0.019386901  0.018715017            8 
 2751000   0.80763765   -7.3489511    640.61805  0.019405612  0.018708737            7 
 2752000   0.82115754   -7.3943176    639.22247  0.019356301  0.018702473            9 
 2753000   0.80029919   -7.3676982    638.39055  0.019324087  0.018696201           11 
 2754000   0.80389441   -7.3454866    642.17492  0.019431582   0.01868996            8 
 2755000   0.81674526   -7.3887347    638.37206    0.0193095  0.018683695           11 
 2756000   0.81200785   -7.3974145    638.11395  0.019294689  0.018677401           14 
 2757000   0.80743977   -7.3301513    640.27187  0.019352916  0.018671123            6 
 2758000   0.82917273   -7.3909415    638.16629  0.019282279  0.018664811           12 
 2759000   0.81600182   -7.4028694    637.78192   0.01926368  0.018658472            9 
 2760000   0.81314297   -7.4007909    638.32692  0.019273156  0.018652117            8 
 2761000   0.81368296   -7.4531576    637.63661   0.01924534  0.018645744           15 
 2762000   0.81281413   -7.4417506    637.64446  0.019238609  0.018639361           19 
 2763000    0.8166951   -7.3781597    638.45005  0.019255943   0.01863302            8 
 2764000   0.80988741    -7.399324    637.02534  0.019206022  0.018626675           11 
 2765000   0.81159295   -7.3996836    638.85139  0.019254111  0.018620337           11 
 2766000   0.80709277   -7.3498548    637.29609  0.019200292  0.018614019            9 
 2767000   0.82080587   -7.3789384    636.97275  0.019183615  0.018607693            7 
 2768000    0.8166536   -7.4245226     637.6018  0.019195623  0.018601333           15 
 2769000   0.80643076   -7.3854308    638.91496   0.01922821  0.018594953           14 
 2770000   0.82075129   -7.3838726     638.1235  0.019197458  0.018588562           20 
 2771000   0.78992724   -7.4237153    637.92265   0.01918449  0.018582122            9 
 2772000   0.83238591   -7.3690632    638.55331  0.019196528  0.018575682            9 
 2773000   0.81212227   -7.4000525    637.76295  0.019165854  0.018569288           11 
 2774000   0.80522935   -7.3938025    638.19489   0.01917192  0.018562917           11 
 2775000   0.82615239   -7.4299209    637.32894  0.019139007  0.018556529           16 
 2776000   0.78555274   -7.4365634    638.23302  0.019159253   0.01855013            9 
 2777000   0.83418644   -7.4160504    636.34892  0.019095814   0.01854372           14 
 2778000    0.8175051   -7.3781122    638.47788  0.019152804  0.018537361           11 
 2779000   0.80669053   -7.4118152    639.71782  0.019183094  0.018531014           12 
 2780000   0.79479915    -7.386483    638.55257  0.019141264   0.01852468            8 
 2781000   0.80587729   -7.3652504    639.50177  0.019162824  0.018518415           10 
 2782000   0.82144531   -7.3908687    639.35594  0.019151568  0.018512148           12 
 2783000   0.79634727   -7.3401971    639.06269  0.019135905  0.018505861            5 
 2784000   0.78719667   -7.4014432    639.12398  0.019130866  0.018499587           25 
 2785000    0.8032118   -7.3664318    640.59149  0.019167908  0.018493326           10 
 2786000    0.7957358   -7.3972352    638.62309   0.01910215   0.01848705            9 
 2787000   0.80356027   -7.3624519    641.22317   0.01917304  0.018480757            9 
 2788000    0.7939249    -7.373586    640.07845  0.019131948  0.018474477            9 
 2789000   0.79907138   -7.3772035     640.5903  0.019140382  0.018468206           10 
 2790000   0.80797407   -7.4063995    638.66633  0.019076055  0.018461908           22 
 2791000   0.79950889   -7.4007702     638.7001  0.019070229  0.018455617           28 
 2792000    0.8190412   -7.3674369    641.37581  0.019143261  0.018449312           11 
 2793000   0.79211757   -7.4132888    639.62756  0.019084245  0.018443007           16 
 2794000   0.80878611   -7.3878462    640.56017   0.01910523  0.018436707           22 
 2795000   0.80009798   -7.4327656    638.90108  0.019048929  0.018430357           14 
 2796000   0.78864503   -7.4050185    639.31615  0.019054487  0.018424004           16 
 2797000   0.80633808   -7.4081876    640.18148  0.019073456   0.01841772            8 
 2798000   0.79987266   -7.3938087    639.96083  0.019060068  0.018411398            6 
 2799000   0.80535885   -7.4020605    639.93821  0.019052585  0.018405097            8 
 2800000   0.79776392   -7.4096681    638.74822  0.019010364  0.018398755            9 
 2801000   0.80159919   -7.3994256    638.43842   0.01899436  0.018392425           10 
 2802000   0.79826399   -7.4217718    638.63359  0.018993385  0.018386101           24 
 2803000   0.77984487   -7.4050162      639.737  0.019019414  0.018379766           12 
 2804000   0.80993585   -7.4243481    639.02239  0.018991393   0.01837344            7 
 2805000   0.80105677   -7.4202701    639.06899  0.018986007  0.018367102           10 
 2806000   0.80916196   -7.3911097     638.6143  0.018965737  0.018360728            5 
 2807000   0.80784409   -7.4251055     639.0085  0.018970683  0.018354346           13 
 2808000   0.80042322   -7.4403564    640.51769  0.019008716  0.018347994            8 
 2809000   0.78697748   -7.4118084    638.96313   0.01895583  0.018341624            8 
 2810000   0.80427028   -7.4153105    639.44894  0.018963492  0.018335302           16 
 2811000   0.79519558   -7.4321748    638.37266  0.018924839   0.01832894            4 
 2812000   0.79074401    -7.389227     639.5284  0.018952359  0.018322623           14 
 2813000   0.79778403   -7.4175207    640.10971  0.018962842  0.018316313           17 
 2814000   0.79336691   -7.3889882    639.64298  0.018942282  0.018310007           11 
 2815000   0.80607765   -7.4147205      640.472  0.018960095  0.018303716           17 
 2816000   0.81002741   -7.4145557    640.02087  0.018940011  0.018297411           12 
 2817000   0.80218006   -7.3719554    640.33848  0.018942684  0.018291141            7 
 2818000   0.80390452   -7.3884724    640.16312  0.018930776  0.018284873           10 
 2819000   0.80569409   -7.3977945    639.68087  0.018909805  0.018278592           14 
 2820000   0.81314936   -7.4053303    638.65242  0.018872707  0.018272277           20 
 2821000   0.79899989   -7.4523998    638.18707  0.018852271  0.018265934            6 
 2822000   0.79446195   -7.4391441    638.62061  0.018858393   0.01825958           15 
 2823000   0.81021469   -7.4209732    640.26184  0.018900161  0.018253272            7 
 2824000   0.79875977   -7.4181006     639.1754  0.018861408  0.018246957           13 
 2825000   0.80571844    -7.444625    637.73711  0.018812304  0.018240629           22 
 2826000   0.78760886   -7.4356125    638.86643  0.018838949   0.01823431           31 
 2827000   0.79524711   -7.4349624    639.13637  0.018840242  0.018227986           15 
 2828000   0.79790569   -7.4417761    639.83063  0.018854038  0.018221647           46 
 2829000   0.79222268   -7.4205205    639.45393  0.018836277  0.018215314           25 
 2830000   0.79948712   -7.4371019    638.76396  0.018809304  0.018209002           25 
 2831000   0.81792902   -7.4261307    640.25955  0.018846684  0.018202704            8 
 2832000    0.7977683   -7.4143192    639.77877  0.018825882  0.018196413            7 
 2833000    0.7947842   -7.3927119    640.64093  0.018844597  0.018190149           11 
 2834000   0.79770497   -7.4159038    640.12662  0.018822825  0.018183882           14 
 2835000   0.80602487   -7.4093292    639.96215  0.018811351  0.018177592           13 
 2836000   0.80263305   -7.4334401    640.80617  0.018829518  0.018171317           16 
 2837000    0.7974522   -7.4596968    637.90737  0.018737733  0.018165005           12 
 2838000   0.79793454    -7.455979    639.39007  0.018774667  0.018158687           13 
 2839000   0.78864244   -7.4453705    641.09209  0.018818014  0.018152385           10 
 2840000   0.81674454   -7.4229598    639.53477  0.018765692  0.018146076           11 
 2841000   0.79916687   -7.4367873    640.39349  0.018784275  0.018139785           28 
 2842000   0.79595626   -7.4057016    640.49847  0.018780743  0.018133524           25 
 2843000   0.82613432   -7.4080468     640.5177  0.018774701    0.0181273           15 
 2844000   0.80455259   -7.4306366    640.58886  0.018770184  0.018121032           10 
 2845000   0.81507761   -7.4621452    638.83487  0.018712211   0.01811474           10 
 2846000   0.80013972   -7.4337725    639.45237  0.018723717  0.018108444           29 
 2847000    0.7930495   -7.4462545    641.38882  0.018773821  0.018102135           21 
 2848000   0.79514693   -7.4473447    639.78909   0.01872042  0.018095817           25 
 2849000   0.78341156   -7.4659521     640.5955  0.018737437  0.018089513           28 
 2850000   0.80170622   -7.4714786    638.42729  0.018667465    0.0180832           45 
 2851000   0.79711689   -7.4454041    639.30675  0.018686623  0.018076869           29 
 2852000    0.8147971   -7.4548973    639.78123  0.018693935   0.01807057           15 
 2853000   0.78563745   -7.4687521    639.70955  0.018685289  0.018064289           24 
 2854000   0.78739685   -7.4296904    639.72681  0.018679246  0.018058024           37 
 2855000    0.8054196    -7.435657    641.79834  0.018733168  0.018051781           16 
 2856000   0.78036412    -7.496027    638.41781  0.018627971   0.01804547           11 
 2857000   0.78696477   -7.4280816    641.04265  0.018698012  0.018039176           14 
 2858000   0.78716758   -7.4633584    638.97734   0.01863125   0.01803291            6 
 2859000   0.78232912   -7.4398496    640.40105  0.018666231  0.018026592            7 
 2860000    0.7964072   -7.4423362    639.36396  0.018629486  0.018020278           36 
 2861000   0.79167076   -7.4386647    640.52267  0.018656725  0.018014008            9 
 2862000   0.81570929   -7.4457006    640.15636   0.01863954  0.018007746           10 
 2863000   0.78656733   -7.4355811    641.29373  0.018666135  0.018001496           16 
 2864000   0.80052638   -7.4572075    640.49699  0.018636435  0.017995245           12 
 2865000   0.77666762    -7.456156    638.42668  0.018569711  0.017988943           14 
 2866000   0.81050062   -7.4345936    640.94093  0.018636338  0.017982623           17 
 2867000   0.79461708   -7.4736607    640.00344  0.018602588  0.017976312           21 
 2868000   0.79741852   -7.4583156     638.7623  0.018560039  0.017969987           12 
 2869000   0.79827503   -7.4497425    639.37321  0.018571314  0.017963655           10 
 2870000   0.79123687   -7.4842659    639.59432  0.018571264  0.017957363           11 
 2871000   0.77845756   -7.4493748    640.77764  0.018599142  0.017951039           16 
 2872000    0.7806228   -7.4493355    638.64099  0.018530669   0.01794472           40 
 2873000   0.77992556   -7.4806261    639.28394  0.018542869  0.017938406           22 
 2874000   0.80120773   -7.4532415    639.16433  0.018532949  0.017932078           21 
 2875000     0.792927    -7.473159    639.73027  0.018542907   0.01792576           29 
 2876000   0.80028598   -7.4481216     640.9396    0.0185715  0.017919423           25 
 2877000   0.77695553   -7.4639561    639.89006  0.018534644  0.017913124           20 
 2878000   0.79537992   -7.4742083    638.80925  0.018496909  0.017906799           18 
 2879000   0.80062913   -7.4725876    639.58223  0.018512858  0.017900488            9 
 2880000   0.78691924    -7.444492    640.90502  0.018544705  0.017894214           24 
 2881000   0.80018555   -7.4700553    638.87684  0.018479603  0.017887933           33 
 2882000   0.79342985   -7.4796859    639.66904  0.018496098  0.017881611           12 
 2883000   0.78778292   -7.4473397    641.03857  0.018529268  0.017875334           10 
 2884000   0.79066487   -7.4082856    642.91682  0.018577116  0.017869095           23 
 2885000   0.78067556   -7.4377344     641.5419  0.018530962  0.017862838            9 
 2886000   0.79456511   -7.4541948    640.55617  0.018496078  0.017856603           11 
 2887000    0.8043782   -7.4644147     639.6992  0.018464935  0.017850353           22 
 2888000    0.7949144   -7.4773377    639.65961  0.018457399  0.017844091           11 
 2889000   0.78724377   -7.4621809    640.97172  0.018488858  0.017837817           10 
 2890000   0.78808309   -7.4648161    641.25765  0.018490705  0.017831529            7 
 2891000   0.78415269   -7.4386786    641.62623  0.018494933  0.017825254            6 
 2892000   0.78004611   -7.4710771    639.28344   0.01842103  0.017818985           23 
 2893000   0.78256362   -7.4659994    640.03629  0.018436349  0.017812733           16 
 2894000   0.77210484   -7.4608777    641.52454  0.018472833  0.017806504           13 
 2895000   0.78131631   -7.4558568    639.98849  0.018422236  0.017800272           12 
 2896000   0.77976358   -7.4485951    641.29993  0.018453612  0.017794027           26 
 2897000   0.78940104   -7.4775611    639.60684   0.01839854  0.017787744           19 
 2898000   0.78623529   -7.4882663     639.9032  0.018400713  0.017781436           34 
 2899000   0.79092266   -7.4578029    640.46714  0.018410577  0.017775133           15 
 2900000   0.78556063   -7.4533736    640.42911  0.018403135  0.017768853           23 
 2901000   0.78603502    -7.424515    640.40237  0.018396024  0.017762572           36 
 2902000   0.78545688   -7.4970532    638.35677  0.018330943  0.017756297           16 
 2903000   0.78853577   -7.4658866    640.25759  0.018379194  0.017750009           34 
 2904000   0.78381129   -7.5068968    639.78468  0.018359294  0.017743734           36 
 2905000   0.79299558   -7.4368854    641.72157  0.018408536  0.017737463           34 
 2906000     0.760568   -7.4614651     640.4262  0.018365055  0.017731205           36 
 2907000   0.76748007   -7.4837459    640.02244  0.018347163  0.017724954           16 
 2908000   0.77885777   -7.4686267    639.81904  0.018335025  0.017718703           42 
 2909000   0.78026639   -7.4675497    641.16369  0.018367242  0.017712468           18 
 2910000    0.7790955   -7.5124649    640.56131   0.01834368  0.017706238           13 
 2911000   0.77899494   -7.4789317    639.23763  0.018299486  0.017699974           21 
 2912000   0.77429119   -7.5004794    640.06493  0.018316876  0.017693717           22 
 2913000   0.79352403   -7.4906767    641.27191  0.018345117  0.017687449           28 
 2914000   0.78820327    -7.469713    640.92239  0.018328826  0.017681189           13 
 2915000    0.7791175   -7.4532402    640.20906  0.018302146   0.01767492           14 
 2916000   0.78129793   -7.5334267    639.92297  0.018287693  0.017668677           20 
 2917000   0.76748394   -7.4928365      638.626  0.018244372  0.017662405           28 
 2918000   0.79089178   -7.4857175    641.10112  0.018308805  0.017656145           19 
 2919000   0.77064955   -7.4916084    640.14439   0.01827522  0.017649873           15 
 2920000    0.7862284   -7.4673757    640.88872  0.018290203  0.017643619            9 
 2921000   0.78680902   -7.4920987    640.27466  0.018266423  0.017637394           16 
 2922000   0.78419844   -7.4786541    641.10384  0.018283819  0.017631191           13 
 2923000   0.81193541   -7.4642998    641.10512  0.018277601  0.017624991           15 
 2924000   0.78947309   -7.4804306    643.98311  0.018353372  0.017618818           12 
 2925000    0.7928746   -7.4692581    640.12722  0.018237243  0.017612632           29 
 2926000   0.77820235   -7.4902032    641.45703  0.018268883   0.01760645            5 
 2927000   0.78319498   -7.4763481    640.08875  0.018223686  0.017600276           14 
 2928000     0.795995   -7.4762253    641.33678  0.018252982  0.017594086            8 
 2929000   0.78797146   -7.4750175     642.5625  0.018281623  0.017587915           25 
 2930000   0.78527965   -7.4568628    641.58467  0.018247573  0.017581734           16 
 2931000   0.79160646   -7.5051426    640.79486  0.018218892  0.017575551           14 
 2932000   0.77849049    -7.477212    642.79922  0.018269646   0.01756933           15 
 2933000   0.78222086   -7.4837281    641.26919  0.018219945  0.017563112           23 
 2934000   0.76927666   -7.5058024     641.3734  0.018216695   0.01755687           46 
 2935000   0.78991351   -7.5256926    640.48352  0.018185222  0.017550604           23 
 2936000    0.7690804   -7.5049692    641.72363  0.018214226  0.017544348           52 
 2937000   0.78059874   -7.4920127    640.82153  0.018182429  0.017538099           26 
 2938000   0.78608457   -7.5044024    640.08273  0.018155285  0.017531854           36 
 2939000   0.77288425   -7.4746401     641.7136   0.01819535  0.017525612           25 
 2940000   0.76499602   -7.4862388    641.55509  0.018184668  0.017519401           17 
 2941000   0.78099221   -7.4975594    640.57307  0.018150659  0.017513186           46 
 2942000      0.76319   -7.5114256    640.97175  0.018155783   0.01750696           43 
 2943000   0.75819673   -7.4917014    640.27109  0.018129774  0.017500735           43 
 2944000   0.76943769   -7.4963637    642.45292  0.018185375  0.017494516           23 
 2945000   0.79766337   -7.5170628    639.28778  0.018089637  0.017488291           33 
 2946000   0.75737277   -7.5493473    639.59145  0.018092087  0.017482064           24 
 2947000   0.78220158   -7.5378356    640.47575  0.018110953  0.017475845           54 
 2948000   0.77045109   -7.5081497     639.9639  0.018090341  0.017469587           18 
 2949000   0.78224762   -7.5391577    639.69578   0.01807663  0.017463363           49 
 2950000    0.7721028   -7.5203217    640.93538  0.018105519   0.01745716           50 
 2951000   0.78032633   -7.5213219    640.50375  0.018087195  0.017450973           70 
 2952000   0.78044681   -7.4840107    641.65943  0.018113692  0.017444754           72 
 2953000   0.80307292   -7.5431544    639.92008  0.018058474   0.01743857           72 
 2954000   0.77072438   -7.5137019    641.60563   0.01809991  0.017432369           43 
 2955000   0.77749901   -7.5216345    642.33341  0.018114309  0.017426199           56 
 2956000   0.78163724   -7.5142698    641.72054  0.018090904  0.017420029           16 
 2957000   0.78960039    -7.521013    641.94453  0.018091098  0.017413851           42 
 2958000   0.76080425   -7.5043325    640.38642  0.018041087  0.017407669           53 
 2959000   0.77805607   -7.5081879     642.5274  0.018095286  0.017401485           95 
 2960000   0.79407811   -7.4987092    640.98011  0.018045611   0.01739531           62 
 2961000   0.78900324   -7.4987871    642.58964  0.018084815  0.017389157           66 
 2962000   0.79100898   -7.4852772    641.65572  0.018052434  0.017382999           50 
 2963000   0.75778966   -7.4945972    642.73424  0.018076675   0.01737685           45 
 2964000   0.75734335   -7.4994497    641.77996  0.018043746  0.017370708           37 
 2965000   0.78247791   -7.4814081     640.7908  0.018009859  0.017364585          107 
 2966000   0.77160064    -7.488097    643.48505  0.018079485  0.017358432           64 
 2967000   0.77173742   -7.5136126    641.77957  0.018025491  0.017352301           39 
 2968000   0.77262379   -7.5104652    641.39706  0.018008677  0.017346145           41 
 2969000   0.80104999   -7.4915143    642.33106  0.018028827  0.017339996           31 
 2970000   0.78242461   -7.5308309    642.09471  0.018016125  0.017333842           37 
 2971000   0.77081594   -7.5612638    639.95909   0.01795016  0.017327673           65 
 2972000   0.76828892   -7.5384406    640.13875  0.017949158  0.017321477           44 
 2973000   0.78266201   -7.5201174    641.08701    0.0179697    0.0173153           81 
 2974000   0.78058622   -7.5183875    643.46056  0.018030166  0.017309134           50 
 2975000   0.76570776   -7.5190896    640.78361  0.017949121  0.017302999           85 
 2976000   0.77340822   -7.5146366    642.14106  0.017981101  0.017296853           84 
 2977000   0.77543463   -7.4842939    642.47658  0.017984453  0.017290721           75 
 2978000   0.77721596   -7.5217181    641.46774  0.017950183    0.0172846           59 
 2979000   0.77607186   -7.5282033    640.44444  0.017915532  0.017278468           72 
 2980000    0.7837603   -7.5451709    641.19105  0.017930398  0.017272331           27 
 2981000   0.77180108    -7.554585    641.38262  0.017929739  0.017266181           57 
 2982000   0.77876044   -7.5359996    641.50962  0.017927275  0.017260022           29 
 2983000    0.7684312   -7.4912452    643.39617  0.017973968  0.017253901           27 
 2984000   0.77242306   -7.5078624    643.00072  0.017956901  0.017247821           23 
 2985000   0.75226312   -7.4970394    642.79489  0.017945139  0.017241736           70 
 2986000     0.770529   -7.5043156    644.83106  0.017995955  0.017235661           43 
 2987000   0.76943581   -7.5000136    643.99064  0.017966484  0.017229571           18 
 2988000   0.76109563   -7.5192144    642.85658  0.017928843   0.01722351           24 
 2989000    0.7717299   -7.5101024    642.16576  0.017903584  0.017217409           22 
 2990000   0.77124082   -7.5249709    643.44174  0.017933159  0.017211295           30 
 2991000   0.76876686   -7.5105921    641.63935  0.017876946  0.017205194           13 
 2992000   0.77662963   -7.5279868    640.74495   0.01784606  0.017199089           24 
 2993000   0.78130028   -7.5165296    641.40034  0.017858346  0.017193003           30 
 2994000   0.77419163   -7.4662497    644.18745  0.017929956  0.017186925           17 
 2995000   0.77017265   -7.4991082    642.41998  0.017874791  0.017180855           14 
 2996000   0.78871642   -7.5176186    644.24268  0.017919523  0.017174805           30 
 2997000   0.76624732   -7.5260978    642.07554  0.017853285  0.017168701           19 
 2998000   0.78299481   -7.4999018    643.28179  0.017880859  0.017162604           14 
 2999000   0.76827229   -7.5158835    643.22509  0.017873321  0.017156531           16 
 3000000   0.75635573   -7.5048088    642.61455  0.017850404  0.017150448           20 
 3001000   0.78354811   -7.4940748    643.21562  0.017861147  0.017144394            8 
 3002000   0.77472046   -7.5033441    643.41818   0.01786082  0.017138325           12 
 3003000   0.77133112   -7.5345014    642.04751  0.017816836  0.017132291           11 
 3004000   0.76087775   -7.5212418    642.94918  0.017835918  0.017126222           11 
 3005000   0.77405338   -7.5056992    643.62989   0.01784886  0.017120147            9 
 3006000   0.77764573   -7.5185052    641.83539  0.017793174  0.017114057           32 
 3007000    0.7703032   -7.5072084    643.02154  0.017820129  0.017107999           31 
 3008000    0.7812601   -7.5389469    642.73461  0.017806256  0.017101916           13 
 3009000   0.76670417   -7.5350839    641.74787  0.017773011   0.01709582           50 
 3010000   0.74802926   -7.5191597    641.69603  0.017765671  0.017089741           18 
 3011000     0.760459   -7.5195004    641.61537  0.017757538  0.017083679           13 
 3012000   0.76054177    -7.514504    643.84809  0.017813416  0.017077633           11 
 3013000   0.76342694   -7.4915346    643.79254  0.017805967  0.017071587            6 
 3014000   0.77378944   -7.4746593    644.26707  0.017813179  0.017065549           18 
 3015000    0.7581081   -7.4864339    643.40826  0.017783534  0.017059554           27 
 3016000   0.78060736   -7.4526271    644.40235  0.017805105  0.017053569           18 
 3017000   0.76251883   -7.4486713    644.67813  0.017806821  0.017047562           10 
 3018000   0.77192077   -7.4945574    643.97171  0.017781415  0.017041547           18 
 3019000   0.76588624   -7.5070203    642.98927  0.017748407  0.017035525           11 
 3020000   0.76569686   -7.5457429    643.72133   0.01776273  0.017029473           31 
 3021000   0.77298195   -7.5351602    642.27675  0.017717002  0.017023434           12 
 3022000   0.75584788   -7.5266176    642.05852  0.017705121  0.017017374           20 
 3023000    0.7500875   -7.5405452    642.16171  0.017702109  0.017011312           15 
 3024000   0.76924285   -7.5120854    643.41924  0.017730909  0.017005269           14 
 3025000    0.7649594   -7.5458631    644.14533   0.01774505  0.016999231           19 
 3026000   0.77029866   -7.5336841     641.9637  0.017679106  0.016993199           14 
 3027000   0.77301349   -7.5690086     641.5691  0.017662402  0.016987138           23 
 3028000   0.78042116   -7.5652817    641.45676  0.017653478  0.016981064           32 
 3029000   0.77773783   -7.5377319    642.37569  0.017672931  0.016974979           26 
 3030000   0.76891277   -7.5278214    644.18143  0.017716761  0.016968893           19 
 3031000   0.75516583   -7.5325995    642.94376  0.017676888  0.016962833           33 
 3032000   0.77914831   -7.5273128    643.09088  0.017675101  0.016956795           10 
 3033000   0.75400505   -7.4856868    644.09987  0.017696996  0.016950767            8 
 3034000   0.76358825   -7.5122897    643.71459  0.017680581  0.016944742           11 
 3035000   0.73845902   -7.5234366    641.38759  0.017610862  0.016938728           19 
 3036000   0.75344253    -7.545838     642.6331  0.017639248   0.01693271           18 
 3037000   0.74676229   -7.5039888    642.91381  0.017641143  0.016926691            7 
 3038000   0.76267571   -7.5234469    641.71455   0.01760244  0.016920682           10 
 3039000    0.7714733   -7.5152357    644.83229   0.01768214  0.016914662           13 
 3040000    0.7617355    -7.492339    643.42973  0.017637876  0.016908659           14 
 3041000   0.77428747   -7.5056909    641.99323  0.017592712  0.016902641           10 
 3042000    0.7674246   -7.5170398    642.89793  0.017611712  0.016896633           14 
 3043000   0.76644144   -7.5240476    643.44125  0.017620803   0.01689062            6 
 3044000   0.75823989   -7.5378845    641.26585   0.01755546  0.016884608           10 
 3045000   0.77673687   -7.5420608    642.10085  0.017572547  0.016878566           23 
 3046000   0.76735212   -7.5410223    641.47402  0.017549629   0.01687249           10 
 3047000     0.760421   -7.5422596    641.98388  0.017557813  0.016866401            7 
 3048000   0.75529388   -7.5625433    642.22946  0.017558767  0.016860316            9 
 3049000   0.77121257    -7.572617    641.95978  0.017545637  0.016854232           20 
 3050000   0.77786929   -7.5872126    640.76974   0.01750737  0.016848149           19 
 3051000   0.74752454     -7.53089    642.57567  0.017550958   0.01684208            8 
 3052000   0.76411746   -7.5351665    642.78959  0.017551048  0.016836001           18 
 3053000   0.77237216   -7.5630262    641.40251  0.017507438  0.016829934           20 
 3054000   0.77240665   -7.5434339    642.57486  0.017533695  0.016823882           15 
 3055000   0.76463325   -7.5330406    642.31914   0.01752098  0.016817837           20 
 3056000    0.7749081   -7.5487369    642.49606  0.017520072   0.01681178           10 
 3057000   0.76601473   -7.5648758    641.66222   0.01749161  0.016805724           29 
 3058000   0.75400579   -7.5529412    642.49112  0.017508478  0.016799641           31 
 3059000   0.75432378   -7.5660184    641.86643  0.017485737  0.016793569           29 
 3060000    0.7654874   -7.5558691    642.61046  0.017500285  0.016787484           38 
 3061000   0.76413152   -7.5774465    642.29964  0.017486106  0.016781401           58 
 3062000   0.76192928   -7.5303702    643.06422  0.017501203   0.01677536           40 
 3063000   0.77088894   -7.5245644    643.66834  0.017511926  0.016769359           18 
 3064000   0.75727942   -7.5514511    641.41717  0.017444984  0.016763332           51 
 3065000   0.75494318   -7.5755733    641.19944  0.017433373  0.016757284           49 
 3066000   0.75192375    -7.555853    642.59888  0.017465723  0.016751265           26 
 3067000   0.75933762   -7.5238747    641.43996  0.017428539  0.016745234           39 
 3068000   0.76983404   -7.5703821    641.60884  0.017427446  0.016739216           61 
 3069000   0.76882811    -7.550386    642.20284  0.017437896  0.016733181           42 
 3070000   0.76858607   -7.5568374    643.12957  0.017457372  0.016727136           52 
 3071000   0.77672673   -7.5454724    643.64064  0.017465555  0.016721137           54 
 3072000   0.76246971   -7.5556846    643.08611  0.017444827  0.016715142           31 
 3073000   0.74914052   -7.5333147    642.87769  0.017433499  0.016709118           36 
 3074000   0.77517511   -7.5260938    644.36635  0.017468183  0.016703099           11 
 3075000   0.76951336   -7.5736016    642.31064  0.017406792  0.016697095           41 
 3076000   0.75057759    -7.522671    643.76804  0.017440617  0.016691099           24 
 3077000   0.76752944   -7.5498175     642.3977  0.017397836  0.016685102           19 
 3078000   0.76433668   -7.5485032    641.44344  0.017366348  0.016679121            9 
 3079000   0.74671936   -7.5569422    640.72255  0.017341197  0.016673143           18 
 3080000   0.75582825   -7.5510014    642.01824  0.017370623  0.016667151           30 
 3081000   0.78438943   -7.5335329    642.88669  0.017388475  0.016661161            6 
 3082000   0.75073891    -7.536337     642.0607  0.017360499  0.016655185           17 
 3083000   0.74756188   -7.5750723    642.24841  0.017359942    0.0166492           18 
 3084000   0.75473787   -7.5469588    644.34903  0.017411074  0.016643208           25 
 3085000   0.75943149   -7.5482507     643.2879  0.017376767  0.016637249           11 
 3086000   0.78043227   -7.5699152    641.67357  0.017327543  0.016631273           14 
 3087000   0.76539924   -7.5808646    643.79441  0.017379182  0.016625285           29 
 3088000   0.74627949   -7.5541975    643.31542  0.017360628  0.016619329           16 
 3089000   0.76562908   -7.5583603    644.16073  0.017377812  0.016613364           24 
 3090000   0.77547747   -7.5695674     643.3023  0.017349037  0.016607404           32 
 3091000   0.75184557   -7.5686889    642.58168  0.017323996  0.016601448           32 
 3092000   0.76732931   -7.5607157    644.10195  0.017359367   0.01659547           21 
 3093000   0.75371322   -7.5767983    643.66718  0.017342041  0.016589501           26 
 3094000   0.76193669   -7.5592764    643.21048  0.017324135  0.016583525           33 
 3095000   0.76785021   -7.5564406    643.44739  0.017324916  0.016577576           31 
 3096000   0.74271881   -7.5703991    642.82678  0.017302616  0.016571632           22 
 3097000   0.76939221   -7.5638486     644.2501  0.017335327  0.016565699           48 
 3098000   0.74711821   -7.5904486    642.53748  0.017283664   0.01655975           21 
 3099000   0.76902951   -7.5773352    644.93504  0.017342558  0.016553788           28 
 3100000   0.75491927   -7.5811777    643.85866  0.017308028  0.016547815           15 
 3101000   0.75628808   -7.5903485    642.17014  0.017257071  0.016541868           17 
 3102000   0.76436143   -7.5595402    644.64971   0.01731812  0.016535911           12 
 3103000   0.74458946   -7.5626814    644.06964  0.017296961  0.016529963           38 
 3104000     0.747803    -7.581789    642.80337  0.017257393  0.016524042           23 
 3105000   0.75502277   -7.5885938    642.14153  0.017234072  0.016518101           23 
 3106000    0.7538306   -7.5741817    643.03961  0.017252619  0.016512169           15 
 3107000   0.73387596   -7.5925071    642.35506  0.017228706  0.016506208           32 
 3108000   0.76045284   -7.5858799    640.83044  0.017182283  0.016500254           51 
 3109000   0.75839386   -7.5639116    643.82005   0.01725689  0.016494327           18 
 3110000   0.75190252   -7.5553096     644.4579  0.017268432  0.016488401           18 
 3111000    0.7626602    -7.546813    644.78021  0.017271515  0.016482496           11 
 3112000   0.76785251   -7.5575339     644.3395  0.017254164  0.016476609           11 
 3113000   0.75387157   -7.5636686     643.7716  0.017233419  0.016470729           18 
 3114000   0.76291476    -7.548529    644.37375  0.017243999  0.016464842           15 
 3115000   0.74813487   -7.5622292    645.06949  0.017257076  0.016458945           16 
 3116000   0.73701135   -7.5742545    642.87359  0.017192811  0.016453038           19 
 3117000   0.77490091   -7.5475261    644.21738  0.017223222  0.016447142           40 
 3118000   0.74591917   -7.5704221    643.88722  0.017208874  0.016441256           26 
 3119000   0.74175815   -7.5762045    644.67314  0.017224355  0.016435355           20 
 3120000   0.74727244   -7.5607081    644.84448   0.01722341  0.016429461           16 
 3121000   0.76876359   -7.5557991      644.513  0.017209041  0.016423592           13 
 3122000   0.75253293   -7.5628205    644.37454  0.017199833   0.01641772           16 
 3123000   0.76273976   -7.5765998    644.79652  0.017205585  0.016411851            9 
 3124000   0.74234409   -7.5728527    645.35954  0.017215096   0.01640598           20 
 3125000   0.75893218   -7.5739792    643.96564  0.017172417  0.016400104           14 
 3126000    0.7309995   -7.5338356    642.90389  0.017138619  0.016394232           17 
 3127000     0.754734    -7.583164    644.82352  0.017184296  0.016388378           18 
 3128000   0.75692541   -7.5496089    645.76451  0.017203871  0.016382532           14 
 3129000   0.75198603    -7.562071    644.41064  0.017162316  0.016376701            8 
 3130000   0.75735913   -7.5444179    645.00769  0.017172729  0.016370852           19 
 3131000    0.7518899   -7.5596967    645.65616  0.017184503  0.016365023           15 
 3132000   0.74657047   -7.5814981    646.63172  0.017204973  0.016359204           27 
 3133000   0.76093763   -7.5453394    643.54569  0.017117398  0.016353383           19 
 3134000   0.73029594   -7.5945798    644.19518  0.017129206  0.016347547           16 
 3135000    0.7417518   -7.5417938    644.73198  0.017138011  0.016341708           16 
 3136000   0.74817932   -7.5479301    644.89644  0.017136916   0.01633587           24 
 3137000   0.75013791   -7.5685708    644.92374  0.017132179   0.01633003           41 
 3138000   0.74272158   -7.5716452    645.58517  0.017144284  0.016324172           15 
 3139000   0.75780426   -7.5658533    643.88955  0.017093808  0.016318308           19 
 3140000   0.74837149   -7.5875064    643.81174  0.017086299  0.016312445           20 
 3141000     0.741941   -7.6049262    642.81469  0.017054406  0.016306587           17 
 3142000   0.75464307   -7.5776747    643.92313  0.017078377  0.016300705           50 
 3143000   0.75367885   -7.5885666     646.0002  0.017128015  0.016294834           27 
 3144000    0.7419176   -7.6058851    643.70436  0.017061714  0.016288975           32 
 3145000   0.74414103   -7.5874605    643.27846  0.017045004  0.016283111           20 
 3146000   0.74865286   -7.5895384    645.30315  0.017093218  0.016277242           10 
 3147000    0.7326742   -7.5586234    644.70779  0.017072021  0.016271378           47 
 3148000   0.75178593   -7.6059682    644.23055  0.017053964  0.016265513           33 
 3149000   0.75394665    -7.618808    643.66037  0.017033459  0.016259631           14 
 3150000    0.7342701   -7.6473651    642.95623  0.017009424  0.016253734           17 
 3151000   0.73956178   -7.6285878    642.79017  0.016999634  0.016247827           28 
 3152000   0.73920396   -7.5690782    644.08674   0.01702852  0.016241945           15 
 3153000   0.76232376   -7.5996125    643.85436  0.017016978  0.016236057            8 
 3154000   0.75206357   -7.5840282    643.74945   0.01700881   0.01623017           24 
 3155000   0.74563145   -7.6020165    643.64613   0.01700069  0.016224284           15 
 3156000   0.74536868   -7.6079695    644.61136   0.01702079  0.016218415           21 
 3157000   0.74697583   -7.6099363    644.47366  0.017011764  0.016212522           16 
 3158000   0.75058192   -7.5907081    643.12024  0.016970663  0.016206613           33 
 3159000   0.75900194   -7.6103556    642.42867  0.016947047  0.016200712           20 
 3160000   0.76273779   -7.6151331    644.90907  0.017007096  0.016194816           15 
 3161000   0.73814963   -7.6163833    641.82112  0.016920308  0.016188906           13 
 3162000   0.75510207   -7.6189584    642.35635  0.016929063  0.016183003           24 
 3163000   0.74268155   -7.6232778    642.40832  0.016925079  0.016177122           27 
 3164000   0.74614169   -7.5929545     641.7839  0.016903284  0.016171253           29 
 3165000    0.7426635   -7.5978783    642.56027  0.016918385  0.016165379           40 
 3166000   0.75817752   -7.6106441    644.38033  0.016960948  0.016159521           33 
 3167000    0.7528868   -7.6062988    644.23905  0.016951875  0.016153661           19 
 3168000   0.75149647   -7.6215684    643.27509  0.016921167  0.016147807           31 
 3169000   0.73580408   -7.6052396    644.33871  0.016943797  0.016141922           14 
 3170000   0.74995144   -7.6025311    643.83008  0.016925081  0.016136064           35 
 3171000   0.73556728   -7.6194821    643.90591  0.016921736  0.016130208           27 
 3172000   0.73087147   -7.6062136    643.64358   0.01690951  0.016124333           29 
 3173000   0.74060561   -7.6147462    643.80641  0.016908457  0.016118469           65 
 3174000   0.74160761   -7.6239165    642.80931  0.016876951  0.016112604           33 
 3175000   0.74174329   -7.5986366    643.01557  0.016877049  0.016106752           36 
 3176000   0.73815943    -7.613572    643.52584  0.016885124   0.01610091           26 
 3177000   0.74888011   -7.6291415    643.19277  0.016871073  0.016095079           62 
 3178000   0.75291908   -7.6268368    643.04524  0.016861895  0.016089245           27 
 3179000   0.74160327   -7.6078392    644.11332   0.01688459  0.016083418           27 
 3180000   0.73874721   -7.6095483    642.76624  0.016843979  0.016077599           45 
 3181000   0.73725711   -7.6253408    643.02139  0.016845368  0.016071776           36 
 3182000   0.74674153   -7.6070749    642.92786  0.016837625  0.016065954           28 
 3183000   0.72620053   -7.6286895    642.60127  0.016823784  0.016060127           19 
 3184000   0.73321455   -7.6054744    643.47979  0.016841494  0.016054297           19 
 3185000   0.74617662   -7.5911722    644.01434  0.016850192  0.016048492           37 
 3186000   0.74092471   -7.6215648    641.44198   0.01677762  0.016042654           31 
 3187000    0.7290997   -7.5878707    643.92141  0.016837188  0.016036828           30 
 3188000   0.73094389   -7.6259121    643.75871  0.016827653  0.016031011           14 
 3189000   0.73022931   -7.5746107    644.96714  0.016853955  0.016025195           15 
 3190000   0.74477581   -7.5917062    643.45842  0.016809259  0.016019386           24 
 3191000   0.75516284   -7.6132548    644.12985  0.016821525  0.016013571           12 
 3192000   0.75391717   -7.5685872    645.17559  0.016843557  0.016007767           29 
 3193000   0.73945883    -7.600573    644.01137  0.016807897  0.016001973           24 
 3194000   0.74930096   -7.6218981    643.20083  0.016781487    0.0159962           53 
 3195000   0.75253914   -7.5924831     646.2994  0.016857053  0.015990412           30 
 3196000    0.7544364   -7.5914021    644.32491  0.016800295   0.01598463           32 
 3197000    0.7544265   -7.6205126    643.65314  0.016777529  0.015978849           21 
 3198000   0.73992004   -7.6074489    645.40918  0.016818042  0.015973064           17 
 3199000   0.74071025   -7.5840078    643.57451  0.016764992  0.015967282           26 
 3200000   0.74280023   -7.5997791    642.98736  0.016744463  0.015961472           16 
 3201000   0.73770559   -7.6337542    643.96545  0.016764695  0.015955669           17 
 3202000   0.74403635   -7.6269504    643.64649  0.016751158  0.015949873           56 
 3203000   0.74952944   -7.6213971    642.59835  0.016718658  0.015944055           45 
 3204000   0.75694554   -7.6217613    644.38743  0.016759973  0.015938247           27 
 3205000   0.74947213   -7.6376928    642.02492  0.016693316  0.015932439           22 
 3206000   0.74106573   -7.6292117    642.42787  0.016698583  0.015926639           22 
 3207000   0.72829083   -7.6110835    644.10936  0.016737069   0.01592084           22 
 3208000   0.73932271   -7.6337731     643.1209  0.016706175  0.015915021           45 
 3209000   0.73950478   -7.6307383    644.79514  0.016744446   0.01590921           24 
 3210000   0.73971446   -7.6179201    642.75918  0.016686375  0.015903403           13 
 3211000   0.73094254   -7.6212682    643.20459  0.016692738  0.015897583           37 
 3212000   0.74815319   -7.6258287    644.45028   0.01671986  0.015891762           50 
 3213000   0.72268724   -7.6353145    644.50257  0.016716012  0.015885938           42 
 3214000   0.73469964   -7.6416506    643.10925  0.016674685  0.015880105           77 
 3215000   0.73417003   -7.6374589    642.46533  0.016652808  0.015874268          129 
 3216000   0.74346334    -7.648732    642.77452  0.016655642  0.015868429           94 
 3217000   0.73593069   -7.6381145    642.70677  0.016648709  0.015862605          127 
 3218000   0.74222332   -7.6711442    642.02486  0.016625877  0.015856771           32 
 3219000   0.75150689   -7.6349721    643.02429  0.016646585  0.015850947          105 
 3220000   0.74183113   -7.6474226     641.7221  0.016607715  0.015845129           50 
 3221000   0.72918381   -7.6309722    642.78249  0.016629993  0.015839329           74 
 3222000   0.72110187   -7.6222493    643.43468    0.0166417  0.015833523           80 
 3223000   0.72785075   -7.6681261     644.4331  0.016662351   0.01582774           76 
 3224000   0.73739388   -7.6646728    641.75017  0.016587835  0.015821932           34 
 3225000   0.72827283   -7.6639431    643.64601   0.01663168  0.015816115           37 
 3226000   0.73887693    -7.661667    641.66427  0.016575332  0.015810274           39 
 3227000   0.73500711   -7.6516205    642.24324  0.016585147  0.015804461           40 
 3228000    0.7385374   -7.6417332     644.1988  0.016630494  0.015798664          102 
 3229000    0.7319428   -7.6249273    642.84041  0.016590286  0.015792853           74 
 3230000   0.72976757   -7.6488882     642.5468  0.016577575  0.015787057           41 
 3231000   0.72645637   -7.6571976    642.64712  0.016575032  0.015781234           58 
 3232000   0.73451227   -7.6767278    641.94565  0.016551817  0.015775393           60 
 3233000   0.73823425   -7.6677882    642.76576  0.016567836  0.015769538           46 
 3234000   0.72667962   -7.6681691    642.34515  0.016551875  0.015763704           53 
 3235000   0.73460487   -7.6673818    642.93941  0.016562066  0.015757863           84 
 3236000   0.73080507   -7.6821922    642.34106  0.016541539  0.015752048           51 
 3237000   0.75957441   -7.6640579     642.6784  0.016545114  0.015746224           73 
 3238000   0.72979914   -7.6580261    642.11405   0.01652548  0.015740416           45 
 3239000   0.75117506   -7.6424718    641.85818  0.016513795  0.015734618           52 
 3240000   0.73649265   -7.6697256    641.89634  0.016509679  0.015728802           65 
 3241000   0.72312662    -7.667542    642.27147  0.016514231  0.015722986           24 
 3242000   0.72808724   -7.6689403    642.86928  0.016524503  0.015717171           22 
 3243000   0.73964396   -7.6473431    643.33971  0.016531496  0.015711371           39 
 3244000   0.72692453   -7.6552087    642.59621  0.016507301   0.01570557          109 
 3245000   0.74899302   -7.6443173    643.38723  0.016522528  0.015699787          106 
 3246000    0.7389885    -7.673329    641.15275  0.016460073  0.015693994           74 
 3247000   0.72823046   -7.6624954    641.21894  0.016456702  0.015688198           78 
 3248000   0.73963917   -7.6886272    642.31555  0.016479771  0.015682383           54 
 3249000   0.73444142    -7.678201    641.82838  0.016462203  0.015676593           52 
 3250000   0.74314642   -7.6667519    643.63488  0.016503458  0.015670794           82 
 3251000   0.71278236   -7.6577247    643.61206  0.016497797  0.015665003          104 
 3252000   0.74579389   -7.6468667    640.88621  0.016422873  0.015659225           62 
 3253000   0.72989065   -7.6804799    641.23055  0.016426646  0.015653445          182 
 3254000   0.72403437   -7.6534875    643.47384  0.016479047  0.015647671          100 
 3255000   0.72593858   -7.6740926    641.87561  0.016433067  0.015641888           82 
 3256000   0.74374802   -7.6739629    641.92404   0.01642926   0.01563609          117 
 3257000   0.72868167   -7.6824511    642.01501  0.016426543  0.015630305          122 
 3258000   0.74382428   -7.6870625    641.26373  0.016402285  0.015624539          139 
 3259000   0.72970655   -7.6594433    643.64211  0.016458068  0.015618771           86 
 3260000   0.73348998   -7.6858532     641.3323  0.016393975  0.015613004          120 
 3261000   0.72922958    -7.705013    641.29046  0.016387879  0.015607229          153 
 3262000   0.72046756   -7.6910403    641.82509  0.016396513  0.015601455          167 
 3263000   0.73675946   -7.6693386    642.81838  0.016416855  0.015595684          157 
 3264000   0.71278431   -7.6858704    640.97418  0.016364741  0.015589918          209 
 3265000   0.71870759   -7.6990364    640.33784  0.016343487  0.015584161          243 
 3266000   0.74265839    -7.685747    643.70972  0.016424518  0.015578399          221 
 3267000    0.7419534   -7.6811959    643.69379  0.016419084   0.01557264          195 
 3268000    0.7456442   -7.6732278    641.68283  0.016362781  0.015566871          230 
 3269000    0.7126314   -7.6772989    643.79516  0.016411623  0.015561119          194 
 3270000   0.74113943   -7.6870702    641.74021  0.016354236  0.015555352          166 
 3271000   0.72550216   -7.6954878    642.22749   0.01636165  0.015549577          102 
 3272000   0.73069386   -7.6670604    642.73119  0.016369478  0.015543822          127 
 3273000    0.7526909   -7.6853674     641.1563  0.016324379  0.015538072          180 
 3274000    0.7376285   -7.6973508    641.54396   0.01632926  0.015532329          153 
 3275000   0.73209781   -7.6704782    643.63248  0.016377417   0.01552658          240 
 3276000   0.72012124   -7.6713933    644.66175    0.0163986  0.015520841          204 
 3277000   0.71403669   -7.6724347    643.68528  0.016368764    0.0155151          217 
 3278000   0.73230335   -7.6595086    642.22376  0.016326616   0.01550937          195 
 3279000   0.70930137   -7.6655098    642.68005  0.016333233  0.015503653          156 
 3280000   0.73444884   -7.6894301    642.75684  0.016330204  0.015497939          210 
 3281000   0.74603931    -7.691832     641.8067  0.016301095  0.015492209          138 
 3282000   0.73260456    -7.698735    642.37691  0.016310606  0.015486486          135 
 3283000   0.71871869   -7.6911421    643.55465  0.016335533  0.015480756          189 
 3284000   0.72264664   -7.6785277    641.14531   0.01626942  0.015475016          109 
 3285000   0.70802085    -7.716654    642.59798  0.016301319  0.015469279          252 
 3286000   0.74504287   -7.6935133    641.62792  0.016271757  0.015463528          288 
 3287000   0.73090173   -7.7115017    642.76499  0.016295634  0.015457786          280 
 3288000   0.72537809   -7.6777526    641.97321  0.016270611   0.01545208          270 
 3289000   0.72438713     -7.71033    642.02608  0.016267003  0.015446348          296 
 3290000    0.7278124   -7.7054208    640.86355  0.016232613  0.015440615          300 
 3291000   0.72345623   -7.7362957    640.89252  0.016228414  0.015434876          174 
 3292000   0.72264574   -7.7285602     641.4177  0.016236779  0.015429137          267 
 3293000   0.72787046   -7.7281884    640.59474  0.016211022  0.015423398          240 
 3294000   0.72257256   -7.6834641    642.02425  0.016242265  0.015417648          279 
 3295000   0.72603066   -7.7027728    642.79368  0.016256795  0.015411926          280 
 3296000   0.72625629   -7.7111284    641.12881   0.01620977  0.015406193          220 
 3297000   0.70463283   -7.6937409    642.54904   0.01624075  0.015400468          317 
 3298000   0.71573597   -7.7190019    641.66462  0.016213478  0.015394751          285 
 3299000   0.71253462   -7.7044649    642.24706  0.016223276  0.015389031          236 
 3300000   0.72206069   -7.7081206    642.90341  0.016234935   0.01538331          221 
 3301000   0.72498517    -7.704878    641.54619  0.016195754  0.015377601          345 
 3302000   0.72041717   -7.6926843    641.92733  0.016200468  0.015371908          305 
 3303000   0.72553568   -7.7109451    641.68084  0.016189344  0.015366206          278 
 3304000   0.72606567   -7.7336911    642.31419  0.016200418  0.015360484          314 
 3305000   0.74192773   -7.7105491    641.38507  0.016172089  0.015354769          285 
 3306000   0.72694806   -7.7054796     642.5072  0.016195483  0.015349053          317 
 3307000   0.71946028   -7.7207984     640.8973  0.016150018  0.015343332          345 
 3308000   0.73107373    -7.696388    641.64757  0.016164036    0.0153376          369 
 3309000   0.73267911   -7.7059423    640.17033  0.016121948  0.015331867          302 
 3310000   0.73265619   -7.7336289    641.25278   0.01614433  0.015326143          240 
 3311000   0.72182184   -7.7465618    640.11034    0.0161107  0.015320417          208 
 3312000   0.72522226   -7.7361218    641.40052  0.016138298  0.015314695          352 
 3313000   0.73190641   -7.7441546    641.34864  0.016132122  0.015308954          365 
 3314000   0.71049921   -7.7341249    641.74681  0.016137266  0.015303223          408 
 3315000   0.71982748   -7.7417187    642.00942     0.016139  0.015297495          369 
 3316000   0.71231734   -7.7581606    640.11275  0.016086468  0.015291771          377 
 3317000   0.73832954   -7.7850423    640.34846   0.01608754  0.015286036          415 
 3318000   0.71032474   -7.7782391    640.58342  0.016088593  0.015280305          493 
 3319000   0.72230286   -7.7517189    640.68564  0.016086312  0.015274572          455 
 3320000   0.73106264     -7.74604    639.83112  0.016060018  0.015268845          522 
 3321000   0.72639293   -7.7305461    641.73526  0.016102962  0.015263122          501 
 3322000   0.73253784   -7.7624167    640.10724  0.016057276  0.015257399          514 
 3323000   0.71975137   -7.7616544    641.44275  0.016085935  0.015251655          543 
 3324000   0.73168128   -7.7623016    640.90116  0.016067518  0.015245919          467 
 3325000   0.71258225   -7.7212808    640.60287   0.01605521  0.015240184          459 
 3326000   0.72670047   -7.7559551    639.76112  0.016029292  0.015234471          519 
 3327000   0.72296793   -7.7595071    643.41226  0.016115927  0.015228743          603 
 3328000   0.71032688   -7.7548453    640.53593  0.016039061  0.015223017          590 
 3329000   0.71486723   -7.7447181    639.97382  0.016020172  0.015217285          502 
 3330000   0.71476966   -7.7254079    641.45456  0.016052416  0.015211581          502 
 3331000    0.7188387   -7.7557047    641.54751  0.016049923  0.015205894          572 
 3332000   0.71461172   -7.7401132    641.55105  0.016045194  0.015200208          575 
 3333000   0.71679012     -7.75246    640.86931  0.016023335  0.015194532          562 
 3334000   0.70088505   -7.7601503    639.29762  0.015979245  0.015188845          507 
 3335000   0.72178145   -7.7578003    641.22514  0.016022617  0.015183167          519 
 3336000   0.72923974     -7.76833    640.62695  0.016002871  0.015177453          487 
 3337000    0.7060267   -7.7870463    639.69259  0.015974743  0.015171738          597 
 3338000   0.69446928   -7.7567604    640.32048  0.015985632  0.015166025          539 
 3339000   0.70268977   -7.7552657    640.89565  0.015995199   0.01516033          543 
 3340000   0.71462712   -7.7702829    639.00782  0.015943309   0.01515464          549 
 3341000   0.71605958   -7.7607012    641.22774  0.015993907  0.015148943          582 
 3342000   0.72460173    -7.757307     639.3575  0.015942487  0.015143255          696 
 3343000   0.70550305   -7.7643837    641.43369  0.015989473  0.015137562          615 
 3344000    0.7043687   -7.7429281    641.76438  0.015992932  0.015131888          625 
 3345000   0.70212298    -7.736303    641.18422  0.015973698  0.015126209          558 
 3346000   0.72884555   -7.7610349    640.06235  0.015940983  0.015120526          621 
 3347000   0.71903932    -7.740702    639.89355  0.015932018  0.015114841          532 
 3348000   0.72591906   -7.7536308    640.43327  0.015940693  0.015109168          492 
 3349000    0.6977502   -7.7594911    639.29089  0.015907507  0.015103477          581 
 3350000   0.72504874   -7.7303758    641.50055  0.015957725  0.015097794          530 
 3351000   0.71238719   -7.7732506    639.78362  0.015910266  0.015092111          525 
 3352000   0.71619419   -7.7437983    640.03037  0.015911654  0.015086444          459 
 3353000   0.71227167   -7.7657509    639.67169  0.015897994  0.015080771          592 
 3354000   0.70099781   -7.7646303    640.12979  0.015904636  0.015075102          518 
 3355000   0.71199345   -7.7692029    640.18418  0.015901246  0.015069439          548 
 3356000   0.72142774   -7.7649812    639.99338   0.01589177   0.01506376          585 
 3357000    0.7120594   -7.7403378    639.82442  0.015882842  0.015058101          576 
 3358000   0.71624364   -7.7738018    640.79772  0.015902266  0.015052436          534 
 3359000   0.71719206   -7.7741714    639.16517   0.01585703  0.015046779          501 
 3360000   0.72494964   -7.7773595    640.66845  0.015889594  0.015041117          520 
 3361000   0.71901279   -7.7333631    641.55635  0.015906882  0.015035473          568 
 3362000   0.71392298   -7.7745248    639.66415  0.015855249  0.015029818          576 
 3363000   0.71250169   -7.7615739    639.49236  0.015846277  0.015024166          600 
 3364000   0.72387045   -7.7494975     640.4674   0.01586572  0.015018513          555 
 3365000    0.7104962   -7.7798119      638.936  0.015823081  0.015012849          578 
 3366000   0.72289785   -7.7593527    640.75777  0.015863482  0.015007193          583 
 3367000   0.70225166   -7.7675493    641.66671  0.015881267  0.015001546          640 
 3368000   0.71247739   -7.7355329    641.88235  0.015881887  0.014995912          516 
 3369000    0.7268716    -7.769102    640.18862  0.015835278  0.014990275          662 
 3370000   0.70962049   -7.7436285    641.04949  0.015851867  0.014984642          566 
 3371000   0.70836708   -7.7543073    640.92471   0.01584408  0.014979027          529 
 3372000   0.71305707   -7.7734767    640.37563  0.015825811  0.014973402          579 
 3373000   0.71229306   -7.7548959    640.46944  0.015823437  0.014967784          591 
 3374000   0.72853191   -7.7602013    641.17823  0.015836254  0.014962164          608 
 3375000   0.72387212   -7.7548902    641.16558  0.015831249  0.014956538          615 
 3376000   0.69947862   -7.7414499    641.89338  0.015844525  0.014950936          643 
 3377000   0.68545511   -7.7699672    641.33953  0.015826166  0.014945342          570 
 3378000   0.71180002   -7.7531861    641.53467  0.015826294  0.014939737          615 
 3379000   0.71134639   -7.7415919    640.31241  0.015791467  0.014934126          639 
 3380000   0.72288084   -7.7840213    639.12165  0.015757437  0.014928514          643 
 3381000   0.70373709   -7.7592163    640.51044  0.015787007  0.014922898          610 
 3382000   0.70234235   -7.7845297    640.00214  0.015769814  0.014917283          657 
 3383000   0.72049656   -7.7678853    639.14563  0.015744054  0.014911671          715 
 3384000   0.70308461   -7.7475577    640.79046  0.015779907   0.01490606          598 
 3385000   0.72196683   -7.7758994    640.72358  0.015773599  0.014900464          713 
 3386000   0.69241152   -7.7588217    642.24604   0.01580641  0.014894862          575 
 3387000   0.69795764    -7.785199     640.1345  0.015749791   0.01488926          659 
 3388000   0.71229124    -7.789429    640.38644  0.015751339  0.014883664          620 
 3389000   0.70122803   -7.7814915    639.17363  0.015716869  0.014878068          639 
 3390000   0.69618755   -7.8166056    639.23742  0.015713801  0.014872456          643 
 3391000   0.70927871   -7.7758613    639.82011  0.015723486  0.014866863          618 
 3392000   0.70933933   -7.7774357    640.41247  0.015733404  0.014861278          631 
 3393000   0.70410395   -7.7681675    640.49426  0.015730776  0.014855685          732 
 3394000   0.69628705   -7.7762912     641.1316  0.015741789  0.014850104          642 
 3395000   0.70348518   -7.7784713    641.65211  0.015749929   0.01484451          643 
 3396000   0.71280572   -7.7898623    639.17059  0.015684398  0.014838919          713 
 3397000   0.69790045    -7.792032    641.36792  0.015733685  0.014833336          670 
 3398000   0.70930957   -7.7763291     639.3875  0.015680486  0.014827742          621 
 3399000   0.73104176   -7.7750581    640.06762  0.015692547  0.014822155          611 
 3400000   0.69457361   -7.7986459    639.36984  0.015670829  0.014816569          658 
 3401000   0.69548237   -7.8040337    638.69124  0.015649594  0.014810979          745 
 3402000   0.70054787   -7.8102959    638.93491  0.015650963  0.014805375          726 
 3403000   0.70024851    -7.779905    638.85707  0.015644458  0.014799782          730 
 3404000    0.6915145   -7.7886863    640.14828  0.015671472  0.014794197          720 
 3405000   0.68749754   -7.7750051    641.04001  0.015688693  0.014788629          712 
 3406000   0.70971704   -7.7913956     639.0639  0.015635738  0.014783033          764 
 3407000   0.69787631   -7.7781273    640.98076  0.015678034  0.014777429          694 
 3408000   0.71529695   -7.7760543    638.33782  0.015608808  0.014771848          653 
 3409000   0.69543302   -7.8165663    638.57172  0.015609947  0.014766261          737 
 3410000   0.69874442   -7.8073134     640.2872  0.015647292  0.014760673          595 
 3411000   0.69763558   -7.7862938    638.40309  0.015596675  0.014755094          627 
 3412000   0.70830223   -7.8222898    639.02022  0.015607176  0.014749508          701 
 3413000   0.71077968   -7.7822071    639.91154  0.015624366  0.014743923          670 
 3414000   0.69267524     -7.78601    638.34425  0.015581533  0.014738347          657 
 3415000   0.70036812   -7.8116419    639.76293  0.015611589  0.014732764          750 
 3416000   0.69982586   -7.8015499    640.16521  0.015616833  0.014727185          727 
 3417000   0.70693325   -7.7877158    638.15754    0.0155633  0.014721598          757 
 3418000   0.71386369   -7.8087562    641.66506  0.015644262  0.014716027          740 
 3419000   0.71970118   -7.8186746    637.72606  0.015543679   0.01471045          773 
 3420000   0.70152758   -7.8054447    639.46174  0.015581426  0.014704869          785 
 3421000   0.69984762    -7.827159     638.9034  0.015563271   0.01469929          793 
 3422000   0.70005676   -7.8143228    638.82286  0.015556762  0.014693716          782 
 3423000   0.70670785   -7.8248634    638.25455  0.015538381  0.014688143          786 
 3424000   0.72447829    -7.799411    639.19436  0.015556716   0.01468256          708 
 3425000   0.69892518   -7.8052963    639.16367  0.015551428  0.014676972          843 
 3426000   0.70421261   -7.8132421    640.54399  0.015580463  0.014671394          743 
 3427000   0.71069092   -7.8034845     639.5514   0.01555178   0.01466583          824 
 3428000    0.7179459   -7.8161501    639.25325  0.015539995  0.014660258          790 
 3429000   0.71936875   -7.8291081    638.97315  0.015528656  0.014654694          794 
 3430000    0.7170177   -7.8230791    639.20535   0.01552977  0.014649127          796 
 3431000   0.70756978   -7.8315859    637.98537  0.015495613  0.014643555          764 
 3432000   0.70408003   -7.8199009    638.90045  0.015513317  0.014638001          798 
 3433000   0.70220329   -7.8404276    637.34933  0.015471146  0.014632428          834 
 3434000   0.70830189   -7.7893946    640.25222  0.015537086  0.014626862          836 
 3435000   0.70097826   -7.8002228    638.24815  0.015483944  0.014621315          801 
 3436000   0.70735658   -7.8320525    638.41904  0.015483582  0.014615746          771 
 3437000    0.7035411   -7.8076278    638.29672  0.015476111  0.014610179          857 
 3438000   0.69959541    -7.811568    639.25399  0.015494813  0.014604607          791 
 3439000   0.70037717    -7.825239    637.45463  0.015446705  0.014599041          773 
 3440000   0.70603103   -7.8086444    640.03868  0.015504813  0.014593481          792 
 3441000   0.70695676   -7.8285557    637.91476  0.015448871  0.014587912          884 
 3442000   0.69260818   -7.8162046       639.34  0.015478888  0.014582347          840 
 3443000   0.68873922    -7.811819    638.20013  0.015446803  0.014576795          746 
 3444000   0.71195228   -7.8112888    639.51308  0.015474087  0.014571266          815 
 3445000   0.70609632   -7.8294335    638.55928  0.015446523  0.014565737          724 
 3446000   0.69862305   -7.8232528    639.16324  0.015456646  0.014560209          801 
 3447000    0.6949678   -7.8477591    638.18063  0.015428407   0.01455468          799 
 3448000   0.68428799   -7.8257083    639.86547  0.015464653  0.014549141          787 
 3449000   0.68630862   -7.8080643    638.84437  0.015435498  0.014543617          759 
 3450000   0.69791573   -7.8258595    639.33615  0.015442902  0.014538086          827 
 3451000    0.7141006   -7.8097162    639.40277  0.015440036  0.014532563          829 
 3452000   0.70459472    -7.815246     638.7539  0.015419899  0.014527029          863 
 3453000   0.70656262   -7.8344091     638.3859  0.015406552  0.014521502          770 
 3454000   0.70703144   -7.8330087     639.0271  0.015417562  0.014515995          842 
 3455000   0.68917722   -7.8508647    638.84244  0.015408646  0.014510478          766 
 3456000   0.70240893   -7.8256854    639.76478  0.015426427  0.014504962          777 
 3457000   0.70743502   -7.8146568    639.23278   0.01540914  0.014499454          821 
 3458000   0.68262471   -7.8329317    638.01192  0.015375263  0.014493955          815 
 3459000   0.69340479   -7.8085031    639.07791    0.0153965  0.014488465          853 
 3460000   0.69282043   -7.8187256    638.80129  0.015385388   0.01448297          831 
 3461000   0.70632892   -7.8105217    638.95246  0.015384582  0.014477471          924 
 3462000   0.69095416   -7.8391625     639.8562  0.015401892  0.014471983          894 
 3463000   0.69548175   -7.8509912    638.68534  0.015369269  0.014466485          957 
 3464000   0.69889857   -7.8207962    639.72636  0.015389876  0.014460991          983 
 3465000   0.68622571   -7.8253703     638.5293  0.015356645  0.014455515          881 
 3466000   0.70849844   -7.7980096    640.55338  0.015400879  0.014450028          921 
 3467000   0.69468861   -7.8075818    639.33245  0.015367091  0.014444551         1138 
 3468000   0.70347998   -7.8218924    639.73272  0.015372278  0.014439078          999 
 3469000    0.7194424   -7.8459504    638.55053  0.015339448  0.014433606          980 
 3470000   0.69053212   -7.8460287    639.31412  0.015353365  0.014428131          988 
 3471000   0.69670964   -7.8077111    639.59763  0.015355748  0.014422662         1024 
 3472000   0.69947844   -7.8576633    638.02466  0.015313572  0.014417172          990 
 3473000   0.68597729   -7.8284085    640.24443  0.015362425  0.014411686         1003 
 3474000   0.69463253   -7.8591944    638.56113  0.015317625  0.014406191         1075 
 3475000   0.70183536   -7.8770635    636.65367  0.015267474  0.014400688         1045 
 3476000   0.70592465   -7.8541412    638.62637  0.015310375   0.01439519          996 
 3477000   0.69193612   -7.8665011    638.31205  0.015298439  0.014389692         1017 
 3478000   0.69382251   -7.8653041    637.92119  0.015284675  0.014384197         1111 
 3479000   0.69030175   -7.8765354    636.52781  0.015246905  0.014378688          998 
 3480000   0.68924585   -7.8680842    637.25029  0.015259825  0.014373178         1119 
 3481000   0.69169606   -7.8292759     638.3538  0.015281859  0.014367682         1142 
 3482000   0.68932347   -7.8660009    637.80739  0.015264393  0.014362192         1099 
 3483000   0.69749003   -7.8564743    637.98058  0.015264154  0.014356703         1219 
 3484000   0.69196124   -7.8525719    637.45235  0.015247138  0.014351208         1185 
 3485000   0.69873613   -7.8519782    638.20072  0.015260658  0.014345717         1229 
 3486000   0.70386906   -7.8644235     637.3832  0.015236737  0.014340224         1190 
 3487000   0.69771627   -7.8617817    638.00276  0.015247174  0.014334749         1165 
 3488000   0.68703204   -7.8304697    638.53677  0.015255561  0.014329259         1196 
 3489000   0.69772045   -7.9081654    636.48791  0.015202253  0.014323766         1251 
 3490000   0.68444459   -7.8840449    637.10901  0.015212727  0.014318255         1228 
 3491000   0.70208008   -7.8995548    637.07345  0.015207521  0.014312754         1322 
 3492000   0.69632541    -7.906587    635.78695  0.015172464  0.014307249         1330 
 3493000   0.68473088   -7.8967089    637.14117  0.015200429  0.014301736         1284 
 3494000   0.68311053   -7.8849481    636.12018  0.015171727  0.014296227         1349 
 3495000    0.6987195   -7.8816787    636.74107  0.015182191  0.014290722         1327 
 3496000   0.67171563   -7.8864207    637.38732  0.015193252  0.014285226         1290 
 3497000   0.70439851   -7.8755612    637.39158  0.015189009  0.014279732         1272 
 3498000   0.69818683   -7.8864445     637.6815  0.015191574  0.014274234         1262 
 3499000   0.69404931   -7.8783621    637.54295  0.015183932   0.01426875         1333 
 3500000   0.69480251   -7.8833134    636.57223  0.015156482  0.014263265         1291 
 3501000   0.68158146    -7.866862    636.92281  0.015160497   0.01425779         1284 
 3502000   0.69926068   -7.8759419     636.8343  0.015154062  0.014252324         1276 
 3503000   0.69123073   -7.9031659    637.89084   0.01517487  0.014246846         1291 
 3504000   0.68151795   -7.8998188    635.90512  0.015123314  0.014241368         1292 
 3505000   0.70102394   -7.8812197     637.5458  0.015158008  0.014235892         1369 
 3506000   0.67780107   -7.8982706    636.26079  0.015123141  0.014230415         1421 
 3507000   0.70205952   -7.8865258    637.00988  0.015136629  0.014224935         1433 
 3508000   0.68822722   -7.8755729     637.8747  0.015152858  0.014219453         1376 
 3509000    0.6839866     -7.90877    635.77972  0.015098787  0.014213968         1444 
 3510000   0.68172705   -7.9100266    638.27573  0.015153745  0.014208487         1393 
 3511000   0.69611882   -7.9133374    637.29913  0.015126249     0.014203         1504 
 3512000   0.68604982   -7.9011821    637.02173   0.01511536  0.014197505         1426 
 3513000    0.6935571   -7.9417673    635.65132  0.015078549  0.014192018         1497 
 3514000    0.6915658   -7.9252024    636.05481  0.015083827  0.014186528         1489 
 3515000    0.6784801   -7.9236297    635.10349  0.015056982  0.014181048         1504 
 3516000   0.69647566   -7.9213397    637.18473  0.015102027  0.014175563         1419 
 3517000    0.6819329   -7.9166774    636.35425  0.015078055  0.014170085         1540 
 3518000   0.66382852   -7.9308613    637.13017  0.015092149  0.014164604         1446 
 3519000   0.67893569   -7.9122373    636.35047  0.015069396  0.014159132         1489 
 3520000   0.69584367   -7.9004389    635.99436  0.015056685   0.01415367         1401 
 3521000   0.69307545   -7.9263708    634.08987  0.015007334    0.0141482         1490 
 3522000   0.69738123   -7.8940732    637.15873  0.015075684   0.01414274         1499 
 3523000   0.69701801   -7.9056357    636.37093  0.015052771  0.014137271         1503 
 3524000   0.69167143    -7.903084    636.79244  0.015058467    0.0141318         1470 
 3525000   0.68629837   -7.9278004    635.55485  0.015024937  0.014126343         1532 
 3526000   0.68148247   -7.8950224    637.15447  0.015058482  0.014120878         1508 
 3527000   0.69178786   -7.9029485    635.73906   0.01502077  0.014115423         1545 
 3528000   0.69929923   -7.9137304     638.0001  0.015069919  0.014109974         1552 
 3529000   0.67583893   -7.8938847    636.19739   0.01502308  0.014104528         1458 
 3530000   0.69004976   -7.8875294    637.01229  0.015038062  0.014099077         1484 
 3531000   0.70295885   -7.9198571    636.41548  0.015019718  0.014093619         1503 
 3532000   0.68361356   -7.9029019     637.2664  0.015035542  0.014088178         1433 
 3533000   0.68871227   -7.9201159    636.05839  0.015002792  0.014082738         1543 
 3534000   0.67307808   -7.9131067    636.47035  0.015008261  0.014077304         1546 
 3535000   0.68732822   -7.9025363    635.85065  0.014989407  0.014071851         1529 
 3536000   0.69135148    -7.917022    635.92602  0.014986944  0.014066402         1665 
 3537000   0.69215346   -7.9257746     636.8088  0.015003506  0.014060971         1700 
 3538000   0.68196253   -7.9254556    635.96985  0.014979505  0.014055537         1656 
 3539000   0.68689183   -7.9229433    635.30554  0.014959629  0.014050101         1552 
 3540000   0.68020558   -7.9349144    636.82014  0.014991058   0.01404466         1580 
 3541000   0.69426147   -7.9304455    637.33852  0.014999024  0.014039225         1579 
 3542000   0.68190968   -7.9119455    635.64723  0.014954998  0.014033793         1552 
 3543000   0.69417955   -7.9377327    634.00519  0.014912155  0.014028372         1717 
 3544000   0.68356294   -7.9548154    635.95916  0.014953893  0.014022948         1635 
 3545000    0.6976887   -7.9337991    636.60683    0.0149649  0.014017514         1673 
 3546000   0.69363847   -7.9280951    635.73734  0.014940246  0.014012082         1679 
 3547000   0.68135247   -7.9257111    635.80533  0.014937631  0.014006645         1698 
 3548000   0.69884346   -7.9476934     635.1787  0.014918703   0.01400121         1731 
 3549000   0.69602038   -7.9501332    635.76246  0.014928207  0.013995778         1726 
 3550000   0.68822615   -7.9542898    636.01512  0.014929932  0.013990342         1641 
 3551000   0.67234014   -7.9272289    633.84428  0.014874784  0.013984918         1666 
 3552000   0.68412574   -7.9482067    634.83788  0.014893907  0.013979489         1644 
 3553000   0.67673925   -7.9204536    637.11276  0.014943071  0.013974062         1842 
 3554000   0.68748706    -7.929863    635.93498   0.01491125  0.013968648         1777 
 3555000   0.68515938   -7.9437681    636.31197  0.014915892  0.013963229         1748 
 3556000   0.69324527   -7.9437626    634.72916  0.014874605  0.013957818         1824 
 3557000   0.67444655    -7.927441    635.24188  0.014882436  0.013952405         1777 
 3558000   0.67045627   -7.9173907     635.8187  0.014891763  0.013946993         1867 
 3559000   0.69074656   -7.9444011    636.19978  0.014896501  0.013941599         1862 
 3560000    0.6818006   -7.9118242    635.72509  0.014881205  0.013936202         1728 
 3561000   0.67408886   -7.9585915    635.20992   0.01486497  0.013930803         1882 
 3562000   0.67900258   -7.9464375    635.05156  0.014857092  0.013925393         1930 
 3563000   0.69336594   -7.9424717    634.72962  0.014845393  0.013919989         1865 
 3564000   0.68262043   -7.9511105    634.65439  0.014839468  0.013914583         1927 
 3565000   0.67685096   -7.9619636    635.84098  0.014863043  0.013909175         1861 
 3566000   0.67371394   -7.9146352    635.24234  0.014844885  0.013903769         1782 
 3567000   0.68181828   -7.9441662    635.10102  0.014837422  0.013898366         1790 
 3568000   0.67068446   -7.9742435    635.13065  0.014833956  0.013892964         1838 
 3569000    0.6881778   -7.9567399    635.13407  0.014829879   0.01388756         1861 
 3570000   0.68687071   -7.9691774    635.31547   0.01482996  0.013882167         1868 
 3571000   0.67623817   -7.9301752    634.51824  0.014807202  0.013876775         1850 
 3572000   0.68074254   -7.9496134    635.71365  0.014830946    0.0138714         1896 
 3573000   0.69071869   -7.9487651    636.14241  0.014836795  0.013866013         1823 
 3574000   0.67214836   -7.9270685     634.7829  0.014800944  0.013860632         1747 
 3575000   0.67837295   -7.9444425    635.12169  0.014804701  0.013855249         1883 
 3576000   0.67024504   -7.9691094    634.52656  0.014786693  0.013849855         1849 
 3577000   0.67572039   -7.9349235    635.11305  0.014796222  0.013844476         1838 
 3578000   0.66781105   -7.9472893    634.41716  0.014775879  0.013839095         1925 
 3579000   0.67796001   -7.9673118    633.84078  0.014758331  0.013833709         1931 
 3580000   0.69095323   -7.9412015    634.18844  0.014762301  0.013828315         1923 
 3581000   0.68140376   -7.9549023    634.92647  0.014775353  0.013822922         1962 
 3582000   0.67762683   -7.9582467    634.29091  0.014756442  0.013817541         1896 
 3583000   0.69586559   -7.9328637    634.98363  0.014768435  0.013812163         1896 
 3584000   0.69216681   -7.9337112    636.69923  0.014804205  0.013806787         1873 
 3585000   0.67760681   -7.9620181    634.56006   0.01475035  0.013801418         1973 
 3586000    0.6805499   -7.9733334    634.37109  0.014741845  0.013796037         1956 
 3587000    0.6706072   -7.9844921    634.74508  0.014746424   0.01379066         2011 
 3588000   0.68222391   -7.9800951    634.93674  0.014746766  0.013785286         1905 
 3589000   0.66500726   -7.9869696    633.30115   0.01470468  0.013779902         1967 
 3590000   0.67139584    -7.989643    634.05934  0.014718183  0.013774516         2028 
 3591000   0.67564326   -7.9798321    634.17837  0.014716847  0.013769125         1956 
 3592000   0.67976268   -7.9770523    632.87318   0.01468247  0.013763743         2035 
 3593000   0.67092697   -7.9590949    633.52712   0.01469355  0.013758359         1999 
 3594000   0.65596844   -7.9835158    633.85155  0.014696985  0.013752972         2060 
 3595000   0.67894634   -8.0095674    633.19053  0.014677574  0.013747587         2031 
 3596000   0.67429709   -7.9758602    634.28658  0.014698892  0.013742204         2071 
 3597000   0.67289572    -7.994879    633.24016  0.014670562  0.013736825         2087 
 3598000   0.68055101   -7.9633423    633.21045  0.014665797  0.013731449         1988 
 3599000   0.67249269    -7.984815    634.36473  0.014688449  0.013726087         2061 
 3600000   0.68887257   -7.9530254    634.22047  0.014681029  0.013720723         2003 
 3601000   0.67880376   -7.9818843    633.63042  0.014663298  0.013715348         2017 
 3602000   0.66029747   -7.9847684    632.40116  0.014630788   0.01370998         2086 
 3603000   0.67194836   -7.9691405    634.64843  0.014678704  0.013704617         2049 
 3604000   0.67266571   -7.9835635    634.12563  0.014662542  0.013699248         2055 
 3605000   0.67840414   -7.9997308    632.28425   0.01461591  0.013693872         2120 
 3606000   0.67910254   -7.9864111    633.37522  0.014637068  0.013688501         2091 
 3607000   0.68426688   -7.9869087     631.4384  0.014588263  0.013683123         2085 
 3608000   0.67892248   -7.9901511    633.66272  0.014635595  0.013677761         2101 
 3609000   0.67449833    -7.984272    633.39808  0.014625429  0.013672391         2094 
 3610000   0.69087187   -8.0101158    632.91629  0.014610256  0.013667034         2106 
 3611000   0.67413195   -7.9827389     632.8246  0.014604094  0.013661678         2045 
 3612000   0.68117527   -7.9937787    633.30038  0.014611028   0.01365633         2056 
 3613000   0.67641593   -7.9988161    632.50518  0.014588642  0.013650972         2138 
 3614000   0.66315577   -7.9848916    632.46122  0.014583592  0.013645608         2133 
 3615000   0.66914276   -7.9846121    633.28668  0.014598586  0.013640248         2074 
 3616000   0.66927595   -8.0253018    631.46073  0.014552469  0.013634882         2178 
 3617000   0.67160431   -7.9846497    632.05518  0.014562141  0.013629516         2117 
 3618000   0.69841803   -8.0029867    632.33026  0.014564452  0.013624158         2093 
 3619000   0.67766385   -8.0076863     632.6641  0.014568115  0.013618796         2181 
 3620000    0.6813945   -7.9991434    633.32256  0.014579249  0.013613439         2180 
 3621000   0.65737949   -8.0104689    632.24345  0.014550388  0.013608086         2132 
 3622000   0.67803299   -7.9990375    632.33741  0.014548532  0.013602734         2127 
 3623000   0.66922476    -8.016474    632.73564  0.014553676  0.013597386         2176 
 3624000   0.67467127   -8.0227928    633.05048    0.0145569  0.013592036         2185 
 3625000   0.68967244   -8.0185814    633.30157  0.014558657  0.013586676         2160 
 3626000   0.67109852   -8.0026726    632.15381  0.014528264  0.013581328         2169 
 3627000   0.67815218   -8.0134939     632.9897  0.014543463  0.013575992         2152 
 3628000   0.66028191   -8.0018641    633.52648  0.014551784  0.013570659         2186 
 3629000   0.66326613   -8.0206771    631.89674   0.01451035  0.013565326         2191 
 3630000   0.67044014   -7.9799696    632.02967  0.014509405   0.01355999         2171 
 3631000   0.67317735   -7.9826144    635.00793  0.014573761  0.013554668         2128 
 3632000   0.66264897   -8.0257166    633.11548  0.014526328  0.013549341         2237 
 3633000   0.67419463   -7.9795726    632.77431  0.014514504  0.013544021         2168 
 3634000   0.66550254   -8.0189969    633.43957  0.014525765  0.013538698         2179 
 3635000   0.66287177   -8.0367188    633.03702   0.01451254  0.013533375         2198 
 3636000   0.65722341   -7.9844022    633.79946  0.014526024  0.013528053         2168 
 3637000    0.6729019   -8.0085656    631.99937  0.014480785  0.013522736         2216 
 3638000   0.66606029   -8.0200191    631.98803  0.014476545  0.013517419         2185 
 3639000   0.67824279   -8.0378379    632.10116  0.014475157  0.013512099         2181 
 3640000   0.66220442   -8.0059142    632.93408  0.014490249  0.013506784         2219 
 3641000   0.67455964   -8.0046632    633.42112  0.014497416  0.013501476         2159 
 3642000   0.65040851   -8.0163051    632.04543  0.014461958  0.013496177         2278 
 3643000   0.66014383   -8.0495394    633.57334  0.014492939  0.013490871         2183 
 3644000   0.66614601   -8.0033408    632.27834  0.014459347  0.013485565         2246 
 3645000    0.6678178   -8.0572024    632.35934  0.014457232  0.013480272         2254 
 3646000      0.69246   -8.0354482    631.62911  0.014436577  0.013474975         2223 
 3647000   0.67160315   -8.0075571    633.31974  0.014471249  0.013469682         2190 
 3648000   0.68159997    -8.000472    633.47421  0.014470811  0.013464397         2218 
 3649000   0.65880811   -8.0155133    632.72717  0.014449785  0.013459106         2259 
 3650000   0.66302608   -8.0111549    633.47587   0.01446292  0.013453823         2227 
 3651000   0.66623421   -8.0334223     632.7606  0.014442632  0.013448546         2182 
 3652000   0.66028525   -7.9927428     632.7191   0.01443773   0.01344327         2188 
 3653000   0.66230804   -8.0303383    633.61958   0.01445432  0.013437999         2217 
 3654000   0.67351602   -8.0205123    633.45204  0.014446544  0.013432721         2187 
 3655000   0.65294386   -8.0066041    632.68028  0.014424995  0.013427451         2300 
 3656000   0.67075236   -8.0291236    633.15576  0.014431887  0.013422188         2255 
 3657000   0.67591638   -8.0195382    632.44119  0.014411658  0.013416921         2257 
 3658000   0.65906942   -8.0162385    634.49774  0.014454569  0.013411667         2174 
 3659000   0.66853959   -8.0347183    633.00036  0.014416515  0.013406416         2292 
 3660000   0.66932481   -8.0240527    632.17487  0.014393781  0.013401165         2362 
 3661000   0.64778897    -7.987248    633.37642    0.0144172  0.013395922         2250 
 3662000   0.66848278   -8.0125425     632.7937  0.014400002  0.013390677         2301 
 3663000   0.66461793   -7.9989699     632.7767  0.014395684  0.013385431         2376 
 3664000   0.66192485   -7.9965131    633.97228  0.014418947   0.01338019         2319 
 3665000   0.66995096   -8.0266827    632.66175  0.014385215  0.013374937         2299 
 3666000   0.66961131   -8.0111372    632.24808  0.014371888  0.013369688         2259 
 3667000   0.66220772   -8.0367283    634.05899  0.014409122  0.013364446         2359 
 3668000   0.67088579   -8.0256009    632.16517  0.014362168  0.013359218         2293 
 3669000   0.65349359   -8.0149568    632.58968  0.014367895  0.013353983         2275 
 3670000   0.65566638   -8.0369416    632.62993  0.014364894  0.013348754         2329 
 3671000   0.64504178   -8.0090936    632.39491  0.014355646  0.013343518         2347 
 3672000   0.66621716   -8.0313242    632.49286  0.014353959  0.013338292         2278 
 3673000   0.66487794   -8.0116453    632.16705  0.014342659   0.01333306         2364 
 3674000   0.66555976   -8.0264747    631.63457  0.014326678  0.013327829         2284 
 3675000   0.66149093   -8.0240905    632.64296  0.014345645  0.013322603         2371 
 3676000   0.66978396   -8.0488577     631.3707  0.014312901   0.01331739         2358 
 3677000   0.67461578   -8.0266994     632.9135  0.014343974  0.013312173         2343 
 3678000   0.65333053   -8.0335618     631.5947  0.014310194  0.013306946         2415 
 3679000   0.64990659   -8.0420038    632.02395  0.014316027  0.013301725         2356 
 3680000   0.66737496   -8.0329648    632.05531  0.014312847    0.0132965         2400 
 3681000   0.67106306   -8.0306972    632.67131  0.014322904  0.013291284         2408 
 3682000    0.6781359      -8.0391    632.28576  0.014310288  0.013286071         2368 
 3683000   0.65626285   -8.0336964    631.74588  0.014294187  0.013280852         2419 
 3684000   0.65042336   -8.0448876    632.53685  0.014308199  0.013275636         2381 
 3685000   0.67080559   -8.0295533    632.57832  0.014305254  0.013270423         2282 
 3686000   0.66469644   -8.0377101    632.40032  0.014297348   0.01326522         2294 
 3687000   0.66202114   -8.0556637    633.02682  0.014307631  0.013260017         2547 
 3688000   0.65449533   -8.0145393    632.02851  0.014281194  0.013254818         2383 
 3689000   0.66618213   -8.0366546    631.85998  0.014273515  0.013249611         2419 
 3690000   0.66101098   -8.0310088    632.31287  0.014279875  0.013244402         2390 
 3691000   0.67208622    -8.051514    630.89107  0.014243906  0.013239206         2431 
 3692000   0.67905421   -8.0320429    632.89295  0.014285233  0.013234012         2389 
 3693000    0.6751032    -8.015059    631.66719  0.014253705  0.013228822         2389 
 3694000   0.66696361   -8.0297536    632.82661  0.014276002  0.013223636         2386 
 3695000   0.64806937   -8.0421025    633.05451  0.014277278  0.013218448         2362 
 3696000   0.63829117     -8.02968    631.62408  0.014241163  0.013213264         2396 
 3697000   0.65544451   -8.0354225    632.04057  0.014246699  0.013208074         2349 
 3698000   0.65790779   -8.0492929     632.1715  0.014245797  0.013202896         2346 
 3699000   0.65255616   -8.0560159    633.13949  0.014263753  0.013197717         2396 
 3700000   0.64905173   -8.0544274    631.34453  0.014219471  0.013192535         2360 
 3701000   0.63730872   -8.0432377    633.23007  0.014258085  0.013187357         2394 
 3702000    0.6548143   -8.0413823    632.06902  0.014228098  0.013182182         2345 
 3703000   0.66321085   -8.0136701    632.76043  0.014239815  0.013177012         2378 
 3704000   0.66353278   -8.0348855    633.56972  0.014254178  0.013171835         2406 
 3705000   0.65596163   -8.0098767    631.11736  0.014195172  0.013166665         2441 
 3706000   0.66661753   -8.0585107    631.16774  0.014192475  0.013161497         2409 
 3707000    0.6627672   -8.0396533    632.17986  0.014211399  0.013156334         2441 
 3708000    0.6546522   -8.0410646    631.14238   0.01418425  0.013151172         2478 
 3709000    0.6538796   -8.0747936    630.91928  0.014175413  0.013146009         2435 
 3710000   0.66667565   -8.0324507    632.61165  0.014209606  0.013140846         2481 
 3711000   0.65559554   -8.0326352    631.53732  0.014181652  0.013135688         2467 
 3712000   0.65046892   -8.0399205    632.48655  0.014199141   0.01313053         2481 
 3713000   0.64931926   -8.0264955    630.96242   0.01416111  0.013125376         2534 
 3714000   0.64673494   -8.0468903    632.64539  0.014195059  0.013120218         2550 
 3715000   0.65180944   -8.0588091    630.80085  0.014149862  0.013115061         2524 
 3716000   0.67149251   -8.0278891    632.31622  0.014180037  0.013109912         2516 
 3717000   0.66430067   -8.0232234     632.0583   0.01417044  0.013104764         2510 
 3718000   0.65124629    -8.056505    632.62582  0.014179349   0.01309962         2448 
 3719000   0.65178521   -8.0613238    630.76585  0.014133859  0.013094461         2603 
 3720000   0.65407022   -8.0630152    632.14574  0.014160971  0.013089313         2565 
 3721000   0.65703684   -8.0294279    631.68239  0.014146788  0.013084167         2574 
 3722000   0.65673119   -8.0738816    631.08287  0.014129565  0.013079033         2535 
 3723000   0.66026452   -8.0666238    631.50014  0.014135109  0.013073891         2509 
 3724000   0.67266699   -8.0628393    630.66611   0.01411265  0.013068755         2590 
 3725000   0.65449915   -8.0613846    630.95165  0.014115249  0.013063618         2570 
 3726000   0.66181309   -8.0386512     631.6491   0.01412706  0.013058478         2486 
 3727000   0.65896037    -8.066157    631.90112  0.014128904  0.013053351         2548 
 3728000     0.642052    -8.062865     629.9258  0.014080959  0.013048216         2673 
 3729000   0.66262344   -8.0667282    631.73075  0.014117519  0.013043088         2611 
 3730000   0.65679949   -8.0778633    629.26491  0.014058644  0.013037955         2606 
 3731000   0.65527313   -8.0655458    631.80693  0.014111653  0.013032824         2648 
 3732000   0.64991501   -8.0784959    630.61683  0.014081298   0.01302769         2619 
 3733000   0.65759022   -8.0656163    632.25377  0.014114067  0.013022565         2647 
 3734000   0.64906619   -8.0530694    631.03995  0.014083198  0.013017443         2616 
 3735000   0.64637225   -8.0722803     630.3098  0.014063137  0.013012318         2619 
 3736000   0.65890035   -8.0646734    631.55294  0.014087102  0.013007197         2656 
 3737000   0.64376951   -8.0634836    632.46419  0.014103652  0.013002079         2590 
 3738000   0.65411421   -8.0856332    630.30792  0.014051809  0.012996954         2644 
 3739000    0.6563625   -8.0591987    631.50603  0.014074753  0.012991843         2604 
 3740000   0.66403029    -8.093137    630.56706  0.014050068  0.012986732         2710 
 3741000   0.65661655   -8.0679582    630.38988  0.014042366  0.012981616         2722 
 3742000   0.65417745   -8.0712143    630.29136  0.014036419  0.012976506         2660 
 3743000     0.654323   -8.0618621    631.19329  0.014052749  0.012971396         2664 
 3744000   0.67152768   -8.0632959    630.83828  0.014041094  0.012966291         2637 
 3745000   0.65206143   -8.0755065    630.23652  0.014023955  0.012961186         2651 
 3746000   0.65417857   -8.0757126    631.59401  0.014050409  0.012956094         2557 
 3747000   0.65992996   -8.0820582    631.21058  0.014038132  0.012951001         2653 
 3748000   0.64318015   -8.0844825    629.89465  0.014005128  0.012945894         2694 
 3749000   0.65539978   -8.0659727    631.83943  0.014044621  0.012940794         2659 
 3750000   0.65142285   -8.0633904    631.21492  0.014026998  0.012935693         2681 
 3751000   0.65088403    -8.082443    630.39476  0.014005038  0.012930597         2671 
 3752000   0.63452872   -8.0736406     630.3565  0.014000455  0.012925497         2750 
 3753000   0.65237434   -8.0833651    630.18897  0.013993005  0.012920401         2695 
 3754000   0.66900195   -8.0786531    631.16847  0.014011021  0.012915311         2708 
 3755000   0.66059932   -8.0906192    629.72008  0.013975146  0.012910221         2730 
 3756000   0.64792938   -8.1004291    629.20522  0.013960002   0.01290513         2711 
 3757000   0.64562639   -8.0800551    630.97651  0.013995575  0.012900038         2719 
 3758000   0.65060735   -8.0994735    630.46468  0.013980501  0.012894952         2759 
 3759000   0.64798057   -8.0800797    630.60367  0.013979863  0.012889866         2738 
 3760000   0.65409038   -8.0731506    630.70997  0.013978501  0.012884787         2755 
 3761000   0.65881212   -8.0949218    629.77888  0.013954154  0.012879709         2716 
 3762000   0.63914501   -8.0769209    630.04047  0.013956239  0.012874632         2630 
 3763000   0.64333556   -8.0895361    631.16075   0.01397734  0.012869559         2717 
 3764000   0.63371918    -8.065228    630.36447  0.013955997  0.012864487         2675 
 3765000   0.64080952   -8.0720037     630.4909  0.013955088  0.012859421         2793 
 3766000   0.64594307   -8.0949468    631.53191  0.013974418  0.012854352         2750 
 3767000   0.63219735   -8.0921736    630.39126  0.013945475  0.012849286         2754 
 3768000   0.65348215   -8.0726255     630.6368  0.013947204  0.012844222         2692 
 3769000   0.65134144   -8.0599979    631.81566  0.013969569  0.012839169         2734 
 3770000   0.64208724   -8.0889331    630.96327  0.013947022  0.012834112         2826 
 3771000   0.65848851   -8.0709793    630.66122  0.013936649  0.012829054         2749 
 3772000   0.64037323   -8.1014143    629.65839  0.013910799  0.012823999         2682 
 3773000   0.65472042   -8.0669309    630.03095   0.01391534  0.012818946         2716 
 3774000   0.64934397    -8.065731    630.69991  0.013926424   0.01281389         2789 
 3775000   0.65620723   -8.0836396    630.34428  0.013914885   0.01280884         2756 
 3776000   0.64599449   -8.0865864    629.72979  0.013897638  0.012803798         2822 
 3777000   0.65496419   -8.0880429    629.54983  0.013889988  0.012798757         2737 
 3778000   0.66321783    -8.087551    630.30272  0.013902919  0.012793719         2791 
 3779000   0.64689427     -8.10068    629.61706   0.01388412  0.012788682         2692 
 3780000   0.63749556   -8.0892161    630.60522  0.013902232  0.012783645         2723 
 3781000   0.66147276    -8.079822    630.77082  0.013902204  0.012778612         2700 
 3782000   0.64262963   -8.0688194    629.75726  0.013876196  0.012773582         2760 
 3783000    0.6468465   -8.0799614    630.65248  0.013892248  0.012768553         2758 
 3784000   0.65029169   -8.0928418    631.58689  0.013909155  0.012763525         2753 
 3785000   0.64380543   -8.0970936    629.97212  0.013869928    0.0127585         2730 
 3786000   0.64645381   -8.0871435    630.26719  0.013872759  0.012753474         2734 
 3787000   0.63014709   -8.0765678    631.22718   0.01389022  0.012748457         2693 
 3788000   0.65404932   -8.0905768    629.12815  0.013840376  0.012743436         2798 
 3789000   0.64585803   -8.0839602     630.9903  0.013877679  0.012738419         2677 
 3790000   0.62117107   -8.1091631    628.89684  0.013827987    0.0127334         2784 
 3791000   0.64757072   -8.0838313    630.91391  0.013868678  0.012728381         2718 
 3792000   0.66326997   -8.1105877    629.26257  0.013828731  0.012723369         2819 
 3793000   0.64368824    -8.104817       629.97  0.013840628  0.012718357         2834 
 3794000   0.65701119   -8.1112982    630.67596  0.013852485  0.012713346         2724 
 3795000   0.63375545    -8.074184    629.98949  0.013833761  0.012708345         2678 
 3796000   0.64425614   -8.0768573    630.63581  0.013844306  0.012703348         2814 
 3797000    0.6412152   -8.0640728    630.77342   0.01384368  0.012698351         2726 
 3798000   0.63669054   -8.0935552    630.11293  0.013825543   0.01269336         2739 
 3799000   0.65473119   -8.0904378    630.03371  0.013820166  0.012688365         2883 
 3800000   0.63488626   -8.1038623     630.3493   0.01382345  0.012683378         2834 
 3801000   0.62951636   -8.1077595    629.70563  0.013805701  0.012678388         2818 
 3802000   0.63275229   -8.1079335    629.86097  0.013805475  0.012673404         2817 
 3803000   0.63920493   -8.0874451    630.18781  0.013809006  0.012668426         2851 
 3804000   0.64434865   -8.1049232    629.93887  0.013799923  0.012663447         2824 
 3805000   0.64453655   -8.1073581    629.07391  0.013777352  0.012658469         2865 
 3806000   0.64553088   -8.0885283     629.8678  0.013791115  0.012653487         2825 
 3807000    0.6436845   -8.1012277    629.66986   0.01378316  0.012648506         2699 
 3808000   0.64961485   -8.1233804    628.66767  0.013757608  0.012643527         2789 
 3809000   0.62774005   -8.1132612    629.06044   0.01376259  0.012638552         2840 
 3810000   0.64687661   -8.0926729    629.99456  0.013779409  0.012633579         2818 
 3811000   0.64126727   -8.0814057    629.64655  0.013768183  0.012628606         2781 
 3812000   0.65276392    -8.112531    628.82826  0.013746683  0.012623639         2745 
 3813000   0.64327453   -8.0984076    630.26839  0.013774552  0.012618674         2784 
 3814000   0.65615943    -8.100799    629.73011  0.013759179  0.012613708         2811 
 3815000   0.64826554   -8.1076251    630.32231  0.013768508  0.012608751         2852 
 3816000   0.64398919   -8.1175629    628.38588  0.013722613  0.012603788         2836 
 3817000   0.64737746      -8.1099    629.41768  0.013741544  0.012598829         2835 
 3818000   0.64464532   -8.1169465    628.86682  0.013725922  0.012593874         2848 
 3819000   0.63932782   -8.0989492    630.02018  0.013747495  0.012588918         2859 
 3820000   0.62938069    -8.089786     629.7294  0.013737552  0.012583963         2829 
 3821000   0.63835616   -8.1132678    628.11478  0.013698743   0.01257901         2853 
 3822000   0.63064521   -8.1255023    629.17666  0.013718312  0.012574051         2882 
 3823000   0.64793027   -8.1134883    628.92574  0.013709254  0.012569105         2891 
 3824000    0.6392537   -8.1178762    629.29965  0.013713817   0.01256416         2860 
 3825000   0.63823835   -8.1155393    629.36886   0.01371174  0.012559205         2857 
 3826000    0.6456727   -8.0970558    629.60723  0.013713348  0.012554264         2833 
 3827000    0.6359411   -8.1202676    628.18107   0.01367871  0.012549319         2846 
 3828000   0.63583202   -8.1299789    628.26062  0.013676868   0.01254438         2870 
 3829000   0.64419459   -8.1077468    628.95984  0.013688514  0.012539445         2835 
 3830000   0.62904222   -8.1234921    629.81991  0.013703653   0.01253451         2861 
 3831000   0.64151897   -8.1067581    628.97648   0.01368173  0.012529577         2788 
 3832000   0.64083864   -8.1158629    629.63076  0.013692388  0.012524651         2855 
 3833000   0.64792879    -8.090143    628.96157  0.013674267  0.012519727         2826 
 3834000   0.63582129   -8.1285697    628.33064  0.013656987  0.012514803         2868 
 3835000   0.65066144   -8.0957326    629.28082  0.013674073  0.012509882         2869 
 3836000   0.62831011   -8.1310905    629.41468  0.013673416  0.012504963         2848 
 3837000   0.64729643   -8.1151854    629.33222  0.013668061  0.012500049         2812 
 3838000   0.62212763   -8.1030756    629.51943  0.013668565  0.012495137         2784 
 3839000   0.63049947   -8.1141773    629.26349  0.013659449  0.012490226         2822 
 3840000   0.64167078   -8.1295239    628.36962  0.013636494  0.012485322         2792 
 3841000   0.64350617    -8.109497    628.99159  0.013646437  0.012480412         2816 
 3842000   0.63562692   -8.1085444    628.42923  0.013630688  0.012475503         2873 
 3843000   0.63062385   -8.1131372    628.92486  0.013637888  0.012470603         2841 
 3844000   0.64380341   -8.1438954    628.06104  0.013615614  0.012465701         2855 
 3845000   0.61856814   -8.1223784    629.61418  0.013645734  0.012460803         2843 
 3846000   0.63950803   -8.1251195    628.45379  0.013617044  0.012455907         2894 
 3847000   0.64684922   -8.0891792    629.53801   0.01363699  0.012451014         2836 
 3848000    0.6299388   -8.1313343     628.9866  0.013621505   0.01244612         2902 
 3849000   0.63290964   -8.1177433    628.77696  0.013613427  0.012441228         2868 
 3850000   0.63183156   -8.1125879    628.16219  0.013596584   0.01243634         2810 
 3851000    0.6415234   -8.1282193    628.70097  0.013604712  0.012431452         2894 
 3852000   0.62794081   -8.1161975    628.58706  0.013598716  0.012426571         2895 
 3853000   0.63571867   -8.1280133    628.28119  0.013588571   0.01242169         2812 
 3854000   0.62484774   -8.1253363    630.21279  0.013626812  0.012416807         2815 
 3855000   0.62848047   -8.1180635    631.11604  0.013642802  0.012411937         2886 
 3856000   0.64238258   -8.1513824    629.26077  0.013599169  0.012407061         2863 
 3857000   0.62283279   -8.1145167    630.27388  0.013617533   0.01240219         2819 
 3858000   0.62970724   -8.1130652    628.83004  0.013582816  0.012397319         2920 
 3859000    0.6440028    -8.131381     629.2659  0.013588708  0.012392454         2820 
 3860000   0.63774739   -8.1218223    628.77471  0.013574584  0.012387589         2924 
 3861000   0.62920669   -8.1419672    629.51079  0.013586955  0.012382724         2839 
 3862000   0.63962684   -8.1150001    628.91794  0.013570644  0.012377859         2907 
 3863000   0.63232324   -8.1218306    627.98212  0.013546944  0.012373004         2878 
 3864000   0.65492617   -8.1110077     628.7077  0.013559086  0.012368148         2851 
 3865000   0.62736511   -8.1121685    628.92457  0.013560254  0.012363295         2877 
 3866000   0.64283369   -8.1283723    628.85524  0.013555252  0.012358448         2877 
 3867000   0.63793605   -8.1159579    628.61314  0.013546529  0.012353599         2828 
 3868000    0.6304277   -8.1288661    628.64728  0.013543762  0.012348748         2887 
 3869000   0.61753723   -8.1289212     629.3953  0.013556373  0.012343905         2801 
 3870000   0.63358342   -8.1235191    628.31534  0.013529615  0.012339062         2854 
 3871000   0.64148123   -8.1259924    628.38529  0.013527626  0.012334227         2874 
 3872000   0.64198657   -8.1257409    627.15173  0.013497584  0.012329387         2906 
 3873000    0.6178146   -8.1171196    628.17944  0.013516211  0.012324547         2897 
 3874000   0.62954496   -8.1255886    628.51072  0.013519849  0.012319713         2903 
 3875000   0.62566017   -8.1271502     628.1628  0.013508877  0.012314883         2899 
 3876000   0.63446933   -8.1193251    628.26276  0.013507541  0.012310054         2909 
 3877000    0.6365709    -8.138589    629.69651  0.013534875  0.012305219         2843 
 3878000   0.62925143   -8.1324872    629.07387  0.013518005  0.012300394         2919 
 3879000   0.64072203   -8.1300863    629.58733  0.013525551   0.01229557         2845 
 3880000   0.63295992   -8.1404126    628.45403  0.013497724  0.012290744         2955 
 3881000    0.6439769   -8.1265491     629.3972  0.013514498  0.012285923         2914 
 3882000   0.63118708   -8.1288574    628.82015  0.013498629  0.012281103         2877 
 3883000   0.64482204   -8.1454937    628.31216  0.013484251  0.012276283         2928 
 3884000   0.63302136   -8.1379438    628.45891  0.013483928  0.012271463         2973 
 3885000   0.62784227   -8.1211437    628.21568   0.01347524  0.012266644         2836 
 3886000    0.6337498   -8.1415466    628.44482  0.013476686  0.012261831         2862 
 3887000   0.63090976   -8.1316853    628.84215  0.013481737  0.012257022         2879 
 3888000     0.648256   -8.1309844    629.10314  0.013483864  0.012252216         2909 
 3889000   0.62177034   -8.1341924    629.59828  0.013491006  0.012247414         2897 
 3890000   0.62971944   -8.1096919    629.46392   0.01348466  0.012242607         2830 
 3891000   0.63141659   -8.1347803    628.15117  0.013453079  0.012237805         2905 
 3892000   0.62039557   -8.1325191    629.92902  0.013487689  0.012233004         2913 
 3893000   0.60729308   -8.1356847    628.94871   0.01346324  0.012228205         2902 
 3894000   0.64094542   -8.1410694    628.30717  0.013446053  0.012223404         2945 
 3895000   0.62190682   -8.1328855    628.19466  0.013440194  0.012218613         2906 
 3896000   0.63793975   -8.1426475    628.86837  0.013451154   0.01221382         2990 
 3897000   0.62804214   -8.1362254    627.95627  0.013428198  0.012209029         2910 
 3898000   0.62179533   -8.1299023    628.73428  0.013441386  0.012204246         2871 
 3899000   0.61928587   -8.1338382    627.59706  0.013413633  0.012199459         2870 
 3900000    0.6285138   -8.1275751    628.30828  0.013425391  0.012194676         2923 
 3901000   0.62929289   -8.1417478    626.83999  0.013390583  0.012189895         3009 
 3902000   0.61837823   -8.1265863    628.32934  0.013418959  0.012185113         2970 
 3903000   0.62575467   -8.1377737    628.38931  0.013416801  0.012180337         2888 
 3904000   0.62441139   -8.1440074    627.81299  0.013401063   0.01217556         2982 
 3905000   0.62171493   -8.1374989     629.1647  0.013426477  0.012170787         2874 
 3906000   0.61962613   -8.1331072    628.79561  0.013415165  0.012166021         2984 
 3907000   0.63494478   -8.1180847    629.04198  0.013416986  0.012161257         2857 
 3908000   0.64146821   -8.1346853    627.83164  0.013387744  0.012156496         2959 
 3909000   0.62301531   -8.1152402    629.32692  0.013416196  0.012151729         2914 
 3910000   0.62374411   -8.1300717    628.92662  0.013404233  0.012146969         2937 
 3911000   0.62980929   -8.1398234     628.0111  0.013381298  0.012142212         2897 
 3912000   0.63360865   -8.1428239    628.98885  0.013398706  0.012137456         2928 
 3913000   0.62268595   -8.1331302    628.85919   0.01339252  0.012132696         2899 
 3914000   0.62409767   -8.1383606    629.09019  0.013394017  0.012127948         2906 
 3915000   0.62290838   -8.1385729    627.03259  0.013346798  0.012123194         2870 
 3916000   0.63004202   -8.1432677    627.04468  0.013343647  0.012118446         2869 
 3917000   0.63130693    -8.122599    628.62762  0.013373917  0.012113701         2931 
 3918000     0.629105   -8.1320042     628.8177  0.013374547  0.012108962         2847 
 3919000   0.62238751   -8.1319953    628.53185  0.013365056  0.012104218         2836 
 3920000   0.61718946   -8.1402728    628.62221  0.013363567  0.012099479         2870 
 3921000   0.62004656   -8.1507391    627.12484  0.013328335  0.012094745         2950 
 3922000   0.62730548   -8.1460588    628.20929  0.013347979  0.012090011         2905 
 3923000   0.60795689   -8.1227375    627.87304  0.013337434  0.012085282         2944 
 3924000   0.63914814   -8.1544668    628.32149  0.013343559  0.012080552         2925 
 3925000   0.61907068    -8.153061    627.57868  0.013324388  0.012075831         2944 
 3926000    0.6324725   -8.1553098    627.87592  0.013327303  0.012071107         2947 
 3927000   0.62371544   -8.1289161    628.85701  0.013344729  0.012066388         2997 
 3928000   0.62263034   -8.1300006    627.63432  0.013315392  0.012061669         2900 
 3929000   0.62511343   -8.1448475    628.37823  0.013327781  0.012056952         2879 
 3930000   0.64437474   -8.1443504    628.74258  0.013332116  0.012052241         2881 
 3931000   0.63679529   -8.1620635    627.92023  0.013311291  0.012047536         2949 
 3932000   0.61630204   -8.1223263    628.74814  0.013325452  0.012042827         2873 
 3933000   0.63314884   -8.1362014    628.39077  0.013314492  0.012038125         2847 
 3934000   0.61755759   -8.1490185    627.73783  0.013297277  0.012033425         2861 
 3935000   0.62654293   -8.1544615    627.87807  0.013296867  0.012028725         2931 
 3936000   0.62256562   -8.1285344    628.11576  0.013298521  0.012024024         2959 
 3937000   0.62243533   -8.1300386    629.77756  0.013330318  0.012019329         2897 
 3938000   0.61833199   -8.1379932    628.10341  0.013291506   0.01201463         2981 
 3939000   0.61259625   -8.1520551    627.40056  0.013273262  0.012009932         2920 
 3940000   0.63504521   -8.1590802    628.27329  0.013288352  0.012005241         2954 
 3941000   0.61713617   -8.1458122    628.68854  0.013293761  0.012000549         3020 
 3942000   0.62784249   -8.1372229    629.16964  0.013300559  0.011995862         2964 
 3943000   0.62023288   -8.1326098    628.32321  0.013279297  0.011991177         2909 
 3944000   0.63122943   -8.1421392    628.96317  0.013289452   0.01198649         2998 
 3945000    0.6236053   -8.1527174    628.57421  0.013277867  0.011981804         2949 
 3946000   0.62424044    -8.162818    627.84549  0.013259112  0.011977123         3013 
 3947000   0.60370867   -8.1368373     628.8223  0.013276377  0.011972445         2889 
 3948000   0.61375576   -8.1369236    628.00518  0.013255766  0.011967769         2968 
 3949000   0.62169871   -8.1472448    628.68962  0.013266853  0.011963097         2939 
 3950000   0.61387554   -8.1601544    627.61843  0.013240895  0.011958426         2934 
 3951000   0.61740659   -8.1524814    627.01621  0.013224842  0.011953754         2943 
 3952000   0.60298268   -8.1583059    626.34877  0.013207422  0.011949084         3019 
 3953000   0.62439517    -8.175515    628.23414  0.013243826  0.011944411         2975 
 3954000   0.61787746   -8.1398732    627.40911  0.013223089  0.011939739         2944 
 3955000   0.62525365   -8.1561125    627.88095  0.013229687   0.01193507         2973 
 3956000   0.61635896   -8.1424029    628.37356   0.01323672  0.011930405         2969 
 3957000   0.62406125   -8.1488762    627.83647  0.013222064  0.011925746         2968 
 3958000   0.62264015   -8.1428646    628.75604  0.013238084  0.011921096         2963 
 3959000   0.61536742   -8.1516117    628.58532  0.013231147  0.011916442         2997 
 3960000   0.62410979   -8.1474404    627.40656     0.013203  0.011911793         3002 
 3961000    0.6195746   -8.1578901    628.04942  0.013213191  0.011907144         2963 
 3962000   0.62326855    -8.160191      627.276  0.013193589  0.011902497         2952 
 3963000   0.61491569   -8.1462068    627.40147  0.013192898  0.011897855         2991 
 3964000   0.62273399   -8.1594327    628.94341  0.013221986  0.011893209         3049 
 3965000   0.61775964   -8.1614256    627.16202  0.013181211  0.011888567         2996 
 3966000   0.61761671   -8.1511214    628.02041  0.013195924  0.011883923         2955 
 3967000    0.6185081   -8.1480986    628.10338   0.01319434  0.011879281         3041 
 3968000   0.62642732   -8.1556491     627.4311  0.013176896  0.011874645         3018 
 3969000   0.62658716   -8.1637372    626.40683  0.013152071  0.011870011         2997 
 3970000    0.6221961    -8.153664    628.06202  0.013183502   0.01186538         3032 
 3971000   0.60466514   -8.1682758    627.23297  0.013162784  0.011860747         3006 
 3972000    0.6227135   -8.1476971    627.73933  0.013170093  0.011856118         3008 
 3973000   0.60926356   -8.1682735    627.79938  0.013168038  0.011851493         2961 
 3974000    0.6114161   -8.1606968    627.95885  0.013168069  0.011846869         3006 
 3975000   0.61830164   -8.1868305    627.05417   0.01314579  0.011842249         3023 
 3976000   0.62849192    -8.167426    626.74046  0.013135908  0.011837625         2992 
 3977000   0.61902686    -8.143111    627.88674  0.013156624  0.011833007         2956 
 3978000   0.61925837   -8.1589777    628.24507  0.013160823  0.011828392         2989 
 3979000   0.60821904   -8.1490232    629.19961  0.013177507  0.011823779         2998 
 3980000   0.61441125   -8.1633361    627.83563  0.013145637  0.011819172         3016 
 3981000   0.62278638   -8.1653589    627.96083  0.013144956  0.011814562         3034 
 3982000   0.60584016   -8.1599559     628.3235  0.013149244  0.011809952         3048 
 3983000   0.62602224   -8.1616585    628.32999  0.013146079  0.011805348         2969 
 3984000   0.61161301   -8.1620989    627.23373  0.013119849  0.011800742         2999 
 3985000   0.62076266   -8.1796494    627.07338  0.013113203  0.011796145         2953 
 3986000   0.61639802    -8.168483    628.23481  0.013134195  0.011791543         3100 
 3987000   0.59722164   -8.1629063    627.17817  0.013108816  0.011786948         2982 
 3988000   0.60495416   -8.1656144    627.03513  0.013102539  0.011782352         2966 
 3989000   0.62464279   -8.1663504    626.92851  0.013097028  0.011777756         3043 
 3990000   0.62097947    -8.161827    627.84169  0.013112817  0.011773159         2982 
 3991000   0.61816644   -8.1686348    627.08667  0.013093767  0.011768573         3029 
 3992000   0.60543895   -8.1625745    627.74131  0.013104152  0.011763988         2967 
 3993000   0.61249671    -8.156831    627.20051  0.013089584  0.011759398         3005 
 3994000   0.61761177   -8.1760911     626.8229  0.013078428  0.011754816         3079 
 3995000   0.62605089   -8.1725801    627.55322  0.013090388  0.011750235         3085 
 3996000   0.60973632   -8.1761652    627.66147   0.01308937   0.01174566         3064 
 3997000   0.62053078   -8.1721949    626.11776  0.013053911  0.011741083         3074 
 3998000   0.60556002    -8.193952     627.4272  0.013077939  0.011736505         3035 
 3999000   0.62837215   -8.1712136    628.68704  0.013100922  0.011731936         3016 
 4000000   0.60695985   -8.1729131    627.34285  0.013069643  0.011727366         3046 
 4001000   0.61476541    -8.166576    627.32062  0.013065913  0.011722802         3050 
 4002000   0.61031885    -8.180194     627.3355  0.013062958  0.011718233         3095 
 4003000     0.632434   -8.1855523    627.30024  0.013058961  0.011713669         3037 
 4004000   0.61245125   -8.1590115    626.82541  0.013045817  0.011709103         3019 
 4005000   0.61051964   -8.1541566    627.14452  0.013049199  0.011704542         3076 
 4006000   0.61873637    -8.171428    627.95583  0.013062819  0.011699984         3066 
 4007000   0.61851084   -8.1760317     626.0861  0.013020674  0.011695428         3049 
 4008000   0.60984317   -8.1699111    626.31273  0.013022138  0.011690878         3018 
 4009000   0.60287226   -8.1857659    627.42813  0.013042075  0.011686329         3036 
 4010000   0.61659301   -8.1552604    627.75394  0.013045593  0.011681779         3038 
 4011000   0.62707589   -8.1685181    627.16978  0.013030204  0.011677234         3044 
 4012000   0.61298514   -8.1884413    627.32571  0.013030195  0.011672688         3100 
 4013000   0.60135585   -8.1873963    627.47778  0.013030106  0.011668146         2976 
 4014000   0.61287702   -8.1822692    626.51635    0.0130069  0.011663609         3078 
 4015000   0.62888437   -8.1654746    626.25575  0.012998251  0.011659067         3028 
 4016000   0.60579109   -8.1686867    626.47093   0.01299948  0.011654535         3062 
 4017000   0.60105162   -8.1657843     627.8978  0.013025844  0.011649998         3059 
 4018000   0.61045204   -8.1696551    628.52068  0.013035521  0.011645466         3015 
 4019000   0.62041843    -8.179708    627.01562   0.01300107  0.011640936         3065 
 4020000   0.60705033   -8.1668585     628.2856  0.013024162  0.011636403         3012 
 4021000   0.60405707   -8.1802167    626.58136  0.012985604  0.011631875         3062 
 4022000   0.61239762   -8.1809542    626.96803  0.012990387  0.011627343         3065 
 4023000    0.6079981   -8.1931842    626.28107  0.012972928  0.011622808         3109 
 4024000   0.60462261   -8.1851597    627.04409  0.012985506  0.011618282         3105 
 4025000    0.6102637   -8.1651055    627.85509   0.01299907  0.011613761         3104 
 4026000   0.60791161   -8.1842656    626.89435  0.012975955  0.011609241         3154 
 4027000   0.61503797   -8.1910169    626.39715  0.012962444  0.011604722         3110 
 4028000   0.60591798   -8.1715811    626.13549  0.012953813  0.011600205         3037 
 4029000   0.60610893    -8.199275    626.97595  0.012967981  0.011595694         3178 
 4030000   0.60349079   -8.1771037     626.9441  0.012964105  0.011591179         3075 
 4031000   0.60346982   -8.1629788    627.39998  0.012970313  0.011586675         3072 
 4032000   0.61329405   -8.1753137    626.23255  0.012942968  0.011582174         3046 
 4033000   0.60536453    -8.211228    627.13701  0.012958447  0.011577677         3152 
 4034000   0.61116985   -8.1881621    626.08782  0.012933561  0.011573176         3130 
 4035000   0.59698751   -8.1677729    626.81857  0.012945448  0.011568683         3102 
 4036000   0.61003854   -8.2015251    626.27467   0.01293101  0.011564183         3111 
 4037000   0.60374475   -8.1902055    626.46649  0.012931766  0.011559685         3116 
 4038000   0.60367495   -8.1824481     626.6508  0.012932367  0.011555196         3135 
 4039000   0.60058062    -8.183668    627.43142  0.012945272  0.011550703         3139 
 4040000   0.62250419   -8.1922064    626.07997  0.012914191  0.011546215         3114 
 4041000   0.60185378   -8.1773751    626.23342   0.01291416  0.011541729         3083 
 4042000   0.58997991    -8.189182    626.50672  0.012916599  0.011537247         3096 
 4043000   0.60705635   -8.1871041    628.19098   0.01294812  0.011532762         3147 
 4044000    0.6067115   -8.1960825    626.93733  0.012919085  0.011528283         3136 
 4045000   0.61177912   -8.1895847    625.79568  0.012892371  0.011523805         3113 
 4046000   0.59645723    -8.209314    626.66073  0.012907001  0.011519328         3119 
 4047000   0.60089296   -8.1947036    626.40358  0.012898517  0.011514855         3155 
 4048000    0.6109441   -8.1786347    626.73129  0.012902077  0.011510381         3096 
 4049000   0.60144259   -8.2003621    627.00017  0.012904424  0.011505908         3132 
 4050000   0.60040027   -8.1809466    626.63293  0.012893682   0.01150143         3175 
 4051000   0.59344765   -8.1945568    626.41462  0.012886008  0.011496962         3126 
 4052000   0.61087178   -8.1904307    626.46055  0.012883772  0.011492492         3101 
 4053000   0.60530632   -8.1838153    625.67984  0.012864542  0.011488023         3084 
 4054000   0.60243513   -8.1796648    626.68124  0.012881953  0.011483564         3070 
 4055000   0.60464356   -8.1928598    625.92549  0.012863245  0.011479106         3096 
 4056000   0.59964437   -8.1859022    626.19323  0.012865574  0.011474652         3122 
 4057000   0.59988194    -8.167877    626.04572  0.012859373    0.0114702         3109 
 4058000    0.6094621    -8.196713    626.64747  0.012868561  0.011465743         3138 
 4059000   0.60799782   -8.2091255    626.30622  0.012858385  0.011461298         3154 
 4060000   0.59963362   -8.1905484    627.95747  0.012889111  0.011456846         3111 
 4061000   0.60308699   -8.1967003    626.30022  0.012851929  0.011452397         3147 
 4062000   0.59778173   -8.1986851    625.12557  0.012824667  0.011447951         3180 
 4063000   0.60873906   -8.1869976    626.83334  0.012856537  0.011443505         3134 
 4064000   0.59716461   -8.2188895    624.92975   0.01281434  0.011439064         3162 
 4065000   0.60186435   -8.2111011    626.37459  0.012840808  0.011434622         3195 
 4066000   0.61824449   -8.1700399    627.27076  0.012856017  0.011430185         3120 
 4067000   0.59422045   -8.1899566    626.68812  0.012840917  0.011425749         3177 
 4068000   0.60994851   -8.2090452    626.53595  0.012834643  0.011421315         3107 
 4069000   0.62431495   -8.1904657    626.92616  0.012839481  0.011416887         3156 
 4070000   0.59937846   -8.1865799    626.16092  0.012820658  0.011412459         3168 
 4071000    0.6066488   -8.2073444     626.0625  0.012815494  0.011408032         3200 
 4072000   0.60148976   -8.1806338    625.85445  0.012808089  0.011403609         3162 
 4073000   0.60394078   -8.1802261    626.78809  0.012824046  0.011399185         3115 
 4074000   0.59078555   -8.1888936    626.09137  0.012806647  0.011394764         3177 
 4075000   0.60041182   -8.1808975    626.36495  0.012809099   0.01139034         3141 
 4076000   0.60841612   -8.2104976    625.74223  0.012793225  0.011385927         3107 
 4077000   0.58867088   -8.1951484    626.07261   0.01279684  0.011381517         3058 
 4078000   0.60130132   -8.2001468    625.04659  0.012772736  0.011377106         3144 
 4079000   0.59497284   -8.1879982    626.71745   0.01280374  0.011372701         3144 
 4080000   0.60957051    -8.194111    627.41515  0.012814852  0.011368297         3078 
 4081000   0.60798133   -8.2003112    626.59245  0.012794912  0.011363897         3101 
 4082000   0.60031303   -8.2162276    626.05341  0.012780774  0.011359491         3173 
 4083000   0.58758853   -8.1979806    626.26698  0.012782002  0.011355089         3069 
 4084000   0.60215048   -8.1975958     626.1277   0.01277603  0.011350691         3109 
 4085000   0.60719517   -8.1822505    625.87409  0.012767729  0.011346291         3108 
 4086000   0.60451367   -8.2025382    626.41473  0.012775631  0.011341892         3109 
 4087000   0.59963744    -8.215336    626.74256  0.012779189  0.011337497         3209 
 4088000   0.60271037   -8.2133853    626.20245  0.012765053  0.011333103         3148 
 4089000   0.61173477   -8.2064887    625.67605  0.012751203  0.011328708         3110 
 4090000   0.59336921   -8.2014957    628.26493  0.012800834  0.011324321         3139 
 4091000   0.59841504    -8.202375    626.25163  0.012756694  0.011319932         3101 
 4092000    0.5973555   -8.1784037    626.66934  0.012762083  0.011315546         3133 
 4093000   0.59107094   -8.2114298    626.06566  0.012746674  0.011311165         3137 
 4094000   0.59861283   -8.2107057    626.59874  0.012754412  0.011306781         3112 
 4095000   0.58571949   -8.2065308    625.80913  0.012735229  0.011302405         3150 
 4096000   0.60346702   -8.2013406    626.12974  0.012738642  0.011298029         3093 
 4097000   0.60187434   -8.1909203    626.24622  0.012737902  0.011293651         3109 
 4098000   0.59414689    -8.207687    625.96237  0.012729022  0.011289279         3103 
 4099000   0.59976772   -8.2032934    626.08282  0.012728365  0.011284914         3144 
 4100000   0.59957988   -8.2047344    626.10929  0.012725799  0.011280544         3165 
 4101000   0.58986331   -8.2281327    626.72972  0.012735303  0.011276175         3124 
 4102000   0.59115592   -8.2168878    625.96415  0.012716645  0.011271809         3157 
 4103000   0.58751041   -8.2041427     626.2393  0.012719134   0.01126745         3136 
 4104000   0.58806147   -8.2006619    626.93694  0.012730201   0.01126309         3108 
 4105000   0.59258497   -8.2098867    625.94959  0.012707056   0.01125873         3092 
 4106000   0.59765327   -8.2125841     626.6578  0.012718335  0.011254375         3088 
 4107000   0.60455653   -8.2063669    626.20626  0.012706076   0.01125002         3194 
 4108000   0.60957411   -8.2081481    625.71139  0.012692944  0.011245667         3138 
 4109000   0.59384321    -8.214568    626.62822  0.012708449  0.011241313         3054 
 4110000    0.5949194   -8.2091949    626.80317  0.012708905  0.011236965         3132 
 4111000   0.60069481   -8.1995772    625.67653  0.012682975  0.011232616         3122 
 4112000   0.60846186   -8.2181184    625.73318  0.012681039   0.01122827         3132 
 4113000   0.59958977   -8.1983697    625.01736  0.012663452  0.011223926         3128 
 4114000   0.58683462   -8.2129559    625.92141  0.012678687  0.011219581         3078 
 4115000   0.58360447   -8.2038548    626.09287  0.012679078  0.011215241         3122 
 4116000   0.60218674   -8.2175226    625.49265  0.012663845   0.01121091         3113 
 4117000   0.60331638   -8.2244976    625.90641  0.012669144  0.011206574         3042 
 4118000   0.60129729   -8.1970275    625.51238  0.012658094  0.011202247         3105 
 4119000   0.58905902   -8.2113437    625.93182  0.012663507  0.011197921         3091 
 4120000   0.58495144   -8.1986828    626.07411  0.012663311  0.011193591         3108 
 4121000   0.58304458   -8.2104848      625.609  0.012650833  0.011189269         3197 
 4122000   0.59108795   -8.2138624    625.92981   0.01265425  0.011184943         3158 
 4123000   0.59273481   -8.2378655    625.57684  0.012644046   0.01118062         3135 
 4124000   0.58659558   -8.2312975    625.68661  0.012643199  0.011176296         3099 
 4125000   0.60102723   -8.2107877    625.11675  0.012628621  0.011171977         3101 
 4126000   0.59944224   -8.2053026    624.44063  0.012611905  0.011167658         3133 
 4127000   0.59525059   -8.2223281    625.46379  0.012629509  0.011163341         3103 
 4128000   0.58044296   -8.2061421    625.18173  0.012620755   0.01115903         3101 
 4129000   0.57518433   -8.2279979    625.48903  0.012623901  0.011154722         3091 
 4130000   0.59165514   -8.2143686    625.51888  0.012621446  0.011150409         3143 
 4131000   0.59924704   -8.2136718    624.24256  0.012592644  0.011146102         3098 
 4132000   0.58918659   -8.1997652    625.84176  0.012621849  0.011141799         3127 
 4133000   0.58939437   -8.2083494    626.07839  0.012623566  0.011137496         3175 
 4134000   0.59867431   -8.2228544    624.94194  0.012597604  0.011133195         3092 
 4135000   0.58419389   -8.1966921    627.54527  0.012647023  0.011128893         3090 
 4136000   0.60509136   -8.2090227    626.18116   0.01261648  0.011124596         3027 
 4137000   0.59764464   -8.2283472    625.70689  0.012603878  0.011120301         3082 
 4138000    0.5671091   -8.2349115    626.26947  0.012612161  0.011116006         3105 
 4139000   0.59995801   -8.2222444    626.36182  0.012610973  0.011111715         3093 
 4140000   0.59032074   -8.2139026    624.92463  0.012578998  0.011107429         3109 
 4141000   0.57887281   -8.2187522    624.77065  0.012572862  0.011103143         3109 
 4142000   0.57616701   -8.2053825    625.28305  0.012580135  0.011098861         3139 
 4143000   0.57485475   -8.2091808    626.05802  0.012592687  0.011094581         3083 
 4144000   0.60114849   -8.2258716    625.05694  0.012569517  0.011090303         3086 
 4145000     0.587438   -8.2127521    626.32459   0.01259197  0.011086026         3118 
 4146000    0.5932829   -8.1957675     626.2313  0.012587058  0.011081756         3111 
 4147000   0.58439056   -8.2225751    625.99555  0.012579285  0.011077486         3178 
 4148000    0.5781018   -8.2132638    625.54261  0.012567153  0.011073213         3100 
 4149000   0.58960697   -8.2236352    625.75609  0.012568412  0.011068943         3123 
 4150000   0.59685332   -8.2221049    626.04377   0.01257116  0.011064676         3133 
 4151000   0.59452005   -8.2205945    626.47776  0.012576844  0.011060409         3041 
 4152000   0.58736177   -8.2461083    623.86274   0.01252133   0.01105614         3129 
 4153000   0.59373831   -8.2124693    625.58242  0.012552822  0.011051875         3022 
 4154000   0.58419253   -8.2164922    625.50166   0.01254818  0.011047617         3134 
 4155000   0.58771913   -8.2138645     626.4805  0.012564791  0.011043357         3049 
 4156000   0.57705895    -8.231905    625.30737  0.012538245  0.011039099         3145 
 4157000   0.58149624   -8.2256643    625.37155  0.012536516  0.011034844         3061 
 4158000    0.5871978   -8.2116403    624.48265  0.012515686  0.011030593         3171 
 4159000   0.57777279   -8.2176076     626.6046  0.012555194  0.011026344         3130 
 4160000   0.58734958   -8.2273805     625.5242  0.012530533  0.011022102         3171 
 4161000   0.60190527   -8.2206986    626.70135  0.012551097  0.011017856         3117 
 4162000   0.58396449   -8.2095046    626.74117  0.012548878  0.011013613         3128 
 4163000   0.58737973   -8.2193126    624.31048  0.012497207  0.011009374         3127 
 4164000   0.57395052   -8.2005948    625.87876  0.012525592  0.011005138         3070 
 4165000   0.58598457   -8.2204084    625.65423  0.012518092  0.011000903         3102 
 4166000    0.5854496   -8.2362739    625.77637   0.01251753  0.010996669         3154 
 4167000   0.58922469   -8.2430264    626.07747  0.012520548  0.010992437         3131 
 4168000   0.58084603   -8.2230519    625.84866  0.012512969  0.010988203         3108 
 4169000   0.57608692   -8.2326881    625.34199   0.01249984  0.010983973         3172 
 4170000   0.57470991   -8.2110722     626.3621  0.012517228   0.01097975         3166 
 4171000    0.5925041   -8.2182324    627.16333  0.012530235  0.010975528         3163 
 4172000   0.59920534   -8.2314359    624.56769  0.012475385  0.010971307         3158 
 4173000   0.59386854   -8.2160617    625.89547  0.012498911  0.010967089         3044 
 4174000   0.59335731   -8.2354598    625.17817  0.012481596  0.010962871         3159 
 4175000   0.56676299    -8.244161    626.17821  0.012498567  0.010958654         3112 
 4176000   0.58368691   -8.2307146    625.74306  0.012486891  0.010954434         3147 
 4177000   0.57835066   -8.2266323    626.12399  0.012491501  0.010950227         3091 
 4178000   0.57669175   -8.2241618    626.23157  0.012490657  0.010946015         3105 
 4179000   0.57988171    -8.234098    624.54963  0.012454128  0.010941806         3165 
 4180000   0.59864678   -8.2007886    625.52662  0.012470626  0.010937605         3043 
 4181000   0.58144748   -8.2294916    625.19273  0.012460989  0.010933405         3184 
 4182000     0.592562   -8.2137976    626.75226  0.012489085  0.010929204         3114 
 4183000   0.59113874   -8.2323607    624.56043  0.012442434  0.010925002         3111 
 4184000   0.57794036   -8.2212586     624.8506   0.01244524  0.010920801         3219 
 4185000   0.58666555   -8.2275223    624.61192  0.012437513  0.010916607         3148 
 4186000   0.57029258   -8.2141312    625.90436  0.012460272  0.010912414         3197 
 4187000   0.58367581   -8.2564283    624.33299  0.012426021   0.01090822         3169 
 4188000   0.57876254   -8.2324523     625.9953  0.012456131   0.01090403         3176 
 4189000   0.57934034   -8.2456324    624.51192  0.012423648  0.010899843         3210 
 4190000   0.59020771   -8.2511118    624.11566  0.012412801  0.010895655         3186 
 4191000   0.56849179   -8.2540786    624.58534  0.012419179  0.010891467         3168 
 4192000   0.57193116   -8.2319102    625.79081   0.01244018  0.010887281         3206 
 4193000   0.59583587    -8.236884    624.36845  0.012408944  0.010883095         3231 
 4194000   0.58857841   -8.2286882     624.7028  0.012412629  0.010878916         3156 
 4195000   0.56627375     -8.24094    625.76195   0.01243071  0.010874744         3160 
 4196000   0.58792567   -8.2163944    624.55501  0.012403778   0.01087057         3111 
 4197000   0.57641197   -8.2405316    624.58743  0.012401466  0.010866397         3112 
 4198000   0.58994168   -8.2438943    625.27091  0.012412079  0.010862226         3174 
 4199000    0.5783211   -8.2277469    624.49582  0.012393741  0.010858057         3219 
 4200000   0.57750391   -8.2369915    624.62748  0.012393402  0.010853885         3129 
 4201000   0.58061594   -8.2238582    625.43775  0.012406525  0.010849722         3208 
 4202000   0.59118262   -8.2310656    624.97652  0.012394426  0.010845557         3188 
 4203000   0.57618373   -8.2446895     624.8676  0.012389317  0.010841395         3188 
 4204000   0.58675473   -8.2476907    625.59282  0.012400746  0.010837232         3193 
 4205000   0.57659727   -8.2413311    624.43492   0.01237485  0.010833074         3181 
 4206000   0.58271501   -8.2434971    625.25909  0.012388237  0.010828918         3221 
 4207000   0.58405379   -8.2437887    624.99471  0.012380055  0.010824765         3149 
 4208000   0.57467254   -8.2488983     623.2188  0.012341944  0.010820609         3140 
 4209000    0.5727518   -8.2414668    624.60509  0.012366459  0.010816456         3189 
 4210000   0.58639615   -8.2365256    625.28136  0.012376907  0.010812305         3194 
 4211000   0.58747603   -8.2369305    624.72169  0.012362893  0.010808156         3194 
 4212000   0.57516231    -8.226754    624.61843  0.012357915  0.010804007         3171 
 4213000   0.58389478   -8.2585861    625.31705    0.0123688   0.01079986         3204 
 4214000   0.57588378    -8.245067    625.48306  0.012369148  0.010795714         3171 
 4215000   0.58649635   -8.2377136    625.72784  0.012371053  0.010791572         3153 
 4216000   0.58456217     -8.23335    623.77563  0.012329531  0.010787436         3227 
 4217000    0.5756985   -8.2408806    625.60758  0.012362809  0.010783298         3181 
 4218000   0.58351763   -8.2657009    625.38708  0.012355522  0.010779165         3253 
 4219000   0.57787615   -8.2528218    625.04115   0.01234576  0.010775029         3147 
 4220000   0.58932411   -8.2536712    623.74229  0.012317186  0.010770901         3162 
 4221000    0.5742139   -8.2377828    623.59119  0.012311285  0.010766773         3128 
 4222000   0.57646198   -8.2382639    624.18819  0.012320152   0.01076265         3176 
 4223000   0.57030859   -8.2403286    624.45266  0.012322454  0.010758523         3156 
 4224000   0.57053156   -8.2535266    623.80064  0.012306673  0.010754397         3171 
 4225000   0.58473136   -8.2581039    624.81864  0.012323839  0.010750277         3234 
 4226000   0.57780591   -8.2239628       624.13  0.012307343  0.010746157         3227 
 4227000   0.56620666   -8.2549473    624.24326  0.012306665  0.010742036         3189 
 4228000   0.56770529   -8.2282557    624.63366  0.012311449   0.01073792         3207 
 4229000   0.58478272   -8.2408397    624.98421  0.012315445  0.010733812         3244 
 4230000   0.57560087   -8.2427807    624.49184  0.012302834  0.010729699         3195 
 4231000   0.56285575   -8.2523387    623.70711   0.01228447  0.010725592         3230 
 4232000   0.56858331   -8.2419965    624.23104  0.012291884  0.010721485         3183 
 4233000   0.57045829   -8.2526573     624.6616  0.012297456  0.010717383         3173 
 4234000   0.57824479   -8.2305373    624.39553  0.012289315  0.010713278         3176 
 4235000   0.58059433   -8.2239747    625.47812  0.012307716  0.010709178         3208 
 4236000   0.57337186   -8.2490633    624.65316  0.012288581  0.010705079         3163 
 4237000   0.58272302   -8.2535549    625.66407  0.012305564  0.010700979         3176 
 4238000   0.56626803   -8.2583329    624.49144  0.012279602  0.010696884         3233 
 4239000   0.58438546   -8.2625224    624.20186  0.012271012  0.010692789         3197 
 4240000   0.57965567   -8.2475223    623.97397  0.012263639  0.010688694         3251 
 4241000    0.5684833   -8.2429648    623.92888  0.012259862  0.010684603         3222 
 4242000   0.55935955   -8.2490869    624.06331  0.012259612  0.010680513         3196 
 4243000   0.57750708   -8.2387994    623.96213  0.012254736  0.010676424         3210 
 4244000   0.57013706   -8.2848996    625.17538  0.012275671  0.010672337         3227 
 4245000    0.5736345   -8.2681702    623.55674  0.012241004  0.010668248         3239 
 4246000   0.57044492   -8.2507992    626.71655  0.012300136  0.010664163         3191 
 4247000    0.5766002   -8.2606374    625.16359  0.012266768  0.010660087         3180 
 4248000   0.58347103    -8.250434    623.78946  0.012236924  0.010656007         3277 
 4249000   0.57369384   -8.2642642    623.70156  0.012232321  0.010651925         3194 
 4250000   0.58116746   -8.2585703    624.53964  0.012245875   0.01064785         3211 
 4251000   0.56753712   -8.2643899    624.50098  0.012242237  0.010643771         3211 
 4252000   0.56815928   -8.2627032    624.42223  0.012237814  0.010639699         3197 
 4253000   0.57274154   -8.2634832    624.03828  0.012227414   0.01063563         3164 
 4254000   0.57103529   -8.2353263    625.42351  0.012251675  0.010631561         3151 
 4255000   0.57765961   -8.2472122    624.56931  0.012232066   0.01062749         3164 
 4256000   0.56992241   -8.2548487    624.54454  0.012228707  0.010623421         3136 
 4257000   0.57464186   -8.2664238    624.22156  0.012219512  0.010619358         3215 
 4258000   0.56503534   -8.2690394    623.63034  0.012205072  0.010615296         3223 
 4259000   0.58532289   -8.2465209    623.02832  0.012190427  0.010611231         3170 
 4260000   0.57641959   -8.2415072    623.97896  0.012206161  0.010607173         3206 
 4261000   0.57081814   -8.2736498    624.69632  0.012217326  0.010603118         3228 
 4262000   0.58682487   -8.2600629    624.35109  0.012207709  0.010599063         3188 
 4263000   0.56904095   -8.2536749    624.09363  0.012199813  0.010595013         3246 
 4264000   0.57064405   -8.2577973    624.37433  0.012202438   0.01059096         3134 
 4265000   0.56107307   -8.2624059    623.93233   0.01219094   0.01058691         3164 
 4266000   0.57123043   -8.2569799    624.41149  0.012197443  0.010582862         3147 
 4267000   0.58060154   -8.2452682    624.96876  0.012205468  0.010578818         3185 
 4268000   0.56981285   -8.2592115    624.22308  0.012188048  0.010574776         3217 
 4269000   0.57632307   -8.2513663    625.10688  0.012202445  0.010570735         3214 
 4270000    0.5731417   -8.2709604    624.06734    0.0121793  0.010566695         3224 
 4271000   0.58484106   -8.2595494    623.76722  0.012170593  0.010562656         3253 
 4272000   0.56431596   -8.2588596    624.51188   0.01218227  0.010558623         3179 
 4273000   0.55494731    -8.255495    624.78856  0.012184815  0.010554587         3191 
 4274000   0.57030552   -8.2749925    624.03416  0.012167255  0.010550556         3263 
 4275000   0.57245584   -8.2678408    623.64476  0.012156818  0.010546521         3268 
 4276000   0.55580918   -8.2718194    624.35348  0.012167787  0.010542494         3265 
 4277000   0.56948276   -8.2630684    623.66652  0.012151557  0.010538468         3196 
 4278000    0.5698861   -8.2670589    623.78213  0.012150969  0.010534444         3230 
 4279000   0.57431421   -8.2811437    623.33624  0.012139445  0.010530417         3255 
 4280000   0.55957536   -8.2751603    623.47358  0.012139283  0.010526397         3235 
 4281000   0.56832091   -8.2749136     624.7699  0.012161681  0.010522375         3299 
 4282000    0.5647827   -8.2563629    623.28282  0.012129901  0.010518354         3259 
 4283000   0.56876222    -8.277523    623.97609  0.012140558  0.010514337         3253 
 4284000   0.56973124   -8.2585874    623.85169  0.012135304  0.010510322         3299 
 4285000   0.55959079   -8.2753595    624.57972   0.01214663  0.010506307         3304 
 4286000   0.56092745   -8.2763513    623.64393  0.012125601   0.01050229         3279 
 4287000   0.56126314   -8.2779392    623.48787  0.012119739  0.010498278         3286 
 4288000   0.55749344   -8.2610998    622.78443  0.012103242  0.010494269         3303 
 4289000    0.5659346    -8.294008    624.27506  0.012129382   0.01049026         3258 
 4290000   0.57831279    -8.274743    623.77088  0.012116761  0.010486251         3306 
 4291000   0.55647627   -8.2784616    623.70704  0.012112698  0.010482248         3333 
 4292000   0.55857041   -8.2859394    622.50653  0.012086567  0.010478247         3285 
 4293000   0.56188777   -8.2897397     623.8289   0.01210942  0.010474246         3304 
 4294000    0.5610726   -8.2745002    623.98712  0.012109671  0.010470248         3296 
 4295000   0.56623007   -8.2746557    622.84522  0.012084696  0.010466254         3314 
 4296000   0.56800339   -8.2796974    624.66464  0.012117176  0.010462259         3295 
 4297000   0.57389257   -8.2527475    622.49646  0.012072307  0.010458267         3299 
 4298000   0.57302538   -8.2683437    623.25972  0.012084297  0.010454275         3293 
 4299000   0.54573375   -8.2839034    623.78426  0.012091654  0.010450284         3340 
 4300000   0.55357869   -8.2634171    624.12853  0.012095514  0.010446296         3326 
 4301000   0.56905847    -8.292466    622.73206  0.012065645  0.010442314         3343 
 4302000     0.562915   -8.2662325    623.75334  0.012082623  0.010438332         3299 
 4303000   0.56045182   -8.2698596    623.05803   0.01206635  0.010434348         3427 
 4304000   0.56477981   -8.2888017    623.01429  0.012062699  0.010430368         3318 
 4305000   0.57093592   -8.2905613    623.09216  0.012061405  0.010426389         3279 
 4306000   0.56698996   -8.2759359    623.89108  0.012074065  0.010422415         3287 
 4307000   0.55489241   -8.2913992    623.06216  0.012055223  0.010418442         3317 
 4308000    0.5720731   -8.2710846    624.18197  0.012074086  0.010414471         3323 
 4309000   0.58468801   -8.2950462    622.83895  0.012045311  0.010410499         3315 
 4310000    0.5613412    -8.279611    623.41916  0.012053735  0.010406531         3279 
 4311000   0.56472098   -8.2880053     622.7267  0.012037553  0.010402566         3345 
 4312000   0.57127079   -8.2780166    623.11604  0.012042286  0.010398599         3274 
 4313000    0.5616031   -8.2724843    623.30635  0.012043171  0.010394638         3258 
 4314000   0.56518989   -8.2660346    622.30213  0.012020981  0.010390678         3329 
 4315000   0.55735944   -8.2722137    623.49385   0.01204121   0.01038672         3337 
 4316000   0.55751094   -8.2922505    624.27245  0.012053453  0.010382764         3264 
 4317000   0.55761556   -8.2781978    624.37437  0.012052629  0.010378812         3305 
 4318000   0.54902691   -8.2683151     624.2682  0.012047788  0.010374856         3337 
 4319000   0.55681438   -8.2768707    623.22815  0.012024931  0.010370905         3300 
 4320000   0.56237759   -8.2811269    624.85331  0.012053497  0.010366958         3244 
 4321000   0.56681697   -8.2867668    624.06243  0.012035455  0.010363012         3249 
 4322000   0.56483974   -8.2737624    623.66152  0.012024941  0.010359063         3319 
 4323000   0.55764879   -8.2791358    623.88519  0.012026471  0.010355119         3225 
 4324000   0.55283854   -8.2908917      623.187  0.012010234  0.010351175         3292 
 4325000   0.56081436   -8.2862969    622.94142  0.012002725  0.010347235         3298 
 4326000   0.55680898   -8.2974429    622.88899   0.01199894  0.010343294         3303 
 4327000   0.56032024   -8.2778893    623.57717  0.012009421  0.010339357         3310 
 4328000   0.55038227   -8.2920598    623.17499  0.011998902  0.010335424         3375 
 4329000   0.56290563   -8.2915108    622.39864  0.011981186  0.010331485         3327 
 4330000   0.55538541     -8.28867    621.82367  0.011967353  0.010327555         3283 
 4331000   0.56289689   -8.2792177    623.11775   0.01198949  0.010323624         3260 
 4332000   0.55484003   -8.2920981    624.07969  0.012005226  0.010319697         3298 
 4333000   0.55815827   -8.2782681      623.652   0.01199423  0.010315773         3329 
 4334000   0.57463975   -8.2834899    623.01164   0.01197915  0.010311852         3289 
 4335000   0.55371319   -8.2849694    623.18453   0.01197971  0.010307927         3324 
 4336000   0.55387062   -8.2880083    621.87607    0.0119518  0.010304006         3324 
 4337000   0.55066886   -8.2952526     622.2362  0.011955964  0.010300089         3308 
 4338000   0.55945192   -8.2737402    623.63817   0.01198014  0.010296173         3293 
 4339000   0.55211307   -8.2990827    623.87742  0.011981974   0.01029226         3359 
 4340000   0.55731477   -8.3093432    623.44023  0.011970818  0.010288348         3375 
 4341000    0.5666801   -8.2920584    623.40053  0.011967299  0.010284441         3276 
 4342000   0.56559951   -8.2909834    622.03202  0.011938278   0.01028053         3329 
 4343000   0.56319349   -8.2895222    624.04734  0.011974199  0.010276626         3316 
 4344000   0.54968773   -8.2952576      622.768    0.0119469   0.01027272         3214 
 4345000   0.55806995   -8.2936012     622.1355  0.011932019  0.010268818         3342 
 4346000   0.55132416   -8.2925997    622.58316  0.011937858  0.010264916         3290 
 4347000   0.55239013   -8.2906882    623.10864  0.011945185  0.010261022         3301 
 4348000   0.53923658   -8.2827498    623.00882  0.011940525  0.010257131         3339 
 4349000    0.5495262   -8.2852315    624.46316  0.011965646   0.01025324         3289 
 4350000   0.55777441   -8.2968623    623.03047   0.01193545  0.010249348         3297 
 4351000    0.5589428   -8.2914355    623.52148  0.011942111  0.010245457         3325 
 4352000     0.561502   -8.2901672    623.42504   0.01193752  0.010241569         3258 
 4353000   0.54652518   -8.2920997    623.62936  0.011938689  0.010237679         3269 
 4354000   0.54449184   -8.3090923    623.24112  0.011928516  0.010233796         3291 
 4355000   0.54586742   -8.2877534    622.75921  0.011916556  0.010229912         3265 
 4356000   0.55279317   -8.2838298    623.84591   0.01193461  0.010226029         3285 
 4357000   0.56014142   -8.2895846    622.33556  0.011902983  0.010222155         3293 
 4358000    0.5488758   -8.3112426    622.77652  0.011908684  0.010218278         3269 
 4359000   0.54551278   -8.3034658    623.24781  0.011914962  0.010214405         3315 
 4360000   0.56118994   -8.2896226     624.4487  0.011935182  0.010210533         3331 
 4361000   0.54696071   -8.2846825    624.11432  0.011926055  0.010206666         3306 
 4362000   0.56014908    -8.286419    623.34039  0.011908536  0.010202798         3274 
 4363000   0.54010322   -8.2871891    623.82537  0.011915069  0.010198932         3226 
 4364000   0.54493326    -8.284705    623.78209  0.011911513  0.010195071         3265 
 4365000   0.55271177   -8.2956569     622.5165  0.011884622  0.010191207         3303 
 4366000   0.54220389   -8.3050527    623.34241  0.011897664  0.010187347         3276 
 4367000   0.55094819   -8.2915903    622.55891  0.011879988  0.010183489         3322 
 4368000   0.56158378    -8.301988     622.6684  0.011879358  0.010179629         3331 
 4369000   0.54475809   -8.3037267    622.92095  0.011881456  0.010175776         3290 
 4370000    0.5581093   -8.2980196    622.28135   0.01186654   0.01017192         3284 
 4371000   0.55749881    -8.300699    624.16491  0.011899735  0.010168069         3327 
 4372000   0.56522214   -8.2914784    622.60317  0.011867245  0.010164221         3264 
 4373000   0.54032365   -8.3136302     622.9668  0.011871461   0.01016037         3355 
 4374000   0.56259731   -8.2990949     623.2965  0.011875029  0.010156518         3333 
 4375000   0.55866743   -8.2975971    624.13464  0.011888279  0.010152672         3273 
 4376000   0.54402551   -8.2952147    623.58272  0.011875052  0.010148831         3331 
 4377000   0.55855427   -8.2693763    623.71198    0.0118748  0.010144989         3307 
 4378000    0.5486853   -8.3002221    622.57884  0.011850519  0.010141153         3306 
 4379000   0.54863724   -8.2979111    623.79319  0.011870922  0.010137316         3313 
 4380000   0.55560686   -8.2855958    623.20293  0.011856981  0.010133481         3247 
 4381000   0.55692014   -8.3010087    623.36938  0.011857441  0.010129647         3292 
 4382000    0.5519879   -8.2852334    623.52598  0.011857713  0.010125816         3279 
 4383000   0.54451175   -8.3003002    623.02534  0.011845489  0.010121986         3348 
 4384000   0.53721654   -8.2803108    624.15844  0.011864326  0.010118154         3317 
 4385000   0.55560593     -8.29195    622.23824  0.011825128  0.010114326         3363 
 4386000   0.55348542   -8.2815103    621.49132  0.011808241  0.010110499         3281 
 4387000   0.55246119   -8.3132027     622.6709  0.011827956   0.01010667         3252 
 4388000   0.54892729   -8.3020641    623.27381   0.01183671  0.010102847         3296 
 4389000   0.54616123   -8.2951182    622.96859  0.011828218  0.010099027         3328 
 4390000   0.55559041   -8.3033254     623.1339  0.011828662  0.010095207         3291 
 4391000   0.54869334   -8.2842248    623.02655  0.011823931   0.01009139         3296 
 4392000   0.56183243   -8.2954207    624.08487  0.011841319  0.010087576         3336 
 4393000   0.55188391   -8.2820247    622.45853  0.011807772  0.010083766         3332 
 4394000   0.55473229   -8.3027781    622.42267  0.011804405  0.010079952         3283 
 4395000   0.55143584   -8.2830543    622.95933  0.011811895  0.010076141         3283 
 4396000   0.54138607   -8.2866307    624.09006  0.011830643  0.010072335         3298 
 4397000   0.54454212   -8.2844262    623.12176    0.0118096   0.01006853         3224 
 4398000   0.56026718   -8.3112529    621.97384  0.011785165  0.010064729         3348 
 4399000   0.55480426   -8.2821047    622.46456  0.011791782  0.010060925         3313 
 4400000   0.55581311   -8.3083475    622.86447  0.011796675  0.010057124         3271 
 4401000   0.53788678   -8.3080073    622.56164  0.011788261  0.010053322         3293 
 4402000   0.54539392   -8.2921914    623.10067  0.011795787  0.010049529         3271 
 4403000   0.55483815    -8.322196    622.56561  0.011782982  0.010045733         3356 
 4404000   0.55045093   -8.3114558    622.92194  0.011787048  0.010041943         3357 
 4405000   0.54488872   -8.3151131    623.79419  0.011800874  0.010038154         3310 
 4406000   0.54866267    -8.297272    623.01119  0.011783386  0.010034364         3317 
 4407000     0.546173   -8.3009193    622.47593  0.011770591  0.010030577         3231 
 4408000   0.54661853   -8.3182447    622.57366  0.011769768   0.01002679         3396 
 4409000   0.55166433   -8.3054711     622.7546  0.011770519  0.010023008         3308 
 4410000   0.54239059    -8.315459    622.80559  0.011768813  0.010019226         3323 
 4411000   0.55033645   -8.3208208    622.73879  0.011764883  0.010015447         3343 
 4412000   0.54835116   -8.3031447    621.82379  0.011744934  0.010011672         3314 
 4413000   0.54390477   -8.3069733    621.66816  0.011739334  0.010007893         3351 
 4414000   0.53195492   -8.3015849    621.59996  0.011735387  0.010004118         3272 
 4415000    0.5395183   -8.3155595     621.6144  0.011733001  0.010000343         3294 
 4416000   0.54960558   -8.3202455    621.93783  0.011736448 0.0099965695         3331 
 4417000   0.54865538   -8.3038394    621.51464  0.011725806 0.0099927979         3313 
 4418000   0.53916003   -8.3061243    622.43183  0.011740453 0.0099890302         3302 
 4419000   0.54277172   -8.3033018    621.71219  0.011724225 0.0099852653         3297 
 4420000   0.55153404   -8.3017981    621.63913  0.011720195  0.009981504         3301 
 4421000     0.540978   -8.3083003    623.28297  0.011748529 0.0099777386         3341 
 4422000   0.55095249   -8.2963377    621.52569  0.011712756 0.0099739746         3313 
 4423000   0.55142758   -8.3100036    622.45216  0.011727564 0.0099702112         3371 
 4424000   0.53641737   -8.3083426    622.71932  0.011729945 0.0099664565         3340 
 4425000   0.54375209   -8.2964933    623.25267  0.011737338 0.0099627003         3350 
 4426000   0.55098615    -8.313071    621.86344   0.01170853 0.0099589521         3363 
 4427000   0.55259625   -8.3018723    622.75733  0.011722712 0.0099552016         3314 
 4428000   0.54486772   -8.3187053     622.5698  0.011716535 0.0099514552         3341 
 4429000   0.53869056   -8.3061036    622.17266  0.011706417  0.009947709         3321 
 4430000     0.541559    -8.286634    623.33966  0.011725727 0.0099439667         3349 
 4431000   0.54582282   -8.3298048    622.30936  0.011703704 0.0099402223         3285 
 4432000   0.53786966   -8.3010883    622.44746   0.01170366  0.009936477         3331 
 4433000   0.54389424    -8.314394    623.07114  0.011712744 0.0099327343         3301 
 4434000    0.5429735   -8.3139137    622.24585  0.011694592 0.0099289939         3305 
 4435000   0.54263218   -8.3174446    622.61635  0.011698917 0.0099252591         3262 
 4436000   0.54592397   -8.3199132    622.51871  0.011694445 0.0099215277         3338 
 4437000   0.53446204   -8.3334043    622.58613  0.011693076 0.0099177915         3334 
 4438000   0.54168472    -8.325409    622.20142  0.011683217 0.0099140581         3350 
 4439000   0.54054664   -8.3071657    622.55057   0.01168714 0.0099103224         3299 
 4440000   0.54080045   -8.3203361    622.53692  0.011684251 0.0099065935         3392 
 4441000   0.54534047   -8.3198488    622.44548  0.011679905 0.0099028676         3343 
 4442000   0.55156183    -8.296484    621.70091  0.011663307 0.0098991443         3329 
 4443000   0.54549873   -8.2978626    621.79808  0.011662504 0.0098954219         3353 
 4444000    0.5355503   -8.3042298    623.15142  0.011685258 0.0098916972         3359 
 4445000   0.54931055   -8.3151743    622.82922  0.011676588 0.0098879776         3385 
 4446000   0.54365198   -8.3210396    622.17269  0.011661656  0.009884261         3349 
 4447000    0.5477088   -8.3106416    621.89334  0.011653799 0.0098805456         3327 
 4448000   0.53336417   -8.2989378    622.74157  0.011667071 0.0098768308         3340 
 4449000   0.54596468   -8.3224531    621.63376  0.011643698 0.0098731188         3350 
 4450000   0.54647824    -8.312321    622.22518  0.011652157 0.0098694064         3413 
 4451000   0.54585839   -8.3107544     621.3017  0.011632249 0.0098656949         3334 
 4452000   0.54083425   -8.3282341    622.95084  0.011660505  0.009861988         3300 
 4453000   0.53705798    -8.309344    623.23823  0.011663265 0.0098582832         3365 
 4454000   0.54251003    -8.320206    622.18053  0.011640857  0.009854582         3371 
 4455000   0.53208742   -8.3288871    623.13813  0.011656156  0.009850876         3362 
 4456000   0.53345518   -8.3268478    621.77757  0.011628096 0.0098471774         3335 
 4457000   0.53785045   -8.3193383    621.21383  0.011614947 0.0098434799         3328 
 4458000   0.54152788   -8.2955239    622.84837  0.011642896 0.0098397869         3329 
 4459000   0.54629076   -8.3127837    621.02795  0.011606264 0.0098360934         3395 
 4460000   0.52878554   -8.3292817    622.49258  0.011631027 0.0098324007         3342 
 4461000   0.53304847   -8.3445646    622.57001  0.011629866   0.00982871         3336 
 4462000   0.53412461   -8.3199611    621.75342  0.011612009  0.009825022         3383 
 4463000   0.53297236   -8.3218488    622.21378  0.011618003 0.0098213346         3321 
 4464000   0.53465863   -8.3322114    622.30215   0.01161705   0.00981765         3341 
 4465000   0.55102519   -8.3283034    622.48166  0.011617799 0.0098139663         3305 
 4466000   0.54388843   -8.3157691    621.75994  0.011601731 0.0098102859         3338 
 4467000   0.53902816    -8.323931    621.07096   0.01158628 0.0098066029         3341 
 4468000   0.53647929   -8.3159433     621.2926  0.011587821 0.0098029279         3316 
 4469000    0.5426696   -8.3314318    622.30192  0.011604049 0.0097992504         3334 
 4470000   0.53332857   -8.3180887     622.3477  0.011602306 0.0097955771         3356 
 4471000   0.53334656   -8.3200601    622.61301  0.011604656 0.0097919077         3369 
 4472000   0.54343787   -8.3290651    621.32836  0.011578122 0.0097882395         3275 
 4473000   0.53490208   -8.3087409    622.68235  0.011600759 0.0097845742         3321 
 4474000   0.54062718   -8.3265737    622.39006  0.011592722 0.0097809085         3365 
 4475000   0.53471453   -8.3242015    622.85003  0.011598697 0.0097772487         3293 
 4476000   0.53944105   -8.3205881    621.50875  0.011571134 0.0097735871         3325 
 4477000   0.54556059   -8.3323846    621.72762  0.011572623 0.0097699312         3344 
 4478000   0.54611183   -8.3298505    622.75807  0.011589215 0.0097662729         3327 
 4479000   0.53789115   -8.3360695    622.83446  0.011588049 0.0097626161         3350 
 4480000   0.54101205   -8.3318196    621.35329  0.011557911 0.0097589583         3312 
 4481000   0.54509191   -8.3246086    622.14094   0.01156998 0.0097553086         3330 
 4482000   0.53444586   -8.3168052    622.62538  0.011576405 0.0097516578         3327 
 4483000   0.52695039   -8.3282461    622.87113  0.011578391 0.0097480076         3285 
 4484000   0.53375364   -8.3414695    621.51257  0.011550561 0.0097443587         3300 
 4485000   0.54518305   -8.3130693    622.09423  0.011558793 0.0097407134         3249 
 4486000   0.54324883   -8.3164991    621.31325  0.011541708 0.0097370707         3353 
 4487000   0.53530008   -8.3122389    622.49942  0.011561166 0.0097334279         3293 
 4488000   0.53105573   -8.3356473    623.28899  0.011573251 0.0097297873         3381 
 4489000   0.52728035   -8.3142006    621.99008   0.01154656 0.0097261517         3347 
 4490000   0.54222297   -8.3268926    621.23809  0.011530031 0.0097225136         3308 
 4491000   0.52740845   -8.3194438    621.85433  0.011538899 0.0097188784         3302 
 4492000   0.53697008   -8.3341601    621.94839  0.011538075 0.0097152441         3368 
 4493000   0.52235646   -8.3306376     622.2786  0.011541631 0.0097116137         3337 
 4494000   0.53856907    -8.325653    621.48963  0.011524433 0.0097079825         3352 
 4495000   0.53327687   -8.3334143    622.25998  0.011536151 0.0097043533         3379 
 4496000   0.54005937   -8.3266221    622.38644  0.011535929 0.0097007265         3347 
 4497000   0.54390156   -8.3255035    622.02305   0.01152663 0.0096971028         3346 
 4498000   0.52658533   -8.3384231     622.1036  0.011525559 0.0096934789         3371 
 4499000   0.53350814   -8.3307778    621.42941   0.01151051 0.0096898586         3339 
 4500000   0.53764779   -8.3178446    621.42377  0.011507848 0.0096862398         3289 
 4501000   0.53152958   -8.3320917    622.43619  0.011524035 0.0096826275         3322 
 4502000   0.52984873    -8.316564    621.02233  0.011495305 0.0096790141         3338 
 4503000   0.52303941   -8.3310307     621.5393  0.011502319 0.0096754014         3376 
 4504000    0.5348968   -8.3365581     621.5635  0.011500213  0.009671789         3356 
 4505000   0.53172056   -8.3381527    621.78962  0.011501843 0.0096681792         3370 
 4506000   0.53033354   -8.3256776    620.78379  0.011480689 0.0096645729         3312 
 4507000   0.53300157   -8.3258399    622.55806  0.011510947 0.0096609647         3335 
 4508000   0.51890809   -8.3352938     621.4402  0.011487729 0.0096573581         3379 
 4509000   0.54088418   -8.3246914    622.36439  0.011502262 0.0096537569         3339 
 4510000   0.53124213   -8.3358376    622.49169  0.011502064 0.0096501553         3390 
 4511000   0.51805821   -8.3379356     621.2502  0.011476579 0.0096465542         3349 
 4512000   0.52969278   -8.3255696    622.26381  0.011492757 0.0096429548         3431 
 4513000   0.53178664   -8.3471764    620.78208   0.01146285  0.009639357         3376 
 4514000   0.53839025   -8.3241957    621.70458   0.01147734 0.0096357589         3320 
 4515000   0.53758235   -8.3391162    622.51223  0.011489705 0.0096321656         3351 
 4516000   0.51606222   -8.3347994    620.76251  0.011454874  0.009628571         3337 
 4517000   0.52894319   -8.3281359    621.13801  0.011459265 0.0096249809         3374 
 4518000   0.52597847   -8.3190156    622.09274  0.011474339 0.0096213922         3346 
 4519000    0.5342408   -8.3362473    620.94771  0.011450684 0.0096178045         3380 
 4520000    0.5231699   -8.3119623     620.6236  0.011442175 0.0096142206         3379 
 4521000   0.53474029   -8.3353477    622.01333  0.011465261 0.0096106374         3310 
 4522000   0.53493387   -8.3382691    620.62929   0.01143722 0.0096070552         3324 
 4523000   0.51608955   -8.3357567    621.49742  0.011450686 0.0096034751         3371 
 4524000   0.52358838   -8.3382007    621.33662  0.011445193 0.0095998995         3333 
 4525000   0.52405981   -8.3378609    621.22185   0.01144055 0.0095963235         3365 
 4526000   0.52600286   -8.3150231    622.09271  0.011454056 0.0095927498         3364 
 4527000   0.52378571   -8.3230206    621.16582  0.011434464 0.0095891765         3359 
 4528000   0.53063175   -8.3184062    622.15403  0.011450126 0.0095856075         3317 
 4529000   0.51938532   -8.3263297    622.73692  0.011458323 0.0095820367         3389 
 4530000   0.53827362   -8.3211867    621.92567   0.01144087 0.0095784702         3348 
 4531000   0.52932887   -8.3374166    621.61556  0.011432641 0.0095749071         3341 
 4532000    0.5273622   -8.3369467    621.55397  0.011428986 0.0095713447         3291 
 4533000   0.52561839   -8.3249847    621.27758  0.011421384  0.009567785         3260 
 4534000   0.52787156   -8.3174355     621.9166   0.01143061 0.0095642237         3356 
 4535000   0.53881934   -8.3304847    622.42969  0.011437517 0.0095606666         3344 
 4536000   0.53424883   -8.3267445    621.73325  0.011422201 0.0095571094         3301 
 4537000   0.51990228    -8.333502    621.63462  0.011417872 0.0095535564         3359 
 4538000   0.52042205   -8.3426469    621.36511  0.011410407 0.0095500041         3375 
 4539000    0.5258275   -8.3377163    622.52029  0.011429101 0.0095464507         3351 
 4540000   0.53689414   -8.3301582    621.34495   0.01140501 0.0095429019         3308 
 4541000   0.52433328   -8.3360909    621.69574  0.011408936 0.0095393536         3313 
 4542000   0.52705827   -8.3328735    620.89313  0.011391698 0.0095358076         3297 
 4543000   0.51173765   -8.3331377    621.70886  0.011404154 0.0095322643         3358 
 4544000   0.52535695   -8.3298002     620.7495   0.01138405 0.0095287231         3363 
 4545000   0.52938421   -8.3534196    622.36898  0.011411239 0.0095251793         3321 
 4546000   0.52386557    -8.327008    622.36674  0.011408688 0.0095216391         3381 
 4547000   0.52342635   -8.3417633     621.1749  0.011384336 0.0095181032         3362 
 4548000   0.52659374   -8.3386338    621.52399  0.011388229 0.0095145674         3331 
 4549000   0.52570201   -8.3375579    621.58968  0.011386929 0.0095110321         3297 
 4550000   0.52919263   -8.3414971    622.26483  0.011396792 0.0095075008         3318 
 4551000   0.54013277   -8.3443306    621.71817  0.011384278 0.0095039694         3351 
 4552000   0.53630669   -8.3443159    620.96715  0.011368028 0.0095004435         3316 
 4553000   0.52128095   -8.3381267    621.31404   0.01137188 0.0094969117         3347 
 4554000    0.5261974   -8.3312123    621.54659  0.011373638 0.0094933884         3347 
 4555000   0.52897629   -8.3264421    621.00569  0.011361246 0.0094898667         3320 
 4556000   0.51943895   -8.3639257     621.2554  0.011363319 0.0094863425         3365 
 4557000   0.50953137   -8.3280229    621.45358   0.01136445 0.0094828215         3337 
 4558000   0.52999387   -8.3500133    621.78377  0.011367994 0.0094793026         3345 
 4559000   0.51718362   -8.3345393    621.26317  0.011355984 0.0094757839         3358 
 4560000   0.52556406   -8.3538188    620.53215  0.011340134 0.0094722705         3282 
 4561000   0.51779299   -8.3343052    620.83209  0.011343128 0.0094687568         3321 
 4562000   0.51792108   -8.3471996    622.02007  0.011362342 0.0094652459         3293 
 4563000   0.51626354     -8.34004    622.51212  0.011368838  0.009461737         3288 
 4564000   0.52364989   -8.3342651    620.93653  0.011337579 0.0094582253         3324 
 4565000   0.52361372   -8.3429116    620.74961  0.011331683  0.009454716         3400 
 4566000   0.51546801   -8.3430472    620.11795  0.011317673 0.0094512109         3402 
 4567000    0.5192608   -8.3466376    620.04093   0.01131379 0.0094477027         3287 
 4568000   0.51442229   -8.3476241    621.71595   0.01134187 0.0094442037         3280 
 4569000   0.50745197   -8.3502355    621.17725  0.011329562 0.0094406996         3360 
 4570000   0.52710575   -8.3550054    621.82194  0.011338839 0.0094372018         3329 
 4571000   0.50876063   -8.3512616    620.97639  0.011320943 0.0094337009         3292 
 4572000   0.51691269   -8.3452003    620.54072  0.011310526 0.0094302053         3351 
 4573000   0.51791085   -8.3443756    619.89033  0.011296201 0.0094267118         3375 
 4574000   0.52956087   -8.3312262    621.84693  0.011329379 0.0094232193         3356 
 4575000   0.51947476   -8.3437458    621.18298  0.011314808 0.0094197273         3415 
 4576000   0.51711053   -8.3449599    621.04384  0.011309802 0.0094162353         3385 
 4577000    0.5185884   -8.3652117    621.30961   0.01131217 0.0094127452         3393 
 4578000   0.52091186   -8.3544103    621.74034  0.011317539 0.0094092542         3395 
 4579000   0.52378739   -8.3504251    620.82152  0.011298346 0.0094057688         3415 
 4580000   0.53419536   -8.3418911    621.73509  0.011312502 0.0094022856         3406 
 4581000    0.5183049   -8.3517464    621.76922  0.011310653 0.0093988073         3363 
 4582000   0.51174478   -8.3376753    622.16666  0.011315413 0.0093953271         3300 
 4583000   0.52643611   -8.3471741    620.66589  0.011285655 0.0093918466         3355 
 4584000    0.5161679   -8.3562868    621.93172  0.011306205 0.0093883683         3390 
 4585000   0.51671902   -8.3528084    621.25599  0.011291457 0.0093848908         3354 
 4586000   0.52551995   -8.3576695     621.7219  0.011297462  0.009381416         3351 
 4587000   0.51961622   -8.3439181    621.14833  0.011284578 0.0093779431         3353 
 4588000   0.52196049   -8.3556915    621.08641  0.011280994 0.0093744692         3408 
 4589000   0.52271972   -8.3523868    620.73698   0.01127219     0.009371         3355 
 4590000   0.50592196   -8.3594695    620.51441  0.011265694 0.0093675339         3358 
 4591000   0.52469576   -8.3560656     621.0424  0.011272824 0.0093640667         3379 
 4592000   0.52328313     -8.34285    621.17332  0.011272745 0.0093606039         3371 
 4593000   0.52425181   -8.3618001     620.8609  0.011264622 0.0093571433         3364 
 4594000   0.51587451   -8.3574188    621.94646  0.011281861 0.0093536814         3371 
 4595000     0.523636   -8.3706012    620.73958  0.011257519 0.0093502235         3407 
 4596000    0.5000997   -8.3417676    621.56288  0.011269997 0.0093467633         3375 
 4597000   0.51667164   -8.3627122    620.93695  0.011256199 0.0093433067         3390 
 4598000   0.51936024   -8.3455464    621.29912  0.011260315 0.0093398526         3357 
 4599000   0.51673037   -8.3585808    620.72064  0.011247384 0.0093363991         3392 
 4600000   0.51813064   -8.3482975    620.97011  0.011249458 0.0093329461         3380 
 4601000   0.51273453   -8.3478584    621.61356  0.011258668 0.0093294968         3364 
 4602000   0.52937594   -8.3540608     621.9272  0.011261901  0.009326049         3403 
 4603000   0.52472702   -8.3417455    621.24566  0.011247115  0.009322601         3364 
 4604000   0.51331224    -8.341179    620.99195   0.01124008 0.0093191545         3350 
 4605000    0.5086612     -8.36674    620.80917  0.011234332  0.009315714         3378 
 4606000   0.50915508   -8.3646157    621.96617  0.011252826 0.0093122709         3406 
 4607000   0.52081467   -8.3698464     620.4664  0.011223254 0.0093088322         3423 
 4608000      0.51918   -8.3577179    620.07334  0.011213711 0.0093053942         3433 
 4609000   0.51501668   -8.3660287    620.05563  0.011210957 0.0093019571         3407 
 4610000   0.51874573    -8.343424    621.88796  0.011241648 0.0092985232         3414 
 4611000   0.51463221   -8.3683067     620.4069  0.011212443 0.0092950898         3434 
 4612000   0.52478449   -8.3600113    620.78557  0.011216854 0.0092916591         3378 
 4613000   0.50566326   -8.3739042    620.41424  0.011207714 0.0092882309         3432 
 4614000   0.50612093   -8.3437629    620.94403  0.011214854  0.009284802         3402 
 4615000   0.51296859   -8.3447688     622.0251  0.011231945 0.0092813746         3369 
 4616000   0.51646849   -8.3520812    621.16955  0.011214066 0.0092779519         3392 
 4617000   0.51524535   -8.3465372    620.48616  0.011199303 0.0092745326         3355 
 4618000   0.50668746   -8.3475344    621.59835  0.011216947 0.0092711117         3370 
 4619000   0.51272882   -8.3641408    620.97106  0.011203202 0.0092676926         3448 
 4620000    0.5078701    -8.351683     620.9295  0.011200027 0.0092642729         3414 
 4621000   0.50201597   -8.3641774    621.04446  0.011199676 0.0092608558         3439 
 4622000   0.50507364   -8.3545019    621.27092  0.011201336 0.0092574423         3409 
 4623000   0.50945531   -8.3601635    621.49041   0.01120287   0.00925403         3426 
 4624000   0.51611571   -8.3702591    621.78019  0.011205669 0.0092506188         3406 
 4625000   0.51016539   -8.3587925    621.41613  0.011196687 0.0092472085         3404 
 4626000   0.50705872    -8.365301    620.64554  0.011180385 0.0092438026         3347 
 4627000    0.5128715   -8.3532664    620.55844    0.0111764  0.009240395         3403 
 4628000   0.50479572   -8.3698896    620.93767  0.011180814 0.0092369885         3371 
 4629000   0.51846753   -8.3683242    620.75446    0.0111751 0.0092335869         3407 
 4630000   0.51499136   -8.3492062    620.52335  0.011168527 0.0092301849         3420 
 4631000   0.50749387   -8.3568024    620.49058  0.011165525 0.0092267847         3355 
 4632000   0.51046682   -8.3571185    620.89486  0.011170388 0.0092233897         3369 
 4633000   0.51342711   -8.3440774    620.72722  0.011164962 0.0092199918         3368 
 4634000   0.50103524   -8.3472742    620.77389  0.011163392 0.0092165959         3340 
 4635000   0.50679363   -8.3929471    619.65511  0.011140869 0.0092132006         3408 
 4636000   0.52442203   -8.3622776    619.58274  0.011137165 0.0092098068         3418 
 4637000   0.50321954   -8.3681628    619.61132  0.011135276 0.0092064126         3386 
 4638000   0.50294568   -8.3768058    619.85924   0.01113733 0.0092030222         3397 
 4639000   0.50105101   -8.3609745    619.87756  0.011135258 0.0091996343         3426 
 4640000   0.51226875   -8.3694422     621.2126  0.011156835 0.0091962463         3442 
 4641000   0.51082046   -8.3552184    620.41703  0.011140146 0.0091928611         3397 
 4642000    0.5166245   -8.3584879    620.71605  0.011143115 0.0091894801         3394 
 4643000   0.49621767   -8.3777719    620.82905  0.011142743 0.0091860979         3436 
 4644000   0.50780819   -8.3630402    620.06561  0.011126644 0.0091827176         3411 
 4645000   0.51720248   -8.3796168     621.3557  0.011147393 0.0091793389         3419 
 4646000   0.51449854   -8.3738275    620.68973  0.011133049 0.0091759615         3385 
 4647000   0.50816433   -8.3651219    621.54242  0.011145944   0.00917259         3385 
 4648000   0.50775098   -8.3604522    620.13882  0.011118381  0.009169218         3373 
 4649000   0.51124437   -8.3733508    621.04971  0.011132317 0.0091658494         3380 
 4650000   0.50746466   -8.3549936    621.20158  0.011132645 0.0091624796         3380 
 4651000   0.50537401    -8.368775    620.59936  0.011119461 0.0091591105         3386 
 4652000   0.51322626   -8.3487074    620.81615  0.011120954 0.0091557433         3405 
 4653000    0.5144002    -8.370139    619.88683  0.011101921 0.0091523791         3397 
 4654000   0.50939967   -8.3706454    620.82694  0.011116368 0.0091490157         3398 
 4655000   0.50509383   -8.3658583    620.73094  0.011112262 0.0091456549         3402 
 4656000   0.49955976   -8.3553325    619.37122  0.011085539 0.0091422929         3413 
 4657000   0.48888803   -8.3562313    620.49417  0.011103253 0.0091389326         3381 
 4658000   0.48764028   -8.3664298    620.05873  0.011093079 0.0091355745         3398 
 4659000   0.51272954   -8.3714716    620.82022  0.011104318 0.0091322185         3396 
 4660000   0.50069775   -8.3787575      619.705  0.011081992 0.0091288634         3430 
 4661000   0.50808403   -8.3773339    620.61416  0.011095869 0.0091255105         3389 
 4662000   0.49980552   -8.3668038    619.84731  0.011079782 0.0091221613         3412 
 4663000   0.50182291   -8.3643522    620.19936  0.011083697  0.009118814         3405 
 4664000   0.49782645   -8.3791069    620.94484  0.011094641 0.0091154682         3392 
 4665000   0.50386111   -8.3783941    619.80256  0.011071857 0.0091121238         3423 
 4666000   0.50721606   -8.3686998    619.80668  0.011069558  0.009108778         3400 
 4667000   0.49180166   -8.3756088    620.49304  0.011079442 0.0091054358         3349 
 4668000   0.50506301   -8.3686163    620.88337  0.011084036 0.0091020931         3377 
 4669000   0.50729415   -8.3773588    620.81746  0.011080486 0.0090987551         3387 
 4670000   0.50543898   -8.3614068      620.334  0.011069486 0.0090954171         3387 
 4671000   0.50682653   -8.3766848    620.04496   0.01106196 0.0090920798         3386 
 4672000   0.51872061   -8.3711711    621.59182  0.011087183 0.0090887465         3413 
 4673000   0.50050725   -8.3827097    620.43508  0.011064182 0.0090854125         3418 
 4674000   0.51527375   -8.3924603    619.74865  0.011049577 0.0090820795         3387 
 4675000   0.50661464   -8.3745749    619.22198  0.011037825 0.0090787507         3450 
 4676000   0.50597691   -8.3564562    620.41229  0.011056677 0.0090754214         3435 
 4677000   0.50475711   -8.3869816    619.82642  0.011043875 0.0090720942         3451 
 4678000   0.49560242   -8.3819267     620.1688  0.011047613  0.009068768         3389 
 4679000   0.50789489   -8.3658694    619.99499  0.011042156 0.0090654412         3378 
 4680000   0.50377877   -8.3741486    620.15757  0.011042692 0.0090621196         3414 
 4681000   0.50949282    -8.369612     620.4652  0.011045809  0.009058798         3372 
 4682000   0.51178601   -8.3855101    619.40328  0.011024549 0.0090554769         3456 
 4683000   0.49968894   -8.3771986    620.33976   0.01103886 0.0090521601         3440 
 4684000   0.50181307   -8.3642743    620.76467  0.011044063 0.0090488422         3484 
 4685000   0.50166295   -8.3696696    620.75472  0.011041528 0.0090455277         3414 
 4686000    0.5030639   -8.3555006    619.98532  0.011025489 0.0090422148         3442 
 4687000    0.5106038   -8.3779699    620.03109  0.011023951 0.0090389057         3430 
 4688000   0.50059391    -8.374902     620.0331  0.011021635 0.0090355926         3421 
 4689000    0.4989937   -8.3952467    620.19274  0.011022122 0.0090322844         3370 
 4690000   0.50688965   -8.3829746    619.18881  0.011001933 0.0090289783         3431 
 4691000   0.50072234     -8.38124     620.5485  0.011023742 0.0090256718         3381 
 4692000   0.50202224   -8.3764801    620.32022  0.011017338 0.0090223686         3365 
 4693000   0.50221456   -8.3629831    620.45375  0.011017362  0.009019069         3446 
 4694000   0.49773793   -8.3865876    619.14469  0.010991775 0.0090157718         3416 
 4695000   0.50725013   -8.3802152    619.56652  0.010996921 0.0090124729         3407 
 4696000   0.49594812   -8.3818476    620.12802  0.011004543 0.0090091793         3387 
 4697000   0.49923235   -8.3892775    620.72906  0.011012864 0.0090058834         3450 
 4698000   0.49295002   -8.3668284    620.12309  0.010999771 0.0090025899         3381 
 4699000   0.50594486   -8.3675179     619.2003  0.010981065 0.0089992976         3418 
 4700000   0.49591013      -8.3873     619.7528  0.010988525 0.0089960081         3468 
 4701000   0.50571864   -8.3830828    619.54776  0.010982553 0.0089927196         3423 
 4702000   0.49764693   -8.3763382    619.72529  0.010983363 0.0089894319         3444 
 4703000   0.50117754   -8.4002012    619.46843  0.010976476 0.0089861435         3416 
 4704000   0.50193036   -8.3986619    619.94269  0.010982545 0.0089828567         3410 
 4705000    0.5009768   -8.3737824    619.84924  0.010978555 0.0089795703         3389 
 4706000   0.50579957   -8.3791801    620.16946  0.010981893 0.0089762862         3421 
 4707000   0.49656196   -8.3898804    620.42969  0.010984167 0.0089730047         3431 
 4708000   0.50082467   -8.4034238    620.75195  0.010987538 0.0089697269         3421 
 4709000   0.49998277   -8.3908054    619.42082  0.010961648 0.0089664476         3401 
 4710000   0.50216191   -8.3786082    619.20787  0.010955553 0.0089631722         3416 
 4711000   0.49008371   -8.4005108    620.03231  0.010967811 0.0089598943         3437 
 4712000   0.49997083    -8.397244    620.02291  0.010965318 0.0089566219         3419 
 4713000   0.48530156   -8.3858174    620.39056  0.010969492 0.0089533504         3391 
 4714000    0.5071707   -8.3792354      619.846  0.010957538 0.0089500782         3399 
 4715000    0.4925917   -8.3857076    620.90213   0.01097388 0.0089468124         3414 
 4716000    0.4923551   -8.3802771    620.33284  0.010961494 0.0089435457         3413 
 4717000   0.49412939   -8.3890649    620.53926  0.010962816 0.0089402798         3413 
 4718000   0.49992541   -8.3953927    619.65514  0.010944877 0.0089370197         3450 
 4719000   0.49056077   -8.3977395     619.3336  0.010936879 0.0089337576         3394 
 4720000   0.49509063    -8.386181    620.42367  0.010953808  0.008930495         3458 
 4721000   0.48916531   -8.3799756    621.00441  0.010961739 0.0089272377         3388 
 4722000   0.50176656   -8.3816649    619.61252  0.010934853 0.0089239804         3455 
 4723000   0.49309156   -8.3682909    619.25782   0.01092628 0.0089207259         3390 
 4724000   0.49118867   -8.3657386    619.69428  0.010931666 0.0089174709         3402 
 4725000   0.47676107   -8.3905209    619.88533  0.010932722 0.0089142196         3438 
 4726000   0.49553146   -8.3875011    619.29169  0.010919941 0.0089109691         3433 
 4727000   0.50366792   -8.3871825    620.24543  0.010934445 0.0089077209         3398 
 4728000   0.48621218   -8.3920885     620.1974  0.010931285 0.0089044753         3440 
 4729000   0.49267015   -8.3875375    619.29709  0.010913109 0.0089012317         3452 
 4730000   0.50326161   -8.3955487    619.60594  0.010916243 0.0088979851         3436 
 4731000   0.50105827    -8.380586    619.56527  0.010913219 0.0088947408         3400 
 4732000    0.4891994   -8.3817367    619.64235   0.01091227 0.0088914989         3424 
 4733000   0.49338233   -8.4075843    619.55204  0.010908374 0.0088882599         3418 
 4734000   0.49515771   -8.3870164    621.00185  0.010931591 0.0088850219         3452 
 4735000   0.49617293   -8.3808665    619.04103  0.010894774 0.0088817867         3421 
 4736000   0.49649094   -8.3764339    620.57303   0.01091943 0.0088785531         3451 
 4737000   0.49470922   -8.3868512    619.92858  0.010905787 0.0088753212         3459 
 4738000   0.48474282   -8.3993913    620.50754  0.010913669  0.008872088         3465 
 4739000   0.48953482   -8.3931137    620.35889  0.010908752 0.0088688577         3388 
 4740000   0.48959782   -8.3960081    619.90598  0.010898488 0.0088656309         3454 
 4741000   0.49379558   -8.3945641    619.63296   0.01089139 0.0088624054         3441 
 4742000   0.49268852   -8.3898837    619.81985  0.010892378 0.0088591804         3426 
 4743000    0.4885077     -8.37224    619.81012   0.01088991 0.0088559564         3421 
 4744000    0.4840162   -8.3873387    619.76869  0.010886887 0.0088527347         3441 
 4745000   0.49677524   -8.4226575    619.03313  0.010871674 0.0088495156         3417 
 4746000    0.4994016   -8.3828654    619.39384  0.010875717 0.0088462921         3410 
 4747000   0.50228598   -8.3954735    619.90363  0.010882375 0.0088430733         3404 
 4748000   0.49652442    -8.396661     619.4549  0.010872208 0.0088398552         3433 
 4749000   0.47732198   -8.4018208    619.21407  0.010865692 0.0088366397         3411 
 4750000   0.47671959   -8.3743878    620.60996  0.010887894 0.0088334233         3373 
 4751000   0.48668823   -8.3974686    619.63947   0.01086858 0.0088302097         3420 
 4752000   0.48577743   -8.3945078    618.97745  0.010854683 0.0088269984         3387 
 4753000   0.48719626   -8.3808028    619.13216  0.010855112 0.0088237903         3419 
 4754000   0.48555065   -8.4035711    619.71064  0.010862969 0.0088205836         3404 
 4755000   0.49145683   -8.4167572    619.34466   0.01085427 0.0088173768         3428 
 4756000   0.49231972   -8.3845579    620.01161  0.010863674 0.0088141713         3408 
 4757000   0.49078942    -8.400889    619.57426  0.010853729 0.0088109665         3441 
 4758000   0.48599695    -8.396908    619.85378  0.010856343 0.0088077672         3403 
 4759000   0.47885969    -8.394451    619.46857  0.010847317 0.0088045679         3438 
 4760000   0.49193217   -8.3900606    620.05282  0.010855267 0.0088013697         3479 
 4761000   0.48434479   -8.4069433    619.39315   0.01084144 0.0087981715         3436 
 4762000   0.48679151   -8.3995026    619.84804  0.010847124 0.0087949766         3453 
 4763000   0.49158174   -8.3956469    619.61622  0.010840791 0.0087917816         3442 
 4764000   0.48465678   -8.3879961    620.30479   0.01085056 0.0087885915         3425 
 4765000   0.48120273   -8.3927492    620.08682   0.01084447  0.008785402         3434 
 4766000   0.48226221   -8.4072521    619.28052  0.010828097 0.0087822147         3455 
 4767000   0.48481478   -8.3914556    619.61296  0.010831637  0.008779025         3428 
 4768000   0.49007316    -8.398799    620.05977  0.010837174  0.008775839         3444 
 4769000    0.4822439   -8.4024505    618.65162  0.010810296 0.0087726551         3439 
 4770000    0.4857594     -8.40079    619.45684  0.010822097 0.0087694745         3429 
 4771000   0.48613668   -8.3938341     620.1836  0.010832523 0.0087662944         3428 
 4772000   0.47341375   -8.3884557    620.21326  0.010830771 0.0087631164         3400 
 4773000   0.48932243   -8.3986662    619.52046  0.010816406 0.0087599386         3443 
 4774000    0.4934661   -8.4117264    619.03325  0.010805636 0.0087567595         3410 
 4775000     0.491393   -8.4062863    618.77263  0.010798824 0.0087535843         3415 
 4776000   0.48995388   -8.4114462    618.59229  0.010793417 0.0087504125         3424 
 4777000   0.49297343   -8.4005348    619.97483  0.010815275 0.0087472395         3430 
 4778000   0.49238529   -8.3989042     619.4677  0.010804167 0.0087440661         3404 
 4779000   0.48238354   -8.3871677    618.74473  0.010789299 0.0087408976         3419 
 4780000   0.48023409    -8.387956    619.27898  0.010796356 0.0087377268         3405 
 4781000   0.47647327   -8.3971293    619.04517  0.010790022 0.0087345584         3352 
 4782000   0.49029516   -8.3979128    618.81087  0.010783683 0.0087313942         3418 
 4783000   0.47799449   -8.3915476    619.67426  0.010796471 0.0087282286         3406 
 4784000   0.49142863   -8.3953355     619.2797  0.010787342 0.0087250701         3403 
 4785000   0.48665466   -8.3932673    620.66844  0.010809273 0.0087219099         3439 
 4786000   0.47991382   -8.4167708    619.43689  0.010785571   0.00871875         3416 
 4787000   0.48829549   -8.4073307    620.12793  0.010795347 0.0087155927         3444 
 4788000   0.48089394   -8.3921277    619.16797  0.010776385 0.0087124356         3431 
 4789000    0.4908613   -8.3919819    618.06195  0.010754889 0.0087092812         3463 
 4790000   0.48290744   -8.4131094    619.38097  0.010775591 0.0087061288         3431 
 4791000   0.46484312   -8.3931592    619.87992   0.01078202 0.0087029747         3448 
 4792000   0.48811363   -8.4091738     619.7277  0.010777123 0.0086998221         3405 
 4793000    0.4813383   -8.4048969    619.88246  0.010777566 0.0086966711         3428 
 4794000   0.48149751   -8.4100052    619.06559  0.010761118 0.0086935229         3420 
 4795000   0.48848616   -8.4140666    618.68055  0.010752182 0.0086903758         3425 
 4796000   0.47653323   -8.4048926    619.26373  0.010760073 0.0086872312         3399 
 4797000   0.47888205   -8.4024095    619.03137  0.010753794 0.0086840868         3392 
 4798000   0.48045703   -8.4036309    619.14229  0.010753479 0.0086809453         3394 
 4799000   0.47761728   -8.4140559    618.40218  0.010738386 0.0086778047         3465 
 4800000   0.47725716   -8.4067245    619.30483   0.01075182 0.0086746636         3465 
 4801000   0.47821065   -8.3938805    619.84878  0.010759022 0.0086715246         3426 
 4802000   0.48548118    -8.404485    619.24974  0.010746386 0.0086683891         3426 
 4803000   0.48920122   -8.4199065    618.33903  0.010728347 0.0086652541         3441 
 4804000   0.47683318   -8.4031021    619.47817  0.010745874 0.0086621226         3416 
 4805000   0.48051578   -8.4023122    619.76283  0.010748575 0.0086589907         3471 
 4806000   0.48280607   -8.4082905    618.24523  0.010720024  0.008655862         3428 
 4807000   0.47315909    -8.400137    619.19708  0.010734295 0.0086527317         3440 
 4808000    0.4938519   -8.4236058    618.28362   0.01071623 0.0086496038         3431 
 4809000   0.47653488   -8.4227514    618.53321  0.010718327 0.0086464768         3486 
 4810000   0.47812956   -8.3953438    619.48356  0.010732563 0.0086433531         3434 
 4811000    0.4744884   -8.3957541    618.94599  0.010721021 0.0086402299         3448 
 4812000   0.47877203   -8.4112513    619.52529  0.010728825 0.0086371069         3417 
 4813000   0.48028488   -8.4098501    619.18925  0.010720778 0.0086339874         3412 
 4814000   0.48102689    -8.414733     618.4434   0.01070564 0.0086308693         3393 
 4815000   0.48408196   -8.4218803    619.28448  0.010717973 0.0086277508         3490 
 4816000   0.46981282   -8.4072757    619.88178  0.010726083 0.0086246352         3413 
 4817000   0.48231397   -8.4117368    619.09392  0.010710226 0.0086215205         3450 
 4818000   0.48977376   -8.4136542    619.15747  0.010709103 0.0086184076         3394 
 4819000   0.48541827   -8.3981969    619.34166  0.010710065 0.0086152966         3418 
 4820000   0.48515412   -8.4035604    619.56231  0.010711658  0.008612187         3388 
 4821000   0.47025443   -8.4166381    619.62075  0.010710446 0.0086090776         3349 
 4822000   0.48802923   -8.4072366    619.86049  0.010712369 0.0086059719         3392 
 4823000   0.47625573   -8.4055354    618.86684  0.010692979 0.0086028671         3433 
 4824000   0.47337377   -8.4135824    619.66238  0.010704505 0.0085997622         3413 
 4825000   0.46919049   -8.3958204    619.72759  0.010703413 0.0085966608         3432 
 4826000   0.47741427   -8.4138466    618.70045  0.010683459 0.0085935576         3432 
 4827000   0.47906628   -8.4075513    618.36395  0.010675436 0.0085904588         3449 
 4828000   0.47913226   -8.3913151    619.92563   0.01070018 0.0085873624         3428 
 4829000   0.47312256   -8.4014936    618.90606   0.01068037 0.0085842675         3422 
 4830000   0.48166049   -8.4179834    619.63503  0.010690736 0.0085811749         3390 
 4831000   0.47578705   -8.4072482    618.88202  0.010675533 0.0085780781         3452 
 4832000   0.48444589   -8.4301071     619.9211  0.010691244 0.0085749863         3458 
 4833000   0.47251183   -8.4084612    618.51785  0.010664836 0.0085718959         3390 
 4834000   0.46900622   -8.4164608    619.07504  0.010672236  0.008568808         3399 
 4835000    0.4699837   -8.4166489    620.62586  0.010696757 0.0085657188         3411 
 4836000   0.47646965   -8.4208066    619.17337  0.010669516  0.008562633         3427 
 4837000   0.47902883   -8.3998355    619.04988  0.010665183 0.0085595485         3391 
 4838000   0.48523803    -8.418578    619.53321  0.010671304  0.008556463         3376 
 4839000   0.48560142   -8.4237769    619.40079  0.010666818 0.0085533828         3462 
 4840000   0.48050579   -8.4211528     619.0378  0.010658364 0.0085503025         3468 
 4841000   0.47899756   -8.3978927    619.28669  0.010660447 0.0085472243         3455 
 4842000   0.47655842   -8.4207106    618.87634  0.010651183 0.0085441465         3389 
 4843000   0.47792915   -8.4069915    618.83756  0.010648316  0.008541071         3426 
 4844000   0.47829569   -8.4103782     619.2294  0.010652859 0.0085379952         3452 
 4845000   0.46890783   -8.4135634    618.31424   0.01063492 0.0085349246         3443 
 4846000   0.46774829   -8.4223031    618.18887  0.010630569 0.0085318513         3425 
 4847000   0.47131749     -8.40371    619.36176  0.010648541  0.008528778         3427 
 4848000   0.48485092   -8.4374856     620.0869  0.010658809 0.0085257095         3389 
 4849000   0.47169575    -8.433228    618.62176  0.010631432  0.008522642         3438 
 4850000   0.48639537    -8.416627    619.06389  0.010636837 0.0085195775         3408 
 4851000   0.47497256   -8.4075398    618.89351  0.010631717 0.0085165136         3398 
 4852000   0.47842768   -8.4310738    618.76284  0.010627282 0.0085134519         3413 
 4853000   0.47000303   -8.4012282    618.98547  0.010628915 0.0085103914         3379 
 4854000   0.47059655   -8.4241699    618.75194  0.010622716 0.0085073308         3413 
 4855000   0.47258341   -8.4174489    619.02884   0.01062528 0.0085042743         3489 
 4856000   0.47596286   -8.4273207    619.24083   0.01062673  0.008501217         3459 
 4857000   0.46536956   -8.4199933    617.39635  0.010592896 0.0084981607         3437 
 4858000   0.48032069   -8.4257021    618.28012  0.010605876 0.0084951084         3421 
 4859000   0.47925361   -8.4110183    618.67506  0.010610466 0.0084920548         3376 
 4860000   0.47162756   -8.4238977    620.20464   0.01063451 0.0084890014         3441 
 4861000   0.47833542   -8.4149854     619.3651   0.01061793 0.0084859516         3433 
 4862000   0.48064598   -8.4163737    619.52092  0.010618417 0.0084829047         3403 
 4863000   0.46006923   -8.4319971    618.52935  0.010599242 0.0084798567         3425 
 4864000   0.47965183   -8.4223733    619.04738  0.010605938 0.0084768102         3409 
 4865000   0.47455131   -8.4244551    619.27495  0.010607656 0.0084737701         3418 
 4866000   0.46450709   -8.4318591    619.16075   0.01060352 0.0084707272         3420 
 4867000   0.48509476   -8.4250699    618.46025  0.010589347 0.0084676845         3449 
 4868000   0.46880923   -8.4309786    618.67107  0.010590781 0.0084646435         3457 
 4869000    0.4727083   -8.4245089    618.94424  0.010593281  0.008461605         3424 
 4870000   0.47574712   -8.4241235    618.36928  0.010581268 0.0084585687         3442 
 4871000   0.47170294   -8.4219318    619.63044  0.010600671 0.0084555328         3466 
 4872000   0.47613326   -8.4304584    619.68111  0.010599362 0.0084524996         3421 
 4873000   0.47313005   -8.4170259    618.82697   0.01058258 0.0084494679         3402 
 4874000   0.46773402    -8.425234    618.57339  0.010576074 0.0084464372         3427 
 4875000   0.46715811     -8.42221    618.90281  0.010579535 0.0084434109         3412 
 4876000     0.473595   -8.4165308    619.44419  0.010586618 0.0084403858         3378 
 4877000   0.47058464   -8.4126561    619.10363  0.010578628 0.0084373559         3440 
 4878000   0.46988377   -8.4429286    617.66892   0.01055195 0.0084343302         3415 
 4879000   0.47089704   -8.4222607    617.98702   0.01055522 0.0084313068         3425 
 4880000   0.46836436   -8.4184491    618.79617  0.010566875 0.0084282828         3409 
 4881000   0.47209489   -8.4264668    618.33607  0.010556854 0.0084252609         3416 
 4882000   0.48266706   -8.4242617    618.62674  0.010559654 0.0084222423         3418 
 4883000   0.47154301   -8.4296178    618.93729  0.010562791 0.0084192257         3401 
 4884000   0.47066672    -8.421786    618.85546  0.010559232 0.0084162078         3395 
 4885000   0.47066197   -8.4337535    618.17787  0.010545511 0.0084131938         3429 
 4886000   0.47649342   -8.4252631    618.24375  0.010544477 0.0084101795         3425 
 4887000   0.47403778   -8.4177246    618.53992  0.010547369 0.0084071669         3455 
 4888000   0.47788478   -8.4198876    619.21261   0.01055668 0.0084041565         3360 
 4889000    0.4699169   -8.4340818    619.08756  0.010552389 0.0084011466         3428 
 4890000   0.47068596   -8.4449227    618.34763  0.010537622  0.008398139         3457 
 4891000   0.46605837   -8.4156958    618.70613  0.010541575   0.00839513         3410 
 4892000   0.47212396   -8.4311652    618.81636  0.010541298  0.008392121         3410 
 4893000   0.47614818    -8.442445    618.45062  0.010532915 0.0083891189         3435 
 4894000   0.48118789   -8.4237774      618.816  0.010536984 0.0083861185         3411 
 4895000   0.45734617   -8.4387992    618.41255  0.010527963 0.0083831131         3379 
 4896000   0.47865904   -8.4322808     617.6169   0.01051227 0.0083801102         3466 
 4897000   0.46729892    -8.427906    618.33765  0.010522389 0.0083771114         3442 
 4898000   0.46814562   -8.4212068    619.33094   0.01053714 0.0083741162         3447 
 4899000   0.47721082   -8.4178814    618.91561  0.010527924  0.008371119         3424 
 4900000    0.4625661   -8.4398408    619.15849  0.010529906 0.0083681242         3434 
 4901000   0.47091699   -8.4300198    619.42829  0.010532345 0.0083651317         3407 
 4902000   0.46536106   -8.4266616    617.97621  0.010505511 0.0083621409         3417 
 4903000   0.45932192   -8.4179702    618.74284  0.010516399 0.0083591524         3385 
 4904000   0.46271266   -8.4310834    618.77804  0.010514852 0.0083561652         3421 
 4905000   0.47262098   -8.4104734    618.91281  0.010514998 0.0083531791         3411 
 4906000   0.47632557   -8.4496072    618.22151  0.010501113 0.0083501948         3437 
 4907000    0.4649688   -8.4281781    618.23325  0.010499172 0.0083472102         3466 
 4908000   0.46745365   -8.4282873    617.42239  0.010483265 0.0083442257         3409 
 4909000   0.47266446   -8.4120897    618.48881  0.010499233  0.008341245         3419 
 4910000   0.46423469   -8.4248846     618.5845  0.010498719 0.0083382647         3458 
 4911000   0.46556719   -8.4368423    618.84964   0.01050108 0.0083352852         3453 
 4912000   0.47147476   -8.4249926    618.15138  0.010487096 0.0083323074         3482 
 4913000    0.4714128   -8.4396067    618.14485  0.010484851 0.0083293283         3445 
 4914000   0.46294992   -8.4300764    618.44701  0.010487841 0.0083263523         3473 
 4915000   0.46212073   -8.4329703    618.56335   0.01048768 0.0083233772         3452 
 4916000   0.46129066   -8.4340205    618.75954  0.010488872 0.0083204028         3422 
 4917000   0.47244223   -8.4307741    618.92728  0.010489582 0.0083174308         3422 
 4918000   0.45166391   -8.4348022    618.70524  0.010483687 0.0083144615         3369 
 4919000    0.4556876   -8.4247645    618.75481  0.010482395 0.0083114907         3463 
 4920000   0.46235557   -8.4321374    618.35241  0.010473449 0.0083085248         3440 
 4921000   0.47337842   -8.4323737     617.9459  0.010464436 0.0083055574         3441 
 4922000   0.46146225   -8.4446981    617.54216  0.010455475 0.0083025927         3429 
 4923000    0.4718479   -8.4400531    618.39921  0.010467859 0.0082996281         3420 
 4924000   0.45874186   -8.4369786    619.36103   0.01048201 0.0082966649         3442 
 4925000   0.45532839     -8.42607    617.67645  0.010451378 0.0082937047         3418 
 4926000    0.4688117   -8.4226583     618.1621  0.010457472 0.0082907468         3453 
 4927000   0.46776053   -8.4270156    617.82805    0.0104497 0.0082877894         3468 
 4928000   0.46603604   -8.4297859    619.07805  0.010468717 0.0082848315         3455 
 4929000   0.46329634   -8.4285206    618.17081  0.010451255 0.0082818739         3444 
 4930000   0.45725645   -8.4305467    618.37597  0.010452603 0.0082789201         3425 
 4931000   0.46461525   -8.4241311    617.80553  0.010440842 0.0082759685         3403 
 4932000   0.46013368   -8.4434241    618.65686   0.01045311 0.0082730175         3452 
 4933000   0.46165348   -8.4382878     617.7942  0.010436418 0.0082700679         3466 
 4934000   0.45585586   -8.4425936    618.31755  0.010443142 0.0082671196         3414 
 4935000   0.45705905   -8.4368168    618.19322  0.010438926 0.0082641715         3460 
 4936000   0.46624993    -8.440731    617.26999  0.010421225 0.0082612251         3409 
 4937000   0.46754288   -8.4482275     618.8446  0.010445692 0.0082582813         3441 
 4938000    0.4585515   -8.4325004    618.50133  0.010437784 0.0082553387         3418 
 4939000   0.46085538   -8.4462508    617.71287  0.010422367 0.0082523963         3453 
 4940000   0.45140853   -8.4330763    618.83151  0.010439128 0.0082494565         3480 
 4941000   0.45452223   -8.4465104    618.22763   0.01042683 0.0082465159         3472 
 4942000   0.45488554   -8.4341548    618.26417  0.010425337 0.0082435779         3432 
 4943000   0.46050294   -8.4474733    618.87643   0.01043355 0.0082406415         3410 
 4944000   0.46377761   -8.4354594    617.70824  0.010411749 0.0082377078         3451 
 4945000   0.46529592   -8.4369044    617.32588    0.0104032 0.0082347748         3446 
 4946000   0.45988002   -8.4379184    617.66059  0.010406736 0.0082318429         3481 
 4947000   0.46325101   -8.4343691    618.36101  0.010416431 0.0082289137         3421 
 4948000   0.46506243   -8.4369647    618.14817  0.010410741  0.008225985         3436 
 4949000   0.47050151    -8.440881    617.76144  0.010402126 0.0082230586         3448 
 4950000   0.45513515   -8.4418423    618.21333  0.010407632 0.0082201325         3432 
 4951000   0.46131922   -8.4351162    617.37279  0.010391382 0.0082172063         3439 
 4952000   0.45227957   -8.4455398    617.54679  0.010392212 0.0082142824         3462 
 4953000   0.46856082   -8.4483132    617.57659  0.010390615  0.008211359         3400 
 4954000   0.45974078   -8.4350881    617.25777  0.010383155 0.0082084398         3475 
 4955000   0.46160023    -8.436584    618.41796  0.010400571 0.0082055202         3463 
 4956000   0.45992156   -8.4415403    617.32684  0.010380126 0.0082026017         3492 
 4957000   0.46287215   -8.4422159    617.36241   0.01037863 0.0081996827         3443 
 4958000   0.46771523   -8.4426912     618.1634  0.010389999 0.0081967642         3437 
 4959000   0.45966478   -8.4453654     618.0194  0.010385484 0.0081938507         3432 
 4960000   0.46489953   -8.4512717    617.38216  0.010372684 0.0081909373         3464 
 4961000   0.45722828   -8.4416576     617.3914  0.010370749 0.0081880252         3472 
 4962000   0.45900199   -8.4475553    617.86206  0.010376563  0.008185116         3458 
 4963000   0.45861552    -8.444085    618.12197  0.010378836 0.0081822073         3458 
 4964000   0.45048929   -8.4480769    618.39286  0.010381293 0.0081793003         3483 
 4965000    0.4626428   -8.4446407     618.7105  0.010384533 0.0081763952         3386 
 4966000   0.45640267   -8.4376671    617.96799  0.010369982 0.0081734905         3437 
 4967000   0.46063334    -8.445691    617.72899  0.010363885 0.0081705863         3457 
 4968000   0.45778595   -8.4532054    617.50156  0.010357984 0.0081676854         3463 
 4969000   0.45623204   -8.4504663    617.91131  0.010362771 0.0081647831         3464 
 4970000   0.45248465   -8.4529688    617.49605  0.010353723 0.0081618844         3465 
 4971000   0.44359101   -8.4519731    617.14402  0.010345739 0.0081589873         3449 
 4972000   0.44956053   -8.4384277    617.39374  0.010347844 0.0081560899         3460 
 4973000   0.45990748   -8.4330122    617.33587  0.010344793  0.008153195         3424 
 4974000   0.46298412    -8.446821     618.1374  0.010356142 0.0081503034         3461 
 4975000    0.4647196   -8.4560607    618.90945  0.010366992  0.008147412         3445 
 4976000   0.45244441   -8.4541307    616.83085  0.010330099 0.0081445217         3467 
 4977000   0.46029873   -8.4563103    617.65934  0.010341895 0.0081416328         3396 
 4978000   0.45487932   -8.4514591    617.27837   0.01033344  0.008138747         3466 
 4979000   0.45849259   -8.4563129    617.50162  0.010335101 0.0081358617         3468 
 4980000   0.44872861   -8.4597913    618.57842  0.010351045 0.0081329777         3388 
 4981000   0.45610523   -8.4629145    617.68013  0.010333938 0.0081300945         3432 
 4982000    0.4468826   -8.4495418    617.73058  0.010332707  0.008127214         3430 
 4983000   0.44567953    -8.443824    617.83325  0.010332351 0.0081243356         3461 
 4984000   0.44826625   -8.4370742     617.6732  0.010327602  0.008121456         3436 
 4985000   0.44728416   -8.4463854    617.59646  0.010324247 0.0081185782         3485 
 4986000   0.45318324   -8.4390202    617.47081  0.010320076 0.0081157033         3409 
 4987000   0.45415031    -8.435664    618.60626   0.01033698 0.0081128284         3467 
 4988000   0.45142287   -8.4570356    618.53047  0.010333642 0.0081099558         3447 
 4989000   0.45221635     -8.45031    617.94764  0.010321835 0.0081070819         3444 
 4990000   0.46024305   -8.4615891    618.57892  0.010330309 0.0081042093         3428 
 4991000   0.46231058   -8.4472611    617.20157  0.010305242 0.0081013371         3420 
 4992000    0.4570302   -8.4568892       617.15  0.010302317 0.0080984673         3447 
 4993000   0.45114131   -8.4417627    618.34821  0.010320252 0.0080955996         3454 
 4994000   0.45021216   -8.4600495    617.85398  0.010309938 0.0080927344         3489 
 4995000   0.45294438   -8.4394391     618.0603  0.010311316 0.0080898706         3433 
 4996000   0.45349802   -8.4468051    616.98371  0.010291295 0.0080870079         3510 
 4997000   0.46124428   -8.4485537    617.45542  0.010297102 0.0080841457         3458 
 4998000   0.44797561   -8.4452524    618.87436    0.0103187 0.0080812823         3431 
 4999000   0.44753164   -8.4612941    617.32679  0.010290838 0.0080784236         3397 
 5000000   0.44808526   -8.4475324    618.23496  0.010303916  0.008075565         3404 
 5001000   0.45470819   -8.4373706    617.49341  0.010289499 0.0080727082         3401 
 5002000   0.44479921   -8.4474447     617.2397  0.010283215 0.0080698556         3421 
 5003000   0.46289565   -8.4458651    617.66652  0.010288269 0.0080670011         3421 
 5004000   0.45145645   -8.4504572    616.76523  0.010271204 0.0080641473         3410 
 5005000   0.44839807   -8.4615013    617.91539  0.010288301  0.008061296         3383 
 5006000   0.45363403   -8.4524669    618.74068  0.010299985 0.0080584478         3387 
 5007000   0.45366467   -8.4576098    617.47225  0.010276817  0.008055598         3405 
 5008000    0.4615847   -8.4480722    618.00411  0.010283615 0.0080527529         3474 
 5009000   0.45148749   -8.4680546    618.17497  0.010284404 0.0080499073         3494 
 5010000    0.4488225   -8.4609247    617.60823  0.010272925 0.0080470624         3439 
 5011000   0.43988005   -8.4679829     617.4291  0.010267896 0.0080442173         3490 
 5012000   0.45712923   -8.4577838    618.38705  0.010281775 0.0080413745         3457 
Loop time of 13189.6 on 48 procs for 5000000 steps with 4000 atoms

Performance: 65506.035 tau/day, 379.086 timesteps/s
99.4% CPU use with 48 MPI tasks x no OpenMP threads

MPI task timing breakdown:
Section |  min time  |  avg time  |  max time  |%varavg| %total
---------------------------------------------------------------
Pair    | 950.75     | 1059.4     | 1150.4     | 146.9 |  8.03
Neigh   | 93.103     | 96.351     | 99.812     |  16.3 |  0.73
Comm    | 848.05     | 937.92     | 1040.5     | 151.9 |  7.11
Output  | 17.667     | 17.674     | 17.776     |   0.4 |  0.13
Modify  | 10921      | 10955      | 10992      |  13.1 | 83.06
Other   |            | 122.9      |            |       |  0.93

Nlocal:        83.3333 ave          88 max          79 min
Histogram: 3 2 7 8 5 5 9 5 2 2
Nghost:        2455.08 ave        2483 max        2434 min
Histogram: 1 3 8 10 9 7 5 3 1 1
Neighs:        17116.3 ave       19594 max       14525 min
Histogram: 2 2 4 7 8 7 6 8 2 2
FullNghs:      34233.6 ave       36205 max       32229 min
Histogram: 4 2 8 5 3 6 4 9 3 4

Total # of neighbors = 1643215
Ave neighs/atom = 410.80375
Neighbor list builds = 266588
Dangerous builds = 0

#clear
#
#next RN
#
#jump SELF
Total wall time: 3:39:53
