
units lj                  # Use reduced LJ style units
atom_style atomic         # Uncharged point particles
atom_modify map hash      # Needed for indexing of clusters etc
                          # Used to be able to find where atoms are in relation to each other.

lattice fcc 1.0 spacing 1 1 1
Lattice spacing in x,y,z = 1.5874011 1.5874011 1.5874011
region box block 0 10 0 10 0 10 units lattice
create_box 2 box
Created orthogonal box = (0.0000000 0.0000000 0.0000000) to (15.874011 15.874011 15.874011)
  3 by 4 by 4 MPI processor grid
create_atoms 1 box
Created 4000 atoms
  using lattice units in orthogonal box = (0.0000000 0.0000000 0.0000000) to (15.874011 15.874011 15.874011)
  create_atoms CPU = 0.002 seconds
set type 1 type/fraction 2 0.13 78393
Setting atom values ...
  541 settings made for type/fraction
mass 1 1.0
mass 2 1.0
pair_style lj/cut  3.5
pair_modify tail  yes
pair_coeff 1  1  1.0  1.0   # Intearaction between 1 and 1 set with epsilon = 1 and sigma = 1
pair_coeff 1  2  1.5  0.8
pair_coeff 2  2  0.5  0.88

write_data data.0
System init for write_data ...
Neighbor list info ...
  update every 1 steps, delay 10 steps, check yes
  max neighbors/atom: 2000, page size: 100000
  master list distance cutoff = 3.8
  ghost atom cutoff = 3.8
  binsize = 1.9, bins = 9 9 9
  1 neighbor lists, perpetual/occasional/extra = 1 0 0
  (1) pair lj/cut, perpetual
      attributes: half, newton on
      pair build: half/bin/atomonly/newton
      stencil: half/bin/3d
      bin: standard
WARNING: Not all mixed pair coeffs generated from mixing. Use write_data with 'pair ij' option to store all pair coeffs. (../write_data.cpp:312)


#############################
#   M E L T   S Y S T E M   #
#############################

velocity all create 2.4 5833274 mom yes dist gaussian # Assign velocities
                                                    # Temperature 2.4, random number seed, zero linear momentum
                                                                                # Gaussian distribution

timestep 0.002   # simulation timestep
thermo 1000       # output thermodynamic data every 1000 steps bf 100

# Define a fix  in this case with index 1 applied to all
# particles in the simulation. This fix is for simulations
# in the anisotropic NPT ensemble. Note that we use the MTK
# correction.
fix 1 all npt temp 2.4 2.4 0.1 iso 5.68 5.68 0.5 mtk yes tchain 5 pchain 5 # Use NPT ensemble
                                                                         # Set temperature and pressure and damping
                                                                         # Numbers of thermostats in chain and in barostat
run 10000          # run for 10000 steps
Per MPI rank memory allocation (min/avg/max) = 3.642 | 3.644 | 3.648 Mbytes
Step Temp E_pair E_mol TotEng Press Volume 
       0          2.4     -7.50335            0     -3.90425   -3.2182506         4000 
    1000     2.409823   -4.6523996            0   -1.0385687    5.6042879    4751.7053 
    2000    2.3651473   -4.6434927            0   -1.0966588    5.7603404    4734.6126 
    3000    2.3856309   -4.6692077            0   -1.0916559    5.6757015    4728.2961 
    4000    2.3673047   -4.6792864            0   -1.1292171    5.9086794     4700.451 
    5000    2.3666061   -4.6962349            0   -1.1472132     5.547988    4730.8164 
    6000    2.3889996   -4.7068714            0   -1.1242679    5.4745709    4735.6277 
    7000    2.4180024   -4.6361968            0   -1.0100999    6.2133913    4693.8609 
    8000    2.3535427   -4.6779507            0   -1.1485192    5.6824269     4729.834 
    9000    2.4144296   -4.6734858            0   -1.0527468    5.6311569     4747.689 
   10000    2.3884666   -4.6757225            0   -1.0939182    5.5035549    4759.9897 
Loop time of 2.20199 on 48 procs for 10000 steps with 4000 atoms

Performance: 784746.482 tau/day, 4541.357 timesteps/s
99.6% CPU use with 48 MPI tasks x no OpenMP threads

MPI task timing breakdown:
Section |  min time  |  avg time  |  max time  |%varavg| %total
---------------------------------------------------------------
Pair    | 0.91501    | 0.97824    | 1.1276     |   3.9 | 44.43
Neigh   | 0.18864    | 0.19881    | 0.22893    |   1.3 |  9.03
Comm    | 0.60788    | 0.77044    | 0.86154    |   5.4 | 34.99
Output  | 0.00023739 | 0.00024273 | 0.00030816 |   0.0 |  0.01
Modify  | 0.19695    | 0.23962    | 0.29709    |   4.9 | 10.88
Other   |            | 0.01464    |            |       |  0.66

Nlocal:        83.3333 ave          97 max          74 min
Histogram: 2 6 5 13 5 10 3 3 0 1
Nghost:        1458.00 ave        1492 max        1418 min
Histogram: 1 0 4 6 4 16 11 2 2 2
Neighs:        8008.81 ave        9714 max        7092 min
Histogram: 5 6 12 10 4 6 4 0 0 1

Total # of neighbors = 384423
Ave neighs/atom = 96.105750
Neighbor list builds = 903
Dangerous builds = 183

# Equilibrate just above the melting temperature to avoid step fn in T

fix 1 all npt temp 1.25 1.25 0.1 iso 5.68 5.68 0.5 mtk yes tchain 5 pchain 5
run 2000
Per MPI rank memory allocation (min/avg/max) = 3.642 | 3.644 | 3.648 Mbytes
Step Temp E_pair E_mol TotEng Press Volume 
   10000    2.3884666   -4.6757225            0   -1.0939182    5.5035549    4759.9897 
   11000     1.247551   -6.2947811            0   -4.4239225    5.6304818    3894.2596 
   12000    1.2418535   -6.3477856            0    -4.485471    5.4245108    3887.8779 
Loop time of 0.486491 on 48 procs for 2000 steps with 4000 atoms

Performance: 710393.783 tau/day, 4111.075 timesteps/s
99.6% CPU use with 48 MPI tasks x no OpenMP threads

MPI task timing breakdown:
Section |  min time  |  avg time  |  max time  |%varavg| %total
---------------------------------------------------------------
Pair    | 0.2096     | 0.2296     | 0.25733    |   2.0 | 47.20
Neigh   | 0.031394   | 0.033182   | 0.037143   |   0.6 |  6.82
Comm    | 0.14091    | 0.16858    | 0.19218    |   2.4 | 34.65
Output  | 5.0597e-05 | 5.1996e-05 | 6.5384e-05 |   0.0 |  0.01
Modify  | 0.044425   | 0.050474   | 0.056472   |   1.6 | 10.38
Other   |            | 0.004604   |            |       |  0.95

Nlocal:        83.3333 ave          90 max          76 min
Histogram: 3 3 6 4 7 6 5 5 2 7
Nghost:        1669.17 ave        1695 max        1648 min
Histogram: 1 9 7 3 8 8 5 1 4 2
Neighs:        9822.17 ave       10807 max        8858 min
Histogram: 3 5 4 7 8 4 3 7 3 4

Total # of neighbors = 471464
Ave neighs/atom = 117.86600
Neighbor list builds = 141
Dangerous builds = 7

#############################
# L I N E A R  Q U E N C H  #
#############################

# Define solid atoms. This closely follows ten Wolde  Ruiz-Montero and Frenkel  Faraday Discuss  1996  104  93-110
# Compute components of the per-atom q6 vector
compute q6 all orientorder/atom degrees 1 6 components 6 nnn NULL cutoff 1.3 # compute the Q6 parameter.
                                                                             # Use all neighbours within 1.3 unit cell.

# get number of connections
compute coord_number all coord/atom orientorder q6 0.5

# An atom is solid if it has 8 or more connections (of a possible 14)
variable is_solid atom c_coord_number>=8
group solid dynamic all var is_solid    # Must be dynamic to update
dynamic group solid defined

# do clustering
compute cluster solid cluster/atom 1.3 # Create a cluster where all atoms within are solid and max 1.3 units from another member

# define chunks one chunk per cluster
compute clus_chunks solid chunk/atom c_cluster nchunk every compress yes  # Says which atoms are in which chunk

# count the size of each chunk
compute size_chunks solid property/chunk clus_chunks count


# Find the maximum entry in the vector of chunk sizes
variable max_n equal max(c_size_chunks)


# Thermo style which includes this variable
# thermo_style custom step temp pe vol v_max_n

thermo ${N}  # Print the thermo information every 100 steps
thermo 1000  

# Reset the npt fix at a lower temperature (below freezing)
fix 1  all npt temp  ${temp} ${temp}  0.1  iso  5.68  5.68  0.5  mtk yes tchain  5  pchain  5
fix 1  all npt temp  0.45 ${temp}  0.1  iso  5.68  5.68  0.5  mtk yes tchain  5  pchain  5
fix 1  all npt temp  0.45 0.45  0.1  iso  5.68  5.68  0.5  mtk yes tchain  5  pchain  5

dump dmp2 all dcd ${N} traj.dcd
dump dmp2 all dcd 1000 traj.dcd


compute msd all msd com yes
variable twopoint equal c_msd[4]/6/(step*dt+1.0e-6)
fix 9 all vector 10 c_msd[4]
variable fit equal slope(f_9)/6/(10*dt)
thermo_style custom step temp pe c_msd[4] v_twopoint v_fit v_max_n

fix 1 all npt temp 1.25 ${temp} 0.1 iso 5.68 5.68 0.5 mtk yes tchain 5 pchain 5
fix 1 all npt temp 1.25 0.45 0.1 iso 5.68 5.68 0.5 mtk yes tchain 5 pchain 5
run 5000000 # 5000000  # Run for this many steps
Neighbor list info ...
  update every 1 steps, delay 10 steps, check yes
  max neighbors/atom: 2000, page size: 100000
  master list distance cutoff = 3.8
  ghost atom cutoff = 3.8
  binsize = 1.9, bins = 9 9 9
  4 neighbor lists, perpetual/occasional/extra = 1 3 0
  (1) pair lj/cut, perpetual
      attributes: half, newton on
      pair build: half/bin/atomonly/newton
      stencil: half/bin/3d
      bin: standard
  (2) compute orientorder/atom, occasional
      attributes: full, newton on
      pair build: full/bin/atomonly
      stencil: full/bin/3d
      bin: standard
  (3) compute coord/atom, occasional
      attributes: full, newton on
      pair build: full/bin/atomonly
      stencil: full/bin/3d
      bin: standard
  (4) compute cluster/atom, occasional
      attributes: full, newton on
      pair build: full/bin/atomonly
      stencil: full/bin/3d
      bin: standard
Per MPI rank memory allocation (min/avg/max) = 9.755 | 9.760 | 9.767 Mbytes
Step Temp PotEng c_msd[4] v_twopoint v_fit v_max_n 
   12000    1.2418535   -6.3477856 1.9721523e-34 1.3695501e-36 8.3333333e+20            2 
   13000    1.2588084   -6.2924648   0.54838168  0.003515267  0.045756866            2 
   14000    1.2619789   -6.3556958    1.0942988 0.0065136832  0.045328584            5 
   15000    1.2532608   -6.3052282    1.6162374 0.0089790964  0.044716724            1 
   16000    1.2548219   -6.2994365    2.1449601  0.011171667  0.044539472            2 
   17000    1.2200691   -6.3292078    2.7364197  0.013413821  0.044882847            5 
   18000    1.2334877   -6.3313338    3.3096177  0.015322304  0.045718989            2 
   19000    1.2547512   -6.3633964    3.8586383  0.016923852  0.045987663            2 
   20000    1.2497921   -6.2995132    4.3098857  0.017957857  0.045629532            1 
   21000    1.2612477   -6.3036181    4.8586967  0.019280542    0.0452819            2 
   22000    1.2428764   -6.3013988    5.3542609  0.020281291    0.0448359            1 
   23000     1.247748   -6.3294509    5.9178002  0.021441305  0.044723914            2 
   24000    1.2748187   -6.2783124    6.4168708  0.022280801  0.044681931            5 
   25000    1.2542407   -6.2914771    6.9353417  0.023117805  0.044520168            1 
   26000    1.2272731   -6.3013843    7.5239438  0.024115204  0.044440906            4 
   27000    1.2419148   -6.3321149    8.0055048  0.024708348  0.044416059            3 
   28000    1.2590524   -6.3113009    8.4893261  0.025265851  0.044311924            1 
   29000    1.2557616   -6.3417402     9.007252  0.025882907  0.044171608            2 
   30000    1.2518099   -6.2828393    9.4973344  0.026381484  0.044038547            2 
   31000    1.2424432   -6.3243502    10.037461   0.02698242  0.043955353            2 
   32000    1.2646256   -6.3080128    10.691217   0.02784171  0.043928104            3 
   33000    1.2660784   -6.2861837    11.236633  0.028375335  0.044017926            2 
   34000    1.2274684   -6.2721499    11.899899   0.02916642  0.044135217            2 
   35000    1.2499124   -6.3299007    12.337779  0.029375665   0.04426793            2 
   36000    1.2474482   -6.3290561    12.909034  0.029882022  0.044341047            1 
   37000    1.2597009   -6.3291652    13.421308  0.030228171  0.044393137            2 
   38000    1.2525852   -6.3387913     13.89118  0.030463115  0.044406553            1 
   39000    1.2452643   -6.3167024    14.444145  0.030863558  0.044416311            2 
   40000    1.2772816   -6.3201096    14.982339  0.031213206  0.044456114            2 
   41000    1.2407131   -6.3809513    15.477138  0.031457597  0.044461627            4 
   42000    1.2318389   -6.3221193    15.978462  0.031703297  0.044440081            3 
   43000    1.2512755   -6.3027297    16.449887  0.031879625  0.044398464            1 
   44000    1.2605728   -6.3402402    16.936804   0.03207728  0.044337079            5 
   45000    1.2231822   -6.2926647    17.740342  0.032852485  0.044322798            2 
   46000    1.2622619   -6.3343068    18.103749  0.032796647  0.044331443            4 
   47000    1.2471847   -6.3201693    18.663096  0.033090595  0.044327975            5 
   48000     1.243851   -6.3066827    19.282411  0.033476408  0.044338078            2 
   49000    1.2427171   -6.3279252    19.851332  0.033760768  0.044364057            1 
   50000    1.2632486    -6.309044    20.483943  0.034139905  0.044414546            2 
   51000    1.2175351   -6.3421688    20.935154  0.034207767  0.044476223            3 
   52000    1.2239398   -6.3220009    21.411845  0.034313855  0.044501792            2 
   53000    1.2300597   -6.3602794    21.953807  0.034518564  0.044512666            3 
   54000    1.2598255      -6.2949    22.614425  0.034898803  0.044533007            1 
   55000    1.2170405   -6.3157134    23.232512  0.035200775  0.044574595            2 
   56000    1.2586059   -6.3348255    23.915448  0.035588464  0.044631521            2 
   57000    1.2606104   -6.3236922    24.270562  0.035483277  0.044681354            2 
   58000    1.2377711   -6.3664637     24.62915   0.03538671  0.044697581            2 
   59000    1.2529506   -6.2789865    25.130489   0.03549504  0.044678423            2 
   60000    1.2609901   -6.3102895    25.558188  0.035497482  0.044653385            2 
   61000    1.2404399   -6.3431404    26.015066  0.035539707  0.044607938            3 
   62000    1.2553951   -6.3470494    26.546299  0.035680509  0.044551244            3 
   63000    1.2674982   -6.3109794      27.1148  0.035866137  0.044515814            2 
   64000    1.2267297   -6.3368238    27.303648  0.035551625  0.044460547            2 
   65000    1.2333271    -6.323048    28.175588  0.036122549  0.044402745            2 
   66000    1.2313907   -6.3125244    28.560272  0.036060949  0.044378006            2 
   67000    1.2238381   -6.3484754    29.296442  0.036438361  0.044365259            2 
   68000    1.2502646   -6.3419563    29.818543  0.036542332  0.044349921            2 
   69000     1.267178   -6.3133775    30.383027  0.036694476  0.044336917            2 
   70000     1.208415    -6.319967    30.853931   0.03673087  0.044329967            2 
   71000    1.2664404   -6.2811661    31.382082  0.036833429  0.044316405            2 
   72000    1.2174447   -6.3218095    31.857127  0.036871675  0.044298832            2 
   73000     1.253757     -6.30232    32.190754  0.036747436  0.044274886            2 
   74000    1.2438461   -6.3032423    32.685087   0.03680753     0.044239            4 
   75000    1.2485512   -6.3046896    33.270953  0.036967725  0.044202067            4 
   76000    1.2388022   -6.2996864    33.839814  0.037105059  0.044168299            4 
   77000    1.2420851   -6.3334163    34.589445  0.037434464  0.044158069            3 
   78000    1.2451116   -6.3241701    35.121533  0.037523005  0.044157046            1 
   79000    1.2831176   -6.3180304    35.519557  0.037467886  0.044155367            3 
   80000    1.2078683   -6.2997649    36.254053  0.037764639  0.044164562            2 
   81000     1.251174   -6.3308896    36.720276  0.037778062  0.044164225            2 
   82000    1.2074556    -6.307724    37.274667  0.037880758  0.044172912            2 
   83000    1.2652358   -6.3482034    37.818838  0.037970721  0.044188216            2 
   84000    1.2314758   -6.3329503    38.229533  0.037926124  0.044191394            2 
   85000    1.2451232   -6.3316449    38.648244  0.037890435  0.044182601            2 
   86000    1.2397329   -6.3797468    39.346031  0.038125998  0.044175729            3 
   87000    1.2667413     -6.34385    39.817329  0.038139204  0.044179623            1 
   88000    1.2423026   -6.3050798    40.472482  0.038326214  0.044180239            1 
   89000     1.248858   -6.3097323    40.942754  0.038335912  0.044179051            3 
   90000    1.2454785   -6.3618279    41.222753  0.038169216  0.044174995            2 
   91000    1.2339788    -6.344422    41.663085  0.038153008  0.044155323            2 
   92000    1.2367559   -6.3352453    42.208145  0.038232016   0.04413988            3 
   93000    1.2324254   -6.3022532     42.87206  0.038415824  0.044126721            2 
   94000    1.2167021   -6.3429753    43.357552  0.038437545   0.04411528            2 
   95000     1.206053   -6.3213567    43.929005  0.038534215   0.04410516            1 
   96000    1.2363669   -6.3576648    44.423334  0.038561922  0.044100025            4 
   97000    1.2378507   -6.3060024    45.010726  0.038669009  0.044091439            2 
   98000    1.2176766   -6.3485423    45.585697  0.038763348  0.044087159            3 
   99000    1.2241821   -6.3776026     46.28559  0.038960934  0.044095892            2 
  100000    1.2408053   -6.3673253    46.962903  0.039135752  0.044105731            2 
  101000    1.2059998    -6.331432    47.328864  0.039050218  0.044119186            2 
  102000    1.2203093   -6.3612184    47.793531  0.039047002  0.044122054            3 
  103000    1.2332245   -6.3309881    48.521149  0.039256592   0.04412622            1 
  104000    1.2323723   -6.3643292    48.901196   0.03918365  0.044135487            2 
  105000    1.1918647   -6.3250896    49.346498  0.039163887   0.04413468            2 
  106000    1.2237382   -6.3197034    49.661548  0.039042097  0.044128316            1 
  107000    1.2671831   -6.3283318    49.978411  0.038923996  0.044112893            3 
  108000    1.2185167   -6.3045991     50.79859  0.039196443  0.044095707            2 
  109000    1.2266398   -6.3392323    51.372403  0.039275537  0.044086381            2 
  110000     1.221777   -6.3535538    51.631479  0.039114756  0.044077035            2 
  111000    1.2565892   -6.3752544    51.944181  0.038997133  0.044061338            2 
  112000    1.2325931   -6.3118283    52.307485  0.038919259  0.044035718            1 
  113000    1.2303279   -6.3500973    52.860073  0.038982354  0.044003473            7 
  114000    1.2399931   -6.3650986    53.417623   0.03904797  0.043977334            2 
  115000    1.2053502   -6.3085834    54.116481  0.039214841  0.043955956            4 
  116000     1.245188   -6.3534692     54.41356  0.039090201  0.043934951            3 
  117000    1.2604515   -6.3329575    55.017901  0.039186539  0.043907588            3 
  118000    1.2326067    -6.305817    55.329929  0.039074808  0.043874004            2 
  119000    1.2642127   -6.3607968    56.134357  0.039309773  0.043842551            3 
  120000    1.2090415   -6.3416748    56.537324   0.03926203  0.043822475            3 
  121000    1.2225504   -6.3448645    57.179664  0.039379934  0.043808444            3 
  122000    1.1992095   -6.3009661    57.645366   0.03937525  0.043789767            2 
  123000     1.244564   -6.3481862    58.200023   0.03943091  0.043774896            2 
  124000    1.2345439   -6.3542965    58.510596  0.039321637  0.043758766            3 
  125000    1.2438087   -6.3439832    59.072196  0.039381464  0.043743353            3 
  126000    1.2514568   -6.3205058    59.813064  0.039558905  0.043735119            5 
  127000    1.1790318   -6.3717137    60.470267  0.039678653  0.043727074            2 
  128000     1.241109   -6.3283007    60.750199  0.039550911  0.043716332            3 
  129000    1.2107075   -6.3553545    61.354793  0.039634879   0.04370547            2 
  130000    1.2412143   -6.3569167    61.867257  0.039658498  0.043697821            1 
  131000    1.2201405   -6.3606624    62.600055  0.039821918  0.043693402            1 
  132000    1.2242235   -6.3513666    63.267552  0.039941636  0.043690371            6 
  133000    1.2280316   -6.3471927    63.852398  0.040007768  0.043690732            1 
  134000    1.2355259   -6.3663173    64.267896  0.039967597  0.043694175            2 
  135000    1.2157894   -6.2995595     64.83268  0.040020173  0.043691567            3 
  136000    1.2277177   -6.3426942      65.2255  0.039966605  0.043687213            2 
  137000    1.2214691   -6.3483174    65.778878  0.040011483  0.043681753            3 
  138000    1.2159965   -6.3686435    66.229557  0.039993694  0.043677714            4 
  139000    1.2438523   -6.3328868    66.807544  0.040052484  0.043676248            1 
  140000    1.2370295   -6.3557786     67.09568  0.039937904  0.043670585            2 
  141000    1.2374154    -6.355354    67.864856  0.040109253  0.043668592            2 
  142000    1.2296888   -6.3688021      68.6202   0.04027007  0.043667474            2 
  143000    1.2343117   -6.3177725    69.020858  0.040221945  0.043668472            1 
  144000    1.2156308   -6.4012659    69.117138  0.039998343  0.043666155            2 
  145000    1.2271555   -6.3187314    70.202109   0.04034604  0.043665239            1 
  146000    1.2323034   -6.3716788    70.134275  0.040030979  0.043661823            2 
  147000    1.2246295    -6.335381    70.815904   0.04014507  0.043658066            3 
  148000    1.2202977   -6.3572484    71.526492  0.040273925  0.043656473            7 
  149000    1.2377476   -6.3459012     72.12443  0.040338048  0.043656597            3 
  150000    1.2289855    -6.354202    72.590682  0.040328156  0.043656265            4 
  151000    1.2182483   -6.3296571    73.018253  0.040297049  0.043656477            3 
  152000    1.2176298   -6.3610414     73.55647  0.040327012  0.043653423            2 
  153000    1.2031213   -6.3425271    74.233189   0.04043202   0.04365257            2 
  154000    1.2265357    -6.343419    74.856569  0.040506801  0.043654402            3 
  155000    1.2293779   -6.3942482    75.191159  0.040425354  0.043655197            3 
  156000    1.2010812   -6.3727819    75.986531  0.040591096  0.043658823            3 
  157000    1.1986114   -6.3658199      76.4215  0.040563429  0.043660659            3 
  158000    1.2297358   -6.3067293    77.111164  0.040670445  0.043664086            3 
  159000    1.2460159   -6.3677918    77.520592  0.040629241  0.043668163            1 
  160000    1.2362264   -6.3550856    77.559511  0.040395578  0.043669458            1 
  161000    1.2400394   -6.3346588    78.010709  0.040378213  0.043669398            4 
  162000    1.2603126   -6.3341883    78.819821  0.040545175  0.043667293            3 
  163000    1.1868792   -6.3476104    79.262156  0.040522574  0.043659748            2 
  164000    1.2129079   -6.3148917    79.484503  0.040388467  0.043649159            3 
  165000    1.2370495   -6.3696052    79.989679  0.040398828  0.043640426            3 
  166000    1.2465951   -6.3847521    80.637279  0.040480562  0.043635329            2 
  167000    1.2326847   -6.3461789    80.958837  0.040398621  0.043631598            2 
  168000    1.2233007   -6.3368594    82.194848  0.040771254  0.043630627            2 
  169000    1.2082249    -6.354797     82.81009  0.040833378  0.043636743            4 
  170000    1.2281354   -6.3644104    83.396522  0.040880648  0.043642098            1 
  171000    1.2154195   -6.3269456    84.096311  0.040982608  0.043648697            2 
  172000    1.2103268   -6.3800004    84.255245  0.040821339  0.043652293            2 
  173000    1.2330519   -6.3423118    84.948946  0.040919531  0.043654561            1 
  174000    1.2480748   -6.3754448    85.660403  0.041025097  0.043658588            3 
  175000    1.2222979   -6.3411467    86.181385  0.041038755  0.043663063            4 
  176000     1.222439   -6.3520159    86.354213  0.040887411  0.043669016            3 
  177000    1.2090339   -6.3537422     86.74278   0.04083935    0.0436738            3 
  178000    1.2385359   -6.3693893    87.245956  0.040845485  0.043675528            3 
  179000    1.2120735   -6.3363019    87.741412  0.040847957  0.043675479            2 
  180000     1.219887   -6.3117196    88.749826  0.041087882  0.043680881            2 
  181000    1.2327362   -6.3631018    88.921712  0.040940015   0.04368558            3 
  182000     1.223624   -6.3357553    89.935959  0.041179468  0.043688813            2 
  183000    1.2427093   -6.3414853    90.220765  0.041084137  0.043695077            3 
  184000     1.245624   -6.2913493    90.863605  0.041151995  0.043702566            2 
  185000    1.2261055   -6.3858939    91.201806  0.041081895  0.043709241            2 
  186000     1.212524   -6.3802015    91.535009  0.041010308  0.043713124            1 
  187000    1.2255147   -6.4004657    92.074898  0.041031594   0.04371432            3 
  188000     1.209463   -6.3412471    93.013288  0.041229294   0.04371804            1 
  189000     1.242394   -6.3984022     93.39007  0.041177279  0.043722901            4 
  190000    1.2066812   -6.3994456    93.775421  0.041129571  0.043728407            3 
  191000    1.2051809   -6.3256563    94.671842  0.041305341  0.043736737            1 
  192000    1.2316097   -6.3346772    94.849132  0.041167158  0.043739934            1 
  193000    1.2194916   -6.3475475    95.432659  0.041205811  0.043739392            2 
  194000    1.2226237   -6.3918853    95.745066  0.041127606  0.043738012            2 
  195000    1.2058645   -6.4023103    96.377286  0.041186874  0.043738835            2 
  196000    1.1828939   -6.3711494    96.970948  0.041229144  0.043738167            3 
  197000    1.2016711   -6.3676684    97.462106  0.041227625  0.043737305            2 
  198000    1.2231846   -6.3779895    97.946623  0.041223326  0.043740241            2 
  199000    1.2090586   -6.3698433    98.560215  0.041273122  0.043742125            3 
  200000    1.2517145   -6.3858897    99.491313  0.041454714  0.043745978            2 
  201000    1.2208115   -6.3960287    99.994659  0.041457155  0.043750894            2 
  202000    1.2220711   -6.3764759    100.45835  0.041443215  0.043757937            2 
  203000    1.2412309   -6.3569542    101.24607  0.041562427  0.043764805            3 
  204000    1.1936479   -6.3844073    101.44257  0.041438957  0.043771923            2 
  205000    1.1882541   -6.3751055    101.81596    0.0413886  0.043780576            1 
  206000    1.2100728   -6.3930462    102.73341  0.041558825  0.043788095            3 
  207000    1.2279939   -6.3641144    103.30345  0.041587539  0.043797821            2 
  208000    1.2229947   -6.3662985    104.19149  0.041743387  0.043807111            2 
  209000    1.2014785   -6.3464704    104.77167  0.041774986  0.043819545            3 
  210000    1.2149691    -6.390765    105.19195  0.041742839  0.043832734            2 
  211000    1.2311589   -6.3871742    106.22604  0.041953414   0.04384614            3 
  212000     1.239734   -6.4008004    106.46113   0.04184793  0.043857201            2 
  213000    1.2590478    -6.358618    106.54651  0.041684863  0.043866792            2 
  214000    1.2539599   -6.3396081    107.60758  0.041903263  0.043878281            2 
  215000     1.170776    -6.414912    108.51038  0.042058286  0.043889178            2 
  216000    1.1931125   -6.3925954    108.53887  0.041874566  0.043904167            3 
  217000    1.2286757   -6.3838339    109.14071  0.041912717  0.043918949            3 
  218000    1.2210796   -6.3831719     109.8183  0.041979472  0.043931091            3 
  219000    1.2420857   -6.3715479    110.16173  0.041918468  0.043940757            2 
  220000     1.225113   -6.3779184    110.29153  0.041777096  0.043948235            2 
  221000    1.2424359   -6.3716459    110.67719   0.04173348  0.043955781            3 
  222000    1.2286825   -6.4089901    111.18101  0.041734614  0.043962198            2 
  223000     1.217796   -6.3562086    112.18444  0.041922437  0.043966589            3 
  224000    1.2092799   -6.3670887    111.97911  0.041658895  0.043971155            2 
  225000    1.2172319   -6.3805882    113.13626   0.04190232  0.043977038            3 
  226000    1.2296537   -6.3850821    113.54792  0.041868701  0.043983492            2 
  227000    1.1882364   -6.3819325    114.05528  0.041870513  0.043990199            3 
  228000    1.2158863   -6.3334589    114.42609  0.041822402   0.04399818            1 
  229000    1.2294922   -6.3578829    115.24757  0.041938709  0.044003616            3 
  230000    1.1700178   -6.3633986    115.67946  0.041912847  0.044007326            4 
  231000    1.2258751   -6.3874612    115.63097  0.041713915  0.044009478            2 
  232000     1.195191   -6.3959943    115.70604  0.041561076  0.044009237            4 
  233000    1.2152545   -6.3861095    116.40165  0.041631493  0.044008274            2 
  234000    1.2319016   -6.3156951    117.51108  0.041848675  0.044008848            3 
  235000    1.2070508   -6.4137977    117.68368  0.041731803  0.044008798            3 
  236000    1.2199851   -6.3431413     118.3796  0.041800706  0.044008908            2 
  237000     1.202844   -6.3733101    118.67821  0.041729327  0.044006179            2 
  238000    1.2063431   -6.3656237    119.40174  0.041807333   0.04400363            4 
  239000    1.2252378    -6.434872     119.5922  0.041698813  0.044002065            3 
  240000    1.2104214   -6.3384684    120.57318  0.041865687  0.044000135            2 
  241000    1.2085656   -6.3817071    120.69899  0.041735474  0.044001109            3 
  242000    1.2373864   -6.3748517    121.66894  0.041897018  0.044003472            4 
  243000    1.2061049   -6.3453921    122.59965  0.042043777  0.044005353            2 
  244000    1.1966498   -6.3367481    123.34701  0.042126709  0.044008605            2 
  245000    1.2213784   -6.3568225    123.26387  0.041926487  0.044010747            2 
  246000    1.2230719   -6.3870644    123.73428  0.041915406  0.044013939            4 
  247000    1.1881508   -6.3814944    124.22868   0.04191251  0.044015884            3 
  248000    1.2047268   -6.3889003    125.06202  0.042023528  0.044017291            2 
  249000    1.2071352   -6.3742217     125.8535  0.042119644  0.044021195            2 
  250000    1.2101667   -6.3946796    126.69485  0.042231615  0.044026231            2 
  251000    1.1952635   -6.3812879    127.42651   0.04230628  0.044033397            1 
  252000    1.2068707   -6.3813378    127.91112   0.04229865  0.044041899            2 
  253000     1.208536    -6.358039    128.74604  0.042406468  0.044051691            2 
  254000    1.2076196     -6.40132    128.69999  0.042224406  0.044059329            5 
  255000    1.2211517   -6.4054677     128.5793  0.042019379   0.04406415            2 
  256000    1.2344236    -6.391406    129.64732  0.042202905  0.044068014            2 
  257000    1.2228841   -6.3873787    130.21501  0.042222765  0.044072737            2 
  258000    1.1934436   -6.3505269    130.92083   0.04228709  0.044076574            1 
  259000    1.2009597   -6.3911443    130.88605  0.042112628  0.044078759            2 
  260000     1.219074   -6.3640695    131.49849  0.042146951  0.044082071            4 
  261000    1.1756924   -6.3849451     131.9171  0.042119124  0.044084838            3 
  262000    1.2300798   -6.3671861    132.49179  0.042141155  0.044087135            1 
  263000     1.201517   -6.3934327    132.43572  0.041963155  0.044087176            2 
  264000    1.2235179   -6.3634311    133.26863  0.042067119  0.044086699            1 
  265000    1.2235397   -6.3373858    133.81737  0.042080933   0.04408638            2 
  266000    1.1794466   -6.3854155    133.72022    0.0418923  0.044084718            1 
  267000      1.18507   -6.4053267    134.28822  0.041912677  0.044079013            3 
  268000    1.2135745   -6.3491805    134.98265  0.041972217  0.044072896            1 
  269000    1.2044085    -6.388949    135.10835  0.041855128   0.04406743            2 
  270000    1.2238311   -6.3820925    136.09407  0.042004344  0.044062225            3 
  271000    1.2189615     -6.34105    136.16592   0.04187144  0.044056788            1 
  272000    1.1886494    -6.361809    136.45935  0.041807398  0.044051157            2 
  273000    1.2221387    -6.371931     136.7613  0.041746429  0.044042143            2 
  274000    1.1902462    -6.417668    137.39964  0.041788211  0.044033403            2 
  275000     1.214773   -6.3999364    137.49142  0.041664068  0.044025343            2 
  276000    1.1719133   -6.4212057    138.21435  0.041731387   0.04401659            2 
  277000    1.2104495   -6.3758742    138.79184  0.041754465  0.044008563            2 
  278000    1.2188093   -6.3736597    139.74684   0.04189054  0.044002239            4 
  279000    1.1719801   -6.3894105    140.65448  0.042011494  0.043995384            2 
  280000    1.2144117   -6.3842566    140.35626  0.041772695  0.043987912            2 
  281000    1.2260062   -6.4267743     140.6952  0.041724555  0.043981277            2 
  282000    1.1968538   -6.4289857    141.16781  0.041716255  0.043970852            5 
  283000    1.1973743   -6.3991499    141.63588  0.041706677  0.043960074            2 
  284000    1.2000289   -6.3921564     142.5448  0.041826526  0.043951716            1 
  285000    1.2083414   -6.3721849    142.31996  0.041614023  0.043942587            4 
  286000    1.1939826   -6.3754279    142.85725  0.041625074  0.043932574            1 
  287000    1.2064304   -6.3950628    143.47723  0.041660056  0.043922409            5 
  288000    1.1961689   -6.3634513     143.9366  0.041648321  0.043911568            5 
  289000    1.2159892   -6.4016746    143.94046  0.041505324  0.043899989            2 
  290000    1.2198058   -6.4345599     144.6667   0.04157089  0.043887662            2 
  291000    1.1787544   -6.3763687    145.46811  0.041657535  0.043875096            3 
  292000    1.2107689   -6.3782091    145.82565   0.04161691  0.043863643            2 
  293000    1.2081293    -6.391848    145.68089  0.041433699  0.043852428            3 
  294000     1.214084   -6.3986214    146.01455  0.041387344  0.043839153            3 
  295000     1.199564   -6.3923349    146.48093  0.041378793  0.043824539            2 
  296000     1.219067   -6.3990963     146.8685  0.041348114  0.043809854            2 
  297000    1.2163635   -6.3826093    147.32714  0.041337581  0.043794359            1 
  298000    1.2090302   -6.4018169    148.18817  0.041439644  0.043780978            3 
  299000    1.2201314   -6.3747837    148.58217  0.041410861   0.04376776            2 
  300000    1.2014304   -6.3847701    149.50332    0.0415287  0.043754402            3 
  301000     1.198197   -6.3786358    149.73388  0.041454563  0.043740145            5 
  302000    1.2071369    -6.407264    150.19594  0.041444794  0.043725355            2 
  303000    1.2204748   -6.3987586    150.57183  0.041411395  0.043711012            2 
  304000     1.180159   -6.3951359    150.95385  0.041379892  0.043697588            1 
  305000    1.1802687   -6.4440256    151.35892  0.041354896  0.043684287            1 
  306000    1.2102176   -6.3958814    152.16245  0.041438575  0.043671598            3 
  307000    1.1946567   -6.4076002    152.20232  0.041314419  0.043658738            4 
  308000    1.2031067   -6.4103055    153.00737  0.041398097  0.043645519            1 
  309000    1.2030298   -6.3848258    153.34049  0.041353962  0.043632931            2 
  310000    1.1968451    -6.397182    154.53418  0.041541445    0.0436206            4 
  311000    1.1961369   -6.3805679     155.3783  0.041634056  0.043609919            2 
  312000    1.1818998   -6.4037481    154.80532  0.041347575  0.043598634            2 
  313000    1.1944731   -6.3741999    155.76629  0.041471323  0.043586217            1 
  314000      1.21881   -6.3864253    156.12704   0.04143499  0.043574048            2 
  315000       1.2023   -6.3802647    156.96503  0.041525141  0.043562526            3 
  316000    1.2068824   -6.4194484      157.089  0.041426423  0.043550664            2 
  317000    1.1867405   -6.4078151     157.4326  0.041386068  0.043537429            2 
  318000    1.1863992   -6.3845838    158.17688  0.041450965  0.043525231            2 
  319000    1.2134012   -6.4322908    158.79949  0.041483671  0.043512685            2 
  320000    1.2134149    -6.387429    159.58918  0.041559682  0.043499808            2 
  321000    1.1945121   -6.3994354    159.60959  0.041435511  0.043489066            2 
  322000    1.2046576   -6.4036651     160.5043  0.041538379  0.043479266            2 
  323000    1.1990498   -6.4161534    160.72911   0.04146778  0.043469024            4 
  324000    1.2026347   -6.3773116    161.59038  0.041561313  0.043458252            2 
  325000    1.2016272   -6.4204473    161.76483  0.041478161  0.043447468            4 
  326000    1.2006661   -6.3728434    161.96486   0.04140206  0.043436464            1 
  327000    1.2258009   -6.3533832    163.04052  0.041549573  0.043425975            1 
  328000    1.2083248   -6.4015199    163.47146  0.041532384  0.043415725            3 
  329000    1.1665138     -6.39979    163.82691  0.041496178  0.043405459            2 
  330000     1.188887   -6.4082709    164.15861  0.041454195  0.043394983            1 
  331000    1.1840156   -6.3957414    164.49408  0.041413414  0.043384476            2 
  332000    1.2041467   -6.4006905    164.95257  0.041403758  0.043372851            2 
  333000    1.2072144   -6.4163177    165.36288  0.041382102  0.043359177            1 
  334000    1.1575444    -6.436435    166.07407  0.041435645  0.043346865            2 
  335000     1.193865   -6.4121673       166.67    0.0414602  0.043334198            4 
  336000     1.213011   -6.4426076    166.34261  0.041255607  0.043321197            2 
  337000    1.2040181   -6.3781864    167.27526  0.041363813  0.043308488            2 
  338000     1.198742   -6.3830456     167.4329  0.041280302  0.043296024            1 
  339000    1.1751534   -6.4016373    168.37986  0.041391312   0.04328403            2 
  340000    1.1966445   -6.3955226    169.01697  0.041425728  0.043272798            2 
  341000    1.1668124   -6.4079082    169.26132  0.041363959  0.043261385            3 
  342000    1.1912874   -6.3901788    169.62408  0.041331403  0.043249748            4 
  343000    1.1837566   -6.3796547    170.92563  0.041527122  0.043238224            4 
  344000    1.1875038   -6.4303821     170.2108  0.041233236  0.043226529            2 
  345000    1.2055026   -6.3681626    171.33182  0.041384498  0.043215875            2 
  346000    1.2088091   -6.3690755    172.06845  0.041442305  0.043205093            2 
  347000    1.1938443   -6.4112214    172.03675  0.041315261  0.043193388            3 
  348000    1.2043665   -6.4313869    171.96318  0.041178922  0.043182104            3 
  349000    1.1827957   -6.4032112    173.22773  0.041362878  0.043170229            1 
  350000    1.2183849   -6.3996702    173.51624  0.041313391  0.043158676            3 
  351000     1.180766   -6.4147655    174.14949  0.041346034  0.043147105            4 
  352000    1.1728685   -6.3608628    174.63208  0.041342822  0.043136399            2 
  353000    1.1770534   -6.3742664    175.22578  0.041365859  0.043124958            2 
  354000    1.1803471   -6.4180823     175.1129  0.041222434  0.043112333            1 
  355000    1.1735976   -6.4156516    175.60776   0.04122248  0.043099111            5 
  356000    1.2178085   -6.3835701    176.10253  0.041222502  0.043087135            3 
  357000    1.1875407    -6.364159    176.57955  0.041218383  0.043075612            3 
  358000     1.194949   -6.4333024     176.4342  0.041069413  0.043063584            2 
  359000    1.1758312   -6.4636265    176.89689  0.041062416  0.043050442            5 
  360000    1.1874915   -6.4230627    178.25795  0.041263415  0.043036938            4 
  361000    1.1742167   -6.4126214    178.37846   0.04117693  0.043023656            2 
  362000    1.1776723   -6.3998822     178.6971  0.041136533  0.043010431            2 
  363000    1.1664569   -6.4028593    179.26287  0.041153092  0.042998012            1 
  364000     1.210531   -6.3892561    180.19996   0.04125457  0.042985489            2 
  365000    1.1896485   -6.4172188    180.09972  0.041118658  0.042973036            1 
  366000    1.2030102   -6.4252607     180.8362  0.041173998  0.042961321            4 
  367000    1.2056951   -6.4011629    181.40003  0.041189835  0.042948114            2 
  368000    1.2081364   -6.3986638     182.3274  0.041287908  0.042936759            2 
  369000    1.2165693   -6.3996911    182.60299  0.041238254  0.042926765            2 
  370000    1.2187252   -6.3803455    183.34876  0.041294766   0.04291693            1 
  371000    1.1837332   -6.4442129    183.37291  0.041188884  0.042906847            3 
  372000    1.2034219   -6.4062014      184.885  0.041416891  0.042895987            3 
  373000    1.1936685   -6.4331598    184.30232  0.041175674  0.042886138            2 
  374000    1.1979157   -6.3441405     185.0659  0.041235717  0.042876001            1 
  375000    1.1948352   -6.3941679    185.16808  0.041148462  0.042866069            3 
  376000    1.1822331   -6.3791919    185.48764  0.041109849  0.042854842            2 
  377000    1.2103753   -6.4432239    185.35961  0.040972504  0.042842461            2 
  378000    1.2098276   -6.4182968    185.94273  0.040992666  0.042829802            2 
  379000    1.2279511   -6.4076465    187.01504  0.041120282   0.04281914            3 
  380000    1.1848108    -6.427946    188.02188  0.041232869  0.042809223            1 
  381000    1.2008706   -6.4029287    188.04947  0.041130681  0.042799555            2 
  382000    1.1869971   -6.4454833    189.16877  0.041267183   0.04278909            2 
  383000    1.2003427   -6.4216041    188.78699  0.041076369  0.042779398            1 
  384000    1.2123158   -6.4219417    189.59126  0.041143936  0.042769199            6 
  385000    1.2221472   -6.4116499    190.10465  0.041148192  0.042759007            1 
  386000     1.206605   -6.4474941    190.19478  0.041061049  0.042748866            4 
  387000    1.1893934   -6.4469689    190.89194  0.041105069  0.042738853            3 
  388000    1.1998978   -6.3980551    192.15992   0.04127146  0.042729188            2 
  389000    1.2005775   -6.4267017    192.64099   0.04126842  0.042720242            5 
  390000     1.188303   -6.4147263    193.46651  0.041338997  0.042711209            2 
  391000    1.2060086   -6.4268794    193.53954  0.041248837  0.042701854            3 
  392000    1.1993052   -6.4583254     193.8478  0.041209141   0.04269235            4 
  393000    1.1730179   -6.4105288      194.214  0.041181934  0.042682925            3 
  394000    1.1877906   -6.3767949    195.34283  0.041316166  0.042674739            1 
  395000    1.2057034   -6.3918453    196.17595   0.04138733  0.042666948            2 
  396000    1.1516969   -6.4109598    197.11986  0.041481451  0.042660044            4 
  397000     1.200935   -6.4243314    196.55177  0.041257717   0.04265312            1 
  398000    1.1880104   -6.4247919    197.74862  0.041404653  0.042645572            4 
  399000    1.2018672   -6.4527807    197.13029   0.04117174  0.042638987            3 
  400000    1.2110712   -6.4479632    198.40934  0.041335278   0.04263224            6 
  401000    1.1649279   -6.4450997    198.45849  0.041242412  0.042625529            1 
  402000     1.230689   -6.4256042    198.66173  0.041181951  0.042617672            5 
  403000    1.1711806   -6.4374122    198.90614  0.041130302  0.042608798            1 
  404000    1.2059658   -6.4563728    198.71518  0.040989105  0.042599556            2 
  405000    1.1758726   -6.4384233    200.41488   0.04123763  0.042590738            5 
  406000    1.1854689   -6.4290644    199.57966  0.040964627  0.042581767            3 
  407000    1.1793024   -6.4214369    200.80683   0.04111524  0.042571501            4 
  408000    1.1704604   -6.4429663     201.6249  0.041181556  0.042562757            2 
  409000    1.1805331   -6.4311983    201.79326   0.04111517  0.042553349            2 
  410000    1.1786822   -6.4493495    201.69367  0.040994648  0.042543709            3 
  411000    1.1724104   -6.4499373    202.39535  0.041037176  0.042534504            3 
  412000    1.1701808   -6.4243825    202.87453  0.041034492  0.042525611            3 
  413000    1.2265589   -6.4214475    204.05462  0.041173249  0.042516985            3 
  414000    1.2166697   -6.4111559    204.51667  0.041166802  0.042508473            2 
  415000    1.1678285    -6.476229    204.71441  0.041107311  0.042499995            2 
  416000    1.1803547   -6.4138225    205.10375  0.041086489  0.042491663            3 
  417000    1.1850714   -6.4142891    206.15099  0.041197241  0.042483182            3 
  418000      1.17476   -6.4001589    206.09927  0.041088371  0.042473539            1 
  419000    1.1913125   -6.4166147    206.70826  0.041111427  0.042464263            2 
  420000    1.1677643   -6.4229666    206.94796  0.041061103  0.042454699            3 
  421000    1.1903605   -6.4129083    207.59242  0.041091136  0.042445339            1 
  422000    1.1877417   -6.4589999    207.42818  0.040961332  0.042435551            2 
  423000    1.1866352   -6.4122025    208.35982  0.041048034  0.042425362            2 
  424000    1.1787722   -6.4713089    208.02534  0.040885482  0.042415126            2 
  425000    1.1815412   -6.4308033    208.47789  0.040878017  0.042404749            2 
  426000    1.1773986   -6.4580776    209.66168   0.04101363  0.042394546            3 
  427000    1.2161637    -6.441538    210.38637   0.04105901  0.042384854            6 
  428000    1.1898752   -6.4220624    210.32867  0.040951844  0.042375006            3 
  429000    1.1755027   -6.4140528     211.1821  0.041022163  0.042365214            2 
  430000    1.1660725    -6.459745    210.83547  0.040859586  0.042356113            3 
  431000    1.1961086   -6.4555524    211.26394   0.04084763  0.042346534            2 
  432000    1.1782577   -6.4338955     212.1866  0.040931058  0.042336713            5 
  433000    1.1755355   -6.4675497     212.1615  0.040831696  0.042326561            3 
  434000    1.2137296   -6.4380816    213.10316  0.040918426    0.0423163            3 
  435000     1.176824   -6.4276572    213.89993  0.040976998  0.042306966            4 
  436000      1.19906   -6.4340454    214.04235  0.040910235  0.042297542            2 
  437000    1.1962784   -6.4163789     214.2521  0.040856617  0.042287888            2 
  438000    1.1854733   -6.5000603    215.25799  0.040954717   0.04227858            1 
  439000    1.1327303   -6.4539214    216.73998  0.041142744  0.042270141            4 
  440000    1.1802186   -6.4609466     216.6404   0.04103038  0.042262319            3 
  441000    1.1756736   -6.4128065      216.949  0.040995654  0.042255175            2 
  442000     1.199491   -6.4489878     217.4732  0.041001734  0.042248275            2 
  443000    1.1750897   -6.4687858    217.72572  0.040956682  0.042241349            2 
  444000    1.1912649   -6.3916634    220.31324  0.041350082  0.042235403            2 
  445000    1.2091681     -6.45896    219.53856   0.04111209  0.042231116            2 
  446000    1.1915328   -6.4663491    220.65207  0.041227966  0.042225252            4 
  447000    1.1918871   -6.4566322    220.32998  0.041075686  0.042220044            2 
  448000    1.1716052   -6.4329363    221.65991  0.041231382  0.042214529            3 
  449000     1.175605   -6.4320264    220.52904  0.040929666  0.042209693            2 
  450000    1.1501152   -6.4753523    221.80252   0.04107454  0.042204127            4 
  451000    1.1902788   -6.4181667    222.29464  0.041074397  0.042198104            2 
  452000    1.1720578   -6.4336269    223.13507  0.041138472  0.042192923            4 
  453000    1.1771377   -6.4438445    223.40214  0.041096787  0.042187079            2 
  454000     1.180373   -6.4437681    223.65312  0.041052334   0.04218103            2 
  455000    1.1704095   -6.4204415    224.41254  0.041101197  0.042174657            3 
  456000    1.1349187   -6.4826676     224.6675  0.041057657  0.042168242            8 
  457000    1.1688287   -6.4332876    225.66492  0.041149694  0.042161522            4 
  458000     1.236567   -6.4453448    225.64494  0.041056213   0.04215517            2 
  459000    1.1548498   -6.4124639      226.736  0.041164851  0.042149223            3 
  460000    1.1735564   -6.4146839    227.64595  0.041240207  0.042143004            2 
  461000    1.1662341   -6.4351693    228.16358  0.041244321  0.042137181            2 
  462000    1.1555178   -6.4298917    227.29863  0.040999031  0.042131273            3 
  463000    1.1805828   -6.4676881    228.69059  0.041161013  0.042125886            5 
  464000    1.1770857   -6.4574885    228.43023  0.041025545  0.042120755            2 
  465000    1.2112011   -6.4872416    228.40427  0.040932664  0.042114731            3 
  466000    1.1757936   -6.4589494    228.82717  0.040920453  0.042107909            3 
  467000    1.1654915   -6.4414347      229.904  0.041024982  0.042101731            5 
  468000     1.197558   -6.4197219    230.31395  0.041010319   0.04209543            5 
  469000    1.1909855   -6.4370808    231.46784  0.041127903  0.042089972            2 
  470000    1.1793266   -6.4440404    232.15029  0.041161399  0.042084955            4 
  471000    1.1879933   -6.4080661    233.45037  0.041304029  0.042080904            2 
  472000    1.1643754   -6.4510535    233.86203    0.0412892  0.042076834            2 
  473000    1.1649363   -6.4921488    233.27106   0.04109779  0.042072626            4 
  474000    1.1654629   -6.4130919    233.46732  0.041045591  0.042067623            2 
  475000    1.1692744   -6.4698048    233.86064  0.041028182  0.042062128            5 
  476000    1.1592152   -6.4529114    234.43375  0.041042323  0.042056421            3 
  477000    1.1686861   -6.4439818     235.3152  0.041110272  0.042051043            2 
  478000    1.1694807   -6.4010295    235.96265  0.041137143  0.042045817            3 
  479000    1.1752277   -6.4101143    235.87719  0.041036393  0.042040372            1 
  480000    1.1678777   -6.4406668    237.59936  0.041249888  0.042034403            2 
  481000    1.1962641   -6.4231134    238.32052  0.041289072  0.042028893            2 
  482000    1.1506403   -6.4664685      236.962  0.040968534   0.04202507            5 
  483000     1.164947   -6.4471305    237.85326  0.041037484  0.042020767            4 
  484000    1.1448925   -6.4421503    238.83025  0.041120911    0.0420157            2 
  485000    1.1708186   -6.4689871    239.16157  0.041093053  0.042010698            3 
  486000    1.1632738   -6.4841659    239.23377   0.04102088  0.042004927            2 
  487000    1.1677092   -6.4476292    239.94171  0.041057788  0.041999081            2 
  488000    1.1680915    -6.476727    239.45739  0.040890947  0.041993887            4 
  489000    1.1785095   -6.4341741    241.18885  0.041102395  0.041987401            2 
  490000    1.1765187   -6.4514788    240.89639  0.040968774  0.041980717            2 
  491000    1.1659155   -6.4663807    240.54992  0.040826531  0.041973564            2 
  492000    1.1679657   -6.4863084     240.6082  0.040753422  0.041965283            2 
  493000     1.177613   -6.4501199    241.73484  0.040861197  0.041958014            2 
  494000    1.2157613   -6.4732485    241.74784  0.040780674  0.041951105            2 
  495000    1.1808068   -6.4558249    242.19403  0.040773405  0.041944436            3 
  496000    1.1422884   -6.4463302     244.2602   0.04103834  0.041938706            3 
  497000    1.1551274   -6.4554261    244.52597   0.04100033  0.041933139            3 
  498000    1.1842362   -6.4617366    244.94157  0.040987545  0.041927473            1 
  499000    1.1847087   -6.4425571     246.3628  0.041142752  0.041921631            1 
  500000    1.1917788   -6.4361431    246.43388  0.041072313  0.041916772            2 
  501000    1.1537547   -6.4669216    246.22648  0.040955834  0.041910986            2 
  502000    1.1980548   -6.4154548    247.77354  0.041131066  0.041905669            1 
  503000     1.145787   -6.4703549    247.85148  0.041062206  0.041901044            2 
  504000    1.1786824   -6.5006784    247.80428   0.04097293  0.041895623            3 
  505000    1.1611794   -6.4467862    248.11224  0.040942614  0.041889936            5 
  506000    1.1675314   -6.4657542     248.2837  0.040889938  0.041883991            2 
  507000    1.1532778   -6.4557789    248.77383  0.040889846  0.041878522            4 
  508000    1.1910493   -6.4524428    248.58901  0.040779038  0.041872321            3 
  509000    1.1561761   -6.4143478    249.86918   0.04090851  0.041867017            1 
  510000    1.1628923    -6.439191    250.69055  0.040962508  0.041861334            3 
  511000    1.1639291   -6.4685701    250.05203  0.040778218  0.041855996            2 
  512000    1.1681372   -6.4192097      251.884  0.040996745  0.041850793            4 
  513000    1.1979488   -6.4754377    251.48798  0.040852498  0.041845796            4 
  514000    1.1567685    -6.438621    252.59072  0.040951803  0.041840441            4 
  515000    1.1313314   -6.4470764    253.08035  0.040951513  0.041835171            6 
  516000     1.162958   -6.4639081    253.61437  0.040958392  0.041829222            2 
  517000    1.1650478   -6.4750017    253.06256  0.040790225  0.041822927            2 
  518000    1.1756274   -6.4680673    253.91298  0.040848291  0.041816756            4 
  519000    1.1531064   -6.4572142    254.94393  0.040935121  0.041810805            2 
  520000    1.1830997   -6.4799934    255.41505  0.040931899  0.041805541            4 
  521000    1.1926712   -6.4806689     255.8111  0.040916682  0.041800046            2 
  522000    1.1607889   -6.4702576    256.15892  0.040893825  0.041794625            3 
  523000     1.184539   -6.5114631    255.70091  0.040742656  0.041788745            3 
  524000    1.1765684   -6.4735669    256.34711   0.04076767  0.041782713            4 
  525000     1.171828   -6.4092811    257.03673  0.040799482  0.041776525            2 
  526000    1.1488963   -6.4405852    257.90216  0.040859024  0.041770564            3 
  527000    1.1815984   -6.4954103    257.75886  0.040758832  0.041764031            3 
  528000     1.148431   -6.4838766    258.03145   0.04072466  0.041757536            3 
  529000    1.1674682   -6.4088839    260.33345   0.04101031  0.041751574            4 
  530000    1.1681663   -6.4557876    259.84391   0.04085596  0.041744873            1 
  531000    1.1609322   -6.4537146    259.27732  0.040690101  0.041738272            1 
  532000    1.2159401   -6.4411573    260.43661  0.040795208  0.041731905            2 
  533000    1.1740201   -6.4970852    260.18454  0.040679259  0.041725857            2 
  534000    1.1617057   -6.4860223    261.33949  0.040783316  0.041719143            4 
  535000    1.1424959   -6.4175238    262.27946  0.040853498  0.041712511            4 
  536000    1.1498006   -6.4493284    262.63176  0.040832053  0.041706593            2 
  537000    1.1904154   -6.4707097    263.13774  0.040834534  0.041700332            1 
  538000    1.1645071    -6.438162    263.07903   0.04074954  0.041694159            3 
  539000    1.1842343   -6.4233472    263.24439  0.040699504   0.04168715            3 
  540000    1.1678239   -6.4978582    263.26894  0.040627923  0.041679471            2 
  541000    1.1614222   -6.5246484    263.78809  0.040632793  0.041671583            3 
  542000    1.1551963   -6.4759083    264.24679   0.04062835  0.041664462            3 
  543000    1.1623603    -6.450561    265.69774  0.040776204  0.041657996            3 
  544000    1.1665022   -6.4992394    266.71526  0.040857117    0.0416521            2 
  545000    1.1711854   -6.4686175    267.19897  0.040856112   0.04164654            2 
  546000    1.1783756   -6.4436584    266.87782  0.040732268    0.0416409            4 
  547000    1.1793237   -6.4515587    269.35004  0.041034436  0.041635689            3 
  548000    1.1640213   -6.4367385    270.13504  0.041078929  0.041631234            2 
  549000    1.1656977   -6.4955416    268.78185  0.040798703  0.041627527            3 
  550000    1.1495916   -6.4648416    270.16048  0.040933406  0.041623565            3 
  551000    1.1347458   -6.4740005     269.1107  0.040700348  0.041618836            3 
  552000    1.1789221   -6.4872027    271.26123  0.040951273  0.041614453            2 
  553000     1.153369   -6.4659744    271.33193  0.040887874   0.04161022            1 
  554000    1.1886439   -6.4658294    272.59903  0.041004667  0.041606011            2 
  555000     1.181733   -6.4818671    272.64804  0.040938145  0.041601532            4 
  556000    1.1537028    -6.435447    272.93296  0.040907218    0.0415974            2 
  557000    1.1727091    -6.443029    273.47691  0.040915158  0.041593392            2 
  558000    1.1484206   -6.4821612    272.71051  0.040727375    0.0415885            2 
  559000    1.1656351   -6.5121526    273.46438  0.040766903  0.041583233            4 
  560000    1.1887035   -6.4534681    274.86124  0.040901971  0.041578886            2 
  561000    1.1541022    -6.510197    274.33426  0.040750781  0.041574586            1 
  562000    1.1560451   -6.4571718     274.9761  0.040773444  0.041569651            2 
  563000    1.1775003   -6.5130818    275.14695  0.040726309  0.041564482            1 
  564000    1.1665404   -6.4667794    276.09959  0.040794857   0.04155895            2 
  565000     1.160322   -6.4433549    276.30657  0.040753181  0.041553536            3 
  566000    1.1640736   -6.4833901    276.53187  0.040714351  0.041547756            3 
  567000    1.1324665   -6.4755784    276.66632  0.040662304   0.04154243            2 
  568000    1.1645518   -6.4996646    277.52107   0.04071612  0.041536601            2 
  569000    1.1570411   -6.4743194    279.29431  0.040904264  0.041531856            2 
  570000    1.1779397   -6.4544415    278.99587   0.04078887  0.041527652            1 
  571000    1.1686844   -6.4793842     279.0869   0.04073072   0.04152339            3 
  572000    1.1431941   -6.4541417    280.60935  0.040881316   0.04151899            2 
  573000    1.1692341    -6.471621    281.13575  0.040886525  0.041514998            2 
  574000    1.1574971   -6.4877773    280.92637  0.040784897  0.041510777            3 
  575000    1.1470397   -6.4475716    281.18905  0.040752036  0.041506857            4 
  576000    1.1492628   -6.4625689    281.14649  0.040675129  0.041502548            4 
  577000    1.1603317   -6.4746317    282.24896  0.040763858  0.041497793            3 
  578000    1.1815745   -6.4714892    283.97886  0.040942742  0.041492963            3 
  579000    1.1614565   -6.4592969     283.4507  0.040796013  0.041488071            3 
  580000    1.1685006     -6.48389     283.2286  0.040693764  0.041482936            2 
  581000    1.1362312   -6.4985892    283.44141  0.040654247  0.041478049            2 
  582000    1.1536848   -6.4923136    283.95964  0.040658597  0.041472813            4 
  583000    1.1459762   -6.4432598    284.90444  0.040723904  0.041467345            2 
  584000    1.1669512    -6.473379    286.07147    0.0408207  0.041462513            3 
  585000    1.1727509   -6.4869608    285.95088  0.040733743  0.041457943            5 
  586000    1.1521047   -6.5035019    286.09794  0.040685145  0.041453115            4 
  587000    1.1662831   -6.4919805    286.87231  0.040725767  0.041448562            1 
  588000    1.1588595   -6.4570595    287.27284  0.040713271  0.041443732            4 
  589000    1.1532116   -6.5164168    286.65421  0.040556623  0.041438419            4 
  590000    1.1638758    -6.485607    287.50023  0.040607377  0.041432112            2 
  591000    1.1744388   -6.4748274    288.20354  0.040637837  0.041425619            2 
  592000    1.1665915   -6.4932813    288.03246  0.040545109  0.041418982            3 
  593000    1.1860788   -6.5146526    287.99113  0.040470929  0.041412205            2 
  594000    1.1806017    -6.489614    289.67836    0.0406395  0.041404971            2 
  595000    1.1469609   -6.4631589    289.46189  0.040540881  0.041397938            3 
  596000    1.1597329   -6.4823465    288.03481  0.040273323  0.041390424            2 
  597000    1.1627959   -6.4857615    289.02605  0.040344227  0.041383166            1 
  598000    1.1423338   -6.4854863    289.65824  0.040364861  0.041375456            3 
  599000    1.1338686   -6.4737102    290.68027  0.040439659  0.041366867            3 
  600000    1.1572077   -6.5108782    290.56792  0.040356655  0.041358712            4 
  601000    1.1467039   -6.4905275    290.49094  0.040278832  0.041349866            2 
  602000    1.1416458   -6.4881739    292.14432  0.040440798  0.041341511            3 
  603000    1.1578257     -6.48277    291.13921  0.040234827  0.041333217            2 
  604000    1.1604377   -6.5371268    291.30501  0.040191088  0.041324233            4 
  605000    1.1614284   -6.4374548    291.82174  0.040195831  0.041316108            4 
  606000    1.1575764   -6.4648372    292.89971  0.040277738  0.041307543            4 
  607000    1.1714008   -6.5107902    293.06807  0.040234496  0.041299101            1 
  608000       1.1516   -6.5023995    294.04754  0.040302568  0.041291009            3 
  609000    1.1473374   -6.4682098    294.66669  0.040321112  0.041282875            1 
  610000    1.1424929   -6.4633574    295.55977  0.040377017  0.041274966            4 
  611000    1.1501141   -6.4859673    294.82473  0.040210684  0.041266748            2 
  612000    1.1296972   -6.5012454     295.4387  0.040228582  0.041257955            2 
  613000    1.1310152   -6.4478127    296.06786  0.040248485  0.041249348            1 
  614000    1.1599255   -6.4714824    295.55194  0.040112913  0.041240909            5 
  615000     1.149606   -6.4657613    296.61864  0.040192228  0.041231935            2 
  616000     1.169661   -6.4926965    296.64135  0.040130052  0.041222448            1 
  617000    1.1790184   -6.4968893    297.59764  0.040194171  0.041213258            3 
  618000    1.1393209   -6.4908197    297.23898  0.040080768  0.041204369            2 
  619000     1.122774   -6.4917397    297.90358  0.040105491  0.041194331            2 
  620000    1.1421342   -6.4392711    298.25567  0.040088128  0.041184565            4 
  621000    1.1741241   -6.4758217    298.74076  0.040088668  0.041174856            1 
  622000    1.1353597   -6.4879578    298.84738  0.040038502  0.041165308            3 
  623000    1.1473418   -6.5073794    299.20606  0.040022213  0.041156425            1 
  624000    1.1542246   -6.5129865    300.20839  0.040091933   0.04114734            2 
  625000    1.1480149   -6.4683538    300.01829  0.040002439  0.041137265            1 
  626000     1.155754   -6.4799656    300.45546  0.039996733  0.041127649            2 
  627000    1.1368255   -6.5120172    300.31716  0.039914561  0.041117876            3 
  628000    1.1694362   -6.4986565    300.42018  0.039864674  0.041108343            3 
  629000    1.1151326   -6.4760858    301.82093  0.039986874  0.041098296            3 
  630000    1.1717929   -6.4756264    302.39147  0.039998872  0.041088917            3 
  631000    1.1495727   -6.4545351    303.53805  0.040086906  0.041079381            2 
  632000    1.1447757   -6.4981789    303.97417  0.040080982  0.041070008            1 
  633000    1.1269523   -6.5001468    303.63267  0.039972706   0.04106092            4 
  634000    1.1463125   -6.4960781    304.01576   0.03996001  0.041051761            5 
  635000    1.1384476   -6.4753489    305.13857  0.040044432  0.041042434            2 
  636000    1.1339403   -6.4901453    305.36273   0.04001084  0.041033677            2 
  637000    1.1670508   -6.5169201    304.41034  0.039823435  0.041024885            2 
  638000    1.1552855   -6.4264527    306.69564  0.040059514  0.041015756            3 
  639000    1.1562967   -6.4696437    307.71623  0.040129921  0.041006866            1 
  640000     1.142145   -6.5223676    307.32245  0.040015944  0.040998268            5 
  641000    1.1668373   -6.4877456    307.57715  0.039986628  0.040990136            4 
  642000    1.1268474   -6.5375887    308.64529  0.040062992  0.040981891            3 
  643000    1.1333201   -6.5107333    308.80265  0.040021079  0.040973904            3 
  644000    1.1455705   -6.5337705     308.5787  0.039929956  0.040966305            6 
  645000    1.1559121   -6.5179299     310.7647  0.040150478  0.040958988            4 
  646000     1.144539   -6.5145032    310.82668  0.040096322  0.040951939            3 
  647000    1.1414302   -6.4902336    311.04736  0.040062772  0.040944618            5 
  648000    1.1425449   -6.5355033    311.02007  0.039997437  0.040937125            6 
  649000    1.1571073   -6.4808152    311.20426  0.039959458  0.040929147            4 
  650000     1.144044   -6.5119939    311.81183  0.039975876  0.040920722            2 
  651000    1.1507779    -6.510235    312.00851  0.039939645  0.040912284            2 
  652000     1.155614   -6.4438527    312.99339  0.040004268    0.0409037            3 
  653000    1.1606263   -6.4975665    312.99319   0.03994298  0.040895564            2 
  654000    1.1375498   -6.4711688    314.30399  0.040048928  0.040887303            3 
  655000    1.1388676   -6.5121929    313.65288  0.039904947  0.040879294            1 
  656000    1.1728056   -6.5115312    313.81881  0.039865194  0.040870806            2 
  657000    1.1457134    -6.495826    314.74316  0.039921761  0.040862633            3 
  658000    1.1479918   -6.5127934    313.73204  0.039733035  0.040853595            3 
  659000    1.1429904   -6.4797276    315.05918  0.039840564  0.040844686            2 
  660000    1.1310245   -6.4702202    315.59811  0.039848246  0.040835804            2 
  661000    1.1395538   -6.5088225    316.31617  0.039878488   0.04082754            4 
  662000     1.159187    -6.518284    316.99459  0.039903649  0.040819126            6 
  663000    1.1481277   -6.4992057    318.75482  0.040064708  0.040811397            3 
  664000    1.1560653   -6.4901069    318.06171  0.039917384  0.040803411            2 
  665000    1.1476284   -6.5246769    318.55132  0.039918712  0.040795865            2 
  666000    1.1281504   -6.5066485    318.62457  0.039867939  0.040787912            4 
  667000     1.151421   -6.5531504    317.90457  0.039718212  0.040779526            5 
  668000    1.1344495   -6.4798524    320.23566  0.039949558  0.040771519            2 
  669000    1.1518166   -6.5016682    320.76589  0.039955891  0.040763998            4 
  670000    1.1428961   -6.5220236    321.00563  0.039926074  0.040756305            4 
  671000    1.1328604   -6.4890443    321.23533  0.039895098  0.040748637            2 
  672000    1.1335118   -6.4956202    322.32299  0.039970609  0.040740399            2 
  673000    1.1207346   -6.5426207    321.25255  0.039778672  0.040732426            3 
  674000     1.155396    -6.520811    321.33611  0.039729983   0.04072409            4 
  675000    1.1457261   -6.5121287    321.56902  0.039699879  0.040716011            2 
  676000    1.1515174   -6.5033921    323.82786  0.039919608  0.040707764            3 
  677000    1.1265477    -6.522234    322.92068  0.039748975  0.040699448            6 
  678000    1.1252948   -6.5171436    323.09619  0.039711921   0.04069081            1 
  679000    1.1351593   -6.5224617    323.45224  0.039697133  0.040681812            3 
  680000    1.1572258   -6.5059661    325.15934  0.039847958  0.040673441            2 
  681000    1.1516531   -6.5075988    325.03312  0.039773999  0.040664951            4 
  682000    1.1464295   -6.5196442    325.81383  0.039811075   0.04065676            4 
  683000    1.1558304   -6.5169359    325.88183  0.039761082  0.040648872            4 
  684000    1.1351307   -6.4875404    327.11561  0.039853267  0.040640772            3 
  685000    1.1416542   -6.5482472    327.26461  0.039813213  0.040632809            2 
  686000    1.1693961   -6.5106402    327.40138  0.039771791  0.040625026            3 
  687000    1.1472201   -6.4598538    328.74893  0.039877357  0.040617126            2 
  688000    1.1316436   -6.5151549    327.92362  0.039719431  0.040609174            4 
  689000    1.1368744   -6.4820694    328.24119  0.039700192  0.040600419            3 
  690000    1.1403372   -6.5504731    328.46128  0.039669236  0.040591703            2 
  691000    1.1541146   -6.5230687    328.78619  0.039651011  0.040583352            4 
  692000    1.1349156    -6.483478    330.29613  0.039775545  0.040575013            2 
  693000    1.1680147   -6.4841731    330.55584  0.039749379  0.040566866            2 
  694000     1.137171   -6.4895614    331.32799  0.039784822  0.040558517            2 
  695000    1.1289819   -6.5367213    330.57155  0.039636877  0.040549867            8 
  696000    1.1144375   -6.5116783    331.27221  0.039663819  0.040541625            5 
  697000    1.1316816   -6.5290913    331.79374  0.039669266  0.040533765            4 
  698000    1.1503957   -6.4920145    332.04312  0.039642206  0.040525622            2 
  699000     1.161056   -6.5335811    332.65068  0.039657926  0.040517519            2 
  700000    1.1280503   -6.4696565    332.91074  0.039632231  0.040509063            4 
  701000    1.1558537   -6.5083067    332.46549  0.039522763  0.040500838            2 
  702000    1.1365041   -6.4714531    333.46816   0.03958549  0.040492306            1 
  703000    1.1503599   -6.5570968    333.52318  0.039535701   0.04048421            3 
  704000    1.1561058   -6.5170033    336.33635  0.039812541  0.040476322            2 
  705000    1.1528182   -6.4792011    336.95317   0.03982898  0.040469553            2 
  706000    1.1444534    -6.470948    337.20708  0.039802536  0.040462494            3 
  707000    1.1564743   -6.5304537    336.87205  0.039706748  0.040455211            3 
  708000    1.1368866    -6.517351    338.35111  0.039824754  0.040447972            3 
  709000    1.1644517   -6.5646483    336.68978  0.039573317  0.040440611            3 
  710000    1.1308284   -6.5157816    337.66144  0.039631624  0.040433198            3 
  711000    1.1433025   -6.5114961    339.46247  0.039786974  0.040425912            4 
  712000    1.1530804   -6.5318164     338.1735  0.039580232  0.040418695            3 
  713000    1.1442825   -6.5297973    339.70306   0.03970349  0.040411185            4 
  714000    1.1284834   -6.5033848    340.50584  0.039741578  0.040403881            1 
  715000    1.1647455   -6.5055529    340.22055  0.039652745  0.040396475            3 
  716000    1.1289137   -6.5472707    340.07606  0.039580547  0.040388931            8 
  717000    1.1383627   -6.5193596    341.44962  0.039684986  0.040381773            3 
  718000    1.1610245    -6.499626    341.60974  0.039648299   0.04037486            8 
  719000    1.1242622   -6.5490642    341.34315  0.039562256  0.040367495            2 
  720000    1.1476257   -6.5481385    341.06781  0.039475441  0.040359804            2 
  721000    1.1545602   -6.5431671    342.86695  0.039628635  0.040351776            3 
  722000    1.1395266   -6.5073064    341.19778  0.039381092  0.040343798            4 
  723000     1.124296   -6.5258125    342.89937  0.039522749  0.040336004            4 
  724000    1.1163049   -6.5587598    343.41061  0.039527004  0.040328402            2 
  725000    1.1491314   -6.5496582    344.65603  0.039615636  0.040320899            4 
  726000    1.1469175   -6.5027046    346.21972  0.039740556  0.040313436            5 
  727000    1.1166393   -6.5334632    346.01626   0.03966257  0.040306738            4 
  728000    1.1556404   -6.4970613    345.97114  0.039602923   0.04030037            6 
  729000    1.1444848   -6.4948688    346.81934  0.039645558  0.040293492            6 
  730000    1.1252202   -6.5110162    347.69624  0.039691352  0.040286826            2 
  731000    1.1395092   -6.5274991    347.68789  0.039636102  0.040279538            2 
  732000    1.1235818   -6.5353428    347.65672  0.039578406  0.040272796            2 
  733000    1.1348402   -6.5320525    348.15215  0.039580736  0.040265898            2 
  734000    1.1469267   -6.5555224    349.07373  0.039631441  0.040258768            2 
  735000     1.147547   -6.5162554    349.33407  0.039607038  0.040251924            1 
  736000    1.1558394   -6.4984121    350.52142  0.039687661  0.040245687            5 
  737000    1.1211822   -6.5200072    350.76255  0.039661076  0.040239039            7 
  738000    1.1308825   -6.5298411    350.25415  0.039549927  0.040232563            2 
  739000    1.1298686   -6.5609855    350.41186  0.039514192  0.040226284            6 
  740000    1.1306691    -6.521498    350.73631  0.039497332  0.040219942            4 
  741000    1.1259568   -6.5242046    353.02666  0.039701604  0.040213389            3 
  742000     1.102642   -6.5437501     353.0254  0.039647956  0.040207427            3 
  743000    1.1499477    -6.539749    353.35879  0.039631986  0.040201488            5 
  744000    1.1435607   -6.4979298    354.91744  0.039753298  0.040195999            4 
  745000    1.1585382   -6.5127433    355.02973  0.039712498  0.040190633            5 
  746000    1.1487302   -6.5137979    355.66524  0.039730254  0.040185526            2 
  747000    1.1392198   -6.5521976    355.51063  0.039659821  0.040180361            4 
  748000     1.136113   -6.5102418    358.07675  0.039892686  0.040175523            3 
  749000    1.1245857   -6.5104779    358.04468  0.039835856  0.040170765            2 
  750000    1.1218117   -6.5622052    356.77962   0.03964218  0.040165484            2 
  751000    1.0909642   -6.5310685     358.0378  0.039729006   0.04016054            2 
  752000    1.1363149   -6.5759296    358.14876  0.039688471  0.040155564            2 
  753000    1.1109726   -6.5178369    359.52442  0.039788006  0.040150807            2 
  754000    1.1390368   -6.5056914    359.85021  0.039771243  0.040146333            7 
  755000    1.1239724   -6.5132505    359.56098  0.039686642  0.040141095            4 
  756000    1.1223242   -6.4943544    360.54169   0.03974225  0.040135773            5 
  757000    1.1051764   -6.5108428    360.05995  0.039636718  0.040130574            3 
  758000    1.1217878    -6.514164    360.73777  0.039658946  0.040124791            3 
  759000    1.1061073   -6.5597787    360.24065  0.039552113  0.040119144            2 
  760000    1.0923621   -6.5581417    360.66282  0.039546362  0.040113062            4 
  761000    1.1213175    -6.524042    360.43322  0.039469253  0.040106931            3 
  762000      1.13284   -6.5379856    361.93003   0.03958115  0.040100706            3 
  763000    1.1115017   -6.5454518    362.79225  0.039623444  0.040094398            2 
  764000    1.1528904   -6.5076013    363.55388  0.039654655  0.040088755            3 
  765000    1.1310302   -6.5003533    363.25858  0.039570651  0.040082862            2 
  766000    1.1261958   -6.5276509    364.50772  0.039654887  0.040077314            2 
  767000    1.1342796   -6.5418888    363.59643  0.039504175  0.040071564            2 
  768000    1.1373688   -6.5328048    365.02988  0.039608277  0.040065716            1 
  769000    1.0980268   -6.5477243    364.66937  0.039517704  0.040059654            5 
  770000    1.1115523   -6.5047189    365.65128  0.039572649  0.040053844            3 
  771000    1.1044812   -6.4685152    366.25292  0.039586351  0.040048209            2 
  772000    1.1478947   -6.5213112    366.30549  0.039540748  0.040042533            1 
  773000    1.1277987   -6.5098833    367.48871  0.039617152  0.040036387            2 
  774000    1.1320622   -6.5101886    367.60283  0.039578255  0.040030404            2 
  775000    1.1192835    -6.549112    367.86084  0.039554929  0.040024421            3 
  776000    1.1169565   -6.5466889    367.89188   0.03950729  0.040018497            2 
  777000    1.1299607    -6.521449    369.87371  0.039668995   0.04001293            2 
  778000    1.1172521   -6.5447648    369.38337  0.039565485  0.040007722            2 
  779000    1.1295892   -6.5341004    370.08333  0.039589573   0.04000224            2 
  780000    1.1265664    -6.507418    369.85161  0.039514061  0.039996477            2 
  781000    1.1620054   -6.5396155    369.94953  0.039473915  0.039990994            1 
  782000    1.1293901   -6.5240748    370.38528  0.039469873  0.039985776           10 
  783000    1.1617969   -6.5305147    371.46393  0.039534262  0.039980651            2 
  784000    1.1312787     -6.52192    371.26662  0.039462863  0.039975438            2 
  785000     1.112635    -6.577811    370.38314  0.039318804  0.039969476            4 
  786000     1.121438   -6.5185305    373.45407  0.039594367   0.03996382            2 
  787000    1.1360076   -6.4969827    374.06801  0.039609065   0.03995832            4 
  788000    1.1161972   -6.4971207    373.62779  0.039512245  0.039952587            3 
  789000    1.1258792   -6.5355255    374.00711   0.03950223  0.039946719            4 
  790000    1.1132091    -6.515695    373.58936   0.03940816  0.039940643            4 
  791000    1.1034794    -6.569554    374.10073  0.039412214  0.039934449            3 
  792000    1.1003133   -6.5396689    373.92026  0.039343461  0.039928044            2 
  793000    1.1141636    -6.522355    375.21879  0.039430306  0.039922166            2 
  794000    1.1234358   -6.5215292    375.30329  0.039389514  0.039916016            4 
  795000    1.1336237   -6.5390342    375.21591  0.039330808  0.039909699            2 
  796000    1.1210693   -6.5319871    375.93029  0.039356186  0.039903729            2 
  797000    1.1139787   -6.5320781    376.95004  0.039413429  0.039897967            2 
  798000     1.118047   -6.5013302    376.93954  0.039362942  0.039891543            6 
  799000    1.1229247    -6.512654    377.19072  0.039339875  0.039884995            3 
  800000    1.1492847    -6.538996    376.62839  0.039232124  0.039878416            4 
  801000    1.1361704   -6.5614166    376.60733  0.039180954  0.039871509            7 
  802000    1.1180264   -6.5246254    378.07155  0.039284242  0.039864999            3 
  803000     1.117307   -6.5378106    378.07584  0.039235766  0.039858328            2 
  804000    1.1109942   -6.5191268    378.76018  0.039257896  0.039851383            4 
  805000    1.1098428   -6.5563997    377.32694   0.03906076  0.039844435            3 
  806000    1.1112699   -6.5296279     379.5652  0.039243714  0.039837009            3 
  807000    1.1131949    -6.584039    377.67988    0.0390004  0.039829755            2 
  808000    1.1038835   -6.5480651    379.50185  0.039140042  0.039822367            2 
  809000    1.1228411   -6.5591023    379.24056  0.039064747  0.039815044            5 
  810000    1.1241297   -6.5268665    379.59962  0.039053458  0.039807669            2 
  811000    1.1421137   -6.5698606    381.26174  0.039176093  0.039800433            3 
  812000    1.1318496   -6.5333795    382.21156  0.039225325   0.03979339            4 
  813000    1.1291877   -6.5099307    382.17916  0.039173756  0.039786628            2 
  814000    1.1287866   -6.5291232    383.04839  0.039214618   0.03977965            4 
  815000     1.101363   -6.5345372    382.11921  0.039071494  0.039772731            4 
  816000    1.1085513    -6.528757    382.85123  0.039098369  0.039765851            6 
  817000    1.1548769   -6.5368412     384.0583  0.039173634  0.039759194            3 
  818000    1.1271908   -6.5443018    383.23532  0.039041903   0.03975213            5 
  819000    1.0962247   -6.5621778    384.96905   0.03917064  0.039744993            2 
  820000    1.1534826   -6.5476741    385.81515  0.039208857  0.039737978            3 
  821000    1.1162246    -6.551021    384.86027  0.039064176  0.039731145            2 
  822000    1.1256649   -6.5420781    385.90889  0.039122961  0.039724493            4 
  823000     1.130451   -6.5165523    386.76887  0.039162502  0.039717892            3 
  824000    1.1098511   -6.5441711    387.16091  0.039154623  0.039711098            3 
  825000    1.1240311   -6.5418868    386.37925  0.039028207  0.039704241            4 
  826000    1.1209661   -6.5544982    387.58799  0.039102905  0.039697016            3 
  827000    1.1099004   -6.4999421    386.94046  0.038990372  0.039689401            3 
  828000    1.1125672   -6.5816685    387.25938  0.038975381   0.03968215            2 
  829000    1.1101581   -6.5540745    387.44395  0.038946919  0.039674842            3 
  830000    1.1228749   -6.5511113    389.20716  0.039077025  0.039667525            2 
  831000    1.0860646   -6.5520731    390.96109  0.039205885  0.039660993            4 
  832000    1.1158203    -6.546859    390.86981   0.03914962  0.039653963            2 
  833000    1.1104471   -6.5284591    388.84073  0.038899633   0.03964682            3 
  834000    1.1233135   -6.5710259    389.91763  0.038960595  0.039639524            2 
  835000    1.1265072   -6.5034048    390.57608  0.038979648  0.039632481            7 
  836000    1.1132887   -6.5664425    389.55869  0.038831608  0.039624803            5 
  837000    1.1382942   -6.5515462    390.18907  0.038847976  0.039617095            2 
  838000    1.0977382   -6.6011456    391.89532  0.038971293  0.039609757            2 
  839000    1.1243159   -6.5147396    392.68217  0.039002996  0.039602425            2 
  840000    1.0985758    -6.585372    392.54837  0.038943291  0.039595312            2 
  841000    1.1477915   -6.5485529    393.24489  0.038966002  0.039588324            2 
  842000    1.1095018   -6.5434171    395.64629  0.039157392   0.03958181            5 
  843000    1.1201022   -6.5469345    396.31403  0.039176951   0.03957528            7 
  844000    1.1206016   -6.5496205    395.15579  0.039016172  0.039568472            1 
  845000    1.1060013   -6.5311796    396.54253  0.039106759  0.039562106            5 
  846000    1.1276254   -6.5105015    396.73538  0.039079529  0.039555459            1 
  847000    1.1133602    -6.520528    397.54292  0.039112841  0.039549252            5 
  848000    1.1324905   -6.5411567    396.92116  0.039005617  0.039542814            5 
  849000    1.1383414   -6.5655718    397.39495  0.039006179  0.039536333            1 
  850000    1.1103098    -6.574413    397.61565  0.038981926  0.039529741            3 
  851000     1.115259   -6.5852585    397.24337  0.038899664  0.039522936            3 
  852000     1.125416   -6.5474804    397.98789  0.038926828  0.039516192            3 
  853000    1.1298991   -6.5316885    397.98331  0.038880746  0.039509479            6 
  854000    1.1201748   -6.5580812    398.47342  0.038883042  0.039502375            3 
  855000    1.1249216   -6.5729566    398.68903   0.03885858  0.039495526            3 
  856000    1.1132841   -6.5627877     399.4037  0.038882759  0.039488818            4 
  857000    1.1359343   -6.5706485    399.90674  0.038886303  0.039481926            3 
  858000    1.1046721   -6.5455768    400.14495  0.038864117  0.039474792            2 
  859000    1.1009564   -6.5479582      399.872  0.038792395   0.03946763            3 
  860000    1.1131188   -6.5711911     399.9754  0.038757306  0.039460145            4 
  861000    1.1364012   -6.5434064    402.80381  0.038986045  0.039453034            5 
  862000    1.1107231   -6.5016873    401.88451  0.038851944  0.039446331            2 
  863000    1.0850591   -6.5432755    402.62435  0.038878365   0.03943917            1 
  864000    1.1009925   -6.5189029    402.13483  0.038786153  0.039432211            2 
  865000    1.1209856   -6.5629529    403.53981  0.038876667  0.039425376            3 
  866000    1.1287465   -6.5958892    403.19656  0.038798746  0.039418499            3 
  867000    1.1035562   -6.5604925    404.28699  0.038858804  0.039411809            4 
  868000    1.1089151   -6.5640164    404.69075  0.038852798   0.03940523            4 
  869000    1.1282913   -6.5706307    405.18879  0.038855849  0.039398384            3 
  870000    1.1090006   -6.5752809    405.51165  0.038842112  0.039391194            3 
  871000    1.1276023   -6.5897505     404.7023  0.038720082  0.039384178            2 
  872000    1.1103266   -6.5983952    404.94419  0.038698794  0.039376911            2 
  873000    1.1228398   -6.5560428    407.09363  0.038859644  0.039369398            2 
  874000    1.0936777   -6.5756081    406.78715   0.03878596  0.039362177            3 
  875000    1.1173993   -6.5871889    406.62245  0.038725948  0.039355216            2 
  876000    1.1003163   -6.5562322    406.46157  0.038666436  0.039348059            2 
  877000    1.1112481   -6.5432659    408.13568  0.038781421  0.039341038            2 
  878000    1.1281192   -6.5767944    408.31663  0.038754426   0.03933415            2 
  879000    1.1288986   -6.5687689    409.41777   0.03881473  0.039327072            3 
  880000    1.1024383   -6.5695201    408.91912  0.038723402  0.039320329            2 
  881000    1.1294107   -6.5516205    410.41474  0.038820918  0.039313624            1 
  882000    1.1014742   -6.5601526    409.96248  0.038734173  0.039306903            2 
  883000    1.1026715   -6.5436431    410.65943   0.03875608  0.039300358            2 
  884000    1.0850119   -6.5418844    410.88421  0.038733429  0.039293662            5 
  885000    1.1269514   -6.5467803    412.25375   0.03881862  0.039287139            4 
  886000    1.1305994   -6.6099871    411.62088  0.038715282  0.039280533            5 
  887000    1.1138732   -6.5753554    413.19874  0.038819874  0.039273701            2 
  888000    1.1092446   -6.5691773     412.6533  0.038724972  0.039266939            3 
  889000    1.1018505   -6.6041519    412.21491  0.038640318  0.039260013            3 
  890000    1.1286106   -6.5511118    413.46114  0.038713589  0.039253105            4 
  891000    1.1204435   -6.5791567    413.76981  0.038699009    0.0392463            1 
  892000    1.1402711   -6.5919063     412.8717  0.038571721  0.039239066            2 
  893000    1.0968377   -6.5837567    413.95081  0.038629228  0.039231572            2 
  894000    1.0929284    -6.588096     414.6153  0.038647958  0.039224203            3 
  895000    1.1089702   -6.5463735    413.87562  0.038535905  0.039216833            2 
  896000    1.1318001      -6.5359    415.18382  0.038614566  0.039209381            2 
  897000    1.0848126   -6.5829973    415.31626  0.038583822  0.039201706            1 
  898000    1.1065311   -6.5167291    414.78386  0.038491449  0.039194297            2 
  899000    1.1052985   -6.5294234    417.03958  0.038657729   0.03918658            2 
  900000    1.1326207   -6.5861461    415.54111  0.038476029  0.039178867            2 
  901000    1.1125812   -6.6236154    416.07698  0.038482888  0.039171143            2 
  902000    1.1005262   -6.5815007    417.70201  0.038590355  0.039163396            6 
  903000    1.0998928   -6.5674828    417.88489  0.038564497  0.039156126            3 
  904000    1.1053123   -6.5696436     418.7465  0.038601263  0.039148638            5 
  905000    1.1049543   -6.5542142    418.36032   0.03852305  0.039141664            3 
  906000    1.0995553   -6.5548629    418.19932  0.038465722  0.039134278            2 
  907000    1.1146029   -6.5821548    418.08607  0.038412906  0.039126599            2 
  908000    1.1045451   -6.5419625    419.76573  0.038524755  0.039119115            1 
  909000    1.1081197   -6.5449598    420.89216   0.03858564  0.039111751            7 
  910000    1.1049368   -6.5840817    419.89947  0.038452332  0.039104204            3 
  911000    1.1112679   -6.5739399    419.15581  0.038342098  0.039096441            3 
  912000    1.1005841   -6.5983871    419.66794  0.038346851  0.039088592            2 
  913000    1.1060752   -6.5790192    420.67808   0.03839705  0.039081029            2 
  914000    1.0915566   -6.5787434    420.99592  0.038384019  0.039073209            3 
  915000    1.0981537   -6.6072752    421.16662  0.038357615  0.039065716            3 
  916000    1.1074317   -6.5636142    423.17801  0.038498727  0.039058197            3 
  917000    1.1038702   -6.5620491    423.31038  0.038468773  0.039050698            3 
  918000    1.0816011   -6.5439264    423.42561  0.038437328   0.03904325            2 
  919000    1.1079446   -6.5512681    423.13748  0.038369376  0.039035839            5 
  920000     1.106445   -6.5649166    425.07982  0.038503606  0.039028027            2 
  921000    1.0868387   -6.5856628    423.36552  0.038306689  0.039020175            1 
  922000    1.1046237   -6.6046175    423.90023   0.03831347  0.039012136            3 
  923000    1.1090028    -6.537095    424.03365  0.038284006  0.039003896            3 
  924000    1.1064142   -6.5820979    423.24984  0.038171883  0.038995671            3 
  925000    1.0977233   -6.5749798    423.42601  0.038146487  0.038987001            3 
  926000    1.1167246   -6.6147598    424.24706  0.038179181  0.038978381            3 
  927000    1.0843247   -6.5705844    425.81418  0.038278873  0.038969982            4 
  928000    1.1048573   -6.5825745     425.3119  0.038192519  0.038961684            3 
  929000     1.109462    -6.528283    426.79383  0.038284341  0.038953616            1 
  930000    1.0782446   -6.5730499    426.78435  0.038242325  0.038945611            5 
  931000    1.1082452   -6.6435547    426.21488  0.038150276  0.038937505            3 
  932000      1.12168   -6.5924627    426.81823  0.038163289  0.038929515            2 
  933000    1.1059236   -6.5647443    427.53205  0.038186142  0.038921042            3 
  934000    1.0775485   -6.6012777    428.46488  0.038228486  0.038912643            2 
  935000    1.1265833   -6.5727809    427.98173  0.038144539  0.038904122            2 
  936000    1.1119713   -6.5600754    429.92037  0.038276386  0.038895472            4 
  937000    1.1049584   -6.5953922    427.84755  0.038051187  0.038887067            2 
  938000    1.0903283   -6.5540187    429.80044  0.038184118  0.038878664            5 
  939000    1.0941069   -6.5958908    429.85884  0.038148637  0.038870162            3 
  940000    1.1167686   -6.5604337     431.1523  0.038222721    0.0388614            2 
  941000    1.1198105   -6.5736482    431.16938  0.038183615  0.038853096            2 
  942000    1.1045392   -6.5727387      431.741  0.038193648    0.0388444            2 
  943000    1.0755975   -6.5940923    431.57246  0.038138252   0.03883579            9 
  944000    1.1205729   -6.5578116    431.48875  0.038090461  0.038826665            7 
  945000     1.102628   -6.5713143    431.93114  0.038089166  0.038817665            4 
  946000    1.0847289   -6.6056638    431.19046  0.037983656  0.038808494            2 
  947000    1.1122026   -6.5554774    431.99774  0.038014585  0.038799375            3 
  948000    1.0952566   -6.5977492    432.13782  0.037986799  0.038790582            1 
  949000     1.088132   -6.5789791    432.04865   0.03793894  0.038781608            2 
  950000    1.0867532   -6.6121104     432.6477  0.037951552  0.038772823            6 
  951000    1.0956691   -6.5888606    433.19703  0.037959781  0.038763859            4 
  952000     1.116445   -6.5399259    432.73878  0.037879795  0.038754743            2 
  953000    1.1136522   -6.6108355    432.87901  0.037852309  0.038745468            2 
  954000     1.088283   -6.5516699    434.71955  0.037973405   0.03873604            3 
  955000    1.0825458   -6.5676801    434.69782  0.037931747  0.038727134            2 
  956000    1.0927395   -6.5776197    433.69524  0.037804675  0.038717523            2 
  957000    1.0866204   -6.5893742    434.73801  0.037855974  0.038707757            4 
  958000    1.0927445   -6.5239083    435.36359  0.037870876  0.038698347            3 
  959000    1.1177792   -6.5819563    434.74774  0.037777871  0.038688852            5 
  960000    1.0861154   -6.6069584    435.46485  0.037800768  0.038679139            3 
  961000    1.1069354   -6.5925204    434.52282  0.037679745  0.038669166            8 
  962000    1.1388282   -6.6158285    434.89985  0.037673237  0.038659205            3 
  963000    1.1044451   -6.5627261    436.03704  0.037732523  0.038649153            2 
  964000    1.1125655   -6.6067206    436.78887  0.037758374  0.038639428            2 
  965000    1.0933804   -6.6160132     436.8273  0.037722565  0.038629838            7 
  966000    1.0853515   -6.5610648    437.85252  0.037771956  0.038620152            4 
  967000    1.1123745   -6.6203464    436.15415  0.037586534  0.038610178            2 
  968000    1.0830051   -6.6102455     436.6672  0.037591873  0.038599899            3 
  969000     1.085674   -6.6113499    436.77312  0.037562188  0.038589623            2 
  970000    1.1060585   -6.5701978    436.82249  0.037527705  0.038579428            3 
  971000    1.0903538   -6.6087394    438.27295  0.037613538  0.038568698            2 
  972000    1.1073102   -6.6037014    437.44667  0.037504001  0.038558313            4 
  973000    1.1013411   -6.5685951     439.0408  0.037601987  0.038547762            4 
  974000    1.1003839   -6.5599313    439.26385  0.037582465  0.038537876            1 
  975000    1.1116438   -6.6105523    439.45978  0.037560665  0.038527449            3 
  976000    1.0809103   -6.6142982    438.02198  0.037399418  0.038516951            2 
  977000    1.0824431   -6.5564655    438.99446  0.037444085  0.038506354            4 
  978000    1.0970289   -6.6215848     437.9941   0.03732056  0.038495741            2 
  979000    1.1034475   -6.5769947    438.83452  0.037353977  0.038485105            6 
  980000    1.0808128    -6.563105    439.40711   0.03736455  0.038474677            4 
  981000     1.091881    -6.586592    439.51474  0.037335605  0.038463842            3 
  982000    1.0903567   -6.6318441    441.07899  0.037430328  0.038453056            3 
  983000    1.0932746   -6.5462791    441.82825  0.037455769  0.038442365            3 
  984000    1.0961301   -6.5818239    441.50076   0.03738997  0.038431973            2 
  985000    1.0879248    -6.585742    441.58693    0.0373593  0.038421159            3 
  986000    1.0869394   -6.5803888    441.64378  0.037326215  0.038410155            2 
  987000    1.0906358   -6.6044791    443.14103  0.037414812  0.038399294            2 
  988000    1.0784374   -6.5600426    443.29054  0.037389553  0.038388387            2 
  989000    1.0745897   -6.6212373    441.03532  0.037161722   0.03837738            2 
  990000    1.1057158   -6.5870875    443.43306  0.037326015  0.038366434            1 
  991000    1.1137643   -6.6253864    442.98642  0.037250792  0.038355231            3 
  992000    1.0778803   -6.5582489    443.54358  0.037260045  0.038344156            2 
  993000    1.0881569   -6.6307898    443.46387  0.037215833  0.038333179            4 
  994000    1.0817788   -6.6452346    442.83262  0.037125472  0.038322049            2 
  995000     1.111716   -6.6328255     444.4719  0.037225453  0.038310794            7 
  996000    1.0835017   -6.6084001    445.16067  0.037245706  0.038299527            3 
  997000    1.0782594   -6.6029784    444.36166  0.037141563   0.03828867           11 
  998000    1.0960244   -6.5742202    446.35169  0.037270515  0.038278089            2 
  999000    1.0888461   -6.5945079    447.06434  0.037292654  0.038267474            2 
 1000000    1.1003967    -6.609932    446.38669  0.037198891  0.038257085            3 
 1001000    1.0968093   -6.6271477    446.96718  0.037210055  0.038246779            3 
 1002000    1.0881927   -6.5892882    448.33959  0.037287059  0.038236152            2 
 1003000    1.1043149   -6.6351855    446.56449    0.0371024  0.038225117            2 
 1004000    1.0943568   -6.5492633    449.44213  0.037304294  0.038214382            1 
 1005000     1.061614   -6.6263865     448.0138   0.03714874  0.038203814            4 
 1006000    1.0845016   -6.6553116    448.58824  0.037159397  0.038193136            4 
 1007000    1.0954707   -6.6028411    450.51227  0.037281717  0.038182713            4 
 1008000    1.0853512   -6.5958779    451.26048  0.037306587   0.03817251            6 
 1009000    1.1003509    -6.579246    451.70121  0.037306014  0.038162243            3 
 1010000    1.0888744   -6.5799392    450.41349  0.037162829  0.038151957            1 
 1011000    1.0807689   -6.6006333    452.03792  0.037259967  0.038141323            3 
 1012000     1.105222    -6.561448    452.38563  0.037251781  0.038130785            4 
 1013000    1.0726692   -6.6395052    449.99668  0.037018483  0.038120018            3 
 1014000    1.1023708   -6.5988937    451.08193  0.037071165  0.038109359            2 
 1015000    1.0730405   -6.5994146    452.18539  0.037125238  0.038098761            2 
 1016000    1.0905239   -6.6173307    452.65535  0.037127243  0.038088144            4 
 1017000    1.0828622   -6.6018665    451.93377   0.03703161  0.038077521            2 
 1018000    1.0818703   -6.6449047    450.28259  0.036860068    0.0380664            2 
 1019000     1.097015    -6.597036    453.57294  0.037092979   0.03805547            2 
 1020000    1.0872874   -6.5777759     452.4923  0.036968326  0.038044401            3 
 1021000    1.0883399    -6.592551     452.9843  0.036972274  0.038033257            2 
 1022000    1.0927029   -6.6340564    451.66869  0.036828823  0.038021981            4 
 1023000    1.0737726   -6.5817209    454.47086  0.037021087  0.038011155            2 
 1024000    1.0637625   -6.6061455    454.71563  0.037004853  0.038000293            2 
 1025000    1.0984154   -6.6686712    454.44664  0.036946882  0.037989435            3 
 1026000    1.0714742   -6.6571365    453.46837  0.036831414  0.037978384            2 
 1027000    1.0762044   -6.5778805    456.49253  0.037040939  0.037967173            2 
 1028000    1.0973315   -6.5939518    455.87491   0.03695484  0.037956397            2 
 1029000    1.1004156   -6.6053982     455.8117  0.036913808  0.037945452            3 
 1030000    1.0822422   -6.5942022    457.42493  0.037008489  0.037934613            3 
 1031000    1.0898441   -6.6082872    456.81345  0.036923169  0.037923704            3 
 1032000    1.0661666   -6.5978997    458.88847  0.037054948  0.037913024            1 
 1033000    1.0746909   -6.6074804    457.19068  0.036882113  0.037902423            5 
 1034000    1.1054567    -6.614589    456.65694  0.036803428  0.037891794            3 
 1035000    1.0971752   -6.6104015    456.60597  0.036763766  0.037881055            2 
 1036000      1.07778   -6.5986934    458.13982  0.036851658  0.037870092            4 
 1037000    1.0812781   -6.6360216    458.40992  0.036837827  0.037859126            2 
 1038000    1.0892842   -6.6054545    458.10127  0.036777558  0.037848154            2 
 1039000    1.0775025   -6.5969863    460.48171  0.036933086  0.037837235            3 
 1040000    1.0810899   -6.6332142    460.14768  0.036870807  0.037826626            2 
 1041000    1.0896615   -6.6280632    459.81896  0.036809074  0.037816111            4 
 1042000    1.0647002   -6.6064457    460.86656   0.03685753  0.037805729            2 
 1043000    1.0876272   -6.6412198    461.81116  0.036897663  0.037795342            5 
 1044000    1.0972956   -6.6357663    461.48462  0.036836256  0.037785014            3 
 1045000    1.0589441   -6.5949444     462.9366  0.036916794  0.037774677            4 
 1046000    1.0708056   -6.5982688    461.41373  0.036760176  0.037764222            1 
 1047000    1.0903318   -6.6146554    462.67947  0.036825809  0.037753706            3 
 1048000    1.1142378   -6.6342846    463.59286    0.0368633  0.037743257            3 
 1049000    1.0715026   -6.6341655    463.37164  0.036810584  0.037732521            4 
 1050000     1.062676   -6.6153347    463.38978  0.036776967  0.037721706            2 
 1051000    1.0831082   -6.6317425    463.49875  0.036750614  0.037711077            4 
 1052000    1.0903399   -6.6436191    463.52387   0.03671767  0.037700141            3 
 1053000    1.0861403   -6.6218934    464.75077  0.036779896  0.037689356            2 
 1054000    1.0838746   -6.6131403    464.00423  0.036685976  0.037678699            6 
 1055000    1.0967761    -6.588767    464.84464  0.036717586  0.037668141            4 
 1056000    1.0761684   -6.6446127    464.39772  0.036647547  0.037657535            4 
 1057000    1.0920399   -6.6100299    465.99622  0.036738901  0.037647116            3 
 1058000    1.0962572   -6.6197049    465.75652  0.036685296   0.03763682            2 
 1059000     1.063788   -6.6169703    466.82668  0.036734866  0.037626537            3 
 1060000    1.0830528   -6.6027962    466.97848  0.036712145  0.037616364            8 
 1061000    1.0863441   -6.6467519    467.49595  0.036718187  0.037606147            2 
 1062000    1.0705475   -6.6096697    468.03691   0.03672606  0.037595822            4 
 1063000    1.0573221   -6.5859024    469.11413  0.036775959  0.037585407            6 
 1064000    1.0597499   -6.5967646    467.74878   0.03663446   0.03757491            4 
 1065000    1.0860524   -6.6219642    468.14993   0.03663145  0.037564242            2 
 1066000    1.0617221   -6.6370116    466.97667  0.036505368  0.037553784            5 
 1067000    1.0713944   -6.6274512    469.38857  0.036659526  0.037543388            5 
 1068000    1.0790088    -6.641958    470.53348  0.036714535  0.037532944            4 
 1069000    1.0797512   -6.6619193    469.78188    0.0366216   0.03752231            3 
 1070000    1.0719764    -6.614215    470.37285    0.0366334  0.037511774            3 
 1071000    1.0810223   -6.6343764     469.9273  0.036564527  0.037501306            2 
 1072000    1.0659244   -6.6321056    471.28417  0.036635896  0.037491084            7 
 1073000    1.0682589   -6.6315908    471.54626  0.036622108  0.037480745            2 
 1074000    1.0899567   -6.6117195    472.40891  0.036654944  0.037470656            2 
 1075000    1.0981628   -6.6877548    470.74825  0.036492112  0.037460211            3 
 1076000    1.0829173   -6.6300481    471.65183  0.036528178  0.037449845            3 
 1077000    1.0807557   -6.6192683    471.77551  0.036503831  0.037439294            3 
 1078000    1.0955668   -6.6189801    473.11438  0.036573468   0.03742905            2 
 1079000    1.0866399   -6.6202428    472.99642  0.036530462  0.037418493            3 
 1080000    1.0803377   -6.6200594    472.70247  0.036473956   0.03740808            3 
 1081000    1.0651496   -6.6151196    474.51265   0.03657976   0.03739769            2 
 1082000    1.0916726    -6.609856    476.27445  0.036681643  0.037387567            5 
 1083000    1.0673231   -6.6331696    475.19684  0.036564854  0.037377372            4 
 1084000    1.0731321   -6.6135087    476.14533  0.036604039   0.03736739            3 
 1085000     1.087194   -6.6367757    475.87077  0.036549214  0.037357322            9 
 1086000    1.0766377   -6.6400037    475.63871  0.036497753  0.037347426            2 
 1087000    1.0680595   -6.6294066    475.84374  0.036479894  0.037337243            2 
 1088000    1.0780543   -6.6168496    475.69782  0.036435189  0.037327077            3 
 1089000    1.0854896   -6.5920332     477.9714  0.036575712  0.037316999            2 
 1090000    1.0759199   -6.6335832    477.07829  0.036473875  0.037307123            4 
 1091000    1.0426354   -6.6084825    478.05135  0.036514769  0.037297018            3 
 1092000    1.0871119   -6.6366905    478.17956  0.036491114  0.037287199            2 
 1093000    1.0588425   -6.5903194    479.91447  0.036590002  0.037277509            2 
 1094000    1.0824734   -6.6498368    479.17746  0.036500416  0.037267604            6 
 1095000    1.1050346   -6.6149445    479.40659   0.03648452  0.037257577            3 
 1096000    1.0938743   -6.6303818    479.28311  0.036441842  0.037247698            3 
 1097000    1.0818238   -6.6002064    480.56107  0.036505703  0.037237822            2 
 1098000    1.1010717   -6.6465986     479.6742  0.036405145  0.037227954            2 
 1099000    1.0905458   -6.6637555    480.85121  0.036461269  0.037217851            2 
 1100000    1.0803721   -6.6456886    481.11745  0.036448292  0.037207651            2 
 1101000    1.0998031    -6.636321    480.18584  0.036344675  0.037197385            6 
 1102000     1.058752    -6.633627     480.3962  0.036327601  0.037187361           12 
 1103000    1.0767655    -6.662373    480.28583  0.036286328  0.037177461            7 
 1104000    1.0723263   -6.6260803    482.78288  0.036441944   0.03716736            4 
 1105000      1.09932   -6.6616756    482.31151  0.036373417  0.037157343            5 
 1106000    1.0554822   -6.6087521    483.52924  0.036432281  0.037147412            6 
 1107000    1.0734391   -6.6541547     482.0812  0.036290364  0.037137444            3 
 1108000    1.0814846   -6.6661998    483.80244  0.036387067  0.037127503            2 
 1109000    1.0794539   -6.5933671    483.80624  0.036354542  0.037117535            5 
 1110000    1.0744707   -6.6427564    484.33966  0.036361837  0.037107397            5 
 1111000    1.0738777   -6.6577983     483.9579  0.036300473  0.037097573            2 
 1112000    1.0804365   -6.6259534     485.0148  0.036347032  0.037087593            8 
 1113000    1.0963425   -6.6117062    485.24934  0.036331936  0.037077769            4 
 1114000    1.0646464   -6.6168505    484.73497  0.036260845  0.037067873            5 
 1115000    1.0768413   -6.6120838    486.38854  0.036351909  0.037058195            4 
 1116000    1.0393123   -6.6483431    485.51968  0.036254457  0.037048166            3 
 1117000    1.0807128   -6.6408742    486.40185  0.036287813  0.037038279            3 
 1118000    1.0601976   -6.6366069    486.24517  0.036243677  0.037028342            4 
 1119000    1.0658546    -6.609053    486.29274   0.03621483  0.037018349            2 
 1120000    1.0573241   -6.6515749    486.29103  0.036182369  0.037008321            2 
 1121000    1.0752391   -6.5998677    490.07459  0.036431355  0.036998664            4 
 1122000    1.0754965   -6.6262678    487.73493  0.036225114  0.036989085            5 
 1123000    1.0981571   -6.6389714    489.48036  0.036322377  0.036979153            6 
 1124000    1.0594233   -6.6240412    487.69804  0.036157921   0.03696917            3 
 1125000    1.0755236   -6.6544792    487.50219  0.036111273  0.036959154            5 
 1126000    1.0808512   -6.6423554    488.30528  0.036138638  0.036949167            3 
 1127000    1.0548116   -6.6081286    489.29037  0.036179412  0.036938884            3 
 1128000    1.0743434   -6.5958419    487.55923  0.036019447  0.036928665            3 
 1129000    1.0607822   -6.6389125    489.52457  0.036132608  0.036918375            2 
 1130000    1.0902686   -6.6314942    489.12157  0.036070913  0.036907967            1 
 1131000    1.0754128    -6.670363    489.40375   0.03605981   0.03689761            2 
 1132000     1.066111   -6.6006625    490.00848  0.036072474  0.036886838            5 
 1133000    1.0889906   -6.6756751    489.77315  0.036023326  0.036876605            1 
 1134000     1.049087   -6.6570906    490.19517  0.036022573  0.036866253            3 
 1135000    1.0744459   -6.6126311    490.90264  0.036042778  0.036856093            2 
 1136000    1.0663636   -6.6726589    490.63281  0.035991257  0.036845966            3 
 1137000    1.0680222   -6.6300052    492.20698  0.036074977  0.036835903            5 
 1138000    1.0826355   -6.6662224    491.68367  0.036004955  0.036825774            1 
 1139000    1.0642175   -6.6296648    492.31363  0.036019434  0.036815548            7 
 1140000    1.0667297    -6.644977    492.48182  0.036000133  0.036805566            5 
 1141000    1.0689805    -6.668879    492.64552  0.035980538  0.036795175            3 
 1142000    1.0558987   -6.6158308    493.61738  0.036019949   0.03678489            2 
 1143000    1.0856904   -6.6246129    494.03959  0.036019218  0.036774926            2 
 1144000    1.0456795   -6.6479108    496.16486  0.036142545  0.036764889            6 
 1145000    1.0581244   -6.6420503    494.68481  0.036003261  0.036754988            2 
 1146000    1.0441368   -6.6485298    494.64272  0.035968784  0.036744924            3 
 1147000    1.0344647   -6.6675242    495.56135  0.036004167  0.036735106            4 
 1148000    1.0764673   -6.6772756    495.00245  0.035932234  0.036725173            4 
 1149000    1.0604959   -6.6213115    496.59035  0.036016126  0.036715374            2 
 1150000    1.0854582   -6.6079505    497.34573  0.036039546   0.03670583            4 
 1151000    1.0571206   -6.6434309    497.08566  0.035989405  0.036696075            4 
 1152000    1.0500017   -6.6687059    497.51171  0.035988984  0.036686517            3 
 1153000    1.0692017    -6.644286    497.14096  0.035930974  0.036676719            4 
 1154000    1.0685507   -6.6447314    498.02865   0.03596394  0.036666869            3 
 1155000    1.0461565   -6.6664243    496.61237  0.035830618  0.036656992            7 
 1156000    1.0578441   -6.6517922    496.95154  0.035824073  0.036647191            6 
 1157000    1.0544065   -6.6285299    499.86523   0.03600297  0.036637503            2 
 1158000    1.0567497   -6.6545644    498.97169  0.035907577  0.036627744            2 
 1159000    1.0811589   -6.6308868    499.59529  0.035921433  0.036617849            3 
 1160000    1.0887675   -6.6835777    499.80352  0.035905425  0.036608165            3 
 1161000    1.0651263   -6.6525772    499.96841  0.035886334  0.036598511            4 
 1162000    1.0915461   -6.6627077    500.54706  0.035896949  0.036588563            4 
 1163000    1.0613834   -6.6659606    501.34774  0.035923455  0.036578719            5 
 1164000    1.0793741   -6.6447782    500.83386  0.035855803  0.036568844            4 
 1165000     1.081701   -6.6494068    500.11262  0.035773435  0.036558651            3 
 1166000    1.0450449   -6.6443353    501.90707  0.035871002  0.036548645            2 
 1167000    1.0941664    -6.635624    500.81176  0.035762051   0.03653862            3 
 1168000    1.0705987   -6.6982449    500.89672  0.035737494  0.036528594            3 
 1169000    1.0591214   -6.6552087    502.17034  0.035797714    0.0365184            4 
 1170000     1.067406   -6.6708873    501.50277   0.03571957  0.036508378            8 
 1171000     1.071446   -6.6397464    501.90608  0.035717768  0.036498518            3 
 1172000    1.0572949   -6.6539681    502.69345  0.035743277  0.036488521            3 
 1173000    1.0479112   -6.6734054    504.72727  0.035857294  0.036478812            6 
 1174000     1.067843   -6.6666974    501.09519  0.035568938   0.03646868            4 
 1175000    1.0681799   -6.6807125     503.7944  0.035730099  0.036458482            4 
 1176000    1.0672872   -6.6715268     503.7772  0.035698498  0.036448241            5 
 1177000    1.0566586   -6.6471558    504.03009  0.035686072  0.036438055            3 
 1178000    1.0634347    -6.626905    503.12387  0.035591672  0.036427699            2 
 1179000    1.0801678    -6.642798    505.36568  0.035719938  0.036417442            1 
 1180000    1.0803347   -6.6203839     505.3925  0.035691561  0.036407293            2 
 1181000    1.0767785   -6.6472024    504.19414  0.035576781  0.036397058            3 
 1182000    1.0538264   -6.6629537    505.14175   0.03561349  0.036386682            1 
 1183000    1.0674409   -6.6327469    506.39661  0.035671781  0.036376504            3 
 1184000    1.0668609   -6.6769538    505.00827  0.035543938   0.03636632            2 
 1185000    1.0551945   -6.6720571    506.03837  0.035586383  0.036355736            3 
 1186000    1.0524201   -6.6093076    505.93428  0.035549064  0.036345323            2 
 1187000    1.0647588   -6.6304075    507.46346  0.035626472  0.036335052            4 
 1188000    1.0753734    -6.677426    505.13864  0.035433406  0.036324755            4 
 1189000    1.0577638   -6.6588441    507.67755   0.03558155  0.036314603            3 
 1190000    1.0665528   -6.6639808    507.83007   0.03556233  0.036304358            3 
 1191000    1.0494661   -6.6523447    507.34589  0.035498593  0.036294114            2 
 1192000    1.0702341   -6.6381318    508.10452  0.035521848   0.03628372            3 
 1193000    1.0499176   -6.6802659    507.96786  0.035482527  0.036273459            1 
 1194000    1.0686592   -6.6676881    508.35777  0.035480023  0.036263161            6 
 1195000    1.0780225   -6.6527537    509.12785  0.035504034  0.036252797            4 
 1196000    1.0758215    -6.683932    508.77637  0.035449858  0.036242565            5 
 1197000    1.0436574   -6.6669309    509.70359  0.035484795   0.03623228            6 
 1198000    1.0407148   -6.6948084    510.62491  0.035519262  0.036222018            9 
 1199000    1.0636764   -6.6369561    510.63563  0.035490383  0.036212049            3 
 1200000    1.0543996   -6.6927864     510.3816  0.035443167  0.036201926            3 
 1201000    1.0741192   -6.6670065    511.05333  0.035460264  0.036191861            2 
 1202000    1.0561182   -6.6789524    512.20429  0.035510558  0.036182079            2 
 1203000    1.0482674   -6.7033872    511.51601  0.035433362  0.036172309            3 
 1204000    1.0822078   -6.6601158    513.69391  0.035554673  0.036162353            4 
 1205000    1.0615777   -6.6884701    513.58458  0.035517606  0.036152522           10 
 1206000    1.0423361   -6.6892915    514.01501  0.035517897  0.036142718            1 
 1207000    1.0650869   -6.6507102    514.48984  0.035521254  0.036133066            2 
 1208000     1.062777   -6.6792503    514.83455  0.035515629   0.03612357            1 
 1209000    1.0718955   -6.6593305    516.70227   0.03561499  0.036114135            2 
 1210000    1.0684681   -6.6541849    515.78036  0.035522064  0.036104701            2 
 1211000    1.0680353   -6.6853852    515.78292  0.035492907  0.036095186            2 
 1212000    1.0392008   -6.6546588    515.55603  0.035448022  0.036085724            3 
 1213000    1.0463111   -6.6701069    516.60558  0.035490902  0.036076229            2 
 1214000    1.0431669   -6.6702567    515.92459  0.035414922  0.036066508            5 
 1215000    1.0522078   -6.6637539     515.6206  0.035364925  0.036056773            5 
 1216000    1.0695069   -6.6494239    518.52996  0.035535222  0.036047318            5 
 1217000    1.0549797   -6.6608995    516.01248   0.03533364  0.036037626            2 
 1218000    1.0539536   -6.6878794    516.82311  0.035360092   0.03602805            2 
 1219000    1.0692049   -6.6584103    518.20993  0.035425891  0.036018355            3 
 1220000     1.065394   -6.6715866    518.85154  0.035440679  0.036008654            2 
 1221000    1.0563506   -6.6612959    518.20954  0.035367837  0.035999006            3 
 1222000    1.0423985   -6.6656013     520.1758  0.035472982  0.035989318            3 
 1223000    1.0521525   -6.6809126    518.33759  0.035318724  0.035979547            3 
 1224000    1.0540472   -6.6653512    519.04109  0.035337765  0.035969733            5 
 1225000    1.0420214   -6.6573284    518.31078  0.035259237  0.035959845            6 
 1226000     1.056967   -6.6630569    518.96894  0.035275214  0.035949951            2 
 1227000    1.0656221   -6.6717897    519.86661   0.03530743  0.035940112            2 
 1228000      1.05481   -6.6700641    520.04142  0.035290541  0.035930397            3 
 1229000    1.0692165   -6.6552302    520.78807  0.035312454  0.035920796            2 
 1230000    1.0556763   -6.6581027    521.26336  0.035315946  0.035911174            2 
 1231000    1.0718029   -6.6512453    521.73198  0.035318981  0.035901616            2 
 1232000    1.0725859   -6.6887233    519.81875  0.035160901  0.035891938            4 
 1233000    1.0279107   -6.6707785     521.4225  0.035240774  0.035882192            3 
 1234000    1.0502863   -6.6958594    521.90335  0.035244689   0.03587243            3 
 1235000    1.0420424   -6.6444235    522.09935  0.035229376  0.035862731            2 
 1236000    1.0789151   -6.6371966    522.70556  0.035241745  0.035852801            4 
 1237000    1.0407476   -6.6519593    521.94394  0.035161947  0.035842993            2 
 1238000    1.0562455   -6.6782017    522.37846  0.035162794  0.035833159            2 
 1239000     1.043737   -6.6725507    522.87282  0.035167664  0.035823216            3 
 1240000    1.0527612   -6.7043177    522.96043   0.03514519  0.035813504            4 
 1241000    1.0637673   -6.6294025    523.91322   0.03518085  0.035803666            4 
 1242000    1.0675372   -6.7048961    524.27081  0.035176517  0.035793718            5 
 1243000    1.0663105   -6.6735854    523.66261  0.035107443   0.03578393            5 
 1244000    1.0596568   -6.7036913    524.72964    0.0351507  0.035774103            2 
 1245000    1.0393892   -6.6802565    524.10014   0.03508033  0.035764301            4 
 1246000    1.0536383   -6.6639945    526.36813  0.035203861  0.035754567            3 
 1247000    1.0634853   -6.6698966    525.54566  0.035120667  0.035744922            4 
 1248000    1.0381702   -6.6650032    524.09387  0.034995584  0.035735113            2 
 1249000     1.041216   -6.6633584    525.28831  0.035047258  0.035725203            3 
 1250000    1.0430203   -6.6729592    525.03235  0.035002156  0.035715328            6 
 1251000    1.0534742   -6.6683424    525.36582  0.034996391  0.035705359            5 
 1252000    1.0653378   -6.6874937    526.21884  0.035025216  0.035695635            3 
 1253000    1.0467715   -6.6900777    526.48146  0.035014728    0.0356856            5 
 1254000    1.0406025   -6.6602558    525.85431   0.03494513  0.035675651            3 
 1255000    1.0322393   -6.6798438    527.57125  0.035031291  0.035665941            4 
 1256000    1.0750136   -6.6653747    526.99347  0.034965065  0.035656132            4 
 1257000    1.0596012   -6.6996912    528.34318  0.035026729  0.035646322            3 
 1258000    1.0373621   -6.6622252    529.56343  0.035079718  0.035636458            4 
 1259000    1.0362698    -6.708175    529.41604  0.035042099  0.035626659            4 
 1260000    1.0424097   -6.7167167    528.83287  0.034975719  0.035616783            4 
 1261000    1.0316385   -6.6502786    529.61753  0.034999837  0.035607115            3 
 1262000    1.0417747   -6.6756554     528.4558  0.034895391  0.035597328            2 
 1263000    1.0286186   -6.7255921    527.55575  0.034808376  0.035587453            5 
 1264000    1.0603849   -6.6640121     530.6163  0.034982615  0.035577627            5 
 1265000    1.0468511   -6.6621881    530.24256   0.03493034  0.035568006            2 
 1266000    1.0467698   -6.6733568    531.07755  0.034957711  0.035558333            3 
 1267000    1.0428349   -6.6775303    530.69658  0.034905063  0.035548669            8 
 1268000     1.052624   -6.6696962    532.50009  0.034996063   0.03553899            2 
 1269000    1.0463434   -6.6594964     532.3384  0.034957867  0.035529388            2 
 1270000    1.0508932    -6.687532    531.56282   0.03487945  0.035519853            4 
 1271000    1.0613912   -6.6676013    531.84201  0.034870313  0.035510021            2 
 1272000    1.0472228   -6.6909646    532.88598  0.034911293  0.035500572            3 
 1273000    1.0762144   -6.7245854    532.57281  0.034863368  0.035490999            3 
 1274000    1.0279803   -6.6935299    533.01906  0.034865192   0.03548142            7 
 1275000    1.0436544   -6.7144425    533.77774  0.034887434  0.035471966            3 
 1276000    1.0589051   -6.6979993    534.16301  0.034885254  0.035462366            3 
 1277000    1.0632572   -6.7117859     535.3664  0.034936465  0.035452908            5 
 1278000    1.0522655   -6.7072484    535.21807  0.034899457  0.035443528            3 
 1279000    1.0527403    -6.718362    533.95756  0.034790042  0.035433753            2 
 1280000    1.0376889   -6.6826259    534.55636  0.034801846  0.035423924            7 
 1281000    1.0388917   -6.6872674    535.11121  0.034810773  0.035414118            3 
 1282000    1.0524221   -6.7081515    536.46859  0.034871853  0.035404307            3 
 1283000    1.0405385   -6.7017729    535.16468  0.034759982  0.035394727            3 
 1284000    1.0340403   -6.6771018    536.71117   0.03483328  0.035385207            3 
 1285000    1.0396788   -6.6482002    536.83195  0.034814005  0.035375599            4 
 1286000    1.0578628   -6.6588817    537.17379  0.034809085  0.035366085            2 
 1287000    1.0463006   -6.6685152    537.65116  0.034812948  0.035356737            7 
 1288000    1.0623536   -6.7073959    535.39607  0.034640015  0.035347127            2 
 1289000    1.0422434   -6.6913549    536.25857  0.034668901  0.035337242            4 
 1290000    1.0370341   -6.7047866    537.12719  0.034698139  0.035327398            4 
 1291000    1.0656858   -6.6915107    535.22067  0.034548197  0.035317485            4 
 1292000    1.0289658   -6.6963124    539.04764  0.034768294  0.035307951            3 
 1293000    1.0521476   -6.6927061    540.16221  0.034813238  0.035298631            2 
 1294000    1.0426783   -6.6871479     539.4118  0.034738008  0.035289204            6 
 1295000     1.030158   -6.7210807    538.45603   0.03464968  0.035279619            3 
 1296000    1.0226873   -6.7233215    539.27055  0.034675318  0.035270073            5 
 1297000    1.0554584   -6.7078225    540.02799  0.034697249  0.035260562            5 
 1298000    1.0128853   -6.7171155    540.82266  0.034721537  0.035251088            5 
 1299000     1.034836   -6.6837771    542.87155  0.034826248  0.035241643            3 
 1300000    1.0422534   -6.7330287    539.95738  0.034612652  0.035232276            2 
 1301000    1.0506813   -6.6592559    542.90274  0.034774708  0.035222698            6 
 1302000    1.0477985   -6.6704863    542.17045   0.03470113  0.035213233            2 
 1303000    1.0497389   -6.6920715    539.84661  0.034525877  0.035203507            4 
 1304000    1.0542715   -6.7270319    542.24048  0.034652382  0.035193644            2 
 1305000    1.0578969   -6.6741151    542.73736  0.034657558   0.03518408            2 
 1306000    1.0282954   -6.6928249    541.76242  0.034568812  0.035174288            6 
 1307000    1.0363361   -6.6983112    543.64064  0.034662117  0.035164624            9 
 1308000    1.0569187   -6.6838216    542.47087   0.03456109  0.035155071            2 
 1309000    1.0244797   -6.6946169     544.4021  0.034657633  0.035145531            5 
 1310000    1.0411801   -6.7187672    542.24881  0.034494199  0.035135987            5 
 1311000    1.0512547   -6.7144926    544.00612  0.034579591  0.035126247            7 
 1312000    1.0552213   -6.6789964    544.80624  0.034604055  0.035116864            6 
 1313000    1.0294371   -6.7002664    546.22334   0.03466764  0.035107674            2 
 1314000    1.0456625   -6.6924584    547.38887  0.034715174  0.035098632            3 
 1315000   0.99891472   -6.6979797    546.43655  0.034628425  0.035089586            3 
 1316000    1.0132922   -6.6867249    545.05527  0.034514645  0.035080401            2 
 1317000    1.0397639   -6.7083688    546.80596  0.034599213  0.035071158           12 
 1318000    1.0277069   -6.7005363    548.57718  0.034684951  0.035062141            5 
 1319000    1.0529422   -6.6808777    548.85532  0.034676227  0.035053261            3 
 1320000    1.0252142   -6.6732001    548.70038  0.034640176  0.035044447            4 
 1321000    1.0466883   -6.7073663     548.3258  0.034590323   0.03503569            3 
 1322000    1.0311282    -6.688203     550.3069  0.034689038  0.035026688            5 
 1323000    1.0645018   -6.6822121    549.49086  0.034611417  0.035017558            1 
 1324000    1.0376828   -6.6976385    548.15969  0.034501491   0.03500844            3 
 1325000    1.0559254   -6.6784062    548.22083  0.034479297  0.034999212            4 
 1326000    1.0361561   -6.6929916    550.86943  0.034619748  0.034990305            4 
 1327000    1.0441222   -6.7003369    550.34549  0.034560757  0.034981295            7 
 1328000    1.0223375   -6.7014531    548.34694  0.034409321  0.034972336            3 
 1329000    1.0427927   -6.6970703    551.45613  0.034578388  0.034963049            3 
 1330000    1.0443708   -6.7233605    551.90972   0.03458081  0.034954041            2 
 1331000    1.0455705   -6.7136896    551.01617  0.034498884  0.034945212            3 
 1332000    1.0192505   -6.6879799    553.02716  0.034598796  0.034936514            4 
 1333000    1.0230075   -6.7042849    553.40209  0.034596279  0.034927644            2 
 1334000    1.0512471    -6.705866    552.20177  0.034495363  0.034918906            9 
 1335000    1.0378148   -6.6919754    552.93113  0.034515052  0.034909982            3 
 1336000    1.0294659   -6.6781988     552.9515  0.034490488  0.034901209            4 
 1337000    1.0163019   -6.7152631    553.22133  0.034481509  0.034892367            3 
 1338000    1.0461857   -6.7507803    554.48033  0.034534151  0.034883674            2 
 1339000      1.01369   -6.7300604     555.5723  0.034576319  0.034874897            2 
 1340000    1.0539669   -6.7144177    553.96644  0.034450649  0.034866163            2 
 1341000    1.0302519   -6.6931642    555.89645  0.034544895    0.0348576            4 
 1342000    1.0390509   -6.7040894    555.80528  0.034513492  0.034849001            2 
 1343000    1.0396261   -6.7248029    555.37884  0.034461333  0.034840554            2 
 1344000    1.0501317   -6.7037992    555.79069  0.034461228  0.034831861            1 
 1345000    1.0322371   -6.7172393    558.10289  0.034578866  0.034823372            2 
 1346000    1.0416522   -6.7062571    557.40473  0.034509951  0.034814801            3 
 1347000    1.0306969   -6.6854877    558.16938  0.034531637  0.034806321            2 
 1348000    1.0282943   -6.7475907    554.68844  0.034290828  0.034797591            3 
 1349000    1.0490763   -6.7222408    557.14579   0.03441721  0.034788972            7 
 1350000    1.0748251    -6.715763    558.35838  0.034466567   0.03478039            2 
 1351000    1.0355925   -6.7061836    559.26816  0.034497172  0.034771871            1 
 1352000    1.0404869   -6.7065763    559.45523  0.034483188   0.03476328            3 
 1353000    1.0356116    -6.731333    558.16351  0.034378141  0.034754574            2 
 1354000    1.0518708   -6.7038498     559.9671  0.034463756  0.034745992            3 
 1355000    1.0293956   -6.7097759    558.93224  0.034374676  0.034737643           15 
 1356000    1.0435344   -6.7192565    558.74629  0.034337899  0.034729284            3 
 1357000    1.0330821   -6.7489845    559.24927  0.034343482   0.03472081            4 
 1358000    1.0379018   -6.7392168    559.73187  0.034347807  0.034712257            3 
 1359000    1.0640398   -6.7477391    559.52099  0.034309602  0.034703566            2 
 1360000    1.0360493    -6.730152    561.22677  0.034388895  0.034694721            3 
 1361000    1.0289047   -6.7189867    561.43518  0.034376389  0.034685989            4 
 1362000    1.0308034   -6.6755212    562.07392   0.03439023  0.034677573            3 
 1363000    1.0363926   -6.7098844    561.53406  0.034331992  0.034669019            5 
 1364000    1.0230844   -6.7015689    561.51555  0.034305691  0.034660483            2 
 1365000    1.0062592   -6.6692597    562.38309  0.034333522  0.034652041            2 
 1366000    1.0273304   -6.6821666    562.35684  0.034306786  0.034643451            3 
 1367000    1.0280411   -6.6930904    563.86546  0.034373657  0.034634904            9 
 1368000    1.0314501   -6.6975773    562.22011  0.034248301  0.034626279            2 
 1369000    1.0555965   -6.7136133    564.56101  0.034365778  0.034617716            3 
 1370000    1.0254771    -6.718745    565.00061  0.034367434  0.034608957            1 
 1371000    1.0447146   -6.6789505    564.23781  0.034296001  0.034600485            4 
 1372000    1.0539468   -6.7285594    564.12435  0.034264113  0.034591884            5 
 1373000    1.0105259   -6.7137876    563.40482  0.034195486  0.034583196            3 
 1374000    1.0356819    -6.757804    562.76585  0.034131845  0.034574349            6 
 1375000    1.0243238   -6.7172107    564.57786   0.03421684  0.034565457            3 
 1376000    1.0314415    -6.710631    564.75801  0.034202883  0.034556683            2 
 1377000    1.0377546   -6.7421462    563.04244  0.034074222  0.034547944            4 
 1378000    1.0382135   -6.7394794    564.49303  0.034137218  0.034539125            1 
 1379000    1.0263807   -6.7014025    565.81074  0.034192092  0.034530535            2 
 1380000    1.0206093   -6.7232587    566.80934  0.034227617  0.034522011            4 
 1381000    1.0363644   -6.7248951     565.5544  0.034127106  0.034513338           12 
 1382000    1.0076694   -6.7046143    566.71831  0.034172595  0.034504617            2 
 1383000    1.0235552   -6.7518068    565.63476  0.034082596  0.034495989            5 
 1384000     1.047139   -6.7503872    567.24415  0.034154874  0.034487298            4 
 1385000    1.0428902   -6.7294008    569.06031  0.034239489   0.03447862            4 
 1386000    1.0494682   -6.7371406    571.09998   0.03433742  0.034470145            5 
 1387000    1.0266261   -6.7507067    566.63862  0.034044618  0.034461403            3 
 1388000    1.0239695   -6.6796423    567.58059  0.034076644  0.034452673            6 
 1389000   0.99892372   -6.7411657    567.78736  0.034064517  0.034444034            3 
 1390000    1.0346865   -6.7265616    567.27992  0.034009588  0.034435188            5 
 1391000    1.0198957   -6.7284569    567.44779  0.033995194  0.034426323            3 
 1392000    1.0143407   -6.7434822    569.10651  0.034070074  0.034417517            2 
 1393000    1.0110582   -6.6975151    569.97765  0.034097729  0.034408674            1 
 1394000    1.0481571   -6.7485927    568.52352  0.033986342  0.034399991            3 
 1395000    1.0425616   -6.7325227    569.53674  0.034022505  0.034391173            9 
 1396000    1.0246405   -6.7247091    569.29001  0.033983406  0.034382442            3 
 1397000     1.050272   -6.7506152    567.38987  0.033845733  0.034373464            8 
 1398000    1.0228269   -6.7003999    570.18946  0.033988404  0.034364452            4 
 1399000     1.057313   -6.7042021    571.43147  0.034038091  0.034355624            6 
 1400000    1.0202741   -6.7587406    570.63542  0.033966394  0.034346854            1 
 1401000    1.0101054   -6.7112939    570.12278  0.033911657  0.034338042            2 
 1402000    1.0266822   -6.7252535    573.30338   0.03407652   0.03432929            9 
 1403000    1.0303046   -6.7283507    571.45934  0.033942703  0.034320451            4 
 1404000    1.0218277   -6.7095443    571.30727  0.033909501  0.034311698            5 
 1405000     1.010318   -6.7100196     573.2631   0.03400137   0.03430293            6 
 1406000    1.0142143   -6.7045685    572.28252  0.033919068  0.034294248            2 
 1407000     1.027645   -6.7607635    571.42636  0.033844252  0.034285315            3 
 1408000    1.0120562   -6.7260075    571.50475  0.033824855  0.034276265            3 
 1409000    1.0457746   -6.7377775    572.18424  0.033841036    0.0342674            4 
 1410000    1.0064872   -6.7181088    573.55429  0.033898007  0.034258516            4 
 1411000    1.0226527   -6.7423079    573.58745  0.033875942   0.03424967            2 
 1412000    1.0375367   -6.7353146     572.2024  0.033770208  0.034240858            4 
 1413000    1.0237218   -6.7220082    575.03153  0.033913159  0.034232125            3 
 1414000    1.0485996   -6.7431537    574.37221  0.033850319  0.034223403            5 
 1415000    1.0231657   -6.7417255    574.05412  0.033807663  0.034214416            3 
 1416000    1.0432588   -6.7266002    578.07177  0.034020232  0.034205637            2 
 1417000     1.022633   -6.7292515    573.92522  0.033752365  0.034196918            3 
 1418000    1.0395096   -6.7288597    575.99456  0.033850174   0.03418814            2 
 1419000    1.0211287   -6.7326631     576.1204  0.033833709  0.034179528            2 
 1420000    1.0208982   -6.7161037    576.95632  0.033858939  0.034170818            3 
 1421000    1.0202095   -6.7051193    577.28299  0.033854269  0.034162097            3 
 1422000    1.0343848   -6.7298513    577.09095  0.033819207  0.034153411            4 
 1423000    1.0158094    -6.739794    577.04565  0.033792788  0.034144723            3 
 1424000     1.027492   -6.7194355    576.04329  0.033710398   0.03413607            3 
 1425000    1.0536449   -6.7112588    578.21479   0.03381373  0.034127312            4 
 1426000     1.016735   -6.6983826    579.32688  0.033855007  0.034118666            3 
 1427000    1.0320159   -6.6915362    578.79829  0.033800414   0.03411001            4 
 1428000    1.0111532   -6.7522555     577.9564  0.033727614  0.034101328            2 
 1429000    1.0150209   -6.7025216     579.4531  0.033791293  0.034092652            2 
 1430000    1.0322877   -6.7452241    578.82204  0.033730888  0.034083922            3 
 1431000    1.0576687   -6.7384557    578.79546  0.033705769  0.034075136            3 
 1432000    1.0322264   -6.7593865     579.8186  0.033741771  0.034066392            5 
 1433000    1.0169047   -6.6762343    579.25017  0.033685169  0.034057654            1 
 1434000    1.0169402   -6.7355274    580.27766  0.033721389  0.034049022           10 
 1435000    1.0507125   -6.7492946     580.2476  0.033696144   0.03404046            4 
 1436000    1.0092496   -6.7298811    581.52792  0.033746977  0.034031859            3 
 1437000     1.037266   -6.7589708    580.78981   0.03368069  0.034023177            5 
 1438000    1.0283372   -6.6907405    582.64341  0.033764685  0.034014609            3 
 1439000    1.0357448   -6.7313602    580.61224  0.033623595  0.034006085            3 
 1440000    1.0261082   -6.7698132    581.51923  0.033652733  0.033997381            2 
 1441000    1.0467535   -6.7445782    579.97894  0.033540304    0.0339886            9 
 1442000    1.0033349   -6.7454445    582.61757  0.033669531  0.033979837            5 
 1443000    1.0162874    -6.753604     582.8671  0.033660609  0.033971152            3 
 1444000    1.0149577    -6.723675    583.30509  0.033662575  0.033962572            6 
 1445000    1.0323387   -6.7505373    582.96988  0.033619947  0.033954026            4 
 1446000    1.0417384   -6.7337544     584.1656  0.033665607  0.033945386            3 
 1447000    1.0231897   -6.7411819    583.36928   0.03359648  0.033936657            3 
 1448000    1.0542885   -6.7612313    583.71486  0.033593167  0.033928013            3 
 1449000    1.0228173   -6.7249204    583.28326  0.033545161  0.033919415            3 
 1450000    1.0054367    -6.747464    585.83478  0.033668666  0.033910896            8 
 1451000    1.0458556   -6.7361753    583.86439  0.033532299  0.033902367            4 
 1452000    1.0107714   -6.7232784    586.66526  0.033669953  0.033893916            4 
 1453000    1.0303393   -6.7155214    586.84679  0.033657191  0.033885477            2 
 1454000    1.0260615   -6.7549794    585.68269  0.033567325  0.033877035            3 
 1455000   0.99771583   -6.7722791     586.7693  0.033606489  0.033868417            4 
 1456000    1.0131918   -6.7414229    587.10035  0.033602355  0.033859814            4 
 1457000    1.0275654   -6.7495723    585.86124  0.033508421  0.033851357            4 
 1458000    1.0165816   -6.7190069    587.19522  0.033561684  0.033842764            5 
 1459000    1.0401116   -6.7453242    586.67151  0.033508768  0.033834398            6 
 1460000    1.0134683   -6.7539325    587.99902  0.033561588  0.033826097            5 
 1461000    1.0052812   -6.7456154    587.64849  0.033518622  0.033817579            2 
 1462000    0.9936679   -6.7331023    588.55993  0.033547648   0.03380913           10 
 1463000    1.0311883   -6.7330807     590.7133  0.033647374   0.03380066            3 
 1464000    1.0102135    -6.714448    588.25104  0.033484235  0.033792124            5 
 1465000     1.010057   -6.7638492    587.90351   0.03344161  0.033783571            3 
 1466000    1.0016678   -6.7091008    587.77545   0.03341152  0.033774962            2 
 1467000    1.0449346   -6.7217529    588.62663  0.033437095  0.033766391            4 
 1468000    1.0358309   -6.7418602    588.59627  0.033412595  0.033757709            7 
 1469000    1.0027343   -6.7755487    589.83485  0.033460112   0.03374904            2 
 1470000    1.0041838   -6.7304639    591.30826  0.033520877  0.033740486            5 
 1471000     1.018139   -6.7265335    591.68071  0.033519188  0.033731973            3 
 1472000    1.0168718   -6.7574957    590.70514  0.033441188  0.033723317            3 
 1473000    1.0290911    -6.725368     590.3819  0.033400198  0.033714647            5 
 1474000    1.0071508   -6.7455087    590.09336  0.033361226   0.03370602            4 
 1475000   0.99346037   -6.7612125    591.42848  0.033414038  0.033697414            2 
 1476000    1.0101271    -6.766021    590.22436  0.033323417  0.033688681            6 
 1477000    1.0075205   -6.7484134    591.55184  0.033375752  0.033680149            5 
 1478000    1.0133939   -6.7430027     591.4503  0.033347446  0.033671518            3 
 1479000    1.0005882    -6.777209    591.51343  0.033328456  0.033662837            3 
 1480000    1.0219728   -6.7504205    591.50225  0.033305307  0.033654186            3 
 1481000    1.0221651   -6.7433436    593.77194   0.03341053  0.033645631            4 
 1482000    1.0190344   -6.7675818     592.6164   0.03332301  0.033637061            5 
 1483000    1.0209288   -6.7497086    595.43737  0.033459057  0.033628465            3 
 1484000    1.0051835   -6.7685556    593.75305  0.033341928  0.033620001            3 
 1485000    1.0125897   -6.7453443    594.70553  0.033372925  0.033611548            9 
 1486000   0.99846656   -6.7142672     595.2936  0.033383446  0.033603353            6 
 1487000    1.0362137   -6.7033448    596.87559  0.033449652  0.033595145            4 
 1488000    1.0144448    -6.771701    595.66715  0.033359496  0.033586823            2 
 1489000    1.0077633   -6.7759196    596.29102  0.033372007  0.033578569            2 
 1490000     1.007039   -6.7569554     595.2209   0.03328976  0.033570279            2 
 1491000    1.0183229   -6.7433826    598.28011  0.033438414  0.033562027            5 
 1492000    1.0091559   -6.7485213    597.44313  0.033369254  0.033553788           10 
 1493000     1.014307    -6.739333    596.20498  0.033277795  0.033545554            5 
 1494000    1.0100524   -6.7621341    596.21101  0.033255858  0.033537115            3 
 1495000     1.020735   -6.7435563     595.8761  0.033214944  0.033528845            8 
 1496000    1.0208669   -6.7402454    596.82309  0.033245493  0.033520672           12 
 1497000    1.0161107   -6.7201977    599.81294   0.03338972  0.033512497            3 
 1498000    1.0238169   -6.7180007    600.89051  0.033427376  0.033504386            1 
 1499000    1.0160091    -6.760059     598.9596  0.033297732  0.033496289            7 
 1500000    1.0228177   -6.7197714    600.29482  0.033349712  0.033488137           13 
 1501000    1.0112336   -6.7595801    599.14575  0.033263699  0.033479812            2 
 1502000    1.0091484   -6.7720371    599.15501  0.033242067  0.033471662            2 
 1503000   0.99170601   -6.7624879    600.82615  0.033312605  0.033463468            4 
 1504000     1.020351   -6.7517863    599.50658  0.033217342  0.033455424            2 
 1505000    1.0027272   -6.7526471    600.16394  0.033231669  0.033447356            3 
 1506000    1.0008144     -6.75664    601.34838  0.033275143  0.033439182            3 
 1507000     1.010361   -6.7427852    601.97406  0.033287661  0.033431065            4 
 1508000    1.0095393   -6.7713772    601.47133  0.033237806  0.033422938            3 
 1509000   0.99933135    -6.782649    599.81063  0.033124068  0.033414747            3 
 1510000    1.0069606   -6.7688325    599.54613  0.033087535  0.033406543            4 
 1511000    1.0050041   -6.7545931    602.78672  0.033244359  0.033398266            3 
 1512000     1.006921   -6.7453548    603.57958   0.03326607  0.033390179            4 
 1513000   0.99600655   -6.7525636    602.92137   0.03320783  0.033382154            2 
 1514000    1.0001336   -6.8074262     601.4698     0.033106  0.033373949            6 
 1515000   0.99074538   -6.7699687    602.59481  0.033146029  0.033365828            2 
 1516000    1.0228416   -6.8000127    601.26023  0.033050804  0.033357586            5 
 1517000    1.0445959   -6.7227981    604.35914   0.03319925  0.033349409            4 
 1518000   0.99724883   -6.7736564    604.53977  0.033187295  0.033341292            2 
 1519000   0.99581091   -6.7675789    604.44217  0.033160093  0.033333181            5 
 1520000   0.99136341   -6.7556083     605.5322  0.033198038  0.033325066            4 
 1521000    1.0191138    -6.781808    604.26389  0.033106722  0.033316967            6 
 1522000   0.99085382   -6.7851058    605.67467  0.033162214  0.033308884            4 
 1523000    1.0167069   -6.7678253    606.02343  0.033159522  0.033300787            5 
 1524000   0.98829456   -6.7766207    606.76162  0.033178129  0.033292769            3 
 1525000   0.99880109   -6.7547375    608.30257  0.033240578  0.033284819            3 
 1526000    1.0082478   -6.7970704    604.61763  0.033017564  0.033276772            3 
 1527000    1.0210059    -6.777696    605.20855   0.03302819  0.033268531            2 
 1528000    1.0111228   -6.7889599    606.42079  0.033072687  0.033260345            3 
 1529000    1.0160812   -6.7379487    607.16797  0.033091779  0.033252293            3 
 1530000    1.0109084   -6.7723999     606.4979  0.033033655  0.033244182            5 
 1531000    1.0094722    -6.775966    606.67611  0.033021778  0.033236022            4 
 1532000     1.016726   -6.7779431    607.05838  0.033021017  0.033227988            2 
 1533000    1.0104325   -6.7673823     608.0909  0.033055604   0.03321981            3 
 1534000    1.0085179   -6.7704619    608.63718  0.033063732  0.033211738            3 
 1535000    1.0143163   -6.7648541    607.45297  0.032977903  0.033203632            4 
 1536000    1.0134738    -6.776353    608.53825  0.033015313  0.033195448            3 
 1537000    1.0049184   -6.7643493     609.7583  0.033059982  0.033187365            2 
 1538000    1.0124075   -6.7693829    608.66973  0.032979504  0.033179143            4 
 1539000   0.98698406   -6.7700725    609.45155  0.033000409  0.033170831            2 
 1540000    1.0211197   -6.7567815    608.67364  0.032936885  0.033162571            5 
 1541000    1.0391814     -6.75758    610.07619  0.032991358  0.033154354            3 
 1542000    1.0190962   -6.7458691    608.97196  0.032910287   0.03314604            2 
 1543000    1.0082499   -6.7723653    608.55326  0.032866346  0.033137744            5 
 1544000    0.9719247   -6.7633247    609.63866  0.032903641  0.033129431            5 
 1545000   0.99199934   -6.7953294    609.13291  0.032855065  0.033121193            3 
 1546000    1.0098727   -6.7445193    612.11422  0.032994514  0.033112955            6 
 1547000   0.98857188   -6.7495604     612.4688  0.032992286  0.033104866            5 
 1548000   0.99746724   -6.7669517    611.01535   0.03289273  0.033096637            6 
 1549000   0.99643515   -6.8053041    610.70096  0.032854581  0.033088442            2 
 1550000    1.0023924   -6.7643363    611.03513  0.032851351  0.033080064            6 
 1551000    1.0053364   -6.7637124    611.16444  0.032837118  0.033071801            3 
 1552000    1.0258171   -6.7828289     613.6302  0.032948357  0.033063524            6 
 1553000    1.0054212   -6.7802745    612.57512  0.032870526  0.033055313            3 
 1554000   0.99073264   -6.8180618     611.1118  0.032770903   0.03304703            6 
 1555000    1.0060625   -6.7490246    613.65103  0.032885907  0.033038603            9 
 1556000    1.0089201   -6.7842509    613.05779  0.032833001  0.033030445            7 
 1557000   0.98847398   -6.7372255    612.53408  0.032783884  0.033022121            4 
 1558000    1.0032429   -6.7697151    613.83734  0.032832549  0.033013952            3 
 1559000   0.98193594     -6.76114    614.03204  0.032821896  0.033005697            2 
 1560000    1.0171395   -6.7611501    612.71542  0.032730524  0.032997521            3 
 1561000   0.99901964   -6.7795495    613.97647  0.032776878   0.03298932            3 
 1562000     1.007999   -6.7735535    615.05097  0.032813218  0.032981178            4 
 1563000    1.0052223   -6.7824976    616.57575   0.03287352   0.03297297            2 
 1564000    1.0042103   -6.8055079    614.35524  0.032734188   0.03296493            5 
 1565000    1.0133469   -6.7510623    614.86099  0.032740202  0.032956889            2 
 1566000   0.98106277   -6.7916762    615.64358   0.03276094  0.032948858            5 
 1567000   0.99822991   -6.7822599    616.90707  0.032807225  0.032940762            3 
 1568000   0.99822787   -6.7708779    617.39326  0.032812142  0.032932723            4 
 1569000   0.99577632   -6.7856461    616.98236  0.032769405  0.032924682           11 
 1570000   0.98236235   -6.7910531    616.35511  0.032715239   0.03291666            6 
 1571000   0.98061731   -6.7774192    618.49089  0.032807707  0.032908684            3 
 1572000    1.0053848   -6.7881527    617.99022  0.032760296  0.032900859            2 
 1573000    1.0089562   -6.8020552    619.28907  0.032808279  0.032892899            9 
 1574000    1.0102094   -6.8011412    617.23098  0.032678472   0.03288472            4 
 1575000   0.99580257   -6.8011045    616.96226  0.032643506  0.032876534            6 
 1576000    0.9809279   -6.7547095    618.66333  0.032712739  0.032868382            3 
 1577000    1.0013545   -6.7641496     619.5202  0.032737275  0.032860267            2 
 1578000    1.0192449   -6.7804445    618.89232  0.032683372  0.032852187            3 
 1579000    1.0034101   -6.7948352    619.24265  0.032681161  0.032843891            6 
 1580000   0.98339869   -6.7892446    617.93401  0.032591456  0.032835718            7 
 1581000    1.0133705   -6.8052223    617.78942  0.032563221  0.032827508            2 
 1582000    1.0009627   -6.7695309    619.22817  0.032618424  0.032819265            3 
 1583000   0.99515805   -6.7997502    619.75547  0.032625577  0.032811033            3 
 1584000    0.9904425   -6.7691322    620.52588  0.032645511  0.032802828            2 
 1585000   0.97894334   -6.8071649    619.68861  0.032580894   0.03279469            4 
 1586000   0.99801636   -6.7592275     620.1882  0.032586601  0.032786424            4 
 1587000   0.99252691   -6.7986004     620.5489  0.032585008  0.032778209            3 
 1588000    1.0024532   -6.7691971     623.5121  0.032719989  0.032770114           17 
 1589000   0.98427028   -6.7852742    620.47843    0.0325403  0.032762093            4 
 1590000    1.0015434   -6.7996564    622.69739  0.032636132  0.032754115            3 
 1591000   0.98675622   -6.8059742    622.82733  0.032622424  0.032746121            3 
 1592000     1.000314   -6.7984758    622.29887  0.032574271  0.032738009            4 
 1593000    1.0096267   -6.8150175    621.61336  0.032517962   0.03272995            2 
 1594000     1.009528   -6.7838131     624.0798  0.032626505   0.03272187            2 
 1595000    1.0069798   -6.7738757    621.99348  0.032497047  0.032713781            4 
 1596000   0.98721215   -6.7754092    623.51708  0.032556238  0.032705711            2 
 1597000   0.99662194   -6.7877784    624.55804  0.032590171  0.032697623            2 
 1598000    1.0037037   -6.7852847    622.48832  0.032461844  0.032689538            5 
 1599000    1.0118539   -6.8023472    623.95955  0.032518217  0.032681372            3 
 1600000     1.009596   -6.8072869    624.85891  0.032544735  0.032673099            3 
 1601000    1.0092173   -6.7966651    623.08588  0.032432119  0.032664758            7 
 1602000   0.96537051   -6.7774075    625.88803  0.032557638  0.032656607            4 
 1603000    1.0203737   -6.7766779    624.88468  0.032485167  0.032648504            2 
 1604000    1.0091864   -6.7976156    626.11043  0.032528597  0.032640474            4 
 1605000   0.97147588   -6.7939029    624.36929  0.032417928  0.032632378            4 
 1606000   0.99477897   -6.8075712    624.55628  0.032407445  0.032624303            5 
 1607000   0.99497851   -6.8466781    624.91906  0.032406091  0.032616182            5 
 1608000    1.0081258   -6.7978201    625.77699  0.032430399  0.032608036            4 
 1609000   0.98813025   -6.7642523     628.9301   0.03257355  0.032600025            5 
 1610000    1.0038519   -6.7561805    628.01386  0.032505893  0.032592072            5 
 1611000    1.0028189   -6.8252732    626.11924  0.032387711  0.032583883            5 
 1612000   0.97575798   -6.7493582    626.92996  0.032409531  0.032575576            4 
 1613000   0.99103595   -6.8196438    625.98422  0.032340578  0.032567432            4 
 1614000   0.98946475   -6.7875826    627.53849  0.032400789  0.032559199            3 
 1615000   0.97467401   -6.7817315    625.12191  0.032256032  0.032550953            3 
 1616000   0.99470141   -6.8317257    626.92885  0.032329252  0.032542667            4 
 1617000   0.97273219   -6.8049667    629.47698  0.032440578  0.032534539            6 
 1618000    1.0095774   -6.8018885    627.13827  0.032300076  0.032526502            4 
 1619000    1.0039764   -6.8122205    627.60637  0.032304219  0.032518313            3 
 1620000   0.98119793   -6.7991179    630.12005  0.032413583  0.032510176            3 
 1621000   0.97347945   -6.7682123    630.25049  0.032400293   0.03250205            3 
 1622000   0.98276677   -6.7728123    628.68971  0.032300129  0.032493906            2 
 1623000    1.0001465   -6.8158853    628.42162  0.032266463  0.032485729            2 
 1624000     1.006354   -6.8095788     630.6787  0.032362413  0.032477541            2 
 1625000   0.99065019   -6.8259244    630.30258  0.032323209   0.03246931            4 
 1626000   0.98720696   -6.8086303    629.75558  0.032275296  0.032461133            3 
 1627000   0.98719247   -6.7992612    631.10877  0.032324768  0.032453076            2 
 1628000    1.0192585   -6.7616941    632.43852  0.032372979  0.032445099            5 
 1629000   0.97976021   -6.8017036    631.30985  0.032295368  0.032437099            2 
 1630000   0.99875063    -6.769905    630.39119  0.032228588  0.032429068            3 
 1631000    1.0039362   -6.8006461    632.86905  0.032335431  0.032421065            4 
 1632000   0.99572728   -6.8035093    632.82256  0.032313244   0.03241315            7 
 1633000   0.98697239   -6.7910103    633.49561  0.032327802  0.032405343            4 
 1634000   0.99538606   -6.8084165    633.18305  0.032292077  0.032397398            2 
 1635000   0.98217948   -6.7966139     635.5146  0.032391162  0.032389496            3 
 1636000   0.97641046   -6.7857806    633.92305  0.032290294  0.032381607            4 
 1637000    1.0001894   -6.8046251    633.79313  0.032263955  0.032373657            5 
 1638000   0.99412917   -6.7886039    635.57129  0.032334722  0.032365608            1 
 1639000   0.98579811   -6.8052095    636.44583  0.032359459    0.0323577            3 
 1640000   0.98001593   -6.7771803    635.25707  0.032279323  0.032349862           15 
 1641000    1.0023441   -6.7988158    636.65751  0.032330769  0.032342205            4 
 1642000    1.0132822    -6.790205      636.797  0.032318159  0.032334415            2 
 1643000   0.99526386   -6.7668535    634.28024  0.032170838   0.03232649            5 
 1644000   0.99194951   -6.7900239    635.74737  0.032225637  0.032318638            9 
 1645000   0.99572006   -6.7803892     635.4611  0.032191545  0.032310806            6 
 1646000   0.99107752     -6.81709    637.10133  0.032255029  0.032302936            2 
 1647000    1.0108605   -6.8082703    637.01277  0.032230964  0.032295038            4 
 1648000   0.97112078   -6.8047923    637.78931  0.032250673  0.032287124            8 
 1649000   0.99048722   -6.8111798    637.15295  0.032198956  0.032279304            3 
 1650000   0.98877556   -6.7908805    637.79407  0.032211822  0.032271434            6 
 1651000   0.99917957   -6.7877443    635.11728  0.032057202  0.032263588            3 
 1652000   0.99568124   -6.8154792     639.0935  0.032238373  0.032255722            3 
 1653000   0.99755571   -6.8185624    636.94706   0.03211066  0.032247809            3 
 1654000   0.98358924   -6.8226433    638.74213  0.032181688  0.032239865            5 
 1655000   0.98512869   -6.7981637    638.88772  0.032169573  0.032232015            2 
 1656000   0.99425169   -6.7859204    640.08698  0.032210496  0.032223995            8 
 1657000   0.96811935   -6.8226875    637.55642  0.032063791  0.032216127            3 
 1658000   0.98035854   -6.7818591    639.07989  0.032121024  0.032208276            5 
 1659000   0.98188759   -6.8119068    637.23658  0.032009071    0.0322002            2 
 1660000   0.98891004   -6.8502304    637.18154  0.031987025  0.032192049            3 
 1661000   0.98148104   -6.7762744    639.70382  0.032094312  0.032183854            4 
 1662000   0.98842774   -6.8232108    639.26966  0.032053232  0.032175806            4 
 1663000    0.9699019   -6.8008054    639.39571  0.032040274  0.032167674            6 
 1664000   0.99038302   -6.7942208     639.7544  0.032038982  0.032159517            3 
 1665000   0.99209033   -6.8167737    638.70453  0.031967193  0.032151286            2 
 1666000   0.99878043   -6.7872136    639.76084  0.032000842  0.032143079            2 
 1667000   0.97059978   -6.7991476    639.34821  0.031961018  0.032135095            3 
 1668000   0.97276696   -6.8449677    638.45974  0.031897469  0.032127039            4 
 1669000    1.0040471   -6.8416236     638.4555  0.031878145  0.032118867            3 
 1670000   0.98316169   -6.7824735     640.6435  0.031968239  0.032110956            2 
 1671000   0.98598309   -6.7692279    644.29271  0.032131095  0.032103043            6 
 1672000   0.97208374   -6.8077111    640.36007  0.031915873   0.03209506            4 
 1673000   0.98373419   -6.8141228    641.03383  0.031930356  0.032086963            2 
 1674000   0.98446911   -6.8268874    642.29826  0.031974226  0.032078822            6 
 1675000   0.99249406   -6.8070206    642.34808  0.031957616  0.032070652            4 
 1676000   0.97297657   -6.7944943    644.06785  0.032024058  0.032062442            8 
 1677000    1.0206632   -6.8332771    640.98937  0.031851986   0.03205423            6 
 1678000   0.97900139   -6.8212287    642.45163  0.031905623  0.032046006            2 
 1679000   0.97576109   -6.8192813    642.81424  0.031904618  0.032037773            4 
 1680000   0.96516385   -6.8207718    641.30786  0.031810906  0.032029672            7 
 1681000   0.98421002   -6.8224211    642.95378  0.031873576  0.032021536            3 
 1682000   0.99201951   -6.8118441    644.06594  0.031909728  0.032013356            5 
 1683000   0.98626846    -6.802128    644.29258  0.031901989  0.032005267           14 
 1684000   0.98218433   -6.8431717    642.99444  0.031818807   0.03199714            4 
 1685000   0.98567094   -6.7993716    644.61433  0.031880036  0.031989115            6 
 1686000   0.97883853   -6.7905824    645.06113  0.031883211  0.031981072            2 
 1687000   0.96976774   -6.8138911    643.17231  0.031771009  0.031972949            4 
 1688000   0.96494963   -6.8251457    644.74237  0.031829698   0.03196479            3 
 1689000   0.97152982   -6.7987013    644.00604  0.031774523  0.031956742            6 
 1690000   0.98551108   -6.8247603    646.69972  0.031888546  0.031948658            3 
 1691000   0.99416717   -6.7948795    644.80622  0.031776376  0.031940651            1 
 1692000   0.95344829   -6.7760572    646.54369  0.031843168  0.031932539            3 
 1693000   0.97130239     -6.82593    644.39274  0.031718485  0.031924322            5 
 1694000   0.94583764   -6.8013855    644.78069  0.031718845  0.031916114            3 
 1695000   0.96746412   -6.8601445    643.29817  0.031627245  0.031907715            2 
 1696000   0.99312023   -6.8390163    646.08897  0.031745724  0.031899431            3 
 1697000   0.97107145   -6.7875847    645.59272  0.031702648  0.031891159            4 
 1698000    0.9885618   -6.8249358    645.12008  0.031660781  0.031882819            4 
 1699000     0.987618   -6.8435471     644.7257  0.031622803  0.031874435            5 
 1700000   0.98305021   -6.8198161    645.81765  0.031657728  0.031866095            5 
 1701000   0.98200924   -6.8011192    645.63208  0.031630025  0.031857767            5 
 1702000    0.9539784   -6.8409184    644.70235   0.03156592  0.031849433            6 
 1703000   0.98038033   -6.8554103    646.72845  0.031646528  0.031841086            2 
 1704000   0.96349594   -6.8274155    646.26511  0.031605297  0.031832657            5 
 1705000   0.97681177   -6.8321483    647.81476  0.031662501  0.031824301            2 
 1706000   0.97000121   -6.8481163     645.2372  0.031518034  0.031815981            2 
 1707000   0.99150095   -6.8241194    648.53174  0.031660405  0.031807702            6 
 1708000   0.98978487   -6.8108583     649.2671  0.031677747  0.031799477            5 
 1709000   0.96584407    -6.823298    649.60272  0.031675576  0.031791345            6 
 1710000    0.9951927   -6.8567363    647.76746  0.031567615  0.031783167            3 
 1711000   0.97459703   -6.8319577    648.58223  0.031588848  0.031774965            4 
 1712000   0.97206813   -6.8210899    649.20559  0.031600739  0.031766797            3 
 1713000   0.97494186   -6.8489159    648.83987    0.0315645  0.031758477            5 
 1714000    0.9680201    -6.849701    648.14774  0.031512434  0.031750098            6 
 1715000   0.97173371   -6.7823657    649.84815  0.031576684  0.031741802            5 
 1716000   0.96782581   -6.8236112    650.29703  0.031580081  0.031733629            4 
 1717000   0.97693522   -6.8039498    649.36718  0.031516559  0.031725265           10 
 1718000   0.99234619   -6.8001792    650.44195  0.031550347  0.031716981            2 
 1719000    0.9925515   -6.8215424     651.9969  0.031607373  0.031708627            3 
 1720000   0.98098689   -6.8001064    650.14312  0.031499182  0.031700319            2 
 1721000   0.97162897    -6.805592    649.68923  0.031458901  0.031691966            2 
 1722000   0.95733139   -6.8362127    650.97528  0.031502869  0.031683575            3 
 1723000   0.96499531   -6.7835666    651.92872  0.031530699  0.031675296            3 
 1724000   0.95126286    -6.815159    652.56353  0.031543094  0.031667112            6 
 1725000   0.97854629   -6.8324916    651.13648  0.031455869  0.031659004            4 
 1726000   0.96571747   -6.8014697    651.27165   0.03144417  0.031650799            3 
 1727000   0.95882799   -6.8136501    651.95317  0.031458848  0.031642628            2 
 1728000   0.99792579   -6.8056005    652.67237  0.031475327  0.031634444            3 
 1729000    0.9970034   -6.8432931    651.70668  0.031410578  0.031626145            4 
 1730000   0.96709931   -6.8526799    651.85471  0.031399553  0.031617831            2 
 1731000   0.95631376   -6.8337532     652.5268  0.031413769  0.031609514            5 
 1732000   0.97700984   -6.8276745    652.31782  0.031385577    0.0316012            7 
 1733000   0.97591969   -6.8247617    653.22499  0.031411088   0.03159288            4 
 1734000   0.97959924   -6.8342414    654.20942  0.031440283  0.031584586            7 
 1735000   0.96464462     -6.80589    654.12789  0.031418246  0.031576244            5 
 1736000   0.96878623   -6.8346271     653.9609  0.031392132  0.031567984            3 
 1737000   0.97934663   -6.8384363    653.59499  0.031356505   0.03155962            5 
 1738000   0.96624896      -6.8205    654.13468   0.03136434  0.031551434           10 
 1739000   0.98247468   -6.8211662    653.85277  0.031332795  0.031543142            4 
 1740000   0.97514394   -6.8717989    654.93645  0.031366688  0.031534736            4 
 1741000   0.98287609   -6.8523264    654.76264  0.031340352  0.031526215            4 
 1742000    0.9723451   -6.8551381    653.19704  0.031247466   0.03151779            5 
 1743000   0.97115879   -6.8189554    654.52284  0.031292926   0.03150933            4 
 1744000   0.96331142   -6.8464201    654.35414  0.031266922  0.031500855            2 
 1745000   0.96655754   -6.8410962    654.39833  0.031251114  0.031492444            3 
 1746000   0.97546098   -6.8344531    654.53254  0.031239621  0.031483978            3 
 1747000   0.99409399    -6.845231    654.10001  0.031201107  0.031475564            6 
 1748000   0.97553401    -6.856948    654.45462  0.031200163  0.031467013            2 
 1749000   0.98251587   -6.8195713    655.27926  0.031221615  0.031458589            2 
 1750000   0.98477698   -6.8252938    655.39887   0.03120947  0.031450131            3 
 1751000   0.97547207   -6.8411617    654.74683  0.031160614  0.031441657            4 
 1752000   0.96861464   -6.8421847    657.04539  0.031252159  0.031433259            5 
 1753000   0.99244356   -6.8725828    656.45723  0.031206371  0.031424927            2 
 1754000   0.96029601   -6.8195734     657.1036  0.031219289  0.031416655            4 
 1755000   0.96409696   -6.8241264    658.51421  0.031268481  0.031408356            3 
 1756000   0.97242926   -6.8338026    657.44764  0.031200059  0.031400005            2 
 1757000   0.96372359   -6.7974571    658.20332  0.031218143  0.031391727           10 
 1758000   0.95408758   -6.8345772    656.72836  0.031130468  0.031383509            3 
 1759000   0.95789484   -6.8717581    658.99238  0.031220029  0.031375211            3 
 1760000   0.97897558    -6.820743    658.40091  0.031174285  0.031366965            4 
 1761000   0.98070725   -6.8148265    659.90907  0.031227952  0.031358696            5 
 1762000    0.9711581   -6.8171586    657.51278  0.031096896  0.031350334            5 
 1763000    0.9877174   -6.8310693    658.33444  0.031118096  0.031342001            5 
 1764000   0.96621673   -6.8245057    660.11428  0.031184537  0.031333628            4 
 1765000   0.97105131   -6.8666293    659.54568  0.031140023  0.031325237            2 
 1766000   0.98384164   -6.8150586       660.58  0.031171197  0.031316946            4 
 1767000   0.95649937   -6.8687435    660.78607  0.031163274  0.031308752            2 
 1768000   0.94285286   -6.8359679    662.38756  0.031221133  0.031300483            4 
 1769000   0.95269748   -6.8432107    660.65384  0.031121813  0.031292294            4 
 1770000   0.97402181   -6.8677998    660.17731  0.031081794  0.031284111           11 
 1771000   0.97062666   -6.8667297    662.12875  0.031156067  0.031275831            2 
 1772000   0.94494089   -6.8436603    660.71678  0.031072083  0.031267629            5 
 1773000   0.97041056   -6.8453598    663.18974  0.031170791  0.031259487            7 
 1774000   0.96368374   -6.8299839    661.94157  0.031094587  0.031251345            3 
 1775000    0.9763096   -6.8369138    661.94005  0.031076998  0.031243266            5 
 1776000   0.96163513   -6.8446304    662.95584  0.031107162  0.031235044            3 
 1777000   0.96271302   -6.8631218    660.91408  0.030993907  0.031226796            5 
 1778000   0.97980207   -6.8503022    662.05287  0.031029849  0.031218546            5 
 1779000    0.9270146   -6.8616517    662.74184   0.03104468   0.03121025            5 
 1780000   0.96670034   -6.8420163    663.63254  0.031068939  0.031201974            3 
 1781000   0.95123267   -6.8271848    663.20526  0.031031502  0.031193843            2 
 1782000   0.98638087   -6.8388899     664.4888  0.031074111  0.031185809            5 
 1783000   0.95009467   -6.8367848      664.422  0.031053561  0.031177817            2 
 1784000    0.9734082   -6.8456458    664.25728   0.03102846  0.031169694            6 
 1785000   0.94344269   -6.8577793    665.65672  0.031076411  0.031161646            2 
 1786000   0.94837276   -6.8514504    666.24215  0.031086326  0.031153516            6 
 1787000    0.9584048   -6.8084451    664.31427  0.030979028  0.031145244            6 
 1788000   0.97120809   -6.8489232    666.43505  0.031060545  0.031137121            2 
 1789000   0.94303688   -6.8313667    665.93425  0.031019855  0.031129064            8 
 1790000    0.9689211   -6.8806444    665.59363  0.030986668   0.03112091            2 
 1791000   0.96679032   -6.8680796    666.09845  0.030992855  0.031112781            6 
 1792000   0.95418885   -6.8304849    666.52016  0.030995171   0.03110452            3 
 1793000   0.94742939    -6.861873    666.93455  0.030997144  0.031096379            7 
 1794000   0.95970429   -6.8274925    666.39741  0.030954915  0.031088197            2 
 1795000   0.94045489   -6.8287373    666.32809  0.030934452  0.031080017            3 
 1796000   0.96523693   -6.8368985    666.17392  0.030910074  0.031071866            8 
 1797000   0.96148175   -6.8459186    666.30207  0.030898816  0.031063716            9 
 1798000   0.96740767   -6.8297764    667.56591  0.030940207  0.031055541            3 
 1799000   0.95237757   -6.8481517    665.43144  0.030824136  0.031047291            4 
 1800000   0.97523888   -6.8680206    666.41963   0.03085276  0.031039175            7 
 1801000   0.98025475   -6.8749004    667.46461  0.030883981  0.031031077            4 
 1802000   0.94858671   -6.8845021    667.52373  0.030869577  0.031022926            6 
 1803000   0.94949903   -6.8769235    668.51452  0.030898249  0.031014827            3 
 1804000   0.96262518   -6.8447273    669.82421  0.030941621  0.031006754            4 
 1805000   0.96916374   -6.8351771    668.27754  0.030853072  0.030998812            4 
 1806000    0.9436857   -6.8632345    666.70527   0.03076344  0.030990857            6 
 1807000   0.95227649   -6.8713512    669.00509  0.030852476   0.03098282            5 
 1808000   0.97270971   -6.8706591    669.85032  0.030874369  0.030974835            6 
 1809000   0.96346703   -6.8461967    672.13959   0.03096276   0.03096692            1 
 1810000   0.97570036    -6.862599    672.69207   0.03097109  0.030958984            4 
 1811000   0.96215038   -6.8661514     670.2925  0.030843572   0.03095093            6 
 1812000   0.98020548   -6.8435579    671.49971  0.030882069  0.030942901            4 
 1813000   0.94880528   -6.8557234    669.92972  0.030792872  0.030934932            3 
 1814000   0.95543526   -6.8667847    671.86996   0.03086503  0.030926977            5 
 1815000   0.94569789   -6.8235035     671.5636  0.030833958  0.030918978            6 
 1816000   0.96292122   -6.8585545      672.474  0.030858756   0.03091111            7 
 1817000   0.96196063   -6.8689766    672.29682  0.030833646  0.030903177            4 
 1818000    0.9494936   -6.8592505    673.10228  0.030853606  0.030895212            6 
 1819000    0.9209814    -6.844426     672.1656  0.030793733  0.030887204            5 
 1820000   0.96937615   -6.8854451    673.22459  0.030825302    0.0308792            3 
 1821000   0.95177323   -6.8879345    672.00222  0.030752436  0.030871205            2 
 1822000   0.95399986   -6.8421796    673.17609  0.030789247  0.030863336            5 
 1823000   0.96267322   -6.8320494    675.17845   0.03086389  0.030855498            6 
 1824000   0.95040549   -6.8284335    674.57923  0.030819592  0.030847758            3 
 1825000   0.96764861   -6.8564323    675.05151   0.03082427   0.03083999            2 
 1826000   0.95172893   -6.8440076    676.47399  0.030872307  0.030832231            6 
 1827000   0.95524671   -6.8153334    675.79414    0.0308244  0.030824498            2 
 1828000   0.95326116   -6.8414781    676.10974  0.030821925  0.030816753            4 
 1829000   0.96129899   -6.8678369    677.17534  0.030853624  0.030808944            2 
 1830000   0.95210489   -6.8562826    675.72536  0.030770736  0.030801064            4 
 1831000   0.93317094   -6.8806632    674.14503  0.030682006  0.030793197            3 
 1832000   0.93967963   -6.8828459    676.48906  0.030771882  0.030785329            5 
 1833000     0.977134   -6.8486585     679.3466  0.030885006  0.030777549            4 
 1834000   0.95846938   -6.8834663    676.90213  0.030757094   0.03076988            2 
 1835000   0.94655307   -6.8753428    676.45487  0.030720022  0.030762123            5 
 1836000   0.98967271   -6.9010842    676.39759   0.03070069  0.030754353            4 
 1837000   0.94240307   -6.8324246    677.06206   0.03071412  0.030746544            6 
 1838000   0.94392821   -6.8531037     676.7312  0.030682408  0.030738751            4 
 1839000   0.95755726   -6.8721272    678.57338  0.030749201  0.030731043            3 
 1840000   0.94135998   -6.8752153     678.0444  0.030708533  0.030723338            3 
 1841000   0.94422891    -6.877997    679.46589  0.030756196  0.030715522            5 
 1842000   0.94271561   -6.9002084    678.14612  0.030679792  0.030707876            6 
 1843000   0.95119671   -6.8645712    678.92997  0.030698588  0.030700217            5 
 1844000   0.95895929   -6.8359041    679.61139  0.030712735  0.030692503            4 
 1845000   0.95167728   -6.8824622    680.12558  0.030719313  0.030684765            4 
 1846000   0.97812918   -6.8807631    679.60357  0.030679107  0.030677178            4 
 1847000   0.95025376   -6.8680676     680.2574  0.030691996  0.030669528            2 
 1848000   0.94449315    -6.876163    680.13931  0.030670063  0.030661933            4 
 1849000   0.94831159   -6.8347734    681.83258   0.03072979   0.03065443            3 
 1850000   0.96712749   -6.8836018    682.01949  0.030721598  0.030646913            3 
 1851000   0.94590272   -6.8406187    679.92395  0.030610659  0.030639435            2 
 1852000   0.95932396   -6.8571388    681.78682  0.030677952  0.030631889            9 
 1853000   0.95919089    -6.863712     681.1265  0.030631701   0.03062431            4 
 1854000   0.95040549   -6.8663795    683.53577   0.03072347  0.030616775            5 
 1855000   0.95391869   -6.8820844    682.13083  0.030643793  0.030609235            5 
 1856000    0.9802372   -6.8916195    682.88341  0.030661073  0.030601668            5 
 1857000   0.95523291   -6.8633001    681.67947  0.030590534  0.030594071            2 
 1858000   0.94902501   -6.8827457    682.02029  0.030589356  0.030586427            2 
 1859000   0.95352997   -6.8919484    682.75087  0.030605651  0.030578807            6 
 1860000   0.96726951   -6.8786462    682.07954  0.030559119  0.030571171            4 
 1861000   0.96188659   -6.8931202     683.5025  0.030606417    0.0305635            7 
 1862000   0.97202252   -6.8700171    682.67757   0.03055306  0.030555925            3 
 1863000   0.95301415   -6.8858336     681.8901  0.030501436  0.030548426            6 
 1864000   0.93842352   -6.8635667    684.82619  0.030616336  0.030540895            6 
 1865000    0.9653734   -6.8503194    685.11203  0.030612691  0.030533422            4 
 1866000   0.94387943   -6.8549654    683.85982  0.030540363  0.030525827            4 
 1867000   0.94567775   -6.8409938    685.67817  0.030605168  0.030518314            2 
 1868000    0.9603957   -6.9024036    682.98339  0.030468567  0.030510742            4 
 1869000   0.98519539   -6.8691734    683.73311  0.030485693  0.030503087            5 
 1870000   0.94352139   -6.8938765    684.84113  0.030518767  0.030495341            5 
 1871000   0.96476363   -6.8679077    683.82029  0.030456988  0.030487506            5 
 1872000   0.96238369   -6.8544941    684.47925  0.030470052  0.030479637            5 
 1873000    0.9584383   -6.8428071    684.22766   0.03044259  0.030471858            2 
 1874000   0.96036497   -6.8624786    685.42402  0.030479545  0.030464084            8 
 1875000   0.94921474   -6.9006461    684.45395  0.030420175  0.030456286            4 
 1876000   0.95412709   -6.8998679    685.34154  0.030443388   0.03044842            4 
 1877000   0.97187303   -6.8664487    684.97276  0.030410796  0.030440493            3 
 1878000   0.95156144   -6.9102177     683.9904  0.030351012  0.030432657            7 
 1879000    0.9521282   -6.8932724     683.5594  0.030315744   0.03042481           10 
 1880000   0.96209265   -6.8544985    686.51853  0.030430786  0.030416988            4 
 1881000   0.96508872   -6.8669824      686.643  0.030420122  0.030409251            4 
 1882000   0.95865907   -6.8452656    690.30304  0.030566022  0.030401555            5 
 1883000   0.95324328   -6.8985734    686.43865  0.030378768  0.030393867            4 
 1884000   0.93917073   -6.8851328    686.56458  0.030368214  0.030386136            5 
 1885000   0.95006904   -6.8747973    689.51728  0.030482638  0.030378559            4 
 1886000   0.95219257   -6.8887323    685.92626  0.030307806  0.030370945            2 
 1887000   0.95190507    -6.885102    687.25922   0.03035061  0.030363184            5 
 1888000   0.94145368   -6.8655133    688.88487  0.030406288  0.030355428            4 
 1889000   0.95284692   -6.8780015    686.93122  0.030304007  0.030347664            5 
 1890000   0.95101361   -6.8897283    688.35974  0.030350958  0.030339922           10 
 1891000   0.97171703   -6.8521136    690.21798  0.030416798  0.030332214            2 
 1892000   0.95637212   -6.8740782    687.54613   0.03028304  0.030324519            5 
 1893000   0.94379893   -6.8806224    687.70488  0.030274031  0.030316802            4 
 1894000   0.94824741   -6.8969953    689.23138   0.03032521  0.030309079            4 
 1895000   0.95348436   -6.9188169    686.16923  0.030174548  0.030301263            6 
 1896000   0.93617613   -6.8672166    687.68307   0.03022517  0.030293436            3 
 1897000   0.94910495   -6.8734765    686.71587  0.030166749   0.03028568            4 
 1898000   0.93720947   -6.8986184    688.33772  0.030222064  0.030277752            4 
 1899000   0.97208089   -6.8935573    687.91453  0.030187578    0.0302699            3 
 1900000   0.95070058    -6.871323    690.45182  0.030282974  0.030262076            4 
 1901000   0.94216716   -6.8573422    690.66664  0.030276462  0.030254362            2 
 1902000   0.94733355   -6.8528694    691.36182  0.030291002  0.030246583            3 
 1903000   0.95022873    -6.899177     690.0031  0.030215585  0.030238747            4 
 1904000   0.95090818   -6.9062235    690.19594  0.030208156  0.030230915            3 
 1905000   0.93460515    -6.877861    690.44305  0.030203108  0.030223166            8 
 1906000   0.95592273   -6.8968908    691.07069  0.030214703  0.030215327            5 
 1907000   0.94353644   -6.8693191    690.96397  0.030194195  0.030207551            8 
 1908000   0.92889034   -6.9016865    691.38779  0.030196881  0.030199705            4 
 1909000   0.94401508   -6.8849352    690.57111  0.030145413  0.030191754            6 
 1910000   0.94357066   -6.8643216    691.04551  0.030150328  0.030183843            3 
 1911000   0.94997077   -6.9120419    689.52388  0.030068196  0.030175978            7 
 1912000   0.93630555   -6.8445507    691.15423  0.030123528  0.030168046            2 
 1913000   0.95876959   -6.9007039    690.60382  0.030083805  0.030160129            4 
 1914000   0.93152652   -6.8405463    692.28673  0.030141359  0.030152205            6 
 1915000   0.94981064   -6.9009959    690.42397  0.030044559  0.030144361            2 
 1916000   0.94153696   -6.9107369    690.01573  0.030011122  0.030136447            3 
 1917000   0.91243503   -6.8733995     691.0653  0.030041093  0.030128511            4 
 1918000   0.95570511   -6.8978665    693.14705  0.030115878  0.030120632            8 
 1919000   0.94821369   -6.8934254    691.93708  0.030047641  0.030112766            4 
 1920000   0.94058748   -6.9110226    691.70859  0.030022074  0.030104912            3 
 1921000   0.93128694   -6.9268353    694.15144  0.030112417  0.030097082            6 
 1922000   0.94292212   -6.8776293    692.80912   0.03003855  0.030089324            6 
 1923000   0.94641933   -6.9072509    695.01057  0.030118329  0.030081568            3 
 1924000   0.94862807   -6.8832363    693.96688   0.03005747  0.030073765            4 
 1925000   0.95417223    -6.879037    691.24498  0.029924025   0.03006581            4 
 1926000   0.95883088   -6.8816194    693.51203  0.030006578  0.030057906            3 
 1927000   0.93408359   -6.8677358    695.78228  0.030089183  0.030050119            3 
 1928000   0.95507806   -6.8488601    693.84669  0.029989916  0.030042281            3 
 1929000   0.93998992    -6.896541    695.80052  0.030058775  0.030034536            2 
 1930000    0.9397727   -6.8899415     694.3714  0.029981494  0.030026722            3 
 1931000   0.93082903   -6.9219081    695.01036  0.029993542  0.030018813            6 
 1932000   0.94909068   -6.8991018    693.06266  0.029894007  0.030010997            3 
 1933000   0.94951865   -6.8736095    693.67823   0.02990508  0.030003126            3 
 1934000   0.93418166   -6.9161112    694.35214  0.029918655  0.029995241            2 
 1935000   0.93833176   -6.9253389     696.2907   0.02998668  0.029987284            3 
 1936000     0.926201   -6.9101687    695.97677  0.029957678  0.029979316            3 
 1937000   0.97553793   -6.9338954    693.63029  0.029841262  0.029971383            5 
 1938000   0.93395494    -6.896575    695.06639  0.029887615  0.029963463            5 
 1939000   0.94102742    -6.909949    694.47812  0.029846919  0.029955501            7 
 1940000    0.9396836    -6.901008    694.75006  0.029843216  0.029947478            8 
 1941000    0.9432737   -6.9115014    695.79151  0.029872553  0.029939505            2 
 1942000   0.92593199   -6.8838531    697.14025  0.029915047  0.029931677            3 
 1943000   0.91857779   -6.9150855    695.64514  0.029835527  0.029923832            5 
 1944000   0.93100032   -6.8945367    697.40194  0.029895488  0.029915968           13 
 1945000   0.93543347   -6.9068345    698.19255  0.029913991  0.029908162            3 
 1946000   0.92882172   -6.8853535    698.83452   0.02992611  0.029900377            6 
 1947000    0.9171658   -6.8640311    698.11736  0.029880045  0.029892585            2 
 1948000   0.93570885    -6.890721    698.21635   0.02986894  0.029884815            4 
 1949000   0.95608933   -6.9282604    697.56634  0.029825823  0.029877045            6 
 1950000   0.93469476   -6.9250689    699.67757  0.029900751  0.029869225            5 
 1951000   0.94785011   -6.9066231    700.69012  0.029928674  0.029861556            3 
 1952000   0.94261751   -6.9116105    699.84734  0.029877362  0.029853813            5 
 1953000   0.93161363   -6.8751744    700.73549  0.029899961  0.029846094            3 
 1954000   0.91685186   -6.8906894    699.75372  0.029842789  0.029838398            4 
 1955000   0.92373384   -6.8529285    699.71953  0.029826067   0.02983065            3 
 1956000    0.9210877   -6.9027467    698.97529  0.029779111   0.02982294            4 
 1957000   0.93255649   -6.8911732    699.63235  0.029791873  0.029815286            3 
 1958000    0.9540748    -6.946688    699.61087  0.029775744  0.029807551            5 
 1959000   0.94666944   -6.9221115      698.641  0.029719287  0.029799726            3 
 1960000   0.95041527   -6.8851395    702.28792   0.02985918  0.029792032            4 
 1961000   0.93272432   -6.9070079    702.30173  0.029844541  0.029784401            3 
 1962000   0.93788697    -6.871611    702.69942  0.029846221  0.029776704            4 
 1963000   0.92896506   -6.8822123    701.89502  0.029796868  0.029769047            2 
 1964000   0.94541699   -6.9025722    702.06944  0.029789097  0.029761336            7 
 1965000   0.93588553    -6.915438    700.20717  0.029694961  0.029753546            4 
 1966000   0.96053082   -6.8888149    697.96447  0.029584794  0.029745574            3 
 1967000   0.92702108   -6.9213327    697.65922  0.029556822  0.029737524            4 
 1968000   0.93191887   -6.9393501     699.8252   0.02963352  0.029729548            6 
 1969000   0.94396444    -6.950275    699.48954  0.029604264  0.029721475            4 
 1970000   0.94252926    -6.924917    699.72711  0.029599285   0.02971356            6 
 1971000   0.95000541   -6.8850951    701.80034  0.029671924  0.029705656            4 
 1972000   0.93287383   -6.9073356    701.02506  0.029624115  0.029697738            7 
 1973000   0.92001006   -6.9011829    702.08718  0.029653961  0.029689779            7 
 1974000   0.92612998    -6.906532    701.73817  0.029624205  0.029681794            4 
 1975000   0.92040901   -6.9428846    700.62448  0.029562214  0.029673786            6 
 1976000   0.92693259   -6.9303104    700.66866  0.029549117  0.029665805            3 
 1977000    0.9497082   -6.9364055    702.22099  0.029599604  0.029657865            3 
 1978000   0.93363072   -6.8666175    704.44707  0.029678424  0.029650032            5 
 1979000   0.93752868   -6.9240446    701.80715  0.029552263  0.029642129            2 
 1980000    0.9317167   -6.9290356    701.07384  0.029506475  0.029634193            5 
 1981000   0.95740297   -6.9008276    702.91745  0.029569134  0.029626346            5 
 1982000   0.93715667   -6.8999211    702.11237  0.029520365   0.02961853            4 
 1983000   0.94674813   -6.9265759    704.24845  0.029595245  0.029610663            4 
 1984000    0.9284152   -6.8958338    701.53012  0.029466151  0.029602748            3 
 1985000   0.93304802   -6.9268151    703.07724  0.029516257  0.029594838            3 
 1986000   0.94055625   -6.9232208    703.27279    0.0295096  0.029586937            4 
 1987000   0.94337615   -6.9171733    704.02085  0.029526122  0.029579108            5 
 1988000   0.94589884   -6.9008412     704.5718  0.029534364  0.029571289            4 
 1989000   0.93553216   -6.9180467     704.0832  0.029499045  0.029563489            4 
 1990000   0.91225802    -6.927904    703.57596   0.02946298  0.029555606            4 
 1991000   0.92855048   -6.9286206    705.27776  0.029519411  0.029547635            4 
 1992000   0.92605499   -6.9316332    703.64276  0.029436193  0.029539699            3 
 1993000   0.92910614   -6.9384947    703.02394  0.029395548  0.029531736            3 
 1994000   0.93242414    -6.896137    705.07791  0.029466646  0.029523867            2 
 1995000   0.94042076   -6.9264325    705.69241  0.029477544  0.029516058            3 
 1996000   0.92840364   -6.9418181    706.32129  0.029489032  0.029508179            8 
 1997000   0.92575803   -6.9214406    705.02862  0.029420323  0.029500287            7 
 1998000   0.93762972   -6.9286256     707.6194  0.029513655  0.029492457            6 
 1999000   0.91712577    -6.892721    706.41343  0.029448617  0.029484535            4 
 2000000   0.91302134   -6.9264245    705.31203  0.029388001  0.029476636            6 
 2001000    0.9369485    -6.904085    707.32863  0.029457298  0.029468749            5 
 2002000    0.9268578   -6.9152764    705.68783  0.029374285  0.029460793            6 
 2003000   0.91665295    -6.915934    706.65391  0.029399813  0.029452736            6 
 2004000    0.9369973   -6.9336051    704.68079  0.029303093  0.029444766            3 
 2005000   0.94132725   -6.9172164    706.85519  0.029378852  0.029436841            3 
 2006000    0.9311868   -6.9293101    707.58383  0.029394476  0.029428907           10 
 2007000   0.92587724   -6.9294305    707.65576  0.029382817  0.029420972            4 
 2008000   0.92187148   -6.8920476    708.50947  0.029403613  0.029413003            3 
 2009000   0.93257218   -6.9253759    705.93049  0.029282001  0.029404994            4 
 2010000   0.92964536   -6.9080391    707.35905  0.029326661  0.029397022            4 
 2011000   0.93943346   -6.9171713    708.88715    0.0293754  0.029389107            2 
 2012000   0.93397442   -6.9424796    706.81812  0.029275104  0.029381151            3 
 2013000    0.9310259   -6.9397467    708.12186  0.029314533  0.029373161            6 
 2014000   0.93145038   -6.9323105    707.51105  0.029274704  0.029365198            5 
 2015000   0.94554597   -6.9167244    707.87175  0.029275093  0.029357235            3 
 2016000   0.92179502   -6.8981653    710.01103  0.029349001  0.029349345            3 
 2017000   0.91430534   -6.8811927    709.44292  0.029310978  0.029341486            3 
 2018000   0.95671636   -6.9243869    707.34345  0.029209756  0.029333577            7 
 2019000   0.92846699   -6.9502891    707.23786   0.02919093  0.029325523            7 
 2020000   0.91833773   -6.9082968    708.66635   0.02923541  0.029317527            9 
 2021000   0.93223539   -6.9468235    706.68081  0.029139073  0.029309465            3 
 2022000   0.91261687   -6.8995976    710.35314  0.029276012  0.029301514            3 
 2023000   0.92129572   -6.9090419     709.0984  0.029209853  0.029293485            3 
 2024000   0.93297177   -6.9032532      708.052  0.029152339  0.029285449            4 
 2025000   0.94114453   -6.9455751    708.57472  0.029159454  0.029277411            4 
 2026000    0.9334786   -6.9343535    709.35249  0.029177052   0.02926937           11 
 2027000    0.9517894   -6.9383535    709.09027  0.029151878   0.02926128            3 
 2028000   0.93402182   -6.9256249    708.07845  0.029095926  0.029253184           10 
 2029000   0.92767974   -6.9257222    710.84003  0.029195007  0.029245161            6 
 2030000   0.93019572   -6.9255458    709.97124   0.02914496  0.029237145            4 
 2031000   0.91899895   -6.9106608    710.31076  0.029144541  0.029229123            5 
 2032000   0.92971287   -6.9423625    709.77519  0.029108234  0.029221045            4 
 2033000   0.93448351    -6.949347    711.61419  0.029169298  0.029213065            4 
 2034000   0.93802645   -6.9191105      710.309  0.029101483  0.029205082            7 
 2035000   0.92727357   -6.9369983    710.58731  0.029098579  0.029197114           10 
 2036000   0.93379972    -6.913033     713.2727    0.0291942  0.029189111            3 
 2037000   0.94524866   -6.9577661    711.97728  0.029126873  0.029181046            8 
 2038000    0.9268688   -6.9200626    710.88054  0.029067735  0.029173034            2 
 2039000   0.92316035    -6.939025    711.93017  0.029096378  0.029165049            7 
 2040000   0.92810322   -6.9504855    709.35006  0.028976718  0.029157068            4 
 2041000   0.93803285    -6.923104     710.5541  0.029011681  0.029149023            3 
 2042000   0.92266562   -6.9101559    712.41169  0.029073281  0.029141035            6 
 2043000   0.93123878   -6.9199874    712.07097  0.029045153  0.029133065            5 
 2044000   0.92822721   -6.9290475    710.71881  0.028975816  0.029124994           11 
 2045000   0.93415719   -6.9385304    712.94836    0.0290525  0.029116942            3 
 2046000   0.91545333    -6.908953    712.26665  0.029010535  0.029108883            3 
 2047000   0.91733131   -6.9235605    712.21404  0.028994221  0.029100779            4 
 2048000   0.91252378   -6.9265913    712.21192  0.028979977  0.029092645           10 
 2049000   0.92545839   -6.9214898    713.50631  0.029018477  0.029084583            7 
 2050000   0.93649957   -6.9281984    712.51277  0.028963934  0.029076573            2 
 2051000   0.93893198   -6.9667638    713.23276  0.028979065  0.029068446            3 
 2052000   0.93521709   -6.9643455    711.36957  0.028889278  0.029060248            3 
 2053000   0.92481521   -6.9282658    715.41854  0.029039558  0.029052008            2 
 2054000   0.91597023   -6.9201376    713.33341  0.028940823  0.029043905            4 
 2055000   0.91730375   -6.9585166    712.72702   0.02890215  0.029035752            7 
 2056000   0.90945689   -6.9335903    710.89583  0.028813871   0.02902755           10 
 2057000   0.93254795   -6.9033881    715.60875  0.028990793  0.029019357            7 
 2058000   0.91307529   -6.9414853    711.39498  0.028806081  0.029011137            6 
 2059000   0.92814174   -6.9315772    712.25712  0.028826984  0.029002872            4 
 2060000   0.92701964    -6.950909    713.57564  0.028866328  0.028994638            3 
 2061000   0.93363801   -6.9579632    711.27291  0.028759215  0.028986495            9 
 2062000   0.89070559   -6.9420327    713.05215  0.028817174  0.028978298            9 
 2063000   0.91636715   -6.9573738    713.01383  0.028801657  0.028969985            6 
 2064000   0.89581988    -6.942703    711.81238  0.028739195  0.028961696            2 
 2065000   0.93434542   -6.9419825    713.58464  0.028796797  0.028953435            6 
 2066000   0.92142415   -6.9399446    711.63791  0.028704336  0.028945111            3 
 2067000   0.91763318   -6.9316597    713.71469  0.028774177  0.028936828            2 
 2068000   0.90547414    -6.941708    713.00934   0.02873184  0.028928577            4 
 2069000   0.91942584   -6.9231559    715.17771  0.028805289  0.028920304            5 
 2070000    0.9184713   -6.9409701    715.84574  0.028818266   0.02891204            2 
 2071000   0.90470044   -6.9320792    713.60841  0.028714325  0.028903748            6 
 2072000   0.92055382   -6.9224826     714.0097  0.028716606  0.028895524            4 
 2073000   0.91263781   -6.8913586    716.14436  0.028788566  0.028887384            4 
 2074000   0.90820739   -6.9355895    714.81094  0.028721108  0.028879184            5 
 2075000   0.93039401   -6.9339887     716.0428  0.028756739  0.028871039            3 
 2076000    0.8957081    -6.956861    714.67603  0.028688023  0.028862786            8 
 2077000   0.93230849    -6.940899    713.24273  0.028616704  0.028854559            4 
 2078000   0.90366373   -6.9293512      714.139  0.028638876  0.028846354            3 
 2079000    0.9032145   -6.9616419    713.36982  0.028594269  0.028838142            2 
 2080000   0.91988804   -6.9776821    715.18116  0.028653091  0.028829892            9 
 2081000   0.90644319    -6.956639    715.52889  0.028653247  0.028821658            4 
 2082000   0.91821807   -6.9490924    716.22823  0.028667476  0.028813478           11 
 2083000   0.91733829   -6.9688012    717.40021    0.0287006  0.028805263            4 
 2084000   0.90807335   -6.9738487    716.81603  0.028663469  0.028797105            6 
 2085000   0.92734668    -6.963917    714.50906  0.028557517   0.02878891            1 
 2086000   0.90888253   -6.9363338    716.27194  0.028614251   0.02878073            8 
 2087000   0.91220262   -6.9629581    719.22549  0.028718475  0.028772515            3 
 2088000   0.93050954   -6.9166159    719.88117  0.028730889  0.028764326            4 
 2089000   0.92289482   -6.9404033    715.96382  0.028560867  0.028756097            7 
 2090000   0.92289118   -6.9591501    717.68802   0.02861595  0.028747867            4 
 2091000   0.93706707   -6.9623134    717.38339  0.028590124  0.028739655            7 
 2092000    0.9264227   -6.9145382    720.17888  0.028687814  0.028731496            4 
 2093000   0.92521182   -6.9716791    719.46578  0.028645715  0.028723436            6 
 2094000   0.91289468   -6.9742674    718.18625  0.028581115  0.028715346            9 
 2095000   0.92901022   -6.9382356    720.19297  0.028647294  0.028707268            7 
 2096000   0.91455261   -6.9089459    720.42986  0.028643045  0.028699181            3 
 2097000   0.93618794   -6.9538276     718.8498  0.028566595   0.02869109            7 
 2098000    0.9131823   -6.9379601    719.89907  0.028594657  0.028682971            6 
 2099000   0.91969231    -6.953518    720.62838  0.028609988  0.028674953            6 
 2100000   0.90586343   -6.9284268    720.33167   0.02858459  0.028666933            7 
 2101000   0.91825802   -6.9787529    719.45703  0.028536293  0.028658934            8 
 2102000   0.89502277   -6.9392029    721.87661  0.028618642  0.028650968            5 
 2103000    0.9305317   -6.9749385    718.97825  0.028490183  0.028643053            4 
 2104000   0.90529528   -6.9490698    720.69995  0.028544833  0.028634957            6 
 2105000     0.910729   -6.9398691    720.39747  0.028519298  0.028626998            4 
 2106000   0.92207888   -6.9529118    720.19275  0.028497656  0.028618998            3 
 2107000    0.9148634   -6.9765646     719.4917  0.028456403  0.028610961           10 
 2108000   0.91541399   -6.9501923    722.12299  0.028546924  0.028602933            8 
 2109000   0.93893376   -6.9362428      724.394  0.028623123  0.028594964            3 
 2110000   0.91449745   -6.9644586    721.81754  0.028507802  0.028586915            4 
 2111000   0.91228576   -6.9249925    721.79218  0.028493296  0.028578794            4 
 2112000   0.92063687   -6.9789865    720.76926  0.028439444  0.028570739            3 
 2113000   0.92918977   -6.9521791    721.71991  0.028463477  0.028562663            4 
 2114000   0.93397364   -6.9332401    724.07259  0.028542754  0.028554665            2 
 2115000   0.90827099   -6.9301603    723.42863  0.028503886  0.028546638            4 
 2116000   0.90982912   -6.9501312    721.53892  0.028415994  0.028538592            3 
 2117000   0.90608354   -6.9295436    723.54998  0.028481734   0.02853058            3 
 2118000   0.93575801   -6.9576011    723.23432  0.028455867   0.02852255            5 
 2119000   0.91794322   -6.9502336    723.05389  0.028435343  0.028514466           11 
 2120000   0.88866614    -6.957977     722.3068  0.028392563  0.028506445            6 
 2121000   0.90800311   -6.9642475    722.61863  0.028391428  0.028498348            5 
 2122000   0.90925266   -6.9426422    724.02978  0.028433466  0.028490293            5 
 2123000   0.89722157   -6.9277845    725.34052  0.028471523  0.028482335            5 
 2124000   0.92540271    -6.939832    725.10898  0.028449034  0.028474365            4 
 2125000   0.91174468    -6.966502    725.71996  0.028459606  0.028466476            7 
 2126000   0.90636337   -6.9449383    725.47286  0.028436534  0.028458698            3 
 2127000   0.91325972   -6.9722943    723.89108  0.028361193  0.028450697            6 
 2128000   0.92700492   -6.9636135     725.0252  0.028392278  0.028442684            7 
 2129000   0.91548854   -6.9801107    724.59647   0.02836216  0.028434682            3 
 2130000   0.90593009   -6.9470973     723.9261  0.028322618  0.028426684            7 
 2131000   0.90545621   -6.9840422    724.93867  0.028348924   0.02841866            5 
 2132000   0.90835396   -6.9650158    723.69301  0.028286938    0.0284106            4 
 2133000   0.91114682   -6.9636727    725.22816  0.028333652  0.028402549            4 
 2134000   0.91566481   -6.9550505    724.80565  0.028303876  0.028394559            2 
 2135000   0.93172783   -6.9869065    724.83532  0.028291777  0.028386467            4 
 2136000    0.9214425   -6.9462902    724.63793  0.028270831  0.028378347            7 
 2137000   0.89716869   -6.9755352    727.56876   0.02837189  0.028370301            4 
 2138000   0.90057595   -6.9536063    724.31177  0.028231672  0.028362251            4 
 2139000   0.91420661    -6.980932    725.75008  0.028274508  0.028354151            3 
 2140000   0.93124253   -6.9537378    725.80188  0.028263313   0.02834608            6 
 2141000   0.92964939   -6.9321787     724.4482  0.028197423  0.028338071            5 
 2142000    0.9124864   -6.9708536    725.89013  0.028240357  0.028330008            6 
 2143000   0.93158471   -6.9582658    727.06787  0.028272977  0.028322005            3 
 2144000   0.90392265   -6.9493643    727.16895  0.028263719  0.028313972            7 
 2145000   0.91671882   -6.9725785    726.04114  0.028206726  0.028305898            3 
 2146000   0.90327357   -6.9472379    726.26534  0.028202289   0.02829789            7 
 2147000   0.92275768   -6.9546594    729.34363  0.028308633  0.028289933            3 
 2148000   0.89614217   -6.9714523    728.01325  0.028243841  0.028281992            6 
 2149000     0.923739   -6.9491228    727.12038  0.028196075  0.028274042            8 
 2150000   0.91484069   -6.9619262    728.22557  0.028225797  0.028266078            6 
 2151000   0.90312601   -6.9609216    725.22036  0.028096248   0.02825801            7 
 2152000   0.90732936   -6.9698931    727.16832  0.028158625   0.02824994            5 
 2153000   0.90212819    -6.956049    727.07245  0.028141835  0.028241901            6 
 2154000   0.89101952   -6.9833603    727.92614  0.028161797   0.02823386            5 
 2155000   0.92206488   -6.9685713     727.3159  0.028125132  0.028225876            8 
 2156000   0.92102065   -6.9598576    726.33015  0.028073985  0.028217826            4 
 2157000   0.90497487   -6.9984742    728.83084  0.028157581  0.028209767            7 
 2158000   0.89667779   -6.9866522    727.72909  0.028101988  0.028201722            8 
 2159000   0.92921621   -6.9656504    727.46545  0.028078796  0.028193668            9 
 2160000   0.90842532   -6.9569755    729.42035  0.028141217  0.028185626            3 
 2161000   0.91417014   -6.9491927    727.50654  0.028054394  0.028177573            5 
 2162000   0.90730834   -6.9574633    727.83148  0.028053942  0.028169472            3 
 2163000   0.91452864   -6.9688676    728.06489  0.028049965  0.028161365            3 
 2164000     0.916949   -6.9661795    729.73429  0.028101289  0.028153323            4 
 2165000   0.89159246   -6.9714859    729.26869  0.028070388  0.028145192            2 
 2166000   0.90598154   -6.9457152    728.58967  0.028031305  0.028137205            6 
 2167000   0.91358911   -6.9630302    729.88084  0.028068022  0.028129168            8 
 2168000   0.89353922   -6.9629087    731.09483  0.028101739   0.02812119            4 
 2169000   0.88022617   -6.9650819    731.03877  0.028086629  0.028113202           12 
 2170000   0.90014009    -6.956853    728.70076    0.0279839  0.028105095            6 
 2171000    0.8978199   -6.9760054    729.74336   0.02801103  0.028097081            5 
 2172000    0.9076946   -6.9609062    728.38173  0.027945892  0.028089016            7 
 2173000   0.88804029   -6.9688986    728.24566  0.027927813     0.028081            4 
 2174000   0.91090259   -6.9637376    730.38809   0.02799709  0.028072942            2 
 2175000    0.9269726   -6.9499739    727.90201  0.027888966  0.028064858            7 
 2176000   0.90505701   -6.9911968     729.8383  0.027950303  0.028056787            6 
 2177000   0.92567276   -6.9823103    729.96925  0.027942476  0.028048669            6 
 2178000   0.91040533   -6.9443667    730.42014  0.027946899  0.028040571            3 
 2179000   0.90071482   -6.9987246    730.39844  0.027933243  0.028032504            4 
 2180000   0.90107633   -7.0059277    731.44624  0.027960483  0.028024415            7 
 2181000     0.911168   -6.9893232    730.54046  0.027913055  0.028016285            4 
 2182000   0.90682946   -7.0033601    730.07622  0.027882532  0.028008216            2 
 2183000   0.91193257   -6.9909131    731.23525  0.027914004  0.028000131            7 
 2184000   0.92970072   -6.9838746    729.52064    0.0278358  0.027992025            5 
 2185000   0.92866488   -6.9997935    732.20554  0.027925459  0.027983816            3 
 2186000   0.90174592    -6.985628    731.25404  0.027876412  0.027975636            4 
 2187000    0.9039894   -6.9919527    729.92154  0.027812892  0.027967502            6 
 2188000   0.88812351   -6.9948123    729.83376  0.027796837  0.027959464            7 
 2189000   0.89572077   -6.9656996    731.73881  0.027856662  0.027951439            4 
 2190000   0.88398071   -6.9651878     731.3358  0.027828607  0.027943411            5 
 2191000   0.89528803    -6.941273    732.67675  0.027866908  0.027935353            3 
 2192000    0.8982348   -6.9905543    731.61381  0.027813785  0.027927285            3 
 2193000   0.89786296   -6.9890469    733.40196  0.027869052  0.027919209            9 
 2194000   0.89409271   -6.9880489    731.13408   0.02777021  0.027911116            5 
 2195000   0.88116841   -6.9671365    733.86827  0.027861362  0.027903061            3 
 2196000   0.91222661   -6.9653377    732.26765  0.027787935  0.027895008            5 
 2197000   0.91299698    -6.985082    732.58877  0.027787467  0.027886899            3 
 2198000   0.89383855   -6.9890302    733.19478    0.0277978  0.027878842            5 
 2199000   0.90064339   -7.0179707    731.21037  0.027709958  0.027870693            4 
 2200000   0.90667418   -7.0032041    731.63762  0.027713546  0.027862581            8 
 2201000   0.92087861   -6.9846268    732.71636  0.027741798  0.027854495            4 
 2202000   0.90313306    -6.975673    731.61337  0.027687457  0.027846376            3 
 2203000   0.90012138   -6.9692808    732.87543   0.02772263  0.027838323            3 
 2204000   0.89754073   -6.9751506    732.60425  0.027699798  0.027830232            3 
 2205000   0.90792713   -6.9540866    735.57492  0.027799506  0.027822074            3 
 2206000   0.88406915   -6.9563772    734.49004  0.027745922  0.027814022            3 
 2207000   0.90207169    -6.946056    733.81375  0.027707814  0.027805935            3 
 2208000   0.89931554   -6.9629956    734.63351  0.027726204   0.02779779            5 
 2209000   0.88448367   -6.9806744    733.25161  0.027661521  0.027789633            6 
 2210000   0.87536375   -7.0130947    735.64877  0.027739395  0.027781469            5 
 2211000   0.88033576   -6.9847592     732.8451  0.027621178  0.027773298            5 
 2212000   0.92060604   -7.0079245    733.78796  0.027644212  0.027765115            9 
 2213000   0.89495937   -6.9839781     734.6029  0.027662408  0.027756899            5 
 2214000    0.8907162   -6.9267071    734.44992  0.027644156  0.027748791            3 
 2215000   0.89950348   -6.9675363    734.64208  0.027638905  0.027740651            4 
 2216000   0.89145693   -7.0016595    734.69626  0.027628469  0.027732517            5 
 2217000   0.89653177   -7.0044885    734.33198  0.027602315  0.027724285            3 
 2218000   0.89389501   -6.9737582    736.78616  0.027682077  0.027716142            8 
 2219000   0.90010366   -6.9692808    734.42069  0.027580768  0.027708019            3 
 2220000   0.89679781   -6.9792637    738.26488  0.027712646  0.027699839            4 
 2221000   0.90076073   -7.0126823    734.31911   0.02755212  0.027691688            6 
 2222000   0.87545124   -7.0070225    732.55252  0.027473467  0.027683487            6 
 2223000    0.9079657   -7.0050022    732.82308   0.02747125  0.027675314           10 
 2224000   0.89950332   -6.9996603     736.7589  0.027606374   0.02766706            6 
 2225000   0.89518181   -7.0069957    735.23944  0.027537058   0.02765883            4 
 2226000   0.89671212    -6.996085    736.75208  0.027581315  0.027650676            4 
 2227000   0.90180217   -6.9903409    733.91272  0.027462682  0.027642531            7 
 2228000   0.88884505   -6.9920018    735.52579  0.027510689  0.027634341            3 
 2229000   0.89438213   -6.9592722    734.88172  0.027474268  0.027626195            5 
 2230000   0.88850575    -6.982316    735.67887  0.027491737   0.02761799            5 
 2231000   0.89735554   -6.9511703    735.58114  0.027475763  0.027609738            3 
 2232000   0.89722052   -6.9942264    734.46528  0.027421792  0.027601493            7 
 2233000   0.90038725   -6.9943077    733.34073  0.027367545  0.027593251            7 
 2234000   0.87772427    -6.988135    735.14131   0.02742246  0.027584946            4 
 2235000   0.90993422   -7.0025944    736.64076  0.027466099  0.027576687            3 
 2236000   0.88369749   -7.0051206     735.3174  0.027404495  0.027568437            3 
 2237000   0.89314658   -6.9934503    735.04803   0.02738221  0.027560201            3 
 2238000   0.88625895    -6.976912     736.6692   0.02743034  0.027551967            5 
 2239000   0.88721433   -7.0311626    732.89563   0.02727764  0.027543757            2 
 2240000    0.9051451   -7.0252568    735.99262  0.027380678  0.027535467            3 
 2241000    0.8784401   -6.9901742    735.66382  0.027356233  0.027527229            7 
 2242000   0.90422333   -6.9837866    737.19961  0.027401115  0.027518954            8 
 2243000   0.88825246   -7.0082767    735.57425  0.027328513   0.02751076            2 
 2244000   0.90949113   -7.0327344    736.72364  0.027359018  0.027502495            9 
 2245000   0.88336741   -7.0265166    735.03841  0.027284277  0.027494259            6 
 2246000   0.90197127   -7.0195402    734.46008  0.027250671  0.027485991            8 
 2247000   0.91337659   -6.9968046     736.1204  0.027300119  0.027477785            3 
 2248000   0.88397834   -6.9990868    736.14268  0.027288801   0.02746957            6 
 2249000   0.88969261   -6.9831245    735.51958  0.027253579  0.027461363            2 
 2250000     0.875822   -6.9916409    739.15025  0.027375935  0.027453166            4 
 2251000   0.87915252   -7.0051089    738.55411  0.027341704  0.027444954            4 
 2252000   0.90686174    -7.005548    736.92404  0.027269244  0.027436801            7 
 2253000   0.87705515   -7.0103484    739.05482  0.027335953   0.02742866            2 
 2254000   0.88451141   -7.0045539    738.08646  0.027288023  0.027420486           10 
 2255000   0.88297864   -6.9961465    738.00915  0.027273065   0.02741227            6 
 2256000    0.9051967   -7.0041232    737.21268  0.027231556  0.027403989            4 
 2257000   0.91204446   -6.9895461    737.44803   0.02722818  0.027395737            5 
 2258000   0.87922515   -6.9988211    738.58889  0.027258226  0.027387502            4 
 2259000   0.87634934   -7.0226776    738.45958  0.027241389  0.027379218            9 
 2260000   0.88622374   -7.0024321    738.85856  0.027244047  0.027370939            6 
 2261000   0.90404423   -7.0059825    736.88433  0.027159234  0.027362587            5 
 2262000   0.90143865   -7.0011686    738.59174  0.027210129  0.027354326            5 
 2263000   0.88854626   -6.9892605    738.02617  0.027177278  0.027346072            5 
 2264000   0.87405656   -7.0007057    734.31619  0.027028717  0.027337701            5 
 2265000   0.89239248   -7.0270751     738.4089  0.027167362  0.027329293            7 
 2266000   0.89839111   -6.9994495    736.84886  0.027098002  0.027320972            5 
 2267000   0.87117374   -7.0030933    740.17938  0.027208476   0.02731264            6 
 2268000    0.8947202   -6.9825668    737.92962  0.027113816  0.027304333            6 
 2269000    0.8939121   -6.9818873    737.88869  0.027100363  0.027295979            4 
 2270000   0.90366604    -6.996599    737.59087  0.027077492  0.027287574            5 
 2271000   0.87814172   -6.9843025    739.43621  0.027133282  0.027279258            4 
 2272000   0.88902982   -7.0152504    740.52971  0.027161448  0.027270922           11 
 2273000   0.89834732   -7.0229322     738.6404  0.027080232  0.027262632            4 
 2274000   0.89204291    -7.000059    739.31812  0.027093159   0.02725437            6 
 2275000   0.89557288    -6.972112     738.6189  0.027055637  0.027246057            8 
 2276000   0.88063173   -7.0129898    738.49321  0.027039148  0.027237789            5 
 2277000    0.8979947   -6.9840011    740.10401  0.027086225   0.02722953            3 
 2278000   0.89747028     -6.99544    739.37577  0.027047694  0.027221314            4 
 2279000   0.89079269   -6.9769097    740.16355  0.027064632  0.027213047            6 
 2280000   0.90313785   -6.9921618     741.1859  0.027090128  0.027204851            4 
 2281000   0.88841438   -7.0014615     738.3059  0.026973034  0.027196596            9 
 2282000   0.88770452   -6.9977801    741.17527  0.027065997  0.027188361            3 
 2283000   0.87844048   -7.0199198    740.00854  0.027011554  0.027180149            3 
 2284000   0.91290301   -7.0063932    742.54834  0.027092394  0.027171893            7 
 2285000   0.89852589   -7.0278271    737.42542  0.026893706  0.027163672            6 
 2286000   0.89469936   -6.9967413    741.01962  0.027012964  0.027155413            3 
 2287000   0.90350564   -7.0171386    741.27153  0.027010331  0.027147204            4 
 2288000   0.90235822   -6.9952492     742.0918  0.027028402  0.027139041            3 
 2289000   0.88307269   -7.0320972    742.05022   0.02701508  0.027130845            4 
 2290000   0.87658001   -6.9888664    742.82216  0.027031374  0.027122618            3 
 2291000   0.88373962   -7.0079634    743.00729  0.027026309  0.027114458            7 
 2292000   0.89584676   -7.0184825    742.83501  0.027008254  0.027106351            5 
 2293000   0.90145564   -7.0398683    740.36248  0.026906617  0.027098136            5 
 2294000   0.88545068   -7.0078407    742.52057  0.026973284   0.02708995            7 
 2295000   0.86264473   -7.0139486    742.66311  0.026966707  0.027081746            4 
 2296000   0.88615492   -7.0031433    742.17844  0.026937371  0.027073558            3 
 2297000   0.90012184   -7.0142539    743.36811  0.026968804  0.027065312           10 
 2298000   0.89283217    -6.990926    743.70164  0.026969163  0.027057191            5 
 2299000   0.87602612   -7.0036134    744.78448  0.026996683  0.027049159            6 
 2300000    0.9084589   -6.9977886     744.8596  0.026987667  0.027041085            6 
 2301000   0.87679759   -7.0200127    743.59629  0.026930186  0.027033006            9 
 2302000   0.86486569   -6.9933307    743.38807   0.02691095  0.027024866            4 
 2303000   0.87370654   -7.0203887    744.16943  0.026927538  0.027016763            9 
 2304000   0.87783066   -7.0112607    742.71801  0.026863354  0.027008613            7 
 2305000   0.87862387   -6.9999443    743.65991  0.026885752  0.027000471            3 
 2306000   0.90002255   -7.0149624    744.22652  0.026894569  0.026992405            4 
 2307000   0.87630106    -7.042096    743.62345  0.026861127  0.026984225            7 
 2308000   0.89028849   -7.0328064    744.56426  0.026883458  0.026976001            6 
 2309000   0.86906434   -7.0070717    742.63485  0.026802182  0.026967821            3 
 2310000    0.8933469   -7.0414524    742.80536   0.02679673  0.026959646            5 
 2311000   0.87950477   -7.0240108    741.59782  0.026741592   0.02695141            5 
 2312000   0.89932397   -7.0064523    743.80134  0.026809448  0.026943228            4 
 2313000   0.89630276   -7.0009816    745.10339  0.026844769  0.026935085            6 
 2314000   0.88586365   -6.9958588    744.50374  0.026811572  0.026926943            5 
 2315000   0.87611001   -7.0117845     743.7064  0.026771289  0.026918773            5 
 2316000   0.87277434   -7.0317428    743.99936  0.026770271  0.026910564            4 
 2317000    0.8775519   -7.0220484    744.61466  0.026780847  0.026902414            3 
 2318000   0.86618638   -7.0015352    743.15547  0.026716835   0.02689427            5 
 2319000   0.88133655   -7.0002101    746.72209   0.02683348  0.026886165            3 
 2320000   0.88629519   -7.0418866    747.21231  0.026839523   0.02687806            7 
 2321000   0.88679429    -7.026536    745.97754  0.026783626  0.026869952            3 
 2322000   0.89921309   -7.0259863    745.87149  0.026768285  0.026861837            8 
 2323000   0.88105814   -7.0024679    745.29935  0.026736237  0.026853718            5 
 2324000   0.88437567   -7.0353305     744.5235  0.026696913  0.026845595            8 
 2325000   0.87664839   -7.0111816    745.81968  0.026731888  0.026837398            4 
 2326000   0.88623034   -6.9922109    747.31243  0.026773876   0.02682926            5 
 2327000    0.8763492   -7.0272923    746.75541  0.026742423  0.026821123            5 
 2328000    0.8706956   -7.0181309    746.45306  0.026720112  0.026812984            9 
 2329000   0.88872672   -7.0334631    746.13334    0.0266972  0.026804854            5 
 2330000   0.88086505   -7.0296064     748.0443  0.026754088  0.026796713            6 
 2331000   0.89062695   -7.0424161    746.29697  0.026680143  0.026788603           18 
 2332000    0.8901452   -7.0578314    746.37018  0.026671319  0.026780412            3 
 2333000   0.87655511   -7.0076184    746.64368  0.026669656  0.026772262            6 
 2334000   0.88087884   -7.0241302    748.99822  0.026742296  0.026764171            4 
 2335000   0.88387535   -7.0179336    749.83529  0.026760717  0.026756097            8 
 2336000   0.87876094   -7.0491311    745.95801  0.026610945  0.026748056            6 
 2337000   0.88121655   -7.0483979    745.95829  0.026599568  0.026740007            4 
 2338000   0.88479032   -7.0220002    747.67911  0.026649526   0.02673198            4 
 2339000   0.88538779   -7.0556563    747.80592  0.026642651  0.026723939            4 
 2340000    0.8836946   -7.0148398    747.50963  0.026620713   0.02671588            4 
 2341000   0.90527818   -7.0018831    748.49147  0.026644293  0.026707842            4 
 2342000   0.84830177   -7.0467708    748.23835  0.026623909  0.026699828            4 
 2343000   0.89072873     -7.01251     749.0557  0.026641617  0.026691823            4 
 2344000   0.87294373    -7.028758    750.56777  0.026684008  0.026683832            6 
 2345000   0.88692948   -7.0520935    746.47576  0.026527212  0.026675759            6 
 2346000   0.88206521   -7.0091316    751.30707   0.02668752   0.02666778            4 
 2347000   0.87472988   -7.0192493    748.59777  0.026579952  0.026659833            6 
 2348000   0.87950952   -7.0142391    750.32315  0.026629868  0.026651885            3 
 2349000   0.88492029   -7.0375204    750.15241  0.026612474  0.026643966            5 
 2350000   0.88242078    -7.032144    749.45636  0.026576467  0.026636046            7 
 2351000   0.86381192   -7.0530809     749.4603  0.026565302  0.026628069            6 
 2352000   0.87397341    -7.031715    748.76091  0.026529227  0.026620151            6 
 2353000   0.86670358   -6.9951318    750.99199  0.026596968  0.026612247            5 
 2354000    0.8569028   -7.0212879    752.28816  0.026631555  0.026604358            5 
 2355000   0.86774569    -7.047451    752.19627  0.026616995  0.026596505            3 
 2356000    0.8966994   -7.0795127    749.95439    0.0265264  0.026588596            3 
 2357000   0.88144923   -7.0394579    752.03261  0.026588623  0.026580683            7 
 2358000   0.86784578   -7.0341956    751.07514  0.026543509  0.026572785            7 
 2359000   0.89098655   -7.0007761    751.96295   0.02656362   0.02656494            8 
 2360000   0.86300573   -7.0121248    753.82366  0.026618067  0.026557176            5 
 2361000   0.89214642   -7.0144706     753.9346  0.026610709  0.026549407            6 
 2362000   0.87075146   -7.0012912    754.96091  0.026635652  0.026541651            2 
 2363000   0.85028371   -7.0488413    752.51018  0.026537952  0.026533889            9 
 2364000   0.88828426    -7.036705    753.05235  0.026545838  0.026526061            3 
 2365000   0.83805705   -7.0183632    754.25592  0.026577023  0.026518274            2 
 2366000   0.87551807   -7.0345353    751.81498  0.026479818  0.026510495            6 
 2367000   0.86857952   -7.0626307    754.10753  0.026549343    0.0265027            5 
 2368000   0.89607271   -7.0797168    753.84257  0.026528807  0.026494871            7 
 2369000   0.87232037   -7.0390576    752.83186  0.026482055  0.026487112            9 
 2370000   0.87497815    -7.049526    751.73983  0.026432483    0.0264793           12 
 2371000   0.86282775   -7.0661265    753.84742   0.02649541   0.02647145           19 
 2372000    0.8647998   -7.0471251    755.12198  0.026529018  0.026463605            5 
 2373000   0.87494357   -7.0864558    754.52733  0.026496956   0.02645578            7 
 2374000   0.88837204   -7.0541838    752.92548  0.026429566  0.026447939            3 
 2375000   0.87176058   -7.0427677    752.19127  0.026392676  0.026440116            4 
 2376000   0.87802085   -7.0533077     754.1342  0.026449712  0.026432293            4 
 2377000   0.88043351   -7.0685062    752.52871    0.0263823  0.026424526            5 
 2378000   0.88324523   -7.0140791    756.82975  0.026521928   0.02641674            3 
 2379000   0.88271393   -7.0318522     754.8376  0.026440998  0.026409019            6 
 2380000   0.85273241   -7.0554177    755.59196  0.026456301  0.026401271            7 
 2381000   0.86152588   -7.0188411    756.59555  0.026480315  0.026393569            5 
 2382000   0.85653535   -7.0404582    757.75147  0.026509637  0.026385888            5 
 2383000   0.88105926   -7.0352497    758.69038  0.026531346  0.026378176            5 
 2384000   0.87955977   -7.0547465    755.65883  0.026414249  0.026370444            4 
 2385000   0.85764793   -7.0624084    757.35596  0.026462472  0.026362801            5 
 2386000   0.86949524   -7.0469054    757.36058  0.026451543  0.026355055            7 
 2387000    0.8601419   -7.0520067    756.57964  0.026413198  0.026347285            6 
 2388000   0.85111728   -7.0115554    756.55241  0.026401187  0.026339549            9 
 2389000   0.85044558   -7.0573601    754.56497   0.02632081  0.026331803            3 
 2390000    0.8826526    -7.065231    756.67535  0.026383381  0.026324078            5 
 2391000   0.86748197   -7.0376559    758.17402  0.026424579  0.026316407            8 
 2392000   0.88048899   -7.0387756    757.72953  0.026398047  0.026308723            5 
 2393000   0.86399771   -7.0643875    756.92694  0.026359066  0.026301049           10 
 2394000   0.87004196   -7.0533028    758.27923  0.026395128  0.026293357            5 
 2395000   0.86370901   -7.0327415    759.55371  0.026428452  0.026285729            7 
 2396000   0.88512431   -7.0571835    758.27757  0.026373037  0.026278091            4 
 2397000   0.87174024   -7.0691746    758.54658  0.026371387  0.026270416           12 
 2398000    0.8753428   -7.0999923     757.6723  0.026330008  0.026262711            6 
 2399000   0.86571788   -7.0663874    758.19973  0.026337353  0.026254983            4 
 2400000    0.8657208   -7.0541398    757.96521  0.026318236  0.026247309            4 
 2401000   0.89480732   -7.0779444    755.49091  0.026221398  0.026239625            8 
 2402000   0.84930712   -7.0695544    759.32413  0.026343468  0.026231946            4 
 2403000   0.87280686   -7.0630211    758.65518  0.026309307  0.026224339           10 
 2404000   0.84786032   -7.0425576    759.07645  0.026312966  0.026216651            3 
 2405000   0.85859709   -7.0732367    757.20753  0.026237267  0.026208974            5 
 2406000   0.86399201    -7.038473    761.67163  0.026380979  0.026201374            2 
 2407000   0.86744634   -7.0206465    758.79122  0.026270296  0.026193842            9 
 2408000   0.88543657   -7.0619705    759.07692  0.026269273  0.026186256            6 
 2409000   0.87246333   -7.0523987    759.32417  0.026266921  0.026178617            5 
 2410000   0.85755337   -7.0172776    762.21934  0.026356132  0.026171032            4 
 2411000   0.86623408   -7.0306333    761.97334  0.026336698  0.026163441            4 
 2412000   0.88011809   -7.0533801    759.57559  0.026242938  0.026155942            4 
 2413000   0.86900515   -7.0475242    760.50213   0.02626406  0.026148386            5 
 2414000   0.86971137   -7.0668155     762.3085  0.026315538  0.026140801            8 
 2415000   0.89252416   -7.0472236    761.01456  0.026259992  0.026133221            3 
 2416000   0.83929589   -7.0876976     762.4662  0.026299193  0.026125633            8 
 2417000   0.85951766   -7.0521968    762.23883  0.026280473  0.026118081            7 
 2418000   0.87669273   -7.0942334    761.16704  0.026232666   0.02611056            5 
 2419000   0.86038999   -7.0317454    761.25042  0.026224694  0.026103017            8 
 2420000   0.85715735    -7.066302    761.67486  0.026228473  0.026095455           10 
 2421000    0.8596658    -7.048216    762.20523  0.026235895  0.026087926            7 
 2422000   0.86947699   -7.0863997    761.30261  0.026194007  0.026080338           11 
 2423000   0.85603775   -7.0630405    762.34408  0.026219015  0.026072804            3 
 2424000   0.86403761   -7.0542055    763.07233  0.026233235  0.026065286            5 
 2425000   0.86771124   -7.0394496    761.18895  0.026157696  0.026057773            7 
 2426000   0.85662954   -7.0489537    763.70914  0.026233482  0.026050328            5 
 2427000   0.87119816   -7.0227346    763.89516  0.026229061  0.026042892            6 
 2428000   0.84834087   -7.0365129    764.65487  0.026244332  0.026035429            7 
 2429000    0.8599314    -7.007769    764.13488  0.026215688  0.026027956            3 
 2430000   0.87774222   -7.0501818     762.3697  0.026144366  0.026020482           17 
 2431000   0.86324521   -7.0656787    762.95216  0.026153577  0.026012987            7 
 2432000   0.85130654    -7.074688    761.09046  0.026079032  0.026005453           12 
 2433000   0.85057942   -7.0535599    762.91322  0.026130745  0.025997963            2 
 2434000   0.87543643   -7.0405179    765.30634  0.026201943  0.025990495            4 
 2435000   0.84870861   -7.0332125    763.99228  0.026146211  0.025983087            8 
 2436000   0.87894372   -7.0407771    764.88165  0.026165902  0.025975712            3 
 2437000   0.86480593   -7.0432831     764.9102  0.026156141  0.025968291            3 
 2438000   0.88760409    -7.047103    764.05744  0.026116265  0.025960867            5 
 2439000    0.8714809   -7.0624199    765.10148  0.026141229  0.025953387            5 
 2440000   0.87423572   -7.0408189    763.89515  0.026089315  0.025945955            5 
 2441000   0.86159254   -7.0559115    763.56448  0.026067338  0.025938533            3 
 2442000   0.84750531   -7.0705893    764.34014  0.026083134  0.025931095            5 
 2443000   0.86955447   -7.0888337     765.8819  0.026125048  0.025923696            5 
 2444000   0.85719736   -7.1053126     767.0488  0.026154146  0.025916262            5 
 2445000   0.87088107    -7.066645    767.02596  0.026142671  0.025908836           10 
 2446000   0.86480582   -7.0296013    765.90445  0.026093774  0.025901446            3 
 2447000   0.86111624   -7.0565115    763.78448  0.026010914  0.025894072           11 
 2448000   0.86501105   -7.0616736    767.34392  0.026121457  0.025886649            3 
 2449000   0.86414361   -7.0692305    766.74842  0.026090527  0.025879312            9 
 2450000   0.85702126   -7.0711804    768.22823  0.026130212   0.02587193            7 
 2451000   0.87636506   -7.0744907    767.14055   0.02608257  0.025864596            7 
 2452000   0.84977382   -7.0803724    767.04725  0.026068762  0.025857208           10 
 2453000   0.85447063   -7.0703277    766.40432  0.026036293  0.025849799            6 
 2454000   0.85870668    -7.061375    766.72223  0.026036479  0.025842376            5 
 2455000   0.87487228     -7.11181    765.60624  0.025987992  0.025834948            6 
 2456000   0.86050709   -7.0750751    766.91147  0.026021697  0.025827513            8 
 2457000   0.85827059     -7.05205    768.82609  0.026076044  0.025820175            6 
 2458000   0.85372069   -7.0754669    768.07523  0.026039979  0.025812799            6 
 2459000   0.85192939   -7.0785713     767.4875  0.026009472  0.025805387            3 
 2460000   0.83660119   -7.0809463    768.82302   0.02604414  0.025798015            4 
 2461000    0.8589402    -7.081692    766.67836  0.025960936   0.02579066            5 
 2462000   0.86617752   -7.0716612    768.26198  0.026003993  0.025783299            6 
 2463000   0.85388776   -7.0696356    766.80987  0.025944305  0.025775961            6 
 2464000   0.85507244   -7.0513912    769.31039  0.026018344  0.025768688           10 
 2465000   0.86396928   -7.0934127    767.88995  0.025959768   0.02576131            6 
 2466000   0.86142722   -7.0889851    767.81586  0.025946738  0.025753896            5 
 2467000   0.85195194   -7.0819976    767.49329  0.025925324  0.025746498           10 
 2468000   0.86410861   -7.0800064    766.23751  0.025872417  0.025739062            8 
 2469000     0.866098   -7.0881664    769.95417  0.025987383  0.025731616            5 
 2470000   0.83118591   -7.0803591    768.42097  0.025925134  0.025724182           13 
 2471000   0.86353066   -7.0416276    769.13825  0.025938832  0.025716811            2 
 2472000   0.89034312   -7.0714351    770.86899  0.025986684   0.02570948            5 
 2473000   0.86038646   -7.0613009    767.45479  0.025861127   0.02570216            4 
 2474000    0.8782364    -7.083887    769.36806  0.025915119  0.025694857           10 
 2475000   0.85014546   -7.0776414    768.29941  0.025868667   0.02568755            6 
 2476000   0.87446791   -7.0142502    771.61864  0.025969933   0.02568029            3 
 2477000   0.84879734    -7.039985    769.23567  0.025879278  0.025673003            7 
 2478000   0.84725384   -7.0496568    769.80813  0.025888086  0.025665702            3 
 2479000   0.84951815   -7.0637191    769.14326  0.025855293  0.025658376            9 
 2480000   0.85814215   -7.0893839    767.43139  0.025787345  0.025651059           12 
 2481000   0.86836747   -7.0861788    771.13228  0.025901259  0.025643698            6 
 2482000   0.86100136   -7.0674537     771.9486  0.025918231  0.025636434           14 
 2483000   0.85998841   -7.0834593     770.1362  0.025846966  0.025629068            6 
 2484000   0.87014747   -7.0918561    770.29147   0.02584177  0.025621778            7 
 2485000   0.84564647   -7.0583096    771.88822  0.025884917  0.025614487            6 
 2486000   0.83336417   -7.0521842    773.73612  0.025936448  0.025607237            4 
 2487000   0.86321191   -7.0639329    772.97607  0.025900552  0.025600007            5 
 2488000   0.86663832     -7.08916     773.3312  0.025902036  0.025592741            5 
 2489000   0.85450142   -7.0887577    770.72895  0.025804505   0.02558546            5 
 2490000   0.86629388   -7.0617501    771.93994   0.02583467  0.025578223            6 
 2491000   0.84472261   -7.0971287    770.11356    0.0257632  0.025570949            7 
 2492000   0.85559864   -7.0932276    769.52374  0.025733138  0.025563693            3 
 2493000   0.86177854   -7.0949636     770.4469  0.025753673  0.025556414            5 
 2494000   0.85684282   -7.0949534    770.76339  0.025753922  0.025549135            6 
 2495000   0.85880178    -7.099508    770.02776   0.02571903  0.025541805            9 
 2496000   0.85400782   -7.0816793    771.90168   0.02577129  0.025534568            3 
 2497000   0.85267635   -7.0876009    772.36678  0.025776491  0.025527359            8 
 2498000   0.84125766   -7.0966415    770.57346  0.025706347  0.025520074           16 
 2499000   0.85562667   -7.0611502    773.39844  0.025790264  0.025512839            4 
 2500000   0.86282376     -7.06824     774.4281   0.02581427  0.025505623            7 
 2501000   0.86096817   -7.1022009    774.18048  0.025795698  0.025498468            5 
 2502000   0.82466632   -7.0882032    772.89796  0.025742671  0.025491281            8 
 2503000   0.85770331    -7.081062    775.15777  0.025807623   0.02548406           10 
 2504000   0.85156362   -7.0723848    772.02807   0.02569316  0.025476892            5 
 2505000   0.85744567   -7.0928872    774.18963  0.025754811  0.025469683            4 
 2506000   0.84980564   -7.1024214    775.29092  0.025781156  0.025462489            6 
 2507000   0.86087662   -7.0917496    773.89973  0.025724629  0.025455325            7 
 2508000   0.86130311   -7.0631336    773.83189  0.025712117  0.025448199            8 
 2509000     0.866029   -7.0775406    774.47558  0.025723249  0.025441087            6 
 2510000   0.86565735   -7.0625526    778.21239  0.025837065  0.025434003            8 
 2511000    0.8385682   -7.0716099    773.82422  0.025681144  0.025426886            8 
 2512000   0.83025703   -7.0667583    776.45202  0.025758095  0.025419739            4 
 2513000   0.84621632   -7.0705464    774.75573  0.025691595  0.025412604            5 
 2514000   0.85662111   -7.0671346    775.27966  0.025698742  0.025405442            5 
 2515000   0.85535155   -7.0873289    774.26374  0.025654862  0.025398324           10 
 2516000   0.87971541   -7.0827744    774.60114  0.025655841  0.025391221           11 
 2517000   0.83550349   -7.0646917    775.03419  0.025659985  0.025384011           12 
 2518000   0.85877486    -7.097455    774.79664  0.025641933  0.025376828            8 
 2519000   0.84744907    -7.105234    774.95459  0.025636979  0.025369627            7 
 2520000   0.85621069   -7.0666089    774.42505  0.025609294  0.025362468            4 
 2521000   0.84049437   -7.0615854    775.12637  0.025622318   0.02535536            5 
 2522000   0.84822705   -7.0828674    775.38626  0.025620746   0.02534822            8 
 2523000   0.86293086   -7.0907371      776.733  0.025655073  0.025341049            7 
 2524000   0.84778158   -7.0838031    774.93636   0.02558559  0.025333846            6 
 2525000   0.83934122   -7.0670959    772.97091  0.025510591  0.025326703            4 
 2526000   0.85821641   -7.0662978    778.05233  0.025668129   0.02531957            9 
 2527000   0.84352435   -7.0467595    778.33045  0.025667143  0.025312466            5 
 2528000   0.84671453   -7.0633713    780.27783  0.025721184  0.025305417            4 
 2529000   0.85910568   -7.0813768    777.16735   0.02560852  0.025298376            6 
 2530000   0.87403528   -7.0808355    778.27829   0.02563499  0.025291316            7 
 2531000   0.85073408   -7.1129056    776.92263  0.025580226  0.025284277            5 
 2532000   0.86467586   -7.0877435    778.56638  0.025624223  0.025277244            8 
 2533000   0.85523748   -7.0931236    780.41312  0.025674863   0.02527019            4 
 2534000   0.84607242   -7.0974278    777.29354   0.02556214  0.025263192            5 
 2535000   0.85021668   -7.0638577    777.88028  0.025571344  0.025256192            3 
 2536000   0.85627764   -7.0718599    778.12124  0.025569179   0.02524921            6 
 2537000   0.83582196   -7.1113153    780.46368  0.025636043  0.025242252            3 
 2538000   0.84505864    -7.103228    777.60958  0.025532229  0.025235254            3 
 2539000   0.85958988   -7.1094284    780.04183  0.025602003  0.025228238            8 
 2540000   0.84579922     -7.09851    781.35702  0.025635073  0.025221242            7 
 2541000   0.87748334   -7.0589094    779.57236  0.025566456  0.025214284            4 
 2542000   0.86044071   -7.1002324    780.20486  0.025577133  0.025207326            6 
 2543000   0.84713243    -7.101041    780.80288  0.025586672  0.025200421            6 
 2544000   0.83894683   -7.0780017    779.10345  0.025520946  0.025193427            3 
 2545000   0.85505304   -7.0911134    781.01762  0.025573596  0.025186519           12 
 2546000   0.83425266   -7.1007363    779.99939  0.025530223  0.025179593            9 
 2547000   0.86160564   -7.1058567    781.47302  0.025568415  0.025172634            5 
 2548000   0.83413765   -7.0514475    780.88262  0.025539071  0.025165688            8 
 2549000   0.83298878    -7.071606    781.19589  0.025539293  0.025158757           10 
 2550000   0.85297059   -7.1067132    780.58838  0.025509424  0.025151861            6 
 2551000   0.82435412   -7.1227126     778.7605  0.025439713  0.025144926            4 
 2552000   0.83702813   -7.1040565    781.01004  0.025503201  0.025137946           13 
 2553000   0.87270817   -7.0987434    781.18239  0.025498838  0.025131015            6 
 2554000   0.83630312   -7.0959809    779.81907  0.025444371  0.025124079            5 
 2555000   0.84051077    -7.112201    781.18355  0.025478916  0.025117126            7 
 2556000   0.85524825   -7.1085591    781.50012  0.025479268  0.025110158            7 
 2557000   0.83062187   -7.0914457    782.92203  0.025515644  0.025103164           11 
 2558000   0.83329285   -7.0969336    783.19815  0.025514665  0.025096198            4 
 2559000   0.85206245   -7.1167644    780.78852  0.025426225  0.025089196            5 
 2560000   0.84341946   -7.1107381    779.88743  0.025386961  0.025082177            6 
 2561000   0.83873355   -7.0903302    781.92269  0.025443274  0.025075194            8 
 2562000   0.83388578   -7.1163885     781.2182  0.025410428  0.025068235            4 
 2563000   0.84929136   -7.0880765    783.41252   0.02547186  0.025061292            3 
 2564000   0.84793673   -7.0795515    783.91269  0.025478182  0.025054381            5 
 2565000   0.83624208   -7.0965507    782.16324  0.025411411  0.025047476            7 
 2566000   0.86364621    -7.071754    783.44394    0.0254431  0.025040579            5 
 2567000   0.84411286   -7.1174155    781.67975  0.025375917  0.025033661            4 
 2568000   0.83690279   -7.0937147    782.52541  0.025393478  0.025026745            5 
 2569000   0.83938156   -7.1222308    782.69119  0.025388971  0.025019812           14 
 2570000   0.82909219   -7.1006472    782.74224  0.025380747  0.025012894            7 
 2571000    0.8452794   -7.1101298    782.59295  0.025366036  0.025005996            4 
 2572000   0.85460569   -7.0976986    781.34648  0.025315788  0.024999044           12 
 2573000   0.84427272   -7.0947096    784.17347  0.025397508  0.024992157            5 
 2574000     0.838307    -7.108398    784.00088  0.025382054  0.024985308            6 
 2575000   0.86600177   -7.1412704    783.63199  0.025360259  0.024978437            8 
 2576000   0.84242114   -7.0876047    786.40821  0.025440224  0.024971594            4 
 2577000   0.83505553   -7.0797598    783.27323  0.025328975  0.024964726            5 
 2578000   0.83781542   -7.1104821    784.34685  0.025353855   0.02495786            5 
 2579000   0.84755401   -7.1216215    783.76202  0.025325127  0.024951014           10 
 2580000   0.83887092   -7.1078425    782.67258  0.025280122  0.024944095            4 
 2581000   0.81995152   -7.1436362    784.52643  0.025330183  0.024937215            5 
 2582000   0.84103021   -7.1010323    785.03717  0.025336857  0.024930363           10 
 2583000   0.82377672   -7.1238573    782.75239  0.025253336  0.024923526            9 
 2584000   0.83557425   -7.0727735    783.38563  0.025263985  0.024916663            5 
 2585000   0.84013054   -7.1009507     783.9847  0.025273524  0.024909813            7 
 2586000   0.84266968   -7.1274174    785.46385  0.025311416  0.024902976            3 
 2587000   0.82265008   -7.0772048    786.33709  0.025329761  0.024896141           14 
 2588000   0.83094488   -7.1259268     785.0399  0.025278204  0.024889311            9 
 2589000   0.82757309   -7.1114405    787.11524   0.02533524  0.024882475            6 
 2590000   0.82700729   -7.1260256    786.18059  0.025295386  0.024875626            7 
 2591000   0.82562453   -7.0894922    784.02044  0.025216147  0.024868748            6 
 2592000   0.84529764    -7.115313    784.75984   0.02523019  0.024861867           17 
 2593000   0.83100827   -7.1226424    786.01601  0.025260831  0.024855066            4 
 2594000   0.83183037   -7.1162057    787.00099  0.025282735  0.024848215           26 
 2595000    0.8643035   -7.1173967    787.49118  0.025288734  0.024841383            7 
 2596000   0.82463968   -7.1032616    787.52195   0.02527998  0.024834585            6 
 2597000   0.83564182   -7.1406399    785.52944   0.02520631  0.024827725            8 
 2598000   0.83095395    -7.122027    786.41836  0.025225121  0.024820913            6 
 2599000   0.82622017    -7.095429    787.10558   0.02523745  0.024814077            4 
 2600000   0.82038573   -7.1010946    785.66043  0.025181424  0.024807225            9 
 2601000   0.83737725   -7.1153266    785.61071   0.02517015  0.024800387            7 
 2602000   0.84685634   -7.0928982     787.2525  0.025213057  0.024793565            3 
 2603000   0.84222078   -7.1246549      788.229  0.025234633  0.024786789            6 
 2604000   0.82955643   -7.1718735    787.38656  0.025197983  0.024779954           12 
 2605000   0.82888497   -7.0938866    788.14769  0.025212658  0.024773089            6 
 2606000   0.85601962   -7.1246391    788.98178  0.025229655  0.024766267            4 
 2607000   0.84155635   -7.1169753    788.75685  0.025212788  0.024759446            5 
 2608000   0.84225486   -7.1072499    789.29152  0.025220204  0.024752616            4 
 2609000   0.83795649   -7.1157647    787.54198  0.025154656  0.024745846            5 
 2610000   0.82716564   -7.0988705    786.42146  0.025109242  0.024739042            5 
 2611000   0.84562242   -7.1645186    789.07141  0.025184202  0.024732249            4 
 2612000   0.82749963   -7.1202461    787.61968  0.025128244  0.024725421            5 
 2613000   0.81447046   -7.1074917    789.06967   0.02516487  0.024718629            6 
 2614000   0.82349903   -7.1093473    787.79365  0.025114564  0.024711781            5 
 2615000   0.84098974    -7.102145    787.55585  0.025097382  0.024704942            7 
 2616000   0.83288018   -7.1146988    787.70888  0.025092663  0.024698134            7 
 2617000   0.82647894   -7.1102238    789.23301  0.025131608  0.024691312            4 
 2618000   0.82853415   -7.1253458    788.20763  0.025089369  0.024684475            5 
 2619000   0.83545136   -7.1019857    788.00723  0.025073413   0.02467766            4 
 2620000   0.83902002   -7.1102724    789.12696  0.025099458  0.024670884            7 
 2621000   0.83326474   -7.1480244    789.64088  0.025106222   0.02466411            7 
 2622000    0.8224405   -7.0995183    789.56627  0.025094275  0.024657342            8 
 2623000   0.84050819   -7.1292006    790.17676  0.025104103  0.024650564            5 
 2624000   0.84091937   -7.1056376    787.31263  0.025003577  0.024643804            3 
 2625000   0.80432186    -7.117726    791.87967  0.025139037  0.024637068            3 
 2626000   0.84894535   -7.1286223    789.32937  0.025048533  0.024630308            4 
 2627000   0.82257502   -7.1614945    790.54983  0.025077713  0.024623566            7 
 2628000   0.82493363   -7.1341686    791.35991  0.025093858  0.024616781            9 
 2629000   0.83247283   -7.1075225    791.81963  0.025098885  0.024610078            7 
 2630000   0.84352819   -7.1502003    790.05752  0.025033508  0.024603325           13 
 2631000   0.82565632   -7.1420034    791.56856  0.025071854  0.024596596            8 
 2632000   0.82079383   -7.1385942    790.46186  0.025027288  0.024589882            8 
 2633000   0.82727421    -7.133168    792.31759  0.025076516  0.024583124            9 
 2634000   0.81690508   -7.1098803    790.06923  0.024995863  0.024576395            8 
 2635000   0.82525275   -7.1052873    790.78233  0.025008929  0.024569622            5 
 2636000   0.81372373   -7.1425188    791.64803  0.025026809  0.024562884            5 
 2637000   0.82072255   -7.1371374    791.24179  0.025004481    0.0245562            4 
 2638000   0.82777955   -7.1369774    790.84091  0.024982338  0.024549531            4 
 2639000    0.8358727   -7.1064532    792.95968  0.025039778  0.024542821            7 
 2640000   0.83903566   -7.1404358    792.62709  0.025019795  0.024536193            5 
 2641000   0.84321793   -7.1191945    794.73491  0.025076831  0.024529534            2 
 2642000   0.83213006   -7.1582776    791.35476  0.024960723  0.024522833            5 
 2643000   0.82508216   -7.1346282    794.37694  0.025046568  0.024516172            3 
 2644000   0.81603664   -7.1239068    794.44542  0.025039253   0.02450953            6 
 2645000   0.83586673    -7.137445    793.48278  0.024999457  0.024502867            8 
 2646000   0.81455728   -7.1121537     793.2521  0.024982744  0.024496252            2 
 2647000   0.82720641   -7.1335146    793.33657  0.024975965  0.024489624            5 
 2648000   0.83604629   -7.1213421      793.716  0.024978474  0.024482973           11 
 2649000   0.82707904    -7.159875    793.29407  0.024955772  0.024476317            4 
 2650000   0.82105789   -7.1300447    791.88869   0.02490216  0.024469622            7 
 2651000   0.82063683   -7.1071919    793.51825  0.024943991  0.024462946            6 
 2652000   0.84135416   -7.1310129    791.69648   0.02487734  0.024456294            5 
 2653000   0.83941709   -7.1643485    793.35749  0.024920137  0.024449663            7 
 2654000   0.84186286   -7.1285192    793.66083  0.024920272  0.024443021           11 
 2655000   0.83192063   -7.1215796    794.71939  0.024944111  0.024436386            4 
 2656000   0.81756347   -7.1061203    794.04671  0.024913614  0.024429733            4 
 2657000   0.82402339   -7.1233971    795.07448  0.024936472  0.024423097            3 
 2658000   0.83580352   -7.1525524    797.27097  0.024995955  0.024416466           10 
 2659000   0.83610077   -7.1182159    793.67973  0.024874004  0.024409789           10 
 2660000   0.81751226   -7.1293708    792.96506  0.024842264  0.024403107            3 
 2661000   0.83348014    -7.141459    794.74748  0.024888747  0.024396406            4 
 2662000   0.83593179   -7.1266302    794.92888  0.024885076  0.024389719            5 
 2663000   0.82200988   -7.1192148    796.22393  0.024916258  0.024383051            6 
 2664000     0.835176   -7.1236775    796.96149  0.024929977  0.024376445            4 
 2665000   0.83051411   -7.1527279    794.57766  0.024846081  0.024369795            5 
 2666000   0.82465427   -7.1236827    794.78337  0.024843191  0.024363166            8 
 2667000   0.83113129   -7.1606159    794.16348  0.024814507  0.024356509            5 
 2668000   0.81592879   -7.1373386    793.46187  0.024783292  0.024349864            5 
 2669000   0.83815377   -7.1402944    796.84392  0.024879603  0.024343272            5 
 2670000   0.81801437   -7.1618654    795.58656  0.024831041  0.024336658            8 
 2671000    0.8301699   -7.1378662    796.74061   0.02485775  0.024330075            5 
 2672000   0.80762653   -7.1459427    793.82475  0.024757508  0.024323502            7 
 2673000   0.80933442   -7.1552784    797.65716  0.024867726  0.024316923           11 
 2674000   0.83942703   -7.1192602    796.58814   0.02482511  0.024310393            8 
 2675000   0.83144042   -7.1360752    795.88118  0.024793806   0.02430381            9 
 2676000   0.81945408   -7.1335498    795.41487   0.02477002  0.024297211            6 
 2677000   0.81004321   -7.1452478    798.81461  0.024866599  0.024290634            4 
 2678000    0.8099755   -7.1167809    797.28422  0.024809691  0.024284126            2 
 2679000   0.81695689   -7.1397268    796.54805  0.024777531  0.024277562            6 
 2680000   0.82943847   -7.1125232    798.30394  0.024822884  0.024271024            4 
 2681000   0.81657639   -7.1298255    797.97199  0.024803307  0.024264516            6 
 2682000   0.82361319   -7.1347493    797.26906  0.024772218  0.024257972           12 
 2683000   0.82600614    -7.142508    796.63323  0.024743236  0.024251393           10 
 2684000   0.84295812   -7.1352824    797.35313  0.024756369  0.024244822            6 
 2685000     0.836463   -7.1649538    798.41624  0.024780144  0.024238286            4 
 2686000   0.81016839   -7.1522074    798.10493   0.02476126  0.024231747            5 
 2687000   0.83408966   -7.1315275    797.87996  0.024745067   0.02422519            6 
 2688000   0.81319712   -7.1268741    797.23447   0.02471585  0.024218608           12 
 2689000   0.83561448   -7.1335906    798.72861  0.024752963   0.02421205            6 
 2690000   0.82218004   -7.1444384    797.40739  0.024702831  0.024205518            5 
 2691000   0.81316847   -7.1761169    797.15332  0.024685784  0.024198902           10 
 2692000   0.84820718   -7.1251696    798.26868   0.02471114  0.024192328            8 
 2693000   0.82099977   -7.1594151    797.38917  0.024674748   0.02418579            3 
 2694000   0.82178323   -7.1316722    800.14178  0.024750735  0.024179236            6 
 2695000   0.83145754   -7.1572838       798.21  0.024681818    0.0241727            8 
 2696000   0.81959483     -7.14593    798.92645  0.024694809  0.024166157            4 
 2697000   0.82508395   -7.1183976    800.74322  0.024741788  0.024159655            4 
 2698000   0.83995562   -7.1579632    799.98299  0.024709136  0.024153118            7 
 2699000   0.83080222   -7.1654591     799.4813  0.024684491  0.024146558            9 
 2700000   0.82350358   -7.1748587    797.65149  0.024618873  0.024139968            4 
 2701000   0.81792595   -7.1419776    797.95321  0.024619067  0.024133423            8 
 2702000   0.83635949   -7.1556806    799.98771  0.024672703  0.024126886           10 
 2703000   0.83030918   -7.1736988    797.61464  0.024590413  0.024120334            6 
 2704000   0.81910933   -7.1633267    800.05257  0.024656452  0.024113772            4 
 2705000   0.82141473   -7.1743362    797.77933  0.024577305  0.024107199            4 
 2706000   0.83678731   -7.1709691    797.61902  0.024563286  0.024100641            4 
 2707000   0.82049995   -7.1667893    798.18911  0.024571762   0.02409403            5 
 2708000    0.8473701   -7.1531373    799.09709  0.024590629  0.024087393            4 
 2709000   0.81131607   -7.1559525    796.24436  0.024493797  0.024080776            6 
 2710000   0.79999365   -7.1186901    800.21345   0.02460681  0.024074149           12 
 2711000   0.80768334   -7.1558148    799.13956  0.024564723  0.024067519            5 
 2712000   0.80968579   -7.1665935    799.79487  0.024575801  0.024060915            9 
 2713000   0.83452503   -7.1352934    800.07972  0.024575492   0.02405431           10 
 2714000   0.82907616   -7.1324729    801.05192  0.024596288  0.024047721           10 
 2715000   0.80860428   -7.1500472    799.04666   0.02452568  0.024041077            5 
 2716000   0.82887172   -7.1638812    798.05777  0.024486309   0.02403445            8 
 2717000   0.82580101     -7.16325    799.07168  0.024508394  0.024027774           10 
 2718000   0.83102368   -7.1362818    799.80781  0.024521946  0.024021131            6 
 2719000   0.82864728   -7.1550731    799.05258  0.024489781  0.024014504            4 
 2720000   0.81078604   -7.1722485    800.19067  0.024515646  0.024007862            5 
 2721000   0.82421339   -7.1439286    801.43319  0.024544689  0.024001275            4 
 2722000   0.82626472   -7.1328452    801.09999  0.024525471  0.023994712           14 
 2723000   0.82780804   -7.1586433    799.46266  0.024466356  0.023988106            6 
 2724000   0.81798622   -7.1301191    801.70555   0.02452599   0.02398149            6 
 2725000   0.80762149   -7.1416944    798.30586  0.024413023  0.023974853            5 
 2726000   0.81742244   -7.1464347     800.7241  0.024477993  0.023968265            5 
 2727000   0.82880445   -7.1497396    800.97222  0.024476599  0.023961663            8 
 2728000   0.81362612   -7.1277934    800.78252  0.024461831  0.023955108            3 
 2729000    0.8160595    -7.142666    801.84845  0.024485417  0.023948578            8 
 2730000   0.79212052   -7.1487012    799.64628  0.024409227  0.023941976           12 
 2731000   0.81055212   -7.1600167    800.24127  0.024418445  0.023935351           18 
 2732000   0.82527919   -7.1725516    800.79998  0.024426549  0.023928736           14 
 2733000   0.82188761   -7.1552116    801.45781   0.02443767   0.02392211            8 
 2734000   0.80414445   -7.1871581    802.21694   0.02445187  0.023915464            7 
 2735000   0.82292118   -7.1669248    800.20644  0.024381671  0.023908808            7 
 2736000   0.79764056   -7.1477616    801.28471  0.024405601  0.023902159            8 
 2737000   0.81262042   -7.1330561    800.81086  0.024382257  0.023895526            7 
 2738000    0.8104795   -7.1480873    802.19938  0.024415613  0.023888921            6 
 2739000   0.82124836   -7.1524503    802.91869  0.024428584  0.023882302            7 
 2740000   0.80605747   -7.1751402    799.24895  0.024308058  0.023875661            6 
 2741000   0.83284263   -7.1408264    800.85889  0.024348136  0.023869022            5 
 2742000   0.81799895   -7.1864485    799.58791  0.024300629  0.023862385            6 
 2743000   0.79974542   -7.2013067    799.25909  0.024281781  0.023855682            9 
 2744000   0.82282617   -7.1663345    801.28526  0.024334465   0.02384898           10 
 2745000   0.81413104   -7.1577053    799.24827   0.02426376  0.023842299            9 
 2746000   0.82057327   -7.1399082    800.58061  0.024295357  0.023835658            8 
 2747000   0.78122068   -7.1609602    801.22588  0.024306088  0.023829023            7 
 2748000   0.81846647   -7.1332191    802.63571  0.024339996  0.023822408            8 
 2749000   0.79754487   -7.1536929    799.60159  0.024239165  0.023815799            9 
 2750000   0.82052879   -7.1897535    800.92551   0.02427047  0.023809085            3 
 2751000   0.79319455   -7.1689221    802.16746  0.024299269  0.023802394            7 
 2752000   0.81472475   -7.1696199    801.82726  0.024280138  0.023795744            7 
 2753000   0.80692949   -7.1573743    800.36104  0.024226935  0.023789105           12 
 2754000   0.80805181   -7.2004337    800.08839  0.024209888  0.023782457            8 
 2755000   0.81414884   -7.1526426    803.32331  0.024298951  0.023775803            5 
 2756000   0.81571509   -7.1222308    801.93828  0.024248255  0.023769157            8 
 2757000   0.81119389    -7.121022    801.31917  0.024220746  0.023762584            5 
 2758000   0.82177511    -7.160829    803.24871  0.024270266  0.023755974            4 
 2759000   0.81523491   -7.1516727    803.60146  0.024272123  0.023749378            5 
 2760000    0.8124162   -7.1807219    800.67081  0.024174843  0.023742745           15 
 2761000    0.8132486    -7.168186    801.75067   0.02419868  0.023736144            5 
 2762000   0.81353124   -7.1874155    803.14011   0.02423184  0.023729552            8 
 2763000   0.82349878   -7.1567224    803.09347  0.024221663  0.023722982            4 
 2764000   0.80091983   -7.1122816    802.73625   0.02420213  0.023716389            3 
 2765000   0.79653259   -7.1409702     802.8072  0.024195515  0.023709785            4 
 2766000   0.81603945   -7.1623605    804.18807   0.02422837  0.023703172           11 
 2767000   0.81642035   -7.1555513    803.66179  0.024203764  0.023696586           13 
 2768000   0.81029921   -7.1888148     804.7257   0.02422705  0.023689979            7 
 2769000   0.79826926   -7.1924977    802.97766  0.024165694   0.02368343            7 
 2770000   0.78737591   -7.1739686    805.78845   0.02424153  0.023676828            7 
 2771000   0.80395278   -7.2073959    800.79947  0.024082746  0.023670175           10 
 2772000   0.80615834   -7.1787169    804.06633  0.024172268  0.023663543            4 
 2773000   0.80019443   -7.2140242    801.68593  0.024092016  0.023656927            9 
 2774000    0.8107086   -7.1710383    804.27267  0.024161039  0.023650324            6 
 2775000   0.82881125   -7.1571056    805.12317  0.024177873  0.023643742            4 
 2776000    0.7947481   -7.1822793     802.9851   0.02410498  0.023637152            4 
 2777000   0.79853116   -7.1580469    804.21115  0.024133092  0.023630572            9 
 2778000    0.8030299   -7.1667858    805.29974   0.02415706  0.023623985           10 
 2779000   0.81067929   -7.1558597    803.44026  0.024092607  0.023617401            7 
 2780000   0.80266968   -7.1881174    804.71585  0.024122178   0.02361078            2 
 2781000   0.79353107   -7.1717166    804.45742   0.02410576   0.02360419            8 
 2782000   0.80357971   -7.1820024    803.38064  0.024064841  0.023597588            7 
 2783000   0.80046377   -7.1882413    803.23531  0.024051842  0.023590952            3 
 2784000   0.80568329   -7.1690053    805.26321  0.024103903  0.023584382            6 
 2785000   0.80604347   -7.1890117     803.7648  0.024050413  0.023577789            7 
 2786000   0.80724852    -7.177806    805.33031  0.024088607  0.023571191            8 
 2787000   0.83065151   -7.1892936    804.55352  0.024056737  0.023564583           24 
 2788000   0.81098981   -7.1964479    804.27016  0.024039639  0.023557972           10 
 2789000    0.8138056    -7.171971    803.72879  0.024014844  0.023551401            4 
 2790000   0.79253794   -7.1739494    804.71288   0.02403563  0.023544784            4 
 2791000   0.78425997    -7.171094    802.30449  0.023955108  0.023538208            3 
 2792000   0.81091414   -7.1912198    803.97946  0.023996522  0.023531592           13 
 2793000   0.81424868   -7.1814535    805.89568  0.024045103  0.023524974           12 
 2794000   0.80941832   -7.1749842    806.01153  0.024039953  0.023518344            4 
 2795000    0.8037141   -7.1701529     805.6916  0.024021813  0.023511697            4 
 2796000   0.80733089    -7.194912    804.47866   0.02397707  0.023505069            4 
 2797000   0.80049787   -7.1751613    803.08423  0.023926952  0.023498428           14 
 2798000   0.80447264   -7.1930883    804.56703  0.023962563  0.023491785            8 
 2799000   0.80347567   -7.1825171    803.86464   0.02393309  0.023485123           13 
 2800000   0.80327809   -7.1918509    803.90587   0.02392577  0.023478471            6 
 2801000   0.79168198    -7.202288     805.5872   0.02396725  0.023471818            5 
 2802000   0.81119996   -7.2031091    803.21033  0.023888007  0.023465159           12 
 2803000   0.80706063   -7.1786669    804.82908   0.02392761  0.023458496           12 
 2804000   0.80323862    -7.168718    806.75762  0.023976392  0.023451901            4 
 2805000   0.80438073   -7.1887453    807.22903  0.023981849  0.023445344            4 
 2806000   0.80177965   -7.1878039    804.22682  0.023884142  0.023438786            5 
 2807000   0.81426826   -7.2121444    806.39956  0.023940137  0.023432207            4 
 2808000   0.80205968   -7.1676262    806.36556  0.023930602  0.023425634            5 
 2809000   0.79836257   -7.1499609     805.3173  0.023890984  0.023419051            8 
 2810000   0.79451579   -7.1906622    808.73923  0.023983963  0.023412503            6 
 2811000   0.81429105   -7.1711509    805.99174   0.02389398  0.023405978            3 
 2812000   0.81307989   -7.2053125    806.93038    0.0239133  0.023399469            5 
 2813000   0.81438133   -7.1828592    808.51941  0.023951873  0.023392957            8 
 2814000   0.79366546   -7.1408429    810.06127  0.023989021  0.023386479            3 
 2815000   0.80145992   -7.1748762    807.94175  0.023917755  0.023379977           11 
 2816000    0.8143004   -7.1989516    805.33903  0.023832239  0.023373457            7 
 2817000   0.79088082   -7.1896474    807.86476  0.023898496  0.023366907            7 
 2818000   0.79425509   -7.1791666     808.2964   0.02390278  0.023360389            6 
 2819000   0.80187498    -7.217559    807.11306   0.02385932  0.023353882            5 
 2820000   0.82117178   -7.1864645    809.07566  0.023908855  0.023347379            5 
 2821000   0.80016628   -7.1953997    808.50908  0.023883643   0.02334091            6 
 2822000   0.79866749   -7.2051507    810.08089  0.023921595  0.023334438            4 
 2823000   0.80184837   -7.2006311    808.83546  0.023876357  0.023327974            3 
 2824000      0.79068   -7.2174285    807.47216  0.023827672  0.023321487            6 
 2825000   0.78402129   -7.1824932    808.85445  0.023860013  0.023315007            4 
 2826000   0.80677961   -7.2120976    809.56198  0.023872434  0.023308575            5 
 2827000   0.80344503   -7.1901329    806.96465  0.023787426  0.023302085           17 
 2828000   0.81863345   -7.1900486    809.73582  0.023860674   0.02329561           15 
 2829000   0.80405765     -7.17342    809.95819   0.02385879  0.023289148            4 
 2830000   0.81716033   -7.1762256    807.54032  0.023779161  0.023282683            6 
 2831000   0.81672041   -7.1958885    810.55906  0.023859621  0.023276229            5 
 2832000   0.80717445   -7.1933114    810.98075  0.023863605  0.023269784            8 
 2833000   0.77922286   -7.1906496    808.27493  0.023775589  0.023263317           14 
 2834000   0.81054247   -7.1952788    812.54279  0.023892695  0.023256845            9 
 2835000   0.79878985   -7.2242179    808.69581  0.023771188  0.023250362            7 
 2836000   0.79375033   -7.2062916    808.86709  0.023767839  0.023243859           16 
 2837000   0.79162945   -7.2067588    808.58928  0.023751301  0.023237336           21 
 2838000   0.80362878   -7.2177906     809.3793  0.023766129  0.023230847            7 
 2839000   0.78621695   -7.2203719    809.08862  0.023749226   0.02322434           10 
 2840000   0.78760825   -7.1723417    808.45718  0.023722335  0.023217846            5 
 2841000   0.79196017   -7.2090013     809.0574  0.023731591  0.023211284           10 
 2842000   0.78076054   -7.2174803    806.74546   0.02365545   0.02320474            5 
 2843000   0.79613194   -7.1790346    808.70201  0.023704479  0.023198233            9 
 2844000   0.79049147    -7.195226    808.01283   0.02367595  0.023191748            5 
 2845000   0.79219204   -7.1940334    809.07232  0.023698662  0.023185219            4 
 2846000   0.77746789   -7.2127403    809.89856  0.023714528  0.023178681            3 
 2847000   0.79674592   -7.1962531    808.48702  0.023664882  0.023172185            5 
 2848000   0.78882628   -7.2042408    809.52993  0.023687088  0.023165724           10 
 2849000   0.80276397   -7.2291555    809.02446  0.023663989  0.023159267            8 
 2850000   0.79103103   -7.1913264    810.44181  0.023697129  0.023152817            9 
 2851000   0.80225302   -7.2160813    809.64924  0.023665651  0.023146356           10 
 2852000   0.79307811    -7.177471    809.84937  0.023663201  0.023139889            6 
 2853000   0.79238788   -7.1982746    811.60657  0.023706232  0.023133436            8 
 2854000   0.79447358   -7.1962126    811.59316  0.023697534  0.023126998            7 
 2855000   0.78344714   -7.1843567    811.98848  0.023700773   0.02312055            6 
 2856000   0.79609343   -7.2304742    811.43475  0.023676317  0.023114057           15 
 2857000   0.79642265   -7.1974222    811.71234  0.023676127  0.023107552           33 
 2858000   0.79076796   -7.2094213    810.05628  0.023619556  0.023101098            6 
 2859000   0.79371045   -7.2267113    810.33328  0.023619368  0.023094675            9 
 2860000   0.78985531   -7.1967238    812.28226  0.023667898  0.023088234           10 
 2861000   0.78598125   -7.2179293    812.36431  0.023662015  0.023081793            5 
 2862000   0.78854875   -7.1805231    812.89622  0.023669236  0.023075355           16 
 2863000   0.78512431   -7.1946984    811.77921  0.023628455  0.023068922           11 
 2864000   0.81732797   -7.2050677    810.61586  0.023586355  0.023062471            5 
 2865000   0.78389719   -7.1989732    811.26123  0.023596894  0.023056033            4 
 2866000   0.79857668   -7.2240514    812.85464  0.023634992  0.023049639            5 
 2867000   0.79819362   -7.2095156    811.13286  0.023576702  0.023043233           10 
 2868000   0.78841231   -7.1601259    811.05031  0.023566083   0.02303681            7 
 2869000   0.78710444    -7.182993      813.709  0.023635094  0.023030409            9 
 2870000   0.79361404   -7.2053872    811.94416  0.023575614   0.02302398           12 
 2871000    0.8281965     -7.22743     812.5888  0.023586114  0.023017517            7 
 2872000   0.78849318   -7.2115791    813.20706  0.023595841  0.023011085            8 
 2873000   0.79799537   -7.1803413    811.02283  0.023524273  0.023004674            9 
 2874000   0.78978903   -7.1947976     812.2457  0.023551546  0.022998276            6 
 2875000   0.79352264   -7.1991907    812.58708  0.023553249  0.022991862            6 
 2876000   0.78556773   -7.2117721    812.15561  0.023532557  0.022985416            5 
 2877000    0.7910179   -7.2172529    811.62306  0.023508952   0.02297895            5 
 2878000   0.78677903    -7.232539    811.59493  0.023499969  0.022972501            5 
 2879000   0.78388681   -7.2275771    812.60447  0.023521028  0.022966069            6 
 2880000    0.8130716   -7.2132311    815.00278  0.023582256  0.022959625            4 
 2881000    0.7997571   -7.2111491    814.77717  0.023567545  0.022953209            8 
 2882000   0.79491976   -7.2146498    813.15735   0.02351253  0.022946799            5 
 2883000   0.78340545   -7.2220954    812.78938  0.023493739  0.022940378            4 
 2884000   0.79301253   -7.2277211    813.03502   0.02349269  0.022933968            7 
 2885000   0.77622958   -7.2080649    812.08941  0.023457233  0.022927534            4 
 2886000   0.79680101   -7.1859249    813.02717  0.023476183  0.022921092           12 
 2887000   0.79885735   -7.2134575    813.35206  0.023477429  0.022914701            8 
 2888000   0.78703125   -7.2213063    813.13538  0.023463048   0.02290832           23 
 2889000   0.78126709   -7.2216358    814.06564  0.023481759  0.022901932            9 
 2890000   0.79220863    -7.240868     813.0419  0.023444115  0.022895538           10 
 2891000   0.76738456   -7.2105372    812.45896  0.023419202  0.022889101           10 
 2892000   0.78611646   -7.2374806     812.3951  0.023409264  0.022882702           11 
 2893000   0.79414587   -7.1912128    814.15507  0.023451869  0.022876333           11 
 2894000   0.78193434   -7.2095528    814.81355  0.023462726   0.02286996            8 
 2895000   0.77707734   -7.2194924    814.16781  0.023436034  0.022863568           19 
 2896000   0.77696605   -7.2123651    812.92542  0.023392191  0.022857182            7 
 2897000   0.79169238   -7.2268932    813.30323  0.023394984  0.022850782            8 
 2898000   0.78024296   -7.2222096    814.19931  0.023412679  0.022844413           12 
 2899000   0.81011279   -7.2357532    813.64678   0.02338872   0.02283809            5 
 2900000   0.79896521   -7.1929896    815.26417  0.023427131  0.022831761           10 
 2901000   0.78670211     -7.22226    814.78684  0.023405344  0.022825421            5 
 2902000   0.80073375    -7.219892    815.23988  0.023410288  0.022819086            7 
 2903000   0.77590021   -7.2317071    813.12981  0.023341652  0.022812704           14 
 2904000   0.78034033   -7.2411629    815.82242  0.023410882  0.022806303            9 
 2905000   0.79066611   -7.2075234    813.99512  0.023350405   0.02279993            5 
 2906000   0.78225683   -7.1874079    813.98663  0.023342126  0.022793591            4 
 2907000   0.79966035   -7.2215518    815.66914  0.023382328  0.022787232            7 
 2908000   0.79547036   -7.2210739    814.67252  0.023345728  0.022780857            5 
 2909000   0.78357011   -7.2549984    813.81598  0.023313166  0.022774468            6 
 2910000   0.78442547   -7.2312584    813.61892  0.023299511  0.022768098            7 
 2911000   0.77780412   -7.2424047    816.18788  0.023365049   0.02276169           11 
 2912000   0.79326367   -7.2376097    816.07794  0.023353879  0.022755259            7 
 2913000   0.78975818    -7.241938    813.50232   0.02327218  0.022748845            8 
 2914000   0.77756696   -7.2403782    813.44548  0.023262568  0.022742438            5 
 2915000    0.7783984   -7.2202694    815.01563  0.023299475  0.022736087            9 
 2916000   0.76650529   -7.2080568    817.56189  0.023364251  0.022729714            6 
 2917000   0.78907502   -7.1959418    816.71906  0.023332164  0.022723417            6 
 2918000   0.79156367   -7.1867291    817.50156  0.023346515   0.02271713            7 
 2919000    0.8056705   -7.2018088    815.26339   0.02327462  0.022710816            5 
 2920000   0.78737474   -7.2424293    815.18303  0.023264356  0.022704513            5 
 2921000   0.79722355   -7.2226007    816.83039  0.023303389  0.022698222           12 
 2922000   0.79793193   -7.1985218    817.42578  0.023312394  0.022691906            8 
 2923000   0.79465009   -7.1989284    816.62314  0.023281535  0.022685598            4 
 2924000   0.78882926     -7.21872    816.78872  0.023278292  0.022679323           11 
 2925000   0.79890017   -7.2091607    817.11184   0.02327954  0.022673013            5 
 2926000   0.78664478   -7.2140143    816.94391  0.023266801  0.022666666            7 
 2927000   0.78815019   -7.2119996    817.14234  0.023264501  0.022660345            6 
 2928000   0.77185406   -7.2411927    816.72049  0.023244549     0.022654            8 
 2929000   0.78569402   -7.2178214    816.60224  0.023233249  0.022647652            3 
 2930000   0.78958534   -7.2493303    817.25775  0.023243963  0.022641308            7 
 2931000   0.78346345   -7.2139521    816.13363  0.023204072  0.022634947            6 
 2932000   0.77968419   -7.2387362    817.57012  0.023236986  0.022628605            3 
 2933000   0.79946546   -7.2305871    817.52216  0.023227701  0.022622275            7 
 2934000   0.78376044   -7.2475528    816.44775  0.023189268  0.022615937            6 
 2935000   0.79292221   -7.2445775    818.87196  0.023250198  0.022609642           11 
 2936000   0.78567959   -7.2082724    818.86153  0.023241983   0.02260335            5 
 2937000   0.79042375   -7.2218113    818.61363  0.023227035  0.022597087            8 
 2938000   0.77160702    -7.239332    818.55513   0.02321747  0.022590795           16 
 2939000   0.79238169    -7.236429    818.16093  0.023198393  0.022584449            7 
 2940000   0.78896246   -7.2239073    819.54949  0.023229861  0.022578148            9 
 2941000   0.77182608   -7.2484963    817.34282  0.023159436  0.022571858           17 
 2942000    0.7776753   -7.2561206    817.64309  0.023160069   0.02256555           12 
 2943000   0.79519874   -7.2525173    817.78133  0.023156114  0.022559247            6 
 2944000   0.76182759   -7.2418349    817.44313  0.023138676  0.022552931           11 
 2945000   0.77366475   -7.2341914     817.9745  0.023145855  0.022546594            9 
 2946000   0.78378661   -7.2383697    818.38767  0.023149685  0.022540325            4 
 2947000   0.78781584   -7.2492896    818.18943  0.023136224  0.022534014            7 
 2948000   0.76939142   -7.2325375     819.1885  0.023156618  0.022527712            6 
 2949000   0.80241414   -7.2438584     819.1284  0.023147067  0.022521436            4 
 2950000   0.77693724   -7.2079723    819.08618  0.023138028   0.02251514            3 
 2951000   0.80328133   -7.2329022    818.39139  0.023110567  0.022508863           11 
 2952000   0.76900547   -7.2646559    818.62519  0.023109338  0.022502548            6 
 2953000   0.77179732   -7.2453065    816.91832  0.023053345   0.02249622            4 
 2954000   0.77826875   -7.2544381    818.36958  0.023086481  0.022489881            6 
 2955000   0.77555293   -7.2324934    816.78513  0.023033986  0.022483558           11 
 2956000   0.77663539   -7.2351208    817.59522  0.023049031  0.022477243            5 
 2957000   0.78698172    -7.223546    818.84293  0.023076399  0.022470951            6 
 2958000   0.77665787   -7.2534899    818.00275  0.023044928  0.022464699           12 
 2959000    0.7691592   -7.2348642    817.69319  0.023028422  0.022458369            8 
 2960000    0.7892552    -7.253774    818.29777  0.023037662  0.022452063           10 
 2961000   0.77630024   -7.2399163    818.81911  0.023044554  0.022445767            8 
 2962000   0.77861188   -7.2473078    819.00941  0.023042128  0.022439467            8 
 2963000   0.79021605   -7.2210708    819.74817  0.023055129  0.022433208            8 
 2964000   0.78388287   -7.2280986    819.63121  0.023044062  0.022426967           14 
 2965000   0.77969795   -7.2413574    819.20236  0.023024237  0.022420719           12 
 2966000   0.79334812   -7.2473947    821.45357  0.023079725  0.022414498           13 
 2967000   0.77367074    -7.229762    820.11556  0.023034366  0.022408248            8 
 2968000   0.78641325    -7.227612    819.51819  0.023009832  0.022401986           10 
 2969000   0.77622084   -7.2608687    818.64426  0.022977553   0.02239569            5 
 2970000   0.77818455   -7.2563782    820.06808  0.023009767  0.022389407           11 
 2971000   0.76016735   -7.2511539    820.88366  0.023024898  0.022383115           11 
 2972000   0.78455496   -7.2600402    820.49586  0.023006277  0.022376853            4 
 2973000   0.78638527   -7.2607886    816.80609  0.022895114  0.022370586            8 
 2974000   0.77065467   -7.2394051    819.81664  0.022971773  0.022364317            5 
 2975000   0.79452713   -7.2617651    820.01048  0.022969481  0.022358044            9 
 2976000   0.77545459    -7.256913    821.88976  0.023014386  0.022351811            8 
 2977000   0.77935147   -7.2389755     821.1267  0.022985296   0.02234558            6 
 2978000   0.76477113   -7.2420171    819.83923   0.02294155   0.02233934           10 
 2979000   0.76531391   -7.2465886    819.73216  0.022930854  0.022333104            9 
 2980000   0.79234432   -7.2670559    818.41645  0.022886366  0.022326838            6 
 2981000   0.77576158   -7.2436637    821.65337  0.022969176  0.022320599            7 
 2982000   0.78136997   -7.2297847    820.38364  0.022925991  0.022314389            4 
 2983000   0.77807468   -7.2525151    820.44746  0.022920088  0.022308128           12 
 2984000   0.78450026    -7.263621    820.65268  0.022918138  0.022301857            6 
 2985000   0.77953626   -7.2581821    819.67064  0.022883044  0.022295623           11 
 2986000    0.7854029   -7.2406043    820.81444  0.022907302  0.022289404            6 
 2987000   0.76486779    -7.238185    821.08291  0.022907123  0.022283185            8 
 2988000   0.77528247    -7.271006    822.10179  0.022927872  0.022276976            5 
 2989000   0.77900262   -7.2582367    822.00487  0.022917499   0.02227076           18 
 2990000   0.76687773    -7.251233    823.41585   0.02294916  0.022264533           11 
 2991000    0.7854928   -7.2450538    821.32762  0.022883306  0.022258356            8 
 2992000   0.77849819   -7.2442605    822.77722  0.022916032  0.022252201            6 
 2993000   0.77104706   -7.2287543    824.07455  0.022944497  0.022246018           13 
 2994000   0.77888374   -7.2635321    821.89243  0.022876097  0.022239835            5 
 2995000   0.77192459   -7.2440884    822.91373  0.022896876  0.022233662            7 
 2996000   0.77238544    -7.262905    822.40372  0.022875048  0.022227484            6 
 2997000   0.77491341   -7.2395381    823.06993  0.022885939  0.022221281            9 
 2998000   0.76157725   -7.2686038    822.01706   0.02284904  0.022215089            7 
 2999000   0.77214377   -7.2399679    823.12635  0.022872245  0.022208876           11 
 3000000     0.775406   -7.2772293    822.16453  0.022837903  0.022202674           12 
 3001000   0.75297647   -7.2928612    824.50627   0.02289532  0.022196492            5 
 3002000   0.77099732   -7.2592124    822.80442  0.022840451  0.022190324            4 
 3003000   0.78477628   -7.2410354    824.84581  0.022889494  0.022184169            6 
 3004000   0.76196615   -7.2735366    822.15951  0.022807354   0.02217802           10 
 3005000   0.77232137   -7.2539882     821.6452  0.022785502  0.022171858            8 
 3006000   0.76079585   -7.2776944    823.08617  0.022817869  0.022165711            8 
 3007000   0.76260704   -7.2647824    822.53969  0.022795136   0.02215956            4 
 3008000   0.77678186   -7.2601732    823.33722  0.022809653  0.022153385            8 
 3009000   0.77155795    -7.290769     824.0081  0.022820652  0.022147219            5 
 3010000   0.76856352   -7.2552822    823.53165   0.02279988  0.022141075            8 
 3011000   0.75919262    -7.279283    825.55247  0.022848236  0.022134942            7 
 3012000   0.78430257   -7.2632059    824.89992  0.022822596   0.02212883            5 
 3013000   0.78630777   -7.2459561    825.19974  0.022823314  0.022122714            2 
 3014000   0.75961848   -7.2488789    826.21642  0.022843851  0.022116583            7 
 3015000   0.76452496   -7.2588522    824.06433  0.022776792  0.022110459            4 
 3016000   0.76746161   -7.2510476    825.68198  0.022813936  0.022104355            6 
 3017000   0.76793449   -7.2587405    823.04722  0.022733599   0.02209826            8 
 3018000   0.76509775   -7.2653176    823.40808  0.022736031  0.022092123            4 
 3019000   0.77376398   -7.2790884    825.06791  0.022774316  0.022085969            6 
 3020000   0.76709556   -7.2758439    823.60906  0.022726519  0.022079852            5 
 3021000   0.77424236   -7.2597934    824.84086  0.022752975   0.02207371            8 
 3022000   0.77541204   -7.2748853    824.35915  0.022732163  0.022067563            8 
 3023000   0.76610875   -7.2742254    826.13625  0.022773631  0.022061441            7 
 3024000   0.74437671   -7.2837429    823.67601  0.022698303   0.02205534           10 
 3025000   0.76438592   -7.2494375    825.76562  0.022748364  0.022049232            6 
 3026000   0.77078831   -7.2657685    826.96236  0.022773804  0.022043133            9 
 3027000   0.77708967   -7.2289591    826.58307  0.022755838  0.022037089           10 
 3028000   0.75902387   -7.2522306     826.0463  0.022733551  0.022031067            4 
 3029000   0.77306488   -7.2396167    827.13183   0.02275591  0.022025031            6 
 3030000   0.75537627   -7.2766985    827.20748  0.022750481  0.022019029           11 
 3031000   0.76609111   -7.2669206    826.00396  0.022709886  0.022013003            5 
 3032000   0.76818973   -7.2260604    826.09949  0.022705021  0.022006968           14 
 3033000   0.78990314   -7.2463359    826.73822  0.022715085  0.022000921           11 
 3034000   0.75998857   -7.2715653     825.3861   0.02267046  0.021994863            7 
 3035000   0.75839557   -7.2465394    827.32558  0.022716243  0.021988802            9 
 3036000   0.76533526   -7.2486268    827.08153  0.022702062  0.021982738           19 
 3037000   0.77605657    -7.273131    827.13078  0.022695939  0.021976678            5 
 3038000   0.76243531   -7.2585022    826.41459  0.022668822   0.02197063            8 
 3039000   0.76163099   -7.2637836    827.55212  0.022692556  0.021964597           13 
 3040000   0.77626612   -7.2792951    827.85605  0.022693423   0.02195856            4 
 3041000   0.76159857   -7.2582372    824.51434  0.022594386  0.021952501            7 
 3042000   0.75894552   -7.2580693    825.44659  0.022612497  0.021946422            7 
 3043000   0.76768425   -7.2771409    826.94071  0.022645983  0.021940298            8 
 3044000   0.77304968   -7.2574595    825.40589  0.022596526  0.021934186           23 
 3045000   0.75863239   -7.3048196    826.24316  0.022612018  0.021928085           11 
 3046000   0.75462998   -7.2940231    826.19404  0.022603251  0.021921943           13 
 3047000   0.76587647   -7.2800972    825.46163  0.022575802  0.021915815            8 
 3048000   0.77713288   -7.2880059    825.58163  0.022571676  0.021909697            5 
 3049000   0.74651107    -7.286633    826.40504  0.022586778  0.021903581            7 
 3050000   0.77146673   -7.2638747    825.08115  0.022543201  0.021897518           16 
 3051000   0.73332502   -7.2420127    827.36081  0.022598077   0.02189147            3 
 3052000   0.76939669   -7.2881814    828.21295   0.02261394  0.021885418            7 
 3053000    0.7866345   -7.2540025    828.18827   0.02260586  0.021879387            9 
 3054000   0.75547793    -7.273831    826.93038  0.022564134  0.021873335           11 
 3055000   0.75329773   -7.2665814    825.78985  0.022525637  0.021867245            6 
 3056000   0.76086216   -7.2784143    826.37637   0.02253426  0.021861145            7 
 3057000   0.74921489   -7.2824718    827.38948  0.022554506  0.021855021            7 
 3058000   0.76479253    -7.296136    826.66898  0.022527496  0.021848896            9 
 3059000   0.76866602   -7.2679857    826.38357  0.022512356  0.021842772           10 
 3060000   0.75994075   -7.2690293    825.58055  0.022483131   0.02183668           14 
 3061000   0.74043019   -7.2479866    827.72448  0.022534152  0.021830597           11 
 3062000   0.76525215   -7.2638891    827.85409   0.02253032  0.021824531            5 
 3063000   0.76297446   -7.2896363    829.44505  0.022566249  0.021818462            6 
 3064000   0.76362386   -7.2797412    829.47965  0.022559825  0.021812374            7 
 3065000   0.76326495    -7.259846    828.07525  0.022514281  0.021806328            5 
 3066000   0.75809496   -7.2542597    827.95057  0.022503549  0.021800285            7 
 3067000   0.77333023    -7.266962     826.9683  0.022469522  0.021794223            4 
 3068000   0.75684885   -7.2506461     827.6587  0.022480951  0.021788159            2 
 3069000   0.77752383    -7.271241    829.57507  0.022525662  0.021782099            4 
 3070000   0.76060575   -7.2792069    825.05219  0.022395554   0.02177604            6 
 3071000   0.76671995   -7.2863184    828.62686  0.022485262  0.021769946            5 
 3072000   0.76959795   -7.3028466    827.59847  0.022450045  0.021763858            7 
 3073000   0.77623877   -7.3061924    827.18614  0.022431558  0.021757776            9 
 3074000   0.76705311   -7.2944725    828.23374   0.02245266  0.021751678            9 
 3075000   0.75097798   -7.3108797    826.96851  0.022411071  0.021745597            5 
 3076000   0.74729361   -7.3142792    828.16593  0.022436225  0.021739507            4 
 3077000    0.7668547   -7.3086401     825.4911  0.022356492  0.021733363            7 
 3078000   0.76673815   -7.2769333    827.55716  0.022405165  0.021727236            6 
 3079000   0.76441828   -7.2478866     828.2223   0.02241589  0.021721161            6 
 3080000   0.76599027   -7.2908175    825.18078   0.02232632  0.021715069           11 
 3081000   0.76049248   -7.2808087    828.09298  0.022397841  0.021708961           14 
 3082000    0.7504246   -7.2774433    828.73812  0.022408018  0.021702849           11 
 3083000   0.74434188   -7.2835576    826.80212  0.022348419  0.021696742            5 
 3084000   0.75687368   -7.2897958    827.95199  0.022372244  0.021690628            5 
 3085000   0.75775861   -7.2664464    827.06425  0.022341012  0.021684542            5 
 3086000   0.75413824   -7.2993043    825.60532  0.022294376  0.021678446            6 
 3087000   0.76621951   -7.2795118    826.90545  0.022322251  0.021672348            7 
 3088000   0.74977936   -7.3080352    826.72956  0.022310275  0.021666244            8 
 3089000   0.74201804   -7.2977546    827.86743   0.02233375  0.021660151            3 
 3090000   0.76188912   -7.3066371    827.19285  0.022308329   0.02165408           11 
 3091000   0.73349886   -7.2911068    827.79995   0.02231748  0.021647982           12 
 3092000   0.75698225   -7.3214215    828.13121   0.02231919  0.021641873           24 
 3093000   0.74855932   -7.2848629    828.42384  0.022319858  0.021635758           10 
 3094000   0.74801722   -7.2873392    828.70141   0.02232012  0.021629663            9 
 3095000   0.76864369   -7.2891927    829.58342  0.022336656  0.021623595            9 
 3096000   0.74658564   -7.2830052    828.87906  0.022310483  0.021617519           14 
 3097000    0.7418572   -7.2963976    829.61299  0.022323027  0.021611427            5 
 3098000   0.77834272   -7.3051253    829.17884  0.022304143  0.021605339           15 
 3099000    0.7564135   -7.2847349    828.23523  0.022271572  0.021599253            8 
 3100000   0.75956289   -7.2992316     828.8468  0.022280828  0.021593168            9 
 3101000   0.75582471   -7.2827725    829.43782  0.022289526  0.021587108           24 
 3102000   0.76182002   -7.2940862    827.46518  0.022229346  0.021581011            3 
 3103000   0.76093641    -7.302215    828.12659  0.022239945  0.021574898            5 
 3104000   0.75775959   -7.3021519    827.04049  0.022203621  0.021568795            8 
 3105000   0.77093075   -7.2739366    829.36326   0.02225881  0.021562694           10 
 3106000   0.76075154   -7.2869217    827.57846  0.022203758   0.02155662           10 
 3107000   0.75227121   -7.3054381    828.72502  0.022227363  0.021550552            7 
 3108000   0.76599266   -7.2872788    831.50901  0.022294858  0.021544504           12 
 3109000   0.75292657   -7.2863866    829.73386  0.022240105  0.021538454           16 
 3110000   0.74972155   -7.2616897    830.60676  0.022256344  0.021532387           17 
 3111000   0.77920553   -7.3277513     828.7283  0.022198872  0.021526359           14 
 3112000   0.75771563   -7.3019319    827.27697  0.022152875  0.021520286           13 
 3113000   0.77257157   -7.3498622    828.18237  0.022169996  0.021514212           26 
 3114000   0.74188401   -7.3217623    828.51023   0.02217165  0.021508137           12 
 3115000   0.74373046   -7.3078059    830.75759  0.022224655  0.021502046           13 
 3116000   0.76314756   -7.3037967     830.4991  0.022210609  0.021495974           11 
 3117000   0.75755022   -7.3104818    831.34135  0.022226001  0.021489923            7 
 3118000   0.75941144   -7.2881965    830.03738  0.022184022  0.021483872           16 
 3119000   0.75292361   -7.2736538    831.17487  0.022207301  0.021477817           25 
 3120000   0.74357364    -7.291696    831.10144  0.022198222  0.021471799           11 
 3121000   0.75632417   -7.2838848    828.94663  0.022133574    0.0214658           22 
 3122000   0.76562663   -7.2828671    832.00549  0.022208133  0.021459812           26 
 3123000   0.73873673   -7.3087555    830.02516  0.022148179  0.021453836            3 
 3124000   0.75109823   -7.2785902    831.59899  0.022183072  0.021447865            6 
 3125000    0.7589364   -7.2817304    832.36245  0.022196332  0.021441934           12 
 3126000   0.78300192   -7.3019817    832.00224  0.022179629  0.021435996            8 
 3127000   0.74812928   -7.2965418    832.24681  0.022179054  0.021430059            6 
 3128000   0.74520583   -7.3029032    830.53259  0.022126294  0.021424105           11 
 3129000   0.76815417   -7.2857164    832.32037  0.022166836  0.021418157            5 
 3130000    0.7675108   -7.2676557    833.00677  0.022178029  0.021412257            8 
 3131000   0.74065479   -7.2674478    832.65983  0.022161712  0.021406326            5 
 3132000   0.75374767   -7.3001877    832.57906  0.022152487  0.021400411            8 
 3133000   0.74956794   -7.3083753    832.34432  0.022139172  0.021394465            8 
 3134000   0.73773771   -7.2975586    831.64947  0.022113632  0.021388532           12 
 3135000   0.74695477   -7.3156606    830.77065  0.022083218  0.021382553           14 
 3136000   0.75355281   -7.2901035    831.98035  0.022108321  0.021376572           17 
 3137000   0.75183796   -7.2840491    830.78674  0.022069566  0.021370592           11 
 3138000   0.76069966   -7.3006043    831.05337  0.022069614  0.021364592           11 
 3139000   0.74439036    -7.294541     829.5362  0.022022305  0.021358587           11 
 3140000    0.7423831    -7.320928    831.20598  0.022059607  0.021352557            7 
 3141000   0.75411867   -7.2815482    833.12991  0.022103627  0.021346534           13 
 3142000   0.75477766   -7.3190019    830.91204  0.022037769  0.021340537           11 
 3143000   0.74983872    -7.309832    833.77479   0.02210666  0.021334573           23 
 3144000   0.73307381   -7.3201375    831.86733  0.022049071   0.02132859           10 
 3145000   0.73071378   -7.2874636    832.43644  0.022057139  0.021322638           10 
 3146000   0.75029538   -7.3222223    831.72455  0.022031271  0.021316685           11 
 3147000   0.75595756   -7.3002496    832.37138  0.022041399  0.021310703           15 
 3148000   0.74262439   -7.3089672    831.07231  0.022000008  0.021304741           10 
 3149000   0.73690991   -7.2901347      831.737  0.022010612  0.021298789            6 
 3150000   0.76593325   -7.2965395    833.93712  0.022061829   0.02129284            6 
 3151000    0.7448482   -7.3205287    832.42229  0.022014765  0.021286896            7 
 3152000   0.75890642   -7.3182933    831.56722  0.021985174  0.021280946           11 
 3153000   0.74331751   -7.3239348     832.1605  0.021993882  0.021274982           10 
 3154000   0.74177501   -7.3004103    833.61592  0.022025363  0.021269024            4 
 3155000   0.74149686   -7.3063248    834.40782  0.022039298  0.021263079            8 
 3156000   0.73688454   -7.2817002     832.9532  0.021993906  0.021257131            5 
 3157000   0.72880576   -7.3095846    833.51299  0.022001716  0.021251194            3 
 3158000   0.75347169   -7.3257173    834.49786  0.022020737  0.021245244            7 
 3159000   0.75978907     -7.28398    836.00983  0.022053652  0.021239339            3 
 3160000   0.74812312   -7.3225873    832.29218  0.021948634  0.021233415            4 
 3161000   0.74773745   -7.2887156    835.61764  0.022029359  0.021227491            8 
 3162000   0.75530816    -7.268399    833.11156  0.021956345   0.02122157            9 
 3163000   0.73377836   -7.3111597    833.90184  0.021970225  0.021215676            7 
 3164000   0.73118333   -7.3278097    834.32786  0.021974501  0.021209746            5 
 3165000   0.74393768    -7.294457    835.27286   0.02199244  0.021203832            5 
 3166000   0.73022313   -7.3178372     834.5285  0.021965901  0.021197926            6 
 3167000   0.75120554   -7.2896425    834.60081  0.021960867  0.021192032            7 
 3168000    0.7330635   -7.3197948    834.08311  0.021940318  0.021186114           19 
 3169000   0.73377436   -7.3097689    835.40095  0.021968049  0.021180215            6 
 3170000   0.75219103   -7.3423215    832.79756   0.02189268   0.02117432           16 
 3171000   0.74788918   -7.2881372    835.01995   0.02194418  0.021168415           12 
 3172000   0.73577879   -7.3295715     833.2337  0.021890335  0.021162516            9 
 3173000   0.73905345   -7.3393885    833.61063  0.021893335   0.02115659            7 
 3174000   0.74054144   -7.3158368    834.57496  0.021911756  0.021150657            6 
 3175000   0.72838269   -7.3289727    831.31583  0.021819313  0.021144721            9 
 3176000   0.73766884   -7.3182064    834.41688   0.02189381  0.021138774           13 
 3177000   0.71779969   -7.3223283    832.38003  0.021833491  0.021132845            6 
 3178000   0.74170964   -7.3203226    832.27536  0.021823877  0.021126907           10 
 3179000   0.74452912   -7.2985396    832.72249  0.021828733  0.021120967            9 
 3180000   0.74290427   -7.3377786    832.80293  0.021823976  0.021115041           14 
 3181000   0.72484564    -7.335441    832.87393  0.021818975  0.021109113           10 
 3182000   0.75849913   -7.3264204    833.54701  0.021829746  0.021103184            5 
 3183000   0.73071544   -7.3186796    833.26727  0.021815564  0.021097271            6 
 3184000   0.73755515   -7.3224681    833.60944  0.021817667  0.021091363            6 
 3185000    0.7356563   -7.3402175    834.90597   0.02184474  0.021085443            8 
 3186000   0.73593325   -7.3225826      834.874  0.021837048  0.021079522           27 
 3187000   0.74856947    -7.331031    835.93139  0.021857844  0.021073606            3 
 3188000   0.74993693   -7.3162482     834.0434  0.021801636  0.021067698            7 
 3189000   0.75703499   -7.3166362    835.87337   0.02184262  0.021061792            9 
 3190000   0.73592511   -7.3286166    834.63207  0.021803346  0.021055883            6 
 3191000   0.73291142   -7.3262983    832.82813  0.021749403  0.021049973            8 
 3192000   0.73424785   -7.3078768    836.00924  0.021825638  0.021044057           12 
 3193000   0.74655057   -7.3390764    835.45426  0.021804318  0.021038176            7 
 3194000   0.74004213   -7.3143049    836.12283  0.021814935  0.021032291            6 
 3195000   0.75812069   -7.3130613    836.55712  0.021819435  0.021026411            9 
 3196000   0.74284537   -7.3072367    837.08477  0.021826365  0.021020515            8 
 3197000   0.75024072    -7.327373    835.44654  0.021776836  0.021014633            6 
 3198000   0.73769165   -7.3382809    836.39123  0.021794643  0.021008741           16 
 3199000   0.73817107   -7.3142453    833.28298  0.021706861  0.021002832            5 
 3200000   0.73660101   -7.3597467    834.41444  0.021729543  0.020996907            4 
 3201000   0.75355956   -7.3065099    833.65924  0.021703094   0.02099099            4 
 3202000   0.73925101   -7.3119659    835.46038  0.021743191  0.020985093            3 
 3203000     0.758222   -7.3320958    835.06721  0.021726174  0.020979166            7 
 3204000    0.7316591   -7.3187117    834.66967  0.021709053  0.020973277            8 
 3205000    0.7358547    -7.309035    834.70762  0.021703266  0.020967369           11 
 3206000    0.7425152   -7.3290438    835.30949  0.021712141  0.020961467            6 
 3207000   0.72729183   -7.3189232    836.21301  0.021728849  0.020955559            8 
 3208000   0.75443619   -7.3057485    837.08348  0.021744687   0.02094967            7 
 3209000   0.75761418   -7.3205509    837.76815  0.021755691  0.020943779            8 
 3210000   0.74472963   -7.3309215    835.96745  0.021702166  0.020937912            4 
 3211000   0.73458365   -7.3333513    834.70172  0.021662559  0.020932017            4 
 3212000    0.7437223   -7.3195592    835.11861  0.021666631  0.020926137           13 
 3213000   0.73586577    -7.328029    836.42319  0.021693723  0.020920268            8 
 3214000   0.73261185   -7.3234381    836.19798  0.021681134  0.020914397            7 
 3215000   0.73925812   -7.3243744     836.3474  0.021678263  0.020908534           11 
 3216000   0.74550382   -7.3496099    835.40339  0.021647061  0.020902647            7 
 3217000    0.7356327   -7.3544223    834.72683  0.021622807  0.020896721           20 
 3218000   0.72657063   -7.3405173    834.99038  0.021622912  0.020890801            9 
 3219000   0.75516987   -7.3255509    835.92349  0.021640351  0.020884878           11 
 3220000   0.72000452   -7.3366714    836.46132   0.02164755  0.020878972            8 
 3221000     0.747458    -7.313917    835.22526   0.02160885  0.020873095            5 
 3222000   0.74346137   -7.3268505    837.01547  0.021648445  0.020867219            4 
 3223000   0.74097046   -7.3440199    837.71753   0.02165988  0.020861304            6 
 3224000   0.72726797   -7.3201776    836.24534  0.021615109  0.020855415            5 
 3225000   0.73666423   -7.3538731    836.16002  0.021606202  0.020849505           12 
 3226000    0.7196365   -7.3338203    836.55793  0.021609783  0.020843626            6 
 3227000   0.75341771   -7.3218055    837.27981  0.021621728  0.020837725           17 
 3228000   0.72186767   -7.3089828     835.8188  0.021577313   0.02083182            6 
 3229000   0.74802862   -7.3058365     835.7983  0.021570102  0.020825945           10 
 3230000   0.74612227   -7.3393259    836.20484  0.021573912   0.02082005            9 
 3231000   0.73295757   -7.3291115    836.74965  0.021581287  0.020814141            7 
 3232000   0.72986431    -7.332895    836.52451  0.021568804  0.020808228           13 
 3233000   0.73329459   -7.3356755    835.30037   0.02153058  0.020802313           14 
 3234000    0.7399617   -7.3279966    836.36837  0.021551442  0.020796415            8 
 3235000   0.75450649   -7.3040977    835.26086  0.021516251  0.020790551            6 
 3236000   0.75062054   -7.3305603    838.20069  0.021585308  0.020784696           13 
 3237000   0.72844014   -7.3456517    834.91329  0.021494009  0.020778814           10 
 3238000    0.7287441   -7.3399151    836.90604  0.021538657  0.020772939           15 
 3239000   0.71897025   -7.3175377     838.0315  0.021560963  0.020767051            5 
 3240000   0.72679414    -7.318421    835.44557  0.021487797  0.020761192            8 
 3241000   0.74251645   -7.3456227    834.74149  0.021463064  0.020755304            9 
 3242000   0.73776119   -7.3484948    836.63366  0.021505081  0.020749405            9 
 3243000   0.73743613   -7.3562148     835.9155  0.021479995  0.020743504            8 
 3244000   0.72281539   -7.3315781     836.8257  0.021496756   0.02073763            9 
 3245000   0.72725166   -7.3149823     837.9768  0.021519692   0.02073178            5 
 3246000   0.72160112   -7.3345506    838.36735  0.021523089  0.020725932            5 
 3247000    0.7595172   -7.3172637    837.58838  0.021496468  0.020720082            6 
 3248000   0.72769873   -7.3363658    836.63244  0.021465323   0.02071421            9 
 3249000   0.72693002   -7.3558553     836.3858  0.021452391  0.020708342            4 
 3250000   0.72721907   -7.3680461    836.45235  0.021447496  0.020702445            5 
 3251000   0.72656199   -7.3145344    836.22708  0.021435125  0.020696568           11 
 3252000   0.73454442   -7.3397746    835.04752  0.021398307  0.020690702            7 
 3253000   0.73311369   -7.3366455    836.59215  0.021431298  0.020684823            5 
 3254000   0.73320808   -7.3312434     837.9359  0.021459125  0.020678928            7 
 3255000   0.74254144   -7.3326066    836.79994  0.021423449  0.020673029            5 
 3256000   0.73172851   -7.3365163    837.21509  0.021427495  0.020667146           12 
 3257000   0.73256999   -7.3448577    837.33734  0.021424044  0.020661265           13 
 3258000   0.73291792   -7.3198617    838.20761  0.021439728  0.020655397            6 
 3259000   0.72979628   -7.3163508    837.49201  0.021414852  0.020649531            6 
 3260000   0.71406146   -7.3589564    838.83418  0.021442592  0.020643665            5 
 3261000   0.72724584   -7.3568961    836.58033   0.02137842  0.020637781           13 
 3262000   0.71983239   -7.3269586    836.43651  0.021368192  0.020631881           11 
 3263000   0.73994451   -7.3534961    837.83989  0.021397484  0.020625992           16 
 3264000   0.73358475    -7.372507    836.32963   0.02135237  0.020620087           11 
 3265000   0.72951529   -7.3488156    836.78988  0.021357577   0.02061416           14 
 3266000   0.73724134   -7.3558023    836.14475  0.021334577  0.020608256            8 
 3267000   0.73117333   -7.3426695    837.95606  0.021374249  0.020602366            4 
 3268000   0.75894887   -7.3591617     837.3778  0.021352963  0.020596508            9 
 3269000   0.74814774   -7.3771889    834.98274  0.021285376  0.020590599            8 
 3270000   0.74557531   -7.3687657    838.19364  0.021360694  0.020584679            6 
 3271000   0.70601352   -7.3817283    834.40202  0.021257567  0.020578773           19 
 3272000   0.73268808   -7.3826664    836.95625  0.021316123   0.02057286           10 
 3273000   0.73287998   -7.3522734    837.88317   0.02133321  0.020566953            5 
 3274000   0.73018247   -7.3641356    836.25306  0.021285203  0.020561078            6 
 3275000   0.72881677   -7.3447307    836.43248  0.021283269  0.020555201           11 
 3276000   0.73386891   -7.3408379     839.1815  0.021346701  0.020549323            7 
 3277000   0.71522786   -7.3466142    837.11579  0.021287656  0.020543462            8 
 3278000   0.72089748   -7.3464305    836.05216  0.021254122  0.020537624            3 
 3279000   0.75703936   -7.3421694    837.05042   0.02127301   0.02053176           10 
 3280000   0.72645069   -7.3391733    837.55632  0.021279378  0.020525921           10 
 3281000   0.74607987   -7.3348079    839.80757  0.021330071  0.020520073            8 
 3282000    0.7381343    -7.331576    836.02081  0.021227423  0.020514245            7 
 3283000   0.72553698   -7.3463297    838.84884  0.021292741  0.020508426           10 
 3284000    0.7197406   -7.3467502    837.21149  0.021244709  0.020502601           18 
 3285000   0.72383558   -7.2986342    838.60119  0.021273495  0.020496768            4 
 3286000   0.72512397   -7.3475811    839.80365  0.021297516   0.02049093            9 
 3287000   0.73666309   -7.3249472    837.04828  0.021221181   0.02048508           22 
 3288000    0.7384716   -7.3467154     837.3668    0.0212228  0.020479224            8 
 3289000    0.7281975    -7.352562    837.29771  0.021214597  0.020473383           19 
 3290000   0.72963031   -7.3896743    836.59151  0.021190261  0.020467499           21 
 3291000   0.72861041   -7.3619621    836.93617   0.02119255  0.020461619           15 
 3292000   0.72095689    -7.368704    837.74082  0.021206481  0.020455734           13 
 3293000   0.72025454   -7.3699761     837.0606  0.021182827  0.020449849           12 
 3294000   0.72680187     -7.37105    839.18885  0.021230238   0.02044398            4 
 3295000   0.71780636   -7.3788884    837.64596  0.021184774   0.02043812            5 
 3296000   0.73164656   -7.3780378    837.63055  0.021177957  0.020432251           11 
 3297000   0.71754185    -7.361517     837.3817  0.021165244   0.02042637            7 
 3298000   0.73504902   -7.3682629    837.80261  0.021169462  0.020420497            4 
 3299000   0.72893697   -7.3666796    837.24243  0.021148894   0.02041462            5 
 3300000   0.72357719   -7.3794785    837.10739  0.021139076  0.020408747            8 
 3301000   0.71850935   -7.3846179     839.0259  0.021181104  0.020402858            8 
 3302000   0.72277352   -7.3912056     837.2609  0.021130146  0.020396989           11 
 3303000   0.72943512   -7.3478738    839.37247  0.021177023  0.020391126            5 
 3304000   0.71884363   -7.3633231    838.60596   0.02115128    0.0203853            8 
 3305000   0.71801618   -7.3410862    837.60563  0.021119658  0.020379463           11 
 3306000   0.70824561   -7.3577973    836.34628  0.021081526  0.020373603            7 
 3307000   0.73212804   -7.3699703    839.10126  0.021144574  0.020367749            8 
 3308000    0.7288364   -7.3605015    839.26837  0.021142391  0.020361904            7 
 3309000    0.7235796   -7.3828171    837.50403  0.021091569  0.020356046           30 
 3310000   0.70749737   -7.3474762    839.16991  0.021127138   0.02035022           10 
 3311000   0.72411829   -7.3574885    840.41005   0.02115197  0.020344424            9 
 3312000    0.7099771   -7.3473179    837.73233  0.021078209  0.020338602            8 
 3313000   0.71362302   -7.3536668    837.00454   0.02105354  0.020332772           17 
 3314000    0.7303666   -7.3673116    838.64226  0.021088369  0.020326934           23 
 3315000   0.72094277   -7.3644942    837.86559  0.021062483  0.020321101           15 
 3316000   0.71201855   -7.3538086    838.60347  0.021074675  0.020315271            7 
 3317000   0.74016047   -7.3768977      836.285  0.021010074  0.020309424            9 
 3318000   0.71752816   -7.3446724    839.13923  0.021075428  0.020303575            7 
 3319000    0.7061108   -7.3747691    838.15763  0.021044432  0.020297764            8 
 3320000   0.71959749   -7.3633097    840.87694  0.021106349  0.020291949            5 
 3321000   0.70792692   -7.3476575    836.69097  0.020994956  0.020286117            5 
 3322000   0.70326513   -7.3567905    840.77825  0.021091166   0.02028028            8 
 3323000   0.72510156   -7.3601364     839.4205   0.02105077  0.020274449            5 
 3324000   0.70685151   -7.3586679    838.46687  0.021020529  0.020268628           24 
 3325000   0.70213131   -7.3585272    839.86503  0.021049249  0.020262811            9 
 3326000   0.71261033   -7.3695877    839.61785  0.021036727  0.020256977           15 
 3327000   0.74671152    -7.371006    838.57864  0.021004374  0.020251142           15 
 3328000   0.73446253     -7.37065    837.09886  0.020961009  0.020245319           15 
 3329000   0.72703973   -7.3455156    840.14304  0.021030916  0.020239489           14 
 3330000   0.72163973   -7.3474755    838.65089  0.020987259  0.020233679           10 
 3331000   0.70995283   -7.3585608    841.18137  0.021044265  0.020227872            6 
 3332000   0.70424396   -7.3695017     840.4693  0.021020141  0.020222077           12 
 3333000   0.72527396   -7.3624943    839.45676  0.020988518   0.02021628            7 
 3334000   0.72347126    -7.388279     838.4765  0.020957721  0.020210483           11 
 3335000   0.72105933   -7.3730517    838.75915  0.020958499  0.020204671           10 
 3336000   0.70951857    -7.383893    840.96825    0.0210074  0.020198856            4 
 3337000   0.69756863   -7.3669588    838.63457  0.020942827  0.020193041            6 
 3338000    0.7143694   -7.3886576    839.01002  0.020945926  0.020187232           16 
 3339000   0.72550643    -7.360555    840.95478   0.02098819  0.020181426           11 
 3340000   0.73178738   -7.3802976    838.91557  0.020931027  0.020175622           18 
 3341000   0.70563243   -7.3572312    839.91569  0.020949708  0.020169815            7 
 3342000   0.71017302   -7.3756178     838.8849  0.020917736  0.020164014            9 
 3343000   0.71137826   -7.3780948    839.07355  0.020916182  0.020158212           17 
 3344000   0.71277846   -7.3589132    840.26341  0.020939579  0.020152402            5 
 3345000   0.71673888   -7.3388445    838.55021  0.020890638  0.020146613            8 
 3346000   0.69991608   -7.3622161    838.50114  0.020883172  0.020140831            8 
 3347000   0.70876731   -7.3939559    838.91407  0.020887214  0.020135038            8 
 3348000   0.70489458   -7.3519086    840.06077  0.020909517  0.020129254           11 
 3349000   0.72089129   -7.3577117    840.54192  0.020915246  0.020123487           14 
 3350000   0.71091702    -7.379107    839.79666  0.020890464  0.020117703            9 
 3351000   0.71801373   -7.3675424    840.10093  0.020891797  0.020111924           12 
 3352000   0.71115033   -7.3768481    840.43701  0.020893919  0.020106153           10 
 3353000   0.71161266   -7.3614272    840.82795  0.020897404  0.020100389           16 
 3354000   0.70324641   -7.3759094    840.92774  0.020893653  0.020094624            7 
 3355000   0.70667656   -7.3773211    841.63588  0.020905014  0.020088842            7 
 3356000   0.70356758   -7.4008114    839.22044  0.020838807  0.020083057           10 
 3357000    0.7070623   -7.3789065    839.84236  0.020848038  0.020077249           14 
 3358000   0.71728443   -7.3767143    840.24168  0.020851739  0.020071447           12 
 3359000   0.71401805   -7.3790075     840.3282  0.020847678  0.020065677           11 
 3360000   0.70624935   -7.3815295    840.67707  0.020850126  0.020059914            7 
 3361000   0.71675939   -7.3843172    840.40547  0.020837188  0.020054158            5 
 3362000     0.708533   -7.3807879    839.60871  0.020811241  0.020048384           13 
 3363000   0.71921718   -7.3715416    841.17287  0.020843812  0.020042603            5 
 3364000   0.69879199   -7.3754422    839.66343  0.020800224  0.020036803            9 
 3365000   0.69791032   -7.4058534    839.31663  0.020785454  0.020030983            7 
 3366000   0.73238603   -7.3857793    840.89197   0.02081828  0.020025198           12 
 3367000   0.71454843   -7.3640172    841.66823   0.02083131  0.020019433           10 
 3368000   0.73226115   -7.4179063    839.63945  0.020774927  0.020013687           11 
 3369000    0.7019289   -7.4140615    840.95086  0.020801199  0.020007905           10 
 3370000   0.69872177   -7.4057827    841.42878  0.020806844  0.020002113           19 
 3371000    0.6942305   -7.3865916    840.15798  0.020769257  0.019996335           17 
 3372000   0.71358014   -7.3995155    839.10997  0.020737198  0.019990561           19 
 3373000   0.69973667   -7.3603364    841.36334  0.020786721   0.01998478           12 
 3374000   0.71535361   -7.3889232    839.04751  0.020723363  0.019978993            9 
 3375000   0.70751527    -7.360001    840.85431  0.020761835   0.01997322           13 
 3376000   0.72296503   -7.3821592    841.18903  0.020763947  0.019967435           12 
 3377000   0.71213257   -7.3739845    840.93442  0.020751516  0.019961672           19 
 3378000   0.72279883   -7.3875856    839.87546  0.020719248  0.019955899           18 
 3379000   0.71785819   -7.3976484    838.98124  0.020691063  0.019950133           11 
 3380000    0.7025604    -7.374713    839.97412  0.020709421  0.019944369           16 
 3381000    0.7114647   -7.3816756    840.99006  0.020728336  0.019938584           25 
 3382000   0.71296553    -7.404731    840.86642  0.020719161  0.019932796           19 
 3383000   0.71415411   -7.3911464    841.14766  0.020719964  0.019927038           25 
 3384000    0.7132475   -7.3796194     842.2233  0.020740329  0.019921288           25 
 3385000   0.69760733   -7.3898318    841.19256  0.020708827  0.019915536           35 
 3386000   0.70596865   -7.3889282    839.59531  0.020663401  0.019909788           25 
 3387000   0.72207751   -7.3904146    842.68819  0.020733397  0.019904037           33 
 3388000   0.70495466    -7.370163    841.40762   0.02069578   0.01989829           13 
 3389000    0.7045567   -7.3922113    840.55185   0.02066863  0.019892538           26 
 3390000   0.71135012   -7.3890506    841.11324  0.020676333  0.019886765           10 
 3391000   0.70031525    -7.377705    840.86586  0.020664156  0.019880991           23 
 3392000   0.71311317   -7.4128512    841.51479  0.020674007  0.019875234            8 
 3393000   0.71468977   -7.4013622    840.44524  0.020641646  0.019869476            7 
 3394000   0.70138907   -7.4101534    840.70801  0.020642016  0.019863722           13 
 3395000   0.71125915   -7.3844108    843.35564  0.020700924  0.019857971            6 
 3396000    0.7252294   -7.3666262    841.70962  0.020654437  0.019852235            7 
 3397000   0.71257844    -7.386014    840.78363  0.020625641  0.019846491           11 
 3398000    0.6914681   -7.4079355    840.61167  0.020615354  0.019840734           14 
 3399000   0.71360916   -7.4080111    840.11764  0.020597177  0.019834956            7 
 3400000   0.70652418   -7.4090966    840.51221  0.020600789  0.019829196            8 
 3401000    0.7050184    -7.398497    841.53235  0.020619728  0.019823439            5 
 3402000   0.70856538   -7.3833659     843.0248  0.020650225  0.019817683            8 
 3403000   0.70805934   -7.4041005    842.02326  0.020619631  0.019811937            7 
 3404000   0.71050331   -7.3976264    839.78838  0.020558862  0.019806186           11 
 3405000   0.71818704   -7.4154549    842.42428  0.020617334  0.019800441            8 
 3406000   0.71837737   -7.3954697    843.24008  0.020631241  0.019794693            3 
 3407000   0.70795563   -7.3808308    840.77253  0.020564831  0.019788942           12 
 3408000    0.7026796   -7.3853315    840.14214  0.020543382  0.019783202           14 
 3409000   0.71490134   -7.4105288    842.24588  0.020588782  0.019777468            6 
 3410000   0.69528867   -7.4107416    841.65715  0.020568357   0.01977173            7 
 3411000   0.71569988   -7.4006352    843.26907  0.020601707  0.019765996           10 
 3412000   0.69608832   -7.3928469    842.87773  0.020586111  0.019760269            7 
 3413000   0.69812914   -7.3915774    841.28322  0.020541147  0.019754534            5 
 3414000    0.6967355   -7.3983277    841.80584  0.020547887  0.019748828            5 
 3415000     0.694939   -7.3975035    841.99664  0.020546526  0.019743108            7 
 3416000   0.71991625   -7.3822877    840.06489  0.020493386  0.019737363            4 
 3417000   0.70451291   -7.4234253    841.04878  0.020511384  0.019731593            3 
 3418000   0.69788899   -7.3911199     841.2333  0.020509882  0.019725843            8 
 3419000   0.69882676   -7.4029536    840.40399  0.020483669  0.019720091           10 
 3420000   0.70179237   -7.3752374    839.52091  0.020456162  0.019714335           11 
 3421000   0.71063678   -7.3922891    840.66854  0.020478138   0.01970859            7 
 3422000   0.71610298   -7.3969256    840.62413  0.020471073  0.019702847           10 
 3423000   0.71355666    -7.410481    839.96714  0.020449098  0.019697123            8 
 3424000   0.71193866   -7.4060021    842.18995  0.020497224  0.019691417            7 
 3425000   0.68756158   -7.4131422    842.74719  0.020504798  0.019685718            9 
 3426000   0.71711314   -7.3790429    842.60004  0.020495233  0.019680007            6 
 3427000   0.70838157   -7.3984205    842.16971  0.020478789  0.019674306           10 
 3428000   0.70582359   -7.3948328    840.71903  0.020437549  0.019668599           13 
 3429000   0.71211877    -7.374221    842.19893  0.020467554  0.019662871            9 
 3430000   0.69840776   -7.3882564    842.69799  0.020473712  0.019657175            8 
 3431000   0.70895692    -7.414958     842.1983  0.020455608  0.019651471           17 
 3432000   0.69725809   -7.4142951     842.7504  0.020463054  0.019645776            9 
 3433000   0.69468333   -7.4331287    841.79022  0.020433785  0.019640063           18 
 3434000   0.71550915   -7.3942252    842.58823    0.0204472  0.019634343            8 
 3435000    0.6967429   -7.3949567    842.95028  0.020450031  0.019628627           11 
 3436000   0.70838158   -7.3972077     842.9108  0.020443122  0.019622924           11 
 3437000   0.69468974   -7.3879739    844.21394   0.02046877  0.019617226            8 
 3438000   0.70621293   -7.3832743    843.17542  0.020437644  0.019611565           12 
 3439000    0.6994907    -7.417585    841.98364  0.020402821  0.019605886           11 
 3440000    0.6982593   -7.3876599    843.47517  0.020433023  0.019600179            8 
 3441000   0.69992254    -7.403845    844.58989   0.02045408  0.019594479            8 
 3442000   0.71637316   -7.4046115    844.48876   0.02044569  0.019588797           12 
 3443000   0.68972795   -7.3938261    845.16062  0.020456013  0.019583135            7 
 3444000   0.70361355    -7.400133    844.69483  0.020438802  0.019577452            8 
 3445000   0.69529394   -7.3969098    843.11878  0.020394746  0.019571773           10 
 3446000   0.71553479    -7.400584    842.31827  0.020369469  0.019566089           10 
 3447000   0.69312224   -7.4029139    844.16598  0.020408229  0.019560434            6 
 3448000   0.68028686   -7.4131103    844.75595  0.020416569  0.019554777           18 
 3449000   0.70450256   -7.3866973    842.16329  0.020348006  0.019549119           11 
 3450000   0.71207413   -7.3980698    842.52172  0.020350766   0.01954345            6 
 3451000   0.69532434   -7.4028723    844.74297  0.020398507  0.019537752            9 
 3452000   0.70322151   -7.4225761    843.38668  0.020359856  0.019532046            9 
 3453000   0.67915223   -7.4273334    842.81125  0.020340073  0.019526344           17 
 3454000    0.6911874   -7.4343375    842.79051  0.020333683  0.019520644           10 
 3455000   0.69578057   -7.4311253    843.52362   0.02034548  0.019514925            8 
 3456000   0.70047889   -7.4117665    844.41316  0.020361043   0.01950922            8 
 3457000   0.70012567   -7.4259063    844.63753  0.020360561  0.019503534           29 
 3458000   0.69498258    -7.416716    843.03745  0.020316114  0.019497866            7 
 3459000   0.70207263   -7.4271874     843.4362  0.020319847  0.019492183           10 
 3460000   0.69580179   -7.4071848    843.38677  0.020312784  0.019486502           13 
 3461000   0.70592606   -7.3990824    844.66474  0.020337685  0.019480832           11 
 3462000   0.70377909    -7.441242    842.14334  0.020271118  0.019475156           26 
 3463000   0.69342906   -7.3951053    843.54154  0.020298911  0.019469471            9 
 3464000   0.68825185   -7.3866196    843.52077  0.020292551   0.01946381           17 
 3465000   0.69151245   -7.4070075    843.70161  0.020291044  0.019458154            8 
 3466000    0.6870521   -7.4049599    844.16349  0.020296295  0.019452519            6 
 3467000   0.69478685   -7.4187369    842.12274  0.020241389  0.019446878           10 
 3468000   0.70210893   -7.4077755    843.97432  0.020280044  0.019441238            9 
 3469000   0.69382104   -7.4164992     843.1618   0.02025468  0.019435592            8 
 3470000   0.69452537   -7.4506135    841.77543  0.020215548  0.019429923           20 
 3471000   0.69220128    -7.436149    843.59926  0.020253512  0.019424264            9 
 3472000   0.69034951   -7.4095374    842.99922  0.020233276  0.019418618           12 
 3473000   0.69303081    -7.421168     844.3519  0.020259907  0.019412964           13 
 3474000   0.70958478   -7.4260594    842.58527  0.020211698  0.019407321           18 
 3475000   0.69959566   -7.4562323    843.84872   0.02023618  0.019401667           13 
 3476000   0.69496242    -7.414966    845.47437  0.020269332  0.019396033           16 
 3477000   0.69008448   -7.3996735    845.86323  0.020272822  0.019390418           14 
 3478000   0.68928975   -7.4247976    844.46435  0.020233476  0.019384804            7 
 3479000   0.69124854    -7.410661     844.1383   0.02021985  0.019379192            7 
 3480000   0.71153694   -7.4184129    845.88665  0.020255906  0.019373586            7 
 3481000   0.70726097   -7.4041001    845.18287  0.020233239  0.019367987            8 
 3482000   0.69310212   -7.4273274    846.45996  0.020257993  0.019362406            9 
 3483000   0.69988054   -7.4178346    845.44856  0.020227978   0.01935684           13 
 3484000   0.69258563   -7.4174705    845.98183  0.020234927  0.019351251            6 
 3485000   0.70595191   -7.4472741    843.53331  0.020170572  0.019345658            9 
 3486000   0.71509133   -7.4483181    843.51972  0.020164461  0.019340063           13 
 3487000   0.70185682   -7.4451058    845.08136  0.020195999  0.019334459            8 
 3488000   0.69849441   -7.4177006     844.4002  0.020173934  0.019328869           11 
 3489000   0.69617762    -7.451718     844.5824  0.020172504  0.019323272            8 
 3490000   0.68142137   -7.4245858    844.75451  0.020170833  0.019317699            6 
 3491000   0.69108691   -7.4188419    846.02376  0.020195354  0.019312124            7 
 3492000   0.68650447    -7.420417    845.88316  0.020186215  0.019306544            5 
 3493000   0.68921938   -7.4477736    845.39131  0.020168702  0.019300969           10 
 3494000   0.67970836   -7.4207943     845.7885  0.020172403  0.019295395            8 
 3495000   0.68677164   -7.4439496    843.63482  0.020115279  0.019289822           14 
 3496000    0.6946421   -7.4354987    845.33077  0.020149952  0.019284236           13 
 3497000   0.68614732    -7.429149    845.75508  0.020154301  0.019278644           20 
 3498000   0.70093637   -7.4209259    846.91821  0.020176249  0.019273054           13 
 3499000   0.68516956   -7.4362151    845.60928  0.020139308  0.019267477           16 
 3500000   0.69332458    -7.434849    844.96082  0.020118115  0.019261874           10 
 3501000   0.68715087    -7.413795    844.61701  0.020104185   0.01925627           30 
 3502000   0.69092247   -7.4535074    845.34191  0.020115694  0.019250669           10 
 3503000   0.67422074   -7.4305302    845.10461  0.020104306  0.019245065           14 
 3504000    0.6875209   -7.4283102    843.28819   0.02005537  0.019239467            8 
 3505000   0.70039471   -7.4421242    846.51326  0.020126326  0.019233876           12 
 3506000   0.69817323   -7.4068421    844.55087  0.020073942   0.01922829           10 
 3507000   0.69431054   -7.4403102     845.1288   0.02008195    0.0192227           13 
 3508000   0.68249803   -7.4366884    845.41758  0.020083086  0.019217105           21 
 3509000   0.68979163    -7.456261    843.97817  0.020043179  0.019211513           14 
 3510000   0.68980997   -7.4530538    845.12529  0.020064703   0.01920594           18 
 3511000    0.6974716   -7.4399591     845.1854  0.020060415  0.019200359           32 
 3512000   0.69345222   -7.4378571    844.36107  0.020035143  0.019194783           24 
 3513000   0.69269885   -7.4458362    845.89108  0.020065734  0.019189184           27 
 3514000    0.6885587   -7.4478875     846.4688  0.020073724  0.019183603           36 
 3515000   0.68649926   -7.4252348    845.56511  0.020046589  0.019178033           44 
 3516000   0.67665468   -7.4238177    846.67413  0.020067172   0.01917246           17 
 3517000   0.68120285   -7.4537933    846.77517   0.02006386  0.019166865           28 
 3518000   0.68487047   -7.4428647    846.31512   0.02004726  0.019161273           36 
 3519000   0.69695046   -7.4404247     845.0136  0.020010742  0.019155709           25 
 3520000   0.69114587    -7.431587    844.91362   0.02000269  0.019150145           15 
 3521000   0.68938171   -7.4450459    846.81217  0.020041943   0.01914457           21 
 3522000   0.67723575   -7.4314625    845.27235  0.019999819  0.019139013           18 
 3523000   0.68441532   -7.4278385    845.45743   0.01999852  0.019133464           25 
 3524000   0.68783647   -7.4562734    843.85908  0.019955048  0.019127891            7 
 3525000    0.6884796   -7.4293253    845.51275  0.019988481  0.019122319            7 
 3526000   0.67686994   -7.4655048    846.07964   0.01999621  0.019116748           10 
 3527000   0.66822196   -7.4361203     845.7553  0.019982877  0.019111199           11 
 3528000   0.68768735   -7.4525997    846.45673  0.019993781  0.019105644            5 
 3529000   0.67592114   -7.4440177    845.62228  0.019968411  0.019100105           14 
 3530000   0.69864153   -7.4417747    846.66404  0.019987348  0.019094558           11 
 3531000   0.68279498   -7.4344181    846.73621   0.01998339  0.019089013           11 
 3532000   0.68714997   -7.4339868    846.46998  0.019971451  0.019083465           10 
 3533000   0.70026093   -7.4113734    845.14622  0.019934574  0.019077919           14 
 3534000   0.68698587   -7.4563989    844.86149   0.01992222  0.019072353            8 
 3535000    0.6872369   -7.4492998    844.85559  0.019916445  0.019066797           10 
 3536000    0.6795136   -7.4397334    847.05769   0.01996271  0.019061247            8 
 3537000   0.68284317   -7.4392827    846.90072  0.019953367  0.019055694            8 
 3538000   0.68077641   -7.4102585    846.72855  0.019943672  0.019050139           11 
 3539000   0.68831689   -7.4433836    844.70191  0.019890315  0.019044582            9 
 3540000   0.68040535   -7.4546328    846.80718  0.019934256  0.019039011           11 
 3541000   0.69761552   -7.4471676    844.20211  0.019867319  0.019033454           20 
 3542000   0.68901948   -7.4360281    845.38708  0.019889589  0.019027899            7 
 3543000   0.68592859   -7.4091385    846.36126  0.019906888   0.01902238           11 
 3544000   0.67835684    -7.457757    846.72898  0.019909918  0.019016828            5 
 3545000   0.68764967    -7.417544    846.26943  0.019893499  0.019011274            7 
 3546000   0.69316702   -7.4419991    847.05658  0.019906387  0.019005725            6 
 3547000   0.69245912   -7.4544867     847.5319  0.019911942  0.019000178            9 
 3548000   0.68450455   -7.4584976    845.96543  0.019869538  0.018994626            3 
 3549000   0.70202266   -7.4203578    846.25722   0.01987079  0.018989084            4 
 3550000   0.69367758   -7.4128641     847.4982  0.019894324  0.018983535           10 
 3551000   0.69976654   -7.4315164    846.41469  0.019863294  0.018978004            3 
 3552000   0.68990553   -7.4487963    847.12636  0.019874398  0.018972479            5 
 3553000   0.67763997   -7.4209821    846.71984   0.01985927  0.018966966            4 
 3554000   0.67845378   -7.4449864    845.73953  0.019830696  0.018961431            8 
 3555000   0.69925804   -7.4454497     847.6271  0.019869365  0.018955889            4 
 3556000   0.69398589   -7.4461924    846.06803  0.019827241  0.018950356            6 
 3557000   0.69976432   -7.4460675    845.58588  0.019810371  0.018944794            8 
 3558000   0.67797713   -7.4285887    844.66101  0.019783142  0.018939245            8 
 3559000    0.6884728   -7.4469712    846.48278  0.019820239  0.018933702            4 
 3560000   0.69319228   -7.4614508    845.30154  0.019787021  0.018928144            6 
 3561000   0.67669801   -7.4507682    847.26886  0.019827503  0.018922605           13 
 3562000   0.68689995    -7.462144    845.95424  0.019791181  0.018917044            9 
 3563000    0.6584905   -7.4240954    845.28127  0.019769887  0.018911491            9 
 3564000   0.68519372   -7.4339438    846.34564  0.019789227  0.018905943           10 
 3565000    0.6782376    -7.463662    846.26175  0.019781714  0.018900389           23 
 3566000   0.66829512   -7.4647192    846.46142  0.019780833  0.018894836           38 
 3567000   0.67170114   -7.4582146     846.9347  0.019786345  0.018889282           24 
 3568000   0.69580191   -7.4316651    846.05868  0.019760339   0.01888373           22 
 3569000   0.67936325   -7.4267901    845.03421  0.019730882   0.01887818           10 
 3570000   0.67745549   -7.4704445    846.44471   0.01975828   0.01887262           12 
 3571000   0.67952622   -7.4748503    846.41675  0.019752094  0.018867046           11 
 3572000   0.67339904   -7.4652763    845.88259  0.019734103  0.018861472           12 
 3573000   0.69421744   -7.4585555    845.40366   0.01971741  0.018855911           10 
 3574000    0.6783686   -7.4418159    844.64774  0.019694267  0.018850367           12 
 3575000   0.67507096   -7.4440673    844.34114  0.019681612  0.018844814           12 
 3576000   0.67597806   -7.4587112    846.17834  0.019718921  0.018839275           11 
 3577000   0.69524996   -7.4597262    848.38019  0.019764705  0.018833734           13 
 3578000   0.68598436   -7.4583695    847.38972  0.019736112  0.018828193           15 
 3579000   0.66385055   -7.4875555    845.60613  0.019689069  0.018822654           14 
 3580000   0.69667944   -7.4638288    844.12488  0.019649089  0.018817084            9 
 3581000    0.6692516   -7.4537335    845.66442  0.019679429   0.01881153           20 
 3582000   0.68792147   -7.4600958    846.13166  0.019684805  0.018805983           10 
 3583000   0.68244353   -7.4383165    847.45441  0.019710076  0.018800471           21 
 3584000   0.68245561   -7.4503499    842.61762  0.019592114  0.018794946           13 
 3585000   0.68408685   -7.4621038    845.57288  0.019655344  0.018789401            8 
 3586000   0.68206844   -7.4552793    845.91389  0.019657787  0.018783861           32 
 3587000   0.68270374   -7.4584168    846.24908  0.019660094   0.01877833           36 
 3588000   0.68372488   -7.4597425    846.48788  0.019660161  0.018772807           21 
 3589000    0.6778245   -7.4329845    844.52153  0.019609026  0.018767291            9 
 3590000    0.6832614   -7.4364744    846.22932  0.019643206  0.018761786           18 
 3591000    0.6824763   -7.4430299    846.12761  0.019635376  0.018756265           14 
 3592000   0.67942498   -7.4691446    845.23929    0.0196093  0.018750741            8 
 3593000   0.68652449   -7.4740328    845.68215  0.019614114  0.018745224            5 
 3594000   0.68126531    -7.455306    846.30449  0.019623087  0.018739728            7 
 3595000   0.68896909   -7.4639335    847.74127  0.019650934  0.018734229            5 
 3596000   0.68735336   -7.4654397    847.44409  0.019638582  0.018728724            7 
 3597000   0.68270734   -7.4564854    848.35369  0.019654195   0.01872322           12 
 3598000   0.68218108   -7.4598589    847.00434  0.019617481  0.018717729           13 
 3599000    0.6884086   -7.4678182    847.24759  0.019617662   0.01871225           13 
 3600000      0.65875   -7.4702299    847.63114  0.019621091  0.018706755            7 
 3601000   0.66618434   -7.4396252    847.55734  0.019613935  0.018701281            7 
 3602000    0.6650911   -7.4616365    847.04321  0.019596595  0.018695802           11 
 3603000    0.6636509     -7.44797    847.02594  0.019590756  0.018690318           16 
 3604000   0.66173038   -7.4545519     847.0409  0.019585666  0.018684841           15 
 3605000   0.68171348   -7.4410652    846.29747  0.019563048  0.018679362            8 
 3606000     0.676406   -7.4448417    847.97314  0.019596347  0.018673885           16 
 3607000   0.67098527   -7.4537068    846.64323  0.019560189  0.018668399           10 
 3608000   0.66548838   -7.4644856    846.92302   0.01956123  0.018662911           13 
 3609000   0.67094563   -7.4585933    847.02607   0.01955819   0.01865741           11 
 3610000   0.68347381    -7.476004    846.21109  0.019533959  0.018651942           12 
 3611000   0.67926307   -7.4631166    847.67678  0.019562374  0.018646452            8 
 3612000   0.67181926   -7.4545932    846.80001   0.01953673  0.018640971           13 
 3613000   0.66938623   -7.4565488    845.86353  0.019509723  0.018635497           13 
 3614000   0.66178144   -7.4821145    846.80761  0.019526093  0.018630023           21 
 3615000   0.67319888   -7.4799784    846.82126  0.019521006  0.018624547           10 
 3616000   0.67338776   -7.4498171    847.90204  0.019540515  0.018619053           13 
 3617000   0.66364192   -7.4645586    846.31506   0.01949855  0.018613566           15 
 3618000   0.66540165   -7.4465212    846.33544   0.01949363  0.018608091           13 
 3619000   0.68101312   -7.4601987    844.93185  0.019455924    0.0186026            8 
 3620000   0.66265289    -7.479008    846.78535  0.019493217  0.018597094           17 
 3621000    0.6802866   -7.4543506    847.45728  0.019503298  0.018591597            9 
 3622000   0.66394218   -7.4790837    846.14603  0.019467744  0.018586111           10 
 3623000    0.6739181   -7.4650408    845.37442  0.019444623  0.018580621           12 
 3624000   0.68113089   -7.4746223     846.7665  0.019471268  0.018575136            8 
 3625000    0.6776736   -7.4816504     847.9423  0.019492926  0.018569662            8 
 3626000   0.67025445   -7.4618993    848.17786  0.019492964  0.018564183            8 
 3627000   0.67030188   -7.4803767    846.79593  0.019455839  0.018558709           19 
 3628000   0.67051989   -7.4833102    845.11726  0.019411918  0.018553222           13 
 3629000   0.67538542   -7.4696029    846.75717  0.019444226  0.018547737           18 
 3630000   0.67875961   -7.4746026    847.16789  0.019448299  0.018542252           23 
 3631000   0.66622042   -7.4433666    846.79536  0.019434393  0.018536758           22 
 3632000   0.70269223   -7.4846039    846.85214  0.019430345  0.018531262           23 
 3633000   0.64981116   -7.4739331    846.08381  0.019407372  0.018525778           11 
 3634000   0.66930045   -7.4580499    847.17702  0.019427101  0.018520303           16 
 3635000    0.6636735   -7.4870812     844.9402  0.019370477  0.018514803           17 
 3636000   0.66680381   -7.4760253    846.34123   0.01939726  0.018509316           12 
 3637000   0.67337139   -7.4742108    846.23713  0.019389541  0.018503824           12 
 3638000   0.66964829   -7.4919871    844.86544  0.019352791  0.018498334           14 
 3639000   0.67520119   -7.4756265    847.10062  0.019398659  0.018492853            8 
 3640000   0.67708846   -7.4686536     845.4242   0.01935495  0.018487403           21 
 3641000   0.67631576   -7.4856379    849.12755  0.019434394  0.018481943            7 
 3642000   0.66338288   -7.4545756    847.46611  0.019391042  0.018476477           17 
 3643000   0.67248354   -7.4588909    846.10675  0.019354624  0.018471023            8 
 3644000   0.65854344   -7.4874469    848.21524  0.019397531  0.018465572           13 
 3645000   0.66079131   -7.4671798    847.92274  0.019385522  0.018460101            9 
 3646000   0.67078623   -7.4863001    847.51641  0.019370918  0.018454645           12 
 3647000     0.679455   -7.4757429      846.327  0.019338429  0.018449199           11 
 3648000   0.67077321    -7.477676    847.38371  0.019357267  0.018443757           15 
 3649000   0.66671883    -7.475146    846.39801  0.019329451   0.01843832            8 
 3650000   0.65865538    -7.477585    847.74984  0.019355019  0.018432873           17 
 3651000   0.66624468   -7.4707525    846.79395    0.0193279  0.018427425           10 
 3652000   0.66519993   -7.4604779    847.19948  0.019331861  0.018421989           10 
 3653000   0.66830092   -7.4849005    848.20679  0.019349548  0.018416549           20 
 3654000   0.65830231   -7.4616625    848.43315  0.019349415   0.01841111           13 
 3655000    0.6659474   -7.4921526    846.46576  0.019299265  0.018405676           13 
 3656000   0.64611313   -7.4810106    846.97408  0.019305573  0.018400234           14 
 3657000   0.67311505   -7.4991094    847.38282  0.019309608  0.018394794            7 
 3658000   0.66521695   -7.4682269    846.67143  0.019288123  0.018389343           13 
 3659000   0.66943851   -7.4935713    848.97981  0.019335424  0.018383898           11 
 3660000    0.6694802    -7.475992    847.23232  0.019290353  0.018378457           11 
 3661000   0.67907514   -7.4723013    846.18673  0.019261284  0.018373012            8 
 3662000   0.66023571   -7.4907869    848.43095  0.019307094  0.018367575           10 
 3663000   0.67881102   -7.4573853    846.81348  0.019265026  0.018362142           12 
 3664000     0.663963   -7.4535297    848.65848   0.01930173  0.018356717            8 
 3665000   0.66654711   -7.4861595     847.0293   0.01925942  0.018351292           12 
 3666000   0.66127994   -7.4824609    848.88206  0.019296283  0.018345869            7 
 3667000   0.66441069    -7.483432    847.25532  0.019254052   0.01834046           17 
 3668000   0.66672477   -7.4814852    847.46114  0.019253479  0.018335027           13 
 3669000   0.64832956   -7.4797166    846.36862  0.019223417  0.018329576           12 
 3670000   0.66859637   -7.4887458    846.68185  0.019225292  0.018324127           14 
 3671000   0.67009564   -7.4839916    846.73983  0.019221371  0.018318688            8 
 3672000   0.66098214   -7.4824364    846.89916  0.019219752  0.018313228           16 
 3673000   0.66084096    -7.510702    847.32028  0.019224074  0.018307781           20 
 3674000   0.66428833   -7.4858691    846.93295  0.019210056   0.01830233           17 
 3675000   0.66452724    -7.474424    847.15268  0.019209811  0.018296887            7 
 3676000   0.66898567   -7.4799291    847.60094  0.019214748  0.018291449            6 
 3677000   0.67401892   -7.4825582     845.6679  0.019165713  0.018286028           21 
 3678000   0.66675858   -7.4926117    846.83379  0.019186918  0.018280618            8 
 3679000   0.66548847   -7.4874669     849.0964  0.019232953  0.018275207           10 
 3680000   0.66888422   -7.4651994    847.66698  0.019195357  0.018269806           13 
 3681000   0.65246873   -7.4734147    848.67555  0.019212975  0.018264421           12 
 3682000   0.66810882   -7.4661502    847.54578  0.019182188  0.018259031            8 
 3683000   0.65693052   -7.4938769    846.77423  0.019159522  0.018253621           15 
 3684000   0.65245826   -7.4964167    846.88725  0.019156878    0.0182482           15 
 3685000   0.66339429   -7.5043554    847.55321  0.019166739  0.018242789           30 
 3686000   0.66842033    -7.472782    850.35992  0.019224994  0.018237391           13 
 3687000   0.66361212   -7.4856619    846.45711  0.019131568  0.018231987            8 
 3688000   0.65982364   -7.5008236    847.62607  0.019152794  0.018226586            8 
 3689000   0.65747576   -7.5274734    848.43883  0.019165963  0.018221185           19 
 3690000    0.6498086   -7.4868374    846.09814  0.019107907  0.018215779            6 
 3691000   0.65814147   -7.5177579     847.2705    0.0191292  0.018210373           20 
 3692000   0.66013576   -7.4786995    846.51349  0.019106931   0.01820496            7 
 3693000   0.66944262   -7.4909317      846.396  0.019099106  0.018199555            9 
 3694000   0.65398994   -7.4972829    848.51276  0.019141688  0.018194139            4 
 3695000   0.67178754    -7.490555    847.79843  0.019120398  0.018188736           11 
 3696000    0.6521925   -7.5118082    847.99667  0.019119694  0.018183327           12 
 3697000   0.66046184   -7.5142283    846.64882  0.019084141  0.018177916           16 
 3698000   0.65451659   -7.4960186    848.10716  0.019111843  0.018172527            7 
 3699000   0.66463317   -7.5066372    847.73631  0.019098322  0.018167151           17 
 3700000   0.66366148   -7.4826413    849.50696   0.01913304  0.018161789           16 
 3701000    0.6716656   -7.4866312    848.80166  0.019111989  0.018156422            9 
 3702000   0.65367194   -7.4788183    849.33142  0.019118752  0.018151065           13 
 3703000   0.66547867    -7.494805    847.51156  0.019072634  0.018145711           14 
 3704000   0.65722108   -7.4894205    848.94924   0.01909983  0.018140348            8 
 3705000    0.6575271   -7.4728226    849.09342  0.019097918  0.018134988           25 
 3706000   0.66840579   -7.4833408    849.87799  0.019110406   0.01812963            7 
 3707000   0.65395086   -7.4823074    848.51878  0.019074696  0.018124281            8 
 3708000   0.65563788   -7.4931919    848.74998  0.019074748  0.018118926            8 
 3709000   0.67190754    -7.510015    848.18804  0.019056979  0.018113564            5 
 3710000   0.65589972   -7.4953107    849.09369  0.019072185  0.018108202           11 
 3711000   0.64237466   -7.4994829    848.88952  0.019062461  0.018102835           16 
 3712000   0.66083612    -7.499106    849.06727  0.019061316  0.018097465           14 
 3713000   0.67771141   -7.5117869    848.01557  0.019032579  0.018092094           12 
 3714000   0.64710657   -7.5097259     848.1111  0.019029597  0.018086723            8 
 3715000   0.66018161   -7.5217583    846.28969  0.018983618  0.018081345            7 
 3716000   0.66296161   -7.5110187    846.62096  0.018985938  0.018075953           14 
 3717000   0.64624087    -7.519996    848.22025  0.019016686  0.018070584           18 
 3718000   0.64601459   -7.4947913    847.33404  0.018991708   0.01806521           25 
 3719000   0.65232319   -7.5251187    847.82327  0.018997564   0.01805984           16 
 3720000   0.66497974   -7.5047042    848.69285  0.019011937  0.018054472           24 
 3721000   0.65461324   -7.5187061    849.54764  0.019025971  0.018049098            6 
 3722000   0.65795557   -7.5314768    847.62163  0.018977737  0.018043731           10 
 3723000   0.66711963   -7.5066054    847.22596  0.018963783  0.018038362            9 
 3724000    0.6453249   -7.5201487    846.58579  0.018944365  0.018032987           12 
 3725000   0.63996573   -7.5216268    847.21924   0.01895345  0.018027599            7 
 3726000   0.64825241   -7.5152591    847.93556  0.018964385  0.018022216           12 
 3727000   0.65819087   -7.4850106    847.65036  0.018952919  0.018016847           10 
 3728000   0.65399252   -7.5190603    847.61907  0.018947136  0.018011479            9 
 3729000   0.66026011   -7.4978101    846.77818  0.018923263  0.018006095           13 
 3730000   0.65245991   -7.5149343    847.83975  0.018941907  0.018000704           15 
 3731000   0.66297947   -7.5156964    847.91167  0.018938436  0.017995319            8 
 3732000   0.64771061   -7.4927806    847.50389  0.018924256  0.017989954            9 
 3733000   0.65213288   -7.5052624    846.16176  0.018889226   0.01798459           17 
 3734000   0.65885554   -7.5292487    848.98409  0.018947154  0.017979223            6 
 3735000   0.65184002   -7.5197167    848.47272  0.018930672  0.017973861            6 
 3736000   0.66315158   -7.5105792    847.97516  0.018914507  0.017968478           11 
 3737000   0.65439512   -7.5080851    846.53011  0.018877221  0.017963102           10 
 3738000   0.64441403   -7.5052069    848.92333  0.018925525  0.017957757           15 
 3739000   0.64302289   -7.5049034    848.41226  0.018909072  0.017952395           16 
 3740000   0.65902999   -7.5008358    845.84146  0.018846735  0.017947041           18 
 3741000   0.65681139   -7.5073733    848.39876  0.018898662  0.017941688            7 
 3742000   0.64370713   -7.4990147    846.38672  0.018848805  0.017936332           15 
 3743000   0.65134386   -7.5139034    847.06304  0.018858826  0.017930983            9 
 3744000   0.65683783   -7.5047234    846.64844  0.018844561  0.017925614            9 
 3745000   0.66014019   -7.5159193    847.40605  0.018856387  0.017920251           15 
 3746000   0.65301422   -7.4907189    849.65031  0.018901279  0.017914896            9 
 3747000   0.63664408    -7.546074    848.63476  0.018873649  0.017909541           11 
 3748000   0.62939263   -7.5420272    846.71368    0.0188259  0.017904181           16 
 3749000    0.6496948   -7.5333464    846.25966  0.018810787  0.017898812            6 
 3750000   0.66692805   -7.5273843    846.75975  0.018816883  0.017893453            6 
 3751000   0.65500348   -7.5376876    847.79389  0.018834842  0.017888089            7 
 3752000   0.65726735   -7.5305422    847.79263  0.018829794  0.017882734            8 
 3753000   0.65002264   -7.5193656    848.40784  0.018838437  0.017877372            7 
 3754000   0.64510901   -7.5382255    847.58115  0.018815067  0.017872013            8 
 3755000   0.65323303   -7.5246746    848.76378  0.018836302   0.01786666            8 
 3756000   0.65679423   -7.5132734    847.71736  0.018808071  0.017861304            8 
 3757000   0.65255756   -7.5254884     847.0981  0.018789329  0.017855954           10 
 3758000   0.64773673   -7.5205826     847.2859  0.018788493  0.017850607           22 
 3759000   0.63554387   -7.5406375    846.01267  0.018755269  0.017845249           19 
 3760000   0.64663932   -7.4995263    846.91653  0.018770313  0.017839895           14 
 3761000   0.63654942   -7.5328531    848.38908   0.01879795  0.017834551            6 
 3762000   0.66251032   -7.5230113    849.48541  0.018817238  0.017829208           22 
 3763000   0.66258441   -7.5277417    847.76579  0.018774156  0.017823867           22 
 3764000   0.62930661   -7.5475275    848.00983  0.018774571  0.017818516           15 
 3765000   0.64570449   -7.5392843    847.31486  0.018754202  0.017813153           14 
 3766000   0.64607973   -7.5497873    846.15444  0.018723545  0.017807798           11 
 3767000   0.65695804   -7.5383756    847.53192  0.018749047  0.017802424           22 
 3768000   0.66042027   -7.5422286    847.94735  0.018753259  0.017797063           12 
 3769000   0.63530831   -7.5286789    846.71364  0.018721006  0.017791698           18 
 3770000   0.64667552   -7.5523041    846.41535  0.018709446  0.017786337           21 
 3771000   0.65199482   -7.5416774    849.42278  0.018770945  0.017780978           10 
 3772000   0.65430641   -7.5237374    847.41023  0.018721506  0.017775625           15 
 3773000   0.65238878   -7.5289282    847.39783   0.01871627  0.017770281           11 
 3774000   0.65595489   -7.5471547     846.7434   0.01869686  0.017764932           31 
 3775000   0.65061821   -7.5215414      846.738  0.018691788   0.01775959           23 
 3776000   0.66080682   -7.5274674    846.04039  0.018671442  0.017754241           22 
 3777000   0.65728888   -7.5276107    847.95871  0.018708823  0.017748902           20 
 3778000   0.62926992   -7.5441628    847.26099  0.018688481  0.017743572            8 
 3779000   0.65821968   -7.5359052    847.06412  0.018679195  0.017738245           18 
 3780000   0.65697638   -7.5348296    846.23666  0.018656011   0.01773293            8 
 3781000   0.63614458   -7.5524329    847.73327  0.018684062  0.017727594           15 
 3782000    0.6497273   -7.5134744    848.05143  0.018686132  0.017722269           10 
 3783000   0.65678702   -7.5469229    849.53496  0.018713873  0.017716947            7 
 3784000    0.6573849   -7.5417832    848.75313  0.018691709  0.017711633           18 
 3785000   0.64633563   -7.5373004    847.39392  0.018656845  0.017706333           18 
 3786000   0.65878296   -7.5383125    848.09256  0.018667295  0.017701016           16 
 3787000    0.6393442   -7.5544831     846.1485  0.018619587  0.017695696           10 
 3788000   0.64696584   -7.5211441    847.25532  0.018639021  0.017690375           20 
 3789000   0.64182499   -7.5486203    847.08269  0.018630305  0.017685048           14 
 3790000   0.65047455   -7.5388169    848.31853  0.018652562  0.017679726           18 
 3791000   0.64817649   -7.5334733    846.74185  0.018612984  0.017674402           13 
 3792000   0.66120581   -7.5232106    848.37686  0.018644006  0.017669089           13 
 3793000   0.65627869   -7.5591417     848.0218   0.01863129  0.017663766           10 
 3794000   0.64532821   -7.5354966     846.3071  0.018588717  0.017658439           11 
 3795000   0.64030075   -7.5353607    846.74043  0.018593334  0.017653121           29 
 3796000   0.65311226   -7.5485371    847.52401  0.018605638  0.017647805           19 
 3797000   0.64543147    -7.554372    849.26002  0.018638838    0.0176425           12 
 3798000   0.67052396   -7.5403694    847.56863  0.018596819  0.017637204           12 
 3799000   0.63859677    -7.520579     846.6233  0.018571188  0.017631901           21 
 3800000   0.63216873   -7.5304095    846.82627  0.018570752  0.017626601           11 
 3801000   0.63899021   -7.5450132     847.1064  0.018572007   0.01762129           17 
 3802000   0.64277678   -7.5622916     846.3248  0.018549991  0.017615978           14 
 3803000   0.65471358   -7.5548184     847.7549  0.018576451  0.017610661           15 
 3804000   0.64176197   -7.5275129    849.01318  0.018599132  0.017605355           12 
 3805000   0.63838834   -7.5268523    847.62475  0.018563836  0.017600056           11 
 3806000   0.62808417   -7.5530185    847.66689  0.018559881  0.017594753           11 
 3807000   0.63936409   -7.5324508    848.36271  0.018570237  0.017589464            6 
 3808000   0.63757709   -7.5604784     848.0041  0.018557513  0.017584175           18 
 3809000   0.62789428   -7.5553308    848.63605  0.018566467  0.017578883           15 
 3810000   0.63484927   -7.5105096    847.61177   0.01853919  0.017573586           12 
 3811000   0.63652432   -7.5603609    847.66186  0.018535421  0.017568292            8 
 3812000   0.63088632   -7.5461924    846.26095  0.018499933     0.017563           12 
 3813000   0.64581726   -7.5583239    847.55041  0.018523263  0.017557703           18 
 3814000   0.64871477   -7.5457814     848.2933  0.018534638  0.017552411           25 
 3815000   0.64399602   -7.5525263    848.66069  0.018537805  0.017547138           22 
 3816000   0.63967515    -7.540451    847.61906  0.018510199  0.017541858           17 
 3817000   0.64324406   -7.5502118    849.26117  0.018541201   0.01753658           16 
 3818000   0.63475296   -7.5417537    846.91725  0.018485185  0.017531294           46 
 3819000   0.64439271   -7.5500837    846.30651  0.018467018  0.017526018           19 
 3820000   0.63497834   -7.5474201    847.29096   0.01848366  0.017520744           38 
 3821000   0.63890129   -7.5464068    846.20402  0.018455117  0.017515466           14 
 3822000   0.65120605   -7.5357431    848.84969  0.018507973   0.01751018           12 
 3823000   0.64229382   -7.5308134    847.32268  0.018469847  0.017504913           14 
 3824000   0.63318423    -7.534402    850.01414  0.018523669  0.017499661           28 
 3825000   0.64201571   -7.5151975    848.92231  0.018495039  0.017494414           19 
 3826000   0.63500754    -7.540238    847.97954  0.018469671  0.017489164           22 
 3827000   0.62805472   -7.5378924    849.23457  0.018492173  0.017483912           17 
 3828000   0.65068216   -7.5486545    849.99857  0.018503974  0.017478661           13 
 3829000   0.63232665   -7.5371007    848.18113  0.018459588  0.017473403           11 
 3830000   0.65450123   -7.5322482    850.09425  0.018496394  0.017468146           11 
 3831000   0.63511024   -7.5405794    847.28494  0.018430456  0.017462882            7 
 3832000   0.65001837   -7.5337743    847.41718  0.018428523  0.017457625           20 
 3833000    0.6515591   -7.5264278    848.38731  0.018444806  0.017452369           13 
 3834000   0.63530716   -7.5229179    847.54743   0.01842174  0.017447105            6 
 3835000   0.63315109   -7.5547667    846.23684  0.018388458  0.017441839           11 
 3836000   0.63616314   -7.5509443    847.38013  0.018408501  0.017436572           14 
 3837000   0.63222798   -7.5324951    847.50634  0.018406445  0.017431316           16 
 3838000   0.64091776     -7.53313     848.6987  0.018427538  0.017426066           15 
 3839000    0.6449443   -7.5158633    849.13629  0.018432237  0.017420823           25 
 3840000   0.62781514   -7.5324786    846.43569   0.01836883  0.017415579           30 
 3841000   0.63310682    -7.524611     847.5937  0.018389172  0.017410328           11 
 3842000   0.63471438   -7.5517869    848.07083  0.018394734  0.017405069           19 
 3843000   0.62946899   -7.5443854    847.38875  0.018375157  0.017399824           14 
 3844000    0.6496882   -7.5564059     848.1391  0.018386644  0.017394577           18 
 3845000   0.63898183   -7.5506999    847.05788  0.018358428  0.017389331           19 
 3846000   0.64168515   -7.5488488    849.77986  0.018412634   0.01738409           10 
 3847000   0.62562159   -7.5452569    847.89937  0.018367112  0.017378842           16 
 3848000   0.62739791   -7.5489045    848.55315  0.018376497  0.017373598           16 
 3849000   0.63664503   -7.5484848    848.88888  0.018378992  0.017368354           11 
 3850000   0.63453298   -7.5419109    848.53338  0.018366523  0.017363112           13 
 3851000   0.63731945   -7.5430057    848.74046  0.018366235  0.017357863            8 
 3852000    0.6468729   -7.5642646    847.52109  0.018335088  0.017352616           22 
 3853000   0.63430792   -7.5602245    847.42789  0.018328313  0.017347364           34 
 3854000   0.63313599   -7.5379861     847.5819  0.018326888    0.0173421           14 
 3855000   0.64174639   -7.5331933    849.47468   0.01836305  0.017336854           29 
 3856000   0.62423775   -7.5750561    848.37536   0.01833453  0.017331619           31 
 3857000   0.63571298   -7.5482912    846.66628   0.01829285  0.017326384           21 
 3858000   0.64772514   -7.5436587    847.14811  0.018298516   0.01732116           16 
 3859000   0.62362525   -7.5448105    848.16354  0.018315702  0.017315935           15 
 3860000   0.65571304   -7.5364858    847.55596   0.01829784  0.017310716           10 
 3861000   0.63191204   -7.5514807    847.78633  0.018298073  0.017305477           21 
 3862000   0.63383117    -7.557778     847.6118  0.018289569  0.017300243           13 
 3863000   0.62883516   -7.5577753     848.5172  0.018304366   0.01729501            8 
 3864000   0.64340068   -7.5705143    847.54801  0.018278727  0.017289774            7 
 3865000   0.62337958    -7.593988     848.0039  0.018283827  0.017284539           26 
 3866000   0.63570776   -7.5776187    847.97476   0.01827847  0.017279307           21 
 3867000   0.64990385   -7.5429523    847.43852  0.018262187  0.017274063           16 
 3868000   0.63414466   -7.5664412    847.60698  0.018261095  0.017268822           10 
 3869000   0.63087721   -7.5539528    846.54073  0.018233409  0.017263579            9 
 3870000   0.63272486   -7.5695227      847.544  0.018250302   0.01725835           22 
 3871000   0.62682757   -7.5624999      848.607  0.018268471  0.017253118           24 
 3872000   0.63984414   -7.5901214    847.06463  0.018230558   0.01724788           27 
 3873000   0.63458316   -7.5626658    847.15459  0.018227786  0.017242632           26 
 3874000   0.62998724   -7.5922034    848.14278  0.018244338  0.017237393           14 
 3875000   0.63987078   -7.5706866     848.6065  0.018249602  0.017232155           31 
 3876000   0.64835976   -7.5756356    847.41525  0.018219282   0.01722692           16 
 3877000   0.62729137    -7.583556    848.03189  0.018227837  0.017221685           22 
 3878000   0.62774023    -7.555305    848.06231   0.01822379  0.017216461           10 
 3879000   0.61824263   -7.5676118    847.09484  0.018198308  0.017211238           19 
 3880000   0.62147514   -7.5606013    846.98546  0.018191269  0.017206015           11 
 3881000   0.63404773   -7.5740823    848.60325  0.018221318  0.017200808           11 
 3882000   0.62577342   -7.5591671    847.12223  0.018184832  0.017195585           14 
 3883000   0.64315328   -7.5557711    847.45077    0.0181872  0.017190371            7 
 3884000   0.63776628   -7.5529569    848.59762  0.018207124  0.017185155            8 
 3885000   0.63506137   -7.5827415    846.89404  0.018165895  0.017179945            9 
 3886000   0.63692117   -7.5594561    847.19936  0.018167768  0.017174746            5 
 3887000    0.6242434   -7.5887345    848.32821  0.018187295  0.017169541            7 
 3888000   0.62516714   -7.5658452    848.47811  0.018185831  0.017164338           12 
 3889000   0.62743971   -7.5609504    848.30382   0.01817742  0.017159149            8 
 3890000    0.6146985   -7.5863914    847.98263  0.018165866  0.017153956            6 
 3891000   0.62503717   -7.5604033    848.96667  0.018182273  0.017148766            8 
 3892000   0.62870098     -7.57032    848.71489   0.01817221  0.017143571            9 
 3893000   0.63339482   -7.5628359    847.71056  0.018146043  0.017138374           14 
 3894000   0.63275548   -7.5577277    848.39083  0.018155941  0.017133178           11 
 3895000   0.63403034   -7.5588644    848.06169  0.018144238  0.017127991            8 
 3896000   0.62616984    -7.582207    847.41791  0.018125811  0.017122808           28 
 3897000   0.61550476   -7.5622833    848.84752   0.01815173  0.017117616           19 
 3898000   0.62339578   -7.5687018    847.61384  0.018120699  0.017112422           21 
 3899000   0.62696087   -7.5725098    847.24998  0.018108275  0.017107221           14 
 3900000   0.63063732   -7.5778308    847.47076   0.01810835  0.017102024           22 
 3901000   0.61914877   -7.6006812    846.99208  0.018093482  0.017096822           27 
 3902000   0.62958838   -7.5721506    849.96909  0.018152424  0.017091617           13 
 3903000   0.63226776   -7.5944872      847.641  0.018098066  0.017086419            9 
 3904000   0.62140202   -7.5841575    847.99013  0.018100882  0.017081226            8 
 3905000   0.62306928   -7.5884979     847.5987  0.018087894  0.017076019           12 
 3906000   0.62631086   -7.5818256    846.63895  0.018062787  0.017070813           15 
 3907000    0.6327366   -7.5843355    845.98892  0.018044299  0.017065604           19 
 3908000   0.63588391   -7.5812576    847.17938  0.018065067  0.017060402           17 
 3909000   0.64453777   -7.5801487    846.11261  0.018037704  0.017055207           23 
 3910000   0.61586223   -7.5768673    847.13663  0.018054915  0.017050022           17 
 3911000   0.62628382    -7.569963    848.60083  0.018081497  0.017044841           16 
 3912000   0.62990056     -7.58219    848.58472  0.018076532  0.017039654           11 
 3913000   0.63970533   -7.5819792     847.1138  0.018040587  0.017034463           14 
 3914000   0.62363784   -7.5923872    846.05612  0.018013459   0.01702927           10 
 3915000   0.60666808   -7.6085036    847.06839  0.018030404  0.017024078           13 
 3916000   0.62387745   -7.5855331    846.90527  0.018022329  0.017018885           22 
 3917000   0.62364737   -7.5940405    847.12611  0.018022426  0.017013689           15 
 3918000   0.63160678   -7.5906807    847.26567  0.018020794  0.017008509           14 
 3919000   0.62374785   -7.5936839    848.06998  0.018033299  0.017003313           17 
 3920000   0.61560912    -7.584114    847.48736  0.018016313  0.016998113            9 
 3921000   0.62973606   -7.5821223    846.28462  0.017986156  0.016992925           16 
 3922000   0.63671071    -7.577493    847.81908  0.018014174  0.016987749           23 
 3923000   0.61543194   -7.5973392    846.96034   0.01799134  0.016982583           11 
 3924000   0.61393288   -7.5914899    847.91338  0.018006995  0.016977406           11 
 3925000   0.62040961   -7.5974752    847.47788  0.017993161  0.016972226           12 
 3926000   0.64278756   -7.6088494    846.53833  0.017968635   0.01696704           17 
 3927000   0.62589582   -7.5945641    846.43435  0.017961853  0.016961866           21 
 3928000   0.63845862   -7.5875765    848.01461  0.017990806  0.016956692           16 
 3929000   0.63709658   -7.6202995    848.19314  0.017990013  0.016951524            9 
 3930000   0.62184648   -7.5666284    845.98353  0.017938582  0.016946358           11 
 3931000   0.62908398   -7.5974704    847.24088  0.017960673  0.016941181           18 
 3932000   0.62105012   -7.5852597    846.51087  0.017940634  0.016936008           12 
 3933000   0.61115758   -7.5908706    845.67451  0.017918351  0.016930846           11 
 3934000    0.6175533   -7.6176627    846.15978  0.017924076   0.01692568           13 
 3935000   0.62787856   -7.6233683    849.75877  0.017995738  0.016920511            9 
 3936000   0.62529151   -7.5755634      847.369   0.01794057  0.016915349           15 
 3937000   0.62181369   -7.6094859    848.47793  0.017959485  0.016910192           22 
 3938000   0.62601164   -7.5953977    845.76802  0.017897579  0.016905034           30 
 3939000   0.62974044   -7.6036609    847.61358  0.017932081  0.016899877           10 
 3940000   0.62425258   -7.6072274    849.26919  0.017962546  0.016894722           10 
 3941000   0.62335331   -7.5947245    847.41629  0.017918808  0.016889573           18 
 3942000   0.61482355   -7.5865272    846.65312  0.017898129  0.016884426           13 
 3943000   0.63234713   -7.6070194     848.0992  0.017924153  0.016879277            6 
 3944000   0.62410386   -7.5971193    847.80299  0.017913349  0.016874132            9 
 3945000    0.6131518   -7.5866891    846.89093  0.017889542  0.016868983           15 
 3946000   0.61152889    -7.599767    848.38354   0.01791653  0.016863839           23 
 3947000   0.62828883   -7.6014077    847.64724  0.017896445  0.016858694           15 
 3948000   0.61119944   -7.6418179     847.1729    0.0178819  0.016853546           21 
 3949000   0.61149928   -7.6023621    848.88438  0.017913488  0.016848397           18 
 3950000   0.61761407    -7.585514    848.30054  0.017896636  0.016843255           17 
 3951000   0.60578647   -7.6075049    849.24236  0.017911971  0.016838121           21 
 3952000   0.62671847   -7.6036134     847.8861   0.01787884   0.01683299           17 
 3953000   0.62208515   -7.5982278    847.89608  0.017874527   0.01682786           20 
 3954000   0.60312003   -7.6060787    849.06346   0.01789461  0.016822726           25 
 3955000   0.60858663   -7.5851978    847.66702  0.017860662  0.016817592           14 
 3956000   0.61901966   -7.5974022    847.42229  0.017850992  0.016812469           19 
 3957000   0.61981868   -7.6083586    848.20211  0.017862904  0.016807347           23 
 3958000   0.63959501    -7.598386    847.12954  0.017835808  0.016802221           18 
 3959000   0.62189452   -7.6154113    848.20327  0.017853904  0.016797098           15 
 3960000   0.62751999   -7.5895032    847.61088  0.017836929  0.016791973           14 
 3961000   0.62362858   -7.6048204    847.13343  0.017822381  0.016786847           22 
 3962000   0.62218625   -7.6138383    847.14104  0.017818043  0.016781724           31 
 3963000   0.62858176   -7.5798611     845.7762  0.017784847  0.016776603           19 
 3964000   0.62148763   -7.6122634    847.32057  0.017812827  0.016771479           16 
 3965000   0.61391869   -7.6130804    847.42159  0.017810458  0.016766367           14 
 3966000   0.60702647   -7.5964135    847.52021  0.017808039  0.016761246           19 
 3967000    0.6152381   -7.5906161    846.27733  0.017777442  0.016756133           12 
 3968000   0.62822356   -7.6133546    846.79611  0.017783856  0.016751018           18 
 3969000   0.61843835   -7.6063367     847.4075  0.017792213  0.016745901           10 
 3970000   0.62210735   -7.5768693    848.81788  0.017817336  0.016740792           10 
 3971000   0.61132205   -7.5963136    846.28209  0.017759634   0.01673568           12 
 3972000   0.61951261   -7.6088523    847.06478  0.017771584  0.016730559           22 
 3973000   0.61480605   -7.6070804    846.66184  0.017758659  0.016725445            7 
 3974000   0.62902622   -7.6054717    848.11684  0.017784701  0.016720334           15 
 3975000   0.60778979   -7.6115262    847.67859   0.01777104  0.016715228           27 
 3976000   0.62583711   -7.5737998    848.75469  0.017789124  0.016710127           16 
 3977000   0.60590916   -7.5875807    847.56137  0.017759647  0.016705029           17 
 3978000   0.62263803   -7.5779372    846.74942  0.017738173  0.016699935           15 
 3979000   0.62259804   -7.5803195    847.39347  0.017747203  0.016694843           17 
 3980000   0.61912273   -7.5933465    848.46984  0.017765281  0.016689762           29 
 3981000    0.6114422   -7.5924877     847.4326  0.017739107  0.016684673           14 
 3982000   0.63005219   -7.5896553     847.1886  0.017729545  0.016679583           13 
 3983000   0.61851473   -7.5953298    847.55209  0.017732699  0.016674495            6 
 3984000   0.61083853   -7.6027342    846.74048  0.017711272  0.016669399            9 
 3985000   0.60744434   -7.6062379      847.707  0.017727039    0.0166643           33 
 3986000    0.6201508   -7.6055066    848.77866  0.017744996  0.016659204           25 
 3987000   0.59750753   -7.6299189    846.93928    0.0177021  0.016654115           14 
 3988000   0.59431854   -7.6154484     846.2747  0.017683774  0.016649015            9 
 3989000   0.61790076   -7.6042092    846.73309  0.017688917  0.016643933           14 
 3990000    0.6301635   -7.6351186    847.55685  0.017701689  0.016638849           21 
 3991000   0.61839118   -7.6212619    847.00577  0.017685746  0.016633767            7 
 3992000   0.60090259   -7.6128347    847.89396  0.017699857  0.016628679           11 
 3993000   0.62342268   -7.5993464    846.12475  0.017658501  0.016623585           32 
 3994000   0.61925735   -7.6190403    845.87115  0.017648789  0.016618488           19 
 3995000   0.61149688   -7.6074589    846.89941   0.01766582  0.016613403           10 
 3996000   0.61006627   -7.5919425    848.08443  0.017686112  0.016608325           25 
 3997000   0.60894674   -7.6191371    847.45468  0.017668557  0.016603245           25 
 3998000   0.60707662   -7.5969185    847.51547  0.017665405  0.016598173           23 
 3999000   0.61396433    -7.614938    848.33395  0.017678043  0.016593101           25 
 4000000   0.62787535   -7.6163565    848.16732  0.017670153  0.016588022           27 
 4001000   0.60330611   -7.5935059    846.63091  0.017633736  0.016582957           30 
 4002000   0.60628733   -7.5983783     848.9332   0.01767727   0.01657789           22 
 4003000   0.60119493   -7.5943113    849.14403  0.017677243  0.016572842           15 
 4004000   0.60656528   -7.5989719    847.67418  0.017642236  0.016567779           14 
 4005000   0.62532857   -7.6058823    846.97655  0.017623316  0.016562715           17 
 4006000   0.62174181   -7.6064737    848.43742  0.017649306  0.016557659           20 
 4007000    0.6153495   -7.5906847     848.4652  0.017645479  0.016552607           20 
 4008000    0.6062522   -7.5785611    847.70552  0.017625281  0.016547564           28 
 4009000   0.61259405   -7.5940499    848.08401  0.017628752  0.016542513           18 
 4010000   0.61200428   -7.5950305    846.88904  0.017599523   0.01653746           18 
 4011000   0.62142535   -7.6077765    848.15118  0.017621358  0.016532414           13 
 4012000   0.61075014   -7.6245247    847.35425  0.017600412  0.016527354            8 
 4013000   0.61240162   -7.6298402    848.60749  0.017622051  0.016522301           23 
 4014000   0.60564053   -7.6124495    846.72578  0.017578595  0.016517247           28 
 4015000   0.59444679   -7.5981269    847.77417  0.017595977  0.016512201           10 
 4016000    0.6312406    -7.605337    848.31575  0.017602834  0.016507162           13 
 4017000   0.61042666   -7.6199426    847.08963  0.017573015  0.016502118           15 
 4018000   0.60558163    -7.621425    846.28476  0.017551949  0.016497072           23 
 4019000   0.60888784   -7.6286542    846.79515  0.017558164  0.016492016           18 
 4020000   0.62053194   -7.5926565    847.07687  0.017559637  0.016486972           35 
 4021000   0.59725654   -7.6142024    847.21028  0.017558035  0.016481921           21 
 4022000   0.61721678   -7.6157889    848.75372  0.017585648  0.016476882           27 
 4023000   0.60439544   -7.6170953    848.05491  0.017566801   0.01647184           21 
 4024000   0.62285306   -7.6099132    848.09191  0.017563202  0.016466799           31 
 4025000   0.59599708   -7.6207506    847.78148  0.017552412  0.016461757           28 
 4026000   0.61053642   -7.6195871    848.32089  0.017559217  0.016456716           16 
 4027000   0.61990771   -7.5987562    848.13692   0.01755105  0.016451686           13 
 4028000   0.60316961   -7.6235054    849.43816  0.017573613  0.016446653           17 
 4029000    0.5913917   -7.6031195    848.33561  0.017546447  0.016441625           26 
 4030000   0.60447986   -7.6150376    849.79163  0.017572201  0.016436608           10 
 4031000   0.60837598   -7.6104447    848.80576   0.01754746  0.016431591           16 
 4032000   0.61332919   -7.6290777    848.67872  0.017540483   0.01642657           24 
 4033000   0.61387084   -7.6177086    848.18523  0.017525937  0.016421544           13 
 4034000    0.6189984   -7.6101901    846.87703  0.017494568  0.016416517           18 
 4035000   0.60427063   -7.6274874    847.48816  0.017502853    0.0164115            9 
 4036000   0.61370689   -7.6000514     848.8388  0.017526404  0.016406486            6 
 4037000   0.59409649   -7.6290108    847.04281  0.017484989  0.016401462           16 
 4038000   0.59283645   -7.6179771     847.6018  0.017492195  0.016396444           18 
 4039000   0.60506426   -7.6096157    847.55972  0.017486996  0.016391421            9 
 4040000   0.60163167    -7.615204    846.49469  0.017460699  0.016386389           16 
 4041000   0.60130934   -7.6056801    847.54781  0.017478096  0.016381369           16 
 4042000   0.61271916   -7.6163079    847.48173  0.017472409  0.016376357           30 
 4043000   0.60225561   -7.6061037    846.57533  0.017449405  0.016371334           10 
 4044000   0.61201748   -7.6253065    846.31868  0.017439801  0.016366321           13 
 4045000   0.61152858   -7.6082719    845.72806  0.017423322  0.016361307           18 
 4046000   0.61735234   -7.6382737    846.37748  0.017432392  0.016356294           20 
 4047000   0.60350697   -7.6250599    847.82778  0.017457948  0.016351282           13 
 4048000   0.60243905   -7.6210065    846.66985  0.017429798  0.016346271           14 
 4049000    0.6058002   -7.6220436    847.20771  0.017436563  0.016341255           15 
 4050000     0.598517   -7.6364798    847.80954  0.017444641  0.016336243           13 
 4051000   0.60822223   -7.6098295    848.42303  0.017452955  0.016331245           16 
 4052000   0.60585743    -7.603482    847.84367  0.017436732  0.016326249           15 
 4053000   0.61455141   -7.6112381    848.22794  0.017440331  0.016321246           31 
 4054000    0.5950185   -7.6156768    846.59057  0.017402371  0.016316233           12 
 4055000   0.60515657   -7.6344954    846.12895  0.017388593  0.016311223           18 
 4056000   0.60400045    -7.633885    848.03581  0.017423484  0.016306205           19 
 4057000   0.60323165   -7.6302491    846.90115  0.017395883  0.016301202           20 
 4058000   0.60313929   -7.6304354     846.7954  0.017389424    0.0162962           14 
 4059000   0.60092148   -7.6268485    847.55282   0.01740069  0.016291193            9 
 4060000   0.59817532   -7.6298137    847.39496  0.017393164  0.016286185           17 
 4061000   0.60837984   -7.6241522    845.34229   0.01734676  0.016281186           18 
 4062000   0.60392776   -7.6486968    846.80961  0.017372592  0.016276186            9 
 4063000   0.60725706   -7.6085828    848.37729  0.017400469    0.0162712           13 
 4064000   0.60601814   -7.6283508    845.05972   0.01732816  0.016266207           15 
 4065000   0.59325179   -7.6334985    847.13155   0.01736637  0.016261212           17 
 4066000   0.60373454   -7.6173543    846.71154  0.017353491  0.016256221            9 
 4067000   0.60205631   -7.6522849    846.53878  0.017345684  0.016251233           13 
 4068000   0.60729481   -7.6069327    846.88135  0.017348438  0.016246236           19 
 4069000   0.60051725   -7.6159062    846.46094  0.017335564  0.016241249           10 
 4070000   0.61006985   -7.6223963    847.82425  0.017359219  0.016236279            9 
 4071000    0.6037705   -7.6280577    847.24602  0.017343118  0.016231298           14 
 4072000   0.59584207   -7.6296743    846.39859  0.017321517  0.016226313           17 
 4073000   0.59159448    -7.625486    846.53001  0.017319953  0.016221338           17 
 4074000   0.59508984   -7.6434424    846.97895  0.017324885  0.016216356           15 
 4075000   0.59944182   -7.6483979    845.88041  0.017298168  0.016211373           10 
 4076000   0.60790002   -7.6267082    846.96886  0.017316177  0.016206392           13 
 4077000   0.59326351   -7.6240462    848.22817   0.01733767  0.016201413           24 
 4078000    0.5990836   -7.6325814    848.21655  0.017333181  0.016196431           38 
 4079000   0.59169288   -7.6353627    847.03797  0.017304854  0.016191454           26 
 4080000   0.59921774   -7.6286502      846.705  0.017293811  0.016186478           22 
 4081000   0.60080087   -7.6192101     847.3156  0.017302042  0.016181496           25 
 4082000   0.60054362   -7.6247211    846.82777  0.017287844   0.01617653           32 
 4083000   0.60269467   -7.6517264    846.02376  0.017267201  0.016171552           51 
 4084000   0.59274514   -7.6322717    846.51353  0.017272966   0.01616658           54 
 4085000   0.60701085   -7.6506179    847.10208  0.017280744  0.016161608           15 
 4086000   0.59510466   -7.6356463    846.53403   0.01726493  0.016156639           25 
 4087000    0.5966504   -7.6354637     847.2218  0.017274729  0.016151669           65 
 4088000   0.59925004   -7.6465616    846.73758  0.017260632  0.016146689           51 
 4089000   0.59071167   -7.6513468    845.74769  0.017236237  0.016141707           41 
 4090000   0.59931657   -7.6230262     846.1959  0.017241155  0.016136735           33 
 4091000   0.59387607    -7.647802    845.42596  0.017221257  0.016131752           25 
 4092000    0.6022567    -7.641762     846.5138  0.017239203  0.016126776           28 
 4093000   0.59563059   -7.6563187    844.52446  0.017194488  0.016121795           35 
 4094000   0.59825437   -7.6491519    846.47791   0.01723005  0.016116818           25 
 4095000    0.5979952   -7.6381799      844.977  0.017195299  0.016111841           23 
 4096000     0.605713   -7.6387405    846.13316  0.017214623  0.016106876           55 
 4097000   0.59436504   -7.6481163     845.9203  0.017206092  0.016101911           19 
 4098000   0.59716538   -7.6300415    846.42197  0.017212095  0.016096951           40 
 4099000   0.60333991   -7.6385126    848.06969  0.017241394   0.01609199           15 
 4100000   0.59531894   -7.6447847    845.98259  0.017194768  0.016087032           41 
 4101000   0.59321733   -7.6608422     848.4831  0.017241386  0.016082064           21 
 4102000   0.59911485   -7.6577319    845.72501  0.017181152   0.01607711           34 
 4103000   0.59854327   -7.6223303    846.14203  0.017185434  0.016072157           46 
 4104000   0.58967998   -7.6697998    847.09288  0.017200554  0.016067202           51 
 4105000   0.59931673   -7.6597959    845.44165  0.017162843   0.01606224           28 
 4106000   0.59167192   -7.6483205    844.66036  0.017142807  0.016057271           21 
 4107000   0.58998348   -7.6517687     844.6663  0.017138753  0.016052307           31 
 4108000   0.59042135   -7.6481992    846.59983  0.017173804   0.01604735           50 
 4109000   0.58353146   -7.6551376    845.25333  0.017142316  0.016042388           64 
 4110000   0.58575755   -7.6663477    844.35125  0.017119855  0.016037429           30 
 4111000   0.60980993   -7.6495295    847.40918  0.017177677  0.016032482           52 
 4112000   0.59709369   -7.6437472    846.40278  0.017153104  0.016027538           29 
 4113000   0.59051907   -7.6338579    847.17253   0.01716453   0.01602259           24 
 4114000   0.60447405    -7.646131    845.03796   0.01711712   0.01601765           20 
 4115000   0.60287364    -7.631452    845.81145  0.017128624   0.01601271           16 
 4116000   0.58499706   -7.6575465    846.05547  0.017129403  0.016007762           23 
 4117000   0.59402093   -7.6359003    846.20913  0.017128353  0.016002818           27 
 4118000   0.57786155   -7.6481537    846.39199  0.017127894  0.015997872           38 
 4119000     0.582981   -7.6436723    846.11392   0.01711811  0.015992928           33 
 4120000   0.58404449   -7.6632792    846.05329  0.017112728  0.015988003           32 
 4121000   0.59491824   -7.6562715    846.09335  0.017109386  0.015983077           21 
 4122000   0.58618986   -7.6665423    846.26545  0.017108714  0.015978148           35 
 4123000   0.58486449   -7.6450809    847.39137  0.017127322  0.015973216           19 
 4124000   0.59375783   -7.6472901    845.27415  0.017080386  0.015968284           25 
 4125000   0.58785651   -7.6720932    845.91702  0.017089233  0.015963344           37 
 4126000    0.6030018   -7.6750817    844.82341  0.017063003    0.0159584           26 
 4127000   0.58705596   -7.6577414    845.37397  0.017069986  0.015953468           17 
 4128000   0.59534968   -7.6505974    846.40388  0.017086642   0.01594854           37 
 4129000   0.60096739   -7.6703077    846.89839  0.017092484  0.015943605           24 
 4130000   0.58810111   -7.6726473    844.93594  0.017048748  0.015938679           21 
 4131000   0.58331555   -7.6600078    845.21696   0.01705029  0.015933763           15 
 4132000   0.58593465   -7.6501742    846.39049  0.017069831  0.015928846           30 
 4133000   0.59137904   -7.6520849    844.28796  0.017023307  0.015923933           32 
 4134000   0.59364522   -7.6610043    845.70536  0.017047762  0.015919024           25 
 4135000   0.59669643   -7.6646858    847.47104  0.017079223  0.015914121           41 
 4136000   0.58321737   -7.6432654    846.43398  0.017054199  0.015909209           27 
 4137000    0.5987926   -7.6502003    845.94663  0.017040259  0.015904308           35 
 4138000   0.60228743   -7.6657494    846.53469  0.017047984  0.015899421           36 
 4139000   0.59677331   -7.6445837    845.60702  0.017025188  0.015894522           42 
 4140000   0.59435999   -7.6436373    846.33111   0.01703565  0.015889618           58 
 4141000   0.58010896   -7.6547982    846.49787  0.017034892  0.015884712           35 
 4142000   0.58440549   -7.6590117    845.94585  0.017019673  0.015879813           42 
 4143000   0.59411673   -7.6516958    847.26365  0.017042072   0.01587491           46 
 4144000   0.57954164   -7.6475582    845.96569  0.017011858  0.015870016           31 
 4145000   0.60237566   -7.6669804    846.17543  0.017011971  0.015865116           27 
 4146000   0.58385446   -7.6229987    847.67141  0.017037936  0.015860219           15 
 4147000   0.57973757   -7.6431414     847.0761  0.017021865  0.015855332           28 
 4148000    0.5981133   -7.6457761    846.28289  0.017001826  0.015850439           22 
 4149000   0.57932529   -7.6632708     845.4199  0.016980395  0.015845552           27 
 4150000   0.58662566   -7.6559219     846.5306  0.016998606  0.015840661           30 
 4151000   0.58458417   -7.6550974    845.72326  0.016978304  0.015835775           27 
 4152000   0.58608295   -7.6538314    845.61686  0.016972079  0.015830883           35 
 4153000   0.58602516   -7.6660012    844.62861  0.016948162  0.015825988           41 
 4154000   0.59701205   -7.6547666    845.85896  0.016968764  0.015821097           40 
 4155000   0.58432466   -7.6692402    847.37553  0.016995097  0.015816211           16 
 4156000   0.59609089   -7.6691904    846.34432   0.01697033  0.015811323           26 
 4157000   0.58920159   -7.6572857    846.87638  0.016976914  0.015806427           20 
 4158000   0.59087635   -7.6734221    845.73557  0.016949967   0.01580154           36 
 4159000   0.58427366   -7.6581933    846.61857  0.016963584  0.015796652           19 
 4160000   0.57975071   -7.6548352    845.58198  0.016938742  0.015791772           18 
 4161000   0.58324744   -7.6732887    845.41243  0.016931275  0.015786895           13 
 4162000   0.57848942   -7.6660372    845.46638  0.016928287  0.015782016           16 
 4163000   0.59283458   -7.6682589    846.87122  0.016952343  0.015777138           19 
 4164000   0.58472691   -7.6698835     846.0672  0.016932181  0.015772263           18 
 4165000   0.59030598   -7.6757937    846.45925  0.016935959  0.015767383           21 
 4166000   0.58266478   -7.6658639    845.29204  0.016908546  0.015762511           20 
 4167000   0.58093814    -7.650806    845.67894  0.016912226  0.015757642           18 
 4168000   0.59901246   -7.6464253    845.53178  0.016905226  0.015752777           11 
 4169000   0.58077563   -7.6472708    846.11158   0.01691276  0.015747919           31 
 4170000   0.57511325    -7.645208    846.69461  0.016920356  0.015743057           38 
 4171000    0.5875788   -7.6635356    846.94045  0.016921211  0.015738193           34 
 4172000   0.58966467   -7.6637452    846.98697  0.016918084  0.015733329           33 
 4173000   0.59253558   -7.6643925    844.65836  0.016867528  0.015728467           24 
 4174000   0.59592867   -7.6692209    845.52102   0.01688071  0.015723608           29 
 4175000   0.58683945   -7.6534487    846.32361  0.016892687  0.015718754           35 
 4176000   0.58657711   -7.6871076    845.76171  0.016877429  0.015713901           32 
 4177000   0.57988458   -7.6714135    846.10649  0.016880267  0.015709043           25 
 4178000   0.58177894   -7.6643807    846.24228  0.016878935  0.015704187           25 
 4179000   0.57587043   -7.6767872    846.74108  0.016884843  0.015699335           59 
 4180000   0.57534106   -7.6713969    845.31353  0.016852343  0.015694491           33 
 4181000   0.57738249   -7.6541113     846.7188  0.016876321  0.015689638           51 
 4182000   0.57670464   -7.6533437    847.21988  0.016882271  0.015684797           43 
 4183000   0.58763029   -7.6594657    845.27571  0.016839503  0.015679958           44 
 4184000   0.58630767   -7.6703848    845.24365   0.01683484  0.015675112           54 
 4185000   0.59096528    -7.672454    848.10965  0.016887886  0.015670268           41 
 4186000   0.57903965   -7.6748037    845.07072  0.016823354  0.015665422           55 
 4187000   0.58509475   -7.6546167    843.93776  0.016796787  0.015660587           50 
 4188000   0.57424777   -7.6516639     846.3503  0.016840781  0.015655752           48 
 4189000   0.57041221   -7.6653518    845.38203  0.016817499  0.015650919           35 
 4190000   0.57710158   -7.6619751    847.19055  0.016849454  0.015646085           67 
 4191000   0.57276328   -7.6586144    845.15913  0.016805041  0.015641254           68 
 4192000   0.59712611    -7.669228    847.80924  0.016853714  0.015636438           71 
 4193000   0.56915236   -7.6503251    845.71799  0.016808132  0.015631616           33 
 4194000   0.57795326   -7.6767583    846.15537  0.016812815  0.015626791           37 
 4195000   0.59525039   -7.6744394    845.68138  0.016799392  0.015621968           26 
 4196000   0.58627922   -7.6704671    844.23971  0.016766756  0.015617145           36 
 4197000    0.5984105   -7.6627771    847.28739  0.016823274  0.015612318           41 
 4198000   0.57960048   -7.6620198    845.72058  0.016788165  0.015607507           37 
 4199000   0.57172513   -7.6705052    846.56373    0.0168009  0.015602683           41 
 4200000   0.57468023   -7.6656007    845.55536  0.016776892  0.015597865           42 
 4201000   0.57837119   -7.6632876    846.22041  0.016786091  0.015593046           29 
 4202000    0.5730911   -7.6638662    845.37537  0.016765337  0.015588233           28 
 4203000   0.57640187   -7.6686271    845.64824  0.016766759  0.015583416           14 
 4204000    0.5854997   -7.6896919    847.26271  0.016794773  0.015578602           34 
 4205000   0.58658886   -7.6791702    846.29524  0.016771606  0.015573786           21 
 4206000   0.59118254    -7.661244    845.02674  0.016742486  0.015568975           22 
 4207000   0.57167152   -7.6701477    846.37741   0.01676526  0.015564171           18 
 4208000   0.57381202   -7.6813221    846.87326  0.016771096  0.015559365           28 
 4209000   0.58316505   -7.6704119    845.47044  0.016739337   0.01555456           27 
 4210000   0.57123772   -7.6598969    846.69479  0.016759596  0.015549749           13 
 4211000   0.59532305   -7.6860505    845.81166  0.016738139  0.015544949           15 
 4212000    0.5878541   -7.6643358    846.95875   0.01675686  0.015540151           15 
 4213000    0.5686392     -7.68535     846.3536  0.016740913  0.015535356           12 
 4214000   0.57961955   -7.6677312    847.17567  0.016753197  0.015530561           22 
 4215000   0.58055918   -7.6767269    846.28555  0.016731624  0.015525773           21 
 4216000   0.57847176   -7.6725147    845.54808  0.016713079  0.015520985           26 
 4217000   0.57268647   -7.6665459    844.54153  0.016689225  0.015516195           18 
 4218000   0.57274182   -7.6649776    846.63171  0.016726563  0.015511413           13 
 4219000   0.58828991   -7.6866294    846.34377  0.016716911  0.015506625           21 
 4220000   0.56012334   -7.6581264    847.02403  0.016726383  0.015501842           20 
 4221000   0.56662371   -7.6674204     846.3686   0.01670948  0.015497059           14 
 4222000   0.57792589    -7.652706    847.36122  0.016725115  0.015492278           14 
 4223000    0.5667523   -7.6636309    846.06739  0.016695623  0.015487506           14 
 4224000   0.57443235   -7.6919796    846.76271  0.016705388  0.015482738           12 
 4225000   0.56752993   -7.6815317    845.34395  0.016673451  0.015477964           25 
 4226000   0.57742825   -7.6654999    846.95502  0.016701274  0.015473192           13 
 4227000    0.5699129   -7.6677639     845.0211  0.016659197  0.015468415           14 
 4228000   0.58204456   -7.6774977     843.7072   0.01662936  0.015463643           16 
 4229000   0.57374527    -7.677391    844.34581  0.016638011   0.01545887           12 
 4230000   0.56691014   -7.6820408    846.17628   0.01667014  0.015454104           24 
 4231000   0.58126601   -7.6781289    847.00207  0.016682464  0.015449337           19 
 4232000   0.58351223    -7.663756    846.69231  0.016672423  0.015444571           21 
 4233000   0.56222157   -7.6783972    845.38091  0.016642667  0.015439812           18 
 4234000   0.58858616    -7.678119     846.8848  0.016668336  0.015435049           12 
 4235000    0.5734847   -7.6795666    846.38588  0.016654582  0.015430283           11 
 4236000   0.58787184   -7.6634321    845.18107  0.016626949  0.015425523           23 
 4237000   0.58783848   -7.6843942    844.06811  0.016601135  0.015420761           12 
 4238000    0.5758738   -7.7157413     846.2485  0.016640092  0.015416003           11 
 4239000   0.56285012   -7.6739536    846.81373  0.016647278  0.015411243           17 
 4240000   0.57521484   -7.6659226    845.15932  0.016610836  0.015406496           18 
 4241000   0.56262419   -7.6662648    845.21995   0.01660811  0.015401744           14 
 4242000   0.56735374   -7.6785557    846.60982  0.016631499  0.015396995           21 
 4243000   0.57513324    -7.664747    845.77866  0.016611255  0.015392246           12 
 4244000   0.57232347   -7.6763176    846.39177   0.01661938  0.015387491           17 
 4245000   0.55911039   -7.6722305    846.50637  0.016617714  0.015382739           10 
 4246000    0.5796509    -7.683164    846.39391  0.016611594  0.015377983           24 
 4247000   0.56583119   -7.6822606    844.98158   0.01657997   0.01537323           18 
 4248000   0.58058876   -7.6772745    845.85701   0.01659324  0.015368474           41 
 4249000   0.57239707    -7.670725    846.45203  0.016601005  0.015363715           38 
 4250000   0.57704674   -7.6792051    844.53475  0.016559505  0.015358962           46 
 4251000   0.57566735   -7.6824672    844.87058  0.016562193  0.015354208           53 
 4252000    0.5763779   -7.7047611    844.40444  0.016549162  0.015349456           28 
 4253000   0.56927197   -7.6847877    843.01728  0.016518091  0.015344702           29 
 4254000    0.5842854   -7.6816738     844.6133  0.016545473  0.015339956           21 
 4255000    0.5781613   -7.6871557    845.30056  0.016555044  0.015335203           37 
 4256000   0.56645594   -7.6945165    845.32134  0.016551561  0.015330452           21 
 4257000   0.57002583   -7.6829929    844.09771   0.01652372  0.015325706           25 
 4258000   0.55347659   -7.6738676    845.08747   0.01653921  0.015320958           19 
 4259000    0.5714874   -7.6869245    845.61809  0.016545709   0.01531622           36 
 4260000   0.57214514   -7.6972451    844.06131  0.016511371  0.015311471           18 
 4261000   0.57239904   -7.6852412     846.0188   0.01654578  0.015306725           23 
 4262000   0.58298829   -7.6912694    846.41548  0.016549654  0.015301982           28 
 4263000   0.56956265   -7.6823464    845.61328   0.01653009  0.015297246           24 
 4264000   0.57600382   -7.6924911    845.81887  0.016530231  0.015292513           41 
 4265000   0.59191241   -7.6981653    845.73737  0.016524763  0.015287783           23 
 4266000   0.56696786   -7.6964086     846.8581  0.016542782   0.01528306           32 
 4267000   0.56748956   -7.6787732    844.86118  0.016499906   0.01527834           34 
 4268000   0.56798616    -7.680022    844.70669  0.016493023  0.015273619           18 
 4269000   0.57747673   -7.6911637    845.92208  0.016512885  0.015268904           27 
 4270000   0.56535315   -7.6981542    845.70026  0.016504689  0.015264183           23 
 4271000   0.57310204   -7.6975303    846.41367  0.016514744  0.015259462           15 
 4272000   0.57367589   -7.6816053    846.61061   0.01651472  0.015254749           25 
 4273000   0.56664524    -7.684057    845.94068   0.01649779  0.015250029           17 
 4274000   0.55814996    -7.704487    847.26545   0.01651976  0.015245324           18 
 4275000    0.5611955   -7.6870253    845.97969  0.016490832  0.015240615           20 
 4276000   0.56900534   -7.6927538    846.82507  0.016503451  0.015235904           20 
 4277000   0.57723194   -7.6937097    845.68563  0.016477391  0.015231194           18 
 4278000   0.56894396    -7.705805    846.32986  0.016486089   0.01522648           16 
 4279000   0.57202781   -7.6934207    843.58343  0.016428749  0.015221767           21 
 4280000   0.55944658   -7.6891765    844.13421  0.016435635  0.015217055           16 
 4281000   0.57481742    -7.701157    844.59995  0.016440862  0.015212349           19 
 4282000   0.57551778   -7.6802249    843.46312  0.016414898   0.01520764           26 
 4283000   0.55465249   -7.6986343     845.6757  0.016454115  0.015202933           26 
 4284000   0.56431229    -7.711419    844.94052  0.016435973  0.015198226           18 
 4285000   0.57210143   -7.6768548    845.31607  0.016439441  0.015193515           29 
 4286000   0.56968378   -7.6912391    844.17184  0.016413358  0.015188799           25 
 4287000   0.56797769   -7.6785707    843.40572  0.016394637  0.015184085           16 
 4288000   0.55841243   -7.7023912    844.59541  0.016413934  0.015179377           16 
 4289000   0.57586168   -7.7091393    843.99089  0.016398362  0.015174672           10 
 4290000   0.57436264   -7.6911045    843.80662   0.01639096  0.015169969           23 
 4291000   0.56412388   -7.6878927    845.12234  0.016412692  0.015165265           27 
 4292000    0.5731213   -7.6837447    844.64756   0.01639965  0.015160563           23 
 4293000   0.55550705   -7.6985288    844.77374  0.016398279   0.01515587           14 
 4294000   0.56573581   -7.7071607    844.20113  0.016383347   0.01515118           31 
 4295000    0.5593553   -7.7030587    844.94622   0.01639399  0.015146482           14 
 4296000   0.56680881   -7.7089736    844.44114  0.016380376  0.015141783           21 
 4297000   0.55916418   -7.7091663    843.50357  0.016358381  0.015137079           52 
 4298000   0.57546859   -7.7107537     844.0351  0.016364881  0.015132379           17 
 4299000   0.57307831     -7.71277    846.80542  0.016414775  0.015127681           18 
 4300000   0.55898176   -7.7037493    845.07064  0.016377338  0.015122986           15 
 4301000   0.55413049   -7.7151503    844.52848  0.016363026  0.015118287           29 
 4302000   0.55751515   -7.7148407    844.51868  0.016359032  0.015113592           20 
 4303000   0.55734004   -7.7260897    843.59337  0.016337311  0.015108895           16 
 4304000   0.56185623   -7.6997237    844.27761  0.016346763  0.015104198           17 
 4305000   0.55418385   -7.7113934    843.13513   0.01632085    0.0150995           16 
 4306000   0.57100166   -7.7035671    844.58752  0.016345168  0.015094807           18 
 4307000   0.54915133   -7.7059233    845.02535  0.016349844  0.015090122           15 
 4308000   0.57489079   -7.6890357    844.65347  0.016338856  0.015085441           44 
 4309000   0.56113236    -7.710537    844.93255  0.016340461  0.015080762           21 
 4310000   0.58734585    -7.691403    843.70764  0.016312986   0.01507608           16 
 4311000   0.56038468   -7.7187385    844.16067  0.016317959  0.015071408           15 
 4312000   0.57232826   -7.6956911    845.14215  0.016333143  0.015066737           13 
 4313000   0.55504735   -7.6780241     844.4988  0.016316926  0.015062068           18 
 4314000   0.57333234   -7.6981503    845.69373  0.016336226  0.015057404           14 
 4315000   0.57082389   -7.6989555    844.94618  0.016318003  0.015052747           14 
 4316000   0.56622304   -7.6927585    845.58003   0.01632646  0.015048084           21 
 4317000   0.56575425   -7.7106911    845.56497  0.016322388  0.015043427           22 
 4318000   0.54907724    -7.694795    845.09407   0.01630952  0.015038766           16 
 4319000   0.56905057   -7.6971678    844.60445  0.016296296  0.015034109           21 
 4320000   0.55891049   -7.7006652       844.53  0.016291088  0.015029454           15 
 4321000    0.5571271   -7.6982659    845.11418  0.016298584  0.015024792           23 
 4322000   0.56430958   -7.7038136    844.16644  0.016276539  0.015020137           22 
 4323000   0.56745345   -7.7143931    846.30799  0.016314056  0.015015487           35 
 4324000   0.55937599   -7.7087221    845.54935  0.016295663  0.015010834           24 
 4325000    0.5510408   -7.6966744    843.90363  0.016260186  0.015006188           16 
 4326000   0.55459312   -7.6941176    845.65344  0.016290134  0.015001545           12 
 4327000   0.56029727   -7.7021204    845.31386  0.016279829    0.0149969           33 
 4328000    0.5726189   -7.7159914    846.18122  0.016292768  0.014992258           26 
 4329000   0.55494632   -7.6967218    845.90182  0.016283626  0.014987611           20 
 4330000   0.57185816   -7.7120808     843.9956  0.016243179  0.014982966           25 
 4331000   0.56789945   -7.7113166    843.26404  0.016225353   0.01497832           32 
 4332000   0.56098482   -7.7118731    844.25201  0.016240613  0.014973672           18 
 4333000   0.55740624   -7.7174918    844.81768  0.016247744  0.014969024           21 
 4334000   0.56890682   -7.7007928    845.59884  0.016259015   0.01496438           17 
 4335000    0.5439214    -7.705192    843.13591  0.016207918  0.014959743           25 
 4336000   0.56029511   -7.7007404    843.96159  0.016220049  0.014955104           21 
 4337000   0.55791747   -7.7135498    845.32591  0.016242524  0.014950468           25 
 4338000   0.56800474   -7.7187725     844.8724  0.016230068   0.01494583           29 
 4339000   0.57034012   -7.7148435    843.86493  0.016206978  0.014941192           12 
 4340000   0.56393775   -7.7209114    845.19324  0.016228749  0.014936565           20 
 4341000   0.56361992   -7.7138921     844.6769  0.016215098  0.014931937           16 
 4342000   0.55755769   -7.7107562    843.64684  0.016191595  0.014927309           27 
 4343000   0.56562776    -7.710275    844.50803  0.016204391  0.014922678           12 
 4344000    0.5677563   -7.7129383    843.57075   0.01618268  0.014918058           10 
 4345000   0.56256435   -7.7061093    844.30669   0.01619307  0.014913434           10 
 4346000   0.55450707   -7.7105918    844.36934  0.016190546  0.014908813           16 
 4347000   0.55261674    -7.717825     843.8026  0.016175957  0.014904188           25 
 4348000   0.55779385   -7.6996001    844.20603  0.016179968  0.014899572           25 
 4349000   0.55533437   -7.6855548    843.59633  0.016164565   0.01489495           17 
 4350000   0.56414144   -7.7107315    844.73113  0.016182589  0.014890331           28 
 4351000   0.55718104   -7.7035548    845.50424  0.016193677  0.014885718           17 
 4352000   0.54535505   -7.7129139    845.00206   0.01618034  0.014881098           28 
 4353000   0.54567172   -7.7047669    842.60986  0.016130827  0.014876477           23 
 4354000    0.5563711   -7.7070633    844.95575  0.016172021  0.014871864           38 
 4355000   0.55630549   -7.7036784     844.5983  0.016161468  0.014867252           25 
 4356000   0.56182811   -7.7337035    844.24831  0.016151062  0.014862637           27 
 4357000   0.55178337    -7.711083    845.45925  0.016170516  0.014858026           21 
 4358000   0.54626003   -7.7240142    845.25584  0.016162916  0.014853418           31 
 4359000   0.55255137   -7.7193949    844.45804  0.016143956  0.014848814           25 
 4360000   0.55161653   -7.6997145    843.17254  0.016115683  0.014844211           29 
 4361000   0.55361483   -7.7180073    844.09954  0.016129702  0.014839611           29 
 4362000   0.54705649   -7.6980261     845.2907   0.01614876  0.014835014           19 
 4363000    0.5460625   -7.7219459    843.85755  0.016117686  0.014830417           18 
 4364000   0.53614837   -7.7234294    843.80876  0.016113061  0.014825812           17 
 4365000   0.55556596   -7.7211135    844.58301  0.016124151  0.014821213           12 
 4366000   0.57417861   -7.7272696    843.37822  0.016097462  0.014816613           23 
 4367000   0.55373247   -7.7197203    845.93052   0.01614248  0.014812017           17 
 4368000   0.54290494    -7.717888    842.75146  0.016078134  0.014807421           14 
 4369000   0.54399504    -7.732077    843.04645   0.01608008  0.014802824           17 
 4370000    0.5559748   -7.7065435    844.51216  0.016104351  0.014798233           24 
 4371000   0.54077002   -7.7195123    843.79457  0.016086986  0.014793648           21 
 4372000   0.55361367   -7.7060264    843.81815  0.016083756   0.01478906           14 
 4373000   0.56194025   -7.7378188    844.89493  0.016100597  0.014784471           17 
 4374000   0.55085779   -7.7356739    842.65082  0.016054161  0.014779884           15 
 4375000   0.55466394   -7.7264866    843.06171  0.016058318  0.014775289           16 
 4376000   0.55036413    -7.721967     844.2477  0.016077234  0.014770704           16 
 4377000   0.56413564   -7.7337837     845.0025  0.016087931   0.01476612           10 
 4378000   0.55420387    -7.713237    843.51263  0.016055898  0.014761536           15 
 4379000   0.55148582   -7.7127971    843.52154  0.016052401  0.014756958           11 
 4380000    0.5503843   -7.7185953    843.19568  0.016042536  0.014752382           12 
 4381000   0.53698193   -7.7117519    845.22602  0.016077494  0.014747807           18 
 4382000   0.54311923   -7.7217076    844.46124  0.016059281  0.014743237           13 
 4383000    0.5471138   -7.7205373    844.88616  0.016063696  0.014738659           15 
 4384000   0.55697989   -7.7111897    844.25133  0.016047965  0.014734086            9 
 4385000   0.54554592   -7.7111074    844.52601  0.016049525  0.014729517           16 
 4386000   0.55028624   -7.7043125    844.97409  0.016054379  0.014724956           17 
 4387000   0.54086282   -7.7302521    845.28258   0.01605658   0.01472039           13 
 4388000    0.5399775   -7.7428503    843.99812  0.016028527  0.014715829           13 
 4389000   0.54374759   -7.7200409     843.5051  0.016015514  0.014711265            9 
 4390000   0.56547713   -7.7138847    844.20863  0.016025221  0.014706711           10 
 4391000   0.55186921   -7.7441638    843.78743  0.016013578  0.014702156           16 
 4392000   0.54104145   -7.7089439    844.87941  0.016030651  0.014697602           10 
 4393000   0.54608662    -7.713619    843.86094  0.016007682  0.014693056            8 
 4394000   0.55136305   -7.7351058    844.25565  0.016011524  0.014688503            8 
 4395000   0.55664212   -7.7459143    844.83058  0.016018782  0.014683956           11 
 4396000   0.54271294   -7.7359843    843.65723  0.015992896  0.014679406           13 
 4397000   0.54311788   -7.7076653    843.49279  0.015986142  0.014674856           10 
 4398000   0.53784367   -7.7353401    845.12184  0.016013374  0.014670314           15 
 4399000   0.54065749    -7.731283    844.84881  0.016004562  0.014665769           16 
 4400000    0.5478799    -7.724488    844.82251  0.016000426  0.014661221           14 
 4401000   0.53699021   -7.7194081    844.06163  0.015982383  0.014656679           10 
 4402000   0.56059918   -7.7408284    844.76096  0.015991992  0.014652132           17 
 4403000   0.54935459   -7.7211093    842.37628  0.015943226  0.014647587           20 
 4404000   0.54799865   -7.7187517     843.8231  0.015966983  0.014643052           21 
 4405000   0.54204066   -7.7118614    845.17954  0.015989019  0.014638512           11 
 4406000    0.5522881    -7.735298     843.7912  0.015959131  0.014633977           11 
 4407000   0.53856575   -7.7309492    843.66443  0.015953113  0.014629441           10 
 4408000    0.5477506   -7.7308462    842.25484  0.015922846  0.014624901           19 
 4409000   0.55196974     -7.73699     844.1056  0.015954215  0.014620364           22 
 4410000   0.54280575   -7.7341869    844.73668  0.015962522  0.014615828           12 
 4411000   0.53561705   -7.7276339    843.66827  0.015938719  0.014611297           15 
 4412000   0.54228798   -7.7247399    844.19444  0.015945045  0.014606768           11 
 4413000   0.53462721   -7.7125376    842.87927  0.015916596  0.014602237           13 
 4414000   0.54123635     -7.73605    843.92315  0.015932698  0.014597713            8 
 4415000   0.54135373   -7.7387867    843.94394  0.015929482  0.014593187            8 
 4416000   0.56226452   -7.7364971    843.56719  0.015918765  0.014588658           29 
 4417000   0.55221704   -7.7545486     843.6172  0.015916104   0.01458413           18 
 4418000   0.54174433   -7.7271353    843.07856  0.015902342  0.014579605           12 
 4419000   0.53235338   -7.7403348    842.70181  0.015891639  0.014575086           19 
 4420000   0.54709701   -7.7518947    842.53651  0.015884927  0.014570565           36 
 4421000   0.54550822   -7.7429061    843.05227  0.015891055  0.014566047           34 
 4422000   0.54608617   -7.7223128    845.34238  0.015930619  0.014561532            9 
 4423000   0.54088602   -7.7172999    844.06203  0.015902894  0.014557016           16 
 4424000   0.54678118   -7.7423643     842.3461  0.015866977    0.0145525           19 
 4425000   0.54591959   -7.7430756    843.88479  0.015892369  0.014547986           18 
 4426000   0.55323165   -7.7371365    843.95945  0.015890184  0.014543471           18 
 4427000   0.54842237   -7.7490392    843.87443  0.015884994  0.014538957           18 
 4428000   0.54658116   -7.7511196    843.38243  0.015872147   0.01453444           14 
 4429000   0.53904343   -7.7483345    843.60849  0.015872817  0.014529927           18 
 4430000   0.54336503   -7.7506066    843.58443  0.015868782  0.014525414           19 
 4431000   0.54255674   -7.7536389    844.26277  0.015877958  0.014520908           24 
 4432000   0.53425841   -7.7625757    844.73098  0.015883179  0.014516399           13 
 4433000   0.53504798   -7.7434624    844.52313  0.015875689  0.014511892           10 
 4434000   0.53957434   -7.7487367    844.32292  0.015868345  0.014507386           24 
 4435000   0.53569011   -7.7500058    843.71993  0.015853437  0.014502877           17 
 4436000   0.54754636   -7.7471021    844.59702   0.01586634  0.014498379           23 
 4437000   0.53906054   -7.7298183    844.71597  0.015864998  0.014493881           16 
 4438000   0.54347236   -7.7377156    844.39238  0.015855347  0.014489388           15 
 4439000   0.54831991   -7.7376143    844.95291  0.015862298  0.014484892           14 
 4440000   0.53958455   -7.7276387    844.02573  0.015841324  0.014480403           15 
 4441000   0.54835407   -7.7403795     844.9037  0.015854231   0.01447591           15 
 4442000   0.53758891   -7.7479375    844.29128  0.015839173  0.014471422           14 
 4443000    0.5256373   -7.7306457     843.8074  0.015826532  0.014466937           15 
 4444000   0.54790809    -7.741564    843.06129   0.01580898  0.014462448           10 
 4445000   0.52711365   -7.7430896    843.43821   0.01581249  0.014457959            7 
 4446000   0.53306066   -7.7277816     843.2938  0.015806227  0.014453469            9 
 4447000   0.54029346   -7.7525707     843.0961  0.015798968  0.014448983           14 
 4448000   0.53660544   -7.7551272    843.71248  0.015806963  0.014444501           13 
 4449000   0.55589128   -7.7365465    842.23561  0.015775748   0.01444002           13 
 4450000    0.5419095   -7.7522867    843.41913  0.015794366  0.014435533            9 
 4451000    0.5439898   -7.7552894    844.42209  0.015809595  0.014431048           15 
 4452000    0.5352685   -7.7594485    843.39841  0.015786882  0.014426567           19 
 4453000   0.54447203   -7.7593612    843.83452  0.015791499  0.014422084           16 
 4454000   0.54761742   -7.7484986    844.37976  0.015798154  0.014417601           25 
 4455000   0.53041998   -7.7550771    842.75312  0.015764181  0.014413121           11 
 4456000   0.54353059   -7.7360384     843.6561   0.01577753  0.014408644           10 
 4457000   0.53395097   -7.7523426    842.69135  0.015755952  0.014404171           13 
 4458000   0.53593592   -7.7552035    841.73848  0.015734606  0.014399691           10 
 4459000   0.54050102   -7.7772808    843.27795  0.015759848  0.014395212           12 
 4460000   0.53382994   -7.7500005    843.97366  0.015769314  0.014390734           13 
 4461000   0.54143887   -7.7648208    842.78439  0.015743563  0.014386256           16 
 4462000   0.53122391   -7.7625617    844.50499  0.015772169  0.014381786           12 
 4463000   0.52775778   -7.7654148    843.39082  0.015747831   0.01437731           13 
 4464000   0.53315867   -7.7604501    842.53177  0.015728266  0.014372835           13 
 4465000   0.53575079    -7.766924    843.62908  0.015745224  0.014368362           13 
 4466000   0.54329367    -7.766674    842.68724  0.015724124  0.014363896           17 
 4467000   0.54051104   -7.7571233    843.94141  0.015744001   0.01435943           23 
 4468000   0.53937981   -7.7700517    843.18931  0.015726449  0.014354966           28 
 4469000   0.54757022   -7.7722374    842.99873  0.015719377  0.014350505           10 
 4470000   0.53421787     -7.75258    843.78682  0.015730552  0.014346041           14 
 4471000   0.52807376   -7.7540142    842.73042  0.015707344  0.014341578           15 
 4472000   0.54267948   -7.7603887    844.07738  0.015728931  0.014337113           25 
 4473000   0.53864642   -7.7584432    842.78541  0.015701345  0.014332652           19 
 4474000   0.54892652   -7.7573037    842.63963   0.01569512  0.014328197           26 
 4475000   0.53744821   -7.7726946    842.95554  0.015697496  0.014323741           15 
 4476000    0.5356278   -7.7712943    843.34203  0.015701185   0.01431929           34 
 4477000    0.5271873   -7.7701537    843.45703  0.015699818  0.014314831           10 
 4478000   0.54602023   -7.7669256    842.56614  0.015679733  0.014310372           18 
 4479000   0.53050142    -7.770268    843.03059  0.015684874  0.014305921           21 
 4480000   0.53396848   -7.7580186    843.28674  0.015686137  0.014301467           20 
 4481000   0.53242937   -7.7551621    842.36724  0.015665537  0.014297011           17 
 4482000   0.53337673   -7.7745947    842.40666  0.015662774  0.014292555           18 
 4483000   0.52919931   -7.7626922    842.08867   0.01565337  0.014288103           18 
 4484000   0.53887086   -7.7546885    841.43161  0.015637668  0.014283656           19 
 4485000   0.53104077   -7.7735086    842.86386  0.015660793   0.01427921           21 
 4486000   0.53011909   -7.7754371    842.00614  0.015641368  0.014274764           20 
 4487000   0.53597124   -7.7497502    843.06329  0.015657516  0.014270316           18 
 4488000   0.53806468   -7.7523393    841.73754  0.015629411   0.01426587           14 
 4489000   0.52371733   -7.7745551    843.04248  0.015650154  0.014261424           17 
 4490000   0.52332307   -7.7468712    843.20724  0.015649726  0.014256984           15 
 4491000   0.53018997    -7.754088    841.86031  0.015621248  0.014252552           11 
 4492000   0.53545899   -7.7852032    842.30057  0.015625938  0.014248118           17 
 4493000   0.53685661   -7.7652293    842.79061  0.015631549  0.014243681           13 
 4494000   0.53676766   -7.7675258    842.53936  0.015623412  0.014239246           14 
 4495000   0.52994051   -7.7707804     841.9869  0.015609694  0.014234815           13 
 4496000   0.53069252   -7.7799344     841.6603  0.015600169  0.014230381           21 
 4497000   0.52518393    -7.776145     843.8803  0.015637838  0.014225949           16 
 4498000   0.54075474   -7.7801209      842.145  0.015602212  0.014221523           22 
 4499000    0.5253021   -7.7675609    843.79073  0.015629227  0.014217096           16 
 4500000   0.52700025    -7.764538    842.33821  0.015598856  0.014212674           12 
 4501000   0.53099649   -7.7522951    842.32262  0.015595101  0.014208257           14 
 4502000   0.53678689   -7.7591878    843.57169  0.015614758  0.014203832           17 
 4503000   0.54713366   -7.7705659    842.55615  0.015592497  0.014199418           15 
 4504000   0.54494977   -7.7786932    842.92309  0.015595824  0.014195005           18 
 4505000   0.54235143   -7.7588408    843.46541  0.015602394  0.014190593           20 
 4506000   0.53594713   -7.7663631    841.66429  0.015565622  0.014186177           19 
 4507000     0.531444   -7.7831047    841.83899  0.015565398  0.014181762           29 
 4508000   0.53469693   -7.7622309    842.25887  0.015569707  0.014177353           15 
 4509000     0.522032   -7.7493965    843.16556  0.015583011  0.014172943           17 
 4510000   0.53613735   -7.7590845    842.90469  0.015574736  0.014168538           29 
 4511000   0.52504123    -7.767698    841.09354  0.015537825  0.014164134           15 
 4512000   0.52789789   -7.7592125    842.98207  0.015569261   0.01415973           24 
 4513000   0.54220335    -7.762949    841.46269  0.015537756  0.014155325           18 
 4514000   0.52751749   -7.7607059    841.85183  0.015541497  0.014150926           12 
 4515000   0.53219566   -7.7591444    841.93855  0.015539656  0.014146523           24 
 4516000   0.53334785   -7.7770437    844.00985  0.015574436  0.014142126           20 
 4517000   0.54171929    -7.778343     842.8583  0.015549744  0.014137733           14 
 4518000   0.51687388   -7.7651463    843.05875  0.015549999  0.014133338           15 
 4519000   0.52360039   -7.7741462    841.48665  0.015517568  0.014128942           14 
 4520000   0.54085248   -7.7777734    841.78424  0.015519621  0.014124557           13 
 4521000   0.52449101   -7.7755116    842.96131  0.015537884  0.014120164           15 
 4522000   0.53198031   -7.7831133    843.68924  0.015547863  0.014115771           41 
 4523000   0.52429465   -7.7737565    841.15467  0.015497728  0.014111384           11 
 4524000   0.53435536   -7.7640491    843.68849  0.015540976  0.014106995           10 
 4525000   0.53442325   -7.7556377    843.18305  0.015528233  0.014102614           18 
 4526000   0.53100891   -7.7749871    841.10985   0.01548663  0.014098231           11 
 4527000   0.52218582   -7.7903795     841.9022  0.015497795  0.014093848           23 
 4528000   0.53452793   -7.7770631    842.50645  0.015505493  0.014089462           16 
 4529000   0.53267182   -7.7853381    841.99066  0.015492579  0.014085081            9 
 4530000   0.52629354   -7.7744733    841.46934  0.015479568  0.014080703           22 
 4531000   0.52889118   -7.7934457    841.31154   0.01547325  0.014076323           16 
 4532000   0.54004023   -7.7824861    842.53653   0.01549236  0.014071944           14 
 4533000   0.53175191   -7.7849764    841.66387    0.0154729  0.014067569           16 
 4534000   0.53028427   -7.7961543    842.78859  0.015490159  0.014063197           23 
 4535000   0.51974194    -7.779393    842.79842  0.015486924  0.014058828           27 
 4536000   0.53067531   -7.7610834    840.61541  0.015443405  0.014054452           19 
 4537000   0.53073454   -7.7865771    842.87008  0.015481414  0.014050079           42 
 4538000   0.52961695   -7.7899482    841.22948  0.015447875  0.014045714           13 
 4539000   0.53082628   -7.7723716    841.23556  0.015444583  0.014041343           13 
 4540000   0.51981984     -7.78371    841.48176    0.0154457  0.014036979           27 
 4541000   0.52857649   -7.7838998    841.23676  0.015437803  0.014032612           39 
 4542000   0.51962876   -7.7889845    840.50952  0.015421061  0.014028253           19 
 4543000   0.53234294   -7.7728313    842.34215  0.015451283  0.014023893           15 
 4544000   0.52647844   -7.7983088    842.96283  0.015459266  0.014019539           15 
 4545000   0.51878049   -7.7734668    842.67394  0.015450567  0.014015186           13 
 4546000    0.5184945   -7.7685799    842.32783  0.015440824  0.014010829           14 
 4547000   0.51759572   -7.7897775    842.62741  0.015442919  0.014006475           12 
 4548000   0.53455245   -7.7805814    842.50297  0.015437243  0.014002121           18 
 4549000   0.52311665   -7.7816942    840.85462  0.015403653  0.013997768           15 
 4550000     0.539652   -7.7940294    841.64543  0.015414751  0.013993417           14 
 4551000    0.5223669   -7.7995127    843.55248  0.015446284  0.013989064           16 
 4552000   0.51923804   -7.7813604    842.17445  0.015417664  0.013984712           15 
 4553000    0.5176359   -7.7961758    842.83507  0.015426368  0.013980362           15 
 4554000   0.51146831   -7.7812528    841.73208  0.015402798  0.013976017            8 
 4555000   0.52268977   -7.7773433    841.65786  0.015398058  0.013971669           22 
 4556000   0.52323987   -7.7913678    841.51152  0.015392002  0.013967326           24 
 4557000   0.51087774   -7.8020227    843.29868  0.015421306  0.013962983           19 
 4558000   0.52104731   -7.7972019    841.08063   0.01537737  0.013958642           21 
 4559000    0.5370107   -7.7817532    842.17686  0.015394035  0.013954301           22 
 4560000   0.51355352   -7.7923886    841.77365   0.01538329  0.013949964           21 
 4561000   0.53026387   -7.7906337    840.84389   0.01536293  0.013945631           17 
 4562000   0.51388918   -7.7804366    840.09879  0.015345952  0.013941292           12 
 4563000   0.53349367   -7.8051311    840.52192  0.015350316  0.013936955           15 
 4564000   0.52806674   -7.7822717    841.38276  0.015362671  0.013932623           20 
 4565000   0.51968198    -7.797881    841.92668  0.015369235  0.013928288           11 
 4566000   0.51336013   -7.7737496    841.33586  0.015355086  0.013923955           22 
 4567000   0.52959138   -7.8017672    841.16132  0.015348539  0.013919619           14 
 4568000   0.51446884   -7.7813309    841.06188  0.015343365   0.01391529           16 
 4569000   0.52222192    -7.795528    840.62338  0.015332009  0.013910962           23 
 4570000   0.52529151   -7.7939927    841.21328  0.015339411  0.013906635           33 
 4571000   0.52278928   -7.7822114    842.29866  0.015355842  0.013902315           17 
 4572000    0.5182565   -7.8061108    840.90414  0.015327066  0.013897994           16 
 4573000   0.52363306   -7.8153888    840.86829  0.015323061   0.01389367           17 
 4574000   0.53656963   -7.8036263     842.0579  0.015341384  0.013889352           19 
 4575000    0.5201172   -7.7873696    840.29862  0.015305986  0.013885034           19 
 4576000    0.5245699    -7.797571    842.07598  0.015335008  0.013880716           16 
 4577000   0.52245579    -7.790737    841.32032    0.0153179  0.013876406           31 
 4578000   0.52021177   -7.7778925    840.87955   0.01530653  0.013872092           19 
 4579000   0.51633125   -7.8049083    841.99244  0.015323441  0.013867782           28 
 4580000   0.51777143   -7.7809904    841.11094  0.015304056  0.013863479           18 
 4581000   0.52148901   -7.8169729    842.13054  0.015319263   0.01385917           12 
 4582000   0.51713457   -7.7767078    841.31778  0.015301138  0.013854864           17 
 4583000   0.52317779   -7.7936253    842.02646  0.015310686  0.013850557           16 
 4584000   0.51341112    -7.789455    841.88442  0.015304763  0.013846253           17 
 4585000   0.51638786   -7.8006423    840.83339  0.015282323  0.013841952           24 
 4586000   0.52067483   -7.7842771    842.42782  0.015307963  0.013837653           31 
 4587000   0.52216883   -7.7945521    840.33065  0.015266526  0.013833355           22 
 4588000    0.5257994   -7.7925131    841.49782  0.015284398  0.013829063           22 
 4589000   0.52495544   -7.7974279    841.77092  0.015286027  0.013824766           28 
 4590000   0.52635517   -7.7934393    840.50787  0.015259765  0.013820474           19 
 4591000   0.51822569   -7.7892197    841.60312  0.015276322  0.013816189           27 
 4592000    0.5209204   -7.7868287    843.19002  0.015301793  0.013811902           18 
 4593000   0.51800908   -7.7848469    842.68979  0.015289386  0.013807617           17 
 4594000   0.51101393   -7.7954572    842.09473  0.015275264  0.013803332           24 
 4595000   0.52821896   -7.7951948    842.92462   0.01528699  0.013799054           26 
 4596000   0.52608191   -7.7888854    842.03039   0.01526745  0.013794777           19 
 4597000   0.51232254    -7.798864    842.70953   0.01527644  0.013790495           11 
 4598000   0.51860941   -7.7874553    840.87127  0.015239801  0.013786217           28 
 4599000   0.52613124   -7.7995414    841.37554  0.015245625  0.013781937           21 
 4600000   0.52150252   -7.7921081    840.61609  0.015228552  0.013777663           15 
 4601000   0.52093636   -7.8028778    841.36871  0.015238874  0.013773386           27 
 4602000   0.50824595   -7.7915974    841.16135  0.015231808  0.013769112           18 
 4603000   0.51758054   -7.7776681    841.11095  0.015227586  0.013764837           43 
 4604000   0.50772107   -7.7987637    842.25487  0.015244984  0.013760565           22 
 4605000   0.52228791   -7.7851824    841.27201  0.015223887  0.013756293           25 
 4606000    0.5160643   -7.7930894    842.29056   0.01523901  0.013752022           26 
 4607000   0.51685149   -7.7927792    843.22574  0.015252618   0.01374775           24 
 4608000   0.50934594   -7.8035214    841.51765  0.015218418  0.013743483           37 
 4609000   0.51186377    -7.802117    841.31806  0.015211507  0.013739217           21 
 4610000   0.51757709   -7.7902922    841.23137  0.015206641  0.013734953           22 
 4611000   0.50849714   -7.8026769    840.09292  0.015182768  0.013730688           36 
 4612000   0.51239166   -7.8047863    840.87701  0.015193644  0.013726421           48 
 4613000   0.52393956   -7.7982827    840.88337  0.015190465  0.013722162           21 
 4614000    0.5177804   -7.7798937    840.62796   0.01518256  0.013717905           20 
 4615000   0.50551533   -7.8023448    841.98962  0.015203857  0.013713649           26 
 4616000   0.51829301   -7.7955581    842.07234  0.015202057  0.013709392           28 
 4617000    0.5237279   -7.7917604    841.93381  0.015196264   0.01370514           26 
 4618000   0.51822882   -7.7981041    840.87695  0.015173902  0.013700887           24 
 4619000   0.51549849   -7.8019812    840.69464  0.015167328  0.013696636           30 
 4620000   0.52052931   -7.8085848    841.40178    0.0151768  0.013692388           25 
 4621000   0.50555939   -7.8108674     841.5956  0.015177011  0.013688141           23 
 4622000   0.51704191   -7.8103924    841.29872  0.015168374  0.013683892           34 
 4623000   0.51472988   -7.8102425    841.48349  0.015168424  0.013679647           41 
 4624000   0.51303676   -7.8043745    841.93582  0.015173295  0.013675405           20 
 4625000   0.50727924   -7.8136074    842.00866  0.015171327  0.013671157           47 
 4626000   0.50848058   -7.7930049    840.48235  0.015140552  0.013666917           25 
 4627000   0.52000227   -7.8000873    841.37299  0.015153321  0.013662673           43 
 4628000   0.50889881   -7.8132712    840.43396  0.015133138  0.013658434           29 
 4629000   0.50594957   -7.8119052    840.78643  0.015136214  0.013654191           33 
 4630000   0.50998557   -7.8138795    840.42082  0.015126365  0.013649953           20 
 4631000   0.51872259   -7.8086436    841.02464  0.015133964  0.013645716           17 
 4632000   0.51972733   -7.7989412    841.92748  0.015146939  0.013641482           32 
 4633000   0.51984334   -7.7989371    840.13143  0.015111365  0.013637246           33 
 4634000   0.51059011   -7.7968244    841.40286  0.015130968  0.013633011           27 
 4635000   0.51092341    -7.806164    840.56281    0.0151126  0.013628778           24 
 4636000   0.49804567   -7.8053952    841.28137  0.015122257  0.013624547           27 
 4637000   0.50351388   -7.7987136    840.96673  0.015113341  0.013620318           42 
 4638000   0.51180892   -7.7975586    840.11039  0.015094696  0.013616091           27 
 4639000   0.51068282    -7.789456    842.35055  0.015131683  0.013611867           26 
 4640000   0.50519566   -7.8074973    840.34297  0.015092367  0.013607645           26 
 4641000   0.51246304   -7.8054315     841.5744  0.015111226   0.01360342           31 
 4642000   0.52231065   -7.8079801    840.53268   0.01508927  0.013599196           38 
 4643000   0.50173934   -7.7920173    841.02702  0.015094892  0.013594979           15 
 4644000   0.50861985   -7.7950855    841.30101  0.015096558   0.01359076           50 
 4645000   0.50286658     -7.80301    841.26321   0.01509263  0.013586544           23 
 4646000   0.51218444   -7.7873846    839.87268   0.01506444   0.01358233           22 
 4647000   0.50734185   -7.8247527    841.18473  0.015084727  0.013578113           28 
 4648000   0.49953595   -7.8130184    839.57455  0.015052613  0.013573901           34 
 4649000   0.50416595   -7.8300073    841.75685  0.015088493  0.013569693           34 
 4650000   0.50231017   -7.8030761      840.594  0.015064409  0.013565485           27 
 4651000   0.50658469   -7.8008162    841.49768  0.015077361  0.013561281           24 
 4652000   0.51305539   -7.7998685    841.22595  0.015069253  0.013557076           21 
 4653000   0.51148264   -7.7949543    840.12481  0.015046293  0.013552874           16 
 4654000   0.50491879   -7.7881178    839.90648   0.01503915  0.013548677           27 
 4655000   0.49964798   -7.7863865    841.63761   0.01506691   0.01354448           18 
 4656000   0.51558305   -7.8060375    840.86688   0.01504988  0.013540283           24 
 4657000   0.50496252   -7.8166526    840.86157  0.015046553  0.013536083           22 
 4658000   0.49883719   -7.7938981    841.16042  0.015048669  0.013531887           23 
 4659000    0.5091901   -7.8069146    841.71758  0.015055405  0.013527695           16 
 4660000   0.51315026   -7.7996867    841.84801  0.015054507  0.013523506           12 
 4661000   0.49118011   -7.8048868    840.38717  0.015025159  0.013519316           26 
 4662000   0.50744446   -7.8105939    841.31892  0.015038591  0.013515125           19 
 4663000   0.50554762   -7.8109575    841.77912   0.01504359  0.013510934           18 
 4664000   0.50345323   -7.7863565    840.34085  0.015014666  0.013506744           28 
 4665000   0.50663584   -7.7966037    841.16034  0.015026087  0.013502558           22 
 4666000   0.50192014   -7.8030214    841.70932  0.015032671  0.013498374           22 
 4667000   0.50206473    -7.804652    842.66929  0.015046591  0.013494193           16 
 4668000   0.49823325   -7.7942171    840.09376  0.014997389  0.013490012           17 
 4669000   0.49724211   -7.8186594    839.84254  0.014989693  0.013485826           23 
 4670000   0.52046042   -7.7980274    840.46255  0.014997547  0.013481647           18 
 4671000   0.51155449   -7.8147628    841.09031  0.015005536  0.013477468           25 
 4672000   0.51031085   -7.8075611    841.07928  0.015002128   0.01347329           30 
 4673000   0.50628108   -7.8036339    840.04061  0.014980395  0.013469113           26 
 4674000   0.51060417   -7.8116736    841.82847  0.015009066  0.013464939           15 
 4675000   0.49510664   -7.8244475    840.77208  0.014987025  0.013460767           21 
 4676000   0.51112843    -7.808175    841.65224  0.014999505  0.013456598           24 
 4677000    0.5104113   -7.8276003    839.81685  0.014963596  0.013452426            9 
 4678000   0.50768477   -7.8026273    841.04974   0.01498236  0.013448252           22 
 4679000   0.50359617   -7.8165356    841.15254  0.014980989  0.013444082           21 
 4680000   0.50298317    -7.807899    842.11214  0.014994874  0.013439913           20 
 4681000   0.50062219   -7.8108627    841.18016  0.014975079  0.013435748           22 
 4682000   0.50213999   -7.8105933    841.22757  0.014972725  0.013431581           32 
 4683000   0.49865277   -7.8236122    840.76258  0.014961253  0.013427417           54 
 4684000   0.50303324   -7.8118664     840.8127  0.014958951  0.013423257           21 
 4685000   0.49499131   -7.8383295    841.06951  0.014960326  0.013419097           17 
 4686000   0.50521253   -7.8138066    841.13968  0.014958381  0.013414936           24 
 4687000   0.49391847   -7.8007203    840.40825  0.014942185  0.013410777           25 
 4688000   0.50174114   -7.8286867    841.17542  0.014952635  0.013406623           15 
 4689000   0.49760695   -7.7984545    839.26466  0.014915488  0.013402469           38 
 4690000   0.50068277    -7.803191    840.42096  0.014932853  0.013398319           20 
 4691000   0.49621835   -7.8163069    839.53213   0.01491388  0.013394165           18 
 4692000   0.49175487   -7.8186057    841.18062   0.01493998  0.013390016           20 
 4693000    0.4946655   -7.8284277    840.30202  0.014921195  0.013385867           29 
 4694000   0.50416178   -7.8225392    840.22756  0.014916694  0.013381721           34 
 4695000   0.50316622   -7.8204308    840.64468  0.014920921  0.013377577           27 
 4696000   0.49983221   -7.8166845    842.25319  0.014946287  0.013373435           38 
 4697000      0.50901   -7.8303484    841.11222  0.014922862  0.013369297           25 
 4698000   0.49380685   -7.8091811    840.66701  0.014911789  0.013365161           33 
 4699000   0.50060456   -7.8169429    840.36075  0.014903184  0.013361016           18 
 4700000   0.50360103   -7.8170677    839.76504  0.014889451  0.013356878           21 
 4701000   0.49950494   -7.8267435    840.22995  0.014894525  0.013352739           30 
 4702000   0.50127853   -7.8228506    841.55837  0.014914901  0.013348606           21 
 4703000   0.49693801    -7.831516    840.70259  0.014896566  0.013344474           31 
 4704000   0.48278483     -7.81258    840.64641  0.014892404  0.013340344           32 
 4705000   0.49448226   -7.8093705    840.02284  0.014878194  0.013336217           29 
 4706000   0.49816531   -7.8368848    841.30042  0.014897656  0.013332089           29 
 4707000   0.50840413   -7.8211025    840.83918  0.014886325  0.013327964           27 
 4708000   0.50140104   -7.8212984    840.30063  0.014873631  0.013323843           24 
 4709000   0.48582419   -7.8242527    840.86275   0.01488042  0.013319722           25 
 4710000   0.50197201   -7.8331741    840.16416    0.0148649  0.013315605           24 
 4711000   0.49598957   -7.8234194    838.67902  0.014835474  0.013311485           22 
 4712000   0.48242111   -7.8266819     840.4063  0.014862873  0.013307365           57 
 4713000    0.4908607   -7.8193445    840.76018  0.014865977  0.013303246           25 
 4714000   0.48846438   -7.8178771    841.81522  0.014881474  0.013299133           33 
 4715000   0.49691727   -7.8221733    840.02698  0.014846712  0.013295023           37 
 4716000   0.50562304   -7.8271368     841.4806   0.01486925   0.01329091           29 
 4717000   0.50484284   -7.8309545    840.80233  0.014854115  0.013286797           18 
 4718000   0.49502428   -7.8315966    840.76673  0.014850338  0.013282685           23 
 4719000    0.4990239    -7.832139     841.1664  0.014854249  0.013278576           25 
 4720000    0.4898924    -7.834315    839.94199  0.014829484  0.013274467           61 
 4721000   0.50358945   -7.8186158    840.80335  0.014841547  0.013270362           25 
 4722000   0.49855216   -7.8179322    840.03659  0.014824873  0.013266257           35 
 4723000   0.49309521   -7.8121558    839.01595  0.014803726  0.013262154           27 
 4724000   0.50225566   -7.8071565    839.47479  0.014808686  0.013258051           17 
 4725000   0.50289447   -7.8250332    838.78163  0.014793327   0.01325395           37 
 4726000   0.49345728   -7.8225405     839.1496  0.014796685  0.013249853           39 
 4727000   0.48966325   -7.8343664    841.36641  0.014832635  0.013245753           53 
 4728000   0.49746649   -7.8209649    840.12156  0.014807557  0.013241659           29 
 4729000   0.49227524   -7.8368475    839.69671  0.014796939  0.013237565           17 
 4730000   0.48254591    -7.843979    839.79791  0.014795594  0.013233469           35 
 4731000    0.4959379   -7.8242078    839.86625   0.01479367  0.013229375           36 
 4732000   0.49763315   -7.8421565    840.39358  0.014799831  0.013225285           28 
 4733000   0.49723421   -7.8512633    840.85849  0.014804889  0.013221199           31 
 4734000   0.48589289   -7.8324353    840.10117  0.014788431  0.013217114           29 
 4735000   0.49261809   -7.8373239    840.17867  0.014786671  0.013213028           32 
 4736000   0.49473632   -7.8169129    839.22752  0.014766813  0.013208944           41 
 4737000   0.48919794   -7.8353567    840.28434  0.014782287   0.01320486           26 
 4738000   0.50269783   -7.8408564    839.82299  0.014771053  0.013200774           28 
 4739000   0.49004117     -7.84721    840.11784  0.014773121  0.013196688           27 
 4740000   0.49010731   -7.8626895    839.99818  0.014767901    0.0131926           25 
 4741000   0.48404978   -7.8463612    839.75907  0.014760583  0.013188516           33 
 4742000   0.49410756   -7.8319866    839.86759  0.014759377  0.013184431           24 
 4743000    0.4958773   -7.8417927    839.72541  0.014753767  0.013180349           40 
 4744000   0.50039225   -7.8268401    840.35148  0.014761655  0.013176276           31 
 4745000   0.50082244    -7.820277    840.82522  0.014766864  0.013172205           54 
 4746000   0.49131049   -7.8262107    838.97722  0.014731304  0.013168135           29 
 4747000   0.47483872   -7.8175441     840.5084   0.01475508  0.013164066           56 
 4748000   0.48330098   -7.8320053    839.99715     0.014743  0.013159999           24 
 4749000   0.50164376   -7.8346638     841.1663  0.014760411  0.013155932           29 
 4750000   0.49302822   -7.8487142    839.90904  0.014735246  0.013151869           32 
 4751000   0.49586612   -7.8309952    839.55779  0.014725984   0.01314781           24 
 4752000   0.49429625   -7.8375724    839.84975  0.014728005  0.013143751           41 
 4753000    0.4924732    -7.831275    839.02996  0.014710533  0.013139692           37 
 4754000   0.48919331   -7.8324244    840.37278  0.014730977  0.013135634           31 
 4755000   0.49300272   -7.8239341    839.81152  0.014718043  0.013131578           41 
 4756000   0.48657349    -7.841578    840.13299  0.014720581  0.013127517           25 
 4757000   0.48746523   -7.8666377    840.53888  0.014724597  0.013123461           49 
 4758000    0.4908663    -7.835695    839.24996  0.014698927  0.013119405           25 
 4759000   0.48676114   -7.8383409    839.94944  0.014708087  0.013115354           27 
 4760000   0.48658049   -7.8317839    839.77646  0.014701969  0.013111303           32 
 4761000   0.48987256   -7.8373987    839.32138  0.014690915  0.013107251           38 
 4762000   0.50435301   -7.8451853    839.95683   0.01469895  0.013103203           36 
 4763000   0.50372388   -7.8252714    840.15501  0.014699332  0.013099155           25 
 4764000   0.48560018   -7.8226565    840.33379  0.014699374  0.013095108           31 
 4765000   0.48525485   -7.8162877    839.84389  0.014687721  0.013091064           32 
 4766000   0.49802933   -7.8385163    839.69779  0.014682085  0.013087026           29 
 4767000   0.49294815   -7.8358658    839.46144  0.014674873  0.013082984           32 
 4768000   0.47419592   -7.8336176    839.42683   0.01467119  0.013078949           25 
 4769000   0.47992987   -7.8286877    840.37283  0.014684644  0.013074914           40 
 4770000   0.48723826   -7.8470516    840.15705  0.014677796  0.013070881           24 
 4771000   0.49206872   -7.8425807    841.07435  0.014690742  0.013066847           36 
 4772000    0.4841767   -7.8528065    840.64213  0.014680115  0.013062811           35 
 4773000    0.4972109   -7.8487012    840.39474  0.014672721  0.013058778           65 
 4774000   0.49421609   -7.8448782    839.02626  0.014645759  0.013054745           37 
 4775000   0.49001947    -7.848756    840.83827  0.014674315  0.013050715           25 
 4776000   0.49299115    -7.821838    839.10647  0.014641026  0.013046683           31 
 4777000   0.48640087   -7.8541456    840.03203  0.014654107  0.013042652           29 
 4778000   0.48537837   -7.8440688    838.92012  0.014631647  0.013038624           32 
 4779000   0.47372586   -7.8421563     840.6947  0.014659529  0.013034593           19 
 4780000    0.4796018   -7.8357933    839.02132  0.014627289  0.013030566           34 
 4781000   0.48993104   -7.8215305    838.09479   0.01460808  0.013026538           32 
 4782000   0.48326521   -7.8431337    839.96162  0.014637558  0.013022516           27 
 4783000   0.49212683   -7.8432095    840.16281  0.014638003  0.013018491           33 
 4784000   0.49953789   -7.8345177    839.30789  0.014620051  0.013014472           20 
 4785000   0.49178583   -7.8447537    839.37293  0.014618128  0.013010452           36 
 4786000   0.50193975   -7.8450374    839.31077  0.014613992  0.013006432           57 
 4787000   0.49256933   -7.8362267     838.2724  0.014592863  0.013002416           30 
 4788000   0.48718067   -7.8415338    840.10289  0.014621674  0.012998399           29 
 4789000   0.48600223   -7.8412295    840.54191   0.01462626  0.012994387           39 
 4790000   0.48557204   -7.8548526    839.05355  0.014597313  0.012990374           31 
 4791000   0.48881178   -7.8339057    838.53418  0.014585232  0.012986362           71 
 4792000   0.48557754   -7.8407924    839.21616  0.014594048  0.012982353           33 
 4793000   0.48052456    -7.843176    838.29857   0.01457505  0.012978343           38 
 4794000   0.49244167   -7.8487524    839.47227  0.014592412  0.012974333           38 
 4795000   0.48127193   -7.8620349    838.25031  0.014568132  0.012970325           37 
 4796000   0.47649458   -7.8516856    837.36212  0.014549662   0.01296632           61 
 4797000   0.48357138   -7.8515625    839.24281    0.0145793  0.012962316           32 
 4798000   0.49692676   -7.8590345    839.84789   0.01458677  0.012958317           55 
 4799000   0.48585278   -7.8537511     839.5184  0.014578009  0.012954315           34 
 4800000    0.4863969   -7.8528511    839.55856  0.014575669  0.012950317           49 
 4801000   0.49099368   -7.8350768    839.35443   0.01456909   0.01294632           22 
 4802000   0.48321611   -7.8465865    839.79512  0.014573704  0.012942326           26 
 4803000   0.47738836   -7.8458425    839.96056   0.01457354  0.012938334           25 
 4804000   0.48127205   -7.8524891    839.30621  0.014559156  0.012934341           65 
 4805000   0.48377089   -7.8510039    838.31508  0.014538937  0.012930348           37 
 4806000   0.48775682   -7.8482955     840.3975  0.014572019   0.01292636           61 
 4807000   0.47563324   -7.8571596    839.58749  0.014554946  0.012922372           29 
 4808000   0.47625524   -7.8371734    838.88111  0.014539675  0.012918386           37 
 4809000   0.47661719   -7.8453599    839.01557  0.014538982  0.012914401           56 
 4810000   0.48534053   -7.8421857    838.91203  0.014534165   0.01291042           26 
 4811000   0.48853426   -7.8490124    840.48807  0.014558444   0.01290644           29 
 4812000   0.48156878   -7.8511535    840.78522  0.014560564  0.012902465           20 
 4813000   0.48125373   -7.8326355    838.90623  0.014525006  0.012898489           28 
 4814000   0.48025802    -7.842751     838.5992  0.014516674  0.012894513           68 
 4815000   0.48827146   -7.8618714    839.47234   0.01452877  0.012890541           20 
 4816000   0.47875768   -7.8481459    838.84422  0.014514885  0.012886568           24 
 4817000   0.47587767   -7.8422325    839.74944  0.014527532  0.012882597           25 
 4818000   0.47533474    -7.833741    839.24948  0.014515869  0.012878631           33 
 4819000   0.48850426   -7.8537973    840.86097  0.014540724  0.012874662           27 
 4820000    0.4906707   -7.8427631    839.24442  0.014509758  0.012870696           29 
 4821000   0.47509928   -7.8514121     838.6225  0.014495998  0.012866728           41 
 4822000   0.49309565   -7.8475341    838.98482  0.014499254  0.012862764           57 
 4823000   0.48735698   -7.8691711    839.72017  0.014508953  0.012858798           27 
 4824000   0.47674172   -7.8600295    838.73178  0.014488871  0.012854835           21 
 4825000   0.47686683    -7.840033    838.91361  0.014489009  0.012850875           44 
 4826000   0.47452398   -7.8345726    839.12893  0.014489725  0.012846914           29 
 4827000    0.4832032   -7.8556064     840.3127  0.014507159  0.012842954           28 
 4828000   0.48795132   -7.8519542    838.05848  0.014465246  0.012838997           39 
 4829000   0.47529123   -7.8483253    839.77663    0.0144919  0.012835037           44 
 4830000   0.47873556   -7.8491135    838.64214  0.014469326  0.012831082           77 
 4831000   0.48472331   -7.8523205    840.09564  0.014491403  0.012827129           25 
 4832000   0.48128612   -7.8545073      839.258  0.014473958  0.012823178           29 
 4833000    0.4832696   -7.8592594    838.29243  0.014454315  0.012819223           39 
 4834000   0.47678357   -7.8655885    838.42725  0.014453649  0.012815269           37 
 4835000   0.47735653   -7.8413564    839.44036  0.014468121  0.012811322           18 
 4836000   0.46156742   -7.8613167    838.38864  0.014447006  0.012807373           31 
 4837000   0.48349662   -7.8650209    840.08301   0.01447321  0.012803428           29 
 4838000   0.47911972   -7.8574622    838.87114  0.014449344  0.012799488           21 
 4839000    0.4763712   -7.8528373    837.52013  0.014423092   0.01279555           37 
 4840000   0.47023363   -7.8467715    839.60031  0.014455928  0.012791607           28 
 4841000    0.4676902    -7.852228    838.28866  0.014430363  0.012787666           26 
 4842000   0.48031006   -7.8560862    838.92721  0.014438373  0.012783725           30 
 4843000   0.48208883   -7.8647343    838.44528  0.014427099  0.012779788           46 
 4844000   0.47419363    -7.864512     839.0797  0.014435035  0.012775856           67 
 4845000   0.48413824   -7.8423721    837.68802  0.014408119  0.012771919           24 
 4846000   0.47734235   -7.8546032    839.25154  0.014432032  0.012767983           26 
 4847000   0.47430257   -7.8731607    838.40828  0.014414557  0.012764049           41 
 4848000   0.48285317   -7.8640814    839.11028   0.01442365  0.012760118           56 
 4849000   0.47291984   -7.8689161    838.21023  0.014405208  0.012756185           25 
 4850000   0.48032021   -7.8633791    838.00947  0.014398788  0.012752255           49 
 4851000   0.47968176   -7.8745656    839.05754  0.014413824  0.012748326           54 
 4852000   0.47790345   -7.8518106    837.91537  0.014391237    0.0127444           68 
 4853000   0.47358877   -7.8494007    839.59919  0.014417185  0.012740477           75 
 4854000   0.47399744     -7.87258    838.89983  0.014402208  0.012736552           52 
 4855000   0.48592258   -7.8497559    837.59992   0.01437693  0.012732628           27 
 4856000   0.47052476   -7.8413626    838.50888  0.014389568  0.012728706           50 
 4857000   0.46860113   -7.8720145    838.63587  0.014388784  0.012724786           35 
 4858000   0.46936946    -7.849726    837.83226  0.014372037  0.012720864           49 
 4859000   0.48124374   -7.8721093    838.13998  0.014374357  0.012716945           40 
 4860000   0.46745724   -7.8638942    838.04733   0.01436981  0.012713028           75 
 4861000   0.47655251   -7.8549192    839.13478  0.014385496  0.012709111          101 
 4862000    0.4814434    -7.862625    839.00299  0.014380279    0.0127052           23 
 4863000   0.46640258   -7.8576578    836.96614  0.014342418  0.012701287           44 
 4864000   0.46962676   -7.8687511    837.81197  0.014353961  0.012697378           49 
 4865000   0.47830917   -7.8631184    837.42254   0.01434434  0.012693469           31 
 4866000   0.47197642   -7.8700177    838.05306   0.01435219  0.012689561           36 
 4867000   0.47315208    -7.874502    838.64938  0.014359451  0.012685657           46 
 4868000   0.47284123   -7.8644684    838.24564   0.01434959  0.012681755           30 
 4869000     0.476009   -7.8605471    838.91049  0.014358022  0.012677854           41 
 4870000   0.47937795   -7.8734062    837.86557  0.014337193  0.012673954           38 
 4871000   0.46880629   -7.8591069     838.1162  0.014338538  0.012670055           37 
 4872000   0.47620028   -7.8652243     838.0894  0.014335136  0.012666157           55 
 4873000    0.4758274   -7.8468981    838.75556  0.014343586   0.01266226           63 
 4874000   0.48276378   -7.8672392    838.38352  0.014334283  0.012658366           31 
 4875000   0.47218861   -7.8486302    837.98215  0.014324481  0.012654473           70 
 4876000   0.47448093   -7.8599387    839.18815  0.014342155  0.012650583           85 
 4877000   0.46760344   -7.8607004    838.83848  0.014333239  0.012646691           57 
 4878000   0.46917773   -7.8766844    839.46192  0.014340951    0.0126428           47 
 4879000   0.47956806   -7.8607261    838.43296  0.014320437   0.01263891           39 
 4880000   0.48266211   -7.8696761    839.04521  0.014327958   0.01263502           65 
 4881000   0.47171963   -7.8503883    838.65614   0.01431838  0.012631133           91 
 4882000   0.48680512   -7.8763266    837.09767  0.014288845   0.01262725           47 
 4883000   0.47439328   -7.8707019    838.82629  0.014315419  0.012623365           70 
 4884000   0.47458978   -7.8728011     838.2153  0.014302063  0.012619483           54 
 4885000     0.467477   -7.8868028    838.30842  0.014300724  0.012615602           50 
 4886000    0.4710296   -7.8641568    838.28274  0.014297359  0.012611721           30 
 4887000   0.47055053   -7.8762882    838.38647  0.014296202  0.012607845           53 
 4888000   0.48309796   -7.8735914    837.75273  0.014282473  0.012603968           52 
 4889000   0.47052683   -7.8651728    837.93213  0.014282609  0.012600092           48 
 4890000    0.4682686   -7.8715544    838.43243  0.014288215  0.012596213           51 
 4891000   0.48048731   -7.8597775    837.66483  0.014272215  0.012592338           72 
 4892000   0.47545486   -7.8575743    837.83788  0.014272245  0.012588465           36 
 4893000   0.47071063   -7.8538839    838.49448  0.014280511  0.012584596           31 
 4894000   0.47417341   -7.8709637    838.90078  0.014284511  0.012580725           23 
 4895000   0.46329091    -7.865554    837.34966  0.014255187  0.012576857           48 
 4896000   0.46444828   -7.8741823     838.4415  0.014270859  0.012572993           46 
 4897000   0.46433617   -7.8615531    838.11313  0.014262357  0.012569128           59 
 4898000   0.47040676   -7.8715083    838.28484  0.014262366  0.012565264           61 
 4899000   0.46105723   -7.8690006    838.97029  0.014271115  0.012561404           26 
 4900000   0.47159262   -7.8724372    839.48793  0.014277006  0.012557544           24 
 4901000   0.46538774   -7.8613664    839.48242  0.014273999  0.012553685           43 
 4902000   0.47121194   -7.8758811    837.76054  0.014241815  0.012549829           47 
 4903000   0.45789307   -7.8599841    838.33052  0.014248598  0.012545973           42 
 4904000   0.47577871   -7.8633894    839.23704  0.014261097  0.012542119           44 
 4905000    0.4715871   -7.8919886    838.75912   0.01425007  0.012538265           42 
 4906000   0.46710918   -7.8714557    838.59004  0.014244293  0.012534411           54 
 4907000   0.46009286   -7.8785722     839.6275  0.014259009   0.01253056          100 
 4908000   0.46205968   -7.8725544     837.3648  0.014217685  0.012526706          105 
 4909000    0.4591157   -7.8787245    838.10388  0.014227336  0.012522855           76 
 4910000   0.45935275    -7.897583    838.17707   0.01422568  0.012519009           30 
 4911000   0.47296084   -7.8678474    838.46135  0.014227607  0.012515163          125 
 4912000   0.47410604   -7.8676979    837.31887  0.014205328  0.012511319           97 
 4913000   0.46703752   -7.8817761    839.13801  0.014233293  0.012507478           38 
 4914000   0.46854277   -7.8846747    838.37148  0.014217397   0.01250364           59 
 4915000   0.47047648   -7.8812405    837.17332   0.01419419  0.012499801           81 
 4916000   0.47228152   -7.8744183    838.29878  0.014210381  0.012495966           93 
 4917000   0.45880746   -7.8802156    837.10394  0.014187241  0.012492131           41 
 4918000   0.45955936   -7.8852901    838.01495  0.014199793  0.012488295           29 
 4919000    0.4829664   -7.8635385    837.10671  0.014181519   0.01248446           54 
 4920000   0.46503709   -7.8722366     838.6722  0.014205152  0.012480631           57 
 4921000     0.473183   -7.8709256    839.17462  0.014210774  0.012476803           34 
 4922000   0.47559706   -7.8807342    839.08314  0.014206338  0.012472975           61 
 4923000   0.45568138   -7.8850937    838.78378  0.014198385  0.012469149           40 
 4924000   0.45979836   -7.8727096    837.82699  0.014179309  0.012465322           45 
 4925000   0.45552811   -7.8745078    837.75515  0.014175214  0.012461494           59 
 4926000   0.46433723   -7.8750901    837.26229  0.014163999  0.012457668           54 
 4927000   0.46781917   -7.8812664    837.66618  0.014167955  0.012453846           45 
 4928000   0.45735285   -7.8659322     838.1156   0.01417268  0.012450021           35 
 4929000   0.46109908   -7.8864541    838.38997  0.014174443  0.012446205           45 
 4930000   0.45821066   -7.8872442    838.33121  0.014170575  0.012442389          112 
 4931000   0.45814472   -7.8867514    837.68176  0.014156725  0.012438571           43 
 4932000   0.45610085   -7.8685338    837.53294  0.014151341  0.012434757           68 
 4933000   0.45801392   -7.8649936    838.42346  0.014163515  0.012430944           31 
 4934000   0.45297967    -7.874955    838.64782  0.014164434  0.012427131           54 
 4935000   0.46444777   -7.8731107    838.19017  0.014153836  0.012423315           55 
 4936000   0.47320624   -7.8819474    838.01955  0.014148088  0.012419505           46 
 4937000   0.47195454   -7.8758756    837.60302  0.014138192  0.012415695           66 
 4938000   0.46516074   -7.8823222    837.71281  0.014137181  0.012411887           60 
 4939000   0.46040863   -7.8822997    838.60123  0.014149309  0.012408077           69 
 4940000   0.46800281   -7.8783453    838.70346  0.014148169  0.012404272           39 
 4941000   0.45705128   -7.8852302    838.38964  0.014140013  0.012400468           28 
 4942000   0.46721717   -7.8792886    837.76086  0.014126549  0.012396661           42 
 4943000   0.46183678   -7.8868336    839.03551   0.01414518  0.012392858           47 
 4944000   0.45572756    -7.890234    837.99016  0.014124699  0.012389056           63 
 4945000     0.452221   -7.8872416    837.62591  0.014115705  0.012385255           35 
 4946000   0.45499092    -7.895486    838.87436  0.014133885  0.012381454           53 
 4947000   0.46190058   -7.8869571    837.39375  0.014106087  0.012377657          109 
 4948000   0.46556448    -7.883442    837.96131  0.014112795  0.012373863           93 
 4949000   0.46253341   -7.8948194    836.99421  0.014093659  0.012370066           86 
 4950000   0.45095625    -7.883457    837.47957  0.014098983  0.012366269           31 
 4951000   0.45106521   -7.8947946    837.27151  0.014092633  0.012362474           35 
 4952000   0.44453658   -7.8896669    838.34776  0.014107898  0.012358682           37 
 4953000   0.46179941   -7.8862785    838.34996  0.014105087  0.012354893           40 
 4954000   0.46579226   -7.8918391    837.50691  0.014088059  0.012351102           95 
 4955000   0.46015289   -7.8959082    837.44133  0.014084113  0.012347312           57 
 4956000   0.45796086   -7.8738951    838.00767  0.014090793  0.012343527           95 
 4957000   0.46661785   -7.8940523     837.7917   0.01408432  0.012339742           98 
 4958000   0.46166894   -7.8846561    837.36963  0.014074385  0.012335959           59 
 4959000   0.46422437   -7.8899596    836.63414  0.014059188  0.012332175           37 
 4960000   0.47183548   -7.8874833    837.09703   0.01406413  0.012328395           59 
 4961000   0.46131219   -7.8694795     837.9202  0.014075123  0.012324614           61 
 4962000   0.46030707   -7.8876638    836.59398  0.014050013  0.012320834           33 
 4963000   0.45894397   -7.8870689    837.65515     0.014065  0.012317056           48 
 4964000   0.45955108   -7.8754287     836.8569  0.014048766  0.012313278           57 
 4965000   0.45313271   -7.8743876     837.5089   0.01405688  0.012309505           78 
 4966000   0.46111672   -7.8895496    837.37722   0.01405184  0.012305731          106 
 4967000   0.45066899   -7.8849511    836.65869  0.014036955  0.012301956           44 
 4968000   0.45520736   -7.8930565    836.44589   0.01403056  0.012298182           56 
 4969000   0.45514342    -7.871292    837.58456  0.014046833  0.012294414           26 
 4970000   0.46474748    -7.877443    838.03787  0.014051607  0.012290646           94 
 4971000   0.45287466    -7.884317     837.8219   0.01404516  0.012286877           97 
 4972000   0.46393259   -7.8935336    837.20375  0.014031975   0.01228311           53 
 4973000   0.45559671   -7.8755562    837.14171  0.014028114  0.012279346           45 
 4974000   0.45519577   -7.8989482    835.83936  0.014003474  0.012275581          119 
 4975000   0.45340558   -7.8925924    837.68276  0.014031537  0.012271817           41 
 4976000   0.46465023   -7.8824892    836.21398  0.014004119  0.012268056           70 
 4977000   0.45379394   -7.9060586    837.87058  0.014029043  0.012264297           94 
 4978000   0.45824879   -7.8937976    837.18164  0.014014692  0.012260541           48 
 4979000   0.44644806   -7.8775146     836.7922  0.014005359  0.012256786           71 
 4980000   0.45163466   -7.9007969    837.60009  0.014016066   0.01225303           47 
 4981000   0.44599652   -7.9011192    836.40381  0.013993238  0.012249274           91 
 4982000   0.45384842   -7.8974478    837.78075  0.014013461  0.012245523           75 
 4983000   0.45474533   -7.8968394    838.48199  0.014022376  0.012241769          112 
 4984000    0.4548533   -7.8936887    836.71229  0.013989973  0.012238019           40 
 4985000   0.44857161   -7.8904058    837.22047  0.013995661  0.012234273          111 
 4986000   0.45357029   -7.8893354     837.4081   0.01399599  0.012230529           36 
 4987000   0.45864348   -7.8857579    836.38793  0.013976137  0.012226781           72 
 4988000   0.46128985   -7.8745742    837.77544  0.013996516  0.012223038           41 
 4989000   0.46786693   -7.9142277    837.49345     0.013989  0.012219297           47 
 4990000   0.46061313   -7.8983248    837.11329  0.013979848  0.012215554           86 
 4991000   0.45675641   -7.8939783    838.04895  0.013992669  0.012211813           60 
 4992000    0.4438281   -7.8974027    836.35018  0.013961508  0.012208073           72 
 4993000    0.4572744   -7.9016198    837.51437  0.013978142  0.012204334           69 
 4994000   0.45875991   -7.8884686     836.2621  0.013954447  0.012200596           75 
 4995000    0.4588384   -7.9060863    838.08358  0.013982042  0.012196858           49 
 4996000   0.45916498   -7.8979371    837.41321  0.013968061  0.012193124           75 
 4997000   0.44944778    -7.893222    835.86766  0.013939491  0.012189393           55 
 4998000   0.45279573   -7.9083418    837.95326  0.013971476  0.012185661           57 
 4999000   0.45284918   -7.8811394    836.73059    0.0139483  0.012181932           35 
 5000000   0.45659862    -7.899012    837.51893  0.013958649  0.012178203           36 
 5001000   0.45380038   -7.8958684    837.09847  0.013948851  0.012174474           32 
 5002000   0.45440365   -7.8893394    836.71837   0.01393973  0.012170745           84 
 5003000   0.45262135    -7.905623      836.955  0.013940885  0.012167017           62 
 5004000   0.44836176    -7.897813    837.05136  0.013939704  0.012163294           29 
 5005000   0.44560804   -7.9084347    836.51575  0.013928001  0.012159569           64 
 5006000   0.45058144   -7.8913018    836.39323  0.013923179  0.012155847          101 
 5007000   0.45543281   -7.8875084    836.74335  0.013926226  0.012152125           73 
 5008000   0.45070058   -7.9081905    836.86251  0.013925428  0.012148405           44 
 5009000    0.4579448   -7.9134456    837.22928   0.01392875  0.012144688           87 
 5010000   0.45424513   -7.9119246    836.61316  0.013915721  0.012140971          109 
 5011000   0.44800036   -7.9025902    836.52086  0.013911409  0.012137257           55 
 5012000   0.44883707   -7.9019166     835.9972  0.013899927  0.012133546           66 
Loop time of 11122.5 on 48 procs for 5000000 steps with 4000 atoms

Performance: 77680.218 tau/day, 449.538 timesteps/s
99.4% CPU use with 48 MPI tasks x no OpenMP threads

MPI task timing breakdown:
Section |  min time  |  avg time  |  max time  |%varavg| %total
---------------------------------------------------------------
Pair    | 742.6      | 766.08     | 791.41     |  42.2 |  6.89
Neigh   | 69.784     | 71.474     | 73.363     |   9.1 |  0.64
Comm    | 640.13     | 675.32     | 698.08     |  58.0 |  6.07
Output  | 13.403     | 13.407     | 13.483     |   0.3 |  0.12
Modify  | 9453.9     | 9478.1     | 9506.1     |  14.3 | 85.22
Other   |            | 118.1      |            |       |  1.06

Nlocal:        83.3333 ave          95 max          76 min
Histogram: 3 7 1 14 10 7 5 0 0 1
Nghost:        1851.35 ave        1877 max        1829 min
Histogram: 3 3 7 9 7 6 3 4 3 3
Neighs:        11455.6 ave       12966 max        9915 min
Histogram: 2 1 9 2 10 9 7 3 2 3
FullNghs:      22912.2 ave       26299 max       20690 min
Histogram: 5 4 5 10 9 9 4 1 0 1

Total # of neighbors = 1099788
Ave neighs/atom = 274.94700
Neighbor list builds = 269302
Dangerous builds = 0

#clear
#
#next RN
#
#jump SELF
Total wall time: 3:05:25
