
units lj                  # Use reduced LJ style units
atom_style atomic         # Uncharged point particles
atom_modify map hash      # Needed for indexing of clusters etc
                          # Used to be able to find where atoms are in relation to each other.

lattice fcc 1.0 spacing 1 1 1
Lattice spacing in x,y,z = 1.5874011 1.5874011 1.5874011
region box block 0 10 0 10 0 10 units lattice
create_box 2 box
Created orthogonal box = (0.0000000 0.0000000 0.0000000) to (15.874011 15.874011 15.874011)
  3 by 4 by 4 MPI processor grid
create_atoms 1 box
Created 4000 atoms
  using lattice units in orthogonal box = (0.0000000 0.0000000 0.0000000) to (15.874011 15.874011 15.874011)
  create_atoms CPU = 0.002 seconds
set type 1 type/fraction 2 0.58 78393
Setting atom values ...
  2338 settings made for type/fraction
mass 1 1.0
mass 2 1.0
pair_style lj/cut  3.5
pair_modify tail  yes
pair_coeff 1  1  1.0  1.0   # Intearaction between 1 and 1 set with epsilon = 1 and sigma = 1
pair_coeff 1  2  1.5  0.8
pair_coeff 2  2  0.5  0.88

write_data data.0
System init for write_data ...
Neighbor list info ...
  update every 1 steps, delay 10 steps, check yes
  max neighbors/atom: 2000, page size: 100000
  master list distance cutoff = 3.8
  ghost atom cutoff = 3.8
  binsize = 1.9, bins = 9 9 9
  1 neighbor lists, perpetual/occasional/extra = 1 0 0
  (1) pair lj/cut, perpetual
      attributes: half, newton on
      pair build: half/bin/atomonly/newton
      stencil: half/bin/3d
      bin: standard
WARNING: Not all mixed pair coeffs generated from mixing. Use write_data with 'pair ij' option to store all pair coeffs. (../write_data.cpp:312)


#############################
#   M E L T   S Y S T E M   #
#############################

velocity all create 2.4 1741580 mom yes dist gaussian # Assign velocities
                                                    # Temperature 2.4, random number seed, zero linear momentum
                                                                                # Gaussian distribution

timestep 0.002   # simulation timestep
thermo 1000       # output thermodynamic data every 1000 steps bf 100

# Define a fix  in this case with index 1 applied to all
# particles in the simulation. This fix is for simulations
# in the anisotropic NPT ensemble. Note that we use the MTK
# correction.
fix 1 all npt temp 2.4 2.4 0.1 iso 5.68 5.68 0.5 mtk yes tchain 5 pchain 5 # Use NPT ensemble
                                                                         # Set temperature and pressure and damping
                                                                         # Numbers of thermostats in chain and in barostat
run 10000          # run for 10000 steps
Per MPI rank memory allocation (min/avg/max) = 3.642 | 3.644 | 3.648 Mbytes
Step Temp E_pair E_mol TotEng Press Volume 
       0          2.4   -4.8268882            0   -1.2277882   -4.1002737         4000 
    1000    2.4254037   -4.5830019            0  -0.94580589    5.8974224    3588.6418 
    2000      2.38037   -4.6236328            0   -1.0539705    5.5994949    3589.7969 
    3000    2.3535588    -4.614912            0   -1.0854563    5.7331245     3597.278 
    4000    2.4401472   -4.5565797            0  -0.89727383    5.8421112    3619.3607 
    5000    2.4163867   -4.5834556            0  -0.95978171    5.6304462    3622.0321 
    6000    2.4146919    -4.539261            0  -0.91812861    5.8907526    3620.6503 
    7000    2.3508391   -4.4972645            0  -0.97188735    6.2067268    3611.1083 
    8000    2.3892779   -4.5877317            0   -1.0047108    5.8422656    3595.0301 
    9000    2.4244448    -4.554796            0  -0.91903801    5.6260991     3636.119 
   10000    2.3502674   -4.5343162            0   -1.0097964    5.8679638    3615.0591 
Loop time of 2.71664 on 48 procs for 10000 steps with 4000 atoms

Performance: 636080.921 tau/day, 3681.024 timesteps/s
99.6% CPU use with 48 MPI tasks x no OpenMP threads

MPI task timing breakdown:
Section |  min time  |  avg time  |  max time  |%varavg| %total
---------------------------------------------------------------
Pair    | 1.2062     | 1.2906     | 1.4106     |   3.1 | 47.51
Neigh   | 0.21588    | 0.22612    | 0.2433     |   0.9 |  8.32
Comm    | 0.79514    | 0.91743    | 1.0205     |   4.5 | 33.77
Output  | 0.00025677 | 0.00026729 | 0.00032892 |   0.0 |  0.01
Modify  | 0.24746    | 0.26624    | 0.31243    |   3.5 |  9.80
Other   |            | 0.01594    |            |       |  0.59

Nlocal:        83.3333 ave          93 max          74 min
Histogram: 2 1 4 12 7 5 9 5 2 1
Nghost:        1757.35 ave        1783 max        1728 min
Histogram: 2 1 4 7 8 7 6 7 2 4
Neighs:        10565.3 ave       11979 max        8849 min
Histogram: 1 1 3 7 8 9 6 8 3 2

Total # of neighbors = 507133
Ave neighs/atom = 126.78325
Neighbor list builds = 904
Dangerous builds = 221

# Equilibrate just above the melting temperature to avoid step fn in T

fix 1 all npt temp 1.25 1.25 0.1 iso 5.68 5.68 0.5 mtk yes tchain 5 pchain 5
run 2000
Per MPI rank memory allocation (min/avg/max) = 3.644 | 3.646 | 3.650 Mbytes
Step Temp E_pair E_mol TotEng Press Volume 
   10000    2.3502674   -4.5343162            0   -1.0097964    5.8679638    3615.0591 
   11000    1.2479984   -6.6472472            0   -4.7757177    5.3005527    2795.6416 
   12000     1.260561   -6.7528333            0   -4.8624645    5.5929388    2761.4835 
Loop time of 0.663863 on 48 procs for 2000 steps with 4000 atoms

Performance: 520589.006 tau/day, 3012.668 timesteps/s
99.6% CPU use with 48 MPI tasks x no OpenMP threads

MPI task timing breakdown:
Section |  min time  |  avg time  |  max time  |%varavg| %total
---------------------------------------------------------------
Pair    | 0.30505    | 0.33035    | 0.35799    |   2.3 | 49.76
Neigh   | 0.042672   | 0.044829   | 0.048175   |   0.6 |  6.75
Comm    | 0.20762    | 0.23896    | 0.26746    |   3.1 | 35.99
Output  | 5.3143e-05 | 5.5025e-05 | 6.9042e-05 |   0.0 |  0.01
Modify  | 0.040989   | 0.04471    | 0.048547   |   1.0 |  6.73
Other   |            | 0.004959   |            |       |  0.75

Nlocal:        83.3333 ave          94 max          73 min
Histogram: 1 1 2 11 13 8 6 2 2 2
Nghost:        2106.33 ave        2128 max        2084 min
Histogram: 2 0 5 5 12 9 7 5 2 1
Neighs:        13835.5 ave       16444 max       11891 min
Histogram: 1 4 8 9 13 2 7 1 2 1

Total # of neighbors = 664104
Ave neighs/atom = 166.02600
Neighbor list builds = 144
Dangerous builds = 8

#############################
# L I N E A R  Q U E N C H  #
#############################

# Define solid atoms. This closely follows ten Wolde  Ruiz-Montero and Frenkel  Faraday Discuss  1996  104  93-110
# Compute components of the per-atom q6 vector
compute q6 all orientorder/atom degrees 1 6 components 6 nnn NULL cutoff 1.3 # compute the Q6 parameter.
                                                                             # Use all neighbours within 1.3 unit cell.

# get number of connections
compute coord_number all coord/atom orientorder q6 0.5

# An atom is solid if it has 8 or more connections (of a possible 14)
variable is_solid atom c_coord_number>=8
group solid dynamic all var is_solid    # Must be dynamic to update
dynamic group solid defined

# do clustering
compute cluster solid cluster/atom 1.3 # Create a cluster where all atoms within are solid and max 1.3 units from another member

# define chunks one chunk per cluster
compute clus_chunks solid chunk/atom c_cluster nchunk every compress yes  # Says which atoms are in which chunk

# count the size of each chunk
compute size_chunks solid property/chunk clus_chunks count


# Find the maximum entry in the vector of chunk sizes
variable max_n equal max(c_size_chunks)


# Thermo style which includes this variable
# thermo_style custom step temp pe vol v_max_n

thermo ${N}  # Print the thermo information every 100 steps
thermo 1000  

# Reset the npt fix at a lower temperature (below freezing)
fix 1  all npt temp  ${temp} ${temp}  0.1  iso  5.68  5.68  0.5  mtk yes tchain  5  pchain  5
fix 1  all npt temp  0.45 ${temp}  0.1  iso  5.68  5.68  0.5  mtk yes tchain  5  pchain  5
fix 1  all npt temp  0.45 0.45  0.1  iso  5.68  5.68  0.5  mtk yes tchain  5  pchain  5

dump dmp2 all dcd ${N} traj.dcd
dump dmp2 all dcd 1000 traj.dcd


compute msd all msd com yes
variable twopoint equal c_msd[4]/6/(step*dt+1.0e-6)
fix 9 all vector 10 c_msd[4]
variable fit equal slope(f_9)/6/(10*dt)
thermo_style custom step temp pe c_msd[4] v_twopoint v_fit v_max_n

fix 1 all npt temp 1.25 ${temp} 0.1 iso 5.68 5.68 0.5 mtk yes tchain 5 pchain 5
fix 1 all npt temp 1.25 0.45 0.1 iso 5.68 5.68 0.5 mtk yes tchain 5 pchain 5
run 500000 # 5000000  # Run for this many steps
Neighbor list info ...
  update every 1 steps, delay 10 steps, check yes
  max neighbors/atom: 2000, page size: 100000
  master list distance cutoff = 3.8
  ghost atom cutoff = 3.8
  binsize = 1.9, bins = 8 8 8
  4 neighbor lists, perpetual/occasional/extra = 1 3 0
  (1) pair lj/cut, perpetual
      attributes: half, newton on
      pair build: half/bin/atomonly/newton
      stencil: half/bin/3d
      bin: standard
  (2) compute orientorder/atom, occasional
      attributes: full, newton on
      pair build: full/bin/atomonly
      stencil: full/bin/3d
      bin: standard
  (3) compute coord/atom, occasional
      attributes: full, newton on
      pair build: full/bin/atomonly
      stencil: full/bin/3d
      bin: standard
  (4) compute cluster/atom, occasional
      attributes: full, newton on
      pair build: full/bin/atomonly
      stencil: full/bin/3d
      bin: standard
Per MPI rank memory allocation (min/avg/max) = 9.844 | 9.852 | 9.858 Mbytes
Step Temp PotEng c_msd[4] v_twopoint v_fit v_max_n 
   12000     1.260561   -6.7528333 1.7790786e-30 1.2354712e-32 8.3333333e+20            1 
   13000    1.2366748   -6.7902667   0.47567535 0.0030492009  0.039093958            3 
   14000    1.2489473   -6.7867715   0.90145254 0.0053657887   0.03688482            2 
   15000    1.2561166   -6.7602146    1.2965393 0.0072029958    0.0355299            2 
   16000    1.2453075    -6.773289    1.7072494 0.0088919238  0.034664292            1 
   17000    1.2560029   -6.7255733    2.1149674  0.010367487  0.034159243            2 
   18000    1.2463646   -6.7637952    2.5770532  0.011930802  0.034609067            2 
   19000    1.2258754   -6.7752845    2.9689651  0.013021777  0.034736324            2 
   20000    1.2345456   -6.7848875    3.4162677  0.014234448  0.034887241            2 
   21000    1.2521606   -6.7845594    3.8257146  0.015181407  0.035031428            3 
   22000    1.2283397   -6.8098507     4.257963  0.016128647  0.035106272            2 
   23000    1.2439973   -6.7576583    4.7237828  0.017115155  0.035191467            2 
   24000    1.2801796   -6.8166063    5.0865513  0.017661636  0.035269241            1 
   25000     1.198883   -6.8337019    5.5218124  0.018406041  0.035220855            3 
   26000    1.2346201   -6.8236121    5.9114038  0.018946807  0.035132614            4 
   27000    1.2225557   -6.8367917    6.2401927  0.019259854  0.035037537            1 
   28000    1.2379275   -6.8205259     6.645461  0.019778157  0.034833233            3 
   29000    1.2199019   -6.8104599    7.0217589  0.020177468  0.034681181            1 
   30000    1.2224967   -6.8407423     7.438952  0.020663755  0.034514821            6 
   31000    1.2130341   -6.8677472    7.8426486  0.021082388  0.034389878            2 
   32000    1.2075308   -6.8440453    8.2104923   0.02138149   0.03427647            3 
   33000     1.246499   -6.8609112    8.5239038  0.021525009  0.034096325            2 
   34000    1.2083859    -6.868446    8.8582067  0.021711291  0.033872387            2 
   35000    1.2113405   -6.8339505    9.2056507  0.021918216  0.033658571            3 
   36000    1.2052441   -6.8290181    9.5876711  0.022193683  0.033430075            3 
   37000    1.2210167   -6.8452912    9.9663015  0.022446625  0.033239485            2 
   38000    1.2271194   -6.8147913    10.317849  0.022626861  0.033090452            3 
   39000    1.1930466   -6.9115195    10.617798  0.022687603  0.032928655            3 
   40000    1.2152574   -6.8339519    11.119327  0.023165265    0.0327878            2 
   41000    1.2002153   -6.9149568    11.390148  0.023150706   0.03265075            2 
   42000    1.2154041   -6.8762909    11.804317  0.023421265   0.03254447            2 
   43000    1.2119633   -6.9450012    12.146996   0.02354069  0.032439349            2 
   44000    1.2111885   -6.9078172    12.569263  0.023805422  0.032349412            4 
   45000    1.1707369   -6.8631005    13.001194  0.024076284  0.032281213            3 
   46000    1.1890001   -6.8566073      13.2378  0.023981522  0.032222333            6 
   47000    1.1957528   -6.8993294    13.467691  0.023878885   0.03212438            4 
   48000    1.1932075   -6.8959253    13.849969  0.024045084  0.032004735            2 
   49000    1.2204061   -6.9095169    14.225193  0.024192506  0.031908158            2 
   50000    1.2026716   -6.8937048    14.612622   0.02435437  0.031831795            3 
   51000     1.181419    -6.955723    14.918964  0.024377392  0.031735618            4 
   52000    1.1990817    -6.950096    15.321462  0.024553624  0.031653553            2 
   53000    1.2062969   -6.9415341    15.751693  0.024766812  0.031581508            5 
   54000    1.1958144   -6.9245099    16.035443  0.024746054  0.031501229            3 
   55000    1.1612916   -6.9037914    16.338191  0.024754835  0.031416231            2 
   56000    1.1644842   -6.9441761    16.658048  0.024788762   0.03132179            3 
   57000    1.1591396   -6.9435901    17.008213  0.024865809  0.031241916            3 
   58000    1.1719907   -6.9270907    17.516317  0.025167122   0.03118824            2 
   59000    1.1905891   -6.9129045     17.72742  0.025038728    0.0311382            1 
   60000    1.1711247   -6.9630375    18.140412  0.025195016  0.031075075            3 
   61000    1.1813895   -6.9568694     18.34767  0.025065123   0.03101213            3 
   62000    1.1754879    -6.871449    18.611541  0.025015512  0.030924635            3 
   63000    1.1587546   -6.9336979    18.909296  0.025012296  0.030815329            2 
   64000    1.1776726   -7.0036973    19.082165  0.024846568  0.030700715            4 
   65000    1.1842399   -6.9537572     19.37349  0.024837807   0.03057509            9 
   66000    1.1867506   -7.0077137    19.778164   0.02497243  0.030459413            5 
   67000    1.1431635   -6.9594974     20.06781  0.024959963  0.030354883            4 
   68000    1.1280502   -6.9272148    20.501579  0.025124484  0.030266675            1 
   69000    1.1841937   -6.9505556    20.740982  0.025049495  0.030175714            5 
   70000    1.1731041   -6.9746819    21.093317  0.025111091   0.03008663            3 
   71000    1.1328119   -6.9748705    21.387569   0.02510278  0.029998633            2 
   72000    1.1666263   -7.0301718    21.659194  0.025068512  0.029914715            4 
   73000    1.1656809   -7.0234265    21.925343   0.02502893  0.029824381            2 
   74000    1.1521242   -6.9662227     22.22359  0.025026565  0.029742676            3 
   75000    1.1287854   -7.0152426    22.458493  0.024953881  0.029639897            3 
   76000    1.1382123   -7.0138467    22.709586  0.024900862  0.029542502            3 
   77000    1.1754884   -7.0280715    23.068626  0.024966046  0.029448884            2 
   78000    1.1530995   -7.0781669    23.286674  0.024878925  0.029351772            5 
   79000    1.1448243   -7.0316091    23.568148  0.024860915  0.029254498            4 
   80000    1.1025581   -7.0202022     23.78558  0.024776646  0.029155344            2 
   81000    1.1724072   -7.0621715    23.942385  0.024632083  0.029046684            3 
   82000    1.1325661   -7.0283776    24.313235  0.024708572  0.028939711            7 
   83000    1.1170333    -7.068157    24.550383  0.024648979  0.028834978            3 
   84000    1.1311931   -7.0813239     24.73043  0.024534157  0.028727901            3 
   85000    1.1323537   -7.0439336    25.125491  0.024632834  0.028622998            1 
   86000    1.1361578   -7.0948298     25.45463  0.024665339  0.028532063            3 
   87000    1.1535899   -7.0852595    25.848717  0.024759308  0.028446169            2 
   88000     1.093974   -7.0645155    26.106159  0.024721741  0.028366519            3 
   89000    1.1238364   -7.0537112    26.558097  0.024867132  0.028288946            1 
   90000    1.1159121   -7.0962801     26.72967  0.024749694  0.028216046            3 
   91000    1.1268123   -7.0886135     27.03402  0.024756428  0.028143943            3 
   92000    1.1419621   -7.1369357    27.424242  0.024840798  0.028078654            4 
   93000    1.1045088   -7.1402652    27.753948  0.024869129  0.028024956            6 
   94000    1.1136402   -7.1009113    27.953984  0.024781901  0.027964635            3 
   95000     1.105789   -7.1446434    28.262449  0.024791621  0.027905899            5 
   96000    1.1294776   -7.0939925    28.751698  0.024958071  0.027851939            1 
   97000     1.102758   -7.1307326    28.952619  0.024873384   0.02780373            2 
   98000    1.0945105   -7.1202219    29.284329   0.02490164  0.027754537            4 
   99000    1.1169911   -7.1413475    29.387612  0.024737047  0.027702937            2 
  100000    1.0969987   -7.1426663    29.604071  0.024670059  0.027639028            6 
  101000    1.1267116   -7.1669894    29.685174  0.024492718   0.02756718            3 
  102000     1.088227   -7.1256711    29.897901   0.02442639  0.027490103            3 
  103000    1.1140472   -7.1780135      30.2319  0.024459466   0.02741399            4 
  104000    1.0990829   -7.1582933    30.488416  0.024429821  0.027344626            4 
  105000    1.1058816   -7.1757756    30.701186   0.02436602   0.02727302            2 
  106000    1.0807075   -7.2196359    30.869423  0.024268414  0.027201539            3 
  107000     1.088769    -7.156193    31.361684  0.024424988  0.027135669            2 
  108000    1.0951188   -7.1791442     31.60894  0.024389614  0.027074588            2 
  109000    1.0779548   -7.1677476     31.75216  0.024275351  0.027010557            2 
  110000    1.0789694   -7.1558868    32.228901  0.024415834  0.026943016            4 
  111000    1.0957385    -7.155752    32.535829  0.024426298  0.026882405            5 
  112000    1.0732644   -7.1507309    32.780281   0.02439009  0.026824892            8 
  113000    1.0915574   -7.1720348    33.017844  0.024349442  0.026768597            5 
  114000    1.1026828   -7.1716205    33.328552  0.024362977  0.026711827            4 
  115000    1.0952484   -7.2296059    33.372544  0.024183003  0.026653958            8 
  116000    1.1075093   -7.1571371    33.715008  0.024220551  0.026597198            2 
  117000    1.0700389   -7.1516991    34.092706  0.024282554  0.026542379            5 
  118000     1.080526   -7.2115194    34.116542  0.024093603  0.026483946            1 
  119000    1.0744504   -7.1925577    34.488965  0.024151936  0.026425483            5 
  120000    1.0630965   -7.1720844    34.596493  0.024025342  0.026362741            2 
  121000    1.0682045   -7.1811983    34.806053  0.023971111   0.02629765            1 
  122000    1.0783464   -7.1843404    35.057441  0.023946339  0.026232214            3 
  123000    1.0536661    -7.233298    35.305871  0.023919966   0.02616921            3 
  124000    1.0684198   -7.2248989    35.404246  0.023793176  0.026102909            3 
  125000    1.0813368    -7.228061    35.629995   0.02375333  0.026033271            8 
  126000    1.0621761   -7.2581131    35.775962   0.02366135  0.025964584           23 
  127000    1.0531105   -7.2354413    35.856803  0.023528086   0.02589284            3 
  128000    1.0603784   -7.2396595    36.121177  0.023516391  0.025821603           11 
  129000    1.0598289   -7.2773612    36.245858  0.023414637  0.025749935            5 
  130000    1.0475059   -7.2229016    36.508079  0.023402615  0.025680886            5 
  131000    1.0664675    -7.289433    36.727154   0.02336333  0.025608441            5 
  132000    1.0562982   -7.2728327    37.046621  0.023388018  0.025534992            3 
  133000    1.0582743   -7.2652556    37.349507  0.023401947  0.025464388            5 
  134000    1.0440776   -7.3079563    37.285015  0.023187198  0.025392232            4 
  135000    1.0579189   -7.3255023    37.357199      0.02306  0.025313324            6 
  136000    1.0681025   -7.3017936    37.438591  0.022940313  0.025234631            7 
  137000    1.0606456   -7.2969103    37.653372  0.022903511  0.025153077           22 
  138000    1.0438264   -7.2679275    37.944354  0.022913257  0.025072228            4 
  139000     1.037539   -7.3328757    38.016708  0.022791792   0.02499344            7 
  140000    1.0496105   -7.2838608    38.212372  0.022745459  0.024912483            3 
  141000    1.0575871   -7.3041036    38.491155  0.022748909  0.024832057            6 
  142000    1.0275623   -7.3184802    38.709178  0.022716653  0.024755246            2 
  143000    1.0518193   -7.3138041    38.991274  0.022722188  0.024677243            6 
  144000    1.0665081   -7.3721428    38.840489  0.022477134  0.024600268            4 
  145000    1.0441244   -7.3970709     38.90816  0.022361011   0.02452027            3 
  146000    1.0326426   -7.3543137    39.188139  0.022367659  0.024439511            3 
  147000    1.0296477   -7.3801425    39.286103  0.022271034  0.024358853            5 
  148000      1.02573   -7.3370353    39.497765  0.022239733  0.024276917            3 
  149000    1.0199759   -7.3505487    39.740986  0.022226502  0.024196093            3 
  150000    1.0258746   -7.3694043    39.766881  0.022092712  0.024115667            8 
  151000    1.0299814   -7.3383654    39.870118  0.022003376  0.024033506            5 
  152000    1.0139623   -7.3365955    40.047412  0.021955818   0.02395008            8 
  153000    1.0276575   -7.3535725    40.400052  0.022004386  0.023869404            2 
  154000    1.0145095   -7.3918709    40.554805  0.021945241  0.023791454            4 
  155000    1.0288334   -7.3139027    40.758488  0.021913166  0.023711656            4 
  156000    1.0110283    -7.422045    40.788689  0.021788829  0.023632743            4 
  157000    1.0105253   -7.3969194    41.055237  0.021791527  0.023554763            6 
  158000     1.013952    -7.383055     41.20159  0.021730796  0.023475089            5 
  159000    1.0107314   -7.3980257    41.344781  0.021669172  0.023396545            3 
  160000    1.0060788   -7.4258654    41.537791  0.021634266  0.023320359            3 
  161000    1.0152698   -7.4153384    41.627116  0.021546126  0.023241818            7 
  162000    1.0291076   -7.4243751    41.760316  0.021481644  0.023165476            4 
  163000    1.0247138   -7.4195952    42.078712  0.021512634  0.023091497            2 
  164000    1.0230157   -7.4393978    42.118602  0.021401728  0.023017036           10 
  165000    1.0062252   -7.4130282    42.616659  0.021523565  0.022943775            2 
  166000    1.0116109   -7.4344581     42.49908  0.021334879  0.022871454           10 
  167000   0.99762178   -7.4444117    42.664083  0.021289463  0.022799131            5 
  168000   0.98633609   -7.4242018    42.660191  0.021160809  0.022725288            9 
  169000    1.0011764   -7.3927154    42.977998  0.021192306  0.022651551            2 
  170000   0.98536341   -7.4372983    42.905107  0.021031915  0.022576989            2 
  171000   0.99893208   -7.4811746    42.902873  0.020907833  0.022500574            6 
  172000   0.99932541   -7.4321935    43.222216  0.020940996  0.022423338            3 
  173000   0.99517288   -7.4398904    43.364341  0.020888411  0.022348399            6 
  174000   0.99131507   -7.4449816    43.520446  0.020843125  0.022274247            6 
  175000   0.96824395    -7.474069    43.811346  0.020862545  0.022201348            2 
  176000   0.99659684   -7.4854489    43.762922   0.02072108  0.022129403            8 
  177000   0.97513941   -7.4797985     44.08567  0.020755965  0.022058519            4 
  178000   0.98942551   -7.4923199    44.288973  0.020734538  0.021989443            2 
  179000   0.98143708   -7.5003134    44.330707  0.020638132  0.021919716            3 
  180000   0.96905938   -7.4655614    44.657666  0.020674845  0.021851753            6 
  181000   0.98423806   -7.4811828    44.859799  0.020653683  0.021787117            4 
  182000   0.96282941   -7.4917774    45.090866  0.020646001  0.021722816            3 
  183000    0.9814001   -7.5291059    45.065318  0.020521547  0.021658217            8 
  184000   0.95006461   -7.5751038    45.269196  0.020502353  0.021593097            7 
  185000   0.97333825   -7.5437706    45.349576  0.020427737   0.02152833            5 
  186000   0.97185709   -7.5508017    45.567918  0.020415734  0.021463643            5 
  187000   0.97462853   -7.5058947    45.723433  0.020375862  0.021400176            5 
  188000    0.9471582   -7.5059773    46.039655  0.020407648  0.021337793            7 
  189000   0.94760457   -7.5608234    45.969803  0.020268873   0.02127554            6 
  190000   0.96210349    -7.529167    46.126043   0.02023072  0.021211327            5 
  191000   0.93654143   -7.5331067    46.294555  0.020198322  0.021148462           13 
  192000   0.96459283   -7.5465389    46.355545  0.020119594  0.021086851            6 
  193000   0.96700377   -7.5960367    46.484135   0.02007087  0.021024077            4 
  194000   0.94149425   -7.5737844    46.593337   0.02001432  0.020961316            5 
  195000   0.95973985   -7.5444145    46.723682  0.019967385  0.020898484            6 
  196000    0.9623169   -7.5751598    46.800021  0.019897968  0.020834639            4 
  197000   0.97907857   -7.5836922    46.677872  0.019745293  0.020771028            5 
  198000   0.95082107   -7.5783001    46.939124  0.019755523  0.020707068            8 
  199000   0.96355375   -7.5858291    47.100541  0.019723844  0.020641144            4 
  200000   0.95301128   -7.5817452    47.163923  0.019651635  0.020576116            4 
  201000   0.95404447   -7.6186008    47.267052  0.019596622  0.020510781           12 
  202000   0.92544837   -7.6320538    47.284118  0.019506649  0.020444764            6 
  203000   0.92241002   -7.5973499    47.328918  0.019428948  0.020379521            8 
  204000   0.93755246   -7.6003479    47.423147  0.019372201  0.020313172           10 
  205000   0.94535915   -7.6002374    47.440371  0.019284704  0.020245367            3 
  206000   0.94364911   -7.5934807    47.596159  0.019254109  0.020178222            4 
  207000   0.94089989   -7.6047576    47.632928  0.019175897  0.020111557            6 
  208000   0.94774986   -7.6036672    47.752439  0.019131586  0.020045108            4 
  209000   0.92974285   -7.5989919    47.800876   0.01905936  0.019978118            5 
  210000   0.94525355   -7.6368123    47.789049  0.018963908  0.019909894            6 
  211000   0.93806064   -7.6580874    48.059167  0.018980714  0.019843587            4 
  212000   0.94218233   -7.6616685    47.993434  0.018865344  0.019777329            8 
  213000   0.93526727   -7.6642167    48.040057  0.018795015  0.019709923            5 
  214000   0.93665166   -7.6850626    48.206561  0.018772025  0.019643407           11 
  215000   0.91653601   -7.6989392    48.373336  0.018749355  0.019577735           10 
  216000   0.91700259   -7.7065922    48.326615  0.018644527  0.019512053            8 
  217000   0.92562869   -7.6961704    48.540786  0.018640855  0.019446231           13 
  218000   0.93297839   -7.6902308    48.592102  0.018574962  0.019380714            3 
  219000   0.91103925   -7.6802838    48.657644  0.018515085  0.019315297           11 
  220000   0.91176083   -7.6905917    48.598728  0.018408609  0.019248769            5 
  221000   0.90434284   -7.6697033    48.708419  0.018366674  0.019181656            7 
  222000   0.92142082   -7.6647963    48.840637  0.018333573  0.019113908           11 
  223000   0.90286758   -7.7156634    48.666335  0.018186224  0.019046946            6 
  224000   0.91294839   -7.7202386    48.842963  0.018170745  0.018980551            9 
  225000   0.90322023   -7.7288298    48.963827  0.018134751  0.018914274            3 
  226000   0.91960056   -7.7663802    48.859566  0.018016064  0.018847507           15 
  227000   0.91652402   -7.7311404    49.046951  0.018005489  0.018780478            7 
  228000    0.9191086   -7.7441904    49.115248  0.017951479  0.018713504            7 
  229000   0.90731431   -7.7393679    49.242662  0.017919455  0.018646964            2 
  230000   0.92448022    -7.717565    49.320207   0.01786964  0.018580569           14 
  231000   0.89632769   -7.7824339    49.047934   0.01769406  0.018513413           17 
  232000   0.91179805    -7.791698    49.197512   0.01767152  0.018445691            7 
  233000    0.8967948   -7.7632033    49.228207  0.017606655  0.018379059            6 
  234000   0.88744166   -7.7901806    49.225363    0.0175304  0.018311912           10 
  235000   0.87507151   -7.7935171    49.477444  0.017545193  0.018244974           11 
  236000   0.90150045   -7.7977023    49.428409  0.017453534  0.018178318            9 
  237000   0.87509341   -7.8094174    49.487544  0.017400684  0.018111798            8 
  238000   0.89351233   -7.8057085     49.72456   0.01741056   0.01804654           10 
  239000   0.86820231   -7.7830994    49.722303  0.017336926  0.017981786            8 
  240000   0.88743544   -7.7755997    49.814595  0.017296734   0.01791742            6 
  241000   0.88151631   -7.7850834    49.866638  0.017242959  0.017853224           17 
  242000   0.86877684   -7.7815239     49.91789  0.017189356  0.017788276            6 
  243000   0.88669885   -7.7560873    50.049186  0.017163644  0.017724235            7 
  244000   0.87668079   -7.7819688    50.070172  0.017100468  0.017659988            5 
  245000   0.88307403   -7.7962924    50.056608  0.017026057  0.017596397           10 
  246000    0.8753978   -7.7965534    50.105935  0.016973555  0.017532944            6 
  247000   0.86903781   -7.8224787     50.18032  0.016929932  0.017468905            5 
  248000   0.89093154   -7.8230862    50.094295   0.01683276  0.017405136            2 
  249000    0.8656859   -7.8432767     50.16812  0.016789866  0.017340787            8 
  250000   0.86626522   -7.8221976    50.292428  0.016764143  0.017276969            6 
  251000   0.85250744   -7.8298083    50.325775  0.016708425  0.017213806            5 
  252000   0.86797702   -7.8396802    50.328208  0.016642926  0.017150423            6 
  253000    0.8664227   -7.8504656    50.373985  0.016592222  0.017087041           15 
  254000   0.85121445   -7.8426174    50.378905  0.016528512  0.017024394            8 
  255000   0.87746027   -7.8678899    50.486864  0.016498975  0.016961891            5 
  256000   0.85852823   -7.8602021    50.508588  0.016441598  0.016899462           10 
  257000   0.86192119   -7.8309016    50.658094  0.016426101  0.016837849            4 
  258000   0.86799562   -7.8345832    50.826664  0.016416881   0.01677659            7 
  259000   0.87159328   -7.8588255    50.884043  0.016371957  0.016716116            6 
  260000   0.85065183   -7.8658017     50.80898   0.01628493  0.016655084            5 
  261000   0.84539993    -7.854588    51.005229  0.016285195  0.016594462            8 
  262000   0.84294475   -7.8917003    50.848719  0.016173257  0.016533989           17 
  263000   0.86239133   -7.9082184    51.000902  0.016159982  0.016473853            7 
  264000   0.84633309   -7.8986089      51.0531  0.016115246  0.016414626            8 
  265000   0.83438866   -7.9214969    51.083021  0.016063843  0.016355439           18 
  266000   0.83710902   -7.9425395    51.212269  0.016043944  0.016296441           16 
  267000   0.83538731   -7.9237573    51.216157  0.015985068   0.01623786           25 
  268000   0.83285481   -7.9628862    51.193137  0.015918264  0.016178755           31 
  269000   0.84959997   -7.9556539    51.208645  0.015863892   0.01612042           25 
  270000   0.83664341   -7.9517867    51.292185  0.015830921  0.016062251           12 
  271000    0.8346418   -7.9752779    51.272283  0.015766385  0.016004178           15 
  272000    0.8089599   -7.9626076    51.286278  0.015712708  0.015946143            9 
  273000   0.83773197   -7.9895248    51.452162  0.015705788  0.015888474           35 
  274000   0.83169701   -7.9571728    51.551351  0.015678635  0.015831736            7 
  275000   0.84053515   -7.9706213    51.440621  0.015588067  0.015774429           14 
  276000   0.83612824   -7.9575052    51.455481  0.015536075  0.015717015           22 
  277000   0.81422499     -7.96635    51.529101  0.015502136  0.015659999           33 
  278000   0.82308361   -7.9853587    51.451963   0.01542325   0.01560359           33 
  279000   0.82861334   -7.9582365    51.662378  0.015430818  0.015547056           30 
  280000   0.82671612   -7.9727999    51.724259  0.015394125  0.015490849           32 
  281000   0.81549538   -7.9983641    51.614649  0.015306835  0.015434421           33 
  282000   0.82122806   -8.0044403    51.503633   0.01521975  0.015377604           15 
  283000   0.82303999   -7.9843672    51.589622   0.01519129  0.015320726           26 
  284000    0.7933292   -8.0410305    51.504778  0.015112904  0.015263519           49 
  285000   0.81095495   -8.0439777    51.526774  0.015066308  0.015206248           18 
  286000   0.81289829   -8.0257808    51.663351  0.015053424  0.015149223            9 
  287000   0.82064381   -8.0531692    51.609589  0.014985363  0.015092791            9 
  288000   0.82092505    -8.007844    51.777181  0.014981823  0.015036299           13 
  289000   0.81151716   -8.0075849    51.819235  0.014942109  0.014980372           17 
  290000   0.80907191    -8.039026    51.680481  0.014850713  0.014924473            9 
  291000   0.80216222   -8.0471293    51.738878  0.014816402  0.014868676           11 
  292000   0.80130705   -8.0505456    51.598376  0.014725564  0.014812747           18 
  293000   0.79774138   -8.0955163     51.61857  0.014681049  0.014756507           19 
  294000   0.81037764   -8.1000158     51.71261  0.014657769  0.014700685           25 
  295000   0.79531031   -8.0828258    51.912046   0.01466442  0.014645087           23 
  296000    0.7919104   -8.0962667    51.696288  0.014554135  0.014589517           18 
  297000    0.7889926   -8.0806282    51.751688  0.014520676  0.014534015           25 
  298000    0.7996705   -8.0880952    51.724665  0.014464392  0.014478911           23 
  299000   0.79681854   -8.0924352    51.719965  0.014414706  0.014423971           23 
  300000   0.77640176   -8.1131285    51.844098  0.014401138  0.014369351           12 
  301000   0.79092522   -8.1067909      51.7273  0.014320958  0.014314813           30 
  302000   0.78322119   -8.1048593    51.677372   0.01425976  0.014260239           34 
  303000   0.79819686   -8.1338541     51.75202  0.014233229  0.014205729           40 
  304000   0.78901105   -8.1106985    51.787209  0.014196055  0.014151152           15 
  305000   0.78576708   -8.1429832    51.707167  0.014127641  0.014097001           27 
  306000   0.76731087   -8.1389597    51.625281  0.014059172   0.01404288           35 
  307000    0.7964725   -8.1273607    51.788226  0.014057607  0.013988831           33 
  308000   0.78061294   -8.1352866    51.767056  0.014006238  0.013935038           25 
  309000   0.76573376   -8.1887548    51.697592  0.013942177  0.013881518           40 
  310000   0.77266587   -8.1375218    51.779721   0.01391928  0.013828283           42 
  311000   0.77052631   -8.1655444    51.777118  0.013873826  0.013775449           26 
  312000   0.77022976    -8.184204    51.634605  0.013791294  0.013722512           38 
  313000   0.76443835    -8.140751    51.881896  0.013813071  0.013669774           46 
  314000   0.77284533   -8.1694244    51.750715  0.013734266   0.01361698           47 
  315000   0.78054286    -8.171815    51.880592  0.013725024  0.013564167           52 
  316000   0.77083474   -8.1520113    51.829963  0.013668239  0.013511767           35 
  317000   0.76209184   -8.1749801     51.87535  0.013637053   0.01345952           52 
  318000   0.76188588   -8.1920496    51.800844  0.013574645  0.013407693           33 
  319000   0.76590416   -8.1847665    51.851018  0.013545198  0.013355996           48 
  320000   0.77092946   -8.1496776    51.971515  0.013534249  0.013304727           37 
  321000   0.75547177   -8.2074342    51.959241  0.013488899  0.013253614           50 
  322000   0.76789415   -8.2351794    51.736128  0.013389267  0.013202761           46 
  323000   0.76056578   -8.1961453    51.843989  0.013375642   0.01315227           42 
  324000   0.73677818   -8.2075252    51.919119  0.013353683  0.013101998           55 
  325000   0.75467967   -8.1904669    51.924604  0.013314001  0.013051572           44 
  326000   0.74539542   -8.1949089    51.843824  0.013252511  0.013001642           63 
  327000   0.73526174   -8.2271837    51.979493  0.013246558  0.012951704           63 
  328000   0.75679801   -8.2188133    51.891182  0.013183735  0.012901841           60 
  329000   0.73537309   -8.2104281     51.93126  0.013153815  0.012852068           75 
  330000   0.74310756    -8.229676    51.875149  0.013099785  0.012802563           68 
  331000   0.72718253   -8.2587096    51.820143   0.01304636  0.012752911           46 
  332000   0.72444736   -8.2313718    51.864851  0.013018286  0.012703407           44 
  333000   0.73843677    -8.244651    51.837861  0.012972438  0.012654178           61 
  334000   0.74067284   -8.2371584    51.930562  0.012956727  0.012605068           44 
  335000   0.73541642   -8.2610522    51.731273  0.012868476  0.012555988           57 
  336000   0.74344719   -8.2659264    51.753359  0.012835655  0.012506922           51 
  337000   0.74879438   -8.2727126    51.844431  0.012820087  0.012458111           62 
  338000   0.72654742   -8.2536744     51.77944  0.012766134  0.012409365           61 
  339000   0.72759566   -8.2992253    51.708967  0.012711152  0.012360716           73 
  340000    0.7172404   -8.2814731    51.887675  0.012717567  0.012312608           54 
  341000   0.73014487   -8.2641419    51.906714  0.012684925  0.012264496           52 
  342000   0.73547997   -8.3144295    51.701452   0.01259782  0.012216649           69 
  343000   0.71565385   -8.2926997    51.823727  0.012590798  0.012168948           60 
  344000   0.72782697     -8.31619    51.680269  0.012519445  0.012121533           82 
  345000   0.71873396   -8.2920522    51.834781  0.012520478  0.012074328           51 
  346000   0.72336119   -8.3027551    51.822543  0.012481345  0.012027327           69 
  347000   0.70535178   -8.3043368    51.762983  0.012431072  0.011980758           76 
  348000   0.70834889   -8.3410385    51.714166   0.01238366  0.011934181           84 
  349000   0.71434415   -8.3530335    51.824129  0.012374434  0.011887807           80 
  350000    0.7184509   -8.3335289    51.860258  0.012347681  0.011841681           79 
  351000   0.70000707   -8.3342293    51.824999  0.012304131  0.011795704           72 
  352000   0.70127797   -8.3495905    51.923736  0.012292551  0.011749922           58 
  353000   0.69156444   -8.3234327    51.863133  0.012243421  0.011704455           98 
  354000   0.69889312   -8.3671207    51.879986  0.012212803  0.011659219           81 
  355000    0.6861646   -8.3495791    51.896971  0.012182387  0.011614093           86 
  356000   0.69007097   -8.3505554    51.719875  0.012106712  0.011569188          135 
  357000   0.71204517   -8.3422941    51.771836  0.012084929  0.011524306          120 
  358000   0.70638597   -8.3472254    51.924065  0.012086607  0.011479861          140 
  359000   0.69441146    -8.382522    51.733784  0.012008771  0.011435294          139 
  360000   0.67850356   -8.3461809    51.791401   0.01198875  0.011391177          126 
  361000   0.70318917    -8.401143    51.771619  0.011950974  0.011347142          125 
  362000   0.68524908   -8.3654333    51.741816  0.011911099   0.01130334          122 
  363000   0.69586098   -8.3838613    51.875407  0.011908955  0.011259777          118 
  364000   0.68241259   -8.3970267     51.78955  0.011856582  0.011216359          119 
  365000   0.69080383    -8.396256     51.77082  0.011819822  0.011173045          120 
  366000   0.68755113   -8.3619904    51.823688  0.011799565  0.011130023          125 
  367000   0.69258745   -8.4127519    51.706796  0.011740871  0.011087055          120 
  368000   0.68038273   -8.4009496    51.772907  0.011723937  0.011044229          158 
  369000   0.68432883   -8.4017919    51.897869  0.011720386  0.011001643          101 
  370000   0.66752323   -8.4211039    51.782199  0.011662657  0.010959189          132 
  371000    0.6800641   -8.4258447    51.725618  0.011618513  0.010916912          123 
  372000   0.67231873   -8.4143813    51.713779  0.011584628  0.010874709          145 
  373000     0.664892   -8.4267137    51.723718   0.01155579  0.010832765          169 
  374000   0.66596021   -8.4294049    51.772283  0.011535714  0.010790965          175 
  375000   0.65934129   -8.4209067    51.612981  0.011469551  0.010749343          177 
  376000   0.65871449   -8.4511007    51.627246  0.011442209  0.010707899          161 
  377000    0.6735032   -8.4363661    51.773179  0.011444116  0.010666578          165 
  378000   0.65128828   -8.4611608     51.66691  0.011390412  0.010625334          164 
  379000   0.66415112    -8.446796    51.733209  0.011374936  0.010584338          170 
  380000   0.65115579   -8.4532351    51.679996  0.011333332  0.010543494          147 
  381000   0.65348714   -8.4631646     51.62902  0.011292437  0.010502822          138 
  382000   0.66851342   -8.4464697    51.760055  0.011291461  0.010462374          154 
  383000   0.66426487   -8.4665596      51.7065  0.011250326  0.010421988          153 
  384000   0.65296725   -8.4776898    51.559296  0.011189083  0.010381874          217 
  385000    0.6387911    -8.482742    51.502427  0.011147712  0.010341878          194 
  386000   0.64980624   -8.5074774    51.569755  0.011133367  0.010302072          231 
  387000   0.64342116   -8.4647283    51.580029  0.011106811  0.010262473          218 
  388000   0.64020907   -8.4917131    51.609882  0.011084597  0.010223029          192 
  389000   0.63500768   -8.5035056    51.516594  0.011036117  0.010183654          191 
  390000   0.64038234   -8.5040834     51.69055  0.011044989  0.010144469          180 
  391000   0.64527527    -8.501799    51.624973  0.011002765  0.010105516          250 
  392000   0.64588587   -8.5011231    51.669874  0.010984242  0.010066865          180 
  393000   0.65422487   -8.5023478    51.563451  0.010933726  0.010028346          247 
  394000    0.6406007   -8.5033398    51.571424  0.010907662 0.0099899612          220 
  395000   0.63504892   -8.5118912    51.554074  0.010876387 0.0099517755          159 
  396000   0.62507623   -8.5052885    51.591164  0.010856726  0.009913704          195 
  397000   0.63189811   -8.5234754    51.610576  0.010833454  0.009875845          172 
  398000   0.63115377   -8.5121685    51.657881  0.010816139 0.0098381461          164 
  399000   0.63338034   -8.5187496    51.482633   0.01075243 0.0098006536          152 
  400000   0.61996861   -8.5258403    51.515288  0.010732352 0.0097632681          218 
  401000   0.62451739   -8.5367841    51.517443  0.010706036  0.009726054          173 
  402000   0.62896265   -8.5223329    51.376713  0.010650231 0.0096889032          216 
  403000   0.61823171   -8.5140941    51.422687   0.01063331 0.0096518865          231 
  404000   0.61729314   -8.5458239    51.497194  0.010622358   0.00961505          220 
  405000   0.60080565   -8.5531575    51.482033  0.010593011 0.0095784343          218 
  406000   0.60833241   -8.5425355    51.480845  0.010566676 0.0095420634          161 
  407000   0.62129404   -8.5508985    51.477097  0.010539946 0.0095058266          181 
  408000   0.61238596   -8.5525077    51.527657   0.01052444 0.0094697658          172 
  409000   0.60507058    -8.547821    51.523554  0.010497872 0.0094338124          245 
  410000   0.61955082   -8.5484794    51.434224  0.010454111 0.0093980541          182 
  411000   0.61025459   -8.5481427    51.395602  0.010420844 0.0093624696          248 
  412000   0.61845434    -8.549312    51.462615  0.010409105 0.0093271131          244 
  413000   0.60624656   -8.5554665     51.48179   0.01038777 0.0092918939          145 
  414000   0.60325489   -8.5673268    51.498656  0.010366074 0.0092568894          151 
  415000   0.60508392    -8.549716    51.401213  0.010321529 0.0092219383          170 
  416000   0.60235036   -8.5899264    51.437476  0.010303982 0.0091872016          183 
  417000    0.5846247   -8.5788216    51.404413  0.010272664 0.0091525438          156 
  418000   0.59990119   -8.5716585    51.407662  0.010248736 0.0091180865          165 
  419000   0.58143314    -8.569088      51.3655  0.010215891 0.0090837271          200 
  420000   0.58483797    -8.566252    51.371855  0.010192828 0.0090495327          139 
  421000   0.60037955   -8.5688314    51.404935  0.010175165  0.009015513          237 
  422000   0.60677938    -8.572666    51.439337  0.010157847 0.0089817786          167 
  423000   0.58410958   -8.5604322    51.521083  0.010149938 0.0089481655          184 
  424000   0.58598274   -8.5990331    51.385691  0.010099389 0.0089147073          223 
  425000   0.59767287   -8.6070564    51.347812  0.010068198 0.0088813349          178 
  426000   0.57090908   -8.5900616    51.370136  0.010048931 0.0088481464          190 
  427000   0.59635801   -8.5897801    51.488121  0.010048423 0.0088151925          156 
  428000   0.59390368   -8.5959355    51.414327  0.010010578 0.0087823737          288 
  429000   0.58512613   -8.6076099    51.439706 0.0099921728 0.0087497872          274 
  430000   0.57872836   -8.6047471    51.364874  0.009954433 0.0087172557          222 
  431000   0.57651141   -8.5928783    51.371124 0.0099325453 0.0086849255          257 
  432000    0.5660173   -8.6104462    51.404159 0.0099159258 0.0086527772          249 
  433000    0.5669713   -8.6142394    51.393875 0.0098910459 0.0086207017          177 
  434000    0.5675406   -8.6269139    51.390821 0.0098676691 0.0085888069          176 
  435000   0.56729437   -8.6213863    51.443545 0.0098550853 0.0085570502          246 
  436000   0.56328479   -8.6148573    51.404059 0.0098249348 0.0085253902          161 
  437000   0.57554124   -8.6139363    51.528763 0.0098262324 0.0084939165          263 
  438000    0.5691291   -8.6368082    51.313211 0.0097627874 0.0084625605          260 
  439000   0.58036763   -8.6202768    51.382936 0.0097537844 0.0084313096          209 
  440000   0.56612148   -8.6355163     51.32001 0.0097196988 0.0084002069          166 
  441000    0.5608901   -8.6287901     51.31788 0.0096972563 0.0083692286          178 
  442000   0.56454327   -8.6393485    51.269722 0.0096662371 0.0083384196          153 
  443000   0.56068066   -8.6349761    51.277697 0.0096459175 0.0083077384          238 
  444000   0.56440818   -8.6629029    51.287519 0.0096260358 0.0082771476          217 
  445000   0.56252847   -8.6778002    51.243655 0.0095961901 0.0082466552          255 
  446000   0.55822373   -8.6611254    51.274704 0.0095804753 0.0082163087          257 
  447000   0.55317678   -8.6582332     51.30568 0.0095648172 0.0081860746          190 
  448000   0.54861878   -8.6447639    51.212318 0.0095261007 0.0081559404          281 
  449000   0.55740681   -8.6499083    51.200966 0.0095027776 0.0081259742          237 
  450000   0.56176372   -8.6802476    51.108438 0.0094645255 0.0080961717          214 
  451000   0.55386268   -8.6667434    51.155999 0.0094523279 0.0080665335          295 
  452000   0.54215867   -8.6872516    51.190156 0.0094377132 0.0080369695          227 
  453000   0.53397324   -8.6939443    51.179223  0.009414868 0.0080075593          328 
  454000   0.55304067   -8.6812729    51.148876 0.0093885601 0.0079782951          258 
  455000   0.54018491   -8.6758875    51.086235 0.0093564533 0.0079491452          199 
  456000   0.53888019   -8.6823017    51.203624 0.0093573875 0.0079201289          402 
  457000   0.54586996   -8.6852156    51.194285 0.0093352089 0.0078912481          279 
  458000   0.54149371    -8.710949    51.181699 0.0093125362 0.0078625203          299 
  459000   0.54219662   -8.6909037     51.07583 0.0092730265 0.0078338663          308 
  460000   0.53001132   -8.6930376    51.053832 0.0092488827 0.0078053809          333 
  461000   0.53277141   -8.7128727    51.114222 0.0092397364  0.007777049          326 
  462000    0.5384255   -8.7113612    51.182368 0.0092320288 0.0077488276          304 
  463000    0.5200887   -8.7079723    51.113662 0.0091997231 0.0077207174          375 
  464000   0.52550636    -8.713167     51.07216 0.0091724424 0.0076927481          260 
  465000   0.52801675   -8.7226527    51.052579 0.0091492076 0.0076649254          358 
  466000   0.51867797   -8.7132233    51.041077 0.0091275173 0.0076372597          257 
  467000    0.5269505   -8.7105844    51.094918   0.00911758 0.0076097065          353 
  468000   0.51510598   -8.7231004    51.058455 0.0090916053 0.0075822512          324 
  469000   0.52817646   -8.7136975    51.099833 0.0090795724 0.0075549492          368 
  470000   0.52358686   -8.7384887    51.127445 0.0090651498 0.0075277689          259 
  471000   0.51555222   -8.7136392    51.087911 0.0090389085 0.0075006809          326 
  472000   0.50327338   -8.7394662    51.075569 0.0090175793 0.0074737356          314 
  473000   0.51264579   -8.7135602    51.114145 0.0090053109 0.0074469044          343 
  474000   0.50857529   -8.7306619    51.065988  0.008977846 0.0074201868          265 
  475000   0.51050272   -8.7240024    51.037701 0.0089539827 0.0073935976          256 
  476000   0.50788061    -8.739556    51.074218 0.0089415647 0.0073671276          305 
  477000    0.5056159   -8.7284324    51.079379  0.008923721  0.007340763          394 
  478000   0.51542065   -8.7376083    51.050983 0.0089001016 0.0073145518          221 
  479000   0.49819323   -8.7500598    50.977589 0.0088687524 0.0072884434          293 
  480000   0.49917145   -8.7447389    51.048352 0.0088625611 0.0072624896          246 
  481000    0.5026093   -8.7485147    51.002974 0.0088362741 0.0072366691          298 
  482000   0.49090713   -8.7528751    51.089193  0.008832848 0.0072109651          244 
  483000   0.49127486   -8.7666841     51.01525  0.008801803 0.0071853457          246 
  484000   0.50094631   -8.7668214    50.981304 0.0087777727 0.0071598236          239 
  485000   0.49220265   -8.7674389    50.966077 0.0087570579  0.007134414          212 
  486000   0.49435932   -8.7429314    50.898513 0.0087274542 0.0071090973          249 
  487000   0.48549131   -8.7544269    50.953696 0.0087189761 0.0070838999          223 
  488000   0.49078145   -8.7739828     50.98512 0.0087064753 0.0070588379          264 
  489000    0.4744561   -8.7772358    50.923279  0.008678132 0.0070338902          232 
  490000   0.48168277   -8.7735904    50.923172 0.0086604034 0.0070090835          227 
  491000   0.48761313   -8.7839276    50.895265 0.0086380287 0.0069843581          313 
  492000   0.49011573    -8.779369    50.935195  0.008627235 0.0069597367          214 
  493000    0.4792477   -8.7719738    50.881445   0.00860065 0.0069352381          242 
  494000   0.49430237   -8.7838505    50.945331 0.0085940167 0.0069108492          236 
  495000   0.47533156   -8.7884307    50.870143 0.0085639971 0.0068865911          299 
  496000   0.47728135   -8.7933298    50.802551 0.0085353748 0.0068624127          219 
  497000   0.47272273   -8.7908918    50.936041 0.0085405837 0.0068383575          305 
  498000   0.45994975   -8.7937702     50.91906 0.0085205924 0.0068144177          332 
  499000   0.46770554   -8.8020754    50.915918 0.0085029923   0.00679056          274 
  500000    0.4701358   -8.8021826    50.864714 0.0084774523 0.0067668302          346 
  501000   0.46825145   -8.8118597    50.858414 0.0084594833 0.0067432268          282 
  502000   0.45706988   -8.8009084    50.761385 0.0084265247 0.0067197373          258 
  503000    0.4557377   -8.7950051    50.810965 0.0084179863 0.0066963052          390 
  504000   0.46269307   -8.8082438    50.880996 0.0084128631 0.0066730016          266 
  505000   0.45332112   -8.8134029    50.896091 0.0083986948 0.0066498346          346 
  506000   0.45222045   -8.7978577    50.884296 0.0083801541 0.0066267597          335 
  507000   0.45470122   -8.7828461    50.872192 0.0083616358 0.0066037985          354 
  508000   0.45654194   -8.8145209    50.861273 0.0083433846 0.0065809061          258 
  509000   0.47080363   -8.8138831    50.861367 0.0083270083 0.0065581426          216 
  510000    0.4535936   -8.8193877    50.740569 0.0082909427 0.0065354361          238 
  511000   0.44518112   -8.8200174    50.813572 0.0082866229 0.0065128521          227 
  512000   0.45083829   -8.8355308    50.779629 0.0082649136 0.0064903559          231 
Loop time of 1300.35 on 48 procs for 500000 steps with 4000 atoms

Performance: 66443.676 tau/day, 384.512 timesteps/s
99.4% CPU use with 48 MPI tasks x no OpenMP threads

MPI task timing breakdown:
Section |  min time  |  avg time  |  max time  |%varavg| %total
---------------------------------------------------------------
Pair    | 94.844     | 101.22     | 109.17     |  33.0 |  7.78
Neigh   | 8.9844     | 9.37       | 9.9125     |   6.5 |  0.72
Comm    | 83.861     | 91.386     | 98.323     |  35.5 |  7.03
Output  | 1.0237     | 1.0245     | 1.0491     |   0.4 |  0.08
Modify  | 1080.3     | 1085.2     | 1088.3     |   5.6 | 83.45
Other   |            | 12.18      |            |       |  0.94

Nlocal:        83.3333 ave          91 max          78 min
Histogram: 5 4 5 11 5 9 5 2 1 1
Nghost:        2393.42 ave        2411 max        2373 min
Histogram: 4 3 3 4 3 6 12 9 2 2
Neighs:        16539.5 ave       19918 max       14205 min
Histogram: 4 6 3 11 8 6 5 4 0 1
FullNghs:      33079.2 ave       36171 max       31144 min
Histogram: 7 5 4 9 6 10 3 2 1 1

Total # of neighbors = 1587800
Ave neighs/atom = 396.95000
Neighbor list builds = 26638
Dangerous builds = 0

#clear
#
#next RN
#
#jump SELF
Total wall time: 0:21:43
