
units lj                  # Use reduced LJ style units
atom_style atomic         # Uncharged point particles
atom_modify map hash      # Needed for indexing of clusters etc
                          # Used to be able to find where atoms are in relation to each other.

lattice fcc 1.0 spacing 1 1 1
Lattice spacing in x,y,z = 1.5874011 1.5874011 1.5874011
region box block 0 10 0 10 0 10 units lattice
create_box 2 box
Created orthogonal box = (0.0000000 0.0000000 0.0000000) to (15.874011 15.874011 15.874011)
  3 by 4 by 4 MPI processor grid
create_atoms 1 box
Created 4000 atoms
  using lattice units in orthogonal box = (0.0000000 0.0000000 0.0000000) to (15.874011 15.874011 15.874011)
  create_atoms CPU = 0.017 seconds
set type 1 type/fraction 2 0.28 78393
Setting atom values ...
  1153 settings made for type/fraction
mass 1 1.0
mass 2 1.0
pair_style lj/cut  3.5
pair_modify tail  yes
pair_coeff 1  1  1.0  1.0   # Intearaction between 1 and 1 set with epsilon = 1 and sigma = 1
pair_coeff 1  2  1.5  0.8
pair_coeff 2  2  0.5  0.88

write_data data.0
System init for write_data ...
Neighbor list info ...
  update every 1 steps, delay 10 steps, check yes
  max neighbors/atom: 2000, page size: 100000
  master list distance cutoff = 3.8
  ghost atom cutoff = 3.8
  binsize = 1.9, bins = 9 9 9
  1 neighbor lists, perpetual/occasional/extra = 1 0 0
  (1) pair lj/cut, perpetual
      attributes: half, newton on
      pair build: half/bin/atomonly/newton
      stencil: half/bin/3d
      bin: standard
WARNING: Not all mixed pair coeffs generated from mixing. Use write_data with 'pair ij' option to store all pair coeffs. (../write_data.cpp:312)


#############################
#   M E L T   S Y S T E M   #
#############################

velocity all create 2.4 3143649 mom yes dist gaussian # Assign velocities
                                                    # Temperature 2.4, random number seed, zero linear momentum
                                                                                # Gaussian distribution

timestep 0.002   # simulation timestep
thermo 1000       # output thermodynamic data every 1000 steps bf 100

# Define a fix  in this case with index 1 applied to all
# particles in the simulation. This fix is for simulations
# in the anisotropic NPT ensemble. Note that we use the MTK
# correction.
fix 1 all npt temp 2.4 2.4 0.1 iso 5.68 5.68 0.5 mtk yes tchain 5 pchain 5 # Use NPT ensemble
                                                                         # Set temperature and pressure and damping
                                                                         # Numbers of thermostats in chain and in barostat
run 10000          # run for 10000 steps
Per MPI rank memory allocation (min/avg/max) = 3.642 | 3.644 | 3.648 Mbytes
Step Temp E_pair E_mol TotEng Press Volume 
       0          2.4   -6.5468678            0   -2.9477678   -3.9245899         4000 
    1000    2.4259066   -4.9299539            0   -1.2920037    5.8349526    4215.1867 
    2000    2.4045675   -4.8946161            0   -1.2886666     5.695307    4249.6532 
    3000    2.4660641   -4.9313844            0    -1.233213    5.9496835    4208.7818 
    4000    2.3198616     -4.98652            0   -1.5075975    5.6990874    4190.2144 
    5000    2.3853697   -4.9390455            0   -1.3618854    5.6521798    4225.2927 
    6000    2.3821622   -4.9990829            0    -1.426733    5.7381325    4183.6309 
    7000    2.4639202   -4.8781715            0   -1.1832152    5.8237063    4248.0893 
    8000    2.3748307   -4.9671038            0   -1.4057484    5.6519323    4213.1665 
    9000     2.407399    -5.032217            0   -1.4220213    5.5826334    4188.7512 
   10000    2.3629406   -4.9701099            0    -1.426585    5.5901922    4214.9324 
Loop time of 2.4385 on 48 procs for 10000 steps with 4000 atoms

Performance: 708631.402 tau/day, 4100.876 timesteps/s
99.6% CPU use with 48 MPI tasks x no OpenMP threads

MPI task timing breakdown:
Section |  min time  |  avg time  |  max time  |%varavg| %total
---------------------------------------------------------------
Pair    | 1.0042     | 1.1021     | 1.2266     |   4.1 | 45.20
Neigh   | 0.19865    | 0.21021    | 0.23195    |   1.3 |  8.62
Comm    | 0.73179    | 0.85324    | 0.96304    |   5.8 | 34.99
Output  | 0.00024322 | 0.00024826 | 0.00031923 |   0.0 |  0.01
Modify  | 0.19863    | 0.25752    | 0.323      |   6.9 | 10.56
Other   |            | 0.01519    |            |       |  0.62

Nlocal:        83.3333 ave          92 max          76 min
Histogram: 5 5 4 3 4 14 7 2 2 2
Nghost:        1585.06 ave        1609 max        1558 min
Histogram: 2 1 4 7 7 8 7 7 2 3
Neighs:        9053.35 ave       10223 max        7766 min
Histogram: 3 2 5 4 5 9 9 7 2 2

Total # of neighbors = 434561
Ave neighs/atom = 108.64025
Neighbor list builds = 904
Dangerous builds = 196

# Equilibrate just above the melting temperature to avoid step fn in T

fix 1 all npt temp 1.25 1.25 0.1 iso 5.68 5.68 0.5 mtk yes tchain 5 pchain 5
run 2000
Per MPI rank memory allocation (min/avg/max) = 3.643 | 3.645 | 3.649 Mbytes
Step Temp E_pair E_mol TotEng Press Volume 
   10000    2.3629406   -4.9701099            0    -1.426585    5.5901922    4214.9324 
   11000    1.2556983   -6.8309008            0   -4.9478242    5.5680355    3394.2795 
   12000    1.2783241   -6.8065582            0   -4.8895515    5.4185614    3407.4496 
Loop time of 0.568571 on 48 procs for 2000 steps with 4000 atoms

Performance: 607839.967 tau/day, 3517.592 timesteps/s
99.6% CPU use with 48 MPI tasks x no OpenMP threads

MPI task timing breakdown:
Section |  min time  |  avg time  |  max time  |%varavg| %total
---------------------------------------------------------------
Pair    | 0.23475    | 0.26946    | 0.31049    |   2.9 | 47.39
Neigh   | 0.036673   | 0.039452   | 0.043206   |   0.7 |  6.94
Comm    | 0.1651     | 0.20905    | 0.24438    |   3.5 | 36.77
Output  | 5.3684e-05 | 5.4867e-05 | 6.8625e-05 |   0.0 |  0.01
Modify  | 0.042503   | 0.045794   | 0.049168   |   0.9 |  8.05
Other   |            | 0.004758   |            |       |  0.84

Nlocal:        83.3333 ave          93 max          76 min
Histogram: 2 7 6 4 13 6 2 5 2 1
Nghost:        1828.71 ave        1862 max        1800 min
Histogram: 2 4 5 5 11 7 9 4 0 1
Neighs:        11222.2 ave       12906 max        9959 min
Histogram: 5 3 7 10 7 5 2 5 1 3

Total # of neighbors = 538668
Ave neighs/atom = 134.66700
Neighbor list builds = 143
Dangerous builds = 12

#############################
# L I N E A R  Q U E N C H  #
#############################

# Define solid atoms. This closely follows ten Wolde  Ruiz-Montero and Frenkel  Faraday Discuss  1996  104  93-110
# Compute components of the per-atom q6 vector
compute q6 all orientorder/atom degrees 1 6 components 6 nnn NULL cutoff 1.3 # compute the Q6 parameter.
                                                                             # Use all neighbours within 1.3 unit cell.

# get number of connections
compute coord_number all coord/atom orientorder q6 0.5

# An atom is solid if it has 8 or more connections (of a possible 14)
variable is_solid atom c_coord_number>=8
group solid dynamic all var is_solid    # Must be dynamic to update
dynamic group solid defined

# do clustering
compute cluster solid cluster/atom 1.3 # Create a cluster where all atoms within are solid and max 1.3 units from another member

# define chunks one chunk per cluster
compute clus_chunks solid chunk/atom c_cluster nchunk every compress yes  # Says which atoms are in which chunk

# count the size of each chunk
compute size_chunks solid property/chunk clus_chunks count


# Find the maximum entry in the vector of chunk sizes
variable max_n equal max(c_size_chunks)


# Thermo style which includes this variable
# thermo_style custom step temp pe vol v_max_n

thermo ${N}  # Print the thermo information every 100 steps
thermo 1000  

# Reset the npt fix at a lower temperature (below freezing)
fix 1  all npt temp  ${temp} ${temp}  0.1  iso  5.68  5.68  0.5  mtk yes tchain  5  pchain  5
fix 1  all npt temp  0.45 ${temp}  0.1  iso  5.68  5.68  0.5  mtk yes tchain  5  pchain  5
fix 1  all npt temp  0.45 0.45  0.1  iso  5.68  5.68  0.5  mtk yes tchain  5  pchain  5

dump dmp2 all dcd ${N} traj.dcd
dump dmp2 all dcd 1000 traj.dcd


compute msd all msd com yes
variable twopoint equal c_msd[4]/6/(step*dt+1.0e-6)
fix 9 all vector 10 c_msd[4]
variable fit equal slope(f_9)/6/(10*dt)
thermo_style custom step temp pe c_msd[4] v_twopoint v_fit v_max_n

fix 1 all npt temp 1.25 ${temp} 0.1 iso 5.68 5.68 0.5 mtk yes tchain 5 pchain 5
fix 1 all npt temp 1.25 0.45 0.1 iso 5.68 5.68 0.5 mtk yes tchain 5 pchain 5
run 500000 # 5000000  # Run for this many steps
Neighbor list info ...
  update every 1 steps, delay 10 steps, check yes
  max neighbors/atom: 2000, page size: 100000
  master list distance cutoff = 3.8
  ghost atom cutoff = 3.8
  binsize = 1.9, bins = 8 8 8
  4 neighbor lists, perpetual/occasional/extra = 1 3 0
  (1) pair lj/cut, perpetual
      attributes: half, newton on
      pair build: half/bin/atomonly/newton
      stencil: half/bin/3d
      bin: standard
  (2) compute orientorder/atom, occasional
      attributes: full, newton on
      pair build: full/bin/atomonly
      stencil: full/bin/3d
      bin: standard
  (3) compute coord/atom, occasional
      attributes: full, newton on
      pair build: full/bin/atomonly
      stencil: full/bin/3d
      bin: standard
  (4) compute cluster/atom, occasional
      attributes: full, newton on
      pair build: full/bin/atomonly
      stencil: full/bin/3d
      bin: standard
Per MPI rank memory allocation (min/avg/max) = 9.804 | 9.812 | 9.817 Mbytes
Step Temp PotEng c_msd[4] v_twopoint v_fit v_max_n 
   12000    1.2783241   -6.8065582            0            0 8.3333333e+20            1 
   13000    1.2580009   -6.8430148   0.52305173 0.0033528956  0.042939136            1 
   14000    1.2616215   -6.8070389    0.9877558 0.0058794986   0.04057804            1 
   15000    1.2317899   -6.8633017    1.4763853 0.0082021404  0.039808839            1 
   16000    1.2352591   -6.8902823     1.947933  0.010145484  0.040143303            1 
   17000    1.2687134   -6.8386516    2.4985716    0.0122479  0.040453632            2 
   18000    1.2604081   -6.8441723    2.9613002  0.013709723   0.04082384            2 
   19000    1.2473764   -6.8633032    3.4300487  0.015044073  0.040779457            2 
   20000    1.2366346   -6.8519191    3.8971572  0.016238155  0.040580906            1 
   21000    1.2207485   -6.8328853    4.3160256  0.017127085  0.040227518            1 
   22000    1.2082726   -6.8617812    4.8116884  0.018226092  0.040061774            2 
   23000    1.2211943   -6.8469342    5.3037182   0.01921637  0.039925283            1 
   24000    1.2256296   -6.8566656    5.7020115   0.01979865  0.039757586            2 
   25000    1.2530932   -6.8515958     6.171654  0.020572179   0.03958672            1 
   26000    1.2329449   -6.8508444    6.5814139  0.021094275  0.039401191            1 
   27000    1.2217342   -6.9058063    7.0574522   0.02178226  0.039155579            2 
   28000    1.2120242   -6.8759277    7.4566952  0.022192545  0.038971597            2 
   29000    1.2132591   -6.8602251    7.9019618  0.022706786  0.038735364            2 
   30000    1.2037121   -6.8340487    8.4267963  0.023407767  0.038625619            2 
   31000    1.1895675   -6.8823388    8.8749243  0.023857323  0.038542972            2 
   32000     1.232238   -6.9013072    9.2822389  0.024172497  0.038491279            3 
   33000    1.2234365   -6.8978056    9.6832578  0.024452671  0.038368544            2 
   34000    1.2164598   -6.8972793    10.269994  0.025171554  0.038312673            2 
   35000    1.1993379    -6.875148    10.632716  0.025315989  0.038268629            1 
   36000    1.2181833   -6.8927906    11.023476  0.025517306  0.038145034            1 
   37000    1.1894088    -6.905244    11.413387  0.025705827  0.038020597            3 
   38000    1.1746585    -6.870474    11.852243  0.025991762  0.037893459            1 
   39000    1.2112313   -6.9124476    12.266493  0.026210454  0.037764634            1 
   40000    1.1877501   -6.8871907    12.794057  0.026654285  0.037685926            4 
   41000    1.1956921   -6.9294344    13.199046  0.026827328  0.037613599            1 
   42000     1.219431   -6.9122539    13.731176  0.027244397   0.03758648            1 
   43000    1.1884028   -6.9227297    14.136346  0.027396019  0.037575417            1 
   44000    1.2036883   -6.9331069    14.587795    0.0276284  0.037564611            3 
   45000    1.2140555   -6.9205482    14.999154   0.02777621  0.037532834            1 
   46000    1.1954388   -6.9326109    15.290022  0.027699316  0.037469152            2 
   47000    1.1755548   -6.9534141    15.703287  0.027842707  0.037384324            1 
   48000    1.1653923   -6.9013096    16.184877  0.028098744  0.037295844            4 
   49000    1.1939942   -6.9548863    16.480995  0.028028902  0.037192471            2 
   50000    1.1792556    -6.942754    16.827584  0.028045973  0.037060428            2 
   51000    1.1614879   -6.9672588    17.206476  0.028115156  0.036919214            1 
   52000    1.2077308   -6.9467078    17.609004  0.028219558  0.036786947            2 
   53000    1.2025089    -6.948554    17.957877  0.028235656  0.036660809            2 
   54000    1.1441956   -6.9544373     18.39556  0.028388209  0.036540626            1 
   55000    1.1743628   -6.9498271    18.670492  0.028288624  0.036402586            3 
   56000    1.1985851   -6.9668042    19.080024  0.028392892  0.036275784            1 
   57000    1.1732031   -6.9436231     19.53796  0.028564269  0.036158332            1 
   58000    1.1539607   -6.9457086    19.994062    0.0287271  0.036064849            1 
   59000    1.1839795   -6.9853515    20.339509  0.028728119  0.035975266            2 
   60000     1.188058   -6.9806662    20.799815  0.028888632  0.035879531            2 
   61000     1.164175   -6.9610445    21.317951  0.029122883  0.035813625            1 
   62000    1.1911324    -6.969818    21.734354  0.029212841  0.035769067            3 
   63000    1.1699491   -7.0499154    21.932002  0.029010584  0.035699737            1 
   64000    1.1486864   -7.0070973    22.292202  0.029026305  0.035610349            1 
   65000    1.1574342   -7.0062138    22.747284  0.029163184  0.035539095            3 
   66000    1.1559066    -7.016266    23.015782   0.02906033  0.035458378            5 
   67000    1.1757021   -7.0285671    23.370158   0.02906736  0.035371827            2 
   68000    1.1480938   -7.0063616    23.696402  0.029039708  0.035270677            1 
   69000    1.1609462   -6.9923778    24.083654  0.029086538  0.035168006            2 
   70000    1.1535312   -7.0111127    24.494049  0.029159582   0.03507351            2 
   71000    1.1467418   -6.9802368     24.91039  0.029237546  0.034990396            1 
   72000    1.1470766   -7.0439096    25.146832   0.02910513  0.034914039            2 
   73000    1.1643264   -7.0382164    25.439705  0.029040759  0.034814984            1 
   74000    1.1275559   -7.0333377    26.003185  0.029282866  0.034728758            1 
   75000     1.189404   -7.0031787    26.410616  0.029345128  0.034651918            2 
   76000    1.1496816   -7.0270039    26.888412  0.029482908  0.034580967            1 
   77000     1.168798   -7.0330866      27.2732   0.02951645   0.03452001            1 
   78000    1.1431576   -7.0420175    27.643721   0.02953389  0.034462309            1 
   79000    1.1117649   -7.0347541    28.155443  0.029699834  0.034420697            1 
   80000    1.1554773   -7.0375753    28.386321  0.029569084  0.034372065            3 
   81000     1.159361      -7.0504    28.870744  0.029702411  0.034324016            1 
   82000    1.1397295   -7.0481192      29.1971  0.029671849  0.034280804            2 
   83000    1.1373454   -7.0507819     29.52645   0.02964503  0.034237901            3 
   84000    1.1511612   -7.0688758    29.980053  0.029742116  0.034186988            1 
   85000    1.1508102   -7.0811035    30.332968  0.029738204  0.034140992            3 
   86000    1.1565673   -7.0709529    30.727742  0.029774943  0.034092671            3 
   87000    1.1338539   -7.0709286     31.03266   0.02972477  0.034045843            1 
   88000    1.1380234   -7.0644445    31.351034  0.029688479   0.03399541            2 
   89000    1.1115518   -7.1109714    31.638877  0.029624417  0.033938253            5 
   90000    1.1113528   -7.1110302    31.949374  0.029582754  0.033874138            2 
   91000    1.1326606   -7.1094379    32.196909  0.029484348  0.033802413            1 
   92000    1.1268919   -7.0419548    32.583891  0.029514394  0.033727745            1 
   93000    1.1070565   -7.0776301    32.723358  0.029322005  0.033649929            1 
   94000    1.1025135    -7.090193    32.961878  0.029221523  0.033565781            1 
   95000    1.1058579   -7.0875723    33.289487  0.029201304   0.03347943            1 
   96000    1.1030936   -7.1471224    33.513119  0.029091249  0.033383572            2 
   97000    1.1096045   -7.1133383    33.865347  0.029093941  0.033297607            3 
   98000    1.1155529   -7.1242155    34.326717  0.029189385  0.033218879            3 
   99000    1.1177182   -7.1056128    34.809251  0.029300717  0.033145507            1 
  100000    1.1036883   -7.0881445    35.061898  0.029218248  0.033073199            3 
  101000    1.1022642   -7.0885105    35.475202  0.029269968  0.032999906            1 
  102000    1.1305198   -7.1000269    35.885382  0.029318122   0.03293456            2 
  103000    1.1298253   -7.1295783    36.178035  0.029270254  0.032873271            1 
  104000    1.0954848   -7.1303719    36.419626  0.029182393  0.032807792            2 
  105000    1.1148366   -7.0754388    36.633541  0.029074239  0.032736722            2 
  106000    1.1328494    -7.092517    36.885001  0.028997642  0.032663031            4 
  107000    1.0736893   -7.1491173     37.30742  0.029055623  0.032592391            2 
  108000    1.0771568    -7.176098    37.616868  0.029025361  0.032520744            2 
  109000     1.125959   -7.1327653    37.896537  0.028972888  0.032451008            1 
  110000    1.1100096   -7.1210461    38.318253  0.029028979  0.032381539            1 
  111000    1.0709059   -7.1175361    38.755188  0.029095486  0.032312183            1 
  112000    1.0946392   -7.1256072    38.907131  0.028948758  0.032240767            2 
  113000    1.0829984   -7.1422997    39.298745  0.028981375  0.032172186            2 
  114000    1.0912804   -7.1463365    39.519347  0.028888411  0.032103579            2 
  115000    1.0647402   -7.1818502    39.815726  0.028851975  0.032034809            2 
  116000     1.084281   -7.1444637    40.238004  0.028906612  0.031966797            2 
  117000     1.070842   -7.2017625    40.486026  0.028836201  0.031902227            1 
  118000    1.0631462   -7.1831151    40.772727  0.028794298  0.031836382            2 
  119000    1.0817452   -7.1665051    41.091287  0.028775411  0.031771829            1 
  120000    1.0792302   -7.2053426    41.258911  0.028652022  0.031706201            1 
  121000    1.0812128   -7.1828238    41.571615  0.028630589  0.031637917            1 
  122000    1.0709212   -7.1787184     41.75627  0.028522042  0.031568401            1 
  123000     1.079651   -7.1946331    42.255845  0.028628621  0.031497885            1 
  124000     1.079554   -7.2162704    42.365677  0.028471557  0.031430658            2 
  125000    1.0699537   -7.2341264    42.625505  0.028417003  0.031356933            2 
  126000    1.0562593   -7.2292217    42.746882  0.028271747  0.031283609            1 
  127000      1.09276   -7.1635936    43.069567  0.028260871  0.031205933            2 
  128000    1.0562261   -7.2233268    43.309879  0.028196536  0.031129174            2 
  129000    1.0509798   -7.2282345    43.489858  0.028094223  0.031048794            1 
  130000    1.0385246   -7.2274745    43.757981  0.028049988  0.030966494            1 
  131000    1.1021369    -7.233366     43.86684  0.027905114  0.030886303            2 
  132000    1.0570921   -7.1741717    44.211799  0.027911489  0.030804333            2 
  133000    1.0909678   -7.2188055    44.439981    0.0278446  0.030721194            2 
  134000    1.0557408   -7.2323731    44.644045  0.027763709  0.030639507            3 
  135000    1.0595574   -7.2378837    44.856988  0.027689499    0.0305578            2 
  136000    1.0624778   -7.2397006    45.163092  0.027673463  0.030477631            2 
  137000    1.0308041   -7.2278254    45.491756  0.027671384  0.030392968            2 
  138000    1.0420951   -7.2411753    45.734558  0.027617487  0.030310383            1 
  139000    1.0285474   -7.2547237    45.920228  0.027530113  0.030229324            1 
  140000    1.0661075   -7.2628195    46.179506  0.027487801  0.030147279            1 
  141000    1.0436212   -7.2358137    46.540906  0.027506446  0.030067292            2 
  142000     1.036945   -7.2721715    46.619874  0.027359081  0.029985412            2 
  143000    1.0493099   -7.2844832    46.510019   0.02710374  0.029900626            1 
  144000    1.0453429   -7.2967676    46.869539  0.027123576  0.029813039            3 
  145000     1.043173   -7.2835698    47.099924  0.027068922  0.029725462            2 
  146000    1.0370364   -7.2222731    47.414588  0.027063121  0.029637625            1 
  147000    1.0190043   -7.2572305    47.613311  0.026991673  0.029550928            3 
  148000    1.0228646   -7.2985594    47.784858  0.026905888    0.0294662            2 
  149000    1.0258817   -7.2781619    48.121785   0.02691375  0.029380522            2 
  150000    1.0137004   -7.3203715    48.475035  0.026930575  0.029300072            3 
  151000    1.0445119   -7.2909149    48.727659  0.026891644  0.029220193            2 
  152000    1.0230629   -7.3218337    48.953829  0.026838722  0.029141681            1 
  153000    1.0142028   -7.2953733    49.126606  0.026757411  0.029065241            9 
  154000    1.0316507   -7.2456577    49.711858  0.026900356   0.02899034            2 
  155000    1.0334333   -7.3111404    49.647326  0.026692111  0.028914059            1 
  156000    1.0381621   -7.3078082    49.735777  0.026568257  0.028835262            3 
  157000    1.0217576   -7.3032215    50.053357  0.026567599  0.028755914            2 
  158000    1.0255351   -7.2958988    50.206271  0.026480101  0.028677461            2 
  159000   0.99952953   -7.3482827    50.405379  0.026417913  0.028597225            1 
  160000    1.0197987   -7.3596619    50.555319  0.026330895  0.028518578            2 
  161000    1.0127667   -7.3918713    50.714652   0.02624982  0.028437376            1 
  162000   0.99322154   -7.3799849    51.211983  0.026343612  0.028356647            1 
  163000     1.016335   -7.3348779    51.228653  0.026190518  0.028279168            1 
  164000    1.0033473   -7.3583766    51.483686   0.02616041  0.028200733            4 
  165000    1.0215435    -7.325365    51.946264  0.026235487  0.028125033            2 
  166000    1.0093537   -7.3708578    51.958096  0.026083381  0.028050231            2 
  167000    1.0163188   -7.3638229    52.169764  0.026032816  0.027975101            2 
  168000    1.0002885   -7.3675228    52.344032  0.025964301  0.027898618            2 
  169000   0.99675788   -7.3672701     52.50518  0.025890128  0.027822019            1 
  170000   0.97385001   -7.3496761     52.71533  0.025840848  0.027744015            1 
  171000   0.99266059   -7.3773029    52.670734  0.025667999  0.027665381            2 
  172000    1.0041254   -7.3880443     52.89652  0.025628159  0.027585889            3 
  173000   0.99501239   -7.3878608     53.09034  0.025573382   0.02750671            1 
  174000    1.0105593   -7.3824866    53.262639  0.025508927  0.027425674            3 
  175000    1.0112875   -7.3943378     53.49792    0.0254752  0.027345739            2 
  176000   0.99588495   -7.3614625    53.616256  0.025386485  0.027267574            2 
  177000    1.0086628   -7.3418851    54.003941  0.025425584  0.027190235            2 
  178000    1.0031691   -7.3692325    53.874869  0.025222317  0.027111686            1 
  179000   0.99149075   -7.3794292    54.021068  0.025149473   0.02703131            2 
  180000   0.97215412   -7.3879604    54.055255  0.025025581  0.026950917            2 
  181000   0.99547873   -7.3934437    54.307632  0.025003514  0.026869392            2 
  182000   0.97117655   -7.4229147    54.535917  0.024970658  0.026788708            2 
  183000    0.9960964   -7.4210432    54.742104  0.024928098  0.026708798            1 
  184000   0.96906632   -7.3902611    55.117125  0.024962466   0.02663092            1 
  185000    1.0046857   -7.4446402    55.155187  0.024844679  0.026553601            5 
  186000   0.97556173    -7.394241    55.462165   0.02484864  0.026477046            2 
  187000   0.98247257   -7.4463415    55.536151   0.02474873  0.026402057            2 
  188000   0.94246077   -7.4401046    55.982038  0.024814733  0.026327878            4 
  189000   0.95056876   -7.4143566    56.045224  0.024711298  0.026254552            2 
  190000   0.95917673   -7.4420707    56.252963  0.024672352  0.026182122            2 
  191000   0.95860595   -7.4154529    56.366178  0.024592573  0.026109356            2 
  192000   0.93801215   -7.4421652    56.453119  0.024502222  0.026035553            2 
  193000   0.96331001   -7.4338842    56.743251   0.02450054   0.02596412            1 
  194000   0.95748375    -7.446565    56.930121  0.024454519  0.025891602            2 
  195000   0.95553211   -7.4633709    57.157185  0.024426147  0.025819918            2 
  196000   0.93992786    -7.461639     57.26221  0.024346178  0.025746989            1 
  197000   0.96398391    -7.421312    57.483876   0.02431636   0.02567507            1 
  198000   0.96024755   -7.4554088    57.574837  0.024231834  0.025604345            2 
  199000   0.94750152    -7.468884    57.826898  0.024215619    0.0255345            3 
  200000   0.92110689    -7.475308    57.800593   0.02408358  0.025464473            1 
  201000   0.93948729   -7.4857752    58.105714  0.024090263  0.025394705            1 
  202000    0.9541467   -7.4857847    58.342799  0.024068811  0.025325309            3 
  203000   0.95598114   -7.4902031    58.339052  0.023948708  0.025255996            3 
  204000   0.95509725   -7.5056583    58.480507  0.023889096  0.025186614            2 
  205000   0.92309318    -7.478472    58.760714  0.023886469  0.025117374            2 
  206000   0.92960918   -7.5012299    58.982199  0.023860113  0.025049376            2 
  207000   0.94098482   -7.5033594    59.119067  0.023799946  0.024983348            2 
  208000   0.94787549   -7.5356842    59.399939  0.023798052  0.024915428            2 
  209000   0.93235828   -7.5111289    59.361012  0.023668665  0.024846254            2 
  210000   0.94084379   -7.5052764    59.537031  0.023625806  0.024778481            2 
  211000   0.93746908   -7.5386278    59.949106  0.023676582  0.024712668            1 
  212000   0.94719414   -7.5241112    60.145505  0.023642101   0.02464798            2 
  213000   0.90902104   -7.5175279    60.357757  0.023614146  0.024583175            4 
  214000   0.91002362    -7.554153    60.556399  0.023581152  0.024519511            3 
  215000   0.93424115   -7.5460624     60.73707    0.0235415  0.024456563            3 
  216000   0.93823565   -7.5571225    60.782765  0.023450141  0.024395166            5 
  217000   0.91205289   -7.5145291    61.227526  0.023512875  0.024333413            4 
  218000   0.92034184   -7.5343301    61.094986  0.023354352  0.024271948            2 
  219000   0.91056138   -7.5254175    61.499445  0.023401615  0.024210838            2 
  220000   0.92621958   -7.5445277     61.45608  0.023278818  0.024150176            4 
  221000   0.89961705   -7.5525773     61.52239  0.023198488  0.024088553            3 
  222000   0.89674681   -7.5815998    61.762118  0.023183978  0.024027601            2 
  223000   0.91761926   -7.5590793    61.902773  0.023132576  0.023966574            4 
  224000   0.90496665   -7.5364737     61.99568  0.023063869  0.023904832            1 
  225000   0.89959647    -7.570336    61.925511  0.022935374  0.023841928            3 
  226000   0.89724395   -7.5818761    61.992296  0.022858516  0.023778096            4 
  227000   0.89782896   -7.5597561    62.339748   0.02288537  0.023713578            2 
  228000   0.90482459   -7.5830416    62.090342  0.022693838  0.023650209            3 
  229000   0.90962638   -7.5807484    62.410807  0.022711356  0.023585803            2 
  230000   0.89596517   -7.5864988    62.597446  0.022680234  0.023522153            1 
  231000   0.88730784    -7.583402    62.660029  0.022604628  0.023458701            1 
  232000   0.91780656   -7.5671895    62.550738  0.022467937   0.02339495            1 
  233000   0.89746222    -7.646062    62.773801  0.022451288  0.023330934            5 
  234000   0.90020296    -7.589151    62.927504   0.02241008  0.023266642            1 
  235000    0.8904777   -7.6020847    63.118365  0.022382399  0.023202316            1 
  236000   0.88890173     -7.60637    63.257156  0.022336566  0.023138652            2 
  237000   0.89801179   -7.6033763    63.491469  0.022324708   0.02307518            2 
  238000   0.88823623   -7.5894134    63.358914  0.022184494  0.023012075            1 
  239000   0.87938519   -7.6171999    63.683396   0.02220481  0.022948983            2 
  240000   0.86970152   -7.6367472    63.680142   0.02211116  0.022886214            3 
  241000   0.88389722   -7.6220185    63.713864  0.022031073  0.022822669            3 
  242000   0.89292542   -7.6014933    63.876309  0.021995974  0.022759387            2 
  243000   0.89396901   -7.6426782    63.845811  0.021894997  0.022695377            1 
  244000   0.85910834   -7.6227185    63.991531  0.021855031  0.022631025            2 
  245000   0.88750207   -7.6521211     63.95116  0.021752095  0.022566545            4 
  246000   0.86525279   -7.6432798    64.105806  0.021716059  0.022502979            1 
  247000    0.8929124   -7.6127051    64.408077   0.02173012  0.022440296            2 
  248000   0.88628519   -7.6556956    64.557576  0.021692734  0.022377708            2 
  249000   0.86118304   -7.6308215    64.607339  0.021622269  0.022315713            2 
  250000   0.87165036   -7.6218371    64.608943  0.021536314  0.022253319            2 
  251000   0.85206738   -7.6470073    64.670407  0.021470919  0.022190519            2 
  252000   0.85662133   -7.6170844    64.828571  0.021438019  0.022126599            3 
  253000   0.86395657   -7.6942815    64.957763  0.021395838  0.022062872            3 
  254000   0.86697296   -7.6983919    64.883435  0.021287216  0.021999221            2 
  255000   0.86682402   -7.6758635    65.005759  0.021243712    0.0219356            2 
  256000   0.85976805   -7.7087243    65.102612  0.021192257  0.021871952            2 
  257000   0.86969754   -7.6952395    65.190303   0.02113823  0.021808457            3 
  258000   0.85265765   -7.7124789     65.17797  0.021052316  0.021744512            2 
  259000     0.861978   -7.6857094    65.317792  0.021016021  0.021681178            1 
  260000   0.86541225   -7.7200745    65.335956  0.020941011  0.021618256            3 
  261000     0.851788   -7.6974137     65.54185  0.020926517   0.02155504            3 
  262000    0.8462984   -7.6861852    65.722933  0.020904241  0.021492274            1 
  263000    0.8338602   -7.6892632    65.773321  0.020840723  0.021430997            3 
  264000   0.84376645    -7.692423    65.829313  0.020779455  0.021368828            3 
  265000     0.856557   -7.7450648    65.672405    0.0206517  0.021306424            4 
  266000   0.85452926   -7.7122762    65.700666  0.020582915  0.021243232            2 
  267000   0.87728975   -7.7316039     65.74402  0.020519357   0.02118031            2 
  268000   0.83795314   -7.6959215    65.997271  0.020521539   0.02111758            5 
  269000   0.83966279   -7.7009895    65.980258  0.020439981  0.021054544            1 
  270000   0.84724827   -7.7354987    66.234374  0.020442708  0.020991519            3 
  271000   0.84069492   -7.7144132    66.088265  0.020322345  0.020928483            2 
  272000   0.81843433   -7.7039179     66.34146  0.020325202  0.020865639            2 
  273000   0.82137521   -7.7468877    66.361438  0.020256849  0.020803622            2 
  274000   0.83273312   -7.7578554    66.585812  0.020251159  0.020741918            2 
  275000   0.82703599   -7.7372054     66.53482  0.020162067  0.020680527            3 
  276000   0.84869228   -7.7605652     66.78816  0.020165507  0.020618971            2 
  277000   0.83175897    -7.778701    66.726434  0.020074138  0.020557643            4 
  278000   0.82872796   -7.7607248    66.755291  0.020010579  0.020495908            4 
  279000   0.80378918    -7.771116    66.805255   0.01995378  0.020434363            1 
  280000   0.80965271   -7.7371013     66.84164  0.019893345  0.020373304            2 
  281000   0.82169884   -7.7764501    66.986746  0.019865583  0.020312457            2 
  282000   0.81740467   -7.7806823    67.106159  0.019830425  0.020252317            2 
  283000   0.81135469   -7.7836933    67.184403  0.019783393  0.020192173            3 
  284000    0.8130948   -7.7850749    67.246014  0.019731812  0.020131849            4 
  285000   0.81851653   -7.7930464    67.185504  0.019644884  0.020071768            4 
  286000    0.8001261   -7.7798895    67.156678  0.019567797  0.020011631            5 
  287000   0.80262254    -7.807762    67.172485  0.019504206  0.019951295            5 
  288000   0.80019651   -7.7974825    67.383681  0.019497593  0.019890628            3 
  289000   0.80339115   -7.7803662    67.194034  0.019375442   0.01983008            5 
  290000   0.81450723   -7.8284078    67.139198  0.019292873  0.019768983            3 
  291000   0.78650443    -7.796966    67.133918  0.019225062  0.019707568            1 
  292000   0.80294836   -7.8148553    67.285873  0.019202589  0.019646015            2 
  293000   0.78918166   -7.8047778    67.284978  0.019136797   0.01958413            3 
  294000    0.7908483   -7.8374452    67.264832  0.019065995  0.019522494            3 
  295000   0.78842512   -7.8215039    67.574875  0.019088948   0.01946125            2 
  296000   0.80414644   -7.8475379    67.427905  0.018983081  0.019400244            3 
  297000   0.80067577    -7.857158    67.500849  0.018939632  0.019338831            5 
  298000   0.80701687   -7.8580306    67.353451  0.018834858  0.019277424            2 
  299000   0.79591618   -7.8394266    67.630002  0.018848942  0.019216745            2 
  300000   0.79050338   -7.8804751    67.518803  0.018755223  0.019156065            3 
  301000   0.78431218    -7.852905    67.732454  0.018752064  0.019095566            4 
  302000   0.79611048   -7.8751571     67.68855  0.018677856  0.019035978            5 
  303000   0.79038422   -7.8809151    67.868626  0.018665739  0.018976355            2 
  304000   0.77238739   -7.8976262    67.921954  0.018618957  0.018916751            3 
  305000   0.77826477    -7.880182    68.030132  0.018587468  0.018857107            3 
  306000   0.77963898   -7.8423249    68.218327  0.018577976  0.018798132            2 
  307000   0.76381519   -7.8588708    68.284181  0.018535337  0.018739579            2 
  308000   0.78391326   -7.8994795    68.166635  0.018443354  0.018680933            2 
  309000   0.76526165   -7.8982537    68.215548  0.018396858  0.018622552            2 
  310000    0.7881191   -7.8927143    68.153919  0.018320946  0.018564416            3 
  311000   0.78015267   -7.9221247    68.183291  0.018269906  0.018506534            5 
  312000   0.77607677   -7.8971138    68.324571  0.018249084   0.01844875            5 
  313000   0.77091616    -7.890374    68.451202  0.018224495   0.01839141            3 
  314000   0.77060356   -7.9081525    68.660328  0.018221955  0.018334288            1 
  315000   0.75951957   -7.8998438    68.422806  0.018101271  0.018277204            3 
  316000   0.76525407   -7.8957446    68.646425   0.01810296  0.018220656            2 
  317000   0.74535541   -7.9035655     68.50568  0.018008854   0.01816423            6 
  318000    0.7832495   -7.9534842    68.603721  0.017977914  0.018108136            2 
  319000   0.77710279   -7.9368323     68.61636  0.017924859  0.018051797            2 
  320000    0.7689543   -7.9160122    68.767289  0.017908148   0.01799581            3 
  321000   0.75530168   -7.8948746    68.683585  0.017830629  0.017939752            5 
  322000   0.74672678   -7.9243987    68.748222  0.017791983  0.017883683            1 
  323000   0.75429868    -7.951464    68.828152  0.017757521  0.017828189            2 
  324000   0.74611886   -7.9498849    68.947409  0.017733387  0.017772869            3 
  325000   0.74502737   -7.9348374    69.091612  0.017715798  0.017717574            3 
  326000   0.73448584   -7.9596026    68.894267  0.017611009  0.017662045            3 
  327000   0.74346797   -7.9787575    68.901847  0.017559084  0.017606606            1 
  328000   0.74385881   -7.9722462    68.806225  0.017481256  0.017550915            2 
  329000   0.73595576   -7.9677793    68.912492  0.017455038  0.017495592            3 
  330000   0.74559921   -7.9922959    68.956264  0.017413198   0.01744041            6 
  331000   0.74686912   -8.0125842      68.8964  0.017345519  0.017385093            4 
  332000   0.74430098   -7.9895261    69.035648  0.017328225  0.017329949            1 
  333000   0.72508291   -7.9826684    69.088329  0.017289372   0.01727547            1 
  334000    0.7226735   -7.9630573    69.110474  0.017243132  0.017221237            6 
  335000   0.73836923   -8.0055868    69.098052   0.01718857  0.017166858            2 
  336000   0.72176043   -8.0073082    69.034819  0.017121731  0.017112458            2 
  337000    0.7375831   -8.0216119    69.049674  0.017074598  0.017058007            2 
  338000   0.72087523   -8.0110363    68.968044  0.017003955  0.017003457            2 
  339000   0.73329771   -8.0301893    69.104423  0.016987321  0.016949142            5 
  340000   0.73609068   -8.0128536    69.168765  0.016953129  0.016894958            7 
  341000    0.7314214    -8.016892    69.020304  0.016867132  0.016841101            2 
  342000   0.71737163    -8.023954    69.183679  0.016857622  0.016787613            3 
  343000   0.73391022    -8.035762    69.204982   0.01681365  0.016734463            3 
  344000   0.72368231   -8.0398438    69.307668  0.016789648   0.01668137            3 
  345000   0.70335502   -7.9980727    69.448582   0.01677502  0.016628713            2 
  346000   0.71841478   -8.0727447    69.147765  0.016654086  0.016575984            3 
  347000   0.71821786   -8.0520151    69.531722    0.0166983  0.016523275            3 
  348000   0.72823176   -8.0411511    69.396003  0.016617817  0.016470753            4 
  349000   0.70363615   -8.0357831    69.460201   0.01658553  0.016418301            2 
  350000   0.69559338   -8.0491528    69.420964  0.016528801  0.016365955            2 
  351000    0.7128607   -8.0472528    69.358541   0.01646689  0.016313615            2 
  352000   0.70536311   -8.0581911    69.436787  0.016438633   0.01626137            3 
  353000   0.70274266   -8.0511939    69.340995  0.016369451  0.016209301            1 
  354000   0.71929548   -8.0408945    69.369436  0.016329905  0.016157264            1 
  355000   0.70795618   -8.0749544    69.454144   0.01630379  0.016105347            2 
  356000   0.69422496   -8.0726267    69.442344   0.01625523  0.016053487            2 
  357000   0.70444046   -8.0726403    69.468124  0.016215715  0.016001702            2 
  358000   0.69617215   -8.0908516    69.250231    0.0161197  0.015950092            3 
  359000   0.69294004   -8.0956238    69.388464  0.016106886  0.015898591            3 
  360000   0.70355833   -8.0913535    69.356093  0.016054651  0.015847365            3 
  361000    0.6950286   -8.0948576    69.453852  0.016032745  0.015796115            3 
  362000   0.69635314   -8.0926335    69.401317  0.015976362  0.015745225            2 
  363000   0.68790401   -8.0851905      69.5317  0.015962282  0.015694112            2 
  364000   0.69723706   -8.0904175    69.345024  0.015875692  0.015643186            1 
  365000   0.68924772   -8.0919306    69.415918  0.015848383   0.01559255            4 
  366000   0.68271951   -8.1210682    69.321323  0.015783543  0.015541915            3 
  367000   0.68776868    -8.108291     69.19482  0.015711812  0.015491378            3 
  368000   0.66945822   -8.1186022    69.436074  0.015723749  0.015440833            2 
  369000   0.68978418   -8.1348018    69.357573  0.015663408  0.015390392            1 
  370000   0.68669739    -8.096369    69.505286  0.015654344  0.015340186            3 
  371000   0.67736325   -8.1404761    69.480323  0.015606542  0.015290212            3 
  372000   0.67919569   -8.1351946    69.337249  0.015532538  0.015239866            1 
  373000   0.65575035   -8.1561334    69.368538  0.015497886  0.015189875            2 
  374000   0.66624173   -8.1477325    69.414125  0.015466605   0.01514001            2 
  375000   0.66765179    -8.154992     69.27955  0.015395455  0.015090244            1 
  376000   0.67420614   -8.1684564    69.205546  0.015338109   0.01504026            2 
  377000   0.66380412   -8.1572158    69.312713  0.015321112  0.014990604            3 
  378000   0.66438755   -8.1483382    69.198404   0.01525538   0.01494103            2 
  379000   0.66907057   -8.1334226    69.399185  0.015259275  0.014891579            4 
  380000   0.66810071   -8.1658236    69.350677  0.015208482  0.014842468            1 
  381000   0.67252022   -8.1672469     69.31827  0.015161476  0.014793338            2 
  382000   0.68115629   -8.1510002    69.247984  0.015106454  0.014744346            1 
  383000   0.66826292   -8.1675772    69.300723  0.015078486  0.014695374            2 
  384000   0.64428402   -8.1606457    69.192941  0.015015829  0.014646545            1 
  385000   0.66057451   -8.1908965    69.244438  0.014987974  0.014597988            2 
  386000   0.63792738   -8.1963001    69.376409  0.014977636  0.014549489            3 
  387000   0.66235774   -8.1935285    69.311696  0.014924999  0.014501269            2 
  388000    0.6681867   -8.1974407     69.28587  0.014880986  0.014453086            6 
  389000   0.65006235   -8.2078431    69.402371  0.014867689  0.014405082            1 
  390000   0.64155416    -8.210869    69.313743  0.014810629  0.014357269            2 
  391000   0.64995865   -8.2257321    69.355216  0.014781589  0.014309694            2 
  392000   0.63906429   -8.2445234    69.301365  0.014732433  0.014262253            1 
  393000    0.6360998   -8.2141872    69.530075  0.014743443  0.014214929            2 
  394000   0.64084896   -8.2331825    69.083073  0.014611479  0.014167733            2 
  395000   0.64297781   -8.2144303    69.320214  0.014624518  0.014120513            3 
  396000   0.64066027   -8.2379005    69.313338   0.01458614  0.014073536            3 
  397000   0.63157825   -8.2172247    69.287838  0.014544046  0.014026802            3 
  398000   0.64669297   -8.2470462    69.252121  0.014500025  0.013980207            3 
  399000    0.6376177   -8.2229503    69.305918   0.01447492  0.013933861            2 
  400000   0.62620001   -8.2246956    69.350224  0.014447963  0.013887641            2 
  401000   0.62620678   -8.2568904    69.175033  0.014375526  0.013841442            3 
  402000   0.63516878   -8.2556834    69.208259  0.014346654  0.013795395            5 
  403000   0.62091399   -8.2108519     69.28958   0.01432787  0.013749605            2 
  404000   0.61420067   -8.2522458    69.387571  0.014312618  0.013703904            5 
  405000   0.60777004   -8.2695095    69.183503  0.014235289  0.013658273            4 
  406000   0.62266408   -8.2738188    69.088139  0.014180653  0.013612674            2 
  407000   0.62206109   -8.2552038    69.181557  0.014164938  0.013567343            3 
  408000   0.61619436   -8.2537566    69.118895  0.014117421  0.013522286            3 
  409000   0.60914302   -8.2847086    69.328827  0.014125678  0.013477319            3 
  410000   0.61545572   -8.2591619    69.381686  0.014101969  0.013432621            4 
  411000   0.61587155   -8.2868413    69.110505  0.014012673  0.013388072            4 
  412000   0.60412132   -8.2694675    69.294993  0.014015978  0.013343654            3 
  413000   0.58046599   -8.2845065    69.295011  0.013982044  0.013299425            3 
  414000   0.62551079   -8.2926802    69.230048  0.013935195  0.013255196            4 
  415000   0.59777535   -8.3018177    69.265156  0.013908666  0.013211224            3 
  416000    0.6110725   -8.2690167    69.291197  0.013880448  0.013167444            3 
  417000   0.59401952   -8.2893925    69.255849  0.013840098  0.013123831            1 
  418000    0.5922173   -8.2844014    69.151385  0.013786161  0.013080357            3 
  419000    0.6054153    -8.316918    69.153262  0.013753632  0.013036999            6 
  420000   0.58769326   -8.2979802    69.294327  0.013748874  0.012993827            1 
  421000   0.60388501   -8.3243811    69.168651   0.01369134   0.01295073            2 
  422000   0.59495118   -8.3152861    69.339692  0.013692672  0.012907851            1 
  423000   0.59844874   -8.3066879     69.27485  0.013647528  0.012865099            3 
  424000   0.58787378   -8.3113936    69.288878  0.013618097  0.012822621            3 
  425000   0.59270621   -8.3044994      69.2535  0.013579118  0.012780113            5 
  426000   0.59407168   -8.3104014    69.261128  0.013548734  0.012737909            1 
  427000   0.57569508   -8.3028025    69.139623  0.013493291  0.012695861            2 
  428000   0.58958803   -8.3353198    69.143051  0.013462432  0.012653813            2 
  429000   0.58757607   -8.3390092    69.116306  0.013425856  0.012612039            2 
  430000   0.60169514   -8.3208609    69.245263  0.013419625  0.012570379            1 
  431000   0.57461523   -8.3317927     69.21121  0.013381905  0.012528941            1 
  432000   0.58504873    -8.345944    69.069596   0.01332361  0.012487679            1 
  433000   0.57828017    -8.352674    69.031352   0.01328548  0.012446468            2 
  434000   0.57815153   -8.3578847    69.229063  0.013292831  0.012405372            2 
  435000   0.57094395    -8.351644    69.171427  0.013251231   0.01236447            1 
  436000   0.56834955   -8.3454095     69.24084  0.013234105  0.012323691            1 
  437000   0.56833875   -8.3828033    69.023188  0.013162316  0.012283066            2 
  438000   0.56429137    -8.377307    68.977914  0.013123652  0.012242452            4 
  439000     0.578914    -8.352958    69.100047  0.013116941  0.012201887            2 
  440000   0.56687006   -8.3732785    69.040681  0.013075887  0.012161556            4 
  441000   0.55613243   -8.3656545    69.023558     0.013043  0.012121336            5 
  442000   0.55705943   -8.3898933    69.008238  0.013010603  0.012081323            1 
  443000   0.56819814   -8.3887998    69.001419  0.012979951  0.012041499            2 
  444000   0.56512398   -8.4004769     69.05921  0.012961563  0.012001761            2 
  445000   0.56588136   -8.3984159    68.990098  0.012919494  0.011962192            7 
  446000   0.55396373   -8.4341445    69.085764  0.012908401   0.01192279            2 
  447000   0.55883781    -8.401221    69.044285  0.012871791  0.011883584            3 
  448000   0.54862436   -8.4113362    69.069802  0.012847805  0.011844478            3 
  449000   0.55851702    -8.373772    69.051501  0.012815794  0.011805492            3 
  450000   0.53881689   -8.4060663    69.008252  0.012779306    0.0117667            3 
  451000    0.5417424   -8.4272787    69.000485  0.012749535  0.011727927            3 
  452000   0.55602656   -8.4317244    68.984037  0.012718296  0.011689446            5 
  453000   0.54521296   -8.4166762    68.909934  0.012676588  0.011651087            4 
  454000   0.55003509   -8.4127834    68.994287   0.01266415  0.011612789            2 
  455000   0.53733989   -8.4346174    69.023466   0.01264166  0.011574706            2 
  456000   0.53824218   -8.4264691    68.907611  0.012592765  0.011536684            3 
  457000   0.52888454    -8.416733    69.027705  0.012587109  0.011498917            3 
  458000   0.54487745   -8.4199741    68.987905  0.012552384  0.011461196            2 
  459000   0.53450994   -8.4067205     68.97912  0.012523442  0.011423645            2 
  460000   0.54093497   -8.4242483    68.821936  0.012467742  0.011386266            3 
  461000   0.53399246   -8.4384129    68.826205  0.012441469  0.011348928            2 
  462000   0.52269664   -8.4375225    68.851977  0.012419188  0.011311731            6 
  463000   0.52840994   -8.4500849    68.894113  0.012399948  0.011274719            2 
  464000   0.53563193   -8.4429246    68.869545  0.012368812  0.011237797            3 
  465000   0.51065173   -8.4448314    68.788274  0.012327648  0.011201074            5 
  466000   0.51689128   -8.4270691    68.843981  0.012311155  0.011164406            2 
  467000   0.52036939   -8.4623277    68.893109   0.01229356  0.011127938            4 
  468000   0.52541389   -8.4462261    68.931369  0.012274104  0.011091609            3 
  469000   0.51952372   -8.4507696    68.843416  0.012232306  0.011055513            3 
  470000    0.5147064   -8.4410577    68.764264  0.012192245  0.011019419            4 
  471000   0.51151756   -8.4410606    68.836079  0.012179066  0.010983491            2 
  472000   0.50342686   -8.4528201    68.869139  0.012159099  0.010947719            3 
  473000   0.50989528    -8.470453    68.830786  0.012126636  0.010912097            5 
  474000   0.51125067   -8.4660627    68.900395   0.01211329  0.010876615            4 
  475000   0.50320148   -8.4708276    68.784609  0.012067475  0.010841308            2 
  476000   0.51321818   -8.4752496     68.80189  0.012045149  0.010806098            3 
  477000   0.51057922   -8.4812938    68.805441  0.012020517  0.010771151            3 
  478000   0.50718493   -8.4593983     68.84021  0.012001431  0.010736273            2 
  479000    0.5069533   -8.4774966    68.812722  0.011971594  0.010701614            2 
  480000   0.50974945   -8.4886172    68.716768  0.011929994  0.010667027            2 
  481000   0.50428549   -8.4697184    68.835359  0.011925738  0.010632543            2 
  482000   0.49925528   -8.4965557    68.781267  0.011891644  0.010598264            3 
  483000    0.4933567   -8.4588209    68.853353  0.011879461  0.010564142            2 
  484000   0.48483842   -8.4950341    68.977518  0.011876294  0.010530108            2 
  485000    0.4970493    -8.493324     68.77168   0.01181644  0.010496263            2 
  486000   0.49566423   -8.5132445    68.654789  0.011772083   0.01046249            4 
  487000   0.49350779   -8.5014946    68.811893  0.011774793  0.010428826            2 
  488000   0.48550094   -8.4988317    68.718942  0.011734792  0.010395235            3 
  489000   0.48139767     -8.50305    68.801141  0.011724802  0.010361778            7 
  490000   0.47939854   -8.4980454    68.804937   0.01170152  0.010328565            1 
  491000   0.47318173   -8.5185674    68.710125  0.011661596  0.010295402            4 
  492000     0.478987   -8.5242462     68.71235  0.011638271  0.010262358            1 
  493000   0.47100032   -8.4990204    68.749123  0.011620879  0.010229469            4 
  494000   0.47430004   -8.5205435    68.712798  0.011591228  0.010196761            2 
  495000   0.46799199   -8.5188075    68.688681  0.011563751  0.010164151            6 
  496000   0.47059224   -8.5316574    68.755324  0.011551634  0.010131631            4 
  497000   0.47552114   -8.5068645    68.605534  0.011503275  0.010099179            3 
  498000   0.46753365   -8.5225261    68.591174  0.011477773  0.010066837            5 
  499000   0.47053302   -8.5307484    68.609766  0.011457877  0.010034619            2 
  500000   0.46866946   -8.5376841    68.699132  0.011449855   0.01000253            3 
  501000   0.46479143   -8.5347753    68.607798  0.011411809 0.0099706132            5 
  502000   0.46419319    -8.538294    68.577393  0.011384029 0.0099388514            2 
  503000   0.47715078   -8.5245981    68.678826  0.011378202  0.009907193            3 
  504000   0.46711188   -8.5419602     68.70517  0.011359982 0.0098756927            2 
  505000   0.46449793   -8.5243404      68.5944  0.011319208 0.0098443327            6 
  506000   0.45672323   -8.5395992    68.568128  0.011292511 0.0098130155            3 
  507000   0.46410428   -8.5399045    68.594159  0.011274517 0.0097818466            3 
  508000   0.44382486   -8.5478238    68.636263   0.01125923 0.0097507971            5 
  509000   0.46395302   -8.5625515    68.461802  0.011208547  0.009719876            2 
  510000   0.45371097   -8.5693528    68.605708  0.011210083 0.0096890743            4 
  511000   0.45611631   -8.5737249    68.504284  0.011171605  0.009658359            4 
  512000   0.44790272   -8.5518191    68.436478   0.01113875 0.0096277361            4 
Loop time of 1175.2 on 48 procs for 500000 steps with 4000 atoms

Performance: 73519.474 tau/day, 425.460 timesteps/s
99.4% CPU use with 48 MPI tasks x no OpenMP threads

MPI task timing breakdown:
Section |  min time  |  avg time  |  max time  |%varavg| %total
---------------------------------------------------------------
Pair    | 72.284     | 79.128     | 89.158     |  42.0 |  6.73
Neigh   | 7.718      | 8.1048     | 8.6159     |   7.4 |  0.69
Comm    | 70.32      | 80.832     | 88.203     |  43.7 |  6.88
Output  | 0.83077    | 0.83124    | 0.84047    |   0.1 |  0.07
Modify  | 993.26     | 996.2      | 998.89     |   4.2 | 84.77
Other   |            | 10.1       |            |       |  0.86

Nlocal:        83.3333 ave          89 max          78 min
Histogram: 2 5 11 3 6 5 5 3 1 7
Nghost:        2028.38 ave        2054 max        2005 min
Histogram: 2 3 5 5 11 6 12 2 1 1
Neighs:        13145.7 ave       14341 max       12041 min
Histogram: 3 10 4 4 3 4 7 5 3 5
FullNghs:      26291.3 ave       28359 max       24410 min
Histogram: 1 5 9 7 6 4 6 3 2 5

Total # of neighbors = 1261982
Ave neighs/atom = 315.49550
Neighbor list builds = 26788
Dangerous builds = 0

#clear
#
#next RN
#
#jump SELF
Total wall time: 0:19:38
