
units lj                  # Use reduced LJ style units
atom_style atomic         # Uncharged point particles
atom_modify map hash      # Needed for indexing of clusters etc
                          # Used to be able to find where atoms are in relation to each other.

lattice fcc 1.0 spacing 1 1 1
Lattice spacing in x,y,z = 1.5874011 1.5874011 1.5874011
region box block 0 10 0 10 0 10 units lattice
create_box 2 box
Created orthogonal box = (0.0000000 0.0000000 0.0000000) to (15.874011 15.874011 15.874011)
  3 by 4 by 4 MPI processor grid
create_atoms 1 box
Created 4000 atoms
  using lattice units in orthogonal box = (0.0000000 0.0000000 0.0000000) to (15.874011 15.874011 15.874011)
  create_atoms CPU = 0.003 seconds
set type 1 type/fraction 2 0.34 78393
Setting atom values ...
  1376 settings made for type/fraction
mass 1 1.0
mass 2 1.0
pair_style lj/cut  3.5
pair_modify tail  yes
pair_coeff 1  1  1.0  1.0   # Intearaction between 1 and 1 set with epsilon = 1 and sigma = 1
pair_coeff 1  2  1.5  0.8
pair_coeff 2  2  0.5  0.88

write_data data.0
System init for write_data ...
Neighbor list info ...
  update every 1 steps, delay 10 steps, check yes
  max neighbors/atom: 2000, page size: 100000
  master list distance cutoff = 3.8
  ghost atom cutoff = 3.8
  binsize = 1.9, bins = 9 9 9
  1 neighbor lists, perpetual/occasional/extra = 1 0 0
  (1) pair lj/cut, perpetual
      attributes: half, newton on
      pair build: half/bin/atomonly/newton
      stencil: half/bin/3d
      bin: standard
WARNING: Not all mixed pair coeffs generated from mixing. Use write_data with 'pair ij' option to store all pair coeffs. (../write_data.cpp:312)


#############################
#   M E L T   S Y S T E M   #
#############################

velocity all create 2.4 3143649 mom yes dist gaussian # Assign velocities
                                                    # Temperature 2.4, random number seed, zero linear momentum
                                                                                # Gaussian distribution

timestep 0.002   # simulation timestep
thermo 1000       # output thermodynamic data every 1000 steps bf 100

# Define a fix  in this case with index 1 applied to all
# particles in the simulation. This fix is for simulations
# in the anisotropic NPT ensemble. Note that we use the MTK
# correction.
fix 1 all npt temp 2.4 2.4 0.1 iso 5.68 5.68 0.5 mtk yes tchain 5 pchain 5 # Use NPT ensemble
                                                                         # Set temperature and pressure and damping
                                                                         # Numbers of thermostats in chain and in barostat
run 10000          # run for 10000 steps
Per MPI rank memory allocation (min/avg/max) = 3.642 | 3.644 | 3.648 Mbytes
Step Temp E_pair E_mol TotEng Press Volume 
       0          2.4   -6.2108987            0   -2.6117987   -4.0679274         4000 
    1000     2.437541   -5.0269977            0   -1.3716003    5.6434182    4045.9817 
    2000    2.3743167   -5.1000175            0   -1.5394327    5.7358029    4000.3313 
    3000    2.4117449   -5.0078282            0   -1.3911153     5.798293    4046.2945 
    4000    2.3971429   -5.0044574            0    -1.409642    5.8621826    4037.4338 
    5000    2.4033241   -5.0070239            0    -1.402939    5.6626843    4052.6698 
    6000     2.415157    -4.986369            0   -1.3645392    5.6907943    4058.2378 
    7000    2.3748412   -5.0568343            0   -1.4954631    5.7500312    4015.4727 
    8000    2.3854323   -5.0362341            0   -1.4589802      5.72428    4030.9727 
    9000    2.3930971   -4.9546212            0    -1.365873     5.794402    4059.0877 
   10000     2.425443   -5.0339726            0   -1.3967177     5.592857    4048.0224 
Loop time of 2.49793 on 48 procs for 10000 steps with 4000 atoms

Performance: 691772.622 tau/day, 4003.314 timesteps/s
99.6% CPU use with 48 MPI tasks x no OpenMP threads

MPI task timing breakdown:
Section |  min time  |  avg time  |  max time  |%varavg| %total
---------------------------------------------------------------
Pair    | 1.0574     | 1.144      | 1.2943     |   4.4 | 45.80
Neigh   | 0.19982    | 0.21241    | 0.24518    |   1.6 |  8.50
Comm    | 0.70769    | 0.87114    | 0.96376    |   6.1 | 34.87
Output  | 0.00024476 | 0.00024873 | 0.00031788 |   0.0 |  0.01
Modify  | 0.21681    | 0.2547     | 0.34228    |   7.3 | 10.20
Other   |            | 0.01544    |            |       |  0.62

Nlocal:        83.3333 ave          91 max          75 min
Histogram: 1 7 2 7 4 8 5 5 7 2
Nghost:        1630.42 ave        1656 max        1595 min
Histogram: 1 0 2 6 4 10 14 8 1 2
Neighs:        9436.54 ave       10595 max        8503 min
Histogram: 4 4 6 6 8 6 7 4 1 2

Total # of neighbors = 452954
Ave neighs/atom = 113.23850
Neighbor list builds = 899
Dangerous builds = 173

# Equilibrate just above the melting temperature to avoid step fn in T

fix 1 all npt temp 1.25 1.25 0.1 iso 5.68 5.68 0.5 mtk yes tchain 5 pchain 5
run 2000
Per MPI rank memory allocation (min/avg/max) = 3.643 | 3.645 | 3.649 Mbytes
Step Temp E_pair E_mol TotEng Press Volume 
   10000     2.425443   -5.0339726            0   -1.3967177     5.592857    4048.0224 
   11000    1.2363536   -6.9323067            0   -5.0782399    5.4612806    3248.9103 
   12000    1.2467843    -6.993187            0   -5.1234782    5.4410137    3237.0251 
Loop time of 0.585831 on 48 procs for 2000 steps with 4000 atoms

Performance: 589930.959 tau/day, 3413.952 timesteps/s
99.6% CPU use with 48 MPI tasks x no OpenMP threads

MPI task timing breakdown:
Section |  min time  |  avg time  |  max time  |%varavg| %total
---------------------------------------------------------------
Pair    | 0.2577     | 0.28008    | 0.31058    |   2.3 | 47.81
Neigh   | 0.037519   | 0.040429   | 0.042693   |   0.6 |  6.90
Comm    | 0.18202    | 0.21496    | 0.24226    |   2.9 | 36.69
Output  | 5.505e-05  | 5.6057e-05 | 6.9762e-05 |   0.0 |  0.01
Modify  | 0.04194    | 0.045508   | 0.051777   |   1.1 |  7.77
Other   |            | 0.004805   |            |       |  0.82

Nlocal:        83.3333 ave          92 max          74 min
Histogram: 1 3 5 5 3 14 7 5 2 3
Nghost:        1889.48 ave        1920 max        1864 min
Histogram: 2 5 4 6 10 11 4 2 3 1
Neighs:        11809.5 ave       13502 max       10106 min
Histogram: 1 4 5 4 8 10 10 1 3 2

Total # of neighbors = 566858
Ave neighs/atom = 141.71450
Neighbor list builds = 143
Dangerous builds = 11

#############################
# L I N E A R  Q U E N C H  #
#############################

# Define solid atoms. This closely follows ten Wolde  Ruiz-Montero and Frenkel  Faraday Discuss  1996  104  93-110
# Compute components of the per-atom q6 vector
compute q6 all orientorder/atom degrees 1 6 components 6 nnn NULL cutoff 1.3 # compute the Q6 parameter.
                                                                             # Use all neighbours within 1.3 unit cell.

# get number of connections
compute coord_number all coord/atom orientorder q6 0.5

# An atom is solid if it has 8 or more connections (of a possible 14)
variable is_solid atom c_coord_number>=8
group solid dynamic all var is_solid    # Must be dynamic to update
dynamic group solid defined

# do clustering
compute cluster solid cluster/atom 1.3 # Create a cluster where all atoms within are solid and max 1.3 units from another member

# define chunks one chunk per cluster
compute clus_chunks solid chunk/atom c_cluster nchunk every compress yes  # Says which atoms are in which chunk

# count the size of each chunk
compute size_chunks solid property/chunk clus_chunks count


# Find the maximum entry in the vector of chunk sizes
variable max_n equal max(c_size_chunks)


# Thermo style which includes this variable
# thermo_style custom step temp pe vol v_max_n

thermo ${N}  # Print the thermo information every 100 steps
thermo 1000  

# Reset the npt fix at a lower temperature (below freezing)
fix 1  all npt temp  ${temp} ${temp}  0.1  iso  5.68  5.68  0.5  mtk yes tchain  5  pchain  5
fix 1  all npt temp  0.45 ${temp}  0.1  iso  5.68  5.68  0.5  mtk yes tchain  5  pchain  5
fix 1  all npt temp  0.45 0.45  0.1  iso  5.68  5.68  0.5  mtk yes tchain  5  pchain  5

dump dmp2 all dcd ${N} traj.dcd
dump dmp2 all dcd 1000 traj.dcd


compute msd all msd com yes
variable twopoint equal c_msd[4]/6/(step*dt+1.0e-6)
fix 9 all vector 10 c_msd[4]
variable fit equal slope(f_9)/6/(10*dt)
thermo_style custom step temp pe c_msd[4] v_twopoint v_fit v_max_n

fix 1 all npt temp 1.25 ${temp} 0.1 iso 5.68 5.68 0.5 mtk yes tchain 5 pchain 5
fix 1 all npt temp 1.25 0.45 0.1 iso 5.68 5.68 0.5 mtk yes tchain 5 pchain 5
run 500000 # 5000000  # Run for this many steps
Neighbor list info ...
  update every 1 steps, delay 10 steps, check yes
  max neighbors/atom: 2000, page size: 100000
  master list distance cutoff = 3.8
  ghost atom cutoff = 3.8
  binsize = 1.9, bins = 8 8 8
  4 neighbor lists, perpetual/occasional/extra = 1 3 0
  (1) pair lj/cut, perpetual
      attributes: half, newton on
      pair build: half/bin/atomonly/newton
      stencil: half/bin/3d
      bin: standard
  (2) compute orientorder/atom, occasional
      attributes: full, newton on
      pair build: full/bin/atomonly
      stencil: full/bin/3d
      bin: standard
  (3) compute coord/atom, occasional
      attributes: full, newton on
      pair build: full/bin/atomonly
      stencil: full/bin/3d
      bin: standard
  (4) compute cluster/atom, occasional
      attributes: full, newton on
      pair build: full/bin/atomonly
      stencil: full/bin/3d
      bin: standard
Per MPI rank memory allocation (min/avg/max) = 9.815 | 9.820 | 9.825 Mbytes
Step Temp PotEng c_msd[4] v_twopoint v_fit v_max_n 
   12000    1.2467843    -6.993187 1.5288124e-30 1.0616753e-32 8.3333333e+20            1 
   13000    1.2290071   -6.9422088   0.49419473 0.0031679148  0.040641281            1 
   14000    1.2483145   -6.9690718   0.96041303  0.005716744  0.039321128            4 
   15000    1.2621781    -6.993798     1.396984  0.007761022  0.038300655            2 
   16000    1.2509942   -6.9766935     1.834967 0.0095571194  0.037619291            1 
   17000    1.2282829   -7.0012873    2.2834984  0.011193619  0.037428208            1 
   18000    1.2482706   -6.9895041     2.802043  0.012972421  0.037634946            1 
   19000    1.2125722   -6.9629674    3.2494963  0.014252176  0.038081108            2 
   20000    1.2380636   -6.9838562    3.6967579  0.015403157  0.038268107            2 
   21000    1.2447445   -7.0242609    4.0700079  0.016150824  0.038025548            1 
   22000    1.2359396   -7.0207354    4.5393659  0.017194567  0.037889876            1 
   23000    1.2198113   -6.9810967    4.9652593   0.01799007  0.037691448            3 
   24000    1.2188732   -7.0015637    5.3581702  0.018604757  0.037423442            1 
   25000    1.2317596   -7.0503525    5.7868156  0.019289385   0.03714045            3 
   26000    1.2107913   -6.9850944    6.2419401  0.020006218  0.036987384            1 
   27000    1.2047309   -7.0479704    6.7536866  0.020844711  0.036951274            1 
   28000    1.2160872   -7.0051676    7.2582749  0.021602008  0.037046317            1 
   29000    1.2306965   -7.0438928    7.7706188  0.022329364  0.037251106            1 
   30000    1.2218155   -7.0207707    8.2247532  0.022846536  0.037413156            2 
   31000    1.2204505    -7.021559    8.6358309  0.023214599  0.037497035            2 
   32000    1.2400405   -7.0951177    8.9471001  0.023299739  0.037426949            1 
   33000    1.2074837   -7.0740364    9.3401772  0.023586306   0.03734859            1 
   34000    1.1983751   -7.0471714    9.8842731  0.024226159  0.037299454            1 
   35000    1.2266631   -7.0634062    10.292954  0.024507032  0.037249327            1 
   36000    1.2186189   -7.0700152    10.700638  0.024769995  0.037156928            1 
   37000    1.2003794   -7.0540684    11.176915  0.025173232   0.03713989            1 
   38000    1.2079458   -7.0463246    11.558045   0.02534659  0.037088498            3 
   39000    1.2047765   -7.1110149    11.938565  0.025509753  0.037002576            1 
   40000    1.2303174   -7.0865341    12.338127  0.025704432  0.036890792            2 
   41000    1.2182664   -7.1148456    12.689196  0.025791048  0.036766471            3 
   42000    1.2066476    -7.083931    13.080164  0.025952705  0.036647671            1 
   43000    1.1803125   -7.0810029     13.40531  0.025979282  0.036499128            1 
   44000    1.2084761   -7.0849498     13.75395  0.026049147  0.036318176            1 
   45000    1.2007187   -7.0793075    14.259965  0.026407343  0.036162039            1 
   46000    1.2149371   -7.0587365    14.634667  0.026512077  0.036039647            1 
   47000    1.1626734   -7.1257245    15.108439  0.026788012  0.035946211            4 
   48000    1.1964344   -7.1390572    15.457453  0.026835856  0.035854224            2 
   49000    1.1652714   -7.1186644    15.855755   0.02696557  0.035763104            2 
   50000    1.2196036   -7.1036418    16.269488  0.027115813   0.03566677            1 
   51000    1.1997197   -7.1234558     16.72938  0.027335588  0.035595561            2 
   52000    1.1880177   -7.0992097    17.158636  0.027497814  0.035536636            2 
   53000    1.1671678   -7.1418879    17.433707  0.027411488   0.03546962            3 
   54000    1.1922924   -7.1267081    17.756672  0.027402272  0.035376173            1 
   55000    1.1774946   -7.1323606    17.994924  0.027265036  0.035250582            2 
   56000    1.1916248    -7.142457    18.402492   0.02738466  0.035112902            1 
   57000    1.1821927   -7.1527757    18.784285  0.027462405  0.034994946            2 
   58000    1.1904926   -7.1450153    19.143584   0.02750515   0.03488627            1 
   59000    1.1780685   -7.1728861    19.376966  0.027368596  0.034762802            3 
   60000    1.1830904   -7.1722407    19.753697   0.02743569  0.034617295            1 
   61000     1.172639   -7.1692866    20.152424  0.027530633  0.034490854            1 
   62000    1.1749335   -7.0993312    20.601886  0.027690707  0.034374675            2 
   63000    1.1685508   -7.1409889    21.045792  0.027838349  0.034277096            2 
   64000    1.1792078    -7.155951    21.340655  0.027787311   0.03417636            1 
   65000    1.1715192   -7.1403273    21.631074  0.027732146  0.034074276            2 
   66000    1.1464828    -7.192915    21.961808  0.027729556  0.033966202            1 
   67000    1.1628057   -7.1730469    22.206133  0.027619568  0.033854382            2 
   68000    1.1397475   -7.1394633    22.446013  0.027507369  0.033719302            1 
   69000    1.1338451   -7.1964824    22.751533  0.027477697  0.033584241            1 
   70000    1.1357733   -7.2036368    23.087006   0.02748453  0.033457206            1 
   71000    1.1538914   -7.1916813    23.497874  0.027579664  0.033342162            2 
   72000    1.1684956   -7.2241898    23.868968   0.02762612  0.033229363            3 
   73000    1.1377691   -7.1981618    24.041821  0.027445001  0.033115796            1 
   74000     1.163085   -7.2386761    24.415125   0.02749451  0.032997671            3 
   75000    1.1662419   -7.1657098    24.716361  0.027462624   0.03287954            1 
   76000    1.1504456   -7.2410162    25.007209  0.027420186  0.032756296            2 
   77000    1.1124272   -7.1989463    25.477906  0.027573492   0.03264498            1 
   78000    1.1450113   -7.2178828    25.831902  0.027598185  0.032540243            1 
   79000    1.1527616   -7.2224962    26.150859  0.027585294  0.032441692            1 
   80000     1.144118   -7.1816031    26.509578  0.027614144  0.032344641            3 
   81000    1.1653783   -7.2372097    26.931623   0.02770743  0.032254529            1 
   82000    1.1190722   -7.2688615    27.108699  0.027549491  0.032169331            2 
   83000    1.1551893   -7.2367132    27.470455  0.027580778  0.032079262            3 
   84000    1.1218293     -7.23467    27.827078  0.027606228  0.031991224            3 
   85000    1.1510353   -7.2239709    28.095153  0.027544268  0.031908749            1 
   86000    1.1682457   -7.2509794    28.446439  0.027564379  0.031825547            1 
   87000    1.1569367   -7.2634702    28.787138  0.027573887  0.031744941            2 
   88000     1.128832   -7.2625027    29.054904  0.027514114   0.03166177            1 
   89000    1.1314133   -7.2475481    29.255694  0.027392971  0.031571863            2 
   90000    1.1372368   -7.2463101    29.482691  0.027298788  0.031474522            1 
   91000    1.1231159   -7.2466597    29.819066  0.027306837  0.031379461            3 
   92000    1.1314472   -7.2398952    30.079308   0.02724575   0.03128701            2 
   93000    1.1296758   -7.2541792    30.401891  0.027241838  0.031191804            2 
   94000    1.1185793   -7.2840189    30.618538  0.027144093  0.031094985            2 
   95000    1.0871107     -7.27711    30.909898  0.027113946  0.030999883            3 
   96000    1.1199282   -7.2643477    31.328122   0.02719455  0.030909967            1 
   97000    1.1157641    -7.274027    31.604146  0.027151328  0.030820552            4 
   98000    1.1265039    -7.260571    31.904203  0.027129424  0.030733545            1 
   99000    1.1059618   -7.3163878     31.98463  0.026923089  0.030642584            3 
  100000    1.0795458   -7.3263704    32.348808   0.02695734  0.030549981            2 
  101000    1.0926433   -7.2667822    32.633372  0.026925225  0.030457132            2 
  102000    1.1169302   -7.2931704    32.923108  0.026897964  0.030367809            1 
  103000    1.1096236   -7.2874644    33.235049  0.026889198  0.030273373            2 
  104000    1.0915932   -7.2490669    33.558034   0.02688945  0.030184033            2 
  105000    1.0899786   -7.2813743    33.808488  0.026832133   0.03009901            2 
  106000    1.1207916   -7.2771258    34.066568  0.026781893  0.030012801            3 
  107000    1.0934756   -7.3170847    34.192459  0.026629641  0.029921047            2 
  108000    1.0965426   -7.3365038    34.563023  0.026668999  0.029829237            2 
  109000    1.0717191   -7.3091134    34.803398  0.026608102  0.029741122            2 
  110000     1.081132   -7.3446463    35.087588  0.026581506  0.029656562            3 
  111000    1.0791562   -7.3441852    35.300154  0.026501617    0.0295705            1 
  112000    1.0733001   -7.3293402      35.6675  0.026538318  0.029482514            1 
  113000    1.0815808   -7.3494283     36.08922  0.026614469  0.029403009            1 
  114000    1.0638591   -7.3513373     36.33559  0.026561104   0.02933335            2 
  115000     1.053188   -7.3248584    36.778357  0.026650983  0.029263548            5 
  116000     1.059873   -7.3403793    36.916172  0.026520239  0.029192488            2 
  117000    1.0937534    -7.362246    37.157824  0.026465686  0.029121736            1 
  118000    1.0788262    -7.311068    37.380688  0.026398791  0.029048625            2 
  119000     1.089143   -7.3480925    37.779149  0.026455987  0.028977027            1 
  120000    1.0739204   -7.3519688    37.922701  0.026335209  0.028905527            1 
  121000    1.0604107   -7.3689007    38.241091  0.026336839  0.028832438            1 
  122000    1.0531336   -7.3982636    38.173473  0.026074777   0.02875161            1 
  123000    1.0900441   -7.3642874    38.601701  0.026152914  0.028671637            3 
  124000    1.0541921   -7.4127741    38.978874   0.02619548  0.028599156            4 
  125000    1.0663016   -7.4100934    39.201976   0.02613465  0.028527768            3 
  126000     1.045002    -7.354435    39.509984  0.026130941  0.028460008            2 
  127000    1.0554612    -7.399119    39.711029  0.026057105  0.028390701            2 
  128000     1.058845   -7.3537331    40.052652  0.026075945   0.02832129            2 
  129000    1.0831346    -7.416776     40.29006  0.026027171  0.028252734            2 
  130000    1.0551953   -7.4145793    40.219195  0.025781535   0.02818012            3 
  131000    1.0540791   -7.4172511    40.551314  0.025796001  0.028105597            4 
  132000    1.0445603    -7.409093    40.919577  0.025833066  0.028034604            1 
  133000    1.0474212   -7.4436265      40.8387  0.025588158  0.027960321            2 
  134000    1.0298845   -7.4183862    41.192756  0.025617386  0.027883098            3 
  135000    1.0463162    -7.440986    41.429727  0.025573906  0.027806252            2 
  136000    1.0715507   -7.4069404    41.856956  0.025647644  0.027731017            1 
  137000    1.0645664   -7.4256762    42.056739  0.025581958  0.027659058            2 
  138000    1.0449238   -7.4585681    42.269282  0.025524929  0.027587016            1 
  139000    1.0621305   -7.4643988    42.397322  0.025418059  0.027513342            1 
  140000    1.0413469   -7.4295391    42.735242  0.025437644  0.027441831            2 
  141000    1.0650909   -7.4173574    42.924486  0.025369082  0.027368928            4 
  142000    1.0301438   -7.4350252    43.083691  0.025283856  0.027296228            3 
  143000     1.026476   -7.4237949    43.234521  0.025194942  0.027222502            5 
  144000    1.0508431   -7.4783131     43.31552  0.025066852  0.027147803            3 
  145000    1.0525155    -7.451971    43.765158  0.025152389    0.0270731            1 
  146000    1.0371109   -7.4442847    44.026139  0.025129075  0.027002823            3 
  147000    1.0210821   -7.4334754    44.320404  0.025124946  0.026934412            2 
  148000    1.0111206   -7.4979154    44.431231  0.025017585  0.026865101            1 
  149000    1.0362204   -7.4486063     44.62333   0.02495712  0.026796343            2 
  150000    1.0388271   -7.4864366    44.852829  0.024918238  0.026726872            2 
  151000    1.0438774   -7.4759056    45.108855  0.024894512  0.026655833            5 
  152000    1.0341412    -7.497544    45.259635  0.024813396  0.026586282            3 
  153000    1.0178528    -7.487384    45.571209   0.02482092  0.026516885            1 
  154000    1.0446724   -7.5256489    45.800144  0.024783628  0.026451131            2 
  155000    1.0276419   -7.4893389    46.014001   0.02473871  0.026386553            5 
  156000    1.0237459   -7.5040316    46.229157  0.024695062  0.026320966            1 
  157000    1.0142036   -7.5148564    46.387282  0.024621699  0.026255635            2 
  158000    1.0025779    -7.515911    46.627235  0.024592423  0.026189517            1 
  159000    1.0014871   -7.5195135    46.503323  0.024372811  0.026121606            5 
  160000     1.001557   -7.4814443    46.943772  0.024449881  0.026051855            2 
  161000    1.0057773    -7.503676    47.182791  0.024421735  0.025982531            2 
  162000    1.0081791   -7.5460965     47.07996  0.024218086  0.025911313            2 
  163000   0.99743152   -7.5322285    47.227246  0.024144809  0.025838223            4 
  164000    1.0205299   -7.5249196    47.326181  0.024047856  0.025765273            1 
  165000    1.0056958   -7.5370729    47.520089  0.024000045  0.025690586            1 
  166000    1.0121316   -7.5241613    47.729432  0.023960558  0.025616784            3 
  167000    1.0080936   -7.5437959    47.678096  0.023791465  0.025540874            2 
  168000   0.99901174   -7.5655348    47.908318  0.023764047  0.025463547            4 
  169000    1.0049063   -7.5225751     48.28409  0.023808723  0.025387577            1 
  170000   0.99021697   -7.5504592    48.457641  0.023753745  0.025314269            2 
  171000    1.0199618   -7.5762583    48.709619  0.023737631  0.025242607            1 
  172000   0.99679673     -7.57814    48.681793   0.02358614  0.025170444            1 
  173000    1.0051405   -7.5474908    49.132644  0.023666977  0.025098943            2 
  174000   0.98330142   -7.5653465    49.197931  0.023562228  0.025028489            1 
  175000   0.99983101   -7.6014551    49.426968  0.023536651  0.024957949            3 
  176000    1.0108834   -7.5610504    49.748082  0.023554963  0.024889616            1 
  177000    0.9608413   -7.5664601    49.918648  0.023502188  0.024821259            1 
  178000   0.96812512   -7.5532013    49.954134  0.023386767  0.024753654            2 
  179000   0.98297705   -7.5956541    50.106341  0.023326974  0.024684482            1 
  180000   0.99273786   -7.5834335    50.122416  0.023204822  0.024614017            1 
  181000    1.0013838   -7.5538399    50.397743  0.023203381    0.0245429            4 
  182000   0.98492054   -7.5881548    50.328293   0.02304409  0.024471929            2 
  183000   0.95704726   -7.6275243    50.494655  0.022993923  0.024399883            1 
  184000   0.98205349   -7.6049518     50.88107  0.023043963   0.02432953            2 
  185000   0.98108442   -7.6280245    50.866104  0.022912659  0.024259252            1 
  186000   0.97531239   -7.6057964    51.011794  0.022854747  0.024188433            1 
  187000   0.98030163    -7.626954     51.43516  0.022921194   0.02411977            3 
  188000   0.97565968   -7.6345022    51.640005  0.022890073  0.024052503            2 
  189000   0.95846836   -7.6208044    51.859861    0.0228659   0.02398725            2 
  190000    0.9730515    -7.597215    52.035397  0.022822542   0.02392264            1 
  191000   0.97664658     -7.61818    52.315662  0.022825332  0.023857858            3 
  192000   0.94970059   -7.6430909    52.311944  0.022704837  0.023793079            1 
  193000   0.95575367   -7.6342391    52.630326  0.022724666  0.023729175            1 
  194000   0.95722319   -7.6460714    52.731231  0.022650872  0.023665195            1 
  195000   0.94129139   -7.6484608    52.743336  0.022539887  0.023601637            2 
  196000   0.97320465   -7.6180012    53.001682  0.022534729  0.023537232            3 
  197000   0.97626708   -7.6579341    53.041148  0.022437034  0.023472517            4 
  198000   0.96446991   -7.6735034     53.00231   0.02230737  0.023406511            1 
  199000   0.93193441   -7.6550195    53.131986  0.022249575  0.023341127            2 
  200000   0.93778964   -7.6440768    53.305901  0.022210792  0.023275524            1 
  201000   0.96370338   -7.6350287    53.631739  0.022235381  0.023209977            2 
  202000   0.98448134   -7.6761222    53.907492  0.022239064  0.023147488            1 
  203000   0.93826536   -7.6835541    53.789357  0.022081017  0.023084457            6 
  204000   0.95258626   -7.6854335    53.815375  0.021983405  0.023020151            2 
  205000   0.95001762   -7.6980329    54.145436   0.02201034  0.022956371            2 
  206000   0.93170709   -7.6543505    54.238497   0.02194114  0.022893459            3 
  207000   0.93562563   -7.6979165    54.402167  0.021901033  0.022829906            1 
  208000   0.95114807   -7.6815679     54.46241  0.021819876  0.022766985            4 
  209000   0.96227893   -7.7086209    54.818895  0.021857614  0.022705004            2 
  210000   0.95093291   -7.7225664    55.003504  0.021826787  0.022643175            2 
  211000   0.93364136   -7.7083782    55.082444   0.02175452  0.022581914            2 
  212000   0.93106957   -7.7203024    55.151234  0.021678944  0.022519991            2 
  213000   0.94266281   -7.7435023    55.033844  0.021531238  0.022456591            1 
  214000   0.93373565   -7.7318873    55.250128  0.021514847  0.022393016            1 
  215000   0.94233481    -7.668017    55.482893  0.021504997  0.022329277            2 
  216000   0.93681971   -7.7316266    55.612427  0.021455412  0.022265813            2 
  217000   0.90904108   -7.7383481    55.641681  0.021367773  0.022202981            2 
  218000    0.9465776   -7.7531188    55.758251  0.021314316  0.022141936            1 
  219000   0.90649961   -7.7538193    55.918831  0.021278094  0.022079937            2 
  220000   0.93230153   -7.7757025    56.017397  0.021218711  0.022017488            2 
  221000   0.91594764   -7.7427884    56.156945  0.021175319  0.021955381            4 
  222000   0.91879409   -7.7479448     56.36121   0.02115661  0.021893685            2 
  223000   0.88660584   -7.7784048     56.41026  0.021080067  0.021832077            2 
  224000   0.90622272   -7.7093759    56.734915  0.021106739  0.021771213            2 
  225000   0.92340703   -7.7575352    56.780326   0.02102975  0.021711593            2 
  226000   0.90474667   -7.7570462    56.845307  0.020960659  0.021651207            2 
  227000   0.90105554   -7.7688691    57.081989  0.020955209  0.021591778            2 
  228000   0.90451575   -7.7633818    57.027583  0.020843415  0.021531455            3 
  229000   0.89960044   -7.7425696    57.369332  0.020876758  0.021471584            3 
  230000   0.88897698   -7.7827735    57.305571  0.020762888  0.021412085            1 
  231000   0.90159812   -7.7940684    57.546338  0.020759862  0.021352387            2 
  232000   0.89357053   -7.8292881    57.666114  0.020713403  0.021293284            5 
  233000   0.89046947   -7.8377898    57.820637   0.02067977  0.021235648            1 
  234000   0.90456784   -7.7596425    58.036995  0.020668446  0.021178781            2 
  235000   0.86906389   -7.7917889     58.10898  0.020606021   0.02112102            2 
  236000   0.89023201   -7.7817482    58.229064   0.02056111  0.021063194            6 
  237000   0.89113414   -7.7931517    58.181296  0.020457558  0.021006243            7 
  238000   0.87624549   -7.8399861    58.100651  0.020343365  0.020947863            2 
  239000    0.9153177   -7.8373234    58.442204  0.020377338  0.020889444            2 
  240000   0.87614024   -7.8263616    58.561515  0.020333859   0.02083171            1 
  241000   0.88843903   -7.8309986    58.641422  0.020277117  0.020773945            2 
  242000   0.88996537   -7.8425765    58.647865  0.020195546  0.020717019            1 
  243000   0.87456461   -7.8023892    58.786863  0.020160104  0.020659888            1 
  244000   0.89161608   -7.8253106    59.041176  0.020164336   0.02060318            2 
  245000   0.88333084   -7.8281024    59.214893   0.02014112  0.020547175            2 
  246000   0.86717817    -7.839848    59.227536  0.020063528  0.020491486            2 
  247000   0.85886239   -7.8501701    59.455172    0.0200591  0.020436252            1 
  248000   0.87221462   -7.8514069    59.569315  0.020016571  0.020380803            2 
  249000   0.86823636   -7.8629468    59.550397  0.019929852  0.020325987            2 
  250000    0.8809715   -7.8459776     59.72643   0.01990881  0.020270979            2 
  251000   0.85556575   -7.8336495    59.917355   0.01989288  0.020216397            1 
  252000   0.86152205     -7.87689    59.945622  0.019823288  0.020162641            3 
  253000   0.87157832   -7.8925151    60.032931  0.019773693  0.020108633            3 
  254000    0.8555491     -7.89355    60.074694  0.019709545  0.020054187            3 
  255000   0.88918767   -7.8777762    60.206394  0.019675292         0.02            2 
  256000   0.85954785   -7.9047711    60.150067    0.0195801  0.019945811            5 
  257000    0.8709387   -7.9092488    60.420691  0.019591664  0.019891857            2 
  258000   0.83728731    -7.882352     60.64036  0.019586679  0.019838028            3 
  259000   0.85576334   -7.9036275    60.468788  0.019455852   0.01978435            2 
  260000   0.85142405   -7.8840079    60.622012  0.019430132  0.019730585            2 
  261000   0.82585805   -7.8850683    60.708768  0.019383387  0.019676603            2 
  262000   0.85258874    -7.918968     60.71149   0.01931027  0.019622244            3 
  263000   0.84059886   -7.8993405    60.804411   0.01926629  0.019567865            2 
  264000     0.838322   -7.8993438    60.906449  0.019225521  0.019514035            2 
  265000   0.84614254   -7.9287953    60.899162   0.01915068  0.019459641            3 
  266000   0.83549745   -7.9209591    61.056791  0.019128067  0.019405045            4 
  267000   0.85938654   -7.9529287    60.956506  0.019025127  0.019350659            2 
  268000   0.85521126   -7.9605658    61.117598  0.019004228  0.019295785            1 
  269000   0.84900722   -7.8824688    61.243498  0.018972583  0.019240791            2 
  270000   0.84395279   -7.9309256    61.193002  0.018886729  0.019185802            3 
  271000   0.84387549   -7.9368488    61.279327  0.018843581  0.019131432            2 
  272000   0.83954068   -7.9466906    61.377974  0.018804526   0.01907721            1 
  273000    0.8482134   -7.9692753      61.5374   0.01878431  0.019022811            2 
  274000   0.82952114   -7.9591362    61.541565  0.018717021  0.018968434            2 
  275000   0.84073458    -7.964998    61.666107  0.018686699  0.018914951            2 
  276000   0.82679448   -7.9622313    61.822809  0.018666307   0.01886142            3 
  277000    0.8300049   -8.0123078    61.813764  0.018596199  0.018808315            1 
  278000   0.82210261   -7.9919532    61.820446  0.018531309  0.018754711            3 
  279000    0.8196554   -8.0004061    61.888891  0.018485332     0.018701            1 
  280000   0.82645678   -8.0019502     61.94799  0.018436902   0.01864687            3 
  281000   0.81610766   -8.0054515    61.926635  0.018364957  0.018593108            2 
  282000   0.81140802   -8.0260751    61.961466  0.018310126   0.01853925            3 
  283000   0.80428298   -7.9813614    62.176521  0.018308752  0.018485583            1 
  284000   0.81674568   -8.0069175    61.974346  0.018184961  0.018431681            3 
  285000   0.81200882   -8.0060414    62.240466  0.018198967  0.018378159            2 
  286000   0.81824955   -7.9971192     62.28564  0.018148496  0.018324619            1 
  287000   0.81667519   -8.0553048    62.334906  0.018099566  0.018271272            2 
  288000   0.78217581   -8.0324168      62.2841   0.01802202  0.018217521            2 
  289000   0.80338028   -8.0573678    62.433198  0.018002652   0.01816413            2 
  290000   0.79755091   -8.0091437    62.667087  0.018007784  0.018110875            1 
  291000    0.8074097   -7.9821607     62.57479   0.01791947  0.018058256            3 
  292000   0.81308395   -8.0322902    62.614941  0.017869561  0.018005072            1 
  293000   0.80842921   -8.0346935    62.448048  0.017761106  0.017951909            2 
  294000   0.79319194   -8.0495744    62.632834  0.017753071  0.017898609            3 
  295000   0.79011841   -8.0411185    62.604333   0.01768484  0.017845458            3 
  296000    0.8133019   -8.0692108    62.702866  0.017652834  0.017791783            6 
  297000   0.79418055   -8.0608172    62.720403  0.017598317  0.017738324            3 
  298000   0.78378999   -8.0553037     62.71482  0.017537701  0.017684976            3 
  299000   0.79360794   -8.0548906    63.007421  0.017560597  0.017631755            3 
  300000   0.80515455   -8.0728023     62.83824  0.017455067  0.017579442            2 
  301000    0.7771254   -8.0583485    62.767163  0.017377398   0.01752667            2 
  302000   0.78899188   -8.0873053    63.083015  0.017407013  0.017473636            4 
  303000   0.77224521   -8.0932337    62.923297  0.017305637  0.017420782            3 
  304000   0.78738485   -8.0955276    62.919686  0.017247721  0.017367686            4 
  305000   0.78223594   -8.1105073    63.101103  0.017240739   0.01731476            1 
  306000   0.78067158   -8.0970812    63.070687  0.017176113  0.017262081            2 
  307000   0.77411659   -8.1165728    63.226555  0.017162474  0.017209801            4 
  308000   0.78631473   -8.1183336    63.234216  0.017108825  0.017158214            3 
  309000   0.77145784     -8.09781    63.430563  0.017106408  0.017106733            1 
  310000   0.77856619   -8.1062719    63.350657  0.017029747  0.017055512            3 
  311000   0.78006723   -8.1115591    63.268723  0.016953034  0.017004129            2 
  312000   0.77049424   -8.1647639     63.28093  0.016901958  0.016952603            3 
  313000   0.75917433   -8.1256037    63.548278  0.016919137  0.016901381            2 
  314000   0.75844435   -8.1423588    63.554134  0.016866808  0.016850328            2 
  315000   0.76816769   -8.1637981    63.429241  0.016780222  0.016799124            1 
  316000   0.76596612   -8.1306328    63.494205  0.016744252  0.016747873            2 
  317000   0.77093529   -8.1366511    63.469739     0.016685   0.01669674            4 
  318000   0.76017574   -8.1421575    63.535237  0.016649695  0.016645621            2 
  319000   0.74977765   -8.1517364    63.601083  0.016614703   0.01659483            3 
  320000   0.76123404   -8.1477705     63.63152  0.016570708  0.016543847            1 
  321000   0.74496015   -8.1465287    63.610613  0.016513659  0.016492358            2 
  322000   0.76645874   -8.1720807    63.336545  0.016391445   0.01644065            1 
  323000   0.75062122   -8.1636792    63.517229  0.016387314  0.016388687            3 
  324000   0.74428704    -8.166362    63.556463  0.016346827  0.016337273            2 
  325000   0.74201264     -8.18816    63.558929  0.016297161  0.016285931            2 
  326000   0.76660025   -8.1912854    63.533665  0.016240712  0.016234733            1 
  327000   0.76420115    -8.173308    63.568108  0.016199824  0.016183717            2 
  328000   0.75461323   -8.1801222    63.617718  0.016163038  0.016132698            1 
  329000   0.74205984   -8.2163228    63.589805   0.01610684  0.016081623            4 
  330000   0.72771464   -8.1871093    63.712155  0.016088928  0.016030548            1 
  331000   0.73848174   -8.2259089    63.668176  0.016029249  0.015979696            3 
  332000   0.74130306   -8.2364162    63.816279  0.016018142  0.015929087            1 
  333000   0.73154183   -8.2406359    63.695715  0.015939869  0.015878463            1 
  334000   0.72039034   -8.2413009    63.580558  0.015863413  0.015827946            3 
  335000   0.71877496   -8.2441794    63.729363  0.015853075  0.015777415            1 
  336000   0.72932728   -8.2602013    63.811165  0.015826182  0.015727168            3 
  337000   0.72916056   -8.2476442    63.729847  0.015759112  0.015677315            3 
  338000   0.72843527   -8.2342987    63.745039  0.015716232  0.015627515            1 
  339000    0.7170433   -8.2484637    63.898538  0.015707605  0.015578165            4 
  340000   0.72248086   -8.2553596    63.919792  0.015666616  0.015528971            2 
  341000   0.72151555   -8.2543469     64.10508  0.015665953  0.015479937            1 
  342000   0.72258914   -8.2589075    64.047891  0.015606211  0.015431091            2 
  343000    0.7067985   -8.2500706    64.089811  0.015570897  0.015382128            4 
  344000   0.71546361   -8.2566103    64.110284  0.015530592  0.015333469            6 
  345000   0.72389846   -8.2842405     64.11142   0.01548585  0.015284855            2 
  346000   0.71062683   -8.2778293    64.022425  0.015419659  0.015236382            5 
  347000   0.72099559   -8.2758102    63.953094  0.015358572   0.01518773            2 
  348000   0.72564321   -8.2638909    64.027468  0.015332248  0.015139107            3 
  349000   0.71772287   -8.2962455     63.97812  0.015276533  0.015090818            2 
  350000   0.70843102   -8.2701712    64.104878  0.015263066  0.015042922            3 
  351000   0.71239855    -8.304541    64.139416  0.015227782  0.014994956            3 
  352000   0.71437182   -8.3174503    64.026318  0.015157746  0.014947124            2 
  353000   0.68351332   -8.2947233    64.056402  0.015121908  0.014899125            1 
  354000    0.6923573   -8.2877121     64.08223  0.015085271  0.014851258            4 
  355000   0.71023134   -8.3064751    64.084373   0.01504328  0.014803268            1 
  356000   0.71111371   -8.3117331    63.998859  0.014981006  0.014755165            2 
  357000   0.68746828   -8.3029705     63.98491  0.014935787  0.014707339            3 
  358000   0.68459599    -8.301425    63.982795  0.014893574  0.014659395            2 
  359000   0.69344675    -8.296725    63.973022  0.014849819  0.014611427            2 
  360000   0.69384446   -8.2921126    64.004131  0.014815771  0.014563659            3 
  361000   0.69314206   -8.3006509      63.9375  0.014759349  0.014515979            2 
  362000   0.68646827   -8.3105231     63.88808  0.014707201  0.014467972            1 
  363000   0.69823403   -8.3233616    63.737282  0.014632067  0.014420303            4 
  364000   0.67743382   -8.3318515    63.918207  0.014633289  0.014372805            2 
  365000   0.66791906   -8.3235605    63.994643  0.014610649  0.014325426            3 
  366000   0.68873824   -8.3481542    63.922523  0.014554309  0.014278031            2 
  367000   0.67923613   -8.3442979    63.815225  0.014490287  0.014230789            2 
  368000    0.6754108    -8.323554    64.026514  0.014498758  0.014183668            3 
  369000    0.6876395   -8.3742154    63.833807  0.014415945  0.014136643            2 
  370000   0.67369574   -8.3365333    63.786925  0.014366425  0.014089507            3 
  371000   0.66546317   -8.3317374    63.925745  0.014358882  0.014042642            1 
  372000   0.69272872   -8.3492244    63.846258  0.014302477  0.013995877            1 
  373000   0.66977143   -8.3779192    63.772277  0.014247604  0.013949282            4 
  374000   0.67492747   -8.3907559    63.809753  0.014217859  0.013902734            2 
  375000   0.66729635   -8.3778748    63.937105  0.014208245  0.013856357            2 
  376000   0.67601602   -8.3953741    63.824434  0.014145486  0.013810075            2 
  377000   0.67704097   -8.3934998    63.827303  0.014108599   0.01376381            2 
  378000   0.67373162   -8.3964974    63.840791  0.014074248  0.013717698            4 
  379000   0.66466637   -8.3964671    63.858211  0.014040944  0.013671795            1 
  380000   0.65373645   -8.4036938    63.755632  0.013981498  0.013625899            1 
  381000    0.6616999   -8.3906436    63.743735  0.013942199   0.01358019            2 
  382000   0.64085017   -8.4050079    63.820539  0.013922456  0.013534631            1 
  383000   0.63659522   -8.3903101    63.858154  0.013894289  0.013489279            3 
  384000   0.65959925   -8.4145178    63.925246  0.013872666  0.013444147            2 
  385000   0.64971979   -8.4155519    63.778601  0.013804892  0.013399017            5 
  386000   0.63421003   -8.4279633     63.95163  0.013806483  0.013354077            1 
  387000    0.6523814   -8.4437477     63.85652  0.013750327  0.013309216            3 
  388000   0.64437521   -8.4585071    63.825111  0.013708142  0.013264563            3 
  389000   0.64974328   -8.4422388    63.885504  0.013685841  0.013219978            1 
  390000   0.64424008   -8.4429827    63.930187  0.013660296  0.013175646            2 
  391000    0.6348986   -8.4379274    63.753406  0.013587682  0.013131497            2 
  392000   0.62816729   -8.4458272    63.767101  0.013555931  0.013087196            2 
  393000   0.63264995   -8.4478886    63.750422  0.013517901  0.013043141            2 
  394000   0.65927062    -8.459421    63.725989  0.013478424  0.012999229            3 
  395000   0.62851649   -8.4524064    63.714503  0.013441878  0.012955229            1 
  396000   0.62800944   -8.4758858    63.670631  0.013398702  0.012911376            2 
  397000   0.65267145    -8.467278    63.509751  0.013331182  0.012867699            4 
  398000   0.63493525   -8.4714142    63.754352  0.013348901  0.012824214            1 
  399000   0.62961452   -8.4995043      63.5866  0.013280409  0.012780915            2 
  400000   0.61694364   -8.5103298      63.7015  0.013271146  0.012737772            2 
  401000   0.63477935   -8.4910422    63.817404  0.013262137  0.012694622            1 
  402000     0.619361   -8.5023346    63.640783  0.013192534  0.012651674            4 
  403000   0.61715609   -8.4876252    63.681237  0.013168163  0.012608768            2 
  404000   0.62013073   -8.4789636    63.604884  0.013119819  0.012566153            2 
  405000   0.62468697   -8.4837376    63.688928  0.013104718  0.012523723            2 
  406000   0.62854255   -8.5070863    63.670968  0.013068754  0.012481249            2 
  407000   0.62099108   -8.5014901    63.547384   0.01301134  0.012439061            3 
  408000   0.61877683   -8.5010813    63.717977  0.013014293  0.012396969            3 
  409000   0.60714338   -8.5207951    63.772421  0.012993566  0.012355159            2 
  410000   0.61732769   -8.5085369    63.624158  0.012931739  0.012313513            2 
  411000   0.62563185   -8.5306234    63.748324  0.012925451  0.012271868            2 
  412000   0.61806166   -8.5236233      63.7272  0.012889806  0.012230574            3 
  413000   0.60530588   -8.5259949    63.714678  0.012856069  0.012189415            2 
  414000   0.61742371   -8.5238547    63.655397  0.012813083  0.012148363            3 
  415000   0.60073157   -8.5201605     63.91421  0.012834179  0.012107562            2 
  416000   0.61348824   -8.5320592    63.746087  0.012769649  0.012066947            1 
  417000   0.60049439   -8.5359968    63.753218  0.012740451   0.01202662            3 
  418000   0.60982237   -8.5242726    63.688636  0.012697097  0.011986386            2 
  419000   0.59462663   -8.5398957     63.73585  0.012676183   0.01194634            1 
  420000   0.59469615   -8.5118495    63.661971  0.012631344  0.011906403            6 
  421000   0.60956122   -8.5432945    63.674231  0.012603767  0.011866515            6 
  422000   0.59188675   -8.5177338    63.670635   0.01257319  0.011826784            5 
  423000   0.57992255   -8.5484897    63.454225  0.012500832  0.011787102            3 
  424000   0.60476145   -8.5532745    63.693721   0.01251842  0.011747593            4 
  425000   0.58382922   -8.5362363    63.575474  0.012465779  0.011708263            5 
  426000   0.57342217    -8.557935    63.605407  0.012442372  0.011669151            2 
  427000    0.5797554   -8.5535885    63.866323  0.012464154  0.011630199            1 
  428000   0.58912705   -8.5708098    63.653703  0.012393634  0.011591368            3 
  429000   0.59654199   -8.5607328    63.676222  0.012369118  0.011552637            6 
  430000     0.580921   -8.5574696    63.531308  0.012312269  0.011514127            4 
  431000   0.58621076    -8.582014     63.63518  0.012303786  0.011475625            3 
  432000   0.59484134    -8.577713    63.610659  0.012270575  0.011437162            2 
  433000   0.58067347   -8.5791543    63.603463  0.012240851  0.011398808            5 
  434000   0.57552893   -8.5890801    63.557776  0.012203874  0.011360587            4 
  435000   0.57701265   -8.5787101    63.597155  0.012183363  0.011322509            4 
  436000   0.57083451   -8.6018733    63.510623  0.012138881  0.011284444            8 
  437000   0.55689597   -8.5851823      63.5917  0.012126564   0.01124659            3 
  438000   0.56840326   -8.5892387    63.601533  0.012100748  0.011209027            4 
  439000   0.57275508   -8.5879358    63.481063  0.012050316  0.011171446            7 
  440000   0.56126204   -8.6011675     63.42885   0.01201304   0.01113399            6 
  441000   0.55735885   -8.5953655     63.55304  0.012009267  0.011096706            3 
  442000   0.56480175   -8.5939259    63.471307  0.011966687  0.011059536            3 
  443000   0.55743551   -8.5964499    63.433029  0.011932473  0.011022611            5 
  444000   0.55403315   -8.6142351    63.452506  0.011909254  0.010985714            1 
  445000   0.55775716   -8.6196648     63.50601  0.011892511   0.01094903            4 
  446000   0.55901714    -8.624192    63.448038  0.011855015  0.010912485            3 
  447000   0.55673405   -8.6147617    63.501796  0.011838515  0.010876018            2 
  448000    0.5486597   -8.6180051    63.449212  0.011802309  0.010839645            4 
  449000   0.55395603   -8.5956384    63.342905  0.011756293  0.010803408            3 
  450000    0.5488243   -8.6297108    63.383583  0.011737701  0.010767344            4 
  451000   0.54572928   -8.6326637    63.443112  0.011722674  0.010731342            4 
  452000   0.54166774   -8.6278333    63.289092  0.011668343   0.01069551            4 
  453000   0.53682306   -8.6334546    63.356479  0.011654981  0.010659863            3 
  454000   0.53182938    -8.642721    63.434101  0.011643557  0.010624324            4 
  455000   0.53953062   -8.6540015    63.396978  0.011611168  0.010588931            4 
  456000   0.54125592   -8.6634516    63.299259  0.011567847  0.010553664            1 
  457000   0.55946372   -8.6533199    63.353189  0.011552369  0.010518561            2 
  458000   0.53252447   -8.6595905    63.469489  0.011548306  0.010483593            2 
  459000   0.53448182   -8.6566351    63.367527  0.011504635  0.010448728            3 
  460000   0.52566429   -8.6504454    63.311296  0.011469438  0.010414003            3 
  461000   0.52659996   -8.6629416    63.258664  0.011435044  0.010379497            1 
  462000    0.5220005   -8.6597919    63.307102   0.01141903  0.010345024            4 
  463000   0.53270282   -8.6666893    63.232443  0.011380929  0.010310742            2 
  464000    0.5166416   -8.6771769    63.329001  0.011373743  0.010276576            2 
  465000   0.52465318   -8.6642025    63.418174  0.011365264  0.010242559            3 
  466000   0.52788365   -8.6625412    63.252091  0.011311175  0.010208727            3 
  467000   0.52865864   -8.6680431    63.336225  0.011301967  0.010175004            3 
  468000   0.52333073   -8.6784006    63.390512  0.011287484  0.010141417            2 
  469000   0.52777773   -8.6837722    63.291407  0.011245808  0.010107913            5 
  470000   0.51287642   -8.6732878    63.196476  0.011205049  0.010074555            2 
  471000   0.51577795   -8.6933114    63.275157   0.01119518   0.01004135            4 
  472000   0.50808979   -8.6696896    63.362735  0.011186924  0.010008332            2 
  473000    0.4941183   -8.7045455    63.372832  0.011165051 0.0099754739            3 
  474000   0.51760048   -8.6967878    63.256783  0.011121094  0.009942687            1 
  475000    0.5052393   -8.7012599    63.246236  0.011095831 0.0099100321            4 
  476000   0.50684441   -8.6948108    63.167919  0.011058809 0.0098775771            3 
  477000   0.50906886   -8.6992503    63.355077  0.011068322 0.0098452119            4 
  478000    0.5138932   -8.7200251    63.231509  0.011023624 0.0098129582            4 
  479000   0.49636944   -8.7065024     63.18005  0.010991658 0.0097807914            4 
  480000    0.4999837   -8.7232082    63.262071  0.010982998 0.0097487812            2 
  481000   0.49753377   -8.7310473     63.30111  0.010966928  0.009716931            4 
  482000   0.48981656   -8.7222387    63.184582  0.010924029 0.0096852052            3 
  483000   0.48569505   -8.7146858    63.244897  0.010911818 0.0096535531            6 
  484000   0.49951797   -8.7182147    63.142946  0.010871719 0.0096220771            4 
  485000   0.49383874   -8.7345514     63.24051  0.010866067  0.009590702            2 
  486000   0.49250337   -8.7295308    63.066841   0.01081393 0.0095594173            3 
  487000   0.48462919   -8.7411257     63.09497  0.010796538 0.0095282832            3 
  488000   0.48507086   -8.7415315     63.21739  0.010795319 0.0094972128            2 
  489000   0.48337257   -8.7372121    63.177809  0.010766498 0.0094662679            2 
  490000    0.4879636    -8.749133    63.203257  0.010748853 0.0094354245            2 
  491000   0.47814067   -8.7461899     63.10857  0.010710891 0.0094047527            5 
  492000   0.47300045   -8.7492705    63.190694  0.010703031 0.0093741515            2 
  493000   0.47946832   -8.7341217    63.134456  0.010671815 0.0093437323            2 
  494000    0.4825249   -8.7522431    63.041785  0.010634579 0.0093134358            2 
  495000   0.47886026   -8.7429938    63.164436  0.010633743  0.009283316            1 
  496000   0.46483107   -8.7636969    63.036371  0.010590788 0.0092532369            2 
  497000    0.4644318   -8.7593947    63.130592  0.010585277 0.0092232833            3 
  498000   0.48147994   -8.7616867     63.05377  0.010551166 0.0091934113            3 
  499000   0.47667563   -8.7649324    63.023997   0.01052505 0.0091636731            5 
  500000   0.47104509   -8.7730279    63.134453  0.010522409 0.0091340853            1 
  501000   0.46044188    -8.768571    62.940793  0.010469194  0.009104614            2 
  502000   0.47085362   -8.7807519    63.071578  0.010470049 0.0090752649            3 
  503000   0.45652469    -8.767398    63.092465  0.010452695 0.0090460239            4 
  504000   0.46939955   -8.7748612    62.936811  0.010406219 0.0090169261            3 
  505000   0.46263198   -8.7735696    63.083016  0.010409739 0.0089879003            3 
  506000   0.46132554    -8.781893    63.009836  0.010377114 0.0089590092            5 
  507000   0.45481509   -8.7770407    63.013409  0.010357234 0.0089301983            3 
  508000   0.45275944   -8.7897946    63.031967   0.01033989 0.0089014805            4 
  509000   0.45238229   -8.7846627    62.977472  0.010310654 0.0088729231            2 
  510000   0.44856761   -8.7972892    63.024662  0.010298147 0.0088444693            2 
  511000   0.46231337   -8.7895513    63.014252  0.010276297 0.0088160898            5 
  512000   0.45292557   -8.7931634    63.034979  0.010259599 0.0087878533            2 
Loop time of 1217.99 on 48 procs for 500000 steps with 4000 atoms

Performance: 70936.514 tau/day, 410.512 timesteps/s
99.4% CPU use with 48 MPI tasks x no OpenMP threads

MPI task timing breakdown:
Section |  min time  |  avg time  |  max time  |%varavg| %total
---------------------------------------------------------------
Pair    | 76.225     | 82.109     | 87.154     |  26.9 |  6.74
Neigh   | 7.9492     | 8.3201     | 8.6607     |   5.3 |  0.68
Comm    | 77.027     | 82.854     | 90.328     |  33.5 |  6.80
Output  | 0.84226    | 0.84297    | 0.85176    |   0.1 |  0.07
Modify  | 1028.7     | 1032.6     | 1036.6     |   5.5 | 84.78
Other   |            | 11.29      |            |       |  0.93

Nlocal:        83.3333 ave          92 max          76 min
Histogram: 1 6 3 9 7 11 6 1 2 2
Nghost:        2108.19 ave        2129 max        2078 min
Histogram: 1 1 2 3 2 15 11 6 4 3
Neighs:        13808.4 ave       15485 max       12210 min
Histogram: 3 1 7 10 6 7 5 4 2 3
FullNghs:      27617.0 ave       30509 max       25202 min
Histogram: 2 5 6 6 10 7 4 4 2 2

Total # of neighbors = 1325616
Ave neighs/atom = 331.40400
Neighbor list builds = 26750
Dangerous builds = 0

#clear
#
#next RN
#
#jump SELF
Total wall time: 0:20:21
