
units lj                  # Use reduced LJ style units
atom_style atomic         # Uncharged point particles
atom_modify map hash      # Needed for indexing of clusters etc
                          # Used to be able to find where atoms are in relation to each other.

lattice fcc 1.0 spacing 1 1 1
Lattice spacing in x,y,z = 1.5874011 1.5874011 1.5874011
region box block 0 10 0 10 0 10 units lattice
create_box 2 box
Created orthogonal box = (0.0000000 0.0000000 0.0000000) to (15.874011 15.874011 15.874011)
  3 by 4 by 4 MPI processor grid
create_atoms 1 box
Created 4000 atoms
  using lattice units in orthogonal box = (0.0000000 0.0000000 0.0000000) to (15.874011 15.874011 15.874011)
  create_atoms CPU = 0.003 seconds
set type 1 type/fraction 2 0.22 78393
Setting atom values ...
  910 settings made for type/fraction
mass 1 1.0
mass 2 1.0
pair_style lj/cut  3.5
pair_modify tail  yes
pair_coeff 1  1  1.0  1.0   # Intearaction between 1 and 1 set with epsilon = 1 and sigma = 1
pair_coeff 1  2  1.5  0.8
pair_coeff 2  2  0.5  0.88

write_data data.0
System init for write_data ...
Neighbor list info ...
  update every 1 steps, delay 10 steps, check yes
  max neighbors/atom: 2000, page size: 100000
  master list distance cutoff = 3.8
  ghost atom cutoff = 3.8
  binsize = 1.9, bins = 9 9 9
  1 neighbor lists, perpetual/occasional/extra = 1 0 0
  (1) pair lj/cut, perpetual
      attributes: half, newton on
      pair build: half/bin/atomonly/newton
      stencil: half/bin/3d
      bin: standard
WARNING: Not all mixed pair coeffs generated from mixing. Use write_data with 'pair ij' option to store all pair coeffs. (../write_data.cpp:312)


#############################
#   M E L T   S Y S T E M   #
#############################

velocity all create 2.4 6229865 mom yes dist gaussian # Assign velocities
                                                    # Temperature 2.4, random number seed, zero linear momentum
                                                                                # Gaussian distribution

timestep 0.002   # simulation timestep
thermo 1000       # output thermodynamic data every 1000 steps bf 100

# Define a fix  in this case with index 1 applied to all
# particles in the simulation. This fix is for simulations
# in the anisotropic NPT ensemble. Note that we use the MTK
# correction.
fix 1 all npt temp 2.4 2.4 0.1 iso 5.68 5.68 0.5 mtk yes tchain 5 pchain 5 # Use NPT ensemble
                                                                         # Set temperature and pressure and damping
                                                                         # Numbers of thermostats in chain and in barostat
run 10000          # run for 10000 steps
Per MPI rank memory allocation (min/avg/max) = 3.642 | 3.644 | 3.648 Mbytes
Step Temp E_pair E_mol TotEng Press Volume 
       0          2.4   -6.9213593            0   -3.3222593   -3.6990896         4000 
    1000    2.3851018    -4.825088            0   -1.2483296    5.7656468    4417.7608 
    2000    2.3947723   -4.9098183            0   -1.3185579    5.4452601    4401.5831 
    3000     2.434308   -4.9359813            0   -1.2854321    5.3712777    4395.6365 
    4000    2.4355958   -4.8915993            0    -1.239119    5.6760872    4400.6339 
    5000    2.3765974   -4.8125926            0   -1.2485878    5.6500259    4439.3907 
    6000    2.4182425   -4.9011913            0   -1.2747343    5.6563372    4392.0965 
    7000    2.3633697   -4.8709927            0   -1.3268245    5.6444488    4407.3927 
    8000    2.3500664   -4.8553144            0   -1.3310961    5.6970064    4402.5804 
    9000    2.4074681   -4.8825202            0   -1.2722209    5.4896337    4428.3998 
   10000    2.3915159   -4.8206278            0   -1.2342507    5.5022803    4450.9361 
Loop time of 2.35357 on 48 procs for 10000 steps with 4000 atoms

Performance: 734203.479 tau/day, 4248.863 timesteps/s
99.6% CPU use with 48 MPI tasks x no OpenMP threads

MPI task timing breakdown:
Section |  min time  |  avg time  |  max time  |%varavg| %total
---------------------------------------------------------------
Pair    | 0.9706     | 1.049      | 1.1351     |   3.0 | 44.57
Neigh   | 0.19287    | 0.20497    | 0.22023    |   1.0 |  8.71
Comm    | 0.73526    | 0.81856    | 0.89295    |   3.8 | 34.78
Output  | 0.00025084 | 0.00025531 | 0.00031356 |   0.0 |  0.01
Modify  | 0.23421    | 0.26598    | 0.30101    |   3.0 | 11.30
Other   |            | 0.01485    |            |       |  0.63

Nlocal:        83.3333 ave          94 max          72 min
Histogram: 2 0 8 4 3 14 8 5 3 1
Nghost:        1524.35 ave        1557 max        1491 min
Histogram: 2 6 1 6 6 9 9 3 4 2
Neighs:        8568.10 ave        9886 max        7157 min
Histogram: 2 1 7 4 7 5 12 7 1 2

Total # of neighbors = 411269
Ave neighs/atom = 102.81725
Neighbor list builds = 905
Dangerous builds = 196

# Equilibrate just above the melting temperature to avoid step fn in T

fix 1 all npt temp 1.25 1.25 0.1 iso 5.68 5.68 0.5 mtk yes tchain 5 pchain 5
run 2000
Per MPI rank memory allocation (min/avg/max) = 3.643 | 3.645 | 3.649 Mbytes
Step Temp E_pair E_mol TotEng Press Volume 
   10000    2.3915159   -4.8206278            0   -1.2342507    5.5022803    4450.9361 
   11000    1.2323734   -6.5880082            0   -4.7399103    5.6750393    3594.0051 
   12000    1.2327373   -6.6217525            0   -4.7731088    5.6335787    3584.6573 
Loop time of 0.514393 on 48 procs for 2000 steps with 4000 atoms

Performance: 671860.162 tau/day, 3888.080 timesteps/s
99.6% CPU use with 48 MPI tasks x no OpenMP threads

MPI task timing breakdown:
Section |  min time  |  avg time  |  max time  |%varavg| %total
---------------------------------------------------------------
Pair    | 0.23233    | 0.25064    | 0.27391    |   2.1 | 48.73
Neigh   | 0.033126   | 0.034991   | 0.038656   |   0.6 |  6.80
Comm    | 0.15132    | 0.17463    | 0.19402    |   2.7 | 33.95
Output  | 5.0057e-05 | 5.2084e-05 | 6.5041e-05 |   0.0 |  0.01
Modify  | 0.041533   | 0.049496   | 0.055922   |   1.7 |  9.62
Other   |            | 0.004584   |            |       |  0.89

Nlocal:        83.3333 ave          91 max          74 min
Histogram: 2 2 3 2 9 9 7 7 5 2
Nghost:        1770.04 ave        1788 max        1750 min
Histogram: 1 2 5 2 6 15 9 5 1 2
Neighs:        10662.2 ave       11697 max        9399 min
Histogram: 3 1 5 3 8 6 7 6 5 4

Total # of neighbors = 511788
Ave neighs/atom = 127.94700
Neighbor list builds = 143
Dangerous builds = 13

#############################
# L I N E A R  Q U E N C H  #
#############################

# Define solid atoms. This closely follows ten Wolde  Ruiz-Montero and Frenkel  Faraday Discuss  1996  104  93-110
# Compute components of the per-atom q6 vector
compute q6 all orientorder/atom degrees 1 6 components 6 nnn NULL cutoff 1.3 # compute the Q6 parameter.
                                                                             # Use all neighbours within 1.3 unit cell.

# get number of connections
compute coord_number all coord/atom orientorder q6 0.5

# An atom is solid if it has 8 or more connections (of a possible 14)
variable is_solid atom c_coord_number>=8
group solid dynamic all var is_solid    # Must be dynamic to update
dynamic group solid defined

# do clustering
compute cluster solid cluster/atom 1.3 # Create a cluster where all atoms within are solid and max 1.3 units from another member

# define chunks one chunk per cluster
compute clus_chunks solid chunk/atom c_cluster nchunk every compress yes  # Says which atoms are in which chunk

# count the size of each chunk
compute size_chunks solid property/chunk clus_chunks count


# Find the maximum entry in the vector of chunk sizes
variable max_n equal max(c_size_chunks)


# Thermo style which includes this variable
# thermo_style custom step temp pe vol v_max_n

thermo ${N}  # Print the thermo information every 100 steps
thermo 1000  

# Reset the npt fix at a lower temperature (below freezing)
fix 1  all npt temp  ${temp} ${temp}  0.1  iso  5.68  5.68  0.5  mtk yes tchain  5  pchain  5
fix 1  all npt temp  0.45 ${temp}  0.1  iso  5.68  5.68  0.5  mtk yes tchain  5  pchain  5
fix 1  all npt temp  0.45 0.45  0.1  iso  5.68  5.68  0.5  mtk yes tchain  5  pchain  5

dump dmp2 all dcd ${N} traj.dcd
dump dmp2 all dcd 1000 traj.dcd


compute msd all msd com yes
variable twopoint equal c_msd[4]/6/(step*dt+1.0e-6)
fix 9 all vector 10 c_msd[4]
variable fit equal slope(f_9)/6/(10*dt)
thermo_style custom step temp pe c_msd[4] v_twopoint v_fit v_max_n

fix 1 all npt temp 1.25 ${temp} 0.1 iso 5.68 5.68 0.5 mtk yes tchain 5 pchain 5
fix 1 all npt temp 1.25 0.45 0.1 iso 5.68 5.68 0.5 mtk yes tchain 5 pchain 5
run 500000 # 5000000  # Run for this many steps
Neighbor list info ...
  update every 1 steps, delay 10 steps, check yes
  max neighbors/atom: 2000, page size: 100000
  master list distance cutoff = 3.8
  ghost atom cutoff = 3.8
  binsize = 1.9, bins = 9 9 9
  4 neighbor lists, perpetual/occasional/extra = 1 3 0
  (1) pair lj/cut, perpetual
      attributes: half, newton on
      pair build: half/bin/atomonly/newton
      stencil: half/bin/3d
      bin: standard
  (2) compute orientorder/atom, occasional
      attributes: full, newton on
      pair build: full/bin/atomonly
      stencil: full/bin/3d
      bin: standard
  (3) compute coord/atom, occasional
      attributes: full, newton on
      pair build: full/bin/atomonly
      stencil: full/bin/3d
      bin: standard
  (4) compute cluster/atom, occasional
      attributes: full, newton on
      pair build: full/bin/atomonly
      stencil: full/bin/3d
      bin: standard
Per MPI rank memory allocation (min/avg/max) = 9.779 | 9.784 | 9.787 Mbytes
Step Temp PotEng c_msd[4] v_twopoint v_fit v_max_n 
   12000    1.2327373   -6.6217525 1.8559925e-30 1.2888836e-32 8.3333333e+20            2 
   13000    1.2654218   -6.6496165   0.53396836  0.003422874  0.043994869            3 
   14000     1.251295   -6.6025331    1.0375533 0.0061759123  0.042449703            1 
   15000    1.2393535   -6.6663423    1.5393275 0.0085518192  0.041930717            3 
   16000    1.2463157   -6.6677367    1.9830802  0.010328542  0.041347512            1 
   17000    1.2495889   -6.6308569    2.4415949  0.011968602  0.040504239            5 
   18000    1.2528932   -6.6422212    2.8882232  0.013371403  0.039804249            1 
   19000    1.2355479   -6.6529601     3.417357  0.014988408  0.039713794            2 
   20000    1.2301948   -6.6622541    3.9148514   0.01631188  0.039951535            1 
   21000    1.2444138   -6.6213804    4.4157672  0.017522885  0.040090445            1 
   22000    1.2438085   -6.6400684     4.920553  0.018638458  0.040286698            2 
   23000    1.1986174   -6.6551408    5.4544512  0.019762504  0.040525715            3 
   24000    1.2279821   -6.6574274    5.8778719  0.020409277  0.040697504            1 
   25000    1.2408155   -6.6923522    6.3970163  0.021323387  0.040720738            1 
   26000    1.1926718   -6.6499601    6.8240798   0.02187205  0.040687762            3 
   27000    1.2062865   -6.6830756      7.28748  0.022492222  0.040510453            2 
   28000    1.2325466   -6.7075038    7.7417653  0.023040968  0.040426886            2 
   29000    1.2225798   -6.6733519    8.1449891  0.023405141  0.040251828            4 
   30000    1.2363174   -6.6843662    8.5621907  0.023783863  0.040029027            2 
   31000    1.2030261   -6.7112387    9.0457928  0.024316647  0.039852993            1 
   32000    1.2542397   -6.6893297    9.5735783  0.024931193  0.039721314            1 
   33000    1.2081249   -6.6853734    10.087618  0.025473782  0.039691042            1 
   34000    1.2239324    -6.673997    10.594604  0.025967165   0.03969177            4 
   35000    1.2112479    -6.655283    10.961651  0.026099169  0.039679131            3 
   36000    1.2298333   -6.6849701    11.406142  0.026403105  0.039607133            2 
   37000    1.1896082   -6.6933624    11.947064  0.026907801  0.039538655            1 
   38000    1.2056425   -6.6887673    12.366123   0.02711869  0.039484003            1 
   39000     1.216715   -6.7104662    12.925394  0.027618362  0.039470105            2 
   40000    1.1871441   -6.7238324    13.459139  0.028039873  0.039497576            1 
   41000    1.1971644    -6.693354     14.11498  0.028688984   0.03957574            1 
   42000    1.1994303   -6.7147036    14.645048  0.029057635  0.039692784            1 
   43000    1.2021938   -6.7028178    15.097854  0.029259407  0.039826608            3 
   44000    1.2294629   -6.7466162    15.473939  0.029306703  0.039905013            2 
   45000    1.1823278   -6.7195033    16.001934  0.029633211    0.0399624            2 
   46000    1.1788278   -6.7626211    16.517906  0.029923743  0.040034307            2 
   47000    1.2067919   -6.7260188    16.836994  0.029852825  0.040068746            1 
   48000    1.2181775   -6.7822615    17.265014  0.029973982  0.040039321            2 
   49000    1.1669913   -6.7610662    17.794247  0.030262324  0.040010376            3 
   50000    1.2216978   -6.7638217     18.28371  0.030472849  0.040006996            1 
   51000    1.1989679   -6.7627194    18.649497  0.030473034  0.039981797            1 
   52000    1.1826945   -6.7258148    19.083374  0.030582329  0.039922743            1 
   53000    1.1783855   -6.7442403    19.561829  0.030757592  0.039874998            3 
   54000    1.1864663   -6.7493424    20.057494  0.030952922  0.039832342            2 
   55000    1.1586989   -6.7740399    20.487257  0.031041299   0.03979321            2 
   56000    1.1448743   -6.7454403     20.89803  0.031098259  0.039746249            2 
   57000    1.1581785   -6.7513151    21.262082  0.031084914  0.039685318            3 
   58000    1.1788656   -6.7711948    21.590293  0.031020536  0.039597421            2 
   59000    1.1812109   -6.7559207    22.119287  0.031241931  0.039523055            2 
   60000    1.1923857   -6.7995347    22.353332  0.031046294  0.039441328            1 
   61000    1.1753008    -6.788202    22.919303  0.031310523  0.039352552            1 
   62000    1.1765575   -6.7982163    23.155652  0.031123188  0.039256832            2 
   63000    1.1948962   -6.7811762    23.553205  0.031155033   0.03913923            6 
   64000    1.1703228   -6.7865439    24.165625  0.031465657  0.039034706            2 
   65000     1.192097   -6.7979865    24.510877  0.031424201  0.038952223            1 
   66000    1.1552486   -6.8096551    24.992968  0.031556778  0.038863834            2 
   67000    1.1725153   -6.7927367    25.508536  0.031727035  0.038791167            1 
   68000    1.1562846   -6.8183184    25.812517  0.031632987  0.038709973            2 
   69000     1.138286   -6.7962591    26.141418   0.03157176  0.038626997            3 
   70000    1.1543071   -6.7686881    26.619479  0.031689855  0.038531087            1 
   71000    1.1422735   -6.7696448    26.902327  0.031575501  0.038429778            7 
   72000    1.1788999    -6.805455    27.440808  0.031760195   0.03834336            3 
   73000    1.1809242   -6.8435415    27.742381  0.031669384  0.038266929            2 
   74000    1.1481062   -6.8090403    28.132337  0.031680559    0.0381749            3 
   75000    1.1459396   -6.8114907    28.714387  0.031904874  0.038093516            2 
   76000    1.1258193   -6.8524165    29.061515  0.031865696  0.038020908            3 
   77000    1.1339661   -6.8695463     29.32451  0.031736482  0.037948308            2 
   78000    1.1478911   -6.8569041    29.951768  0.031999752  0.037879185            2 
   79000    1.1341564   -6.8208249    30.404389   0.03207214  0.037822816            2 
   80000    1.1460219   -6.8052819    30.725376    0.0320056   0.03776439            2 
   81000     1.129703   -6.8641477    31.256287  0.032156674  0.037700911            1 
   82000    1.1168662   -6.8883483     31.54273   0.03205562  0.037642066            1 
   83000    1.1150428   -6.8444741    32.040024  0.032168699  0.037581434            1 
   84000    1.1220496   -6.8370193    32.441739  0.032184264  0.037521371            2 
   85000    1.1107379   -6.8694162    32.697701   0.03205657  0.037458431            4 
   86000    1.1453986   -6.8608783    33.109724  0.032083066  0.037386654            2 
   87000    1.1452529   -6.8803309    33.293641  0.031890461  0.037311774            4 
   88000    1.1310802   -6.8485694    33.840036  0.032045489  0.037236205            3 
   89000    1.1278435   -6.8693192    34.048061  0.031880207  0.037155538            2 
   90000    1.1438729   -6.8548605    34.448714  0.031896957  0.037074149            3 
   91000    1.1265698   -6.8662385     34.68852  0.031766044  0.036977601            2 
   92000    1.1201862   -6.8994853    35.058649  0.031756023  0.036881994            2 
   93000       1.1289   -6.8948698    35.553522  0.031857994  0.036800698            2 
   94000    1.1131574    -6.868706    36.082568  0.031988092  0.036727726            3 
   95000    1.1321088   -6.9106981     36.41762  0.031945281  0.036654893            2 
   96000    1.1103663   -6.8846549    36.712451  0.031868447  0.036581981            3 
   97000    1.1382672   -6.8946296    37.063471   0.03184147  0.036506707            1 
   98000    1.1082398   -6.8696595     37.49506  0.031883555  0.036436081            2 
   99000    1.1161911   -6.9104532    37.715358  0.031746934  0.036363653            2 
  100000    1.1026495   -6.9017857    38.011801  0.031676501  0.036283878            2 
  101000    1.1252089   -6.9342812    38.446576  0.031721597  0.036205388            2 
  102000    1.0957436   -6.8979585    38.979216  0.031845765  0.036135158            3 
  103000    1.0986934    -6.905795    39.201452  0.031716385  0.036064208            1 
  104000    1.1139068   -6.9022747    39.595737  0.031727353   0.03598735            2 
  105000    1.1290135   -6.9001209     40.03471  0.031773579  0.035909961            1 
  106000    1.0936507   -6.9046161    40.135609  0.031553151  0.035832766            2 
  107000    1.0874363   -6.9355908    40.283593  0.031373515  0.035748238            1 
  108000    1.0681095   -6.9165494    40.694537  0.031400105  0.035659848            4 
  109000    1.0951601   -6.9236599    41.042487  0.031378048  0.035571493            6 
  110000    1.0679903   -6.9043186    41.432717  0.031388422  0.035488393            1 
  111000    1.0946433   -6.9147196     41.84337  0.031413941   0.03541313            3 
  112000    1.0927248   -6.9456938    42.327103   0.03149338   0.03533991            1 
  113000    1.1096384   -6.9652622    42.781363  0.031549678   0.03527271            3 
  114000    1.1080276   -6.9283699    43.252708  0.031617476  0.035210172            3 
  115000     1.093539   -6.9306195     43.51409  0.031531949  0.035144558            2 
  116000    1.0907802   -6.9254329    43.778088  0.031449776  0.035074445            7 
  117000    1.0690966   -6.9358869    44.118479  0.031423418  0.034999606            1 
  118000    1.0727795   -6.9833723    44.267454  0.031262326  0.034921199            2 
  119000    1.0657691   -6.9401784    44.395906   0.03108957  0.034839109            2 
  120000    1.0695709   -6.9657567     44.69463  0.031037938  0.034757729            2 
  121000    1.0856187   -6.9521193     45.28126  0.031185441  0.034679371            2 
  122000    1.0749677   -6.9584112    45.522188   0.03109439  0.034603568            2 
  123000    1.0735486    -7.005258    45.742926  0.030991142  0.034527243            4 
  124000    1.0876949   -7.0051018    45.901459  0.030847755  0.034446209            2 
  125000    1.0707444   -7.0136818      46.1287  0.030752466  0.034360509            4 
  126000    1.0740362   -6.9926792    46.337427  0.030646446  0.034271161            2 
  127000    1.0627087   -7.0173728    46.451138  0.030479749  0.034184365            2 
  128000     1.071481   -7.0533845    46.967637  0.030577889  0.034096719            3 
  129000    1.0592229   -6.9924735    47.272555  0.030537826  0.034006438            3 
  130000    1.0674512   -7.0191489    47.500133  0.030448803  0.033919302            3 
  131000    1.0454126   -7.0035503    48.053763  0.030568552  0.033833987            2 
  132000    1.0579498   -7.0113594    48.378039  0.030541691  0.033751621            2 
  133000    1.0612523   -7.0088516    48.671392  0.030495859  0.033669169            3 
  134000    1.0468896   -7.0239825    48.796103  0.030345835  0.033586139            1 
  135000    1.0566334    -7.026517    49.168987  0.030351226  0.033506341            2 
  136000     1.054507   -7.0245576    49.481304  0.030319427  0.033427823            2 
  137000    1.0626309   -7.0221779    49.891818  0.030347821  0.033350413            4 
  138000    1.0422879   -7.0480977     50.38313  0.030424595  0.033272794            1 
  139000    1.0319912   -6.9926232    50.752286   0.03042703  0.033198853            1 
  140000    1.0436165   -7.0063861    50.665781  0.030158203  0.033122052            2 
  141000    1.0276089   -7.0707953    50.826987   0.03003959  0.033040192            2 
  142000    1.0285684   -7.0643872     51.17822  0.030034166  0.032959304            2 
  143000    1.0472574   -7.0517035    51.338368  0.029917464  0.032880855            6 
  144000    1.0189229   -7.0370141    51.721427  0.029931382  0.032801537            2 
  145000    1.0456135   -7.0626172    52.155034  0.029974157  0.032724293            1 
  146000    1.0184932   -7.0717127    52.504859  0.029968527  0.032650287            3 
  147000    1.0303154   -7.0507876    52.830144  0.029949061  0.032577244            3 
  148000    1.0314587   -7.0573275     53.11851  0.029909071  0.032505874            2 
  149000    1.0505796   -7.0511335    53.355148  0.029840687  0.032433792            1 
  150000    1.0353592   -7.0495172    53.659314   0.02981073  0.032360048            3 
  151000    1.0276676   -7.0315867    54.067088  0.029838349  0.032288143            1 
  152000    1.0225576   -7.0300177     54.12005   0.02967108  0.032216147            3 
  153000    1.0323081   -7.0881235    54.298394  0.029574289  0.032143265            3 
  154000    1.0455348   -7.0262048    54.714796  0.029607573  0.032068167            3 
  155000    1.0149273   -7.0977046    54.806911  0.029466081  0.031993475            3 
  156000    1.0310525   -7.0835867    55.281067  0.029530484  0.031921074            3 
  157000    1.0099265   -7.1096826    55.103893  0.029248351  0.031845998            2 
  158000    1.0165223   -7.0619432    55.590128  0.029319688  0.031768723            2 
  159000    1.0206492   -7.1306643    55.676625  0.029180621  0.031692141            5 
  160000    1.0033819   -7.0887942     56.20284  0.029272313  0.031615766            5 
  161000    1.0090517   -7.0748053    56.550463  0.029270426  0.031543996            3 
  162000   0.99270446    -7.100038    56.627057  0.029129144  0.031472593            3 
  163000   0.99291219   -7.1275504    56.902508  0.029091262  0.031399483            1 
  164000    1.0217937   -7.1123175    57.149776   0.02903952  0.031325226            3 
  165000    1.0284323   -7.1075321    57.417306  0.028998639  0.031250168            1 
  166000    1.0209893     -7.13235    57.284769  0.028757414  0.031172189            2 
  167000    1.0084662   -7.1075786    57.629256  0.028757114   0.03109312            2 
  168000   0.99311123   -7.1032451    58.020916  0.028780216  0.031016362            3 
  169000    1.0051754   -7.0989215    58.310576  0.028752749  0.030941835            4 
  170000   0.98543666   -7.1619138    58.065605  0.028463532  0.030863343            3 
  171000   0.99838379    -7.139659    58.431131   0.02847521  0.030783251            6 
  172000    1.0005857   -7.1748736    58.456387  0.028321893  0.030703309            3 
  173000   0.97624477   -7.1431428     58.76968  0.028309094  0.030621589            2 
  174000   0.95452426   -7.1075904    58.846336  0.028183111   0.03053981            2 
  175000   0.96937881   -7.1588907    59.089791  0.028137996    0.0304578            3 
  176000     0.998873   -7.1729741    59.291314  0.028073539  0.030373771            2 
  177000    0.9794069   -7.1696803    59.228883  0.027885538  0.030289486            2 
  178000   0.99696913   -7.1356443    59.593062  0.027899374   0.03020396            4 
  179000     1.008521    -7.180785    59.847628  0.027862024   0.03011836            3 
  180000   0.95622193   -7.1677966    59.992913  0.027774497  0.030034252            3 
  181000   0.98506289   -7.1938847    60.131059   0.02768465  0.029949489            6 
  182000    0.9736895    -7.182244    60.538382  0.027719039  0.029866711            2 
  183000    1.0076139   -7.2102608    60.657085  0.027621623  0.029783777            5 
  184000   0.98339725   -7.1818695    60.982959  0.027619094  0.029700751            3 
  185000   0.96808445   -7.1885525    61.006091  0.027480221  0.029617912            6 
  186000   0.98038223   -7.1884331    61.330547  0.027477843  0.029535969            2 
  187000   0.96318881   -7.2151859    61.485386  0.027399905  0.029455746            4 
  188000     0.971091   -7.1745678    62.072661  0.027514477  0.029376168            2 
  189000   0.97414218    -7.182632    61.934254  0.027307872  0.029296915            5 
  190000   0.97078667   -7.1947083    62.200964  0.027281125  0.029217581            2 
  191000   0.97239981   -7.2008703    62.504027  0.027270518  0.029138803            3 
  192000   0.97377875   -7.1796081    62.662779  0.027197387  0.029060532            2 
  193000   0.94932065   -7.2075851    62.809402  0.027119776  0.028982178            3 
  194000    0.9473507   -7.2026791    63.095563  0.027102905  0.028903895            2 
  195000   0.94563048   -7.2282127    63.163299  0.026992863  0.028826599            4 
  196000   0.93833254   -7.2564315    63.337181  0.026929073  0.028750296            2 
  197000   0.95218941   -7.2647611    63.679763  0.026937294  0.028674693            3 
  198000   0.97740999   -7.2339976    63.799727  0.026851737  0.028600034            2 
  199000   0.96685301   -7.2342096    63.840955  0.026734068   0.02852322            2 
  200000    0.9415125   -7.2267584    63.857417  0.026607257  0.028445741            3 
  201000   0.94761568   -7.2079138    64.094026  0.026572979   0.02836656            3 
  202000   0.96727861    -7.309755    64.202783  0.026486297  0.028288714            4 
  203000   0.93402025   -7.2347471    64.658611  0.026542944  0.028212035            2 
  204000   0.95365805   -7.2446472    64.750978  0.026450563  0.028136465            3 
  205000     0.941428   -7.2469582    65.062715  0.026448258  0.028060762            3 
  206000   0.93881829   -7.2716047    65.132558  0.026348122  0.027986471            4 
  207000   0.93836995    -7.243805     65.38238  0.026321409  0.027912149            2 
  208000    0.9270107    -7.266358    65.330817  0.026174205  0.027836467            1 
  209000   0.91945615   -7.2700272    65.643301  0.026173565  0.027760938            2 
  210000   0.93040243   -7.2782245    65.835784  0.026125311  0.027685342            2 
  211000   0.94501865   -7.2889286    65.943589  0.026044071  0.027609351            3 
  212000   0.92650322   -7.2945168     65.89253  0.025901152   0.02753293            2 
  213000   0.94193004   -7.3043068    66.060094  0.025845107  0.027456858            6 
  214000   0.91854154   -7.3276024    66.296138  0.025816253  0.027380202            2 
  215000   0.92313975   -7.2430977    66.704475  0.025854448  0.027303846            2 
  216000   0.91341814   -7.3156041    66.537726  0.025670419  0.027227817            3 
  217000   0.92352337   -7.2982526    66.623458  0.025585045  0.027152022            3 
  218000   0.92083574   -7.3245513    66.773946  0.025525209  0.027075048            4 
  219000   0.92262691    -7.318995    66.836571  0.025432485  0.026997845            2 
  220000   0.90181309   -7.3089199    66.913159  0.025345894  0.026919052            1 
  221000   0.90656199   -7.3115939    66.976253  0.025254997  0.026839926            4 
  222000   0.91439235   -7.3321004    67.197447  0.025224267   0.02676122            2 
  223000   0.90605573    -7.317745     67.45786  0.025208468  0.026683474            2 
  224000   0.90355864   -7.3486032    67.473617  0.025101792  0.026605727            3 
  225000   0.89832249   -7.3302543    67.448873  0.024981064  0.026528478            3 
  226000   0.89472385   -7.3197169    67.683725  0.024957126  0.026451093            9 
  227000   0.90411751   -7.3261512    68.043995   0.02497944  0.026375167            3 
  228000   0.89247529   -7.3114174    68.273287  0.024953687  0.026299795            2 
  229000   0.91512588   -7.3488474    68.198499  0.024817503  0.026223994           10 
  230000   0.90532057   -7.3523345    68.656573   0.02487557  0.026149285            2 
  231000    0.8971614    -7.357893    68.635524   0.02476029  0.026074679            2 
  232000   0.88128384   -7.3561564    68.564382  0.024628011  0.025999433            3 
  233000   0.90504254   -7.3745243    68.702353  0.024571657  0.025923707            2 
  234000   0.91127403   -7.3730745    68.882016  0.024530633  0.025847653            3 
  235000   0.87825144   -7.3832333    69.028222  0.024478093  0.025772296            5 
  236000   0.89970369   -7.3967119    68.989571  0.024360724  0.025697101            3 
  237000   0.87837002   -7.3885344    69.244843  0.024347694  0.025621634            2 
  238000   0.87737384    -7.386563    69.291727  0.024261809  0.025546241            2 
  239000    0.8758972   -7.3968865    69.452016  0.024216184  0.025471507            4 
  240000   0.90285019   -7.3803443    69.564813  0.024154449  0.025395633            4 
  241000   0.88642737   -7.3518335     69.67622  0.024092745  0.025320653            2 
  242000   0.86733263   -7.3675274    70.112953  0.024143579  0.025246451            6 
  243000   0.91264983   -7.3867535    69.840515  0.023950794  0.025172649            4 
  244000   0.88369114   -7.3844887    69.813262  0.023843327  0.025098132            2 
  245000   0.84430916   -7.3925445    70.098666  0.023843083  0.025023474            9 
  246000   0.88448968   -7.4029087    70.251428  0.023797909  0.024949115            3 
  247000   0.88705042   -7.4191898    70.460375  0.023772056  0.024875016            8 
  248000   0.88793257   -7.4152059    70.274595  0.023613775  0.024801295            3 
  249000   0.85912437   -7.3867044    70.210272  0.023497414  0.024726318            4 
  250000   0.85619484   -7.4231913    70.394041   0.02346468  0.024650617            1 
  251000   0.86345495    -7.407142    70.741694  0.023486618  0.024575664            3 
  252000   0.86708717   -7.4232427    70.540134  0.023326764  0.024501033            3 
  253000   0.86056964   -7.4274858     70.84673   0.02333555   0.02442642            6 
  254000   0.86113495   -7.4314054    70.777111  0.023220837  0.024351668            3 
  255000   0.88011125   -7.4260859    71.025291  0.023210879  0.024276871            3 
  256000   0.83914938    -7.450543    71.086102  0.023140007  0.024202976            7 
  257000   0.85912263   -7.4493538    71.213344  0.023091227   0.02412857            4 
  258000   0.85848342   -7.4446583    71.320563  0.023036357   0.02405478            3 
  259000   0.85228141   -7.4380947    71.589954  0.023034091   0.02398172            1 
  260000   0.84678893   -7.4411055    71.414296  0.022889197  0.023908731            3 
  261000   0.84530461   -7.4641321    71.553327   0.02284589  0.023835721            2 
  262000   0.85528968   -7.4819397    71.657828   0.02279193  0.023763791            5 
  263000    0.8183083   -7.4659382    71.937901  0.022794012   0.02369198            3 
  264000   0.87209287   -7.4868825    71.850576  0.022680106  0.023620318            7 
  265000   0.86283117   -7.4866923    71.964011  0.022630192  0.023548968            3 
  266000   0.85035545    -7.472677    72.168058  0.022609041  0.023477877            3 
  267000   0.83785241   -7.4795458    72.062539  0.022491429  0.023407228            2 
  268000   0.84406184    -7.482614    72.125846  0.022427191  0.023336021            4 
  269000   0.83165808   -7.5075851     72.17757  0.022359842  0.023264564            6 
  270000   0.84612278    -7.498973     72.29191  0.022312318  0.023193678            4 
  271000   0.85306272   -7.5098419    72.441627  0.022276023  0.023122443            5 
  272000   0.83450964   -7.4891402    72.446482  0.022195613  0.023051004            5 
  273000   0.81175411   -7.5338971    72.598241  0.022160635  0.022980191            3 
  274000    0.8262254    -7.526292    72.598706  0.022079899  0.022909495            4 
  275000   0.82907532   -7.5138736    72.605114   0.02200155   0.02283859            4 
  276000   0.83411381   -7.5182407    72.741052  0.021962878  0.022767547            4 
  277000   0.82505147   -7.5237444    72.777688  0.021894611  0.022696056            7 
  278000   0.81909196   -7.5265952    72.661096  0.021780904  0.022624626            3 
  279000    0.8384928   -7.5272785    72.816163  0.021749153  0.022553759            3 
  280000   0.81875848   -7.5066632    73.171584  0.021777257  0.022483556            3 
  281000   0.81827825   -7.5137035    73.202301  0.021708867  0.022414149            5 
  282000   0.83037323   -7.5145147    73.281842  0.021655391  0.022345376            3 
  283000    0.8146407   -7.5327941    73.400251  0.021613737  0.022276506            4 
  284000   0.81274193   -7.5754718     73.44885  0.021551892  0.022207848            4 
  285000    0.8083739   -7.5636702    73.442932  0.021474541  0.022139545            4 
  286000   0.81414116   -7.5603648    73.524844  0.021423323   0.02207159            3 
  287000   0.81285286   -7.5481309    73.700324   0.02139963  0.022003467            2 
  288000   0.81291787   -7.6021754     73.67851  0.021319013   0.02193542            6 
  289000   0.81997183   -7.5579913    73.605175  0.021224099  0.021867507            6 
  290000   0.80129157   -7.5780666    73.924121  0.021242564  0.021799922            3 
  291000   0.79187584   -7.5827778    73.813422  0.021137864  0.021732136            6 
  292000   0.79144167    -7.563022    73.849603    0.0210758   0.02166448            2 
  293000    0.8063417   -7.6121195    73.886728  0.021014428  0.021597125            4 
  294000   0.80474125   -7.5913298    73.894683  0.020945205  0.021529696            4 
  295000   0.81744734   -7.6077673    74.087783  0.020928752  0.021462627            5 
  296000   0.81113432   -7.5758705    73.988749  0.020830166  0.021395277            4 
  297000   0.81438295   -7.5863386    74.223743  0.020825966  0.021328556            5 
  298000    0.7850271   -7.5709658    74.294338  0.020775821  0.021262481            4 
  299000   0.79745253   -7.5851293    74.467306  0.020754545    0.0211968            6 
  300000   0.78392492   -7.6084275    74.373884  0.020659412  0.021131077            4 
  301000   0.79540045   -7.6029565    74.621857  0.020659429  0.021065169            6 
  302000   0.77700336   -7.6211886    74.317373  0.020507001  0.020999339            4 
  303000   0.77557693   -7.6145987    74.533587  0.020498786  0.020933358            3 
  304000    0.7900858   -7.6060934    74.602223  0.020450171    0.0208677            2 
  305000   0.77219356   -7.6292263    74.546594  0.020367922  0.020802602            2 
  306000    0.7565757   -7.6021106    74.603516  0.020316862  0.020737521           11 
  307000   0.76404197   -7.6041704    74.771921  0.020296395  0.020673108            3 
  308000   0.76560201   -7.6503337    74.908617  0.020267483  0.020608949            4 
  309000    0.7661966   -7.6003969    75.066506  0.020244473  0.020544877            6 
  310000   0.78185735   -7.6462459    74.933843  0.020143506  0.020481035            2 
  311000   0.78767409   -7.6342935    75.104761  0.020124534   0.02041713            4 
  312000   0.77300132   -7.5948959    75.081901  0.020053927   0.02035351            4 
  313000   0.77117058   -7.6294567    75.110217  0.019997395  0.020290266            3 
  314000   0.74678151   -7.6400135    75.141147  0.019941918  0.020226983            9 
  315000   0.75496848   -7.6665914    75.045511   0.01985331  0.020163645            3 
  316000   0.76306323   -7.6610751    75.276827  0.019851484  0.020100313            3 
  317000   0.75596891   -7.6544964    75.224355  0.019775067   0.02003724            2 
  318000   0.75441035   -7.6656502    75.239432  0.019716832  0.019974222            6 
  319000   0.76776029   -7.6663965    75.303904  0.019671866  0.019911206            3 
  320000   0.77185505   -7.6987363    75.413006  0.019638804  0.019848311            3 
  321000   0.75605116   -7.7174823    75.198079  0.019521827  0.019785653            6 
  322000   0.74465243    -7.698375     75.49442  0.019537893   0.01972371            3 
  323000   0.76358172   -7.7124181    75.654069  0.019518594  0.019662272            3 
  324000   0.75861786   -7.6669818    75.621771  0.019450044  0.019601236            3 
  325000    0.7521877   -7.7257378    75.728779  0.019417636  0.019540425            3 
  326000   0.74411011   -7.6870358    75.570012  0.019317488   0.01947996            3 
  327000   0.75180133   -7.7190739    75.551072  0.019253586   0.01941913            4 
  328000   0.74943823   -7.7248877    75.521328  0.019187329  0.019358002            5 
  329000    0.7277144   -7.7308145    75.498361  0.019123192  0.019296595            8 
  330000    0.7447595   -7.7269745    75.680086  0.019111133  0.019235486            3 
  331000   0.75290864   -7.7479752    75.479395  0.019002869  0.019174342           10 
  332000   0.75598928   -7.7329578    75.668215  0.018993026  0.019113346            3 
  333000   0.71968175   -7.7061054    75.762356  0.018959549  0.019052586            2 
  334000   0.74513634   -7.7499287    75.641751  0.018872692  0.018992108            3 
  335000   0.74149533   -7.7207405    75.794478  0.018854348  0.018931912            8 
  336000   0.73230679   -7.7366251    75.717087   0.01877904  0.018871794            3 
  337000   0.74210682   -7.7642977    75.793364  0.018742177  0.018812434            3 
  338000   0.73813453   -7.7817113    76.033129   0.01874584  0.018753482            5 
  339000   0.71869393   -7.7446714    76.181495  0.018727014   0.01869466            5 
  340000   0.72740837   -7.7487945     76.23838  0.018685878  0.018635956            2 
  341000   0.72770613     -7.74649     76.28508  0.018642493  0.018577813            3 
  342000   0.73165026   -7.7292805    76.311885  0.018594514  0.018519894            6 
  343000   0.72976453   -7.7558283    76.364305  0.018553038  0.018461816            1 
  344000   0.71725257   -7.7386793    76.197099    0.0184586  0.018403894            2 
  345000   0.71968315    -7.794813    76.305402  0.018431257  0.018346039            6 
  346000   0.69003993   -7.7989651    76.149494  0.018340437  0.018288057            7 
  347000   0.71427383   -7.7565891    76.261227  0.018314416  0.018230026            5 
  348000   0.70114352   -7.7898833    76.250972  0.018259332  0.018172225            3 
  349000   0.68824901   -7.7904201    76.106975   0.01817263  0.018114387            3 
  350000   0.71904874   -7.7777049    76.263332  0.018157936  0.018056508            7 
  351000   0.70752405   -7.7967536    76.062664  0.018058562  0.017999187            5 
  352000   0.70494739   -7.7857589    76.126706  0.018022421  0.017941805            2 
  353000   0.70116912   -7.8001781    76.234345  0.017996777  0.017884781            5 
  354000   0.70212337   -7.7849885    76.429959  0.017991987  0.017827933            6 
  355000   0.69835387    -7.806766    76.346069  0.017921613  0.017771233           11 
  356000    0.7078914   -7.8313015    76.202216  0.017837597  0.017714703            5 
  357000   0.71894289   -7.8132907    76.286445  0.017807293  0.017658002            7 
  358000   0.70302243   -7.8218929    76.389454   0.01778153  0.017601785            6 
  359000   0.70316007   -7.8368186    76.235805  0.017696333  0.017545463            3 
  360000   0.70376855   -7.8246983    76.390323  0.017682945   0.01748934            8 
  361000   0.71037061   -7.8306645    76.357949  0.017626489  0.017433573            6 
  362000   0.68832664   -7.8333494    76.308663  0.017566451  0.017378049            3 
  363000   0.68125289   -7.8033289     76.29061  0.017513914  0.017322365            3 
  364000   0.68805582   -7.8139687    76.450469  0.017502397  0.017266951            5 
  365000   0.68513046   -7.8370229    76.387644  0.017440101  0.017211514            7 
  366000   0.66936127   -7.8246271      76.4004  0.017395355  0.017155969            3 
  367000   0.66625325   -7.8709381    76.386668  0.017344838  0.017100602            4 
  368000   0.67818883   -7.8378167    76.412257    0.0173035  0.017045636            4 
  369000   0.68115583   -7.8577402    76.162494  0.017200202   0.01699063            4 
  370000   0.68055332   -7.8828795    76.211542  0.017164762  0.016935476           13 
  371000    0.6783889   -7.8453923    76.369191  0.017153906  0.016880662            9 
  372000   0.67097653   -7.8569795    76.357349  0.017105141   0.01682641            6 
  373000   0.67724224   -7.8630078    76.468841  0.017084191  0.016772079            3 
  374000   0.67569849   -7.8906686    76.431894  0.017030279  0.016717953            4 
  375000   0.67211888   -7.8676748    76.583886  0.017018641  0.016664029            5 
  376000   0.67224726   -7.8787517     76.46208  0.016946383  0.016610155            2 
  377000   0.66394089   -7.8767046    76.552906  0.016921509  0.016556436           12 
  378000    0.6684043   -7.8572815    76.510892  0.016867481  0.016502945           11 
  379000    0.6631267   -7.8925242    76.322405  0.016781531  0.016449543           14 
  380000   0.66471032   -7.8922299     76.43906  0.016762952  0.016396122           11 
  381000   0.66503097   -7.8994191    76.463323  0.016724261  0.016342947           11 
  382000    0.6567682   -7.9071038    76.376781  0.016661601  0.016290247            8 
  383000   0.64467034   -7.8902912    76.466334  0.016637583  0.016237606           11 
  384000   0.64660907   -7.9240777    76.599878  0.016623237  0.016185042           11 
  385000   0.65467182    -7.898558     76.54866  0.016568974  0.016132743           15 
  386000   0.65953033   -7.9298059    76.350915  0.016483358  0.016080371           10 
  387000   0.64944974   -7.9224583    76.443909   0.01646079   0.01602829           11 
  388000   0.65062843   -7.9337671    76.483372  0.016426841  0.015976241           10 
  389000   0.64881073   -7.9350712    76.410121  0.016368921  0.015924467           10 
  390000   0.63913797   -7.9209601    76.439248  0.016333173  0.015872987            5 
  391000   0.63651367   -7.9162266    76.346593  0.016271652  0.015821517           15 
  392000   0.64126245    -7.927124    76.463395  0.016254973  0.015770061            4 
  393000   0.64241853   -7.9521315    76.532379   0.01622824  0.015718826            3 
  394000   0.63834818   -7.9423801    76.506794   0.01618164  0.015667974            7 
  395000   0.64475143   -7.9236476    76.428778  0.016124215  0.015617229            5 
  396000   0.62750689   -7.9620143    76.517563  0.016102181   0.01556653            4 
  397000   0.64036066   -7.9675998    76.407694  0.016038559  0.015515862            5 
  398000   0.63963671    -7.954931    76.440996  0.016005234  0.015465237            7 
  399000   0.60749528   -7.9654778    76.272717  0.015929974   0.01541468            4 
  400000   0.63736899   -7.9703903     76.52959  0.015943665   0.01536428            5 
  401000   0.62279196   -7.9771999    76.242512  0.015844246  0.015314084            5 
  402000   0.61975217   -7.9772115    76.338075  0.015824642   0.01526407           10 
  403000    0.6206075   -7.9745949    76.429842  0.015804351  0.015214094            4 
  404000   0.62312905   -7.9922805    76.384976  0.015755977   0.01516432           10 
  405000   0.62804841   -8.0040597    76.499186  0.015740573  0.015114801           14 
  406000   0.62232143   -7.9971353    76.426597  0.015686904  0.015065306            5 
  407000    0.6039106   -8.0013608    76.458458  0.015654885  0.015016028           12 
  408000   0.62168509   -8.0097915    76.459644  0.015616757  0.014966851           10 
  409000   0.62068927   -8.0095768    76.357356  0.015557734  0.014917833           15 
  410000     0.610478    -8.020121    76.216368  0.015491132  0.014868733            5 
  411000   0.62812238   -8.0309768    76.287229  0.015467808  0.014819822            5 
  412000   0.60685284   -8.0301001    76.231848  0.015419063  0.014771217            5 
  413000   0.58847628   -8.0157109    76.323259  0.015400173  0.014722847            6 
  414000   0.61017893    -8.002664    76.286389  0.015355553  0.014674622            4 
  415000   0.60346487   -8.0208363    76.320651  0.015325432  0.014626594            3 
  416000   0.61887927   -8.0186728    76.404473  0.015305383  0.014578935            6 
  417000   0.60005275    -8.031571    76.283155  0.015244436  0.014531292            6 
  418000    0.6090277   -8.0333403    76.287947  0.015208921  0.014483764            8 
  419000   0.59923235    -8.031731    76.313419  0.015177689  0.014436284            3 
  420000   0.60910827   -8.0516638    76.284687  0.015135851  0.014389088            3 
  421000   0.59009993    -8.045439    76.279287   0.01509883  0.014341994            4 
  422000   0.61008392   -8.0257293    76.154188  0.015038347  0.014294832            9 
  423000   0.60077827   -8.0562535    76.192386   0.01501032  0.014247946            8 
  424000   0.60085448   -8.0581613     76.22769  0.014981857  0.014201107            6 
  425000   0.59958755   -8.0644346    76.252467  0.014951464  0.014154571            8 
  426000   0.58851495   -8.0795966    76.213245  0.014908694  0.014108247            8 
  427000   0.59587893   -8.0516392    76.206186  0.014872402  0.014062133            7 
  428000   0.59568522   -8.0390563    76.326895  0.014861155   0.01401619            4 
  429000   0.58662974   -8.0538139    76.246762  0.014810948   0.01397049            9 
  430000    0.5859231   -8.0469324    76.324015  0.014791476  0.013925127            4 
  431000   0.58398637   -8.0615783    76.310639  0.014754571   0.01387985            9 
  432000   0.57679346   -8.0813106    76.307359  0.014719784  0.013834703            7 
  433000   0.57961025   -8.0788503    76.387947  0.014701299  0.013789756           13 
  434000   0.56951725   -8.0624292    76.377684  0.014665454  0.013745037           16 
  435000   0.58218134   -8.0913733    76.288202  0.014614598  0.013700426           10 
  436000   0.57676896   -8.0983129    76.260286  0.014575743   0.01365583           14 
  437000   0.56425625   -8.1007809    76.217844  0.014534295  0.013611488           14 
  438000   0.56584035   -8.0875162    76.412298  0.014538108  0.013567281            9 
  439000   0.57422503     -8.09658     76.26593  0.014477208  0.013523162           11 
  440000   0.55499259   -8.1165528    76.353393   0.01446087  0.013479166            9 
  441000   0.55627943   -8.0974044    76.197879  0.014398692  0.013435418            7 
  442000   0.57050818   -8.0999965    76.290416  0.014383563  0.013391835            5 
  443000   0.56252692   -8.1208389    76.233784  0.014340441  0.013348375            3 
  444000   0.56473893   -8.1050193    76.121038  0.014286982  0.013305025            5 
  445000   0.56535255   -8.1233118    76.102044  0.014251319  0.013261876            6 
  446000   0.55801175   -8.1268923    76.277487  0.014252146  0.013218857            4 
  447000   0.56392087   -8.1147244     76.03245  0.014174581  0.013176003            3 
  448000   0.55734131   -8.1232165    76.261372  0.014185523  0.013133231            4 
  449000   0.55176794   -8.1231474    76.131448  0.014129816  0.013090732           11 
  450000   0.55459988   -8.1212507    76.169074  0.014105384   0.01304835            3 
  451000   0.54148248   -8.1277139    76.154283  0.014071375  0.013006095            5 
  452000   0.54477929   -8.1467366    76.127224  0.014035255  0.012963904            5 
  453000   0.54385871   -8.1579327    76.003019  0.013981424  0.012921895            5 
  454000   0.55803614   -8.1410329    76.071011  0.013963108  0.012879941           11 
  455000   0.54775991   -8.1633584    75.903766  0.013901789   0.01283815            8 
  456000   0.54321714   -8.1532965    75.979953  0.013885225  0.012796551            9 
  457000   0.54432391    -8.157375    76.235526  0.013901445  0.012755063            7 
  458000   0.53877206   -8.1373734    76.039942  0.013835506  0.012713771            6 
  459000   0.52961406    -8.141756     76.04935  0.013807072  0.012672622            7 
  460000    0.5453873     -8.17194    76.018842  0.013771529  0.012631711            6 
  461000   0.53793178   -8.1598765    75.927793  0.013725198  0.012590908            7 
  462000   0.53154883   -8.1751198    76.021183  0.013712335  0.012550184            5 
  463000   0.53114063   -8.1926323    75.987849  0.013676719  0.012509635            5 
  464000   0.51755349   -8.1662457     76.07965   0.01366373  0.012469226            8 
  465000   0.52864997   -8.1678988    75.997625  0.013619646  0.012428969            9 
  466000   0.52409006   -8.1806875    75.884936  0.013570268  0.012388749            7 
  467000   0.51717499   -8.1906755    76.012002  0.013563883  0.012348731            2 
  468000   0.53268619   -8.1916693    75.991025  0.013531165  0.012308786           13 
  469000    0.5090071   -8.1901382     75.91701  0.013489163  0.012269064            6 
  470000   0.52116921   -8.1936937    75.867956  0.013451765  0.012229547            3 
  471000   0.51974941   -8.2140146    75.813874  0.013413637  0.012190013            3 
  472000   0.51299814   -8.2042265    75.849387  0.013391488  0.012150664            9 
  473000    0.5132613   -8.1949904    75.989464  0.013387855  0.012111479            8 
  474000   0.51882015   -8.2238868    75.857921  0.013336484  0.012072494            6 
  475000   0.52062216   -8.2180755    75.896152  0.013315114  0.012033584           12 
  476000   0.51722847   -8.1980991    75.917356  0.013290854  0.011994808            4 
  477000   0.50760358   -8.1972715    75.892047  0.013258569  0.011956232            4 
  478000   0.50301594   -8.1992917     75.76424  0.013208549  0.011917717            9 
  479000   0.51132044   -8.2153408    75.712848  0.013172033  0.011879311            3 
  480000   0.50803569   -8.2231007    75.841916  0.013166999  0.011841033            7 
  481000   0.49559414    -8.226377    75.769053  0.013127001    0.0118029            7 
  482000   0.49906073   -8.2091672    75.757348  0.013097743  0.011764973            9 
  483000   0.50216336   -8.2198839      75.8269  0.013082626  0.011727241            5 
  484000   0.48642606   -8.2411671    75.777821  0.013047145  0.011689607            8 
  485000   0.48795065     -8.21444    75.718582  0.013010066  0.011652101            4 
  486000   0.49002521   -8.2274173    75.771397  0.012992352  0.011614665            7 
  487000   0.48007588   -8.2279134    75.794686  0.012969659   0.01157744            7 
  488000   0.49529726    -8.236572    75.537208  0.012899113  0.011540366            4 
  489000   0.48784934   -8.2542644    75.677208  0.012896593  0.011503384            7 
  490000   0.48904169   -8.2332079    75.674517  0.012869816  0.011466569            6 
  491000   0.49145082   -8.2434143    75.749501  0.012856331  0.011429917            7 
  492000   0.48543516   -8.2438403    75.706803  0.012822968  0.011393383            6 
  493000   0.47378417   -8.2508037    75.659137  0.012788901  0.011357079            9 
  494000   0.46924666   -8.2525497    75.643055  0.012760299  0.011320926            7 
  495000   0.48552334   -8.2596226    75.703952  0.012744773  0.011284822            6 
  496000    0.4820331   -8.2434242    75.714753  0.012720893  0.011248929            6 
  497000   0.47173873   -8.2473492     75.57691  0.012672185  0.011213144            5 
  498000   0.48061025   -8.2670339    75.618773  0.012653744  0.011177573            5 
  499000   0.47725431   -8.2608305    75.736993  0.012648128  0.011142106            7 
  500000   0.47047292    -8.250678     75.63074  0.012605123  0.011106768            6 
  501000   0.47511979    -8.261444     75.59817  0.012574546  0.011071546            8 
  502000   0.46574361   -8.2526039    75.742176  0.012573402  0.011036512           11 
  503000   0.47099011   -8.2689746    75.655764  0.012534089  0.011001619            5 
  504000   0.46246995   -8.2904625    75.642831  0.012507082   0.01096682            9 
  505000   0.46553635   -8.2705063    75.636643  0.012481294  0.010932109            8 
  506000   0.45506862   -8.2840325    75.474889  0.012429988  0.010897578           11 
  507000   0.46050455   -8.2817001     75.58601  0.012423736  0.010863074            6 
  508000   0.44295632   -8.2829531    75.637359  0.012407703  0.010828737            5 
  509000   0.44835941   -8.2853186    75.672241  0.012389038  0.010794497            5 
  510000   0.44735892   -8.2947642     75.56237  0.012346792   0.01076048            6 
  511000   0.44146101   -8.2799834    75.541202  0.012319178  0.010726583            7 
  512000   0.44864954   -8.2946495    75.617726  0.012307573  0.010692818            5 
Loop time of 1162.79 on 48 procs for 500000 steps with 4000 atoms

Performance: 74304.360 tau/day, 430.002 timesteps/s
99.4% CPU use with 48 MPI tasks x no OpenMP threads

MPI task timing breakdown:
Section |  min time  |  avg time  |  max time  |%varavg| %total
---------------------------------------------------------------
Pair    | 68.541     | 74.981     | 82.772     |  33.0 |  6.45
Neigh   | 7.3691     | 7.7881     | 8.1619     |   6.4 |  0.67
Comm    | 66.914     | 76.848     | 84.311     |  38.6 |  6.61
Output  | 0.8342     | 0.8349     | 0.84935    |   0.3 |  0.07
Modify  | 987.38     | 991.31     | 995.67     |   5.5 | 85.25
Other   |            | 11.03      |            |       |  0.95

Nlocal:        83.3333 ave          92 max          72 min
Histogram: 1 0 2 5 5 12 10 5 6 2
Nghost:        1951.40 ave        1974 max        1930 min
Histogram: 3 4 5 5 6 9 6 5 4 1
Neighs:        12415.5 ave       14879 max       10300 min
Histogram: 2 1 7 6 9 15 7 0 0 1
FullNghs:      24828.9 ave       27881 max       21179 min
Histogram: 1 0 4 6 7 13 7 6 3 1

Total # of neighbors = 1191789
Ave neighs/atom = 297.94725
Neighbor list builds = 26841
Dangerous builds = 0

#clear
#
#next RN
#
#jump SELF
Total wall time: 0:19:26
