
units lj                  # Use reduced LJ style units
atom_style atomic         # Uncharged point particles
atom_modify map hash      # Needed for indexing of clusters etc
                          # Used to be able to find where atoms are in relation to each other.

lattice fcc 1.0 spacing 1 1 1
Lattice spacing in x,y,z = 1.5874011 1.5874011 1.5874011
region box block 0 10 0 10 0 10 units lattice
create_box 2 box
Created orthogonal box = (0.0000000 0.0000000 0.0000000) to (15.874011 15.874011 15.874011)
  3 by 4 by 4 MPI processor grid
create_atoms 1 box
Created 4000 atoms
  using lattice units in orthogonal box = (0.0000000 0.0000000 0.0000000) to (15.874011 15.874011 15.874011)
  create_atoms CPU = 0.002 seconds
set type 1 type/fraction 2 0.04 78393
Setting atom values ...
  161 settings made for type/fraction
mass 1 1.0
mass 2 1.0
pair_style lj/cut  3.5
pair_modify tail  yes
pair_coeff 1  1  1.0  1.0   # Intearaction between 1 and 1 set with epsilon = 1 and sigma = 1
pair_coeff 1  2  1.5  0.8
pair_coeff 2  2  0.5  0.88

write_data data.0
System init for write_data ...
Neighbor list info ...
  update every 1 steps, delay 10 steps, check yes
  max neighbors/atom: 2000, page size: 100000
  master list distance cutoff = 3.8
  ghost atom cutoff = 3.8
  binsize = 1.9, bins = 9 9 9
  1 neighbor lists, perpetual/occasional/extra = 1 0 0
  (1) pair lj/cut, perpetual
      attributes: half, newton on
      pair build: half/bin/atomonly/newton
      stencil: half/bin/3d
      bin: standard
WARNING: Not all mixed pair coeffs generated from mixing. Use write_data with 'pair ij' option to store all pair coeffs. (../write_data.cpp:312)


#############################
#   M E L T   S Y S T E M   #
#############################

velocity all create 2.4 3143649 mom yes dist gaussian # Assign velocities
                                                    # Temperature 2.4, random number seed, zero linear momentum
                                                                                # Gaussian distribution

timestep 0.002   # simulation timestep
thermo 1000       # output thermodynamic data every 1000 steps bf 100

# Define a fix  in this case with index 1 applied to all
# particles in the simulation. This fix is for simulations
# in the anisotropic NPT ensemble. Note that we use the MTK
# correction.
fix 1 all npt temp 2.4 2.4 0.1 iso 5.68 5.68 0.5 mtk yes tchain 5 pchain 5 # Use NPT ensemble
                                                                         # Set temperature and pressure and damping
                                                                         # Numbers of thermostats in chain and in barostat
run 10000          # run for 10000 steps
Per MPI rank memory allocation (min/avg/max) = 3.642 | 3.644 | 3.648 Mbytes
Step Temp E_pair E_mol TotEng Press Volume 
       0          2.4   -8.1195307            0   -4.5204307   -2.5632236         4000 
    1000    2.4221644   -4.5313889            0  -0.89905061    5.4793123    5058.0624 
    2000    2.3809092   -4.4922565            0  -0.92178549    5.6180698    5068.8205 
    3000     2.428055   -4.4518454            0  -0.81067344    5.8931517    5055.7734 
    4000    2.3996418   -4.4227591            0  -0.82419629    5.7930255    5083.6829 
    5000    2.4123394   -4.4175289            0  -0.79992441    5.9885752    5062.5071 
    6000    2.4067418   -4.4565885            0  -0.84737829    5.7333815    5074.0239 
    7000    2.4240968    -4.460939            0  -0.82570281    5.6673797    5092.0094 
    8000    2.3918359   -4.4696976            0   -0.8828407    5.6727404    5070.1856 
    9000    2.4216606   -4.4402608            0  -0.80867795    5.6369025     5098.926 
   10000    2.3810654   -4.4555552            0  -0.88485002    5.7438138    5068.1692 
Loop time of 2.0806 on 48 procs for 10000 steps with 4000 atoms

Performance: 830530.778 tau/day, 4806.312 timesteps/s
99.7% CPU use with 48 MPI tasks x no OpenMP threads

MPI task timing breakdown:
Section |  min time  |  avg time  |  max time  |%varavg| %total
---------------------------------------------------------------
Pair    | 0.86346    | 0.9281     | 0.98767    |   3.1 | 44.61
Neigh   | 0.16843    | 0.17551    | 0.19383    |   1.1 |  8.44
Comm    | 0.62198    | 0.72455    | 0.83583    |   5.1 | 34.82
Output  | 0.00025031 | 0.00025585 | 0.00031772 |   0.0 |  0.01
Modify  | 0.19632    | 0.23792    | 0.27866    |   4.9 | 11.44
Other   |            | 0.01426    |            |       |  0.69

Nlocal:        83.3333 ave          89 max          73 min
Histogram: 2 1 2 4 3 3 12 6 7 8
Nghost:        1401.71 ave        1427 max        1379 min
Histogram: 6 3 7 3 3 7 9 4 3 3
Neighs:        7511.52 ave        8335 max        6018 min
Histogram: 1 0 3 3 7 3 8 10 9 4

Total # of neighbors = 360553
Ave neighs/atom = 90.138250
Neighbor list builds = 907
Dangerous builds = 228

# Equilibrate just above the melting temperature to avoid step fn in T

fix 1 all npt temp 1.25 1.25 0.1 iso 5.68 5.68 0.5 mtk yes tchain 5 pchain 5
run 2000
Per MPI rank memory allocation (min/avg/max) = 3.643 | 3.645 | 3.648 Mbytes
Step Temp E_pair E_mol TotEng Press Volume 
   10000    2.3810654   -4.4555552            0  -0.88485002    5.7438138    5068.1692 
   11000    1.2612589   -5.9390257            0   -4.0476103     5.868022    4209.4638 
   12000    1.2366824   -5.9557395            0   -4.1011796    5.7337021    4209.8929 
Loop time of 0.462556 on 48 procs for 2000 steps with 4000 atoms

Performance: 747153.569 tau/day, 4323.805 timesteps/s
99.6% CPU use with 48 MPI tasks x no OpenMP threads

MPI task timing breakdown:
Section |  min time  |  avg time  |  max time  |%varavg| %total
---------------------------------------------------------------
Pair    | 0.20014    | 0.21552    | 0.23963    |   1.7 | 46.59
Neigh   | 0.030636   | 0.032641   | 0.036621   |   0.6 |  7.06
Comm    | 0.13505    | 0.15989    | 0.18035    |   2.4 | 34.57
Output  | 5.2895e-05 | 5.4163e-05 | 6.7852e-05 |   0.0 |  0.01
Modify  | 0.04287    | 0.049938   | 0.058177   |   1.9 | 10.80
Other   |            | 0.004509   |            |       |  0.97

Nlocal:        83.3333 ave          92 max          77 min
Histogram: 6 2 9 4 9 4 7 2 2 3
Nghost:        1582.90 ave        1601 max        1559 min
Histogram: 1 0 3 5 5 12 12 6 2 2
Neighs:        9046.29 ave       10147 max        7875 min
Histogram: 1 3 5 5 10 8 4 6 3 3

Total # of neighbors = 434222
Ave neighs/atom = 108.55550
Neighbor list builds = 142
Dangerous builds = 14

#############################
# L I N E A R  Q U E N C H  #
#############################

# Define solid atoms. This closely follows ten Wolde  Ruiz-Montero and Frenkel  Faraday Discuss  1996  104  93-110
# Compute components of the per-atom q6 vector
compute q6 all orientorder/atom degrees 1 6 components 6 nnn NULL cutoff 1.3 # compute the Q6 parameter.
                                                                             # Use all neighbours within 1.3 unit cell.

# get number of connections
compute coord_number all coord/atom orientorder q6 0.5

# An atom is solid if it has 8 or more connections (of a possible 14)
variable is_solid atom c_coord_number>=8
group solid dynamic all var is_solid    # Must be dynamic to update
dynamic group solid defined

# do clustering
compute cluster solid cluster/atom 1.3 # Create a cluster where all atoms within are solid and max 1.3 units from another member

# define chunks one chunk per cluster
compute clus_chunks solid chunk/atom c_cluster nchunk every compress yes  # Says which atoms are in which chunk

# count the size of each chunk
compute size_chunks solid property/chunk clus_chunks count


# Find the maximum entry in the vector of chunk sizes
variable max_n equal max(c_size_chunks)


# Thermo style which includes this variable
# thermo_style custom step temp pe vol v_max_n

thermo ${N}  # Print the thermo information every 100 steps
thermo 1000  

# Reset the npt fix at a lower temperature (below freezing)
fix 1  all npt temp  ${temp} ${temp}  0.1  iso  5.68  5.68  0.5  mtk yes tchain  5  pchain  5
fix 1  all npt temp  0.45 ${temp}  0.1  iso  5.68  5.68  0.5  mtk yes tchain  5  pchain  5
fix 1  all npt temp  0.45 0.45  0.1  iso  5.68  5.68  0.5  mtk yes tchain  5  pchain  5

dump dmp2 all dcd ${N} traj.dcd
dump dmp2 all dcd 1000 traj.dcd


compute msd all msd com yes
variable twopoint equal c_msd[4]/6/(step*dt+1.0e-6)
fix 9 all vector 10 c_msd[4]
variable fit equal slope(f_9)/6/(10*dt)
thermo_style custom step temp pe c_msd[4] v_twopoint v_fit v_max_n

fix 1 all npt temp 1.25 ${temp} 0.1 iso 5.68 5.68 0.5 mtk yes tchain 5 pchain 5
fix 1 all npt temp 1.25 0.45 0.1 iso 5.68 5.68 0.5 mtk yes tchain 5 pchain 5
run 5000000 # 5000000  # Run for this many steps
Neighbor list info ...
  update every 1 steps, delay 10 steps, check yes
  max neighbors/atom: 2000, page size: 100000
  master list distance cutoff = 3.8
  ghost atom cutoff = 3.8
  binsize = 1.9, bins = 9 9 9
  4 neighbor lists, perpetual/occasional/extra = 1 3 0
  (1) pair lj/cut, perpetual
      attributes: half, newton on
      pair build: half/bin/atomonly/newton
      stencil: half/bin/3d
      bin: standard
  (2) compute orientorder/atom, occasional
      attributes: full, newton on
      pair build: full/bin/atomonly
      stencil: full/bin/3d
      bin: standard
  (3) compute coord/atom, occasional
      attributes: full, newton on
      pair build: full/bin/atomonly
      stencil: full/bin/3d
      bin: standard
  (4) compute cluster/atom, occasional
      attributes: full, newton on
      pair build: full/bin/atomonly
      stencil: full/bin/3d
      bin: standard
Per MPI rank memory allocation (min/avg/max) = 9.736 | 9.739 | 9.744 Mbytes
Step Temp PotEng c_msd[4] v_twopoint v_fit v_max_n 
   12000    1.2366824   -5.9557395 7.9953025e-30 5.5522932e-32 8.3333333e+20            2 
   13000    1.2558305   -5.9339536   0.58243791 0.0037335762  0.048085295            3 
   14000    1.2481385   -6.0087648    1.1445277 0.0068126644   0.04761535            4 
   15000    1.2517064   -6.0121279    1.7179009 0.0095438933  0.047266286            2 
   16000    1.2844229   -5.9710105    2.2453918  0.011694749  0.046823135            6 
   17000    1.2534647   -5.9208049    2.8110162  0.013779491  0.046334201            2 
   18000    1.2500211   -5.9776374      3.39063  0.015697361  0.046537979            2 
   19000    1.2533339    -5.977165    3.9343224    0.0172558  0.046620113            4 
   20000    1.2564745   -5.9862121    4.4760248  0.018650103  0.046438346            3 
   21000    1.2637086   -5.9924617    5.0368953  0.019987679  0.046312303            2 
   22000    1.2436582   -6.0222612    5.5558261  0.021044795  0.046283651            2 
   23000    1.2871145   -5.9725938    6.1772067  0.022381183  0.046215531            2 
   24000    1.2682419   -5.9511526    6.7835539  0.023554006  0.046433531            4 
   25000    1.2378103   -5.9887946    7.3367357  0.024455785  0.046670027            4 
   26000    1.2177889   -6.0019423    7.7938449  0.024980272  0.046610424            2 
   27000    1.2526889   -5.9802754     8.443051  0.026058799  0.046523326            4 
   28000    1.2392863   -5.9871459    9.0711412  0.026997443  0.046694179            3 
   29000      1.23135   -5.9868054    9.6808954  0.027818665  0.046833413            6 
   30000    1.2642804   -5.9851328    10.188122  0.028300338  0.046965242            3 
   31000    1.2477183   -5.9924395    10.774097  0.028962625   0.04703314            5 
   32000     1.208824    -6.000885    11.236261  0.029261096  0.047005042            4 
   33000    1.2361171   -5.9927194    11.783106  0.029755318   0.04696256            2 
   34000    1.2391855    -5.984585    12.290361  0.030123434  0.046866451            4 
   35000    1.2729662   -5.9998098    12.899065  0.030712059  0.046790241            2 
   36000    1.2666558   -5.9740945    13.520859  0.031298285  0.046817833            2 
   37000    1.2477763   -5.9556052    13.928629  0.031370785  0.046788692            5 
   38000    1.2217322   -6.0692973    14.351309  0.031472169  0.046665794            2 
   39000    1.2330214    -5.978536    14.962989  0.031972199  0.046549677            2 
   40000    1.2306118   -5.9635924    15.595368   0.03249035   0.04648691            4 
   41000    1.2112265   -6.0062617    16.159355  0.032844217  0.046470739            4 
   42000    1.2673518      -5.9953    16.675203   0.03308572  0.046445771            4 
   43000    1.2213292   -5.9692933    17.197827  0.033329122  0.046393104            1 
   44000    1.2455795   -5.9798646    17.744914  0.033607791  0.046363998            4 
   45000     1.234681   -5.9714779    18.417215  0.034105952  0.046361775            2 
   46000    1.2501347   -5.9409172    19.003883  0.034427324  0.046357323            3 
   47000    1.2250869    -5.963387    19.628733  0.034802717  0.046376096            4 
   48000    1.2445964   -6.0167971    20.019791  0.034756582   0.04639042            4 
   49000    1.2449889   -5.9957531    20.640345  0.035102627  0.046385399            3 
   50000    1.2479458   -5.9717404    21.349438  0.035582397  0.046402075            3 
   51000    1.2894123   -5.9686893    21.882985  0.035756512  0.046447641            3 
   52000    1.2201232   -5.9976625    22.481974  0.036028804  0.046492134            3 
   53000    1.2369981   -6.0007341     23.15276   0.03640371  0.046552889            2 
   54000    1.2445107   -6.0016379    23.969482  0.036989941  0.046647252            4 
   55000     1.275454   -6.0354493    24.480519  0.037091695  0.046767892            3 
   56000    1.2392555   -5.9769427    25.164354  0.037446956  0.046868325            1 
   57000    1.2239066   -5.9879926    25.754155  0.037652273  0.046977592            2 
   58000    1.2529862   -5.9930512    26.331209  0.037832196  0.047088357            6 
   59000    1.2172013   -5.9606236    26.978794  0.038105641  0.047193243            2 
   60000    1.2528441    -6.014268    27.428697  0.038095412  0.047275939            3 
   61000    1.2444003   -5.9786628    28.024321  0.038284591  0.047337359            2 
   62000    1.2334362   -5.9870867    28.559161  0.038385969  0.047388079            3 
   63000    1.2468958    -5.968338    28.966707   0.03831575  0.047418309            7 
   64000    1.2478151   -6.0195804    29.383244  0.038259431  0.047415066            4 
   65000    1.2720807   -5.9698223    29.978461  0.038433924  0.047395964            3 
   66000    1.2314903   -5.9904597    30.379295  0.038357695  0.047375076            7 
   67000    1.2228174   -5.9547949    30.779228  0.038282622  0.047338812            1 
   68000    1.2105037   -5.9773949    31.448154  0.038539404  0.047297996            4 
   69000    1.2675082   -5.9872474    32.018128  0.038669236  0.047239586            2 
   70000    1.2073799   -6.0172575    32.382268  0.038550319  0.047195421            3 
   71000    1.2449055   -5.9953908    32.972067  0.038699609  0.047152351            2 
   72000    1.2379851   -5.9622749     33.44227  0.038706331  0.047093386            2 
   73000    1.2482286   -5.9437854    34.196522  0.039037125  0.047048516            3 
   74000    1.2570199   -5.9699758    34.629242  0.038996894  0.047011359            4 
   75000      1.25629   -6.0132305    35.083821  0.038982023   0.04696027            3 
   76000    1.2306219   -5.9933738    35.268427   0.03867152  0.046883011            2 
   77000    1.2464006   -6.0217393    35.868209  0.038818408    0.0467994            1 
   78000    1.2213667    -5.992094    36.556981  0.039056603  0.046726682            2 
   79000     1.236549   -6.0245582    36.890754  0.038914297   0.04666291            2 
   80000    1.2322083   -6.0204324    37.396581  0.038954771  0.046589731            2 
   81000    1.2324867   -5.9870018    37.880856  0.038972074  0.046512082            3 
   82000    1.2215979   -5.9615589      38.6548  0.039283333  0.046439498            5 
   83000    1.2253904   -6.0029242    38.913543  0.039069822  0.046370614            4 
   84000    1.2351868   -5.9727979    39.504712  0.039191182   0.04630469            5 
   85000    1.2361471   -6.0034591    39.715816  0.038937074  0.046231695            4 
   86000    1.2514832   -5.9978546    40.257302  0.039009014  0.046146025            4 
   87000    1.2577203   -6.0265767    40.781995  0.039063213  0.046062758            4 
   88000    1.2450894   -6.0090605    41.132119   0.03895087  0.045970448            5 
   89000    1.2360119   -5.9862652     42.11443  0.039432986  0.045902256            2 
   90000    1.2429911   -5.9986728    42.640017  0.039481497  0.045852785            5 
   91000    1.2619455   -6.0188923    43.663543  0.039984929  0.045815803            3 
   92000     1.258962   -6.0486283    44.208211  0.040043669  0.045801636            4 
   93000    1.2393084    -5.975768    44.768955  0.040115551  0.045794396            2 
   94000    1.2380041   -5.9537083    45.211366  0.040080998  0.045784958            2 
   95000    1.2233325   -5.9929376      45.8874  0.040252105  0.045771624            5 
   96000    1.2469996   -5.9965636     46.36334  0.040245955  0.045766619            2 
   97000    1.2344662   -5.9738202    46.823365  0.040226258  0.045754806            3 
   98000    1.2591541   -6.0201164    47.357611  0.040270078  0.045744081            5 
   99000     1.226739   -5.9761152    47.842574  0.040271527  0.045733093            3 
  100000     1.242172   -6.0129806    48.528923  0.040440769  0.045720083            2 
  101000    1.2294385   -5.9931922    48.941227  0.040380551  0.045708725            3 
  102000    1.2189409   -6.0240096    49.385083   0.04034729  0.045690763            3 
  103000    1.2674367   -5.9981049    50.179026  0.040597918  0.045677943            2 
  104000    1.2567085    -5.994392    50.574903  0.040524762  0.045667988            2 
  105000    1.2300536   -5.9692507    51.159013  0.040602391  0.045652713            5 
  106000    1.2223106   -5.9693492    51.570762  0.040543052  0.045632748            3 
  107000    1.2284397   -6.0490715    51.792196  0.040336601  0.045605181            3 
  108000    1.2373218   -5.9860828    52.548155  0.040546415  0.045579948            7 
  109000    1.2455066   -5.9912497    53.072079  0.040574984  0.045557729            2 
  110000    1.2450413   -6.0068382     53.50352  0.040532969  0.045541151            6 
  111000    1.2239629   -5.9835411    54.181465  0.040676775  0.045525768            4 
  112000    1.2473199   -5.9892192    54.894928  0.040844441  0.045521623            2 
  113000    1.2155793   -6.0066524    55.162824  0.040680549  0.045505386            2 
  114000    1.2533734    -6.044352    55.697312  0.040714409  0.045491503            3 
  115000    1.2273195   -6.0015832    56.363152  0.040842863  0.045469222            4 
  116000    1.2246303   -6.0088411    56.664386  0.040707174  0.045445127            2 
  117000    1.2500972   -6.0144163    57.130889  0.040691516  0.045414517            4 
  118000    1.2303194   -5.9948496    57.534089  0.040631418  0.045380135            3 
  119000    1.2458417   -6.0065381    57.842082  0.040505659  0.045342265            4 
  120000    1.2262369   -6.0222682    58.273706  0.040467851  0.045307757            3 
  121000    1.2553968   -5.9934064    58.742358   0.04045617  0.045269603            2 
  122000    1.2425108   -6.0067466    59.332374  0.040527578  0.045231846            6 
  123000    1.2347566   -5.9919624    59.541343  0.040339663  0.045188572            3 
  124000    1.2278744   -5.9970714    60.162592   0.04043185  0.045144643            5 
  125000    1.2154288    -6.009636    60.645476  0.040430317  0.045101929            2 
  126000    1.2447567   -6.0032079    61.044122  0.040373096  0.045058442            2 
  127000    1.2328542   -6.0256025    61.475061  0.040337967   0.04501556            2 
  128000    1.2177304   -5.9787186    62.263222  0.040535951  0.044975829            4 
  129000    1.2323489   -6.0359601    62.682733  0.040492722  0.044939739            5 
  130000    1.2195301   -5.9887742     63.35006  0.040609012  0.044907415            3 
  131000    1.2148806    -6.009222    63.893598  0.040644782  0.044879548            3 
  132000    1.2568022   -6.0008907    64.415669  0.040666458  0.044853451            4 
  133000    1.2296039   -6.0362716    64.940851  0.040689756  0.044826578            5 
  134000    1.2264892   -6.0193895    65.448311  0.040701685  0.044798996            3 
  135000    1.2374491   -6.0292505    65.924094  0.040693885  0.044773229            2 
  136000    1.2014573   -6.0210636    66.420931    0.0406991  0.044743869            3 
  137000    1.2558608   -5.9687463    66.969801  0.040735889   0.04471548            3 
  138000    1.2160315   -6.0253583    67.392113   0.04069572   0.04468334            2 
  139000    1.2511645   -5.9951719    68.081239   0.04081609  0.044651297            3 
  140000    1.2342513   -5.9906724    68.516807  0.040783813  0.044623559            1 
  141000    1.2609044   -6.0150878    69.127307  0.040855383  0.044599148            3 
  142000    1.2285853   -6.0074612    69.368082  0.040708968  0.044570548            3 
  143000    1.2037205   -5.9622517    69.608649   0.04056448  0.044536288            3 
  144000    1.2448678   -6.0348428    70.313773  0.040690841  0.044501001            3 
  145000    1.2476168    -6.020675    70.805636  0.040692894  0.044468461            2 
  146000    1.2361429    -6.030541    70.910338  0.040473937   0.04443524            2 
  147000     1.223879   -6.0307279    71.673559  0.040631269  0.044402873            4 
  148000    1.2333843   -6.0249157    72.599475  0.040878082    0.0443739            4 
  149000    1.2625655   -5.9855742     72.63255  0.040622231   0.04434354            4 
  150000    1.2366209   -5.9815791    73.491006  0.040828337  0.044316905            8 
  151000    1.2254672   -6.0205621    74.186884  0.040941989   0.04429352            2 
  152000    1.2316144   -5.9858781    75.067538  0.041155448  0.044277331            3 
  153000    1.2662822   -6.0496161     75.23095  0.040975463  0.044265461            2 
  154000    1.2295942   -6.0034992    75.748683  0.040989547  0.044251407            2 
  155000     1.218446   -6.0087399     76.68097  0.041226328  0.044239319            3 
  156000    1.2226771   -6.0133778    77.132878  0.041203461  0.044225445            2 
  157000    1.2059926   -6.0527874     77.10042   0.04092379   0.04420826            4 
  158000    1.2398379   -5.9828796    77.840058  0.041054883  0.044189217            3 
  159000    1.2242933   -6.0006814    78.168338   0.04096873  0.044170864            2 
  160000    1.2346214   -6.0726046    78.719206  0.040999586  0.044156367            4 
  161000    1.2283399   -6.0217312    79.315022  0.041053324  0.044140875            2 
  162000    1.2302692   -6.0166178    79.775486  0.041036773  0.044128588            3 
  163000    1.2483931   -6.0241387     80.30939   0.04105797  0.044115601            2 
  164000    1.2459386   -5.9847315    80.943861  0.041130011  0.044102719            2 
  165000    1.2459725   -5.9855316    82.166145  0.041498053  0.044092772            2 
  166000    1.2000272   -6.0560233    82.165003  0.041247491  0.044083608            3 
  167000    1.2166932    -6.030123     82.91824  0.041376367  0.044075902            3 
  168000    1.2465562   -6.0017506    83.314124   0.04132645  0.044070243            5 
  169000    1.2219713   -6.0614169    83.940066  0.041390565  0.044063067            3 
  170000    1.2143221   -5.9870522    84.383709  0.041364563  0.044055175            2 
  171000    1.2472091   -6.0385389    85.012697  0.041429189  0.044048044            1 
  172000    1.2287518   -5.9987506    85.601118   0.04147341   0.04404323            3 
  173000    1.2050004    -6.044752    86.064663  0.041456967  0.044039721            3 
  174000    1.2074043   -6.0455041    86.481554  0.041418368  0.044037597            8 
  175000    1.2328176   -6.0451667    86.937278  0.041398704  0.044034057            2 
  176000    1.2318219   -6.0361631    87.758884  0.041552502  0.044032483            3 
  177000    1.2177813   -5.9997269    88.809919   0.04181258  0.044032719            2 
  178000    1.2274833   -6.0460988    89.037562  0.041684252   0.04403944            2 
  179000    1.1990726   -6.0590941     89.45888  0.041647523  0.044046728            3 
  180000    1.2031011   -6.0356649    90.718767  0.041999429   0.04405501            5 
  181000     1.222546   -6.0258888    90.967462  0.041881889  0.044064883            3 
  182000    1.2686157   -6.0463189     91.46639  0.041880215  0.044074397            3 
  183000    1.2232104   -6.0195282    92.041088  0.041913064  0.044082098            5 
  184000    1.2278708   -6.0141942    92.435795  0.041864038  0.044088396            3 
  185000    1.2336764   -6.0187775    92.985844  0.041885515  0.044097656            2 
  186000    1.2371572   -6.0584725    93.390286  0.041841526  0.044100642            8 
  187000     1.198349   -6.0338352    94.419007  0.042076206  0.044105399            6 
  188000    1.2220833   -6.0485788    94.613609  0.041938656  0.044111134            4 
  189000     1.232954   -6.0413649    95.056878  0.041912204  0.044116937            3 
  190000    1.2257297   -6.0541373    95.410028  0.041846503  0.044120658           11 
  191000    1.1958314   -6.0337647    96.014858  0.041891299  0.044121579            2 
  192000    1.2331844   -6.0053297    96.572138  0.041914991  0.044124167            2 
  193000    1.2119062   -5.9944312    97.333485  0.042026548   0.04412891            3 
  194000    1.2001973   -6.0717692    97.764461  0.041995043  0.044131751            3 
  195000    1.2334899   -6.0228421    97.829993  0.041807689  0.044134138            4 
  196000    1.2128259   -6.0332774    98.370308   0.04182411  0.044135696            2 
  197000    1.2289326   -6.0183527    99.497948   0.04208881  0.044139735            3 
  198000    1.2597481   -6.0230856    100.03093  0.042100561  0.044142756            3 
  199000    1.2344402   -6.0181337    100.71657  0.042176117   0.04414848            2 
  200000    1.2358243   -6.0603188    100.92998  0.042054159  0.044152762            4 
  201000    1.2391284   -6.0264884    101.37862  0.042030938  0.044157257            4 
  202000    1.2363658    -6.011403    101.84225   0.04201413  0.044162683            2 
  203000    1.1956935   -6.0388122    102.38397  0.042029546   0.04416291            3 
  204000     1.197598   -6.0314412    102.75521  0.041975166  0.044160983            3 
  205000    1.2278442   -6.0258698    103.53816  0.042088683  0.044159936            1 
  206000    1.2239151    -6.018034    103.93271  0.042043975  0.044161982            3 
  207000    1.2118467   -6.0270444    104.19039  0.041944603  0.044158473            2 
  208000    1.2197466   -6.0280773     104.7869   0.04198193  0.044155803            2 
  209000    1.2166748   -5.9924378    105.76479  0.042170968  0.044156852            2 
  210000    1.2267738   -6.0286103    105.96762  0.042050642  0.044157094            3 
  211000    1.2131111   -6.0066819    106.32571  0.041992775  0.044155882            2 
  212000    1.1951551   -6.0307624    106.81201  0.041985852  0.044155234            4 
  213000    1.2314486   -6.0491282    107.14424  0.041918715  0.044151855            4 
  214000    1.1991994   -6.0570311    107.50058  0.041861596  0.044145817            4 
  215000    1.2280047   -6.0334313    107.90465  0.041823508  0.044137049           11 
  216000    1.2047971   -6.0418741    108.21789   0.04175073  0.044129355            3 
  217000    1.2012935   -6.0099599    109.37263  0.042001777  0.044121687            8 
  218000     1.199006   -6.0512985    109.45887  0.041842077  0.044113655            2 
  219000    1.2375247   -5.9840144    109.84636  0.041798461  0.044103642            4 
  220000    1.2212633   -6.0349142    110.68904  0.041927666  0.044093785            3 
  221000    1.2244617   -6.0611253    110.97194  0.041844623  0.044083921            2 
  222000    1.2210533   -6.0693703    111.72131  0.041937429  0.044075854            9 
  223000     1.200914   -6.0183295    111.98556  0.041848118  0.044066067            4 
  224000    1.2067498   -6.0274449    112.13468   0.04171677  0.044057274            3 
  225000    1.1983424   -6.0402249    113.44009  0.042014847   0.04405087            2 
  226000    1.2166865   -6.0085551    113.63152  0.041899528  0.044046957            2 
  227000    1.2092205   -6.0472664    114.53887  0.042048043  0.044043322            6 
  228000    1.2183369   -6.0541639    114.80375  0.041960433  0.044039402            3 
  229000    1.2371639   -6.0210931     115.7346   0.04211594  0.044035158            3 
  230000    1.2044774   -6.0236611    115.84373  0.041972365  0.044032591            4 
  231000    1.1979422   -6.0897858    116.23962  0.041933486  0.044028315            2 
  232000    1.2074107   -6.0462626    116.84364  0.041969697  0.044025734            3 
  233000    1.2217443   -6.0363501    118.25944  0.042295936  0.044025034            4 
  234000    1.2127402   -6.0156585    118.52501  0.042209763   0.04402485            1 
  235000    1.2067716   -6.0597775    118.39745   0.04198491  0.044023221            2 
  236000     1.224612   -6.0615534    118.53694  0.041856264  0.044018306            3 
  237000    1.2351394   -6.0517246    119.42272  0.041991111  0.044010607            3 
  238000    1.2028807    -6.020683    119.65181  0.041894891  0.044000764            4 
  239000     1.206942   -6.0315946    119.99984  0.041840948  0.043994156            6 
  240000    1.2087813   -6.0151913    120.75262  0.041927993  0.043988185            4 
  241000    1.1803503   -6.0571998    121.18462  0.041903397  0.043980032            4 
  242000    1.1989259   -6.0775716    121.50728  0.041841351  0.043973558            2 
  243000    1.2151431   -6.0518342     122.3733  0.041966151  0.043966563            4 
  244000    1.2259404   -6.0417297     122.9142  0.041978892  0.043959227            4 
  245000    1.2242772   -6.0063617    123.28202   0.04193266  0.043952412            2 
  246000    1.2008873   -6.0530309    123.63846  0.041882947  0.043944036            3 
  247000    1.2227275   -6.0542201    124.53549  0.042016021  0.043936538            3 
  248000    1.2027838   -6.0167753    125.49523  0.042169096  0.043932231            3 
  249000    1.2420866   -6.0455323    126.09633  0.042200914  0.043930781            4 
  250000    1.2038037   -6.0104917     126.0552    0.0420184  0.043928839            3 
  251000     1.197705   -6.0701643    126.76312  0.042086028  0.043925203            2 
  252000    1.2055847   -6.0579578    127.47608   0.04215479  0.043920012            1 
  253000    1.2274891   -6.1032502    127.15833  0.041883509  0.043912602            3 
  254000    1.2216629   -6.0474228    128.35495  0.042111204  0.043904489           10 
  255000    1.2186424   -6.0607674    128.11477  0.041867573  0.043895651            2 
  256000    1.2295738   -6.0436834    128.84457   0.04194159  0.043887044            4 
  257000    1.2306674    -6.055076    129.10709  0.041863517  0.043877821            5 
  258000    1.1995211   -6.0542412    129.84293   0.04193893    0.0438684            5 
  259000    1.2102339    -6.036513     130.1933  0.041889736   0.04385946            1 
  260000    1.2104906    -6.085437    130.32235  0.041769984  0.043849142            5 
  261000    1.2258183   -6.0290171    131.41181  0.041957795  0.043840329            3 
  262000    1.2058624   -6.0605861    131.58698  0.041853366  0.043832757            2 
  263000    1.1969961   -6.0618686    132.86211  0.042098261    0.0438249            4 
  264000    1.2011472   -6.0370662    133.11012  0.042017084  0.043817944            5 
  265000    1.2156978   -6.0908233    133.34056  0.041930994  0.043813701            2 
  266000    1.2048988    -6.072726    134.14204  0.042024449   0.04380797            3 
  267000    1.2085406   -6.0682823    134.76836  0.042062533  0.043800581            2 
  268000    1.1976688   -6.0431759    135.22827  0.042048592  0.043794084            4 
  269000    1.2001199   -6.0607366    135.07331  0.041844273  0.043786343            2 
  270000    1.2188837   -6.0625865    136.05572  0.041992506  0.043777866            4 
  271000    1.2489011   -6.0437537    136.62793  0.042013507  0.043772864            3 
  272000    1.2202522   -6.0599009    137.12411  0.042011063  0.043767753            2 
  273000    1.2029309   -6.0138993    137.72032  0.042039168  0.043763133            5 
  274000    1.2097719   -6.0830288    138.09715  0.042000351  0.043758158            3 
  275000    1.2124757   -6.0557889    138.97193  0.042112706  0.043753009            5 
  276000    1.1964114    -6.071607    138.95915  0.041956265  0.043748713            5 
  277000    1.2107614   -6.0463559    140.15312  0.042163994  0.043745054            3 
  278000    1.2060429   -6.0469278    140.31415  0.042060597  0.043739565            2 
  279000    1.1885951   -6.0628946    140.41666  0.041940459  0.043732746            3 
  280000    1.2199277   -6.0586628    141.46366  0.042102279  0.043725734            4 
  281000    1.2541447   -6.0575959    141.48232  0.041957984  0.043718568            2 
  282000    1.1958639   -6.0594492    141.72287  0.041880281   0.04371048            3 
  283000    1.2080448   -6.0209524    142.74083  0.042032048   0.04370296            4 
  284000    1.2167808   -6.0539698     142.8758   0.04192365  0.043695015            4 
  285000    1.2051087   -6.0619651    143.39515  0.041928407  0.043686431            5 
  286000    1.1916296   -6.0514421    143.18709  0.041721181  0.043675237            2 
  287000    1.2021522    -6.066168    143.69069  0.041722036  0.043662919            2 
  288000    1.2020774   -6.0817475     144.7541  0.041884868  0.043652549            4 
  289000    1.2463837   -6.0027111    144.91425  0.041786117  0.043642289            2 
  290000    1.2314367   -6.0564838     145.4701  0.041801753  0.043632201            4 
  291000    1.2348413    -6.077015    145.77473  0.041745341  0.043621319            4 
  292000    1.2090759   -6.0467543    146.35119  0.041766892  0.043610269            4 
  293000    1.1775217   -6.0283229    146.67015   0.04171506  0.043599261            2 
  294000     1.210237   -6.0625458    147.73855  0.041876007   0.04358829            2 
  295000    1.2158945   -6.0451178    148.17439  0.041857173  0.043578737            4 
  296000    1.1965004   -6.0541926    148.27398  0.041743802  0.043568812            3 
  297000    1.1897413   -6.0699249    148.80268  0.041751594  0.043559311            4 
  298000    1.1954848   -6.0558683    149.91198  0.041921694  0.043551131            4 
  299000    1.2349307   -6.0547406    150.09164   0.04183156  0.043543272            3 
  300000    1.2016176   -6.0684079    150.51653  0.041810146  0.043534555            5 
  301000     1.190135   -6.0728567    151.18568  0.041856499  0.043523192            2 
  302000    1.2201312   -6.0562541    150.94908  0.041652616  0.043512371            3 
  303000    1.1935854   -6.0128418    151.82295  0.041755486  0.043500567            2 
  304000    1.2287204   -6.0714765    152.19821     0.041721  0.043486677            7 
  305000    1.2104182    -6.087579    151.98667  0.041526411  0.043473267            3 
  306000    1.2147165   -6.0377692    152.87138   0.04163164  0.043459726            3 
  307000     1.215649   -6.0358508    153.18545  0.041581283  0.043446666            3 
  308000    1.1872305   -6.0326206    154.93219  0.041918882  0.043435477            3 
  309000    1.2258703   -6.0598856    154.65247  0.041707787  0.043425852            4 
  310000    1.1970278   -6.0445336    154.98261  0.041661992  0.043415392            3 
  311000    1.2012071   -6.0330778    155.95688   0.04178909  0.043404136            4 
  312000    1.2074068   -6.0814262    155.95861  0.041655611  0.043394501            4 
  313000     1.213204   -6.0602034    156.66216  0.041709841  0.043384436            3 
  314000    1.2054596   -6.0644388    157.35375  0.041760548  0.043375807            3 
  315000    1.1934727   -6.0288793    158.43313  0.041913526  0.043366977            4 
  316000    1.2085369   -6.0445264    158.43858  0.041782326  0.043358653            4 
  317000     1.212212   -6.0393986    159.46371  0.041920009   0.04334999            8 
  318000    1.2096058   -6.0816523    160.03301  0.041937372  0.043343238            3 
  319000    1.2281957   -6.0865104     160.3175  0.041880225   0.04333688            3 
  320000    1.1986953   -6.0587724    160.64238  0.041833953  0.043330357            2 
  321000    1.1971527   -6.0198668    161.60937  0.041954664   0.04332415            4 
  322000     1.225936   -6.0605753    161.28546  0.041740543  0.043317211            4 
  323000    1.2014734   -6.0769979    161.65341  0.041706247  0.043308545            3 
  324000    1.1757199   -6.0141874    162.50659  0.041796962  0.043299231            1 
  325000    1.2088066   -6.0203304    162.89177   0.04176712  0.043290399            3 
  326000    1.1921942    -6.077813    163.39953  0.041768797  0.043281952            2 
  327000    1.2013715   -6.0719412    163.74738  0.041729709  0.043272636            3 
  328000    1.2129045   -6.0978179    164.04951  0.041679244  0.043261794            3 
  329000    1.2042672   -6.0668867    163.68532  0.041460314  0.043251429            7 
  330000    1.1920555   -6.0452302    165.31911   0.04174725  0.043242145            5 
  331000    1.2023745   -6.0458984    166.09383  0.041816171  0.043234495            4 
  332000    1.2209832   -6.0298541    166.54115  0.041802497  0.043225536            2 
  333000    1.2054497   -6.0547394    167.10708  0.041818589  0.043216948            3 
  334000     1.194298   -6.1053388    167.18824  0.041713633  0.043208975            2 
  335000    1.2079663   -6.0776679    167.48811  0.041663708    0.0432002            3 
  336000    1.1716791   -6.0544285    168.49841   0.04179028  0.043189198            3 
  337000    1.1915457    -6.046091    168.29578  0.041616167  0.043178847            3 
  338000    1.1951342   -6.0716788    168.80788  0.041619301  0.043169329            5 
  339000    1.2007415   -6.0467859    169.56206  0.041681922  0.043159027            3 
  340000    1.2126768   -6.0535274    170.00199  0.041667154  0.043150289            2 
  341000    1.1851126   -6.0639842    170.01966  0.041549282  0.043141447            2 
  342000    1.2239988   -6.0747219    170.70101  0.041593813  0.043131592            4 
  343000    1.1831161   -6.0279868    171.34879   0.04162993  0.043121431            3 
  344000     1.168903   -6.0749819    171.82623  0.041624572  0.043109803            4 
  345000     1.211161   -6.0904847    172.00871  0.041547998  0.043098266            5 
  346000    1.2017259   -6.0766225    172.34273  0.041508365  0.043087296            3 
  347000    1.2076261   -6.0304645    173.60976  0.041693027  0.043076461            6 
  348000     1.211884   -6.0266866    173.85841  0.041632761  0.043066543           10 
  349000    1.2295349   -6.0448934     174.5633   0.04168178  0.043056865            1 
  350000    1.1878078   -6.0345259    173.95039  0.041416759  0.043046945            3 
  351000    1.1872773   -6.0426919    174.52801  0.041435901  0.043034555            4 
  352000    1.1816495   -6.0539451    174.90568  0.041407595  0.043020788            4 
  353000    1.1910508   -6.0719541    175.23065   0.04136701   0.04300767            2 
  354000    1.1966595   -6.0845766    175.64929  0.041348703  0.042993587            2 
  355000    1.1739403   -6.0411537    176.61208  0.041458235  0.042981015            3 
  356000    1.1923961   -6.0774132    176.18395   0.04124156  0.042966921            5 
  357000    1.2142236   -6.0851664    176.88969  0.041290778  0.042953223            2 
  358000    1.1872231   -6.0724735    177.85392  0.041399887  0.042938191            3 
  359000    1.2134177   -6.0932021    177.23153  0.041140095  0.042923962            5 
  360000    1.1962328   -6.0605853    177.88199  0.041176387  0.042909942            3 
  361000     1.199328   -6.0876444    179.08087  0.041339075  0.042896533            3 
  362000    1.1948724      -6.0791    179.16371  0.041243947  0.042883102            4 
  363000    1.1724726   -6.0550088    180.19159  0.041366297  0.042869565            8 
  364000    1.1973508   -6.0945653    180.42055  0.041305072  0.042857429            3 
  365000    1.1719265   -6.0690601    181.31908  0.041397051  0.042845273            5 
  366000    1.1784102    -6.094321    181.40079  0.041302547   0.04283433            3 
  367000    1.1888295   -6.1196617    182.38903  0.041414402  0.042822969            2 
  368000    1.1707525   -6.0496063    183.25695  0.041498404   0.04281369            2 
  369000    1.2130787   -6.0152332    184.51918  0.041670999   0.04280455            1 
  370000     1.199126   -6.0855152    183.86977  0.041412111  0.042796355            4 
  371000    1.1819078   -6.0739387    184.57422   0.04145872  0.042787033            2 
  372000    1.1921883   -6.1018905    185.03196  0.041449811  0.042777093            3 
  373000    1.1723298   -6.1176249    185.19416  0.041374923  0.042767639            5 
  374000    1.1817513   -6.0737828    186.29464  0.041509501  0.042757105            4 
  375000    1.1973121    -6.070547    185.67784  0.041261743  0.042747206            2 
  376000    1.1961915   -6.1059658    186.49509  0.041333132  0.042736679            3 
  377000      1.17903   -6.1003083    187.38792  0.041420848  0.042726576            2 
  378000    1.2241598   -6.0843133    187.76762  0.041394977  0.042716541            5 
  379000    1.1703115   -6.0660809    188.69008  0.041488584  0.042706234            5 
  380000    1.1778499   -6.1120862    188.29316   0.04129236  0.042696639            3 
  381000    1.2063665   -6.0617878    189.24885  0.041393011  0.042686327            2 
  382000    1.1770795   -6.1290216     189.9913  0.041446618  0.042676783            2 
  383000    1.1774501   -6.0947223    189.96085  0.041331777  0.042667314            4 
  384000    1.1897956   -6.0728642    190.81994  0.041410577  0.042657889            2 
  385000    1.1948439   -6.0607911    191.26975  0.041400379  0.042649678            2 
  386000    1.1772768   -6.0523714    191.78377  0.041404095  0.042641597            1 
  387000    1.1856016   -6.0597015     191.8195  0.041304802  0.042632583            2 
  388000    1.1879989   -6.0821842    192.24223  0.041289139  0.042622635            2 
  389000     1.181844    -6.054597    193.39708  0.041430395  0.042613694            4 
  390000    1.1529539   -6.0667848    194.28842   0.04151462  0.042605315            2 
  391000    1.1944833    -6.090248    194.50251  0.041454072  0.042596899            2 
  392000    1.1820714   -6.0976239    194.61723  0.041372711  0.042587889            3 
  393000    1.1897607   -6.0628609    194.88957  0.041325185  0.042579468            9 
  394000    1.2260012    -6.071345    195.46161  0.041341288  0.042571228            2 
  395000     1.209342   -6.1053773    195.48359  0.041241264   0.04256269            4 
  396000    1.1704505   -6.0754195    196.92148  0.041439706  0.042553078            4 
  397000    1.2005722   -6.0709049    196.65454  0.041279291  0.042543433            2 
  398000    1.1713881    -6.131725     196.3993  0.041122132  0.042531969            3 
  399000      1.17751   -6.0913226    196.46367  0.041032512  0.042519243            3 
  400000     1.179802   -6.0916107    197.91383  0.041232048  0.042506694            2 
  401000    1.2001541   -6.1072077    197.83256  0.041112336  0.042495345            3 
  402000    1.1875026   -6.1018521    199.24384   0.04130262  0.042484499            2 
  403000      1.19427   -6.0440488    199.75851  0.041306558  0.042473945            4 
  404000    1.2292262   -6.0570663    199.70508  0.041193292  0.042464469            3 
  405000    1.1469402   -6.0827689    199.97792  0.041147721  0.042454464            4 
  406000    1.1814512    -6.058677    201.51952  0.041362792  0.042444887            4 
  407000    1.2304856   -6.0905602    201.62333  0.041282418  0.042435897            3 
  408000    1.1672101   -6.0636193    202.61973   0.04138475  0.042427788            2 
  409000     1.184046   -6.0890753    202.11556   0.04118084  0.042419791            2 
  410000     1.179727   -6.0535571    203.97262  0.041457849  0.042411852            6 
  411000    1.1933497   -6.0792978    203.90645  0.041343563  0.042404626            5 
  412000    1.1929339   -6.0655647    204.69342   0.04140239  0.042397006            3 
  413000    1.1890065   -6.1152976    204.40192  0.041243326  0.042388673            5 
  414000    1.1915819   -6.0771625    205.24106  0.041312613  0.042379184            2 
  415000    1.2235406   -6.1074432    204.98619  0.041161886  0.042370489            3 
  416000    1.1546301   -6.1299096    205.25048  0.041115881  0.042361978            4 
  417000    1.2138664   -6.0775765     206.3346  0.041233934  0.042352368            4 
  418000    1.1869706   -6.0864627    206.63134  0.041194446  0.042343827            3 
  419000    1.1917588   -6.1051833    207.69893  0.041308458  0.042335813            3 
  420000     1.166231   -6.0958388    207.87723  0.041245481  0.042327742            4 
  421000    1.1956661   -6.1046445    208.05073  0.041181854  0.042319746            3 
  422000    1.1680947   -6.0881075    209.36157  0.041343123  0.042310994            4 
  423000    1.1670146   -6.0672377    209.27682  0.041228687   0.04230271            5 
  424000    1.2006196   -6.0995607    209.24653  0.041125498  0.042294854            4 
  425000     1.161301   -6.0836606    210.46923  0.041268476  0.042286655            2 
  426000    1.1828709   -6.1184177    211.22942  0.041320308  0.042278397            6 
  427000    1.1598077   -6.0695175    211.36622  0.041250238  0.042270364            3 
  428000    1.1469486   -6.0984059    210.94684  0.041072203  0.042262409            3 
  429000    1.2036729   -6.0931012    212.27547  0.041234552  0.042254805            5 
  430000    1.1906665   -6.0741008    212.59255  0.041200107  0.042246728            4 
  431000    1.1960004   -6.0936264    212.82938  0.041150305  0.042238598            3 
  432000     1.198663   -6.0910275    213.44105  0.041173041  0.042231078            2 
  433000    1.1927717   -6.0871558    214.66185  0.041312904  0.042223375            3 
  434000    1.1632374   -6.0813012    214.48859  0.041184445  0.042215359            3 
  435000    1.2081268   -6.1095801     215.2042  0.041226857  0.042207796            4 
  436000     1.188187    -6.072429    215.64539  0.041216626  0.042200011            5 
  437000     1.164694   -6.0978526    215.73515  0.041139425  0.042192731            2 
  438000    1.1938988   -6.0846924    216.13332  0.041121256  0.042185043            5 
  439000    1.1996611   -6.1185933    216.75498  0.041145593  0.042177401            3 
  440000    1.2112751   -6.1101467    217.32832  0.041160666  0.042169739            3 
  441000     1.211307   -6.0790907     218.0086   0.04119588  0.042163138            6 
  442000    1.1585086   -6.0940946    218.34449  0.041166006  0.042156068            6 
  443000    1.1657235   -6.1011397    218.97131  0.041190991  0.042148938            4 
  444000    1.1770088   -6.1288901    218.89691  0.041084255  0.042140497            3 
  445000    1.1810732   -6.1226171    219.63507  0.041130163  0.042132684            2 
  446000    1.1794838    -6.067475    219.66285  0.041043134  0.042124862            3 
  447000    1.1843183   -6.0821018    221.24132  0.041245585  0.042117119            6 
  448000    1.1611085   -6.0797966    220.56814  0.041028299  0.042109379            5 
  449000    1.1827505   -6.0931346    222.62796   0.04131922   0.04210179            4 
  450000       1.1876   -6.1085318    222.01302  0.041113522  0.042094788            5 
  451000    1.1678425    -6.082789    222.47448  0.041107627     0.042087            3 
  452000    1.1809639   -6.0845614    223.42867  0.041192602   0.04207984            4 
  453000    1.1728694   -6.1080114    223.41785  0.041099678  0.042072004            5 
  454000    1.1667809   -6.0866968    224.51768  0.041211027  0.042064586            4 
  455000    1.1786379   -6.1330627    223.93278   0.04101333  0.042057797            4 
  456000    1.1694771   -6.0508489    225.34776  0.041181973  0.042051123            3 
  457000    1.1824057   -6.1140773    225.87149  0.041187361  0.042044277            3 
  458000    1.1735048   -6.0824992    226.26005  0.041168131  0.042037423            2 
  459000    1.1789321   -6.1038684    226.85218  0.041185944  0.042029938            4 
  460000     1.198782   -6.1349249    226.54188  0.041040196  0.042022487            2 
  461000    1.1857092   -6.1097992    226.87097  0.041010659  0.042014999            4 
  462000    1.1862084   -6.0810452    227.69235  0.041070049  0.042006679           11 
  463000    1.1828488   -6.1261258    227.72617  0.040987432  0.041999001            3 
  464000    1.1820323    -6.142371    228.69876  0.041073772  0.041990749            6 
  465000    1.1813825   -6.1465336    227.83096  0.040829921  0.041981714            6 
  466000    1.1440954   -6.1388365    228.50281  0.040862448  0.041972316            3 
  467000    1.1895399   -6.1122449    229.29801  0.040916847  0.041963361            4 
  468000    1.1619776   -6.0740714    230.19478    0.0409891  0.041955022            3 
  469000    1.2011212   -6.1010537    230.93581  0.041033371  0.041947365            2 
  470000    1.1942025   -6.0972989    231.64966  0.041072634  0.041939433            5 
  471000    1.1882276   -6.1049985    231.39254   0.04093994  0.041931789            2 
  472000    1.1791346   -6.1221427    232.76371  0.041095287  0.041923783            2 
  473000    1.2122584   -6.1387911    232.03643  0.040880273   0.04191561            2 
  474000    1.1724895   -6.0892144    232.72691   0.04091542  0.041907784            3 
  475000    1.1821809   -6.0884719     233.2916  0.040928351  0.041898734            5 
  476000    1.1525747   -6.1348391    233.27815  0.040840012  0.041889881            3 
  477000    1.1979671   -6.0791321    234.64117  0.040992518  0.041880732            3 
  478000    1.1728932   -6.1011411    233.65427  0.040734706  0.041871568            3 
  479000    1.1591517   -6.1113935    234.20849  0.040746083  0.041861643            6 
  480000    1.1787222   -6.1397064    235.32009  0.040854182  0.041852154            5 
  481000    1.1461547   -6.1162913    236.12617  0.040908899   0.04184334            2 
  482000    1.1916792    -6.086036    236.06627   0.04081367  0.041834741            2 
  483000     1.164453   -6.1347711    236.43088  0.040792077   0.04182583            3 
  484000    1.1574839   -6.0746807    237.67946  0.040922772   0.04181659            6 
  485000    1.1505747   -6.1124156    237.21871  0.040759229  0.041807713            4 
  486000    1.1735418   -6.1096072    238.43741  0.040884329  0.041798993            4 
  487000    1.1894044   -6.1059743     238.9671  0.040891016  0.041790378            2 
  488000    1.1808986   -6.1260093    238.47519  0.040723222  0.041781365            6 
  489000    1.1613423   -6.1424178    238.91916  0.040715603  0.041771608            3 
  490000    1.1751459    -6.124567    239.04038  0.040653126  0.041761626            5 
  491000    1.1533551   -6.1067576    239.81095  0.040701112  0.041751201            3 
  492000    1.1798148   -6.1007357    240.53291  0.040740668  0.041741755            5 
  493000     1.186732   -6.0918432    241.19793  0.040770441  0.041731005            2 
  494000    1.1645848   -6.1260051    241.04416  0.040661971  0.041720734            4 
  495000    1.1817902   -6.1334333     241.4997  0.040656514  0.041709879            2 
  496000    1.1733764   -6.1249692    242.00848  0.040660028  0.041699573            5 
  497000    1.1699064   -6.1559776    242.08235  0.040590603  0.041689294            4 
  498000    1.1779793   -6.0824643    243.40764  0.040730864  0.041679237            3 
  499000    1.2055322   -6.0937329    242.75485  0.040540222  0.041669856            3 
  500000    1.2007844   -6.1277402    242.62244  0.040437074  0.041659558            2 
  501000    1.1743913   -6.0769564    244.48159    0.0406656  0.041648761            3 
  502000     1.173222   -6.1530555    243.78615  0.040469149  0.041637644            3 
  503000    1.1444603   -6.1431729    244.28982  0.040472136  0.041626603            3 
  504000    1.1668585   -6.1571595    245.17545  0.040538268  0.041615853            2 
  505000    1.1504374   -6.1147909    246.47981  0.040673236  0.041605895            6 
  506000    1.1484829   -6.1379323    245.94967  0.040505545  0.041596941            3 
  507000    1.1466589   -6.0842597    247.16786  0.040625882  0.041588016            4 
  508000    1.1633353   -6.1387465    247.47614   0.04059648  0.041579255            4 
  509000    1.1861286    -6.136019    247.98529   0.04060008  0.041570271            4 
  510000    1.1616731   -6.1379383    249.46955  0.040762999  0.041562145            3 
  511000    1.1637541   -6.1171697    249.50488  0.040688989  0.041554848            2 
  512000    1.1638797   -6.1346426    250.43936  0.040761614   0.04154725            3 
  513000    1.1594142   -6.1376865    251.08412  0.040786894  0.041540288            2 
  514000    1.1893129   -6.1273151    251.90215  0.040840166  0.041533396            4 
  515000    1.1662283   -6.1190236    252.22826  0.040813634   0.04152616            7 
  516000    1.1421032   -6.0931758    252.04789  0.040705408  0.041519472            3 
  517000    1.1760614    -6.095963    254.30018  0.040989713   0.04151387            3 
  518000    1.1768816    -6.073214     253.7721  0.040825627  0.041507819            4 
  519000    1.1490443   -6.1541332    253.88023  0.040764327  0.041502009            4 
  520000     1.160438   -6.0986324    255.11836  0.040884353  0.041495795            2 
  521000    1.1744351    -6.086857    256.71901  0.041061902  0.041490051            2 
  522000    1.1605365   -6.0969057    256.60598  0.040965195  0.041484916            1 
  523000    1.1706315   -6.1303761    256.67492  0.040897852   0.04147953            3 
  524000    1.1761199   -6.0938602    256.80982  0.040841256  0.041473666            5 
  525000    1.1655587   -6.1285692    257.48332  0.040870368  0.041468696            2 
  526000    1.1435868   -6.1512635    259.01775  0.041035765  0.041463394            2 
  527000    1.1567684   -6.0835508    258.81216  0.040925389  0.041457981            2 
  528000    1.1634126   -6.1500175    257.76933  0.040683291  0.041453199            4 
  529000    1.1573643   -6.1360477     259.9815  0.040954868  0.041448642            3 
  530000    1.1621439   -6.1476508    259.34722  0.040777865  0.041443305            3 
  531000    1.1704019   -6.1133825    260.87674  0.040941109  0.041437929            3 
  532000    1.1452685   -6.0983572    260.84101  0.040858555  0.041433383            4 
  533000    1.1528628   -6.1169835    260.55922  0.040737839  0.041429079            2 
  534000    1.1728282   -6.1569653    262.00871  0.040887751  0.041424379            1 
  535000    1.1849622   -6.0918056     263.1382  0.040987259  0.041420032            3 
  536000    1.1718468   -6.1177194    262.44478  0.040802982  0.041414904            2 
  537000     1.170985    -6.100549    262.94999    0.0408054  0.041410289            4 
  538000    1.1583876   -6.1671097    263.78554  0.040858974   0.04140551            2 
  539000    1.1569693    -6.110399    263.56056  0.040748386  0.041400336            2 
  540000    1.1582888   -6.1201972    264.79654  0.040863663  0.041395314            2 
  541000    1.1672064   -6.1232244    265.40417  0.040881727  0.041390625            3 
  542000    1.1774387   -6.1020164     265.1421  0.040766006  0.041384347            3 
  543000     1.163535   -6.1010228    265.64364  0.040767901  0.041378057            3 
  544000    1.1416227   -6.0975375    266.33037  0.040798157  0.041372004            5 
  545000    1.1480488   -6.0974536    266.66333   0.04077421  0.041366227            2 
  546000     1.177101   -6.1318452    267.59624  0.040841917  0.041361212            2 
  547000    1.1731256    -6.077837    267.98489  0.040826461  0.041355949            4 
  548000     1.164751   -6.1220121    267.87975  0.040735972  0.041350422            4 
  549000    1.1439398   -6.0901116     269.2565   0.04087075  0.041345096            4 
  550000    1.1689708   -6.1407495    269.21555  0.040790235  0.041339829            2 
  551000    1.1416637   -6.1485046    270.04299  0.040841347  0.041334819            2 
  552000    1.1525117   -6.1286597     270.1941  0.040790172  0.041330088            3 
  553000    1.1636634   -6.1132666    270.85359  0.040815791  0.041325606            2 
  554000    1.1351475   -6.1368787    272.50533  0.040990573  0.041321217            5 
  555000    1.1602583   -6.1116709    272.20998   0.04087237  0.041317149            4 
  556000    1.1808993   -6.0962404    273.11239  0.040934111  0.041313207            2 
  557000    1.1563558   -6.1596301    273.35268   0.04089657  0.041309526            4 
  558000    1.1890525   -6.0963021    274.37167  0.040975458  0.041305704            4 
  559000    1.1652398   -6.1039828     274.9768  0.040992367  0.041302501            4 
  560000    1.1405159   -6.1175696    274.38311   0.04083082  0.041298911            3 
  561000     1.122898   -6.1636731    275.32301  0.040897654  0.041295373            4 
  562000    1.1498437   -6.1554999    275.84256  0.040901922  0.041291722            5 
  563000    1.1774841   -6.1615135    275.47272  0.040774529  0.041287567            3 
  564000    1.1565955   -6.0990742    276.11778  0.040797544  0.041283333            3 
  565000    1.1578684   -6.1540943     276.2365  0.040742846  0.041279451            5 
  566000    1.1650693   -6.1261271    276.96444  0.040778039  0.041275385            3 
  567000    1.1700085   -6.1349396    277.90541  0.040844417  0.041270904            5 
  568000    1.1465771   -6.1340972    278.10229  0.040801392  0.041266783            5 
  569000    1.1740109   -6.1113688    278.99203  0.040859993   0.04126241            2 
  570000    1.1658033   -6.1309424     278.6966  0.040745117  0.041257833            3 
  571000    1.1896575    -6.134332    278.95163   0.04071098  0.041253007            4 
  572000    1.1617508   -6.1354618     279.1192  0.040664219  0.041247868            2 
  573000    1.1548208   -6.1429801     280.4928   0.04079302  0.041242651            3 
  574000    1.1603482   -6.1476454    280.32178  0.040697122  0.041236989            5 
  575000    1.1688185   -6.1275152     280.5694  0.040662231  0.041231691            7 
  576000    1.1549341   -6.1131472    280.59262  0.040594997  0.041226742            4 
  577000    1.1645115   -6.1523778    281.20574  0.040613192  0.041221779            3 
  578000     1.156997   -6.1723488    282.03566  0.040662581  0.041216823            5 
  579000    1.1377466   -6.1008859    283.57528  0.040813943  0.041211614            1 
  580000    1.1629887   -6.1111209     284.0321   0.04080921  0.041207502            3 
  581000    1.1272449   -6.0816344    283.56526  0.040672011  0.041202679            2 
  582000    1.1404812   -6.1108455    283.90847  0.040651269  0.041197517            3 
  583000    1.1596813   -6.1629246    284.25187  0.040630628  0.041192229            4 
  584000    1.1437001   -6.1125931    285.81622  0.040784278  0.041186857            2 
  585000    1.1872293   -6.1417153     285.2542  0.040634501  0.041181921            2 
  586000    1.1337497   -6.1570837    285.76138  0.040637284  0.041177021            4 
  587000    1.1347223   -6.1594575    285.78712   0.04057171  0.041171534            1 
  588000    1.1641099   -6.1617666    285.27452  0.040430062  0.041165392            4 
  589000    1.1587107   -6.1319675    286.66627  0.040558329  0.041159482            5 
  590000    1.1584487   -6.1193379    288.30312   0.04072078  0.041153969            2 
  591000    1.1436206   -6.1804748    286.51026  0.040399077    0.0411483            4 
  592000    1.1560081   -6.1547652    288.21801  0.040571229  0.041142256            3 
  593000    1.1917101   -6.1368518    287.91312  0.040459966  0.041135568            3 
  594000    1.1686918   -6.1544016    287.66153  0.040356556  0.041128438            3 
  595000    1.1678193   -6.1403461    288.27399  0.040374509  0.041121357            4 
  596000    1.1424688   -6.1159164    288.44772  0.040331057  0.041114098            4 
  597000    1.1857442   -6.1547288    288.16812  0.040224473  0.041106649            3 
  598000    1.1704219   -6.1891466    288.62196  0.040220451  0.041098301            7 
  599000    1.1706982   -6.1145673    290.31145  0.040388348  0.041090365            6 
  600000    1.1559599   -6.1857949    290.77158  0.040384942  0.041083138            4 
  601000    1.1671572    -6.129405    290.80289  0.040322087  0.041075872            2 
  602000    1.1636387   -6.1118231     291.8645  0.040402062   0.04106886            2 
  603000    1.1445787   -6.1733068    291.10567  0.040230192  0.041061197            8 
  604000    1.1461706    -6.130873      291.477  0.040214818  0.041052963            3 
  605000    1.1459283   -6.1465408    291.37051  0.040133679  0.041044336            2 
  606000    1.1596712   -6.1264148    291.68455  0.040110637  0.041035299            6 
  607000    1.1782534   -6.1509497    292.83781  0.040202884  0.041026843            9 
  608000    1.1774974   -6.1722047    292.70061  0.040117957  0.041018509            6 
  609000    1.1633618    -6.176467    293.26231  0.040128942   0.04100978            2 
  610000    1.1467359   -6.2163543    294.34534  0.040211112  0.041001236            4 
  611000    1.1381153    -6.125169    294.10151  0.040112044  0.040992541            3 
  612000    1.1417646   -6.1506819    295.22367  0.040199301  0.040984228            2 
  613000    1.1351125   -6.1586052    293.88748  0.039952077  0.040975069            2 
  614000    1.1615004   -6.1638936    295.14881  0.040058199  0.040965796           12 
  615000    1.1403332   -6.1610006     295.6741  0.040064241  0.040956695            4 
  616000    1.1813191   -6.2010373    296.04484  0.040049356  0.040947576            2 
  617000    1.1596447   -6.1266583     297.0664   0.04012242  0.040938289            7 
  618000    1.1682326   -6.1144004    297.58821  0.040127859  0.040929367            5 
  619000    1.1547191   -6.1518704    298.13464  0.040136597  0.040920933            6 
  620000     1.172738    -6.157534    299.44881  0.040248495  0.040913072            4 
  621000    1.1624414    -6.145494    298.54171  0.040061957  0.040904389            4 
  622000    1.1245449   -6.1772332    298.33443  0.039969779  0.040895547            6 
  623000    1.1496426   -6.1275418    299.82844  0.040105463  0.040886456            3 
  624000    1.1504352   -6.1460914    299.72142    0.0400269  0.040877875            3 
  625000    1.1164385   -6.1464235    300.38159  0.040050879  0.040869068            3 
  626000    1.1424184    -6.148579    300.42259  0.039992357  0.040859858            5 
  627000    1.1638704   -6.1709595    300.50047  0.039938925  0.040850196            3 
  628000    1.1278033   -6.1847845    300.52621  0.039878744  0.040840182            4 
  629000    1.1389546   -6.1693901    300.64235   0.03983073   0.04083009            6 
  630000    1.1279258   -6.1402957     301.7339  0.039911892  0.040820195            2 
  631000    1.1666254   -6.1384153    301.90122  0.039870736  0.040810706            6 
  632000    1.1624896   -6.1406772    302.58672  0.039898038  0.040801168            3 
  633000     1.143931   -6.1302086    303.97387  0.040017624  0.040791922            4 
  634000    1.1647495   -6.1481966    304.10662  0.039971953  0.040782831            2 
  635000    1.1565477   -6.1603229    303.95685   0.03988935  0.040773727            8 
  636000    1.1301754   -6.1514448    303.63044  0.039783862  0.040764209            4 
  637000    1.1233296   -6.1610218    304.93988   0.03989271  0.040754331            3 
  638000    1.1541998   -6.1323773    305.85569  0.039949803  0.040744081            2 
  639000    1.1489804   -6.1574681    305.69838  0.039866768  0.040734863            4 
  640000    1.1266369   -6.1744896    305.08116   0.03972411  0.040725123            5 
  641000    1.1750375    -6.196625    305.30131  0.039690758  0.040715205            3 
  642000    1.1447228   -6.1368607    306.63564  0.039802134  0.040705029            4 
  643000    1.1425556    -6.147664    306.97627  0.039784379  0.040694583            4 
  644000    1.1580977   -6.1485591    306.85737  0.039707217   0.04068389            3 
  645000    1.1388107       -6.174    307.69011  0.039753245  0.040673669            9 
  646000    1.1509287   -6.1298135    307.73472  0.039697461  0.040663417            3 
  647000    1.1449687   -6.1687268    307.14888   0.03956065  0.040652657            4 
  648000    1.1520867   -6.1444514    308.80331   0.03971236  0.040641962            4 
  649000    1.1554278   -6.1559736    309.39877  0.039727628  0.040631476            2 
  650000     1.172094   -6.1342209    309.39084  0.039665492  0.040621156            5 
  651000    1.1499912   -6.1326274    310.37874  0.039731022  0.040610969            3 
  652000    1.1583921   -6.1749575    311.43128  0.039804612  0.040601078            5 
  653000    1.1441227   -6.1168705    311.36312  0.039734956  0.040591787            3 
  654000    1.1355573   -6.1604088    310.93654  0.039619844  0.040581935            2 
  655000    1.1330111   -6.1156387    312.72926  0.039787438  0.040572079            4 
  656000    1.1471414   -6.1617381    313.39822  0.039811766   0.04056276            3 
  657000    1.1690469   -6.1523606    313.70936  0.039790635  0.040553204            4 
  658000    1.1309849   -6.1753584    313.05412  0.039647179  0.040543701            6 
  659000     1.153875   -6.1055945    312.80987   0.03955613  0.040533704            3 
  660000    1.1275792   -6.1894552    314.17255  0.039668252  0.040523638            3 
  661000     1.141465   -6.1069432    313.83495  0.039565678  0.040513082            7 
  662000    1.1443962    -6.217401    314.03859  0.039531545   0.04050225            4 
  663000    1.1546866   -6.1878942    314.45944  0.039524817  0.040491597            3 
  664000    1.1391852   -6.1701695    315.38347  0.039581259  0.040481239            2 
  665000    1.1679343   -6.1649518    316.58502  0.039672308  0.040470881            4 
  666000    1.1615476   -6.0972701    316.05645  0.039546602  0.040461063            6 
  667000    1.1408515   -6.1717202    316.46552  0.039538421  0.040450817            7 
  668000    1.1445666   -6.1845829    316.74881  0.039514571  0.040440573            5 
  669000    1.1366044   -6.1140827    317.99459  0.039610686  0.040430757            1 
  670000    1.1461505   -6.1723706    317.24119   0.03945786  0.040420946            3 
  671000    1.1425029   -6.1206747    319.66632  0.039700238  0.040411349            4 
  672000      1.15086   -6.1649452    318.79616  0.039533254  0.040401434            7 
  673000    1.1673014   -6.1764507    319.53849   0.03956643  0.040391273            3 
  674000    1.1255363   -6.1825934     319.1996  0.039465826  0.040381385            3 
  675000    1.1536588   -6.1790406    320.68243  0.039590423  0.040371788            3 
  676000    1.1251711   -6.1511461    321.64876  0.039650982  0.040362827            5 
  677000    1.1408604   -6.1392689    321.79944  0.039610961  0.040353964            2 
  678000    1.1408239   -6.1269191     323.5858  0.039772099  0.040345993            5 
  679000    1.1404782    -6.164549    322.06516  0.039526898  0.040337146            6 
  680000    1.1440798   -6.1639868    323.12062  0.039598115  0.040327936            9 
  681000    1.1184541    -6.139365    323.60942  0.039599782  0.040318525            4 
  682000    1.1467034   -6.1313124    323.53285  0.039532361  0.040308528            3 
  683000    1.1481355   -6.1395102    323.61268  0.039484221  0.040299269            6 
  684000    1.1581109   -6.1355957    324.05686  0.039480612  0.040289572            5 
  685000    1.1718787   -6.1818607    324.55871  0.039484028  0.040279603            7 
  686000    1.1622059   -6.2008228    323.20658  0.039262218   0.04026884            3 
  687000    1.1476935   -6.1716722    322.41284  0.039108788  0.040257855            3 
  688000    1.1135322   -6.1454867    324.75776  0.039335969  0.040247018            4 
  689000    1.1452204   -6.1714262    325.21403  0.039334063  0.040236622            3 
  690000    1.1637102    -6.122077    326.85628  0.039475396  0.040226062            1 
  691000    1.1546208   -6.1504379    326.75288  0.039405799  0.040215868            4 
  692000    1.1416766    -6.168625    326.47941  0.039315921  0.040205222            4 
  693000    1.1287871   -6.1619783    327.14827  0.039339619  0.040194401            4 
  694000    1.1373386   -6.1473017    327.18657  0.039287533  0.040183733            5 
  695000    1.1238709   -6.1822582    326.96989  0.039205023  0.040172876            4 
  696000    1.1369987   -6.2006513    327.46002  0.039207378  0.040162201            3 
  697000    1.1597268   -6.1945206    327.26767  0.039128129  0.040151362            3 
  698000    1.1198631   -6.1972061    327.59246  0.039110848  0.040140435            7 
  699000    1.1348233   -6.1434695    328.76938  0.039195206  0.040129571            5 
  700000    1.1428907     -6.11718    328.68337  0.039128973  0.040119221            3 
  701000    1.1464232   -6.1669924    330.16403  0.039249171  0.040108664            4 
  702000    1.1276687   -6.1426049    330.27292  0.039206187  0.040098006            2 
  703000    1.1181093   -6.2068396    329.73748  0.039086947  0.040087024            3 
  704000    1.1167512   -6.1523708    331.79134  0.039274543  0.040076523            5 
  705000    1.1201977    -6.164341    331.28337  0.039158791  0.040065972            5 
  706000    1.1323509   -6.1827446    332.51778   0.03924903  0.040055407            6 
  707000    1.1821941   -6.1340631    333.08667   0.03926057  0.040045382            4 
  708000    1.1253558   -6.1500247    332.07195  0.039085681  0.040035012            3 
  709000    1.1169861   -6.1665551    333.27803  0.039172312  0.040024354            3 
  710000    1.1473084   -6.1664402    334.20526  0.039225969  0.040013738            5 
  711000     1.147328   -6.2116074    333.34117  0.039069523  0.040003222            6 
  712000    1.1657235    -6.122795    333.90925  0.039081139   0.03999238            4 
  713000    1.1575783   -6.1936362    335.08299   0.03916351  0.039981959            8 
  714000    1.1301095   -6.2104782    334.04005  0.038986934  0.039971334            6 
  715000     1.142672   -6.1224475    336.09532  0.039171949  0.039960656            4 
  716000    1.1319823   -6.1495878    336.55191  0.039170381  0.039950405            2 
  717000    1.1362574   -6.1997254     334.4861   0.03887565  0.039939537            4 
  718000    1.1210651   -6.1884645    335.97745  0.038994597  0.039928501            5 
  719000    1.1282264   -6.1363838    336.99107  0.039057843  0.039917501            3 
  720000    1.1406901   -6.1202854    337.44021   0.03905558  0.039906703           12 
  721000    1.1716907    -6.175959    337.67817  0.039028915  0.039896132            9 
  722000    1.1310099   -6.1586061    338.38647   0.03905661  0.039885134            3 
  723000    1.1314889   -6.1812737      338.991  0.039072269  0.039874781            2 
  724000     1.133699   -6.1629036    337.93158   0.03889636  0.039864274            5 
  725000    1.1420234    -6.179217    339.12893  0.038980336  0.039853323            2 
  726000    1.1455993   -6.1871598    339.78103  0.039001495  0.039842901            3 
  727000    1.1397325   -6.1511562     339.3989  0.038904046  0.039832202            6 
  728000    1.1535762    -6.168402    340.54467  0.038981761  0.039821731            3 
  729000    1.1328924   -6.1889083     340.9916  0.038979378  0.039810963            4 
  730000    1.1371888   -6.1595455    341.38745   0.03897117    0.0398002            3 
  731000    1.1306379   -6.1554443    342.10867  0.039000076  0.039789944            2 
  732000    1.1067007    -6.166959    343.07055  0.039056301   0.03977972            4 
  733000    1.1244148   -6.1944824    342.52234  0.038940694  0.039769622            4 
  734000    1.1239592   -6.1698771    344.42689  0.039103871  0.039759701            4 
  735000    1.1096708   -6.1406521    343.92696  0.038993986  0.039749755            2 
  736000    1.1269654   -6.1671494     344.8473  0.039045211  0.039739991            6 
  737000     1.130088   -6.1899632    344.20639  0.038919763   0.03972956            3 
  738000    1.1056247   -6.1809558    343.83421  0.038825001  0.039719526            6 
  739000    1.1459292   -6.1639298    344.77988  0.038879103  0.039709278            5 
  740000    1.1274121   -6.1847877    345.17821   0.03887142  0.039699324            3 
  741000    1.1387358   -6.1801411     346.5142  0.038969208  0.039689102           13 
  742000    1.1350238   -6.2212289    346.28945  0.038891447  0.039679163            4 
  743000    1.1422238   -6.1739188    347.32676  0.038955446  0.039669343            5 
  744000    1.1593729   -6.1584965    346.25651  0.038783211  0.039659186            6 
  745000    1.1338788   -6.1871968    347.89997  0.038914985  0.039649011            3 
  746000    1.1325416   -6.1926091    347.53726  0.038822303  0.039638998            2 
  747000    1.1251448   -6.1915089    348.09221  0.038832241  0.039628661            4 
  748000    1.1335939   -6.1883749    349.03136  0.038884955  0.039618304            8 
  749000    1.1505443   -6.1820959    348.63906  0.038789392  0.039607883            3 
  750000    1.1377767   -6.2103963    349.19969  0.038799965  0.039597445            8 
  751000    1.1291423   -6.1832057    349.64781  0.038798026  0.039586987            8 
  752000    1.1191998   -6.1702892    349.95089  0.038780019  0.039576407            3 
  753000    1.1326474   -6.1719068    349.82712   0.03871482  0.039565808            5 
  754000    1.1140694    -6.179551    351.61535  0.038861113  0.039555435            3 
  755000     1.164983   -6.1549632    351.40523  0.038786449  0.039545414            2 
  756000    1.1303515   -6.1762879    351.41758  0.038736506  0.039535614            4 
  757000    1.1065712   -6.2064647    352.47231  0.038801443  0.039525722            4 
  758000    1.1253756   -6.1900436    353.32173  0.038843638  0.039515999            4 
  759000     1.147338     -6.19163    353.97875  0.038864597  0.039506466            2 
  760000    1.1374814   -6.1766928    354.41281  0.038861053  0.039497245            6 
  761000    1.1252218   -6.2264864    354.46384  0.038815576  0.039488209           10 
  762000    1.1411164   -6.1755696    354.55876  0.038775017  0.039478844            2 
  763000    1.1167312   -6.2024958    354.84714  0.038755694  0.039469905            3 
  764000    1.1100097   -6.1850477    355.58383  0.038785322  0.039460963            4 
  765000    1.1333718    -6.147161    355.63039  0.038739694  0.039451463            4 
  766000    1.0976608   -6.1667573     356.7077  0.038806321  0.039442038            3 
  767000    1.1298651   -6.1682871    356.70042  0.038754935  0.039432621            4 
  768000    1.1143143    -6.208244    356.06103  0.038635094  0.039422963            5 
  769000    1.1243711    -6.202221    356.88415  0.038674052  0.039413105            3 
  770000    1.1349281   -6.1726541    357.80707  0.038723709  0.039403439            3 
  771000    1.1490461   -6.2179066    356.13203  0.038492437  0.039393152            3 
  772000    1.1200557   -6.1899839    357.85752  0.038628834  0.039383012            3 
  773000    1.1225545    -6.215957    356.85343  0.038470616  0.039372549            4 
  774000    1.1339665   -6.1710744    357.75103  0.038517553  0.039361963            2 
  775000    1.1308635   -6.1838734    358.24336  0.038520791  0.039351427            5 
  776000    1.1329339   -6.1775637    358.63421  0.038513124  0.039340757            4 
  777000    1.1094994   -6.1739671     358.2134  0.038418425  0.039329801            3 
  778000    1.1264219   -6.1831186    359.57911  0.038515329  0.039318893            3 
  779000    1.1496239   -6.1705251    358.91849  0.038395217  0.039307772            5 
  780000    1.1355354    -6.182855    360.40243  0.038504533  0.039296628            5 
  781000     1.099875   -6.1796262    359.90456  0.038402108  0.039285465            2 
  782000    1.1559305   -6.1756593    361.23507  0.038494786  0.039274555            3 
  783000    1.1129272   -6.1813061     361.5041  0.038474255  0.039263804            3 
  784000    1.1226838    -6.222287     362.3177  0.038511661  0.039253214            4 
  785000    1.1254519   -6.2013758    363.20447  0.038556738  0.039242943            3 
  786000    1.1579597    -6.172484    362.61608  0.038445301  0.039232791            3 
  787000    1.0881656   -6.2105129    362.77927  0.038413731  0.039222494            2 
  788000    1.1149869   -6.1727555    363.14993   0.03840418  0.039212016            3 
  789000    1.1455535   -6.2466721    363.47535  0.038389876  0.039201624            4 
  790000    1.1425138   -6.1980689    363.87025  0.038382938  0.039191198            3 
  791000    1.1396468   -6.2217615     365.1759  0.038471966   0.03918024            3 
  792000      1.15006   -6.1971125    364.37159  0.038338762   0.03916952            3 
  793000    1.1079486   -6.1661818    367.11627  0.038578843  0.039159115            2 
  794000    1.1090938   -6.2132597     366.4047  0.038455574   0.03914881            6 
  795000    1.1506226   -6.2225267    364.98501  0.038258387  0.039138424            6 
  796000     1.138067   -6.1723939    366.34596  0.038352801  0.039127914            4 
  797000    1.0990043   -6.2172738    366.85748  0.038358164  0.039117339            6 
  798000    1.1281476   -6.1829337    368.17718  0.038447909  0.039107132            4 
  799000       1.1166   -6.1736318     368.5652  0.038440258  0.039097084            7 
  800000     1.142407   -6.1890435    369.13881  0.038451959  0.039087143            5 
  801000    1.1222715    -6.198562    369.20285  0.038410616  0.039077059            6 
  802000    1.1028742   -6.1921588    369.17584  0.038359917  0.039066945            9 
  803000     1.132969   -6.2052649    367.93488  0.038183362   0.03905646            5 
  804000    1.1130965   -6.2128013    369.18183  0.038265115   0.03904578            3 
  805000    1.1027501   -6.2490565    370.49103  0.038353109  0.039035234            2 
  806000    1.1208876   -6.1736605    370.38913  0.038294989  0.039024817            4 
  807000    1.1381949   -6.1692005    371.96781  0.038410554  0.039014551            5 
  808000    1.1198051   -6.1889549    371.20741  0.038284593  0.039004533            4 
  809000    1.1081476   -6.2120968    371.76835  0.038295051  0.038994795            3 
  810000    1.1100924   -6.2026566    371.06426  0.038175336  0.038984894            3 
  811000    1.1367855   -6.2121136    373.36359  0.038364528   0.03897516            1 
  812000    1.1127714   -6.1709141    374.96467  0.038481596  0.038965741            4 
  813000    1.1131055   -6.2221626    373.99423  0.038334792  0.038956661            3 
  814000    1.1392749   -6.2305742    374.28872  0.038317846  0.038947365            5 
  815000    1.1248569   -6.2275778    374.79676  0.038322778  0.038938108            4 
  816000    1.1266224   -6.1992253    375.66223  0.038364198  0.038928799            1 
  817000    1.1301838    -6.203331    377.02178  0.038455914  0.038919849            3 
  818000    1.1335678   -6.2125557    376.58205  0.038364105  0.038911099            5 
  819000    1.1080873   -6.2121156    377.02857  0.038362695  0.038902897            6 
  820000     1.114315   -6.1787334     379.5046   0.03856754  0.038894458            2 
  821000    1.1255914   -6.1964138    378.26807  0.038395054  0.038886326            5 
  822000    1.1126335   -6.2059177    378.91714  0.038414146  0.038878333            5 
  823000    1.1319338   -6.1961849     380.8105  0.038559184  0.038870175            3 
  824000    1.1194083   -6.2421339    380.16223  0.038446827  0.038862068            7 
  825000    1.1337081   -6.2022777    379.84325  0.038368005  0.038854146            5 
  826000    1.1248606   -6.2119352    382.34749  0.038574202  0.038845872            3 
  827000     1.117644   -6.1883572     381.3899  0.038431066  0.038837804            4 
  828000    1.1260621   -6.1966404    381.04337  0.038349776  0.038829199            3 
  829000    1.1188884   -6.2001194    383.27559  0.038527904  0.038821081            2 
  830000    1.1147532   -6.2401038    380.99599   0.03825261  0.038812479            3 
  831000    1.0993717   -6.1692207    382.22525  0.038329849  0.038804087            4 
  832000    1.1211849   -6.2378266    382.68973  0.038330302  0.038795632            4 
  833000    1.1068769   -6.2561763    381.45642  0.038160906  0.038786906           12 
  834000    1.1365369   -6.2139549    382.87991  0.038257385  0.038778129           11 
  835000     1.108753   -6.2028836    383.61672  0.038285102  0.038769552            5 
  836000    1.1211481   -6.2219412    382.78273  0.038156173  0.038760565            3 
  837000    1.1077131   -6.1935171    383.61853    0.0381938  0.038751441            2 
  838000    1.1534762   -6.1398206     384.4868  0.038234566  0.038742911            4 
  839000    1.1248614    -6.212355    382.59617  0.038001208  0.038733931            8 
  840000    1.1081025   -6.2028387    384.93724  0.038188218  0.038724763            5 
  841000    1.1121288    -6.187339    384.36315  0.038085925  0.038715439            3 
  842000    1.0978995   -6.1744205     384.7017  0.038074199  0.038705832            7 
  843000    1.1060024   -6.2265688     386.1655  0.038173734  0.038696404            3 
  844000    1.1399412   -6.2025186    386.82747  0.038193865  0.038687133            5 
  845000    1.1219837   -6.2065398    388.16405  0.038280479  0.038678262            6 
  846000    1.1111062   -6.2114521    386.30604  0.038052211  0.038669519            6 
  847000    1.1428297   -6.2048708    387.79054  0.038153339  0.038660921            2 
  848000    1.1127114   -6.2537524    387.62756  0.038092331  0.038651786            3 
  849000    1.1039224   -6.2045554    388.23751  0.038107333  0.038642972            3 
  850000    1.0989721   -6.1683616    389.61252  0.038197306  0.038634356            2 
  851000    1.1256422   -6.2022747    388.99118  0.038091576  0.038625763            3 
  852000    1.1217537   -6.2165092    390.46674  0.038191191  0.038617107            3 
  853000    1.1027279   -6.2177183    390.32241  0.038132318  0.038608249            4 
  854000    1.1148367    -6.210085    389.93191  0.038049562  0.038599475            2 
  855000    1.1142694   -6.2358229    390.29717   0.03804066  0.038590413            2 
  856000    1.1075199   -6.2081408    391.04173  0.038068704  0.038581633            3 
  857000    1.1056083   -6.2004278    392.57225  0.038173109  0.038573358            6 
  858000    1.1314992   -6.1996401    392.10263  0.038083006  0.038564695            3 
  859000    1.1350986   -6.1854864    393.55425  0.038179497  0.038556413            7 
  860000    1.0877074   -6.2197362    391.34066  0.037920607  0.038548021            2 
  861000    1.0954643   -6.2043098    394.28884  0.038161908  0.038539731            5 
  862000    1.1018508   -6.2046493    393.36287   0.03802812  0.038531342            4 
  863000    1.1107065   -6.2027617    394.83591  0.038126295  0.038522672            2 
  864000    1.1057075   -6.2056689    395.31335  0.038128216  0.038513976            4 
  865000    1.1293866   -6.1980772     394.3961   0.03799577  0.038505254            3 
  866000    1.1209772   -6.2279341    394.90228  0.038000604  0.038496504            7 
  867000    1.1200912   -6.2217512    395.38711  0.038003374  0.038487921            4 
  868000      1.13443   -6.2484119    396.01941  0.038020297  0.038479445            3 
  869000    1.1268357   -6.2449302    396.79432  0.038050855  0.038470973            4 
  870000    1.1226039   -6.2002493    397.44306  0.038069259  0.038462571            4 
  871000     1.106006   -6.2351435    397.05296  0.037988228  0.038454477            4 
  872000    1.1204301   -6.2220046    399.60041  0.038188113  0.038446457            3 
  873000    1.1137624   -6.2524843    398.13071  0.038004077  0.038438297           12 
  874000    1.1314205   -6.2069073    399.97186  0.038136142  0.038429869            4 
  875000    1.1127523   -6.2156758    399.65912  0.038062773  0.038421525            4 
  876000    1.0944847   -6.2348726    399.54268  0.038008246  0.038413446            8 
  877000    1.1302092   -6.2029223    398.65731  0.037880778  0.038405018            2 
  878000    1.1245742   -6.2144088    399.16098  0.037885438  0.038396703            5 
  879000    1.1227725   -6.2094123    400.92557  0.038009629  0.038388259            6 
  880000    1.1085619   -6.2232746    401.47574  0.038018536  0.038379939            5 
  881000    1.1051634   -6.2160451    403.14148  0.038132943  0.038372084            3 
  882000    1.1036413   -6.2109394    401.14334   0.03790092  0.038364387            5 
  883000    1.1165812    -6.238023    403.44138  0.038074876  0.038356662            3 
  884000    1.1098128   -6.2352432    401.95372  0.037891565  0.038348816            2 
  885000    1.1041432   -6.2176707    404.07115  0.038048131  0.038341045            7 
  886000    1.1323364   -6.2392737    403.72414  0.037972549  0.038333047            3 
  887000    1.0910039   -6.2157734    403.57097  0.037915348  0.038324944            5 
  888000    1.1173053   -6.2307493    405.19008  0.038024595  0.038317233            7 
  889000    1.1054259   -6.2175736     405.8078  0.038039726  0.038309585            3 
  890000    1.1039881   -6.2321905    406.87406  0.038096822  0.038302069            3 
  891000    1.1189013   -6.2490772    406.97209  0.038063233  0.038294371            3 
  892000    1.1132221   -6.2400731     406.2006  0.037948487  0.038287224            2 
  893000    1.1190194   -6.2596052    405.95222  0.037882812  0.038279588            3 
  894000    1.1308679   -6.1765358    407.75239  0.038008239  0.038271517            5 
  895000     1.122254   -6.2350027     407.2182  0.037916034  0.038263547            4 
  896000    1.1193762   -6.2118107    407.95852  0.037942571  0.038255562            4 
  897000    1.0847786   -6.2540149    408.28405  0.037930514  0.038247677            7 
  898000    1.1096044   -6.2472194    407.93826  0.037856186  0.038239462            2 
  899000    1.0847221   -6.1987339    409.14823  0.037926236  0.038231544            1 
  900000    1.1335221   -6.2589347    409.06694  0.037876568  0.038224022            3 
  901000    1.1140334   -6.2206278    409.44457  0.037869457  0.038215947           10 
  902000    1.0836373   -6.2108844    409.49053  0.037831719  0.038207963            7 
  903000    1.1098448   -6.2208625    409.00547   0.03774506   0.03819996            4 
  904000     1.116505    -6.250164    409.94853  0.037790241  0.038191754            3 
  905000    1.0931406   -6.2172132    410.74995  0.037822279  0.038183895            4 
  906000    1.0854788   -6.2318049    412.38543  0.037930963  0.038176259            5 
  907000    1.0954106   -6.2051567    412.01661  0.037855256    0.0381687            2 
  908000    1.0957822   -6.2751659     412.6327  0.037870109  0.038161495           10 
  909000    1.0903239   -6.2121369    413.55474  0.037912976  0.038153829            3 
  910000    1.0991166   -6.2163345     414.3564  0.037944725  0.038146641            8 
  911000    1.1027834   -6.2359248    414.92242   0.03795485  0.038139115            2 
  912000    1.1023256   -6.2483846    414.71069  0.037893886  0.038131498            3 
  913000    1.1055915   -6.2440003    415.39673  0.037914999  0.038123918            4 
  914000    1.0713373   -6.2244492    415.84877  0.037914731  0.038116289            3 
  915000    1.1090698   -6.2052249    415.80055  0.037868903  0.038108524            4 
  916000    1.0794563   -6.2277303    416.18015  0.037862095  0.038100858            3 
  917000    1.1240877   -6.2353452    415.62776  0.037770607  0.038092834            5 
  918000    1.1077994   -6.2181651    415.77646  0.037742961  0.038084852            4 
  919000    1.1312105   -6.2315312    415.28357  0.037657197  0.038076865            5 
  920000    1.1076263   -6.2217923    416.00695  0.037681789  0.038068759            7 
  921000     1.113328   -6.2115835    416.61253  0.037695668  0.038060434            5 
  922000    1.1185337   -6.2255749    415.96024  0.037595828  0.038051767           12 
  923000    1.0942121   -6.1855474    417.00062  0.037649027  0.038043188            3 
  924000    1.0933139   -6.2493658    416.22401   0.03753824  0.038034469            5 
  925000    1.0995544   -6.2314484    416.73024  0.037543265  0.038025943            4 
  926000    1.1019066   -6.2319611    417.54894  0.037576399  0.038017196            4 
  927000    1.1288068   -6.2306852    417.98147  0.037574745  0.038008688            7 
  928000    1.1133463   -6.2309987    419.65219  0.037684284   0.03800033            5 
  929000    1.1315558   -6.2412747    418.78856  0.037566251  0.037991681            3 
  930000    1.1036351   -6.2137213    419.44946  0.037585077  0.037983132            3 
  931000     1.092277   -6.2556562    417.20962   0.03734422   0.03797459            4 
  932000    1.0918736   -6.2192002    419.33087  0.037493819  0.037966142            4 
  933000    1.0970112   -6.2465173    418.99133  0.037423306  0.037957549            7 
  934000    1.1059114   -6.2525624    419.82889  0.037457966  0.037948571            3 
  935000    1.1077823   -6.2118335    422.05766  0.037616547  0.037939818            5 
  936000    1.1048243   -6.2325661    420.96164  0.037478778    0.0379312            9 
  937000    1.1133296   -6.1989739    422.21034  0.037549835  0.037922426            5 
  938000    1.1143529   -6.2219077    420.97576  0.037400121  0.037913648            5 
  939000    1.0980304   -6.2381755    422.04021  0.037454758  0.037904665            4 
  940000    1.0936623   -6.2238317     422.5091   0.03745648  0.037895514            5 
  941000    1.0855365   -6.2175252     424.0731  0.037555181  0.037886495            3 
  942000    1.0887489   -6.2867415     421.2617  0.037266605  0.037877291            8 
  943000    1.1141073   -6.2324522    422.74286  0.037357977  0.037867955            6 
  944000    1.0832981   -6.2384303    422.88147  0.037330638  0.037858658            5 
  945000     1.084457   -6.2070774    424.16467  0.037404292  0.037849884            2 
  946000     1.084732   -6.2275726    423.46907  0.037303477  0.037840989            9 
  947000    1.0978567   -6.2654529    424.41091  0.037346965  0.037831943            3 
  948000    1.0856163    -6.220772    424.15758  0.037285301  0.037822909            6 
  949000    1.1154794    -6.236506    426.08438  0.037415207  0.037814221            5 
  950000    1.0766327    -6.224483    426.45516  0.037408347  0.037805645            5 
  951000    1.0946491   -6.2632279    424.67241  0.037212795  0.037796901            8 
  952000    1.1102928    -6.235247    425.89201  0.037280463  0.037787922            4 
  953000    1.0983644   -6.2348623    426.00772  0.037251462     0.037779            2 
  954000    1.1132143   -6.2455157    427.68989  0.037359354  0.037770115            6 
  955000    1.0989169   -6.2758812    427.11523   0.03727009  0.037761004            9 
  956000    1.0732186   -6.2505522    426.98858  0.037220065    0.0377521            3 
  957000    1.0851369   -6.2127503    426.91568  0.037174824  0.037742896            6 
  958000     1.115342   -6.2407444    427.50078  0.037186916  0.037733933            3 
  959000    1.1136538   -6.2267153    428.97172  0.037275957  0.037724701            3 
  960000    1.0763582   -6.2735505    427.82004  0.037137156  0.037715248            2 
  961000    1.1071775   -6.2353314    428.19644  0.037131152   0.03770585            6 
  962000    1.0821506   -6.2478935    429.20381  0.037179817  0.037696554            4 
  963000    1.1116139   -6.2402743    429.88115  0.037199822  0.037687333            3 
  964000    1.1030973   -6.2741704    428.73641  0.037062276  0.037678023            6 
  965000    1.0760775   -6.2482676    431.14843  0.037232162  0.037668929            3 
  966000    1.0957656   -6.2373952     430.0983  0.037103028  0.037659778            4 
  967000    1.1007735    -6.255479    431.01407  0.037143577   0.03765044            7 
  968000    1.0911961   -6.2820084    430.24193  0.037038734  0.037640939            4 
  969000    1.0736267   -6.2641115     431.0472  0.037069763  0.037631625            3 
  970000    1.0989618    -6.209183    432.25895  0.037135648  0.037622387            4 
  971000    1.1099493   -6.2375026    432.64561  0.037130588  0.037613564            4 
  972000    1.0933481   -6.2314354    434.16267  0.037222451  0.037604495            6 
  973000       1.1028   -6.2662548    433.21631  0.037103144   0.03759543            9 
  974000    1.0815197   -6.2218177    433.16646  0.037060786   0.03758594            3 
  975000    1.1110945   -6.2829534    434.39501  0.037127779  0.037576878            2 
  976000    1.0963998   -6.2620952    433.72718  0.037032717  0.037568013            2 
  977000    1.0899498   -6.2539152    435.20559  0.037120914  0.037559114            6 
  978000    1.0902769   -6.2212619    436.07356  0.037156916  0.037550196            6 
  979000    1.0809745   -6.2480427    435.41634  0.037063018  0.037541639            3 
  980000    1.0899323   -6.2752465    435.16479  0.037003809  0.037532906            4 
  981000    1.0888498   -6.2668193    434.45183  0.036905525  0.037523637            6 
  982000    1.0867568   -6.2455909    436.67106  0.037056268  0.037514257            2 
  983000    1.0845625   -6.2339402     435.3881  0.036909808  0.037504832            4 
  984000    1.0982598   -6.2179355    435.16758  0.036853623  0.037495159            4 
  985000    1.1057146    -6.252034    436.73228  0.036948585   0.03748589            6 
  986000    1.0702233   -6.2460473    437.78712  0.037000263  0.037476585            3 
  987000    1.0984113   -6.2428714    438.11891  0.036990789  0.037467321            1 
  988000    1.0991269   -6.2693525    438.39524  0.036976657  0.037457946            4 
  989000    1.0764216   -6.2585143    439.17964  0.037005362  0.037448751            6 
  990000    1.0829994   -6.2366705    439.97246  0.037034718  0.037439585            4 
  991000    1.0746426   -6.2654965    439.32391  0.036942811  0.037430468            5 
  992000    1.0675901   -6.2742395     439.4231  0.036913903  0.037421348            2 
  993000    1.1048058   -6.2492091    440.40661  0.036959266  0.037412228           13 
  994000    1.1145882   -6.2591482    439.17146  0.036818533  0.037403014            4 
  995000    1.1009459    -6.233381    440.21109    0.0368686  0.037393728            3 
  996000    1.0958448   -6.2500997    439.91073  0.036806454  0.037384406            2 
  997000     1.124797   -6.2223773    441.13383  0.036871768  0.037374828            4 
  998000    1.0706571   -6.2523016    440.30264  0.036765418  0.037365154            4 
  999000    1.0785916   -6.2347265     440.7477  0.036765741   0.03735537            3 
 1000000    1.0802748   -6.2521909    440.82625  0.036735521  0.037345845            8 
 1001000    1.1111369   -6.2854803    441.30781  0.036738912  0.037335947            5 
 1002000    1.0920431   -6.2163301    442.02435  0.036761839  0.037326342            4 
 1003000     1.093056   -6.2201481    444.14216  0.036901144  0.037316832            6 
 1004000    1.0901729   -6.2353665    442.61374  0.036737528  0.037307359            3 
 1005000    1.0790663   -6.2427433     444.4669  0.036854635  0.037297793            6 
 1006000    1.0997687   -6.2334648    443.97935  0.036777613  0.037288225            2 
 1007000    1.0929301   -6.2251558    443.90072  0.036734585  0.037278609            3 
 1008000    1.1020844    -6.273482     444.4516  0.036743684   0.03726893            3 
 1009000    1.0853462   -6.2670705      443.982  0.036668483   0.03725931           12 
 1010000    1.1159546   -6.2689838    443.65736  0.036605393  0.037249582            4 
 1011000    1.0918753   -6.2429978    444.28094  0.036620585  0.037240031            5 
 1012000    1.0896921   -6.2465186    445.22244  0.036661927  0.037230496            5 
 1013000    1.0807982   -6.2342971    447.03298  0.036774678  0.037221411            4 
 1014000    1.1061612    -6.224209    446.92122  0.036729226  0.037212471            3 
 1015000    1.0638955   -6.2763677    446.92507  0.036693356   0.03720342            3 
 1016000     1.076157   -6.2554929    447.54931  0.036708441  0.037194077            2 
 1017000    1.1076257   -6.2216527    448.30404  0.036734189  0.037184926            4 
 1018000     1.094748   -6.2224415    447.83979  0.036660101    0.0371757            3 
 1019000    1.0857087   -6.2494584    448.63969  0.036689539  0.037166048            4 
 1020000    1.0968473   -6.3020526    449.76783  0.036745738  0.037156647            4 
 1021000    1.0659928   -6.2513182    449.61255  0.036697074  0.037147403            6 
 1022000    1.0936311   -6.2721715    449.48119  0.036650455  0.037138449            5 
 1023000     1.069887   -6.2363619    450.31492  0.036682545  0.037129214            5 
 1024000    1.0877034   -6.2777559    449.95212  0.036617197  0.037120092            5 
 1025000    1.1041695   -6.2627656     449.8574  0.036573772  0.037110728            3 
 1026000    1.0869454   -6.2694243    450.86627  0.036620067  0.037101609            3 
 1027000    1.1157056   -6.2797862    450.08903  0.036521343  0.037092149            3 
 1028000     1.097467   -6.2484465    451.51063  0.036601056  0.037082803            3 
 1029000    1.0895753   -6.2816157    451.40644  0.036557049  0.037073415            5 
 1030000    1.0727634    -6.250549    452.61128  0.036619036  0.037064093            6 
 1031000    1.0808375    -6.255871     453.9128  0.036688716  0.037055103            5 
 1032000    1.1039256   -6.2780945    453.54008  0.036623068  0.037045948            4 
 1033000    1.0934876   -6.2647407    454.14576  0.036636476  0.037036739            4 
 1034000    1.0857658   -6.2906742    454.52061  0.036631255  0.037027761            6 
 1035000    1.0931479   -6.2418968    454.91027  0.036627236  0.037018768            4 
 1036000    1.0783569   -6.2934101    455.41982  0.036632868  0.037010211            2 
 1037000    1.0806073   -6.2581614    455.47386  0.036601886  0.037001638            3 
 1038000    1.1090605   -6.2874614    455.74761    0.0365886  0.036992899            4 
 1039000    1.0986257   -6.2802398    457.05886  0.036658555  0.036984379            4 
 1040000    1.0898321   -6.2388604    457.46934  0.036656197  0.036975711            6 
 1041000    1.1000441   -6.2648235    456.73189  0.036561951  0.036967408            6 
 1042000     1.060079   -6.2628518    458.59375  0.036675764  0.036958762            5 
 1043000     1.068236    -6.234301    458.64615  0.036644787  0.036950038            4 
 1044000    1.1020709   -6.2199232    458.72217  0.036615754  0.036941286            2 
 1045000    1.1028716   -6.2759829    457.93393  0.036517857  0.036932549           13 
 1046000    1.0898701   -6.2486492    460.24034  0.036666693  0.036923987            6 
 1047000    1.0892123    -6.242401    459.67589  0.036586747   0.03691559            3 
 1048000    1.1053695   -6.2550142    459.31204  0.036522904  0.036906867            6 
 1049000    1.0995386    -6.288071    459.44668  0.036498783  0.036897999            8 
 1050000    1.0922138   -6.2934832     460.3836  0.036538381  0.036889234            4 
 1051000    1.0899262   -6.2068178    461.05181  0.036556598  0.036880699            4 
 1052000    1.0892281   -6.2688762    462.03355  0.036599616  0.036872315            5 
 1053000    1.0794753     -6.25815    461.73526  0.036541252   0.03686373            7 
 1054000    1.0953573   -6.2878011    461.74878  0.036507652  0.036855168            3 
 1055000    1.0790408   -6.2989826    461.26145  0.036434554  0.036846513            3 
 1056000    1.0810044   -6.2598259    463.13327  0.036547764  0.036837881            4 
 1057000    1.1034725   -6.2279077    463.47344  0.036540007  0.036829252            3 
 1058000    1.0696841   -6.2631548    462.30931  0.036413777  0.036820437            5 
 1059000    1.0860823   -6.2763457    461.75327  0.036335637   0.03681162            4 
 1060000    1.0990066   -6.3101326    461.20899  0.036258568  0.036802345            6 
 1061000     1.087931    -6.260504    462.38638  0.036316869  0.036793204            4 
 1062000    1.0643721   -6.2664873    464.19802  0.036424829  0.036784061            5 
 1063000    1.0663688   -6.2814642    462.91656  0.036290103  0.036774874            3 
 1064000    1.0983539   -6.2770057    463.12805  0.036272561  0.036765633            7 
 1065000    1.0854692   -6.2438091    463.60297  0.036275663  0.036756527           18 
 1066000     1.063895   -6.2501927     464.9027  0.036343238  0.036747705            3 
 1067000    1.0884556   -6.2484258    464.40729  0.036270485   0.03673858            3 
 1068000    1.0980217   -6.2411249    465.10841  0.036291231   0.03672954            7 
 1069000    1.0492703   -6.2780429    466.47479  0.036363797  0.036720641            3 
 1070000    1.0803386   -6.2563793    465.94929  0.036288886  0.036711672            3 
 1071000    1.0724185   -6.2644224    465.51463  0.036221182  0.036702375            4 
 1072000    1.0879144   -6.2624923    466.31903  0.036249925  0.036693069            5 
 1073000    1.0928212   -6.3002336    466.63767  0.036240888  0.036683779            4 
 1074000    1.0912322   -6.2212018    467.96556  0.036310177  0.036674548            4 
 1075000    1.0876105   -6.3080856    466.92123  0.036195444  0.036665278            2 
 1076000    1.0884569     -6.23657    468.65863  0.036296362  0.036656299            6 
 1077000    1.0799728   -6.2797629    467.70593  0.036188945  0.036647125           10 
 1078000    1.1090507   -6.2582056    467.98055  0.036176604  0.036638107            4 
 1079000     1.087655   -6.2963521     469.5064  0.036260921  0.036629259            6 
 1080000    1.0810843   -6.2642702    470.49769  0.036303834  0.036620478            5 
 1081000    1.0442116   -6.2662916    469.29188  0.036177295  0.036611611            3 
 1082000    1.0801355   -6.2662294    471.06384  0.036280333  0.036602802            3 
 1083000    1.0830388   -6.3043154    469.51532  0.036127679  0.036594069            6 
 1084000    1.0788846   -6.2554855    470.75767  0.036189858  0.036585133            4 
 1085000    1.0687727   -6.3133753     470.2016  0.036113794  0.036576242            6 
 1086000    1.0695592   -6.2673921    471.20445  0.036157493  0.036567029            2 
 1087000    1.0752157   -6.2697895    470.45214  0.036066555  0.036557732            4 
 1088000    1.0685751   -6.2909421    472.97776   0.03622685  0.036548602            4 
 1089000    1.0786627   -6.2644327    472.46414  0.036154281  0.036539333            2 
 1090000    1.0980522    -6.284362    471.02966  0.036011442  0.036530195           16 
 1091000    1.0867552   -6.2889791     473.0305  0.036131263  0.036521036            6 
 1092000    1.0678033    -6.293009    473.60462  0.036141989  0.036511904            2 
 1093000    1.0800943   -6.2647407    473.27328   0.03608366  0.036502908            3 
 1094000    1.0723456   -6.2926896     473.2996  0.036052681  0.036493911            6 
 1095000    1.0719615   -6.2725419    474.33396  0.036098475  0.036484776            3 
 1096000    1.0855476   -6.2550222    474.35593  0.036067209  0.036475643            4 
 1097000    1.0658402   -6.3040023    474.77051  0.036065824  0.036466611            4 
 1098000    1.0701981   -6.2298509    476.28682  0.036148059  0.036457566            2 
 1099000     1.071479    -6.292482    476.10703  0.036101534  0.036448708            3 
 1100000    1.0792753   -6.2803897    475.59978  0.036030287  0.036439872            3 
 1101000    1.0758606   -6.2545537     477.0578  0.036107917  0.036431082            2 
 1102000    1.0563709   -6.2694723    478.22944   0.03616375  0.036422507            3 
 1103000    1.0722068   -6.2801568    478.42084  0.036145425  0.036413745            5 
 1104000    1.0633138   -6.2937185     478.8053  0.036141704  0.036405333            3 
 1105000     1.098777   -6.2958555    477.98764  0.036047333  0.036397063            4 
 1106000    1.0698484   -6.2969232    479.24817  0.036109718  0.036388563            3 
 1107000     1.082855   -6.2888872    479.37848  0.036086908  0.036380208            5 
 1108000    1.0609873   -6.2840946    479.29795  0.036048282  0.036371652            3 
 1109000    1.0740652   -6.2827409    481.00228  0.036143845  0.036363304            4 
 1110000    1.0747007   -6.2702243    481.46893  0.036146316  0.036354864            6 
 1111000    1.0665595   -6.2789457    481.79164  0.036137987  0.036346558            3 
 1112000    1.0835568   -6.3008355    480.17208  0.035984119  0.036338168            3 
 1113000    1.0479038   -6.2888185    481.77646  0.036071913  0.036329962            2 
 1114000    1.0699202   -6.2565577    483.10754  0.036139104  0.036321857            3 
 1115000    1.0804865   -6.2874866    481.08224  0.035955325  0.036313758            3 
 1116000    1.0703376   -6.2757925     481.0546  0.035921043  0.036305298            6 
 1117000    1.0710488   -6.3087255    481.91932  0.035953396  0.036296554            4 
 1118000    1.0952091   -6.2900824    481.44152  0.035885623  0.036287913            5 
 1119000    1.0604783   -6.2659023    481.91613  0.035888899  0.036279142            4 
 1120000     1.085764   -6.3090693    484.26262  0.036031445  0.036270399            2 
 1121000    1.0735072   -6.2876008    481.64275  0.035804546  0.036261639           14 
 1122000    1.0760321   -6.3200733    484.03786  0.035950525  0.036252806            6 
 1123000    1.0752303   -6.3201759    483.01512  0.035842618  0.036243972           10 
 1124000    1.1062041   -6.2900998    483.61383  0.035855118  0.036234978            4 
 1125000    1.0849044   -6.2859804     485.1972  0.035940533  0.036226262            4 
 1126000    1.0857932   -6.2791446    485.86462  0.035958009  0.036217692            3 
 1127000    1.0756045   -6.3453659    485.70302  0.035914154  0.036209282            5 
 1128000    1.0818865   -6.2793457    486.62255  0.035950248  0.036200939            8 
 1129000    1.0825508   -6.3033378    485.85399  0.035861676  0.036192639           11 
 1130000    1.0630074   -6.2762045    486.72879  0.035894453  0.036184227            4 
 1131000    1.0619181   -6.2836026    486.89239  0.035874771  0.036175876            3 
 1132000    1.0604724   -6.3384931    486.19906  0.035792039   0.03616728            3 
 1133000    1.1068563   -6.2818435    486.74539  0.035800632  0.036158634            4 
 1134000    1.0507412   -6.3015746    486.49996  0.035751026  0.036150127            9 
 1135000    1.0752901   -6.2767679    488.47048  0.035864205  0.036141741            4 
 1136000    1.0580207   -6.3183787    488.75703  0.035853655  0.036133333            6 
 1137000     1.075702   -6.2900882    489.26846  0.035859606  0.036124756            3 
 1138000    1.0783972   -6.3157636    488.63795  0.035781924  0.036116283            5 
 1139000    1.0666565   -6.3324776    489.26059  0.035796063  0.036107583            3 
 1140000    1.0765035   -6.2685694    490.25699  0.035837499  0.036099105            4 
 1141000    1.0604774   -6.3204799    488.72936  0.035694519  0.036090498            6 
 1142000    1.0552054   -6.2659417    490.27236  0.035775858  0.036081837            3 
 1143000    1.0748349   -6.2884254    489.55271   0.03569209  0.036073034            7 
 1144000    1.0709258   -6.3028967    491.78972  0.035823843  0.036064253            3 
 1145000    1.0652728   -6.2558849    492.38829   0.03583612  0.036055784            4 
 1146000    1.0650287   -6.2921751    491.36007  0.035730081  0.036047244            7 
 1147000    1.0739793   -6.2828232    491.60052  0.035716399  0.036038705            3 
 1148000    1.0668987   -6.2888096    492.51218  0.035751465  0.036030208            4 
 1149000    1.0637523   -6.2996564    495.03646  0.035903427  0.036021631            3 
 1150000    1.0688716   -6.3054175     493.2526  0.035742942  0.036013193            4 
 1151000    1.0725582   -6.3336295    493.03821  0.035696366  0.036004756            6 
 1152000    1.0721762   -6.3010989    493.94823  0.035731209  0.035996236            5 
 1153000    1.0668607   -6.3080985     493.4542  0.035664513    0.0359878            3 
 1154000     1.068566   -6.3436791    494.96278  0.035742546  0.035979249           10 
 1155000    1.0534849   -6.2594684    495.26358  0.035733303  0.035970657            5 
 1156000    1.0784861   -6.2828197    495.03143  0.035685657  0.035962487            5 
 1157000    1.0670605   -6.2953235    495.31917  0.035675538  0.035954344            6 
 1158000    1.0579088   -6.3140278    497.25744  0.035784214  0.035945838            6 
 1159000    1.0627002   -6.3169828    496.45592  0.035695709  0.035937342            5 
 1160000    1.0572093   -6.2928565    496.34695  0.035657109  0.035928974            5 
 1161000    1.0623612   -6.2758778    498.17382  0.035757524  0.035920917            9 
 1162000    1.0941071   -6.3188344    497.83951  0.035702776  0.035913153            3 
 1163000    1.0650864   -6.3047009    498.42024  0.035713689  0.035905265            2 
 1164000    1.0736583   -6.2850539    498.74873  0.035706524  0.035897433            6 
 1165000    1.0623138   -6.2982132    499.73398   0.03574635  0.035889764            5 
 1166000    1.0612891    -6.247222    501.52275  0.035843535  0.035882269            4 
 1167000    1.0616229   -6.2993573    500.67547  0.035752319  0.035874743            4 
 1168000    1.0677644   -6.2887281    501.59398  0.035787241  0.035867067            7 
 1169000    1.0386799   -6.3025919    500.21216  0.035658123  0.035859373            4 
 1170000    1.0485254   -6.2733158    501.86543  0.035745401   0.03585176            2 
 1171000    1.0631337   -6.2729264    502.13651  0.035734167  0.035843982            6 
 1172000    1.0719215   -6.2755713    501.44936  0.035654818  0.035836515            3 
 1173000    1.0881546   -6.3417064    502.71789  0.035714542  0.035828919            4 
 1174000    1.0730901    -6.301204    502.53359  0.035671039  0.035821451            3 
 1175000    1.0594122   -6.3093184    502.59297  0.035644891  0.035813945            6 
 1176000    1.0509149   -6.2861068    502.52753  0.035609944  0.035806446            4 
 1177000    1.0724586   -6.2673584    503.75083  0.035666301  0.035799027            4 
 1178000    1.0700583   -6.3346443    502.58539  0.035553579  0.035791358            3 
 1179000    1.0598869   -6.2983486    504.50863   0.03565936  0.035783834            4 
 1180000    1.0493034   -6.2961699    506.55812  0.035773878  0.035776544            2 
 1181000     1.050156   -6.2976945    506.11218  0.035712121  0.035768874            8 
 1182000    1.0592339   -6.3246484    506.05907  0.035678164  0.035761527            5 
 1183000    1.0893812   -6.3211631    507.89481  0.035777318  0.035754223            6 
 1184000    1.0847936   -6.2982686     508.7882  0.035809981  0.035747073            5 
 1185000    1.0658096   -6.3299173    507.82873  0.035712288  0.035739938            4 
 1186000    1.0713652   -6.2915436    507.94404  0.035690279  0.035732745            5 
 1187000    1.0700216   -6.3130007    509.09203  0.035740805  0.035725544            4 
 1188000    1.0728104   -6.2914579    508.30027  0.035655182   0.03571833            5 
 1189000    1.0610995   -6.3143403    508.38655  0.035631241  0.035710998            3 
 1190000    1.0274295   -6.3211391    508.85555  0.035634142  0.035703644            8 
 1191000     1.061232    -6.255464    509.44361  0.035645369  0.035696149            4 
 1192000    1.0597515   -6.2820206    510.66658  0.035700963  0.035688846            2 
 1193000    1.0246963   -6.3120855    509.81621  0.035611638  0.035681375            5 
 1194000     1.069315   -6.3095899    510.08143  0.035600323  0.035673853            7 
 1195000    1.0619933   -6.3094936    509.35288  0.035519726  0.035666505            7 
 1196000    1.0587255   -6.3400642    510.14073  0.035544922  0.035659093            4 
 1197000     1.085893   -6.3166291    511.05395  0.035578805  0.035651549            4 
 1198000     1.074224   -6.3326198    509.91978  0.035470213  0.035643885            5 
 1199000    1.0721354   -6.3168994    510.27648  0.035465421  0.035636186            5 
 1200000    1.0901614     -6.31535    510.81284  0.035473114  0.035628672            3 
 1201000     1.059832   -6.3243103    512.02513  0.035527694  0.035621185            5 
 1202000    1.0542256   -6.3308542    511.60787  0.035469209  0.035613698            9 
 1203000    1.0677276   -6.2929105    512.65563  0.035512305  0.035606233           10 
 1204000    1.0615598   -6.2985629    513.98247  0.035574645  0.035599042            9 
 1205000    1.0542445   -6.3161767    514.21237  0.035561021  0.035591819            4 
 1206000    1.0863591   -6.3353507    513.51737  0.035483511  0.035584541            2 
 1207000    1.0477962   -6.3390023    512.99067  0.035417749  0.035577062            3 
 1208000    1.0487463   -6.3573537    514.94091  0.035522966  0.035569586            7 
 1209000    1.0768812   -6.3164125    515.03364  0.035499975  0.035562334            5 
 1210000    1.0581799   -6.3206933    514.23791  0.035415834  0.035554988            8 
 1211000    1.0579964    -6.341065    514.57126  0.035409528  0.035547676            9 
 1212000    1.0446777   -6.3159337    513.42348  0.035301395  0.035540114            4 
 1213000     1.065628   -6.3063949    515.97013  0.035447247    0.0355326            5 
 1214000    1.0530672    -6.324489    515.84307  0.035409327  0.035525104            6 
 1215000    1.0313556   -6.3168026     516.8917  0.035452106  0.035517831            2 
 1216000    1.0684405   -6.2856259    517.58186  0.035470248   0.03551058            3 
 1217000    1.0367905   -6.3253256    519.74755  0.035589397  0.035503389            8 
 1218000    1.0432198   -6.3408356    518.03358  0.035442911  0.035496131            6 
 1219000    1.0682744      -6.2987    519.16586   0.03549124  0.035488974            3 
 1220000    1.0453643   -6.2994958    518.44106  0.035412641  0.035481924            5 
 1221000     1.039993   -6.2989769    519.64201  0.035465602  0.035474872            5 
 1222000    1.0209157   -6.3303685    518.91575  0.035387054  0.035467616           13 
 1223000    1.0648232   -6.2870662    521.53818  0.035536807  0.035460669            4 
 1224000    1.0537647   -6.3334231    520.20639  0.035417101  0.035453537            5 
 1225000    1.0566684    -6.338425     519.8677   0.03536515  0.035446252            3 
 1226000    1.0567523   -6.3408369    520.59903  0.035386014  0.035439123            2 
 1227000    1.0455153   -6.3311506    521.13874  0.035393829  0.035431889            3 
 1228000    1.0705038   -6.3276801    522.39236  0.035450079  0.035424835            6 
 1229000    1.0389221   -6.2967141    522.70881  0.035442691  0.035417745            9 
 1230000    1.0565068   -6.3521712    522.89579  0.035426544  0.035410646            8 
 1231000    1.0596691     -6.33135    522.80886  0.035391881  0.035403561            3 
 1232000    1.0479505   -6.2644126    523.09856  0.035382749  0.035396511            5 
 1233000    1.0637083   -6.3157254     524.5363  0.035451223  0.035389569            6 
 1234000    1.0584776   -6.3003915    525.05123  0.035457268  0.035382477           11 
 1235000      1.06949   -6.3018397    523.24649  0.035306781  0.035375271            3 
 1236000    1.0398286   -6.3235428    523.01364  0.035262516  0.035367915           16 
 1237000    1.0486394   -6.3265203    524.30009  0.035320674  0.035360511            3 
 1238000    1.0379509   -6.2980013    523.96738  0.035269749  0.035353135           11 
 1239000    1.0525898   -6.3397594    523.20232  0.035189825   0.03534554            7 
 1240000    1.0579539   -6.3266116    524.77852  0.035267374  0.035338035            4 
 1241000    1.0392736   -6.2767406    524.99141  0.035253251  0.035330619            6 
 1242000    1.0488931   -6.3067455    524.80997  0.035212692  0.035323296            3 
 1243000    1.0352753   -6.2946355    526.56737  0.035302184  0.035316059            6 
 1244000    1.0546234    -6.324829    527.29695  0.035322679  0.035308735            5 
 1245000    1.0411032   -6.3506484    525.62834   0.03518262  0.035301306            5 
 1246000    1.0336224   -6.3472547     526.3546  0.035202956  0.035293764            5 
 1247000     1.075619   -6.3375276    525.32267  0.035105765  0.035286141            4 
 1248000    1.0421178   -6.3539945    527.51111  0.035223766  0.035278717            3 
 1249000    1.0577717   -6.3061424    528.67431  0.035273173  0.035271394            3 
 1250000    1.0487747    -6.301342    527.91119  0.035194079  0.035264125            5 
 1251000    1.0546996   -6.3512754    528.14758  0.035181694  0.035256815            9 
 1252000    1.0614832   -6.3264432     529.2457  0.035226684  0.035249493            9 
 1253000     1.062358   -6.3445137    528.60294  0.035155822  0.035242119            9 
 1254000    1.0476824   -6.3315432    529.40839  0.035181313  0.035234767            3 
 1255000    1.0555584   -6.3195913    528.74131  0.035108985  0.035227592            5 
 1256000    1.0411139   -6.2947742    529.73173  0.035146744  0.035220359            8 
 1257000    1.0491117   -6.3103006     529.5235  0.035104979  0.035213118            6 
 1258000    1.0375073   -6.3016806    530.70697  0.035155469  0.035205809            6 
 1259000    1.0522963   -6.3285553    530.56699  0.035118281  0.035198465            5 
 1260000    1.0603727   -6.3205623    532.78801  0.035237302  0.035191135            7 
 1261000     1.033389   -6.3228215    530.72888   0.03507328  0.035183788            7 
 1262000    1.0444604   -6.3561644    531.93249  0.035124966  0.035176258            6 
 1263000    1.0495165    -6.303781    532.33952  0.035124012  0.035168735            6 
 1264000    1.0489178   -6.3332102    530.47231  0.034973122  0.035161264            3 
 1265000     1.040581   -6.3651936    530.28087  0.034932864  0.035153532            8 
 1266000    1.0320517   -6.3251355      531.579  0.034990719  0.035145801            4 
 1267000    1.0466445   -6.3503744    531.90066  0.034984258  0.035138089            8 
 1268000    1.0485383   -6.3708801    531.78145  0.034948834  0.035130195            4 
 1269000    1.0304653   -6.3159159    532.39577  0.034961634  0.035122289            2 
 1270000     1.049283   -6.3343459     533.3914  0.034999435  0.035114699            9 
 1271000    1.0393648   -6.3250292    531.77478  0.034865905  0.035106909            4 
 1272000    1.0708758   -6.3202905    532.77831  0.034904239  0.035099099            5 
 1273000    1.0576292   -6.3452884     534.4295  0.034984911  0.035091311            6 
 1274000    1.0461807   -6.3293556    532.88057  0.034856133  0.035083514            9 
 1275000    1.0607557   -6.3312508    533.89779  0.034895281  0.035075656            4 
 1276000    1.0466811   -6.3417757     534.6643  0.034917993  0.035067832            7 
 1277000    1.0522846   -6.3283652    535.43725  0.034941089  0.035060058            2 
 1278000    1.0446768   -6.3301232    534.87234  0.034876913  0.035052184            4 
 1279000    1.0679322   -6.3489363      537.565  0.035025085  0.035044314            6 
 1280000    1.0466704   -6.3322552    535.09221  0.034836733  0.035036659            5 
 1281000    1.0441259   -6.3525089     536.5483  0.034904261  0.035028966            5 
 1282000    1.0480647   -6.3263575    537.24751  0.034922485  0.035021137            6 
 1283000    1.0443338   -6.3234684    537.33708  0.034901083  0.035013365            6 
 1284000     1.064579   -6.3255006    536.48053  0.034818311   0.03500556            4 
 1285000    1.0545628   -6.3202829    538.24302  0.034905514  0.034997796            5 
 1286000    1.0184709   -6.3290305    536.93147  0.034793382  0.034990111            2 
 1287000    1.0643801    -6.314459    539.37675  0.034924679  0.034982506            3 
 1288000     1.041557   -6.3461656    537.55237  0.034779527  0.034974712            3 
 1289000    1.0708851   -6.3503985    537.32343  0.034737744  0.034966881            4 
 1290000    1.0383746   -6.3521417    539.55517  0.034854985  0.034958848            4 
 1291000    1.0550387   -6.3015367    539.65721  0.034834573  0.034951059            2 
 1292000    1.0572432   -6.3458337    539.51002  0.034798118  0.034943216            9 
 1293000    1.0445082   -6.3447655     539.5895  0.034776328  0.034935581           10 
 1294000    1.0533192   -6.3171363    540.94618  0.034836822  0.034927633            5 
 1295000     1.010865   -6.3328962    539.76446  0.034733878   0.03491966            3 
 1296000    1.0239419    -6.356396    539.80596  0.034709745  0.034911701            4 
 1297000    1.0560053   -6.3495152    540.45868  0.034724922  0.034903677            9 
 1298000    1.0511938   -6.3052357    541.26346  0.034749837  0.034895862            3 
 1299000    1.0313808   -6.3061476    542.73534   0.03481751  0.034888059            4 
 1300000    1.0181304   -6.3506161    540.67307   0.03465853  0.034880387            3 
 1301000    1.0465799   -6.3346129    542.74182    0.0347644  0.034872726            4 
 1302000    1.0367702   -6.3194836    542.00242  0.034690375  0.034865017            4 
 1303000    1.0195229   -6.3422807    544.52904  0.034825342  0.034857444            7 
 1304000    1.0542926   -6.3555158    542.84899   0.03469127  0.034849804            3 
 1305000    1.0550485   -6.2884875    543.47066  0.034704384  0.034842081            5 
 1306000    1.0520056   -6.3543808    544.70537  0.034756596  0.034834509            6 
 1307000    1.0529014   -6.3257176    543.68609  0.034665015   0.03482688            4 
 1308000    1.0255597   -6.3722474    544.80986  0.034710108  0.034819113            5 
 1309000    1.0514153   -6.3610364     545.3748  0.034719557  0.034811406           12 
 1310000    1.0755695   -6.3541655    544.69727  0.034649953  0.034803774            5 
 1311000      1.08389   -6.3231052     546.8042   0.03475745  0.034796262            5 
 1312000    1.0357126   -6.3621826    543.14957  0.034498829  0.034788623            5 
 1313000    1.0137612   -6.3580118     547.2897   0.03473532  0.034780908            3 
 1314000    1.0446922   -6.3215703    544.84224  0.034553668  0.034773159            2 
 1315000    1.0291899   -6.3545172    547.55055  0.034699021  0.034765467            3 
 1316000    1.0434611   -6.3423183    545.66502  0.034553256   0.03475764            5 
 1317000    1.0502592   -6.3663549    547.12541  0.034619426  0.034749716            6 
 1318000    1.0501938   -6.3243135    549.24809   0.03472737  0.034742001            5 
 1319000    1.0420694   -6.3128815    548.55101  0.034657001  0.034734505           14 
 1320000    1.0355559   -6.3468932    548.50564  0.034627881  0.034726862            4 
 1321000    1.0540428   -6.3319195    548.96103  0.034630396  0.034719334            4 
 1322000    1.0325411   -6.3592998    548.77898  0.034592725  0.034711719            2 
 1323000    1.0459258    -6.354519    550.06552  0.034647614   0.03470408            8 
 1324000    1.0383705   -6.3999302    549.08513  0.034559739  0.034696524            6 
 1325000    1.0448781   -6.3120686    550.56294    0.0346266  0.034688971            5 
 1326000    1.0319744   -6.3655301    549.88287  0.034557747  0.034681372            4 
 1327000    1.0176358    -6.340873    550.32575  0.034559517  0.034673682            8 
 1328000    1.0245877   -6.3820881    549.78245  0.034499401  0.034666105            7 
 1329000    1.0511096   -6.3738839    550.50795  0.034518934  0.034658258            4 
 1330000    1.0259125    -6.348171     550.6675  0.034502976   0.03465049            3 
 1331000    1.0431188   -6.3409065     551.3575  0.034520254  0.034642674            6 
 1332000    1.0154814   -6.3439399    551.02411   0.03447348  0.034634877            9 
 1333000    1.0161575   -6.3436916    553.43515  0.034598346  0.034627128            7 
 1334000     1.033695   -6.3489541    551.10018  0.034426548  0.034619413           10 
 1335000    1.0624097   -6.3304931    552.61991  0.034495625  0.034611734            6 
 1336000    1.0298388   -6.3356263    552.70269  0.034474968  0.034604093            6 
 1337000     1.027624   -6.3350682    553.79489  0.034517258  0.034596351            6 
 1338000    1.0459989   -6.3284867    553.84302  0.034494458  0.034588761            3 
 1339000    1.0242519   -6.3556389    552.47036  0.034383269  0.034581008            7 
 1340000    1.0186089   -6.3167789     554.9988   0.03451485  0.034573471           12 
 1341000     1.072527   -6.3181324    555.31905  0.034509014   0.03456607            7 
 1342000     1.042262   -6.3426753    555.86561  0.034517239  0.034558606            5 
 1343000    1.0614637   -6.3429519    555.86981  0.034491798  0.034551104            3 
 1344000     1.037071   -6.3580208    554.85658   0.03440331   0.03454339            9 
 1345000    1.0434091   -6.3554728    555.72036  0.034431249    0.0345358            4 
 1346000     1.037457   -6.3547534    556.72176  0.034467667  0.034528167            8 
 1347000    1.0241257     -6.32231    556.65989  0.034438251  0.034520695           10 
 1348000    1.0220645   -6.3784504    556.43925  0.034399063  0.034513143            2 
 1349000     1.032133   -6.3789954    557.04812  0.034411176  0.034505727            4 
 1350000    1.0530414   -6.3646364    557.19115  0.034394516  0.034498145            3 
 1351000    1.0363378    -6.320199    559.55851  0.034515082   0.03449063            7 
 1352000    1.0362501   -6.3205314    558.15212  0.034402867  0.034483142            6 
 1353000    1.0313721   -6.3673015    558.28295  0.034385498  0.034475716            3 
 1354000    1.0441654   -6.3705287    559.41947  0.034430051  0.034468121            4 
 1355000    1.0304928   -6.3502224    561.23479  0.034516285  0.034460687            8 
 1356000    1.0191346   -6.3514172    560.55753  0.034449209  0.034453466            4 
 1357000    1.0282724   -6.3592865    560.20015  0.034401876  0.034446367            3 
 1358000    1.0255267   -6.3675396    560.56698  0.034399054   0.03443905            7 
 1359000     1.034775   -6.3750452    559.99101  0.034338424  0.034431875           10 
 1360000    1.0343407   -6.3367775    562.12822  0.034444131  0.034424583            8 
 1361000    1.0211471   -6.3683295    559.62745  0.034265702  0.034417047            6 
 1362000    1.0556098   -6.3704986    559.86955  0.034255357  0.034409545            5 
 1363000    1.0200024   -6.3739364    560.21382  0.034251273  0.034401904            5 
 1364000    1.0196614   -6.3824987    560.73907  0.034258252  0.034394294            7 
 1365000    1.0333798   -6.3723156    564.13644  0.034440564   0.03438673            3 
 1366000    1.0056228   -6.4018201    563.47198  0.034374816  0.034379229            4 
 1367000    1.0522219   -6.3379689    562.87589  0.034313332  0.034371936            5 
 1368000    1.0428223   -6.3381404    564.45463   0.03438442  0.034364887            6 
 1369000    1.0419067   -6.3919943    562.82164    0.0342599  0.034357679            7 
 1370000    1.0288335   -6.3777739     565.3948  0.034391411   0.03435041            4 
 1371000    1.0483315   -6.3624344    565.84928  0.034393951  0.034343148            5 
 1372000    1.0315715   -6.4054986    564.79458  0.034304821  0.034335909           16 
 1373000    1.0383961   -6.3423019    565.53475   0.03432476  0.034328641            4 
 1374000    1.0378371   -6.3740592    565.11088  0.034274071  0.034321301            2 
 1375000    1.0485104    -6.349957    566.68785  0.034344718  0.034314155            6 
 1376000    1.0484913   -6.3797171    567.09409  0.034344361  0.034306981            5 
 1377000      1.03212   -6.3634597    567.37712  0.034336548  0.034299877            6 
 1378000    1.0456351    -6.339308    567.49108  0.034318522  0.034292863            7 
 1379000    1.0331348    -6.374136    567.12221  0.034271344  0.034285686            3 
 1380000    1.0307549   -6.3742462    565.88605  0.034171863  0.034278554            5 
 1381000    1.0494098   -6.3689722    569.25742  0.034350556  0.034271374            7 
 1382000    1.0248817   -6.3563372    567.07516  0.034194112  0.034264179            9 
 1383000    1.0264831   -6.3691512    568.31834  0.034244296  0.034256911           11 
 1384000    1.0222235   -6.3687456    569.76238  0.034306502  0.034249625            7 
 1385000    1.0361008   -6.3648655    570.12864  0.034303769  0.034242418            3 
 1386000    1.0450228   -6.3363333    569.40518  0.034235521  0.034235347            6 
 1387000       1.0218   -6.3764806    569.68884   0.03422788  0.034228203            5 
 1388000    1.0169004   -6.3994724    567.43969  0.034068185  0.034220908            8 
 1389000    1.0217179   -6.3674587    571.09275  0.034262824  0.034213579            6 
 1390000    1.0071483   -6.3302197    570.80044   0.03422065  0.034206384            4 
 1391000    1.0517035   -6.3325972    571.44242  0.034234509  0.034199317           15 
 1392000     1.013987   -6.3859657    569.57786  0.034098291  0.034192128            3 
 1393000    1.0237737   -6.3545928     569.7268  0.034082723   0.03418482            4 
 1394000    1.0118855   -6.3703522    571.91385  0.034189016  0.034177584            2 
 1395000    1.0084971   -6.3667174    572.37242  0.034191901  0.034170332            4 
 1396000    1.0306499    -6.361248    571.62542  0.034122816  0.034163085            5 
 1397000    1.0121646   -6.3558772     573.1325   0.03418829  0.034155896            5 
 1398000    1.0181141   -6.3971492    572.82929  0.034145761   0.03414865            3 
 1399000    1.0099222   -6.3592613    572.16069  0.034081528   0.03414147            6 
 1400000    1.0065733   -6.3627028    573.93182  0.034162608  0.034134251            5 
 1401000    1.0171123    -6.375716    572.36522   0.03404504  0.034126988            4 
 1402000    1.0304489   -6.3988956    574.15631  0.034127217   0.03411984           10 
 1403000     1.036318   -6.3862809    573.24853  0.034048974  0.034112449            6 
 1404000    1.0273876   -6.3739053    572.86024  0.034001676  0.034105078            7 
 1405000    1.0165294   -6.3510513    575.98435  0.034162773   0.03409786           10 
 1406000    1.0158858   -6.3498349    575.71492  0.034122506  0.034090547            4 
 1407000    1.0452686   -6.3544641    574.13732  0.034004816   0.03408319            6 
 1408000    1.0516284   -6.3641949    574.65466  0.034011284  0.034075791            3 
 1409000    1.0442875   -6.3626051    574.36209  0.033969842  0.034068377           11 
 1410000    1.0100044    -6.386518    573.94925   0.03392135  0.034061038            8 
 1411000    1.0497343   -6.3757327    576.52242  0.034049281  0.034053555            6 
 1412000    1.0205174   -6.3933629    577.99074  0.034111824  0.034046102            3 
 1413000    1.0286865   -6.3857741     576.2953  0.033987692  0.034038697            5 
 1414000     1.032703    -6.363604    576.88955  0.033998677  0.034031277            4 
 1415000    1.0433829   -6.3798367    577.03269  0.033983079  0.034023823            6 
 1416000   0.99549724   -6.3704995    576.47353  0.033926173   0.03401622            6 
 1417000    1.0182287   -6.3567439    576.56325  0.033907507  0.034008635            2 
 1418000    1.0215863   -6.3966133    578.64023  0.034005655  0.034001038            3 
 1419000   0.99900717   -6.3656393     577.4773  0.033913395  0.033993537            7 
 1420000    1.0226182    -6.376516     577.2975  0.033878961  0.033985849            4 
 1421000    1.0162467    -6.400733    577.01677  0.033838656  0.033978174            2 
 1422000    1.0428232      -6.3526    577.04087  0.033816272  0.033970522            7 
 1423000     1.011258    -6.379934     579.5637  0.033940249  0.033963008            8 
 1424000    1.0257669   -6.3828957    578.67032  0.033864134  0.033955437            4 
 1425000    1.0094812   -6.4257403    578.15755  0.033810383  0.033947802            8 
 1426000     1.015388    -6.393727    578.21891  0.033790259  0.033940054            8 
 1427000    1.0258803   -6.4196026    578.43725   0.03377933  0.033932357            7 
 1428000    1.0130797   -6.4339579    576.53928  0.033644916  0.033924623            4 
 1429000    1.0280346   -6.3690127    579.48642  0.033793236  0.033916837            4 
 1430000    1.0373712   -6.3774179     579.4445  0.033767162  0.033909098            4 
 1431000     1.014472   -6.3837359     579.0147  0.033718536  0.033901393            5 
 1432000    1.0333196   -6.3651145    579.66232  0.033732677  0.033893558            6 
 1433000   0.98551529   -6.3688063    578.48403  0.033640616  0.033885696            9 
 1434000    1.0247848   -6.3657734    581.62947  0.033799946  0.033877833            8 
 1435000     1.016314   -6.3820796    580.96083  0.033737563  0.033870062            9 
 1436000    1.0414302   -6.3641028    583.10207  0.033838328   0.03386234            6 
 1437000    1.0246271   -6.3959187    581.81897  0.033740372  0.033854639            5 
 1438000    1.0180598   -6.3585435    582.56609  0.033760205  0.033846883            6 
 1439000     1.021795   -6.3995524    582.23789  0.033717737  0.033839235            5 
 1440000   0.99987707   -6.3765641     584.1909  0.033807344  0.033831665            6 
 1441000    1.0021564    -6.371302    583.42337  0.033739496  0.033824085            4 
 1442000    1.0238578   -6.3911489    582.92998  0.033687585   0.03381658            5 
 1443000    1.0207193   -6.3897042    584.98507  0.033782922  0.033808962            2 
 1444000    1.0127298   -6.3972251    584.26173  0.033717782  0.033801321            3 
 1445000    1.0300114   -6.3636108     582.9574  0.033619227  0.033793617            3 
 1446000    1.0179701   -6.3896824    584.70327  0.033696592  0.033785947            9 
 1447000    1.0078924   -6.3340715    586.05533  0.033751171  0.033778402            8 
 1448000    1.0009896   -6.4238164    584.92085  0.033662572   0.03377073            7 
 1449000    1.0033883   -6.3909649    584.49985  0.033615128   0.03376302            8 
 1450000    1.0130391   -6.3537784    586.10529  0.033684212   0.03375528            8 
 1451000    1.0174002   -6.3614902    584.38818  0.033562381  0.033747732            3 
 1452000   0.99932109   -6.3608034     585.7327  0.033616431  0.033740195            3 
 1453000     1.017517   -6.3964404     587.4284  0.033690548  0.033732559            7 
 1454000    1.0183756   -6.3605117    585.80571  0.033574376  0.033724981            4 
 1455000    1.0122664   -6.3667084    586.90368  0.033614186  0.033717302            4 
 1456000    1.0168684   -6.3952142    586.78166  0.033584115  0.033709663            4 
 1457000     1.032342   -6.4405837    588.18266  0.033641195  0.033702024            4 
 1458000    1.0516877   -6.3484577    589.74139  0.033707213  0.033694442            5 
 1459000    1.0256311   -6.3851824    589.58471  0.033675161  0.033687029            4 
 1460000    1.0162238   -6.3924805    589.58587  0.033652162  0.033679479            4 
 1461000     1.007571   -6.3750394    588.07429  0.033542909  0.033671892            9 
 1462000    1.0350567   -6.4050022    589.06506   0.03357644   0.03366433            8 
 1463000    1.0240635   -6.3679874    591.15114  0.033672314  0.033656733           10 
 1464000    1.0059304   -6.3662106    589.74715  0.033569396  0.033649218            5 
 1465000    1.0028097   -6.4120099    590.60428  0.033595238  0.033641608            5 
 1466000     1.027381   -6.3894197    591.10513  0.033600792  0.033634209            5 
 1467000    1.0030644   -6.3903849    591.01379  0.033572699  0.033626692            7 
 1468000    1.0164961   -6.3688778    589.93314  0.033488484  0.033619158            9 
 1469000   0.99337791   -6.3759978    591.66993  0.033564212  0.033611671            3 
 1470000    1.0223617   -6.3645539    592.04473  0.033562627  0.033603943            3 
 1471000    1.0227332    -6.401577    590.77086  0.033467645  0.033596331            6 
 1472000    1.0010522    -6.357904    592.20538   0.03352612  0.033588658            6 
 1473000    1.0478887   -6.3614467    591.44091   0.03346011  0.033580901            5 
 1474000    1.0170714   -6.3816075    592.18748  0.033479618  0.033573098            8 
 1475000   0.99581614   -6.4052483    592.90305  0.033497348   0.03356545            3 
 1476000    1.0096822   -6.3883938    592.85265  0.033471807  0.033557781            6 
 1477000    1.0297475   -6.4073155    592.01263  0.033401751  0.033549927            6 
 1478000    1.0242235   -6.4033099    594.66077   0.03352846  0.033542264            2 
 1479000    1.0143756   -6.4173248    593.64461  0.033448536  0.033534706            5 
 1480000    1.0280092   -6.3942923    595.31798  0.033520157  0.033527114            6 
 1481000    1.0136667    -6.402864    593.09817  0.033372618  0.033519609            8 
 1482000   0.99772399    -6.410079    595.71298  0.033497131   0.03351209            3 
 1483000    1.0449734   -6.3978956    596.73096  0.033531747  0.033504722            3 
 1484000    1.0218326    -6.402587    595.87347  0.033460999  0.033497369            4 
 1485000   0.99812736    -6.357224    598.13859  0.033565578  0.033489967           14 
 1486000    1.0087517   -6.4263488    595.62296  0.033401916   0.03348253            6 
 1487000    1.0136687   -6.3622087    598.48026   0.03353958  0.033475086            5 
 1488000    1.0000027   -6.4137942    596.64392  0.033414198    0.0334678            9 
 1489000    1.0085499   -6.3783097    597.44522  0.033436603  0.033460364            4 
 1490000   0.99060479    -6.385419    597.86095  0.033437413  0.033452898            3 
 1491000   0.98949617   -6.3824388    598.29252  0.033439108   0.03344528            5 
 1492000    0.9956513   -6.3772021    598.13873  0.033408106  0.033437899            9 
 1493000    1.0178434    -6.381396    598.02152  0.033379187  0.033430453            6 
 1494000    1.0148829   -6.4067189    598.39378   0.03337761   0.03342292            4 
 1495000    1.0136827   -6.4139914    596.91403    0.0332728  0.033415346            3 
 1496000    1.0198741   -6.3964119    597.15293  0.033263866   0.03340784            4 
 1497000    1.0238497   -6.4155724    599.49491  0.033372017  0.033400383            3 
 1498000    1.0212971   -6.4067835    598.37307  0.033287331  0.033392918            3 
 1499000    1.0251648   -6.4023474    599.94494  0.033352509  0.033385409            5 
 1500000    1.0323621   -6.3853685    600.19671  0.033344262  0.033377845            6 
 1501000    1.0093764   -6.3942707    599.69424  0.033294151  0.033370272            4 
 1502000    1.0018097   -6.3943817    599.81918  0.033278916  0.033362784            3 
 1503000    1.0071026   -6.4428171    600.54331  0.033296923   0.03335531            2 
 1504000    1.0105496   -6.4285749    601.93337  0.033351805  0.033347746            8 
 1505000   0.99510321   -6.3963829    600.77273  0.033265378  0.033340101           11 
 1506000    1.0061986   -6.3893421    601.27553  0.033271112  0.033332654            4 
 1507000     1.017041   -6.3892136    603.33732  0.033363046  0.033325173            5 
 1508000    0.9956466   -6.3860526     602.6173  0.033301133  0.033317794            3 
 1509000    1.0195081   -6.3854344    603.64242  0.033335676   0.03331038            6 
 1510000    1.0131871   -6.4272558    600.76634  0.033154876  0.033302886            4 
 1511000    1.0300815   -6.4076132    603.78829  0.033299597  0.033295457           12 
 1512000   0.98942148   -6.4136084    601.87314  0.033172021   0.03328796            4 
 1513000   0.99158649   -6.3665229     603.5794  0.033244074  0.033280502           13 
 1514000   0.99823432   -6.4070407    603.47662  0.033216459  0.033273003            9 
 1515000   0.99461942   -6.4172179    603.09171  0.033173361  0.033265526            8 
 1516000    1.0299693    -6.401549     603.7456  0.033187423  0.033257982            3 
 1517000   0.98321658   -6.4124642      603.004  0.033124808  0.033250393           12 
 1518000    1.0038073   -6.3915286    605.00021  0.033212572  0.033242913            4 
 1519000    1.0353493   -6.4262767    603.94799  0.033132982  0.033235314            3 
 1520000    1.0264212   -6.3782967    605.08816  0.033173693  0.033227879            5 
 1521000    1.0245709   -6.4166854     605.1443  0.033154959  0.033220424            4 
 1522000    1.0209266   -6.4006113     604.3219  0.033088146  0.033212837            5 
 1523000    1.0077356   -6.4099731    605.57313  0.033134883  0.033205391            7 
 1524000    1.0070669   -6.4053315    607.78763  0.033234232  0.033197997            6 
 1525000    1.0023856   -6.4302953    607.19612  0.033180116  0.033190553            6 
 1526000    1.0240005   -6.3712402    607.35453  0.033167024  0.033183083            4 
 1527000    1.0188776    -6.426458    607.42818  0.033149322  0.033175744            2 
 1528000    1.0392116   -6.3935093    607.53346  0.033133369  0.033168381            6 
 1529000    1.0170984   -6.3763395    608.58842  0.033169197  0.033161033            7 
 1530000    1.0087654    -6.395864     609.2404  0.033183028  0.033153585            7 
 1531000   0.99488689   -6.4011986    608.34617  0.033112681  0.033146116            3 
 1532000    1.0295147    -6.430133    608.96663  0.033124817   0.03313868            3 
 1533000    1.0120021   -6.4188411    607.14635  0.033004259  0.033131242            4 
 1534000    1.0172164   -6.4017613    609.93361  0.033134159  0.033123814            4 
 1535000    1.0212814   -6.4293186     608.5962  0.033039967  0.033116277            6 
 1536000    0.9878679   -6.3910622    608.35134  0.033005173  0.033108815            4 
 1537000    1.0130137    -6.414407    611.36945  0.033147335  0.033101403            8 
 1538000    1.0076512   -6.3919072    611.56421  0.033136335  0.033093927            4 
 1539000   0.99238421   -6.3872987    610.76843  0.033071715  0.033086453            3 
 1540000    1.0247199   -6.4330497    610.05217  0.033011481  0.033078873            5 
 1541000    1.0060611   -6.4196659    612.81202  0.033139305    0.0330713            5 
 1542000    1.0266498   -6.4300792    610.06605  0.032969415  0.033063671            6 
 1543000    1.0139364   -6.4145439    610.67541  0.032980958  0.033056039            6 
 1544000    1.0200601   -6.4237456    610.68823  0.032960289  0.033048459            4 
 1545000   0.99829494    -6.437583    611.74909  0.032996176  0.033040836            4 
 1546000   0.99630118   -6.4003682    611.58737  0.032966115  0.033033177            4 
 1547000    1.0228356   -6.4284588    611.96684  0.032965247  0.033025588            6 
 1548000   0.97786124   -6.4300742    611.36189  0.032911385  0.033017967            4 
 1549000   0.99657216   -6.4030495    610.38977   0.03283784  0.033010323            3 
 1550000    0.9883422   -6.4177254    612.39948  0.032924703  0.033002702            5 
 1551000    1.0007101   -6.4432425    611.89815  0.032876539  0.032994955            3 
 1552000    1.0088984   -6.4188304    611.27129  0.032821697  0.032987378            6 
 1553000   0.99798343   -6.4399449    613.73275  0.032932644  0.032979723           10 
 1554000   0.99593688     -6.41613    612.99289  0.032871777  0.032972156            7 
 1555000   0.99867934   -6.4010313    614.37472   0.03292469   0.03296445            9 
 1556000   0.99637658   -6.3969113     614.6856   0.03292018  0.032956879            5 
 1557000    1.0167145   -6.4206277    616.25477  0.032983021  0.032949434            4 
 1558000    0.9987227    -6.439398    614.05207  0.032844035  0.032941943            4 
 1559000    1.0046548   -6.4287981    616.76803  0.032968143  0.032934345           12 
 1560000   0.98508725    -6.425188    613.73821  0.032785161  0.032926817            7 
 1561000    1.0068162   -6.4172922    614.59901  0.032810112  0.032919178            5 
 1562000   0.99212955    -6.470323    614.55934   0.03278699  0.032911508            3 
 1563000   0.98959595   -6.4526642    614.34643  0.032754661  0.032903936            5 
 1564000   0.99003131   -6.4288111    614.42046  0.032737663  0.032896283            4 
 1565000   0.99597317   -6.4430758    616.55572  0.032830443   0.03288855            5 
 1566000   0.98561501   -6.3846894     616.6352  0.032813708  0.032880984            5 
 1567000    1.0083473   -6.4373862    615.97705  0.032757767  0.032873409            2 
 1568000   0.99643871   -6.4490025    614.74396  0.032671342  0.032865754            7 
 1569000   0.98881142   -6.4363406    617.05346  0.032773181  0.032858047           10 
 1570000     1.001891   -6.3973744    617.83173  0.032793616   0.03285048            8 
 1571000   0.99325738   -6.4297283    616.55369  0.032704949  0.032842861           10 
 1572000   0.99778285   -6.4134539    618.34066  0.032778873  0.032835296            2 
 1573000    1.0065119   -6.4519052    617.54608   0.03271594  0.032827691            3 
 1574000    1.0055284   -6.4035026    619.80365  0.032814679  0.032819941            9 
 1575000    0.9953904   -6.4144713    619.00905  0.032751802  0.032812261            5 
 1576000    1.0105396   -6.4240398    618.02478  0.032678975  0.032804465            4 
 1577000    0.9960564   -6.4148811    617.65041   0.03263847   0.03279675            4 
 1578000    1.0187242   -6.4109135    617.57314  0.032613706  0.032789147            9 
 1579000    0.9956934   -6.4031578    619.67021  0.032703727  0.032781562            6 
 1580000    1.0086521   -6.4299316    620.90313  0.032748055  0.032773877            4 
 1581000    1.0039026   -6.4091213    620.68612  0.032715903  0.032766305            4 
 1582000   0.99665893   -6.4165443     619.9786  0.032657954  0.032758671            7 
 1583000    1.0011685   -6.4193274    621.64629  0.032725115  0.032751063           11 
 1584000   0.99479611   -6.4262472    621.05865   0.03267354  0.032743384            5 
 1585000    1.0046136   -6.4219751    622.16501  0.032711094  0.032735819            6 
 1586000    0.9901077   -6.4581633    622.29836  0.032697476  0.032728146            5 
 1587000    1.0038896   -6.4244688    620.16501   0.03256485  0.032720458            7 
 1588000    1.0184941   -6.4288469    622.85035  0.032685262  0.032712868           21 
 1589000    1.0005847   -6.4069016    623.30904  0.032688748   0.03270538            5 
 1590000   0.97081004   -6.4332733    622.74414  0.032638582  0.032697869            4 
 1591000    1.0000583   -6.4495578    622.13414  0.032586117  0.032690355            9 
 1592000    1.0015215   -6.4268227    623.74027  0.032649721  0.032682793            4 
 1593000     1.012088    -6.416991    623.24971  0.032603563  0.032675324           15 
 1594000    1.0135971   -6.4370992    624.87626  0.032668144   0.03266799            9 
 1595000   0.99934258   -6.4320266     625.3939  0.032674708  0.032660656            5 
 1596000   0.97748256   -6.4519598    625.96027  0.032683807  0.032653447            2 
 1597000   0.97918409   -6.4154511    625.61598  0.032645376  0.032646313            3 
 1598000   0.99592043   -6.3813277      626.849  0.032689247  0.032639412            6 
 1599000   0.98527753   -6.4375071    626.49746  0.032650483  0.032632337            4 
 1600000    1.0085295   -6.4112349    627.26656  0.032670133  0.032625202            7 
 1601000   0.97432447   -6.4377978    627.24327  0.032648515  0.032617994           17 
 1602000    1.0120777   -6.4302883    626.03545  0.032565306   0.03261081            5 
 1603000    1.0104552   -6.4418916    625.82454  0.032534027   0.03260354           10 
 1604000   0.99260699   -6.4281805    629.07324  0.032682525  0.032596448            5 
 1605000    1.0008762   -6.4159588    630.83102  0.032753428   0.03258939            5 
 1606000   0.96581645   -6.4240197    628.69258  0.032622072  0.032582341            5 
 1607000    1.0031977   -6.4309336    628.76673  0.032605617  0.032575219            5 
 1608000    1.0024317   -6.4172956    630.09981  0.032654426  0.032568116            6 
 1609000   0.99546256   -6.4400025    630.27655  0.032643285  0.032561105            4 
 1610000   0.99508003   -6.4273407    629.23086  0.032568885  0.032554047            5 
 1611000    0.9919861   -6.4276523    630.33209  0.032605633  0.032546933            9 
 1612000   0.99659585    -6.403039    631.70874  0.032656573  0.032539838            8 
 1613000     0.994212    -6.401502    631.21646  0.032610894  0.032532864            4 
 1614000   0.99333491   -6.4415011    629.49024  0.032501561  0.032525753            7 
 1615000   0.96940968   -6.4420309    630.52535  0.032534848  0.032518581            9 
 1616000    1.0024168   -6.4349573     631.2989  0.032554605  0.032511419            7 
 1617000   0.99131054   -6.4123118    633.34077  0.032639701  0.032504382            8 
 1618000   0.98885161   -6.4555792    633.44121  0.032624702  0.032497315           13 
 1619000   0.99165222   -6.4270194    634.99386  0.032684469  0.032490319            5 
 1620000   0.98083878   -6.4475796     634.3961  0.032633544  0.032483374            4 
 1621000   0.99363193   -6.4001919    633.83942  0.032584794  0.032476437            6 
 1622000   0.97711919   -6.4135187    633.12944  0.032528228  0.032469443            6 
 1623000    1.0118822   -6.4470433     633.7225  0.032538637  0.032462303            7 
 1624000    1.0017298   -6.3962384    633.08254  0.032485763   0.03245518            4 
 1625000    1.0135447   -6.4019769    635.35583   0.03258235  0.032448117            4 
 1626000   0.97430728   -6.4268684    633.13806   0.03244865  0.032440914            8 
 1627000   0.98052962   -6.4329295    634.24216  0.032485257  0.032433724            5 
 1628000   0.98993938   -6.4416779    635.46776  0.032528039  0.032426563            6 
 1629000   0.98736588   -6.4442233    633.99181  0.032432567  0.032419308            5 
 1630000    1.0032884   -6.4640207    635.47721   0.03248861  0.032412054            7 
 1631000   0.97479825   -6.4317213    635.02838  0.032445758  0.032404802           10 
 1632000   0.98647522   -6.4168182    637.81315  0.032568073  0.032397655            2 
 1633000    1.0000725   -6.4288873    636.72418  0.032492559  0.032390653            7 
 1634000    1.0026955   -6.4740944    635.15773  0.032392785  0.032383572            5 
 1635000   0.96911446    -6.430667    637.16876  0.032475472  0.032376477            5 
 1636000   0.99924868   -6.4760929    636.68139  0.032430796  0.032369368            8 
 1637000   0.98064563   -6.4640393    636.20852  0.032386913  0.032362261            5 
 1638000   0.99806074   -6.4368556    637.81699  0.032448972  0.032355138            8 
 1639000   0.99719812   -6.4416197    635.49725  0.032311229  0.032348107            4 
 1640000   0.97706336   -6.4432391    636.79752  0.032357598  0.032341065            4 
 1641000   0.97929203   -6.4245039    637.47056  0.032372058  0.032333959            8 
 1642000   0.99400105   -6.4393929    638.49953  0.032404564  0.032326885            4 
 1643000   0.97833315   -6.4081223    640.53181  0.032487919  0.032319796            6 
 1644000   0.99799582   -6.4238157    638.51349   0.03236585  0.032312817            5 
 1645000    0.9785665   -6.4512195    637.22804  0.032281056  0.032305703            2 
 1646000   0.96964555   -6.4321316    639.17205  0.032359865  0.032298648            8 
 1647000   0.99480678   -6.4330732    640.34795  0.032399714  0.032291611           12 
 1648000   0.99660876   -6.4303298    640.53416   0.03238947  0.032284548            7 
 1649000   0.98731926    -6.464518    639.58929  0.032322078  0.032277506            5 
 1650000    1.0112642   -6.4568545    639.96919  0.032321676  0.032270372            6 
 1651000    1.0112258   -6.4612779    639.44744  0.032275764  0.032263283            4 
 1652000   0.98495337   -6.4484295     639.2092  0.032244209  0.032256263            6 
 1653000    0.9585401   -6.4693288    641.01258  0.032315617  0.032249172            6 
 1654000    1.0065467   -6.4257764    642.87136   0.03238973  0.032242241           11 
 1655000   0.97567496   -6.4391523    643.89672  0.032421789   0.03223529            6 
 1656000   0.96392099   -6.4568992     640.9693  0.032254896  0.032228211            8 
 1657000   0.97796612   -6.4236851    641.26527  0.032250315  0.032221144            5 
 1658000   0.97289066   -6.4651042    641.74268  0.032254859   0.03221398           10 
 1659000   0.99706161    -6.443123    643.21135   0.03230919  0.032206878            6 
 1660000   0.99555246   -6.4396683    641.27234  0.032192386  0.032199834            3 
 1661000    1.0142349   -6.4351151    643.66438  0.032293015  0.032192818            9 
 1662000   0.98239517   -6.4425586    642.68302  0.032224379  0.032185763            5 
 1663000   0.98469524   -6.4573923     642.9419  0.032217975  0.032178756            6 
 1664000   0.99216736   -6.4376887    646.32167  0.032367872  0.032171721            6 
 1665000   0.98759837   -6.4815175    643.66772  0.032215602  0.032164725            3 
 1666000    1.0091823   -6.4625461    644.22015  0.032223897  0.032157771            8 
 1667000   0.99819303   -6.4453271    644.34617  0.032210866  0.032150741            8 
 1668000   0.97240177   -6.4485832    645.10024  0.032229229  0.032143673           10 
 1669000   0.99156846   -6.4615354     644.9085  0.032200344  0.032136612            6 
 1670000    0.9759237   -6.4253497    647.28136  0.032299469  0.032129588            5 
 1671000   0.98829025   -6.4585806    645.54039  0.032193317  0.032122676            4 
 1672000   0.98945896   -6.4599309    645.55423  0.032174752  0.032115708            5 
 1673000   0.96979721    -6.453745    645.82746   0.03216913  0.032108671            8 
 1674000   0.97693748   -6.4358209    645.51717  0.032134467  0.032101777            3 
 1675000   0.97511677   -6.4425053    645.98655  0.032138634  0.032094872            8 
 1676000   0.96918499   -6.4633969    645.27869  0.032084263  0.032087865            6 
 1677000   0.99225675   -6.4502597    648.19383  0.032209989  0.032080884            3 
 1678000   0.99248158   -6.4440522    648.38378  0.032200228  0.032074119            6 
 1679000   0.99452824   -6.4446261    647.25739  0.032125143  0.032067248           11 
 1680000   0.97646253   -6.4973689    647.49343   0.03211773  0.032060381            7 
 1681000   0.98405642   -6.4549102    647.89636  0.032118598  0.032053515            4 
 1682000   0.97943483   -6.4302277    648.84997  0.032146748  0.032046604            3 
 1683000   0.97075423   -6.4287652    649.60096  0.032164832  0.032039679            7 
 1684000   0.98970135   -6.4963319    647.06352  0.032020166  0.032032815            4 
 1685000   0.98907844   -6.4311388    651.11463  0.032201515  0.032025923            4 
 1686000   0.96792545   -6.4435133    649.61177  0.032108134  0.032019095            6 
 1687000   0.99177207   -6.4616061    651.44705  0.032179759   0.03201228            8 
 1688000   0.97643085   -6.4430315    652.23881  0.032199783  0.032005584            6 
 1689000   0.96483634   -6.4958547    650.36452  0.032088243  0.031998869            7 
 1690000   0.99149143   -6.4545558    652.53877  0.032176468  0.031992198            8 
 1691000   0.99425899   -6.4728541    652.57481  0.032159216  0.031985481            2 
 1692000   0.97291082   -6.4498837    653.09106  0.032165635  0.031978802            2 
 1693000   0.97012201   -6.4272358    652.89974  0.032137219  0.031972243            6 
 1694000   0.98828023   -6.4142807    653.78464  0.032161779  0.031965659            7 
 1695000   0.96189669   -6.4552005     654.9447  0.032199838  0.031958963            4 
 1696000   0.99165111   -6.4353333    654.73453  0.032170525  0.031952414           11 
 1697000   0.98224095   -6.4506918    655.17705  0.032173298  0.031945814            7 
 1698000   0.99604484    -6.501119     653.8202   0.03208776  0.031939185            4 
 1699000   0.96717411   -6.4405887    655.32227  0.032142548   0.03193246            3 
 1700000   0.99223152   -6.4080709    655.25002  0.032120099   0.03192591            3 
 1701000   0.98458448   -6.4304323    658.08624  0.032240164  0.031919437            5 
 1702000   0.99892646   -6.4429942     653.3267  0.031988185  0.031912927            6 
 1703000   0.98498026   -6.4810316    654.24955   0.03201456  0.031906208           11 
 1704000   0.98404615   -6.4558358    656.11411  0.032086958  0.031899561           11 
 1705000    0.9742241   -6.4329529    658.59118  0.032189207  0.031892905            3 
 1706000   0.96889473   -6.4835185    657.21221   0.03210298  0.031886248            5 
 1707000   0.97090023   -6.4542715    658.17931  0.032131386  0.031879611            8 
 1708000   0.97643417    -6.414412    658.43814  0.032125202  0.031873076            5 
 1709000   0.98617065   -6.4516884    657.26799  0.032049346  0.031866579            8 
 1710000   0.96304959   -6.4552047    659.82258  0.032155096  0.031860108            5 
 1711000   0.96144597   -6.4638164    659.27324  0.032109548  0.031853759            6 
 1712000   0.97522632   -6.4816088    659.51386  0.032102505  0.031847192            9 
 1713000   0.97990151   -6.4806659    658.87992  0.032052925  0.031840679            5 
 1714000   0.97823449   -6.4364586    659.58327  0.032068421  0.031834118            5 
 1715000   0.97356859   -6.4458073    660.24738  0.032081991  0.031827732            3 
 1716000   0.98974001   -6.4177836    659.49616  0.032026814  0.031821143            5 
 1717000   0.96586517   -6.4602447      659.169  0.031992283  0.031814476            4 
 1718000    0.9854404   -6.4586515    660.25317   0.03202625  0.031807796            3 
 1719000   0.99111178    -6.453561    659.67571  0.031979625  0.031801166           12 
 1720000   0.99737439     -6.45497    658.06051  0.031882777  0.031794507            4 
 1721000   0.96797659   -6.4817393    659.20759  0.031919794  0.031787796            6 
 1722000    1.0042564   -6.4520986    658.88565  0.031885678  0.031781048            8 
 1723000   0.98226304   -6.4626467     661.2124  0.031979706  0.031774434            3 
 1724000   0.98093952   -6.4502365    661.23287  0.031962146  0.031767875            5 
 1725000   0.97277538   -6.4194263    658.36475   0.03180506  0.031761231            4 
 1726000    0.9794291   -6.4774699    661.39209  0.031932797  0.031754564            3 
 1727000   0.98047782    -6.470922     661.0336  0.031897008  0.031747827            7 
 1728000   0.97932253   -6.4689832    663.01472   0.03197409   0.03174113            3 
 1729000   0.96455231   -6.4701098    663.43502  0.031975854  0.031734447            3 
 1730000   0.96601401    -6.480662    662.19236  0.031897512  0.031727849            9 
 1731000   0.99137865   -6.4390534    662.73494  0.031905206  0.031721127            5 
 1732000    0.9551959   -6.4830391    662.71263  0.031885712   0.03171456            5 
 1733000   0.98519572   -6.4542313    662.85994  0.031874396   0.03170793            5 
 1734000   0.97938768   -6.4603024    662.99849  0.031862673  0.031701273            7 
 1735000   0.97233078   -6.4954436    662.99452  0.031844117  0.031694546            8 
 1736000   0.97253624   -6.4793101    662.65875  0.031809656  0.031687851            8 
 1737000   0.95533428   -6.4640526     664.0584  0.031858491  0.031681243            7 
 1738000   0.97476548   -6.4704215    663.01284  0.031790029  0.031674531           13 
 1739000   0.94383906   -6.4955181    663.51642   0.03179588  0.031667774           10 
 1740000   0.96603415    -6.481289    664.92662  0.031845145  0.031661078            4 
 1741000   0.97527247   -6.4702826    665.11271  0.031835761   0.03165429            5 
 1742000   0.97560249   -6.4843613    664.99003  0.031811617  0.031647594            9 
 1743000   0.97301688   -6.5051848     663.8922  0.031740878  0.031640889           19 
 1744000   0.97157568   -6.4788644    666.05841  0.031826185  0.031634196            3 
 1745000   0.96728985   -6.4977104    664.48371  0.031732747  0.031627607            7 
 1746000   0.99398619   -6.4444738    668.37944  0.031900508  0.031621062            5 
 1747000   0.96955666   -6.4816095      664.933   0.03171785   0.03161438           11 
 1748000   0.97525251   -6.4400734    668.22995  0.031856882  0.031607821            5 
 1749000   0.98024395   -6.4564757    667.83103   0.03181966   0.03160133            5 
 1750000   0.97638465   -6.4787257    666.84242  0.031754401  0.031594728            6 
 1751000   0.98030559   -6.4708271    667.74658  0.031779297  0.031588164            9 
 1752000   0.97416778   -6.4744797    668.18388  0.031781958  0.031581553            6 
 1753000   0.96222579   -6.4635273    668.32915  0.031770734  0.031574945            5 
 1754000   0.98326616   -6.4948989     667.9128  0.031732839  0.031568376            5 
 1755000   0.95163104   -6.5005891    668.18967  0.031727905  0.031561768            3 
 1756000   0.93277303   -6.4904037    668.96207  0.031746491  0.031555037            9 
 1757000   0.95410166   -6.4807281    668.29167  0.031696626  0.031548393            3 
 1758000   0.99048208   -6.4501885    670.82794  0.031798822  0.031541769            4 
 1759000    1.0000233   -6.4890139    668.52553  0.031671666  0.031535137           10 
 1760000   0.95894175   -6.4532971    668.17671  0.031637155  0.031528404            6 
 1761000   0.95959056   -6.4880781    669.13765  0.031664663  0.031521635            9 
 1762000    0.9832998   -6.4683752    671.13544  0.031741177  0.031514911            9 
 1763000   0.96318202    -6.460101    670.38056  0.031687491  0.031508209           11 
 1764000   0.96280161   -6.4701243    671.13086  0.031704973  0.031501499            4 
 1765000   0.97329748   -6.5022503    670.26535  0.031646145  0.031494797            8 
 1766000   0.97824268   -6.4876202    670.24881  0.031627445  0.031488044           12 
 1767000   0.99684642    -6.431195    671.08824  0.031649134  0.031481308            4 
 1768000   0.98691168   -6.4759663    671.30441  0.031641422  0.031474519            4 
 1769000   0.97189174   -6.4746133    671.81868  0.031647761   0.03146768            4 
 1770000   0.97484334   -6.5023654    672.86118  0.031678963  0.031460876            4 
 1771000   0.95784989   -6.4979152    671.68247  0.031605612  0.031454083            5 
 1772000   0.98586401   -6.4636013    671.35589  0.031572418  0.031447348           13 
 1773000   0.96291111   -6.4856105    672.45091  0.031606078  0.031440587            5 
 1774000   0.96700995   -6.4722731    672.43972  0.031587736   0.03143378            4 
 1775000   0.98204029   -6.4763276    673.38303  0.031614227  0.031427032            6 
 1776000    0.9704624   -6.4606976    671.09107  0.031488883  0.031420245            5 
 1777000   0.97909622   -6.4553439    672.34994  0.031530198  0.031413615            6 
 1778000   0.97089534   -6.4667748    673.97925  0.031588829  0.031406876            4 
 1779000   0.95820848   -6.4860041    673.01796  0.031526043  0.031400044            6 
 1780000   0.99076201   -6.4974689    673.13312  0.031513723  0.031393254            4 
 1781000   0.97749577   -6.5016618    672.78022  0.031479516  0.031386348           15 
 1782000   0.98106227   -6.5045394    672.34732  0.031441607  0.031379398            8 
 1783000   0.94467442   -6.4653511    675.70045   0.03158069   0.03137253            9 
 1784000    0.9642543   -6.4842174    674.38523  0.031501552  0.031365721            7 
 1785000   0.97827597   -6.4686834    674.77725  0.031502206  0.031358896            6 
 1786000   0.98544845   -6.4753954    675.12076  0.031500595  0.031352206            5 
 1787000   0.96254616   -6.4999958    672.95132    0.0313818  0.031345368            6 
 1788000   0.95701668   -6.4852351    675.80703  0.031497345  0.031338605            7 
 1789000   0.95671998   -6.4766245    673.96975  0.031394156  0.031331757            6 
 1790000   0.96524611   -6.4859062    673.67599  0.031362942  0.031324884            5 
 1791000   0.94323989   -6.5260244    674.47945  0.031382814  0.031317999            7 
 1792000   0.94001309   -6.4759816    675.53301  0.031414295   0.03131108            5 
 1793000   0.94295986   -6.5056072    675.69761  0.031404425  0.031304232            6 
 1794000   0.94195327   -6.4781832    677.07076  0.031450704  0.031297359            5 
 1795000    0.9673059   -6.5118173    675.84177  0.031376127  0.031290426            4 
 1796000   0.97693676   -6.5114177    676.96899  0.031410959  0.031283491            4 
 1797000   0.94532016   -6.4992914    677.12135  0.031400545  0.031276621            6 
 1798000   0.95882766   -6.5089764    677.25611  0.031389327  0.031269639            5 
 1799000   0.96939851   -6.4934683    676.29581  0.031327395  0.031262611           17 
 1800000   0.95950346   -6.5091572    675.93417  0.031293249  0.031255669           11 
 1801000   0.95849646   -6.4619991    679.61324  0.031446106  0.031248696            8 
 1802000   0.97970245   -6.4949038      676.516  0.031285424  0.031241783            5 
 1803000   0.96535031   -6.4829098    678.96826  0.031381413  0.031234747            7 
 1804000   0.96316091   -6.4825488    677.12164  0.031278716   0.03122764            4 
 1805000   0.95043334   -6.4755645    674.64504  0.031147047   0.03122054            7 
 1806000   0.96408664   -6.5063307    676.36446  0.031209139  0.031213312           10 
 1807000   0.96298785    -6.494629    677.80663  0.031258376  0.031206125            4 
 1808000   0.96514109   -6.4927068    676.47667  0.031179787  0.031198858            3 
 1809000   0.95891499   -6.5109338    676.51099  0.031164133   0.03119155           10 
 1810000   0.95562738    -6.470808    676.78926  0.031159726  0.031184324            5 
 1811000   0.97237551   -6.4777294    676.82859   0.03114433  0.031177064            6 
 1812000   0.98312221   -6.4587932    677.72792  0.031168502  0.031169912            7 
 1813000   0.98500807   -6.5182282    678.94964  0.031207466   0.03116272            9 
 1814000   0.94704873    -6.503347    677.79628  0.031137278  0.031155413            5 
 1815000   0.96615385     -6.47747    678.91761  0.031171608   0.03114816            6 
 1816000   0.97787415   -6.4529809    677.45151  0.031087165  0.031140881            7 
 1817000   0.97510933   -6.4996797    678.29241  0.031108623   0.03113364            6 
 1818000   0.94095643   -6.4980705    679.05919  0.031126659  0.031126347            7 
 1819000   0.92881647   -6.4846023    679.17345  0.031114782  0.031119168            8 
 1820000   0.95123395   -6.4924891     677.9878  0.031043397  0.031111976            5 
 1821000   0.96382284   -6.5001635    680.19613  0.031127409  0.031104791            7 
 1822000   0.97072291   -6.5275719    679.45421  0.031076391  0.031097592            6 
 1823000   0.93872222   -6.5031894    679.56674  0.031064488  0.031090275            9 
 1824000   0.93150082   -6.5099617     680.2677  0.031079482   0.03108297           13 
 1825000     0.965161   -6.5127217    680.70959   0.03108263   0.03107563           10 
 1826000   0.93474333   -6.4979451      680.597  0.031060469  0.031068287           12 
 1827000   0.95495605   -6.4976229      679.752  0.031004926   0.03106098            5 
 1828000   0.95900828   -6.5012294    682.34556  0.031106198  0.031053651            6 
 1829000   0.95035283   -6.4967198    680.85727  0.031021381  0.031046255            7 
 1830000   0.95467487   -6.4865352    682.51904  0.031080102  0.031038967            7 
 1831000   0.96779786   -6.4699729    682.93679   0.03108214  0.031031712            3 
 1832000   0.96683561    -6.514989    681.81434  0.031014117  0.031024442           12 
 1833000   0.94241178    -6.515055    681.19185  0.030968897  0.031017035            4 
 1834000    0.9666647   -6.4925035    682.10313  0.030993417  0.031009615            4 
 1835000   0.97083138   -6.4959705    682.33455  0.030987037   0.03100227            7 
 1836000   0.95545929   -6.4705055     680.7272  0.030897204  0.030994922            7 
 1837000   0.97875003    -6.520919    680.40996  0.030865994  0.030987355            5 
 1838000   0.95264023   -6.4968627     681.3536  0.030891984  0.030979806           11 
 1839000   0.94784358   -6.5046518    681.64017  0.030888171  0.030972312            4 
 1840000   0.95704852    -6.473645    681.53564   0.03086665  0.030964699            6 
 1841000   0.95991851   -6.5051064    681.19212  0.030834335  0.030957203            6 
 1842000   0.96540598   -6.4765285    681.91632  0.030850358  0.030949721            5 
 1843000    0.9490675   -6.4905342      684.164  0.030935251  0.030942313            4 
 1844000   0.94661022   -6.4994694    682.74322  0.030854267  0.030934884           11 
 1845000    0.9665161   -6.5075122     685.0509  0.030941775  0.030927463            7 
 1846000   0.96942372   -6.5349758    684.86932  0.030916816  0.030920066           12 
 1847000   0.96120673   -6.4976094    685.43872  0.030925768  0.030912761            7 
 1848000   0.95761405   -6.5290218      682.458  0.030774621  0.030905378            9 
 1849000   0.94262779   -6.5543869    683.82382  0.030819534  0.030898001            5 
 1850000   0.95233489   -6.5093895    685.74844  0.030889569   0.03089068            8 
 1851000   0.94184352   -6.5352027    684.88471  0.030833996  0.030883404            6 
 1852000   0.94278153   -6.5307121    685.97442  0.030866379  0.030876174            5 
 1853000   0.94468739   -6.5373663    685.49197  0.030828025  0.030868927            7 
 1854000   0.95542035   -6.4782335    689.07081  0.030972259  0.030861725           16 
 1855000   0.96134317   -6.5081107    688.56188  0.030932699  0.030854555            5 
 1856000    0.9466855   -6.5167524    686.32701  0.030815688  0.030847337            9 
 1857000   0.94742592   -6.5148889    686.61732  0.030812122  0.030840173            4 
 1858000    0.9646535   -6.5061992    687.46057  0.030833359  0.030832874            7 
 1859000   0.95532844   -6.4968745    687.53967  0.030820319  0.030825514            6 
 1860000   0.98066822   -6.5111082    688.30044  0.030837833  0.030818172            5 
 1861000   0.94359217   -6.5265608    688.76652  0.030842133  0.030810785            7 
 1862000   0.94249294    -6.522135    687.31819   0.03076075  0.030803474            5 
 1863000   0.95477185   -6.5053621    687.78892  0.030765294  0.030796173           10 
 1864000   0.94643575   -6.5105287    687.53368  0.030737378  0.030788799            5 
 1865000   0.97085973   -6.5224588    689.26134  0.030798094  0.030781471            6 
 1866000   0.95358477   -6.5066914    688.90513  0.030765681  0.030774144           11 
 1867000   0.94304478   -6.4951474    690.44057  0.030817737  0.030766886           10 
 1868000   0.93848367   -6.5020886    689.50438  0.030759475  0.030759614            8 
 1869000   0.92991925   -6.5034268     690.2465  0.030776106  0.030752356            6 
 1870000    0.9609226   -6.4695031    688.25119   0.03067073  0.030745029            5 
 1871000   0.93943732   -6.5128345    691.11715  0.030781986  0.030737729            5 
 1872000   0.93623212   -6.5148606    690.57817   0.03074155  0.030730239            6 
 1873000   0.93781055   -6.5097919    688.50545  0.030632917  0.030722809            5 
 1874000   0.95024745   -6.5345116    687.15851  0.030556675  0.030715245            6 
 1875000   0.95667536   -6.5374044    689.68123  0.030652499  0.030707742            7 
 1876000   0.95639354    -6.538816    688.96541  0.030604363  0.030700289            5 
 1877000   0.93557627   -6.5144289    689.57951  0.030615322  0.030692836            6 
 1878000   0.96076512   -6.5229632    691.44104  0.030681622  0.030685504            5 
 1879000    0.9260577   -6.5332576    690.95035  0.030643532  0.030678247            7 
 1880000   0.95856105   -6.5237526     693.6359  0.030746272  0.030670937            4 
 1881000    0.9621868   -6.5012907    692.79449   0.03069265  0.030663743            5 
 1882000   0.95702727   -6.5277865    692.08704  0.030645016   0.03065643            6 
 1883000   0.96701709    -6.499019    692.33333  0.030639641   0.03064917           18 
 1884000   0.97892414   -6.5012484    693.09425  0.030657035  0.030641927            9 
 1885000   0.93844143   -6.5712586    690.29453     0.030517  0.030634547            5 
 1886000   0.95048493   -6.5418865    693.42517  0.030639147  0.030627157            7 
 1887000   0.94650905   -6.5215094    694.33822  0.030663232   0.03061983            5 
 1888000   0.98214343   -6.5008822    693.89867   0.03062759  0.030612591            9 
 1889000   0.93294857   -6.5235871    693.48446  0.030593103  0.030605274            4 
 1890000   0.94856584   -6.5261284    693.68721  0.030585856   0.03059799            8 
 1891000   0.96199397   -6.5296416    693.10682  0.030544105  0.030590687            4 
 1892000   0.97180741   -6.5060556    694.14312  0.030573605  0.030583308            5 
 1893000    0.9516272   -6.5223643    694.92999  0.030592093  0.030576039            4 
 1894000   0.95006306   -6.4932056    692.78876   0.03048173  0.030568671            7 
 1895000   0.95838259   -6.5016641    696.19212  0.030615309  0.030561396            4 
 1896000   0.93260121    -6.535685    695.87261  0.030585118  0.030554121            8 
 1897000    0.9702509   -6.5280226    694.97802  0.030529697  0.030546918            8 
 1898000   0.95308894   -6.5013805    694.79275  0.030505477  0.030539688           10 
 1899000   0.94710682   -6.5506015    696.71197  0.030573634  0.030532402            9 
 1900000   0.94048209   -6.5433262    693.78983  0.030429378  0.030525143            8 
 1901000   0.94859246   -6.5055724    696.75738  0.030543459  0.030517849            8 
 1902000    0.9342968   -6.4660435    697.37685  0.030554541   0.03051055            8 
 1903000   0.93820488   -6.5013451    694.49653  0.030412355  0.030503291            9 
 1904000   0.95143456   -6.5186724    697.09906  0.030510288  0.030495979            6 
 1905000   0.96130852   -6.5213263    698.68649  0.030563713  0.030488733            4 
 1906000   0.93326725   -6.5313505    696.54631  0.030454106  0.030481485            5 
 1907000   0.95211301    -6.523131    697.43747  0.030477079  0.030474298            5 
 1908000   0.93544458   -6.5362462    696.84288  0.030435136   0.03046709           10 
 1909000   0.92604206   -6.5182249    699.66062  0.030542196  0.030459858            3 
 1910000   0.93750845   -6.4774746    699.22668  0.030507272  0.030452717            4 
 1911000     0.938617   -6.5512986     697.9357  0.030435012   0.03044555            5 
 1912000   0.98190183   -6.5401528    698.33544  0.030436517  0.030438275            4 
 1913000   0.95126223   -6.5311763    700.25587  0.030504263  0.030431035            4 
 1914000   0.94325039   -6.5421823    699.31072  0.030447175  0.030423862            7 
 1915000   0.94098205   -6.5554726    698.19921  0.030382907  0.030416631            5 
 1916000    0.9363395   -6.5293893    701.02707  0.030490043  0.030409415            9 
 1917000   0.95426464   -6.5388833    697.24285  0.030309635  0.030402234            6 
 1918000    0.9300518   -6.5193326    701.17675  0.030464753  0.030394977            4 
 1919000   0.95595488    -6.516603    702.42537  0.030503099  0.030387793            5 
 1920000   0.93867045   -6.5342949    699.45057  0.030358097   0.03038058            7 
 1921000   0.94594493   -6.5511216    700.58122  0.030391342  0.030373371            3 
 1922000   0.94854027   -6.5174824    701.02449  0.030394749   0.03036609           13 
 1923000   0.93218907   -6.4928244    701.49437  0.030399305  0.030358842            8 
 1924000    0.9283608   -6.5251604     700.8618  0.030356107  0.030351539            5 
 1925000   0.94077261   -6.5151184    701.27954  0.030358422  0.030344257           10 
 1926000   0.94576442   -6.5129174    703.36136  0.030432735  0.030336949           17 
 1927000   0.96516633   -6.5363627     700.2319  0.030281608  0.030329726            9 
 1928000   0.94943628   -6.5234245    702.11559   0.03034732  0.030322494            7 
 1929000   0.96411199   -6.5411785    700.18361  0.030248125  0.030315171            7 
 1930000   0.93315201   -6.5386626    702.65539  0.030339179  0.030307958            4 
 1931000   0.94892128   -6.4901054    703.47114  0.030358671  0.030300816            9 
 1932000    0.9337916   -6.5088601     704.5286   0.03038857  0.030293634            9 
 1933000   0.94427802   -6.5167403    703.07469  0.030310169   0.03028654            4 
 1934000   0.95190228   -6.5379846    703.57749  0.030316162  0.030279374            4 
 1935000   0.94708751   -6.5337579    703.23948  0.030285938  0.030272211            7 
 1936000   0.93308193   -6.5078162     705.2518  0.030356913  0.030265109            4 
 1937000   0.94404537   -6.5492973    702.21854  0.030210744  0.030257952           11 
 1938000   0.94903326   -6.5437385    703.31562   0.03024233  0.030250824            4 
 1939000   0.95593641   -6.5406518    705.05154  0.030301338  0.030243724            7 
 1940000   0.93921068   -6.5391272    703.98668  0.030239978   0.03023658            5 
 1941000   0.93266076   -6.5504081    704.82713  0.030260481   0.03022947            9 
 1942000   0.94504206   -6.5426522    705.28091  0.030264371   0.03022222            3 
 1943000   0.95088433   -6.5198947    705.10791  0.030241376  0.030215114            7 
 1944000   0.95031306    -6.512559    707.59532  0.030332447  0.030207974            6 
 1945000   0.92971257   -6.5200829     705.5562  0.030229486  0.030200747            5 
 1946000   0.94187232   -6.5254622    706.97353  0.030274646    0.0301936            4 
 1947000   0.92361579   -6.5318024    704.81053  0.030166518  0.030186492            7 
 1948000   0.92634351   -6.5779844    706.58479  0.030226933  0.030179355            5 
 1949000   0.92528714   -6.5602506    705.20669  0.030152501  0.030172176            7 
 1950000   0.93429836   -6.5407161    706.88281  0.030208667  0.030165106           10 
 1951000   0.93440695   -6.5268561    707.64707  0.030225827  0.030157996           10 
 1952000    0.9552711   -6.5527759     705.7651  0.030129999  0.030150888            7 
 1953000   0.92901309    -6.562742    705.63268  0.030108921  0.030143676            7 
 1954000   0.93155051   -6.5351907    707.92982   0.03019148  0.030136572            6 
 1955000     0.929526   -6.5201752    709.72106   0.03025239  0.030129528            7 
 1956000   0.93589555   -6.5488356    708.14899  0.030169947  0.030122504            5 
 1957000   0.92794398   -6.5314289     707.2043  0.030114304  0.030115446           15 
 1958000   0.93287642   -6.5615039    709.37379  0.030191258  0.030108355            9 
 1959000   0.92103048   -6.5203413    710.11666  0.030207447  0.030101268            5 
 1960000   0.94029894    -6.538539    708.57872  0.030126646  0.030094219            8 
 1961000   0.93737825   -6.5549905    708.69543  0.030116243  0.030087161           13 
 1962000   0.91583236   -6.5392813    708.51764  0.030093342   0.03008005            6 
 1963000   0.90358948   -6.5609703    709.68564  0.030127596  0.030072935           10 
 1964000   0.96065625   -6.5203665    710.61708  0.030151777  0.030065917            4 
 1965000   0.93149296   -6.4945168    711.72071  0.030183236  0.030058946            8 
 1966000   0.94506079    -6.529134    709.31144  0.030065761  0.030051948            7 
 1967000     0.925006   -6.5147116    708.44764  0.030013881  0.030044944            5 
 1968000    0.9184346   -6.5344069    711.46796  0.030126523  0.030037976           11 
 1969000   0.95721587   -6.5164294    712.00741  0.030134053  0.030031015           20 
 1970000   0.94246494   -6.5668507    710.90743  0.030072226  0.030023948            7 
 1971000   0.93335105   -6.5416974    710.89032  0.030056245   0.03001688           10 
 1972000    0.9239048   -6.5583432    711.57419  0.030069903  0.030009883            5 
 1973000   0.92940599   -6.5426405    715.12842  0.030204782  0.030002869            3 
 1974000   0.93829941   -6.5643611    713.75493  0.030131498  0.029995935           12 
 1975000   0.92557675   -6.5830807    712.44385  0.030060922  0.029988963            7 
 1976000   0.93999842   -6.5173494     712.8855  0.030064335  0.029982016           21 
 1977000   0.93182281   -6.5656211    712.08058  0.030015199  0.029975037           24 
 1978000   0.93263303   -6.5400798    715.10284  0.030127353  0.029968065            3 
 1979000   0.96018052   -6.5112343    714.89625   0.03010343  0.029961213            8 
 1980000   0.93613138   -6.5392737    715.90292  0.030130594  0.029954338            4 
 1981000   0.93092036   -6.5261351    712.83821  0.029986463  0.029947463            5 
 1982000   0.93265334   -6.5177273     714.6762  0.030048612  0.029940484            8 
 1983000   0.94067327   -6.5531786    716.00264  0.030089201  0.029933527            5 
 1984000   0.93466692   -6.5484592    716.55767  0.030097349  0.029926534           17 
 1985000   0.92898846   -6.5600184     716.8081  0.030092699  0.029919599            2 
 1986000   0.92648498   -6.5464769    715.28642  0.030013697  0.029912704            7 
 1987000   0.94435278   -6.5401685    716.56524  0.030052225  0.029905716           13 
 1988000   0.93154792   -6.5006304    716.19506   0.03002159  0.029898872           11 
 1989000    0.9209078   -6.5148498     716.3047   0.03001109  0.029892107            8 
 1990000   0.94159614   -6.5489062    717.46817  0.030044731  0.029885319           10 
 1991000   0.93331346   -6.5547104      719.016  0.030094425  0.029878573            8 
 1992000   0.92514989   -6.5425332    719.35372  0.030093446  0.029871799            6 
 1993000   0.92839755   -6.5319483    716.07467  0.029941239  0.029865035           19 
 1994000   0.94763058   -6.5670696    718.02198  0.030007605   0.02985815            6 
 1995000   0.90597898   -6.5543145    717.80471  0.029983488   0.02985129           10 
 1996000    0.9200153   -6.5661956    716.95402   0.02993295  0.029844377           12 
 1997000   0.92024885   -6.5541854    716.13561   0.02988381  0.029837487            7 
 1998000   0.92532803    -6.540255    719.47746  0.030008236  0.029830633            5 
 1999000     0.948157   -6.5592087    717.82162  0.029924196  0.029823879            3 
 2000000   0.92323126   -6.5483652    718.06101  0.029919209  0.029816965            6 
 2001000   0.89463494   -6.5624331    717.91573  0.029898206  0.029810042            9 
 2002000   0.94062067   -6.5402514    716.60832  0.029828851  0.029803027            9 
 2003000   0.92343358   -6.5396721    718.84813  0.029907145  0.029796098            4 
 2004000   0.93066994   -6.5769653    719.74795  0.029929639  0.029789105           24 
 2005000    0.9064436   -6.5550063    719.39395  0.029899998  0.029782194           18 
 2006000   0.93229223   -6.5433656    720.49917  0.029931006  0.029775263            9 
 2007000   0.91231716     -6.56197    718.00079  0.029812356  0.029768303            5 
 2008000   0.92644773   -6.5677544    720.53079  0.029902506  0.029761318            5 
 2009000   0.91147714   -6.5527353    719.78875  0.029856842   0.02975433            7 
 2010000   0.92018038   -6.5852575    719.19649  0.029817433  0.029747339            9 
 2011000   0.90876041   -6.5593647    720.62615  0.029861849   0.02974035           15 
 2012000   0.94709865   -6.5468879    719.58138  0.029803735  0.029733424           11 
 2013000   0.93806064   -6.5530401    718.46896  0.029742878  0.029726404            5 
 2014000    0.9205721   -6.5655405    719.48519  0.029770158   0.02971937            6 
 2015000   0.93222616   -6.5625985      720.274  0.029788007  0.029712387            5 
 2016000    0.9138705   -6.5225083     720.8133  0.029795523  0.029705489           11 
 2017000   0.94983229   -6.5614812    722.03271  0.029831132  0.029698589            7 
 2018000   0.91689986   -6.5637288    722.34634    0.0298293  0.029691666            5 
 2019000   0.93728926   -6.5438499      721.837  0.029793503  0.029684754            9 
 2020000   0.92327954      -6.5392    723.71952  0.029856416  0.029677868            8 
 2021000   0.93820461   -6.5578331    721.69215  0.029758047  0.029670933           15 
 2022000   0.93345541   -6.5376976    721.86355  0.029750394  0.029664019            8 
 2023000   0.94731318   -6.5555017    721.66717  0.029727598   0.02965709            5 
 2024000    0.9383654   -6.5396175    722.82172  0.029760446  0.029650115            7 
 2025000   0.92510268   -6.5775506    720.69449  0.029658209  0.029643131            5 
 2026000   0.92689207   -6.5566753    722.65486  0.029724205  0.029636137            3 
 2027000   0.93974074   -6.5800068     722.5912  0.029706923  0.029629139            5 
 2028000   0.92428385   -6.5544439    720.78943  0.029618238  0.029622224           12 
 2029000   0.91341388    -6.550873    725.74894  0.029807333  0.029615257            4 
 2030000   0.92448811   -6.5440316    723.60819   0.02970477  0.029608318           14 
 2031000    0.9292395   -6.5454627    723.00016  0.029665196  0.029601407            5 
 2032000   0.92286138   -6.5403028    723.89934  0.029687473  0.029594424           11 
 2033000   0.92819475   -6.5490337    722.55041  0.029617577  0.029587421           11 
 2034000   0.93604276   -6.5665068    724.22701  0.029671707  0.029580378           10 
 2035000   0.93991306   -6.5601746    723.81327  0.029640183  0.029573392            9 
 2036000   0.93433761   -6.5674398    725.46335  0.029693162   0.02956635            7 
 2037000    0.9307858   -6.5577225    726.56889  0.029723813  0.029559325            9 
 2038000   0.94969791   -6.5609364    725.31445  0.029657935   0.02955227            7 
 2039000   0.93079445   -6.5689877    723.63152  0.029574609  0.029545273           10 
 2040000   0.93258484    -6.571786    724.70525  0.029603972  0.029538302            7 
 2041000   0.91185177   -6.5786058    724.61786    0.0295859  0.029531287            8 
 2042000   0.93191777   -6.5861879    725.29353  0.029598985  0.029524286            5 
 2043000   0.92615891   -6.5461602    725.34235  0.029586488  0.029517228            5 
 2044000   0.95876312   -6.5252425    726.13644  0.029604388  0.029510152           18 
 2045000   0.91066321   -6.5525564    728.63444  0.029691705  0.029503195           11 
 2046000   0.90405438   -6.5572597    725.29603   0.02954122  0.029496203           21 
 2047000   0.92183472   -6.5404818    727.27966  0.029607542  0.029489221           10 
 2048000   0.92097914   -6.5651975    726.69275  0.029569204  0.029482256            9 
 2049000   0.93289017   -6.5265808    728.74725   0.02963833  0.029475391            8 
 2050000   0.92696628   -6.5615562    726.70987  0.029541052  0.029468439           11 
 2051000   0.93011681   -6.5375871    727.15669  0.029544803  0.029461447            6 
 2052000   0.92432299   -6.5770015    726.00008  0.029483434  0.029454463            9 
 2053000   0.92854221   -6.5710418    726.97729  0.029508739  0.029447338            8 
 2054000   0.92135858   -6.5650646    726.68585  0.029482548  0.029440193            8 
 2055000   0.91196818   -6.5733096    726.10194  0.029444523    0.0294331            6 
 2056000   0.90742224   -6.6004996    726.43138  0.029443555   0.02942598            9 
 2057000   0.93712617   -6.5872236    727.05243  0.029454401  0.029418939           10 
 2058000   0.91758681   -6.5721431    726.66488  0.029424396  0.029411863            6 
 2059000    0.9271889     -6.54392    727.18078  0.029430985   0.02940475            4 
 2060000   0.91969835   -6.5604277    727.82252  0.029442658   0.02939768            6 
 2061000   0.91945271   -6.5644141    730.10577  0.029520693  0.029390603            8 
 2062000   0.89489256   -6.5479426    727.86409  0.029415781   0.02938349           10 
 2063000    0.9315112   -6.5926915    727.89449   0.02940275  0.029376442            5 
 2064000   0.93553997   -6.5876354    728.55494   0.02941517  0.029369388           11 
 2065000   0.91238998   -6.5909954    727.04918  0.029340161  0.029362266            8 
 2066000   0.92624482   -6.5894209     728.5992   0.02938848  0.029355184            4 
 2067000   0.94168736   -6.5681079    728.95898  0.029388767  0.029348092            7 
 2068000   0.92158862   -6.6020897      729.424  0.029393295  0.029341035            6 
 2069000   0.91196492   -6.5661348    732.35749   0.02949724  0.029334009            7 
 2070000   0.94260406   -6.5697329     729.9431  0.029385793  0.029326996           11 
 2071000   0.92966813   -6.5803178    729.76106  0.029364279  0.029319895            8 
 2072000   0.91010016   -6.5963669    729.61045   0.02934405   0.02931276            6 
 2073000   0.92416007   -6.6081387    728.93595   0.02930278   0.02930559           10 
 2074000   0.91302575    -6.563173    732.51353  0.029432398  0.029298462           14 
 2075000   0.93261104   -6.5794754    730.19577  0.029325132  0.029291403            8 
 2076000   0.90962658   -6.5961056    729.60427  0.029287262  0.029284399            5 
 2077000   0.93948439   -6.5603809    732.56422   0.02939192  0.029277391            7 
 2078000   0.90762452   -6.5582775    730.59935  0.029298979  0.029270381           13 
 2079000    0.9186122   -6.5615825    732.71755  0.029369791  0.029263399            5 
 2080000    0.9234133   -6.5731004    731.53861  0.029308438  0.029256376            8 
 2081000   0.92427311    -6.589933     732.1818   0.02932011  0.029249391            8 
 2082000   0.93820582   -6.5431007    733.62478  0.029363784  0.029242503           10 
 2083000   0.91160549   -6.5618745    733.57009  0.029347499  0.029235653            7 
 2084000   0.92257906   -6.5602909     734.5892  0.029374168  0.029228805            5 
 2085000   0.92800364   -6.6083612    735.66707   0.02940316  0.029221903            5 
 2086000   0.91211512   -6.5387934    734.94325  0.029360149  0.029215029            6 
 2087000   0.90954318   -6.5829181    734.35798  0.029322711  0.029208137            4 
 2088000   0.91988884    -6.574512     737.8173  0.029446732  0.029201283            6 
 2089000   0.92201368    -6.539985     737.9484  0.029437865  0.029194566           12 
 2090000   0.91915836   -6.5514154    735.06003  0.029308614  0.029187719            7 
 2091000   0.91437754   -6.5893268    735.22619  0.029301219  0.029180824            5 
 2092000   0.90522163   -6.5869044    734.60997  0.029262666   0.02917385            7 
 2093000   0.90684243   -6.6197073    732.81695  0.029177295  0.029166915            5 
 2094000   0.91726995   -6.5689905    736.82096  0.029322706  0.029159989            5 
 2095000   0.90016474     -6.56758    735.99123  0.029275705  0.029153061            6 
 2096000    0.9139706   -6.5470885     736.0218  0.029262953  0.029146099           13 
 2097000   0.91697569   -6.5977831     734.1795  0.029175787  0.029139113            6 
 2098000   0.90511785    -6.596038    734.79053  0.029186151  0.029132043            8 
 2099000   0.91657754   -6.5952123    738.88425  0.029334772  0.029125071           11 
 2100000   0.92542489   -6.5825251    737.32743  0.029259025  0.029118065            7 
 2101000    0.9220209    -6.564655    735.11653  0.029157406  0.029111029            7 
 2102000   0.92750542   -6.5829702    736.78361  0.029209626  0.029103989            9 
 2103000   0.88870929   -6.5568339    735.64175  0.029150489  0.029096952            4 
 2104000     0.914365   -6.5688573    738.24995  0.029239938  0.029089894           12 
 2105000   0.91155213    -6.593025     736.1375  0.029142419  0.029082771            6 
 2106000   0.90048916   -6.5933843    736.71245  0.029151332  0.029075685           15 
 2107000   0.91268855     -6.57784    737.44428  0.029166441  0.029068565           14 
 2108000   0.92440605   -6.6073965     735.6528  0.029081784  0.029061459           11 
 2109000   0.90319733   -6.5723343    737.42252  0.029137922  0.029054369            4 
 2110000   0.91047458   -6.5437926    738.46414   0.02916525  0.029047336            4 
 2111000   0.91332411   -6.5774207     740.1647  0.029218565  0.029040275            6 
 2112000   0.90223258   -6.6030561    737.96538  0.029117952  0.029033161            7 
 2113000    0.9341831   -6.5908246    738.89001  0.029140638  0.029026092            3 
 2114000   0.90888658   -6.5811236      737.062  0.029054793  0.029018995           10 
 2115000   0.92163723   -6.5812336    737.27708   0.02904953  0.029011948           18 
 2116000   0.90518392   -6.5964126    736.79208  0.029016701  0.029004856            9 
 2117000   0.88738772   -6.6098907    738.57639  0.029073232  0.028997659           15 
 2118000   0.87808516   -6.5650398    739.23467  0.029085406   0.02899051            6 
 2119000   0.92690926    -6.623764    737.22021  0.028992458  0.028983428            8 
 2120000   0.92386998   -6.6171943    736.47402  0.028949451  0.028976263            7 
 2121000   0.90408961   -6.5976399    737.10515  0.028960598  0.028969122            8 
 2122000   0.90540133   -6.6151129    737.04028  0.028944403   0.02896199            9 
 2123000   0.92022426   -6.5940155    737.94035    0.0289661  0.028954815            7 
 2124000   0.90582137   -6.6306446    738.89986  0.028990107  0.028947697           13 
 2125000     0.905727   -6.5909061    740.25793  0.029029723  0.028940607            6 
 2126000   0.89769447   -6.5724261    740.09186  0.029009558  0.028933552            8 
 2127000    0.9099341   -6.5851723    739.30513  0.028965097  0.028926516            7 
 2128000   0.91980986   -6.5774407    741.93215   0.02905436  0.028919482           12 
 2129000   0.92189115   -6.6003744    743.04487  0.029084268  0.028912442            4 
 2130000   0.92053025   -6.5882461    740.00841  0.028951816  0.028905395           14 
 2131000   0.90794864   -6.5975365    741.81533   0.02900889  0.028898356            6 
 2132000   0.92178436   -6.5869369    741.01138  0.028963859  0.028891346            7 
 2133000   0.91467013   -6.5935995    740.14949  0.028916608  0.028884298            5 
 2134000   0.91403874   -6.6012493    742.46565  0.028993504  0.028877197           13 
 2135000    0.9088112   -6.6052389    742.65567  0.028987341  0.028870109            8 
 2136000   0.93205869   -6.6137189     741.0385  0.028910678  0.028863081            9 
 2137000   0.91840266   -6.6237328    742.48329   0.02895349  0.028856111            4 
 2138000   0.91838075   -6.6098594    743.11971  0.028964753  0.028849119           15 
 2139000   0.92607719   -6.5994957     744.4356  0.029002478  0.028842124            8 
 2140000   0.90508967   -6.6126017    741.15413  0.028861142  0.028835108           13 
 2141000   0.91297565     -6.58924    743.70447  0.028946928  0.028828094           10 
 2142000   0.92315406   -6.6039482    743.10236  0.028909989   0.02882112            6 
 2143000   0.91939087    -6.598678     744.1068  0.028935558  0.028814159            6 
 2144000   0.89698541   -6.5826592    743.21751  0.028887497   0.02880725            6 
 2145000   0.92387437   -6.5769566    746.55245  0.029003592  0.028800442            9 
 2146000   0.91564567    -6.584719     745.3772  0.028944439  0.028793599            7 
 2147000   0.91852365   -6.6007482    745.47448  0.028934734  0.028786622            7 
 2148000   0.90827628   -6.5963967    744.37857  0.028878746  0.028779684            8 
 2149000   0.90467579   -6.5746322    746.82012  0.028959986  0.028772798            7 
 2150000    0.9050456   -6.6037724    745.36398  0.028890077  0.028765881            9 
 2151000   0.92276844   -6.5974417    746.73776  0.028929868  0.028759097            5 
 2152000   0.89068149   -6.6040929    746.90341   0.02892284  0.028752238            6 
 2153000   0.90812051   -6.6092207    745.76536  0.028865357  0.028745411            6 
 2154000   0.89646101   -6.6226166     746.3148  0.028873213  0.028738509            7 
 2155000   0.90312653   -6.6084503    747.13166  0.028891402  0.028731695           12 
 2156000   0.90456221   -6.6057616    747.29905  0.028884471  0.028724838           15 
 2157000    0.9419933   -6.5728662    748.30739  0.028910037  0.028718044           11 
 2158000   0.91282109   -6.5931435    748.72702  0.028912844  0.028711269            3 
 2159000   0.92774293   -6.6068485    747.65176   0.02885795  0.028704466           10 
 2160000   0.90098894    -6.586073    748.28367  0.028868969  0.028697702            9 
 2161000    0.9100578   -6.5917048    746.51733  0.028787495  0.028690884            7 
 2162000    0.9082657    -6.602548     749.1568  0.028875917  0.028684092            9 
 2163000   0.89272208   -6.6196531    748.36481  0.028832055   0.02867726            6 
 2164000   0.88502864   -6.5762145    750.52863  0.028902057  0.028670459            8 
 2165000   0.91048453   -6.6106091    747.65286  0.028778016  0.028663716            6 
 2166000   0.90960084   -6.6038807    750.92077  0.028890457  0.028656933           15 
 2167000   0.92952493    -6.624962    747.78529  0.028756549  0.028650136            7 
 2168000   0.90514209   -6.6240614    748.75417  0.028780526   0.02864331            6 
 2169000   0.90927076   -6.6007918    748.34917  0.028751697  0.028636376            8 
 2170000   0.90983704    -6.622539    747.77275  0.028716312  0.028629472            7 
 2171000   0.90619429    -6.630277    750.71019  0.028815837  0.028622577           11 
 2172000   0.89189322   -6.5830068    748.84675  0.028731075  0.028615681            8 
 2173000   0.87449771   -6.6124146    751.30221  0.028812019  0.028608836           12 
 2174000   0.88535068   -6.5763406    751.06419  0.028789642  0.028601997           22 
 2175000   0.89420882   -6.5988565     750.7137  0.028762977  0.028595142           11 
 2176000   0.94907085   -6.5835513    750.54241  0.028743199  0.028588296           11 
 2177000   0.90425882   -6.5897254    750.96215  0.028746063  0.028581494            5 
 2178000   0.92132843    -6.598446    751.20758  0.028742255  0.028574702            4 
 2179000   0.89399813   -6.5899373    751.51163  0.028740693  0.028567897            3 
 2180000   0.88592671   -6.5934034    752.49927  0.028765263   0.02856113            6 
 2181000    0.9015531   -6.6059388    751.51546  0.028714483   0.02855431            5 
 2182000   0.89904209   -6.6094649    751.34787  0.028694923  0.028547507            3 
 2183000   0.92099978   -6.6075322    751.09324  0.028672058  0.028540675            7 
 2184000   0.91047673   -6.6202546    750.34788   0.02863049  0.028533826           17 
 2185000   0.89639671   -6.6420684    751.46868  0.028660133  0.028526934            9 
 2186000   0.90396022   -6.6437247    751.82068  0.028660441  0.028520056            7 
 2187000   0.90815696   -6.5997449    753.77145  0.028721668  0.028513346            9 
 2188000   0.89362213   -6.5977178    754.57276   0.02873906    0.0285066           10 
 2189000    0.9097068   -6.5643578    753.95351  0.028702357  0.028499868            7 
 2190000   0.89375198   -6.6012611    756.15283  0.028772939  0.028493193           12 
 2191000   0.90395679   -6.5942459    754.53482  0.028698267  0.028486543           12 
 2192000   0.89849002   -6.6558514    756.24027   0.02875001  0.028479848           14 
 2193000   0.89639992   -6.6113677    754.35123  0.028665117  0.028473107           14 
 2194000   0.88320371   -6.6015035    754.65468  0.028663578  0.028466373            8 
 2195000    0.8936126   -6.6352061    753.27709  0.028598219  0.028459649            9 
 2196000   0.90549043   -6.6251048    756.48325  0.028706863  0.028452963            6 
 2197000   0.89446153    -6.586797    755.15426  0.028643387  0.028446289            5 
 2198000   0.89208906   -6.6243886    755.22941  0.028633205  0.028439588            6 
 2199000   0.88125975   -6.6021748     756.5845  0.028671536  0.028432852            8 
 2200000   0.89825609   -6.6055498    754.80754  0.028591195  0.028426168           11 
 2201000   0.90435235   -6.6153261     754.5975  0.028570252  0.028419445           10 
 2202000   0.89041811   -6.6219415    757.43902  0.028664813  0.028412678           17 
 2203000   0.89448599   -6.6369959    752.84967  0.028478199   0.02840592            6 
 2204000   0.89124184   -6.6211301     755.1286  0.028551444  0.028399148            9 
 2205000   0.89569714   -6.6041226    754.81415  0.028526612  0.028392404            5 
 2206000   0.91407374   -6.6027931    755.91583  0.028555297  0.028385648           11 
 2207000   0.89274725   -6.6044444    755.53209  0.028527869  0.028378892           15 
 2208000   0.90444818    -6.596773    754.80003   0.02848732  0.028372108            9 
 2209000   0.89586342    -6.608583     755.5535  0.028502848  0.028365252            4 
 2210000   0.92393761   -6.6250359    756.04203  0.028508372  0.028358468           10 
 2211000   0.89840626    -6.610221    755.97294  0.028492874  0.028351678           11 
 2212000   0.90540797   -6.6370956    757.20473  0.028526399   0.02834487            5 
 2213000   0.90405916    -6.592953    759.87037  0.028613886  0.028338175            7 
 2214000   0.91110486   -6.6008726     759.0947  0.028571767  0.028331468            6 
 2215000   0.88515171   -6.6110826    760.56308  0.028614111  0.028324806            4 
 2216000   0.89462227   -6.6120674    755.85685   0.02842422  0.028318103           13 
 2217000   0.88814031   -6.5997286    758.65245  0.028516481  0.028311413            7 
 2218000   0.87916138   -6.6358217    757.39857  0.028456514  0.028304688           12 
 2219000   0.90112964   -6.6050572    758.13433  0.028471321  0.028297914            5 
 2220000   0.89845196   -6.5970936    760.50538  0.028547499  0.028291252            5 
 2221000   0.90876932   -6.5896268    759.88097  0.028511217   0.02828461            7 
 2222000   0.88813924    -6.583793     759.6536  0.028489859  0.028277912            7 
 2223000   0.91671376   -6.6066368    759.16474  0.028458717  0.028271184            5 
 2224000   0.88331389    -6.624703    756.76201  0.028355891  0.028264446           11 
 2225000   0.91431697    -6.618786    758.07368  0.028392273  0.028257679            8 
 2226000   0.87608244   -6.6062903    760.25349  0.028461122   0.02825087           11 
 2227000   0.89522345    -6.627042    760.53251  0.028458783  0.028244124            5 
 2228000   0.89825049   -6.5868739    758.92268  0.028385798  0.028237371            5 
 2229000   0.89804952   -6.6360283    759.85168  0.028407794  0.028230559            7 
 2230000   0.88408697   -6.6139688    759.78225  0.028392461  0.028223759            8 
 2231000   0.88352153   -6.6332961    759.56597  0.028371656  0.028216938            9 
 2232000    0.8986709   -6.6168144    760.40482  0.028390264  0.028210172            3 
 2233000   0.88765161   -6.6154336    760.24065  0.028371423  0.028203386           13 
 2234000   0.92093243   -6.6520874    758.46056  0.028292322  0.028196542           23 
 2235000   0.90280831    -6.656249    759.23433  0.028308514   0.02818959           17 
 2236000   0.88717931   -6.6175893    759.97489  0.028323453  0.028182709            6 
 2237000   0.91538976   -6.6185666    758.00499  0.028237408   0.02817581            9 
 2238000   0.88581642   -6.6386785    759.71643  0.028288517  0.028168883            7 
 2239000   0.87311906   -6.6597355    759.77299  0.028277988  0.028161982           11 
 2240000   0.89386299   -6.6038769     761.1101  0.028315108  0.028155114           11 
 2241000   0.88252765   -6.6186409    761.87535  0.028330929  0.028148304           13 
 2242000   0.88955287   -6.6210874    761.80218  0.028315573  0.028141433            7 
 2243000   0.88712773   -6.6133768    759.91523  0.028232844  0.028134596            4 
 2244000   0.90915341   -6.6281475    763.09988  0.028338528  0.028127704            6 
 2245000   0.88679267   -6.6317307    761.05479  0.028249992  0.028120829            9 
 2246000    0.8520103   -6.6521118    761.93909  0.028270225  0.028113954            4 
 2247000   0.90856397    -6.622912    762.14964  0.028265452  0.028107098            5 
 2248000   0.88720529    -6.602632    761.24732  0.028219429  0.028100263            5 
 2249000   0.89510251   -6.6362698    761.40998  0.028212909  0.028093446            6 
 2250000   0.86971339   -6.6393389    762.21169  0.028230063  0.028086588            6 
 2251000   0.87265153   -6.6273612    761.65124  0.028196773  0.028079752            5 
 2252000   0.89675045   -6.6073304     761.8666  0.028192222  0.028072898            4 
 2253000   0.89201765    -6.658451    764.65158  0.028282718  0.028066091            6 
 2254000   0.91256849   -6.6218131    763.04147  0.028210643  0.028059315            6 
 2255000   0.87358704   -6.6607763     763.9334  0.028231094  0.028052537            7 
 2256000   0.90584401   -6.6305542    762.53818  0.028167043  0.028045766            5 
 2257000   0.90233179   -6.6304628    762.41016  0.028149836  0.028038973           12 
 2258000   0.88365835   -6.6532282    763.79424   0.02818845  0.028032081           11 
 2259000    0.8752875   -6.6008954    764.78416  0.028212489  0.028025257            6 
 2260000    0.8820884    -6.655941    764.02586  0.028172045  0.028018546            2 
 2261000    0.9072418   -6.6166847     764.6027  0.028180845  0.028011746           11 
 2262000   0.90624333   -6.6371048     765.2485  0.028192179  0.028004941           11 
 2263000    0.9024748   -6.6689578    763.37358  0.028110678   0.02799813            7 
 2264000   0.88512948   -6.6243518    763.97457  0.028120383  0.027991338            6 
 2265000   0.88952915   -6.6307128     764.7199   0.02813539  0.027984551           15 
 2266000   0.88904199   -6.6342344    764.10417   0.02810033  0.027977742            5 
 2267000   0.88338359   -6.6547929    766.70486  0.028183534  0.027970934            8 
 2268000   0.87382873   -6.6187913    766.77539  0.028173699  0.027964192           10 
 2269000   0.89302469   -6.6092909    766.33264  0.028145021  0.027957475            4 
 2270000   0.86852277   -6.6375162    765.77433  0.028112127  0.027950734            8 
 2271000   0.88289836   -6.6533805    763.71354  0.028024128  0.027943914            5 
 2272000   0.88698789   -6.6643937    763.69859  0.028011245  0.027937002           10 
 2273000   0.89694646   -6.6293712    763.37449   0.02798704  0.027930057            7 
 2274000   0.89463004    -6.601087    766.07036  0.028073525  0.027923185           19 
 2275000      0.86813   -6.6291083    766.16499  0.028064652  0.027916306            7 
 2276000   0.88295787   -6.6477361    765.12267  0.028014157  0.027909348            7 
 2277000   0.89491302   -6.6162531    765.03794  0.027998753  0.027902388            9 
 2278000   0.87901272   -6.6313824    765.94756  0.028019738  0.027895531            5 
 2279000   0.87766879   -6.6381859    765.69455  0.027998192  0.027888626            6 
 2280000   0.89389348   -6.6254247    767.95165  0.028068408  0.027881825            8 
 2281000   0.88194016   -6.6454613    768.27884  0.028068056  0.027875043            9 
 2282000   0.86176805   -6.6336843    766.46585   0.02798955  0.027868249            7 
 2283000   0.87904908   -6.6247521    766.20834  0.027967891  0.027861393           15 
 2284000    0.9015858   -6.6551174    768.70969  0.028046909  0.027854544           12 
 2285000   0.88931466   -6.6426658    767.12276   0.02797676  0.027847723            7 
 2286000   0.89263135   -6.6198935    767.86268  0.027991495  0.027840893            7 
 2287000   0.88688993   -6.6219345     770.0627  0.028059419  0.027834115            7 
 2288000   0.89653486   -6.6362204    769.01899  0.028009142  0.027827316           14 
 2289000   0.89376617   -6.6347187    767.67594   0.02794801  0.027820503            4 
 2290000   0.87170004   -6.6448577    768.61985  0.027970155  0.027813677            4 
 2291000   0.87688505   -6.6646609    767.56276  0.027919495  0.027806852            8 
 2292000   0.87658483   -6.6443111    769.81475  0.027989192  0.027799978            7 
 2293000   0.88609265   -6.6317067    771.26341  0.028029634  0.027793219            5 
 2294000   0.86894076   -6.6307655    770.59956    0.0279933  0.027786444            9 
 2295000   0.89558182   -6.6482592     769.9227  0.027956525  0.027779702            8 
 2296000    0.8913055   -6.6357194    769.23414  0.027919357  0.027772879           21 
 2297000   0.87014804   -6.6662179    770.00774  0.027935268  0.027766089            9 
 2298000   0.89518849   -6.6486305    771.11572  0.027963291  0.027759349            7 
 2299000   0.89217367   -6.6195601    771.66404  0.027971003  0.027752582            5 
 2300000   0.88899233   -6.6365267    772.15945  0.027976792  0.027745799            9 
 2301000   0.88081993    -6.647801    769.20214  0.027857531  0.027738887            9 
 2302000   0.89056055   -6.6524699     769.7586  0.027865573  0.027731934            5 
 2303000   0.88243242   -6.6540658    769.12625  0.027830592  0.027725048           11 
 2304000   0.89320837   -6.6150646    771.99642  0.027922324   0.02771821            6 
 2305000   0.88859538   -6.6618491    770.88872  0.027870163  0.027711369           10 
 2306000   0.85799436   -6.6642486    769.90477   0.02782252  0.027704499            4 
 2307000   0.89380489   -6.6256977    774.34298  0.027970777  0.027697679            8 
 2308000   0.89944319   -6.6381571    770.22096  0.027809827  0.027690914            8 
 2309000   0.88592882   -6.6571608    769.12995  0.027758407  0.027684102            8 
 2310000   0.88670026   -6.6526068    770.35213  0.027790481  0.027677273           14 
 2311000   0.88961489   -6.6570665    771.59343  0.027823216  0.027670511            8 
 2312000   0.88528791   -6.6606005    771.79079  0.027818295  0.027663695            7 
 2313000   0.89124834   -6.6669675    771.84794  0.027808328  0.027656895            8 
 2314000   0.86748798   -6.6394621    770.82113  0.027759332  0.027650102           10 
 2315000   0.87513331   -6.5995848    771.83045  0.027783673  0.027643331            4 
 2316000   0.88559359   -6.6414639     773.7054  0.027839141   0.02763655            5 
 2317000   0.87836458   -6.6470112    771.76787   0.02775744  0.027629818            8 
 2318000   0.88172364   -6.6351171     773.3148  0.027801079  0.027623041            9 
 2319000   0.85896956   -6.6042965    773.11941  0.027782069  0.027616329           11 
 2320000    0.8653917   -6.6604254    774.19137  0.027808598  0.027609569            7 
 2321000   0.87856044   -6.6329745     774.7411  0.027816354  0.027602775            6 
 2322000   0.89773223    -6.656116    772.83041  0.027735803  0.027596001           11 
 2323000   0.86003588    -6.639654     771.5604  0.027678304  0.027589217            7 
 2324000   0.85963858   -6.6534929    774.63556  0.027776662  0.027582459           14 
 2325000   0.89967109   -6.6229655    773.58922  0.027727212  0.027575716           15 
 2326000   0.87607353   -6.6458706    772.41058  0.027673065  0.027568958           18 
 2327000   0.88256329   -6.6180833    775.63906  0.027776789  0.027562225           16 
 2328000   0.88356403   -6.6818231    774.75311  0.027733144   0.02755546           11 
 2329000   0.88710579   -6.6509959    775.16941  0.027736132  0.027548623            8 
 2330000   0.87158009   -6.6592785    773.12067  0.027650954  0.027541849            8 
 2331000   0.85811885     -6.66937    775.63473  0.027728969  0.027535073           16 
 2332000   0.90163288   -6.6383758    773.42423  0.027638087  0.027528307           28 
 2333000    0.8664402   -6.6421899    774.10762  0.027650651   0.02752149            9 
 2334000   0.88138274   -6.6837934    772.71879  0.027589217  0.027514696            8 
 2335000   0.88050073   -6.6716418    774.63098  0.027645645  0.027507905           17 
 2336000   0.87996414   -6.6503593    776.12535   0.02768712  0.027501121            6 
 2337000   0.87445618    -6.674576    777.17524   0.02771271  0.027494385           24 
 2338000   0.86948067     -6.66391     777.6102   0.02771636  0.027487673            5 
 2339000   0.87020856   -6.6470865    775.95805  0.027645648  0.027480928           10 
 2340000   0.87585979    -6.679271    776.86879  0.027666267  0.027474241           10 
 2341000   0.86525198   -6.6713285    777.64978   0.02768225  0.027467507           13 
 2342000   0.86259525   -6.6399621    775.88589  0.027607668  0.027460827           18 
 2343000   0.88376456   -6.6658519    776.61097  0.027621673  0.027454141           14 
 2344000   0.87893285   -6.6399746    777.78414  0.027651598   0.02744747           15 
 2345000   0.87429651    -6.635718    776.38708  0.027590159  0.027440836           14 
 2346000    0.8560095   -6.6904096    776.96242  0.027598835   0.02743421           14 
 2347000   0.87119124   -6.6989026    777.57061  0.027608671  0.027427545           16 
 2348000   0.89523002   -6.6581334    779.46427  0.027664121  0.027420801           11 
 2349000   0.88698224   -6.6823915    778.47889  0.027617386  0.027414101            9 
 2350000   0.86806762   -6.6806998    778.02565  0.027589562  0.027407429            8 
 2351000   0.87275176   -6.6575585    776.40024  0.027520213  0.027400739            9 
 2352000   0.88357546   -6.6789714    780.11011  0.027639956  0.027394048           21 
 2353000   0.87695488   -6.6441664    781.46494  0.027676191  0.027387404           10 
 2354000   0.87439903   -6.6878084    781.16392  0.027653778  0.027380782            8 
 2355000   0.87564817   -6.6425389    780.83434  0.027630373  0.027374141            3 
 2356000   0.86316486   -6.6677172    781.53099  0.027643286  0.027367603            4 
 2357000   0.87363521   -6.6553204    780.35324  0.027589918  0.027361041            6 
 2358000   0.85781055   -6.6720864    780.41148  0.027580276  0.027354369           13 
 2359000   0.88075618   -6.6767166    781.38233   0.02760288  0.027347791            7 
 2360000   0.85964048   -6.6545855     782.2953  0.027623422   0.02734121            4 
 2361000   0.86696035   -6.6308993    781.85418  0.027596152  0.027334675            7 
 2362000   0.87721185   -6.6394813    781.98923  0.027589233   0.02732812            5 
 2363000   0.86349874   -6.6689716    780.80817  0.027535907  0.027321535            7 
 2364000   0.88535795   -6.6617793    781.14704  0.027536204  0.027314927           13 
 2365000   0.87819349   -6.6537853    780.70126  0.027508853  0.027308337            8 
 2366000   0.85565902   -6.6431102    780.44568  0.027488225  0.027301701           13 
 2367000   0.87302774    -6.675657    780.96671  0.027494955  0.027295017            9 
 2368000   0.88796752   -6.6757019     781.6752  0.027508277  0.027288337            7 
 2369000   0.85867532   -6.6610987    780.99897  0.027472878  0.027281649           10 
 2370000   0.88437082   -6.6862057    782.32594  0.027507945  0.027274967           10 
 2371000   0.86489394   -6.6487467    782.28304  0.027494835  0.027268344           12 
 2372000   0.89735337   -6.6658369       783.19  0.027515107   0.02726174           18 
 2373000   0.87046659    -6.686771    780.58892  0.027412169  0.027255122           10 
 2374000   0.87032357   -6.6850398    781.81652  0.027443714  0.027248471            8 
 2375000   0.86393936   -6.6823611    783.57205  0.027493756  0.027241831           10 
 2376000   0.88021209   -6.6252861    783.76384  0.027488911  0.027235219           21 
 2377000   0.85590152   -6.6572861    782.37983  0.027428826  0.027228583            5 
 2378000    0.8695065   -6.6611008    783.39643  0.027452917  0.027221925            7 
 2379000   0.87339928   -6.6762161    781.84092  0.027386889  0.027215255           11 
 2380000   0.86404787   -6.6449142    783.96821  0.027449867  0.027208573            5 
 2381000   0.86114426   -6.6581232    782.23187  0.027377568  0.027201949           11 
 2382000   0.87163138   -6.6270885    782.73373  0.027383632  0.027195262           12 
 2383000   0.87563108   -6.6634065    782.66865  0.027369865  0.027188557            9 
 2384000   0.86807369   -6.6921372    784.94413  0.027437924  0.027181911            7 
 2385000   0.86424916   -6.6894711    783.87347   0.02738901  0.027175174            7 
 2386000   0.87432198   -6.6921702    781.26637  0.027286475  0.027168411            7 
 2387000   0.86624657   -6.6477173    783.79793  0.027363424  0.027161644           23 
 2388000   0.85345502   -6.6726287    782.47945  0.027305955  0.027154958           12 
 2389000   0.86507737   -6.6636738    782.82576  0.027306605  0.027148199           16 
 2390000   0.88669782   -6.6375014    783.83453  0.027330353  0.027141425           11 
 2391000   0.87862462   -6.6551508    782.83222  0.027283989  0.027134657           11 
 2392000   0.87698807   -6.6636486    783.21092  0.027285776  0.027127933            9 
 2393000    0.8600205    -6.697817    784.74612  0.027327835  0.027121199            8 
 2394000   0.86696919   -6.6525106    783.89082  0.027286648  0.027114468            7 
 2395000   0.86058423   -6.6378451    785.22733  0.027321758  0.027107739            6 
 2396000    0.8505861   -6.6701353    785.53768  0.027321149  0.027100992           12 
 2397000   0.87125246   -6.6728556    784.18035  0.027262562  0.027094277            5 
 2398000   0.87256944   -6.6750687    783.30538  0.027220787  0.027087599            2 
 2399000   0.86073184   -6.7007809    784.86263  0.027263534  0.027080924           10 
 2400000   0.84925265   -6.6604314    784.00524  0.027222404  0.027074228            8 
 2401000   0.87924809   -6.6791142    785.06725  0.027247926  0.027067505           10 
 2402000   0.87227873   -6.6531222     787.5923  0.027324185  0.027060805           10 
 2403000   0.87533239   -6.7023449    784.59792  0.027208972  0.027054127            8 
 2404000   0.86223253   -6.6592244    784.78003  0.027203967   0.02704741            5 
 2405000   0.85608392   -6.6873898    785.72706   0.02722547  0.027040692            8 
 2406000   0.86769895   -6.6791697    783.89501    0.0271507  0.027034014           12 
 2407000    0.8587511   -6.6761309    784.87704  0.027173419  0.027027306            6 
 2408000    0.8751945   -6.6883665    784.65608  0.027154488  0.027020568           14 
 2409000    0.8494971    -6.679062    785.51215  0.027172829  0.027013801           11 
 2410000   0.87075391   -6.6543165    785.91783  0.027175582  0.027007101            9 
 2411000    0.8721071   -6.7059458    786.71085   0.02719172  0.027000417           12 
 2412000   0.86641263   -6.6601732    788.49911   0.02724223  0.026993737           11 
 2413000   0.86862624    -6.679296    786.57593  0.027164523  0.026987043           20 
 2414000   0.86514218   -6.6936032    786.54834  0.027152318  0.026980345            9 
 2415000   0.85319258   -6.6898867     786.8438   0.02715127  0.026973736           10 
 2416000   0.86389658   -6.6722216    787.37382  0.027158313  0.026967045            8 
 2417000   0.88123351    -6.699309    787.09866   0.02713759  0.026960348            8 
 2418000   0.88167462   -6.6720978    789.17556  0.027197944  0.026953676           11 
 2419000    0.8770165    -6.693957    787.62861  0.027133409  0.026947085            5 
 2420000    0.8489836   -6.6896096    787.73956  0.027126018  0.026940454           15 
 2421000   0.86173116   -6.6804154    788.66079  0.027146523  0.026933798           11 
 2422000   0.85106489   -6.6812042    789.33913  0.027158654  0.026927112           22 
 2423000   0.85630759   -6.6662379    787.91708  0.027098538  0.026920479           10 
 2424000   0.87938297   -6.6915392    788.04006  0.027091586  0.026913815           15 
 2425000   0.86608069   -6.6550947    787.52862  0.027062839  0.026907173            5 
 2426000   0.86732069   -6.6796844    788.05857  0.027069888  0.026900505            8 
 2427000   0.86076685   -6.6956867     790.8661  0.027155133  0.026893817            8 
 2428000   0.87516981   -6.6802143    787.79417  0.027038515  0.026887117           10 
 2429000   0.86334726   -6.6780983     790.0486  0.027104728  0.026880421            7 
 2430000   0.87715684    -6.701603    788.92315  0.027054978  0.026873694           14 
 2431000   0.86633291   -6.6823208    788.41766  0.027026521   0.02686697            7 
 2432000   0.85803441   -6.6674639    789.49031  0.027052162  0.026860285           11 
 2433000    0.8652116   -6.6580977     788.6121  0.027010964  0.026853596            5 
 2434000   0.87122567   -6.6926683    789.08797  0.027016159  0.026846889           15 
 2435000   0.86145065   -6.7121225     789.3418  0.027013751  0.026840138            7 
 2436000   0.85116114   -6.7153362    788.16335  0.026962348  0.026833349            9 
 2437000   0.85740262   -6.7078408    788.78461  0.026972528  0.026826592            9 
 2438000   0.87158463   -6.7051122     789.9919  0.027002731  0.026819877           15 
 2439000   0.85016674   -6.6892674    788.80846  0.026951225  0.026813181           12 
 2440000   0.85824182   -6.7146829    790.32617  0.026992014  0.026806456           11 
 2441000   0.86026318   -6.6776289    789.64871  0.026957828  0.026799798           20 
 2442000   0.84144751   -6.6833522    790.25605  0.026967515  0.026793083            9 
 2443000   0.87980199   -6.6964357    791.56575  0.027001151  0.026786426           16 
 2444000   0.85348712   -6.6892003    789.60551  0.026923265  0.026779771           20 
 2445000   0.84928244   -6.6772727    790.09487  0.026928932  0.026773141           12 
 2446000   0.85690416   -6.6784296    793.39824  0.027030466  0.026766512           13 
 2447000   0.87619179    -6.667747    791.64489  0.026959709  0.026759827            6 
 2448000    0.8452154   -6.6880514    791.69459  0.026950388  0.026753174            6 
 2449000   0.86709072   -6.6783571    792.77611  0.026976184  0.026746543            8 
 2450000   0.84157989   -6.6746008    792.94844  0.026971035  0.026739971            9 
 2451000   0.87051412   -6.6718062    792.92901  0.026959371  0.026733363           31 
 2452000   0.87067863   -6.6889538    793.63671  0.026972428  0.026726763            6 
 2453000   0.86645555   -6.6962882    791.47349  0.026887943  0.026720142            7 
 2454000   0.84693157   -6.6949213    792.01886  0.026895506  0.026713552           28 
 2455000     0.840239   -6.7018956     793.1654  0.026923469  0.026706924           15 
 2456000    0.8599207   -6.6870595    794.15836  0.026946198  0.026700333            4 
 2457000   0.88876059   -6.6564348    793.27401  0.026905237  0.026693774            4 
 2458000   0.85983245   -6.6931326    794.50516  0.026936031  0.026687175           11 
 2459000    0.8535908   -6.6472979    793.27916  0.026883528  0.026680572            7 
 2460000   0.86542811   -6.7057935    795.34582  0.026942609   0.02667398           17 
 2461000   0.87871369   -6.6645302    794.28135  0.026895617  0.026667361           17 
 2462000   0.86627855   -6.7071112    793.71463   0.02686551  0.026660726            9 
 2463000   0.86187455   -6.7029855    794.49278   0.02688093  0.026654087           11 
 2464000   0.84511681    -6.669084    795.40074  0.026900728  0.026647484            8 
 2465000   0.85845976   -6.6858632    795.06129   0.02687834  0.026640875            5 
 2466000   0.84443766   -6.6833683    793.49961  0.026814667  0.026634224           15 
 2467000   0.84929478   -6.6732479    795.43953  0.026869326  0.026627612            8 
 2468000   0.84563021   -6.6946042    792.08588  0.026745201  0.026620978            9 
 2469000   0.85679275   -6.7049433    792.55592  0.026750234  0.026614284           10 
 2470000   0.85191658   -6.6821017    795.40257  0.026835444  0.026607591            7 
 2471000   0.84800269   -6.6876786    797.26394  0.026887358   0.02660092           11 
 2472000   0.86676789   -6.6946151    794.78931  0.026793059  0.026594281            9 
 2473000   0.87767108   -6.7123248    793.37555  0.026734585  0.026587597            4 
 2474000   0.86074225   -6.7349836    793.74006  0.026736057  0.026580875           14 
 2475000   0.84237846   -6.7207988    795.24363   0.02677588  0.026574167           14 
 2476000   0.84013009   -6.7303621    794.71807  0.026747377  0.026567433           12 
 2477000   0.85064131   -6.6870757    795.74986  0.026771291  0.026560721            9 
 2478000   0.85389278   -6.7261605    795.25226  0.026743754  0.026554056            8 
 2479000   0.85728725   -6.7253184    795.09661  0.026727733   0.02654734            5 
 2480000   0.86233378   -6.7207756    794.87581  0.026709537  0.026540619            4 
 2481000   0.86922978   -6.6914516    795.54433  0.026721225  0.026533891            4 
 2482000   0.85756456   -6.6770136    793.26797  0.026634031  0.026527118           13 
 2483000   0.85731581   -6.6911509    797.60258   0.02676878  0.026520368            9 
 2484000   0.86961788   -6.6930636    794.95158  0.026669068  0.026513635           11 
 2485000   0.86124595   -6.7018388    793.92033  0.026623753  0.026506931           21 
 2486000   0.83421391   -6.7223192    794.68825  0.026638785  0.026500232           13 
 2487000   0.84502297   -6.7407552    796.07433  0.026674519  0.026493462            9 
 2488000   0.85304301   -6.6964725    795.43385  0.026642345  0.026486647            6 
 2489000   0.83943026     -6.72834    794.78284  0.026609845  0.026479857           14 
 2490000   0.86499615    -6.682985    794.95745  0.026605002  0.026473034            7 
 2491000   0.85278759   -6.6798818     796.1596  0.026634538  0.026466269            8 
 2492000   0.84762859   -6.6967376    794.42412  0.026565815  0.026459493            6 
 2493000   0.85359189   -6.7080236    796.64059  0.026629248  0.026452698            5 
 2494000   0.85124471     -6.67923    795.60049  0.026583818  0.026445876            7 
 2495000   0.85547275   -6.7048894    795.33759  0.026564382  0.026439081            4 
 2496000   0.82523873    -6.683565    795.66726  0.026564746  0.026432266            5 
 2497000   0.85989868   -6.6846744    796.85332   0.02659369  0.026425459           11 
 2498000   0.85426506   -6.7313702    797.12899   0.02659224  0.026418711            9 
 2499000   0.85508178   -6.6848333     796.7831  0.026570065  0.026411928            8 
 2500000   0.83832452   -6.7097385    796.24198  0.026541399  0.026405092            9 
 2501000   0.84710756   -6.6983482    796.56904  0.026541685  0.026398286            7 
 2502000   0.85407143   -6.6876339    795.77195  0.026504528  0.026391499            9 
 2503000   0.85988325    -6.737209    797.09707  0.026538057  0.026384655            6 
 2504000   0.85001954   -6.6870499    798.45083  0.026572512  0.026377836           12 
 2505000   0.87021769   -6.7007035    795.49302  0.026463507  0.026371047           15 
 2506000    0.8476581   -6.7240646    796.73468  0.026494236   0.02636424           12 
 2507000   0.83435859   -6.6916663    795.63766  0.026447203  0.026357405            5 
 2508000   0.85930061   -6.7069774     797.8914  0.026511543  0.026350585            7 
 2509000    0.8578733   -6.6758012    796.18666  0.026444356  0.026343789           11 
 2510000   0.84898561   -6.6850313    798.01316  0.026494461  0.026336978           16 
 2511000   0.84562677   -6.7069262     796.9239   0.02644776  0.026330073            7 
 2512000   0.84649861   -6.7006479    796.04527  0.026408084  0.026323183            8 
 2513000    0.8550214   -6.7064189    796.45646   0.02641121  0.026316334           12 
 2514000    0.8471843   -6.7000429    798.22735  0.026459406  0.026309472           14 
 2515000   0.84698982    -6.731601    795.72588     0.026366  0.026302558            4 
 2516000   0.85883687   -6.7007266    796.48471  0.026380654  0.026295635           10 
 2517000   0.83930196   -6.6817129    797.99976  0.026420334  0.026288756            5 
 2518000   0.83611433   -6.7272101    797.25179  0.026385087  0.026281803            8 
 2519000   0.85183027    -6.724506    795.27274  0.026309142  0.026274878            6 
 2520000   0.85555175   -6.7085957    797.38563  0.026368572  0.026267966            9 
 2521000   0.83295321    -6.720945    796.96272  0.026344133  0.026261082           12 
 2522000   0.83871403    -6.706238    797.70587  0.026358243  0.026254148            9 
 2523000   0.85398882   -6.6837553    795.53285  0.026276022  0.026247202            8 
 2524000   0.84203153   -6.6887153    795.05168  0.026249725  0.026240283           10 
 2525000   0.85012319   -6.6965423    799.02347  0.026370411  0.026233433            4 
 2526000    0.8529378   -6.6994163    798.87103  0.026354943  0.026226585            6 
 2527000   0.86973527   -6.7065105    798.66703  0.026337786  0.026219713           18 
 2528000   0.83695691   -6.6738651    798.53314  0.026322954  0.026212863           10 
 2529000    0.8617076   -6.6949017     799.0093  0.026328236  0.026206019            7 
 2530000   0.84462938   -6.6887605    799.74538  0.026342075  0.026199137           10 
 2531000   0.85260408   -6.7278614      799.123  0.026311175  0.026192286           24 
 2532000   0.86265558   -6.7406587    797.31536   0.02624129  0.026185379            7 
 2533000   0.84076628   -6.7057797    798.50385  0.026270031  0.026178539           11 
 2534000   0.85364127   -6.7173136    801.00332  0.026341861   0.02617172           10 
 2535000   0.84992141    -6.698662    800.71194  0.026321892    0.0261649           10 
 2536000   0.86529343   -6.6919882    801.80196   0.02634733  0.026158113            7 
 2537000   0.83508054   -6.7263753    799.42084  0.026258732   0.02615136            9 
 2538000   0.83653855    -6.699038    802.91617  0.026363152  0.026144618           11 
 2539000   0.85233561   -6.7291003    801.11142  0.026293535  0.026137873           15 
 2540000   0.84845718   -6.7362572    802.73602  0.026336484  0.026131152           14 
 2541000   0.86213405   -6.7149536    799.99578  0.026236251  0.026124392            9 
 2542000    0.8525041   -6.7257157    802.60022  0.026311311  0.026117657           15 
 2543000   0.86123462   -6.7060678    802.11474  0.026285055  0.026110901            8 
 2544000   0.84701245   -6.7059851    801.75864  0.026263058  0.026104205            9 
 2545000   0.85597064   -6.7242267     801.8835  0.026256827  0.026097496            7 
 2546000   0.85008243   -6.7232104    802.22406  0.026257661  0.026090778            7 
 2547000   0.84432825    -6.728538    803.07277   0.02627512  0.026084071            9 
 2548000   0.85077452   -6.6976708    804.45124  0.026309891  0.026077402            9 
 2549000   0.84365189   -6.6909727    806.91131  0.026379996  0.026070822           16 
 2550000   0.86404362   -6.7182305    802.81333   0.02623573  0.026064193           25 
 2551000   0.83831065   -6.7003381    803.11278  0.026235227  0.026057584           14 
 2552000    0.8428196   -6.7443841    805.60526  0.026306337  0.026050955            9 
 2553000   0.85297294   -6.7594728    804.18672   0.02624973  0.026044298            7 
 2554000   0.84140098   -6.7552888    802.19017  0.026174307  0.026037621            8 
 2555000    0.8313125   -6.7333843     805.5051  0.026272182  0.026031008           22 
 2556000   0.84015117   -6.7051437    806.39307  0.026290854  0.026024414           11 
 2557000   0.83817097   -6.7288505    804.86953   0.02623092   0.02601784           16 
 2558000   0.84159211   -6.7093793    805.95401  0.026255995   0.02601122            9 
 2559000   0.85618052   -6.7099955    804.17258  0.026187722   0.02600459           19 
 2560000   0.86462968   -6.7459974    805.16741  0.026209877  0.025997974            5 
 2561000   0.85397377   -6.7400207    804.69929   0.02618441  0.025991349           13 
 2562000   0.82184279    -6.727037    805.80087   0.02621002  0.025984743           10 
 2563000   0.84040087   -6.6984791    806.50866  0.026222807  0.025978175           19 
 2564000   0.84113907   -6.7053398    804.76966   0.02615606  0.025971641           10 
 2565000   0.85155267   -6.7399794    806.89343  0.026214861  0.025965094            7 
 2566000   0.85886827   -6.7444488    805.55283  0.026161108  0.025958518           15 
 2567000   0.82510202   -6.7306817    806.89618  0.026194526  0.025951927           16 
 2568000   0.84586629   -6.7193853    806.79149  0.026180928  0.025945384            9 
 2569000   0.85115535   -6.7070314     805.8281  0.026139487  0.025938839           11 
 2570000   0.84331101   -6.7531156     806.0209  0.026135567  0.025932265           12 
 2571000   0.83716372   -6.7254283    805.14934  0.026097152  0.025925675           16 
 2572000   0.82998756   -6.7266816    808.24278  0.026187234  0.025919136           10 
 2573000   0.83550943   -6.7074495    806.89893  0.026133532   0.02591257           14 
 2574000   0.84117524   -6.7196473    808.31064  0.026169083  0.025906019           34 
 2575000   0.82319217   -6.6981168    810.18617  0.026219617   0.02589948           11 
 2576000   0.83569256   -6.7175085    809.06721   0.02617324  0.025892996           14 
 2577000   0.83206023   -6.7275157    807.97415  0.026127737  0.025886445           14 
 2578000   0.84967423   -6.7272485    808.18496  0.026124417  0.025879916           15 
 2579000   0.82316885   -6.7345989    806.88871  0.026072402  0.025873281           22 
 2580000   0.83755524   -6.7330243    808.61876  0.026118177  0.025866678           11 
 2581000   0.83217104   -6.7338087    808.81339  0.026114342  0.025860095           11 
 2582000   0.85550922   -6.7202427    810.49157   0.02615839  0.025853515            4 
 2583000   0.81694445   -6.7295329    808.97045  0.026099189  0.025846966           11 
 2584000   0.83143385   -6.7131863    808.26049  0.026066192  0.025840445           10 
 2585000   0.83937353   -6.6974918    807.84688  0.026042775  0.025833878            7 
 2586000   0.84050915   -6.7553357    811.28028  0.026143345  0.025827329           40 
 2587000   0.84378355   -6.7310626     809.5093  0.026076192  0.025820742           49 
 2588000   0.84985124   -6.7504106    809.63732  0.026070238  0.025814126           34 
 2589000   0.84906841   -6.6999974    811.29081   0.02611339  0.025807564           23 
 2590000   0.83829172   -6.7314485    810.07202  0.026064093  0.025801089            8 
 2591000   0.82974966   -6.7269802    810.09627  0.026054814  0.025794578            7 
 2592000   0.83773588   -6.7601772    811.93644  0.026103924  0.025788048            5 
 2593000   0.85175582   -6.6999629    811.19399  0.026069996  0.025781595            8 
 2594000   0.82798613   -6.7346386    809.19757   0.02599581  0.025775122           21 
 2595000   0.84104479   -6.7436039    810.79499   0.02603709  0.025768672            8 
 2596000   0.82465084    -6.712174    810.12675   0.02600561  0.025762229           11 
 2597000   0.83130692   -6.7052542    812.38881  0.026068182  0.025755768           10 
 2598000   0.84830557   -6.7179834    810.57136  0.025999851  0.025749324            6 
 2599000   0.84440345   -6.7174509    810.45795  0.025986211  0.025742877            4 
 2600000    0.8352093   -6.7320142    812.92041  0.026055141  0.025736405           17 
 2601000   0.82232147   -6.7188531    812.99602  0.026047547  0.025729919           20 
 2602000   0.84470643   -6.7362452    811.83046  0.026000207  0.025723441           12 
 2603000   0.81656225   -6.7222684    810.99253  0.025963392  0.025716973           10 
 2604000   0.82187455   -6.7133266    813.05782  0.026019516  0.025710505            8 
 2605000   0.84317314    -6.745218    809.92781  0.025909399  0.025704057            9 
 2606000   0.83437088   -6.7632528    812.68844  0.025987735  0.025697573            9 
 2607000   0.83418517   -6.7349064    813.43901  0.026001758  0.025691102           19 
 2608000   0.82374807   -6.7219503    812.39707  0.025958495  0.025684652           22 
 2609000    0.8278052   -6.7572358    811.45023  0.025918303  0.025678192           15 
 2610000   0.84605976   -6.7312891    812.70418  0.025948409  0.025671736           11 
 2611000   0.83311441   -6.7366535     810.9496  0.025882472  0.025665288            6 
 2612000   0.82677503    -6.732074    814.69974  0.025992207   0.02565887           11 
 2613000   0.84335252   -6.7456145     815.8865  0.026020108  0.025652439            6 
 2614000   0.83915418   -6.7418054    813.32384  0.025928457  0.025645982           21 
 2615000    0.8543183   -6.7720028    813.94981   0.02593849  0.025639508           16 
 2616000   0.83089315    -6.739021    813.56292   0.02591625  0.025633046           24 
 2617000   0.83663169   -6.7715243    812.62702  0.025876545  0.025626653           28 
 2618000   0.82402963   -6.7355902     814.2407  0.025918026  0.025620204            8 
 2619000   0.83044014    -6.775518    813.97378  0.025899637  0.025613762           10 
 2620000   0.83153883   -6.7532781    815.62638  0.025942315  0.025607344           16 
 2621000   0.81583237   -6.7433942    816.51753  0.025960751  0.025600926            7 
 2622000   0.83508576   -6.7660979    814.63785  0.025891109  0.025594539           11 
 2623000   0.82968166   -6.7454143    815.84467  0.025919579  0.025588164           12 
 2624000   0.84851001   -6.7421227    817.15559  0.025951333  0.025581838           13 
 2625000   0.85046762   -6.7503173    816.52641  0.025921473  0.025575492            8 
 2626000   0.85450527   -6.7251716    816.53715  0.025911943  0.025569175           10 
 2627000   0.82727091   -6.7448393    816.21984  0.025892014  0.025562784           22 
 2628000   0.81602474   -6.7305194    817.61683   0.02592646  0.025556399           14 
 2629000   0.82174915   -6.7314518    817.10507  0.025900376   0.02555003            9 
 2630000   0.86003774   -6.7294162     815.9224  0.025853055  0.025543699            5 
 2631000   0.82984547   -6.7265959    818.23882  0.025916598  0.025537364           12 
 2632000    0.8319137   -6.7310524     815.2678  0.025812684  0.025531043            6 
 2633000   0.82224371   -6.7370098    814.88888  0.025790887  0.025524675            8 
 2634000   0.83335229   -6.7182345     817.0229  0.025848611  0.025518315            7 
 2635000   0.84331718   -6.7568992    817.97939  0.025869051  0.025511966           11 
 2636000   0.81801843   -6.7547532    816.40679  0.025809522  0.025505558           19 
 2637000   0.81997497   -6.7566229      816.003  0.025786974  0.025499159           19 
 2638000   0.83292571   -6.7472229    817.61165  0.025828015  0.025492791           10 
 2639000   0.81699381   -6.7436977    816.53646  0.025784276  0.025486415           26 
 2640000   0.83090039   -6.7642918    817.85417  0.025816104  0.025480046           16 
 2641000   0.84308515   -6.7235446    819.69852  0.025864525  0.025473704           12 
 2642000    0.8323035     -6.73267    816.75231  0.025761806  0.025467326           23 
 2643000   0.85024372   -6.7692397    814.74734  0.025688843  0.025460907           10 
 2644000    0.8248249   -6.7162138    817.24849  0.025757958  0.025454504            6 
 2645000   0.84400001    -6.705827    816.50655  0.025724844  0.025448111            5 
 2646000   0.82042113   -6.7408536    817.91891  0.025759603   0.02544174            9 
 2647000   0.80753498    -6.732895    817.68048  0.025742365   0.02543535           20 
 2648000   0.81698663   -6.7654617    815.60947  0.025667468  0.025428941           10 
 2649000   0.81931777   -6.7650661    818.01376  0.025733414  0.025422527           11 
 2650000   0.81981144   -6.7529273    818.07042  0.025725485  0.025416089           14 
 2651000   0.83466918   -6.7447881     817.2638  0.025690425  0.025409643           17 
 2652000   0.83891713   -6.7589733    817.50586  0.025688344  0.025403246           45 
 2653000   0.84243906   -6.7361767    818.86554   0.02572137   0.02539686           12 
 2654000   0.83948849   -6.7531491    818.20105  0.025690814  0.025390478            8 
 2655000   0.83108367    -6.741459    817.70468  0.025665558  0.025384048            8 
 2656000   0.83097224   -6.7589046    815.32208  0.025581139  0.025377605            9 
 2657000   0.84024916   -6.7255885     817.3841  0.025636184  0.025371125           10 
 2658000   0.80558616   -6.7694134    819.03243  0.025678218  0.025364667           16 
 2659000   0.84129594   -6.7623625    816.67317  0.025594621  0.025358196            9 
 2660000   0.81492006   -6.7816697    819.22734  0.025665017  0.025351774           11 
 2661000   0.84351447   -6.7683794    817.85288  0.025612329   0.02534532            9 
 2662000    0.8152192    -6.752305    817.41904  0.025589126  0.025338877           10 
 2663000   0.84601391    -6.754793    819.13671  0.025633268  0.025332472            8 
 2664000   0.80983706   -6.7340288    818.58662  0.025606438  0.025326083           14 
 2665000   0.82477989   -6.7496851    819.90541  0.025638068  0.025319668           12 
 2666000   0.81188986   -6.7737487    820.90229  0.025659611  0.025313239            8 
 2667000   0.83354073   -6.7858051    818.80954    0.0255846   0.02530679            7 
 2668000    0.8175387   -6.7367679    819.23089  0.025588171  0.025300319           17 
 2669000   0.84029466   -6.7438735    818.33328  0.025550558  0.025293837            9 
 2670000   0.81408008   -6.7804648    818.09647  0.025533598  0.025287327           11 
 2671000   0.81376626   -6.7358659    819.31443  0.025562038  0.025280804            7 
 2672000   0.81959696   -6.7632912     819.4583  0.025556958  0.025274319           10 
 2673000   0.82464864    -6.774627    820.17884   0.02556986  0.025267805           10 
 2674000   0.83333904    -6.757282    817.97029   0.02549147  0.025261309           13 
 2675000   0.83699434   -6.7832219     816.5533  0.025437797  0.025254833            7 
 2676000   0.81885924   -6.7651235    819.62911  0.025524075  0.025248354           10 
 2677000   0.81694729   -6.7534993     820.0978  0.025529131  0.025241915           13 
 2678000   0.82852581   -6.7708992    819.72616  0.025508033  0.025235488           14 
 2679000   0.81516363   -6.7629334    819.54449  0.025492861  0.025229001           14 
 2680000   0.81445054   -6.7679454    821.40873  0.025541316  0.025222517            8 
 2681000   0.80984515   -6.7494404    820.06529  0.025490031  0.025216093           13 
 2682000   0.81323491   -6.7799271    818.61446  0.025435448  0.025209644           15 
 2683000   0.81481986   -6.7811694    819.59084  0.025456294  0.025203111           13 
 2684000   0.81377011     -6.75083    818.96064  0.025427243  0.025196604           25 
 2685000   0.81419395   -6.7703408    819.82117  0.025444481  0.025190091           12 
 2686000   0.81404322   -6.7480782    820.68028  0.025461662  0.025183608           27 
 2687000   0.82137079   -6.7657647    820.99886  0.025462066  0.025177113           11 
 2688000    0.8223141   -6.7471825    819.49362  0.025405928   0.02517066            7 
 2689000   0.82585428    -6.764218    821.86653  0.025470018  0.025164172           19 
 2690000   0.83865148   -6.7260181    821.72669  0.025456217  0.025157712           16 
 2691000   0.80599815   -6.7599764    819.71172  0.025384359   0.02515123           10 
 2692000   0.82037519   -6.7642561    820.05973  0.025385702  0.025144709            9 
 2693000   0.81807356   -6.8051898    820.32993  0.025384637  0.025138195            8 
 2694000   0.81522027   -6.7857477    821.64333  0.025415842  0.025131692            7 
 2695000   0.82878953    -6.761831    820.67239  0.025376388  0.025125205            7 
 2696000   0.83715102   -6.7939627    821.95791  0.025406711  0.025118702           23 
 2697000   0.81776749    -6.775058    820.43087  0.025350107  0.025112204           14 
 2698000   0.82007242   -6.7664548    822.53232  0.025405619   0.02510569            9 
 2699000   0.82170817   -6.7754547    821.39078   0.02536096   0.02509923            8 
 2700000   0.82482253   -6.7801573    821.96088  0.025369163  0.025092764           10 
 2701000   0.81752181   -6.7759251    823.58482  0.025409873  0.025086304           13 
 2702000   0.83282614   -6.7462277    823.63146  0.025401908  0.025079865            9 
 2703000   0.81585152   -6.7756712    821.36438  0.025322616  0.025073366           10 
 2704000   0.83558616   -6.8036465    823.01564  0.025364141  0.025066899           28 
 2705000   0.82690042   -6.8006822    820.29618  0.025270985  0.025060395           11 
 2706000   0.82096273   -6.7721335    821.66798  0.025303892  0.025053931           18 
 2707000    0.8179315   -6.7780358    822.61944  0.025323835   0.02504749           11 
 2708000   0.82534837   -6.7732946    822.18732  0.025301185  0.025041021            5 
 2709000   0.82734644   -6.7985649    824.11686  0.025351202  0.025034526            6 
 2710000   0.82524648   -6.7505023    820.98906  0.025245666  0.025028071            9 
 2711000   0.82284374   -6.7669361    822.53084  0.025283746  0.025021615            7 
 2712000   0.80556247   -6.7608905    822.88415   0.02528528  0.025015179           12 
 2713000   0.81570233   -6.7687669     823.0671  0.025281579  0.025008731           14 
 2714000   0.83464046   -6.7827073    822.82507  0.025264833  0.025002287            7 
 2715000   0.80997491   -6.7790167    823.18128   0.02526646  0.024995798           20 
 2716000   0.79172146   -6.7732474    823.05169  0.025253181  0.024989364           36 
 2717000   0.81079658   -6.7830837    824.11812  0.025276595  0.024982928           26 
 2718000   0.82516634   -6.7711353    824.43452  0.025276996  0.024976522           11 
 2719000    0.8110077   -6.7705883    823.28931  0.025232601  0.024970118           25 
 2720000   0.81372257   -6.7501033    824.38162   0.02525679  0.024963729            7 
 2721000   0.82227999   -6.7875845    825.92682  0.025294831  0.024957308           20 
 2722000    0.8398036   -6.7856198    822.97309  0.025195111  0.024950877           21 
 2723000   0.80394689   -6.7625449      824.517  0.025233107  0.024944421           24 
 2724000   0.80897567    -6.762206    824.76325  0.025231377     0.024938           10 
 2725000   0.82758861   -6.7936226    824.93631   0.02522741  0.024931581            6 
 2726000    0.8068748    -6.763884    824.20856  0.025195909   0.02492511           11 
 2727000   0.82149994   -6.7828837    825.98102  0.025240833   0.02491866           13 
 2728000   0.81557191   -6.7545483    823.08839  0.025143218  0.024912235           15 
 2729000   0.81426259   -6.7995067    824.84093  0.025187521  0.024905829           17 
 2730000   0.81232446   -6.7853095     824.8616  0.025178925  0.024899395           17 
 2731000   0.81098133   -6.7728828    825.46659  0.025188166  0.024892953            7 
 2732000   0.84270023    -6.785124    824.68808    0.0251552  0.024886559           16 
 2733000   0.81121557   -6.7951539    824.10305  0.025128157  0.024880147           15 
 2734000   0.80499679   -6.7777017    824.56125  0.025132933  0.024873675           11 
 2735000   0.82283905   -6.7762595    825.50138  0.025152388  0.024867216           17 
 2736000   0.80602584   -6.7567378    827.55154  0.025205639  0.024860766           10 
 2737000   0.83259283   -6.7799354    824.52144  0.025104172  0.024854298           19 
 2738000   0.81997115   -6.7879873     824.2004  0.025085232  0.024847855           14 
 2739000   0.81472779   -6.7738548    826.64319  0.025150395  0.024841415           11 
 2740000   0.78770003   -6.7489099    824.79604  0.025085038  0.024834957           12 
 2741000   0.82021083    -6.777264    824.88832  0.025078691  0.024828451           21 
 2742000   0.79181083   -6.7814164    825.20442  0.025079152  0.024821993           19 
 2743000   0.82579053   -6.7689067    825.63239  0.025083011   0.02481553           11 
 2744000    0.8101132   -6.7729718    825.93915  0.025083186  0.024809055            9 
 2745000   0.80941179   -6.7693344    825.01445  0.025045976  0.024802533           10 
 2746000   0.81355334   -6.8168299    824.46629   0.02502022  0.024795975            7 
 2747000   0.82346809   -6.7466882    827.62826  0.025107034  0.024789505            7 
 2748000   0.81020877   -6.7793928    825.63654  0.025037498  0.024783039           13 
 2749000   0.83015911   -6.8042032    825.79104  0.025033074  0.024776568           12 
 2750000   0.79156491   -6.7848564    825.62394  0.025018907  0.024770054           14 
 2751000   0.82860648   -6.7860243    827.10241  0.025054599  0.024763567           14 
 2752000   0.80712863   -6.7661907    826.04183  0.025013379  0.024757116           21 
 2753000   0.80820397   -6.7904651     824.1374  0.024946646  0.024750623            7 
 2754000   0.83809055   -6.7770539    827.31526  0.025033747  0.024744126           11 
 2755000   0.79822467   -6.8169697    824.85168  0.024950142  0.024737646           12 
 2756000   0.81635763   -6.7982269    826.95238  0.025004608  0.024731131           10 
 2757000   0.80890646   -6.7682987    826.90482    0.0249941  0.024724636           11 
 2758000   0.81501853   -6.7594136    826.13719  0.024961844  0.024718113           10 
 2759000   0.80222698   -6.8016887    827.39538  0.024990799  0.024711616            9 
 2760000   0.82869564   -6.7911134    827.54223  0.024986178  0.024705074            6 
 2761000   0.82649939   -6.8035415    828.16628  0.024995964  0.024698555            9 
 2762000   0.81935863   -6.7727102    827.09778  0.024954676  0.024692037            7 
 2763000   0.81631967   -6.7963374    826.94933  0.024941167  0.024685531           11 
 2764000   0.80142609   -6.7890439    827.69182  0.024954529  0.024679032            5 
 2765000    0.8134893   -6.7763134    827.21474  0.024931125  0.024672575            9 
 2766000   0.79282744     -6.78779    825.97974  0.024884904  0.024666155           11 
 2767000     0.816962   -6.7927228    829.13693  0.024970995   0.02465971            9 
 2768000   0.81275559   -6.8022982    828.80441  0.024951963  0.024653255           13 
 2769000   0.79719316   -6.7993138     829.5521  0.024965454  0.024646782           11 
 2770000   0.80549719   -6.7608349    828.56102  0.024926625  0.024640313           15 
 2771000   0.81035858   -6.7816386    829.34279   0.02494114  0.024633881            6 
 2772000   0.80272394   -6.7735015     830.2306  0.024958832  0.024627445           12 
 2773000   0.81038373   -6.7757989    830.04659  0.024944302  0.024620998            7 
 2774000   0.80353524   -6.7745661    827.77577  0.024867092  0.024614543           14 
 2775000   0.82213805   -6.7953747    826.20243  0.024810884  0.024608039           11 
 2776000   0.81908656   -6.7860692    828.56531  0.024872878   0.02460156           19 
 2777000   0.79449539   -6.8175052    828.05948  0.024848742  0.024595034           19 
 2778000   0.80668388   -6.7936945    826.90254  0.024805092  0.024588505           18 
 2779000   0.82418134   -6.8068881    826.84516  0.024794445  0.024581983           20 
 2780000   0.79019945   -6.8260444    827.06584  0.024792141  0.024575451           17 
 2781000     0.799198   -6.7844764    829.23804  0.024848317  0.024568949           16 
 2782000   0.80598381   -6.7838929    828.82093  0.024826891  0.024562442            5 
 2783000   0.81893325   -6.8008751    828.13686  0.024797487  0.024555944           16 
 2784000   0.78921915   -6.7698427    830.13253  0.024848316  0.024549497           11 
 2785000   0.79578522   -6.8080212    829.90106  0.024832468  0.024543049           12 
 2786000   0.81238854   -6.7937598    827.16884  0.024741829  0.024536612           27 
 2787000   0.80556805   -6.8024007    828.99791  0.024787642  0.024530134           12 
 2788000   0.79760853   -6.8113646    830.37876  0.024820025  0.024523688            9 
 2789000   0.80341776   -6.8024562    831.11843  0.024833227  0.024517294           15 
 2790000   0.81161704    -6.796429     829.8839  0.024787452  0.024510886           13 
 2791000   0.79871219   -6.7957213    831.41084  0.024824162  0.024504476            9 
 2792000   0.81794621   -6.7922032    830.31429  0.024782542  0.024498102            9 
 2793000   0.79764187   -6.7804142    829.37055  0.024745511  0.024491678           11 
 2794000   0.82096364    -6.778157    832.75317  0.024837544  0.024485315           13 
 2795000   0.80187532   -6.8212479    828.81401  0.024711211  0.024478907           11 
 2796000   0.79970651   -6.8142986    830.19211  0.024743446  0.024472484           10 
 2797000    0.8095269   -6.7910043    830.52183  0.024744423  0.024466039            8 
 2798000   0.81138899   -6.8094878    829.51083  0.024705469  0.024459561           15 
 2799000   0.79037258   -6.8048113    830.36556   0.02472209    0.0244531           10 
 2800000   0.80972616   -6.7864867    829.09835  0.024675546  0.024446669            8 
 2801000   0.80819503   -6.8139873    831.95682   0.02475178  0.024440243           18 
 2802000   0.79911669   -6.8149554    829.12787  0.024658811  0.024433765           14 
 2803000   0.82013384   -6.8158338    830.20575  0.024682059  0.024427268           21 
 2804000   0.78529769   -6.7995919    830.75103  0.024689462  0.024420756            6 
 2805000   0.79071096   -6.8036992    827.57445  0.024586288  0.024414271            6 
 2806000   0.80273057   -6.7944969    830.72908  0.024671213  0.024407771           20 
 2807000   0.80054001   -6.8022405    832.70436  0.024721065  0.024401305           10 
 2808000   0.79639572   -6.7960191    830.87769  0.024658051   0.02439483           14 
 2809000   0.79735166   -6.8094036    831.75937  0.024675429  0.024388372           16 
 2810000   0.81226301   -6.7804356    831.16019  0.024648879  0.024381928           19 
 2811000   0.81901691   -6.8111507    831.88373   0.02466156  0.024375493           21 
 2812000   0.77732297   -6.7998811    832.42536  0.024668841  0.024369091           12 
 2813000   0.81352677   -6.7795813    833.63483  0.024695901  0.024362721           20 
 2814000   0.79827224   -6.8138778    832.08128  0.024641118   0.02435633           15 
 2815000    0.8144467   -6.8081638    832.91326  0.024656994  0.024349901           24 
 2816000   0.79906753   -6.8144116    832.86334  0.024646761    0.0243435           12 
 2817000   0.80236736   -6.7899756    832.04896   0.02461392  0.024337106            9 
 2818000   0.81379309   -6.7798697    832.43501  0.024616602  0.024330719           11 
 2819000   0.82833899   -6.8236166    832.06798   0.02459702  0.024324306           17 
 2820000   0.78541894   -6.8202884    833.35032  0.024626191  0.024317908           28 
 2821000   0.80032584   -6.8113032    833.43236  0.024619885  0.024311497           25 
 2822000   0.81474933   -6.8165744    832.19763    0.0245747  0.024305111           24 
 2823000   0.79776256   -6.8090717    833.41196  0.024601841  0.024298744           12 
 2824000   0.81963567   -6.8274693    833.56196  0.024597556  0.024292341           18 
 2825000   0.79342789     -6.80332     834.6835  0.024621932  0.024285988           14 
 2826000   0.81126037   -6.8273057    834.98934  0.024622238  0.024279589           12 
 2827000   0.80139934    -6.800604    835.96867  0.024642397  0.024273229           16 
 2828000   0.81687257   -6.8192189    833.44591  0.024559344  0.024266899           24 
 2829000   0.79750331   -6.8104027    834.51866  0.024582263  0.024260577           11 
 2830000   0.78972163   -6.8279507    834.79825  0.024581809  0.024254193           34 
 2831000   0.78862375   -6.8081238    835.34881  0.024589333  0.024247839           19 
 2832000   0.81620786   -6.7811831    834.50189  0.024555729  0.024241475           20 
 2833000   0.78893829   -6.8144008     834.5227  0.024547673  0.024235112           12 
 2834000   0.80175756   -6.7930685    833.94696  0.024522082   0.02422874           15 
 2835000   0.79928439   -6.7940674    835.12414  0.024548035  0.024222382           12 
 2836000   0.79903867    -6.785126    834.93758  0.024533897  0.024216068           12 
 2837000   0.79196359   -6.8164998    834.34946  0.024507974   0.02420976           16 
 2838000   0.79226772   -6.7911532    836.44341  0.024560824  0.024203447           34 
 2839000   0.79545357   -6.7957405     835.6386  0.024528549  0.024197112           27 
 2840000   0.79958054   -6.8008546    835.03335  0.024502152  0.024190769           27 
 2841000    0.8060152   -6.7962379    836.33303   0.02453165  0.024184427            9 
 2842000   0.79502376    -6.807214    834.58375  0.024471726  0.024178063           17 
 2843000   0.80186915   -6.7925545    833.31283  0.024425865  0.024171689           26 
 2844000    0.7853987   -6.8274436    835.53877    0.0244825  0.024165279           14 
 2845000   0.80555096   -6.8123025    833.96806  0.024427887   0.02415887           13 
 2846000   0.80317877   -6.8178054    834.26685  0.024428053   0.02415245           15 
 2847000   0.78422171   -6.8067237    834.28312  0.024419948  0.024146049           26 
 2848000   0.79065087   -6.8078504     833.8661  0.024399172  0.024139655            9 
 2849000   0.79640792   -6.8189764    834.12009  0.024398037  0.024133245            9 
 2850000   0.80413464   -6.8300067    833.99218  0.024385736  0.024126828           14 
 2851000   0.79078617   -6.7807199    833.76448  0.024370527  0.024120427            5 
 2852000   0.79735979   -6.7967288    834.70928  0.024389589  0.024114026            9 
 2853000   0.78964517    -6.828575    833.95835  0.024359106  0.024107594            5 
 2854000   0.80262876   -6.7857739    835.03544  0.024382021  0.024101193           15 
 2855000   0.79656307   -6.8104596     835.5548   0.02438864  0.024094762           11 
 2856000   0.79500271   -6.7976899    835.33493  0.024373685  0.024088375           10 
 2857000   0.80414141   -6.8370917    835.49111  0.024369709  0.024081958           18 
 2858000   0.79941639   -6.8474884    833.90949  0.024315065  0.024075472           18 
 2859000    0.7901632    -6.836852    834.55263  0.024325307  0.024068976           16 
 2860000   0.79809264    -6.821855    834.17337  0.024305751  0.024062514           12 
 2861000   0.78960701    -6.830727    834.94926  0.024319855  0.024056051           19 
 2862000   0.79212693   -6.8196264    835.41377  0.024324883  0.024049578           16 
 2863000   0.77719692       -6.819    836.68556  0.024353404  0.024043116            6 
 2864000   0.78461722   -6.7927319    835.24925  0.024303109  0.024036669           10 
 2865000   0.78404529   -6.8064407    834.75646  0.024280293  0.024030235           25 
 2866000    0.7729674   -6.8058852    834.07794  0.024252092  0.024023823           23 
 2867000   0.79639634   -6.8251077    835.34143  0.024280358  0.024017409           24 
 2868000   0.78379004   -6.8414201    836.87045   0.02431632  0.024010962           11 
 2869000   0.78546642    -6.829958    836.87459  0.024307964  0.024004517           24 
 2870000   0.78995718   -6.8179448    836.75657  0.024296068  0.023998139            9 
 2871000   0.79835136   -6.8305592    836.81184  0.024289209  0.023991729            4 
 2872000   0.81897359   -6.8377686    836.99633  0.024286105  0.023985318            8 
 2873000   0.77475502   -6.8374839     836.5252  0.024263986  0.023978922            8 
 2874000   0.77600618   -6.8545331     837.0389  0.024270439  0.023972497           12 
 2875000   0.79080279   -6.8276722    835.66944  0.024222303  0.023966068           22 
 2876000   0.79100417    -6.819755     837.9866  0.024281021  0.023959654            7 
 2877000   0.78111246   -6.8213898     837.0766  0.024246223  0.023953272           11 
 2878000   0.79769305   -6.8395859    835.30504  0.024186502  0.023946856           13 
 2879000   0.80376968   -6.8381297    836.33681  0.024207966  0.023940408           10 
 2880000   0.77882117   -6.8227576    835.51395  0.024175751  0.023933964            6 
 2881000   0.80262488   -6.8083753    836.87935  0.024206854  0.023927526           12 
 2882000   0.77481983   -6.8267922    838.58873  0.024247881  0.023921099            7 
 2883000   0.79512836   -6.8328163    839.07279  0.024253463  0.023914671           20 
 2884000   0.78719331   -6.8331038    835.64716  0.024146069  0.023908233           14 
 2885000   0.78857931   -6.8226443    835.96176  0.024146787  0.023901768           11 
 2886000   0.80256041   -6.8230255    837.47447    0.0241821  0.023895353           15 
 2887000   0.77552738   -6.8122957    835.95865  0.024129969  0.023888928           12 
 2888000   0.78638221   -6.8486473    838.86773  0.024205555   0.02388249           24 
 2889000   0.79509126    -6.826174    837.75391  0.024165049  0.023876061           22 
 2890000   0.77588841   -6.8375868    835.67981   0.02409688  0.023869632           36 
 2891000   0.79346253   -6.8186224     837.7942  0.024149493  0.023863166           38 
 2892000   0.79986512   -6.8381227    836.94367  0.024116634   0.02385671           17 
 2893000   0.77715514   -6.8072436    837.96836  0.024137814  0.023850254           15 
 2894000    0.7787349    -6.788351    836.25258  0.024080067  0.023843809           16 
 2895000   0.79102066   -6.8127766    838.36786  0.024132638  0.023837368            7 
 2896000   0.78286495   -6.8125922     837.9817  0.024113193   0.02383097            8 
 2897000    0.7915044   -6.8307173    838.83331  0.024129367  0.023824546           14 
 2898000   0.77394404   -6.8215002    838.14257  0.024101178  0.023818135           14 
 2899000   0.78482769   -6.8275617    839.93614  0.024144422  0.023811709            6 
 2900000   0.78529916    -6.818217    837.94336  0.024078832  0.023805319           10 
 2901000   0.78695092   -6.8381608    838.35823  0.024082449  0.023798919            6 
 2902000   0.78432588   -6.8207465    837.19333    0.0240407  0.023792473            6 
 2903000   0.78603437   -6.8486702    838.44435   0.02406833  0.023786071           12 
 2904000   0.77470614   -6.8326109    840.21552  0.024110868  0.023779655           13 
 2905000   0.78745619   -6.8299054    837.82687  0.024034047  0.023773232           11 
 2906000   0.78955879   -6.8150587    837.58781  0.024018921  0.023766829           16 
 2907000   0.78678089   -6.8287059    839.12167  0.024054629   0.02376042           12 
 2908000   0.80219568   -6.8189371    836.57441  0.023973361  0.023754003           17 
 2909000   0.78999622   -6.8213053    838.12131  0.024009434  0.023747594           13 
 2910000   0.78855509   -6.8241022      837.698  0.023989061  0.023741185           15 
 2911000   0.78322963   -6.8332761    836.81723  0.023955606  0.023734782           11 
 2912000   0.79727751    -6.852914    839.25664  0.024017189  0.023728364           18 
 2913000   0.79890142   -6.8341779    840.32039  0.024039375  0.023721944            8 
 2914000   0.78783778   -6.8608763    839.42631  0.024005557  0.023715536            9 
 2915000   0.77686916   -6.8499136    838.39192  0.023967751  0.023709119           13 
 2916000   0.78447886   -6.8310135       839.44  0.023989483  0.023702711           12 
 2917000   0.77577797   -6.8480214     838.0546  0.023941681  0.023696299           17 
 2918000   0.78970817   -6.8092904    839.13421  0.023964308  0.023689913           15 
 2919000   0.79214355   -6.8423892    839.52147  0.023967154  0.023683503           14 
 2920000   0.76504271   -6.8331582    838.48459  0.023929355  0.023677088           12 
 2921000   0.79507451    -6.832985    839.68953  0.023955538  0.023670649           20 
 2922000   0.78480308   -6.8405569    839.83243  0.023951415   0.02366422           12 
 2923000   0.78449367   -6.8192953    839.09311  0.023922144    0.0236578           20 
 2924000   0.77274138   -6.8346637    840.09433  0.023942497   0.02365139            7 
 2925000   0.79444403   -6.8504286    837.54478  0.023861675  0.023644998           29 
 2926000    0.7775425    -6.853789    841.56498  0.023968016  0.023638627           21 
 2927000   0.78487631   -6.8414145     842.2028  0.023977986  0.023632275            7 
 2928000   0.79603006   -6.8160147    842.95324  0.023991156  0.023625908            6 
 2929000   0.78162565   -6.8233925    839.60677  0.023887754  0.023619558           11 
 2930000   0.76719139   -6.8223783    841.18263  0.023924421  0.023613194           16 
 2931000   0.79046843   -6.8155383     840.8962  0.023908114  0.023606834           12 
 2932000   0.80685954   -6.8352268    841.31405  0.023911836  0.023600488           10 
 2933000   0.78491293   -6.8253842    843.17802  0.023956643  0.023594129            8 
 2934000   0.79617917   -6.8293803    841.45512  0.023899543  0.023587765           16 
 2935000   0.76505728   -6.8520394    840.66471  0.023868958  0.023581399           16 
 2936000   0.79530185     -6.81536    840.32796   0.02385127  0.023575021           20 
 2937000   0.77373445    -6.796125    840.69966  0.023853696   0.02356865           18 
 2938000   0.76892799   -6.8158803    842.38104  0.023893267  0.023562252           26 
 2939000   0.79251576   -6.8505678    839.62621  0.023807026   0.02355584           21 
 2940000    0.7806897   -6.8463561    841.11279  0.023841065  0.023549443           16 
 2941000   0.78699969   -6.8495617    840.23713  0.023808147  0.023543078            7 
 2942000   0.78582019   -6.8220315    840.31485  0.023802256   0.02353669            6 
 2943000   0.78698632   -6.8424177    840.03014  0.023786107   0.02353032            7 
 2944000   0.77714379   -6.8475297    841.33293  0.023814904   0.02352393           23 
 2945000   0.75420422    -6.848854    840.57451  0.023785357  0.023517548            8 
 2946000   0.77570191   -6.8358507     842.3638  0.023827897  0.023511174           18 
 2947000   0.77688518   -6.8532281    842.01047   0.02380982  0.023504768           14 
 2948000   0.78061843   -6.8480824    841.11348  0.023776387  0.023498402           20 
 2949000   0.78100077   -6.8485351    841.54758  0.023780592  0.023492009           29 
 2950000   0.78811613   -6.8713337    841.70296   0.02377692  0.023485616           29 
 2951000   0.78143995   -6.8458362    841.86352  0.023773397  0.023479187           34 
 2952000   0.77885683   -6.8425465    842.64673  0.023787453  0.023472805           48 
 2953000   0.78748635   -6.8417039    840.15064  0.023708958  0.023466434           36 
 2954000   0.77002932   -6.8495699    843.17732  0.023786316  0.023460049           22 
 2955000    0.7720533   -6.8365517     841.1248  0.023720384  0.023453676            8 
 2956000   0.78760671   -6.8467115     841.7694  0.023730531  0.023447332            9 
 2957000    0.7864436   -6.8159941     843.2297   0.02376366  0.023440962           18 
 2958000   0.80212814   -6.8351927    843.49463   0.02376309  0.023434628            9 
 2959000    0.7860603   -6.8293525    842.80525  0.023735644  0.023428279           12 
 2960000    0.7799056   -6.8261277    843.36942  0.023743508  0.023421949           24 
 2961000   0.77152706   -6.8352571    844.85572  0.023777319  0.023415651            9 
 2962000   0.77892887   -6.8422645    843.58785  0.023733622  0.023409324            9 
 2963000   0.78296314   -6.8377041    842.35148  0.023690839  0.023403024           10 
 2964000     0.772067   -6.8170413    844.09005  0.023731727  0.023396684           13 
 2965000   0.76471463   -6.8375393    844.09806  0.023723948  0.023390373           10 
 2966000   0.75997466   -6.8154732    845.40746  0.023752738  0.023384107           22 
 2967000   0.78491252   -6.8470031    843.76486  0.023698597  0.023377798           15 
 2968000   0.78865973   -6.8646742    841.65897  0.023631485  0.023371452           24 
 2969000   0.77942704   -6.8565231    844.43445  0.023701427  0.023365071           23 
 2970000   0.77853128   -6.8324273    844.90321  0.023706599  0.023358732           14 
 2971000   0.75433156   -6.8633989    842.88059  0.023641888  0.023352362           11 
 2972000   0.76697125   -6.8396356     843.0641  0.023639079  0.023345983           15 
 2973000   0.77763545   -6.8403972    843.29987  0.023637736  0.023339606           36 
 2974000   0.79020781   -6.8552943    844.44819  0.023661964  0.023333239           21 
 2975000   0.77402894   -6.8570149    843.69329  0.023632865  0.023326896           14 
 2976000   0.78409562    -6.852518    843.60626  0.023622487  0.023320527           27 
 2977000   0.77310241   -6.8602235    842.55547  0.023585138  0.023314135           25 
 2978000   0.77159598   -6.8506127    841.55018  0.023549087  0.023307767           29 
 2979000   0.77891919   -6.8334285    843.48465  0.023595296  0.023301418           18 
 2980000   0.77701137    -6.854067    843.28683  0.023581846  0.023295072           12 
 2981000   0.77680884   -6.8677914    843.33006  0.023575144  0.023288712           11 
 2982000   0.78784517   -6.8562213    844.86347   0.02361009  0.023282354           21 
 2983000   0.80196546   -6.8521805    844.01721  0.023578534  0.023276011            9 
 2984000   0.77158369   -6.8351715    842.86308  0.023538401   0.02326962            8 
 2985000    0.7640868   -6.8565441      843.553  0.023549777  0.023263287           20 
 2986000   0.76951193   -6.8525439    844.40247  0.023565597  0.023256909           14 
 2987000   0.75903951   -6.8569063    842.80072  0.023513021  0.023250551           25 
 2988000   0.77144812   -6.8602269    845.02822  0.023567275  0.023244208           14 
 2989000    0.7755911   -6.8164441    844.40286  0.023541955  0.023237885           23 
 2990000   0.76376497   -6.8524609    844.59468  0.023539428  0.023231529           33 
 2991000   0.77301286   -6.8878613    841.67837  0.023450306  0.023225179           48 
 2992000   0.75309046   -6.8859012     843.0086  0.023479518   0.02321877           38 
 2993000   0.78999194    -6.888955    844.37839  0.023509812  0.023212354           26 
 2994000   0.77440472   -6.8718913    842.26534  0.023443146  0.023205942           19 
 2995000   0.76801533    -6.862828     844.3774  0.023494085  0.023199565           15 
 2996000   0.79524889   -6.9033389     844.1667  0.023480382  0.023193148           16 
 2997000   0.77465009   -6.8810285    844.49468  0.023481667  0.023186747           20 
 2998000   0.77171955   -6.8898248    845.60538  0.023504708  0.023180353           31 
 2999000   0.77113777   -6.8764159    844.26949   0.02345975  0.023173985           23 
 3000000   0.77031647   -6.8822849    844.42666  0.023456296  0.023167607           59 
 3001000   0.77689401     -6.85222    845.91755   0.02348988  0.023161263           15 
 3002000   0.76053516   -6.8662177    845.84384  0.023480009  0.023154932           32 
 3003000   0.78005326   -6.8603971    845.73574   0.02346919    0.0231486           33 
 3004000   0.75996413   -6.8493394    847.61833  0.023513602  0.023142276            9 
 3005000   0.77963352   -6.8579113    847.13999  0.023492512  0.023135972           14 
 3006000   0.76850626   -6.8450537    845.19993  0.023430914  0.023129661            9 
 3007000   0.76982056   -6.8371489    846.44298  0.023457571  0.023123344           15 
 3008000   0.76804059   -6.8520368    846.82581  0.023460378  0.023117049           23 
 3009000   0.76616031   -6.8610648    846.79198  0.023451644  0.023110732           31 
 3010000    0.7667413   -6.8807824    846.99003  0.023449337  0.023104444           29 
 3011000   0.76644642   -6.8749889    844.50553  0.023372787  0.023098163           21 
 3012000   0.76459316   -6.8306564    847.94835   0.02346028  0.023091895           15 
 3013000   0.76457176   -6.8445541    847.88063   0.02345062  0.023085602           15 
 3014000   0.76921339   -6.8424614    847.24015  0.023425131  0.023079311           16 
 3015000   0.78653537   -6.8669288    847.27895  0.023418434  0.023073053           19 
 3016000   0.75257135   -6.8689668    847.60494  0.023419677  0.023066763           70 
 3017000   0.75637064   -6.8685632    847.65172  0.023413206  0.023060469           22 
 3018000   0.77476419   -6.8663858    846.96195  0.023386402  0.023054157           11 
 3019000   0.75826649   -6.8960577    846.35109  0.023361794  0.023047844           25 
 3020000   0.78212557    -6.895763    848.28332  0.023407376  0.023041538           14 
 3021000   0.77263993   -6.8785855    847.78766  0.023385955  0.023035261           22 
 3022000   0.76531449   -6.8568323    850.17659  0.023444093  0.023028992           16 
 3023000   0.76963155   -6.8501306    849.50686  0.023417876  0.023022755           18 
 3024000   0.76619498   -6.8579366    848.69122  0.023387655   0.02301649           12 
 3025000   0.76887818   -6.8766236    849.33721  0.023397719  0.023010253           17 
 3026000   0.77322613   -6.8898212    847.37677  0.023335998  0.023003994           10 
 3027000   0.75992922   -6.8609478    849.85718  0.023396575  0.022997745           12 
 3028000   0.77088332   -6.8548155    848.79986  0.023359749   0.02299152           12 
 3029000   0.76679527   -6.8571943    850.00443  0.023385177  0.022985278           12 
 3030000   0.80430558   -6.8623655    847.68616  0.023313701   0.02297907           14 
 3031000   0.78048743   -6.8760753    848.51023  0.023328666  0.022972829           10 
 3032000   0.77740496   -6.8539715    849.38161  0.023344921    0.0229666           22 
 3033000   0.77653962   -6.8928356    847.58745  0.023287929  0.022960337           25 
 3034000   0.75793687   -6.8829953    848.45614  0.023304113  0.022954058           10 
 3035000   0.77969144   -6.8327327    847.98549  0.023283512   0.02294779           10 
 3036000   0.76829088   -6.8534604    846.61574  0.023238245  0.022941496           18 
 3037000   0.77440547   -6.8846033    846.68572  0.023232514  0.022935184            9 
 3038000    0.7741268   -6.8945031    848.84714  0.023284154  0.022928888           16 
 3039000   0.76802196   -6.8851758     848.0492  0.023254612  0.022922623           21 
 3040000   0.75713402   -6.8880327     849.1296  0.023276579  0.022916367           11 
 3041000   0.77114759   -6.8645535    848.70099   0.02325718  0.022910103           18 
 3042000   0.74386636   -6.8634647    849.97715  0.023284493  0.022903853           18 
 3043000    0.7716697   -6.8602972    848.71716  0.023242336  0.022897567           14 
 3044000   0.77507076    -6.890182    848.57904   0.02323092  0.022891279           22 
 3045000   0.76882513   -6.8824665    848.95704  0.023233635  0.022884989           15 
 3046000   0.77963165   -6.8832355    849.95029  0.023253182  0.022878752            8 
 3047000   0.78207961   -6.8873334    849.50062  0.023233252  0.022872493           11 
 3048000   0.76395454   -6.8769641    848.74488  0.023204967  0.022866232           13 
 3049000    0.7671378   -6.8859556    848.02748  0.023177749  0.022859982           13 
 3050000   0.76740542   -6.8766374     848.9659   0.02319579  0.022853718           16 
 3051000   0.75773417   -6.8512086    850.78205  0.023237792  0.022847497           14 
 3052000   0.75335908   -6.8683767    848.72743  0.023174078  0.022841265           27 
 3053000   0.76144223    -6.894005     846.8346  0.023114822  0.022835013           20 
 3054000    0.7605344   -6.8654072    851.64762  0.023238584  0.022828774           19 
 3055000   0.77318667   -6.8700192    849.21077  0.023164506  0.022822582            8 
 3056000   0.78260562    -6.848489    850.13382  0.023182096  0.022816371           22 
 3057000   0.76559102    -6.910498    848.15063  0.023120451   0.02281015           19 
 3058000   0.75309423   -6.8636824    851.42856  0.023202217  0.022803934           12 
 3059000   0.77532751   -6.8648659    850.68694  0.023174429  0.022797724           15 
 3060000   0.75957531   -6.8628914    850.42226  0.023159648  0.022791478           16 
 3061000   0.76403689   -6.8812249    848.49819    0.0230997  0.022785262           18 
 3062000   0.76580524   -6.9044265    849.50343  0.023119514  0.022779026           23 
 3063000   0.76331618    -6.907409    851.40755  0.023163771  0.022772779           15 
 3064000   0.76315843   -6.8894946    851.18451  0.023150144  0.022766522            6 
 3065000   0.77868611   -6.8997431     848.7727  0.023077017  0.022760291           35 
 3066000   0.76201663   -6.8928839    850.21141  0.023108595  0.022754024           41 
 3067000   0.76574052   -6.8762989    848.74925  0.023061332  0.022747812           16 
 3068000   0.77794135   -6.8605146    850.24962  0.023094568  0.022741584           12 
 3069000     0.758513   -6.8871662    849.61796  0.023069891  0.022735364           20 
 3070000   0.79282317   -6.9025653    850.06647  0.023074551  0.022729113           17 
 3071000    0.7517637   -6.8839935    851.53483  0.023106882  0.022722878           22 
 3072000   0.76172579   -6.9018955    852.18034  0.023116871  0.022716651            7 
 3073000   0.77186719   -6.8871225    850.57979  0.023065945  0.022710454           13 
 3074000   0.78023585   -6.8907811    851.22843  0.023076026  0.022704253           12 
 3075000   0.76788134   -6.8987064    852.40746  0.023100473  0.022698022           20 
 3076000    0.7645567   -6.8869602    851.87455  0.023078526  0.022691793           12 
 3077000   0.77764382   -6.8918944    849.98392  0.023019822  0.022685566           11 
 3078000    0.7490256    -6.883407    851.46273  0.023052381  0.022679358           16 
 3079000   0.75890869    -6.891415    851.76744  0.023053141  0.022673142           19 
 3080000   0.76801883   -6.8878559    849.69639  0.022989621   0.02266688           24 
 3081000   0.75647025   -6.9110151    847.88863  0.022933264  0.022660616           20 
 3082000   0.76485743   -6.8849708    851.58626  0.023025802  0.022654363           16 
 3083000   0.75616607   -6.8792294    850.77264  0.022996341  0.022648136           21 
 3084000   0.76803834   -6.8848976    851.33673  0.023004127  0.022641922           24 
 3085000   0.74789804   -6.8907938     852.9839  0.023041164  0.022635692           25 
 3086000   0.75202226    -6.864347     852.2838  0.023014793  0.022629444           18 
 3087000   0.73859992   -6.9080288    850.92422  0.022970635   0.02262323           30 
 3088000   0.75628491    -6.877168    851.18813  0.022970319  0.022617009           18 
 3089000   0.76586299   -6.8552818    850.77726  0.022951798  0.022610812           20 
 3090000    0.7560005   -6.8880752    851.31973     0.022959  0.022604584           22 
 3091000   0.74722716   -6.8823405    849.98582   0.02291561  0.022598334           21 
 3092000   0.76544397   -6.9187242    850.48084  0.022921541  0.022592051           33 
 3093000   0.77076595   -6.9298445    850.53386  0.022915558  0.022585759           31 
 3094000   0.75650985   -6.8938436    852.07996  0.022949794  0.022579495           53 
 3095000   0.75504349   -6.9191399    850.13495  0.022890009   0.02257321           22 
 3096000   0.77260831   -6.8989447    853.19293  0.022964926  0.022566958           23 
 3097000   0.74710307   -6.8570021    852.91801  0.022950113  0.022560704           32 
 3098000   0.77257357   -6.8978171    851.64591  0.022908487  0.022554452           45 
 3099000   0.77353917   -6.8829587    853.51545  0.022951367  0.022548193           22 
 3100000   0.75923087   -6.8974206     851.9062  0.022900704   0.02254196           18 
 3101000   0.75310219   -6.9095108    850.74669   0.02286216  0.022535746           24 
 3102000   0.77035223   -6.8537022    852.68686  0.022906911  0.022529564           30 
 3103000   0.75744446   -6.9037724    852.35548   0.02289063  0.022523362           21 
 3104000   0.75117394   -6.8985836    851.96315  0.022872722  0.022517163           16 
 3105000   0.76904498   -6.8802179    850.39311  0.022823218  0.022510928           17 
 3106000   0.75241557   -6.8969772    852.16014  0.022863279  0.022504672           12 
 3107000   0.75159826   -6.9062582    852.75011  0.022871744  0.022498437            9 
 3108000   0.75064133   -6.8960518    849.90868  0.022788199  0.022492173            9 
 3109000   0.76341292   -6.8858905    853.19235  0.022868885  0.022485918           13 
 3110000   0.74585951   -6.8755221    849.91732  0.022773776  0.022479683           13 
 3111000   0.75105944    -6.902704    851.38147  0.022805675  0.022473409           15 
 3112000   0.74022452    -6.923695    852.50897  0.022828539  0.022467133           18 
 3113000   0.74928104   -6.8758445    852.21785  0.022813413  0.022460859           16 
 3114000    0.7645501   -6.8661582    853.35406  0.022836493  0.022454607           23 
 3115000   0.76485569   -6.9170537     852.0519  0.022794326  0.022448315           25 
 3116000   0.74941074   -6.8810956    851.93382  0.022783853  0.022442019           13 
 3117000   0.73390483   -6.8842909     852.6088  0.022794589  0.022435741           14 
 3118000   0.75017031   -6.8550763    851.22725  0.022750354  0.022429483           13 
 3119000   0.74875739   -6.9021201    852.03139  0.022764545  0.022423204           19 
 3120000   0.75840507   -6.8810709    851.83058  0.022751885   0.02241693           20 
 3121000   0.75380065   -6.8797374    853.43184   0.02278735   0.02241067           22 
 3122000    0.7413037   -6.8855728    851.69069  0.022733576  0.022404411           62 
 3123000   0.75240284   -6.8962586    853.38086  0.022771397  0.022398127           37 
 3124000   0.75052011   -6.8920746    851.58648  0.022716242  0.022391879           11 
 3125000   0.74062822    -6.916192    851.31263   0.02270167  0.022385599           37 
 3126000   0.73071564   -6.8941175    851.56862  0.022701232  0.022379307           41 
 3127000   0.74832859   -6.8979722     850.7177  0.022671296  0.022373013           20 
 3128000   0.75434308   -6.9170073    851.22401  0.022677537  0.022366717           23 
 3129000   0.76814052   -6.9321238    851.25757  0.022671183  0.022360401           17 
 3130000    0.7566521   -6.9197729    851.05138   0.02265845  0.022354108           12 
 3131000    0.7327711   -6.9358035    851.21877  0.022655668  0.022347811           35 
 3132000   0.74544894   -6.8898922    854.48169  0.022735251  0.022341533            9 
 3133000   0.75615007   -6.9262435    850.91884  0.022633228  0.022335239           15 
 3134000   0.74723249   -6.9178045    852.46002  0.022666986  0.022328939           12 
 3135000    0.7386051   -6.8976936    852.67795  0.022665549  0.022322658           23 
 3136000   0.74647857   -6.9134662    852.81729  0.022662024  0.022316378           26 
 3137000   0.74638565   -6.9010781    853.29729  0.022667551  0.022310122           15 
 3138000   0.72640383   -6.8969545    853.99762  0.022678925  0.022303849           34 
 3139000   0.74803246   -6.8883789    852.73697  0.022638233  0.022297587           48 
 3140000   0.75168703   -6.8496369    851.87358   0.02260811  0.022291352           36 
 3141000   0.76349025   -6.8983447    852.40415  0.022614989    0.0222851           72 
 3142000   0.74508661   -6.8980728    853.31658  0.022631991  0.022278847          103 
 3143000   0.74738585   -6.9221395    853.15761  0.022620575  0.022272562           50 
 3144000   0.74504922   -6.9559614    851.14375  0.022560002  0.022266235           95 
 3145000   0.77144453   -6.9438684    850.22978  0.022528611  0.022259893           95 
 3146000   0.74076494   -6.9555349    849.23454  0.022495087  0.022253527           94 
 3147000   0.75933962   -6.9004886    853.38695  0.022597896  0.022247226          137 
 3148000   0.74044854   -6.9440434     851.5571  0.022542278  0.022240915          143 
 3149000   0.75301645   -6.9209235    853.15238  0.022577336  0.022234579          202 
 3150000   0.73646638   -6.9375531     853.0727  0.022568061  0.022228252          138 
 3151000   0.74573808   -6.9331743    853.06788  0.022560771  0.022221945          116 
 3152000   0.75915134   -6.9698517    851.37868  0.022508954  0.022215639           64 
 3153000   0.73215827   -6.9155232    850.82924  0.022487294  0.022209319           76 
 3154000   0.76684076   -6.9446432    851.99499  0.022510965  0.022203015           78 
 3155000   0.72776072   -6.9165349    851.95991  0.022502903  0.022196701           69 
 3156000   0.74456788   -6.9333415    853.91316  0.022547348  0.022190412           87 
 3157000   0.74520393    -6.931062    854.13156  0.022545971   0.02218413           57 
 3158000   0.75917962   -6.9252282    853.81103  0.022530373  0.022177879           80 
 3159000   0.74015473     -6.91887    853.98466  0.022527822  0.022171621           79 
 3160000   0.71737607   -6.9127468    853.61041  0.022510823  0.022165352           41 
 3161000   0.74504914   -6.9385254    854.06567  0.022515704  0.022159083           47 
 3162000   0.74415781   -6.9300065    853.21507  0.022486166  0.022152836           51 
 3163000   0.73283811   -6.9300445     850.7279  0.022413529   0.02214657           45 
 3164000   0.74462462   -6.8932127    853.83924  0.022488391  0.022140326           55 
 3165000   0.74589207   -6.9227074    852.67659  0.022450674   0.02213407           43 
 3166000   0.74706231   -6.9267123    854.48434  0.022491165  0.022127848           38 
 3167000   0.72739231   -6.9192663    855.34805   0.02250679  0.022121619           28 
 3168000   0.74344856     -6.93259    853.51644  0.022451506  0.022115383           46 
 3169000     0.761672   -6.9151715    852.75635  0.022424433  0.022109174           72 
 3170000   0.74884623   -6.9461993    855.32642  0.022484922  0.022102973           61 
 3171000    0.7445908    -6.913629    855.60491  0.022485149  0.022096738           72 
 3172000   0.75689354   -6.9339194    853.54676   0.02242399  0.022090509           23 
 3173000   0.75848354   -6.9394249     854.5065  0.022442129  0.022084254           35 
 3174000   0.75402163   -6.9489395    854.16409  0.022426068  0.022078002           23 
 3175000   0.74292088    -6.952089    854.07781  0.022416741  0.022071761           20 
 3176000   0.74107759   -6.9466317    853.86721  0.022404156  0.022065516           74 
 3177000      0.74636   -6.9219758    853.72791  0.022393451  0.022059283           31 
 3178000   0.74549583   -6.9295324    853.30276  0.022375256   0.02205307           19 
 3179000   0.73379232   -6.9118475     853.6425  0.022377123  0.022046834           26 
 3180000   0.73995299   -6.9422872    854.61584  0.022395593  0.022040583           69 
 3181000   0.74215091   -6.9182877    853.69162  0.022364341  0.022034328           79 
 3182000   0.74033124   -6.9170365     855.1601   0.02239577  0.022028132           26 
 3183000   0.74484393   -6.9164758    853.41439   0.02234303    0.0220219           12 
 3184000   0.74884394   -6.9138723    855.84754  0.022399695  0.022015691           32 
 3185000   0.73012916   -6.9352741    853.76784  0.022338248  0.022009456           10 
 3186000   0.74423553   -6.9209152     856.2686  0.022396647  0.022003224           23 
 3187000   0.74376557   -6.9608978    854.47823  0.022342805   0.02199699           25 
 3188000   0.76515572    -6.919524    854.59496  0.022338848  0.021990764           30 
 3189000   0.73190817   -6.8954484    854.46916  0.022328555  0.021984534           28 
 3190000   0.73713573   -6.9403692    854.23357  0.022315402  0.021978302           79 
 3191000   0.73872374    -6.940061    854.05915  0.022303853  0.021972091           31 
 3192000   0.73889216   -6.9406412    855.34573  0.022330454  0.021965895           29 
 3193000   0.73728773   -6.9186619    855.75994  0.022334271  0.021959703           19 
 3194000   0.73821649    -6.947238    856.47587  0.022345958  0.021953504           30 
 3195000   0.74832985   -6.9327543    853.53915  0.022262367  0.021947299           35 
 3196000   0.75460153   -6.9451113    854.97886  0.022292941  0.021941101           41 
 3197000   0.73710417   -6.9350138    855.41636  0.022297371  0.021934885           15 
 3198000     0.731671    -6.933326    856.60303  0.022321321  0.021928703           25 
 3199000   0.72609671   -6.9520528    853.61053   0.02223639  0.021922502           24 
 3200000   0.73776927   -6.9259692    856.32182  0.022300047  0.021916298           15 
 3201000   0.73338769   -6.9619985     855.7963    0.0222794  0.021910074           12 
 3202000   0.73120613   -6.9228053    855.53488  0.022265638  0.021903878           18 
 3203000   0.76512023   -6.9055146    855.39071  0.022254936  0.021897695           17 
 3204000   0.74942795    -6.919819    855.21887   0.02224352  0.021891511           13 
 3205000   0.72275323   -6.9082142    855.69712  0.022249015  0.021885332           36 
 3206000   0.73152465   -6.9566197    855.44625  0.022235554  0.021879151           38 
 3207000   0.73154833    -6.924042    857.07133  0.022270848  0.021872974           57 
 3208000   0.74194708   -6.9332375    856.73062  0.022255056  0.021866817           26 
 3209000   0.72752829   -6.9503822    856.54302  0.022243249  0.021860627           87 
 3210000   0.73792745   -6.9097094     857.4218  0.022259133  0.021854451           35 
 3211000   0.72893842   -6.9323687    856.22609  0.022221169  0.021848273           36 
 3212000   0.74384831   -6.9363567    855.58023  0.022197495   0.02184211           59 
 3213000   0.73407282   -6.9151699    855.06539  0.022177233  0.021835937           54 
 3214000   0.72793684   -6.9339847    856.95144  0.022219235  0.021829769           48 
 3215000     0.742814   -6.9451805    855.41056  0.022172384  0.021823581           98 
 3216000    0.7416868   -6.9398627    856.28216  0.022188074  0.021817406           47 
 3217000   0.73180925   -6.8911762    853.99077  0.022121821    0.0218112           32 
 3218000   0.73710856   -6.9369082    856.15681  0.022171038  0.021805007           43 
 3219000   0.73123656    -6.954766    855.87605  0.022156882  0.021798836           67 
 3220000   0.74101059   -6.9099202    857.22566  0.022184929  0.021792682           20 
 3221000   0.73529929    -6.947771    854.43005  0.022105714  0.021786514           15 
 3222000   0.73934892    -6.904612    856.47099  0.022151639  0.021780348           22 
 3223000   0.73157049   -6.9474161     857.4166  0.022169216  0.021774173           44 
 3224000   0.73168186   -6.9448024    858.01565  0.022177824  0.021768012           69 
 3225000   0.75419614    -6.929492    856.82713  0.022140236  0.021761865           60 
 3226000   0.72651225   -6.9234343    856.43728  0.022123302   0.02175572           22 
 3227000   0.73765122   -6.9495018    858.79129  0.022177236  0.021749576           29 
 3228000   0.74811685   -6.9373702    860.45179  0.022213233  0.021743437           40 
 3229000   0.73314799   -6.9197318    858.69705  0.022161068  0.021737306           36 
 3230000   0.71690282   -6.9357016    857.58535  0.022125525  0.021731188           18 
 3231000    0.7317115   -6.9441535    859.23056   0.02216111  0.021725055           80 
 3232000   0.74672961   -6.9429052    858.84459  0.022144302   0.02171894           34 
 3233000   0.71820325   -6.9761019     857.8142  0.022110893  0.021712802           29 
 3234000    0.7324186   -6.9745095    857.70197  0.022101164  0.021706676           31 
 3235000   0.72942151   -6.9528922    857.64669  0.022092908  0.021700558           24 
 3236000   0.72577902   -6.9345321    858.32013  0.022103423  0.021694424           22 
 3237000   0.74193449   -6.9111083    857.39608  0.022072806  0.021688317           26 
 3238000   0.73560104   -6.9517628    857.94091  0.022080011  0.021682194           45 
 3239000    0.7187736   -6.9408642    860.13914   0.02212975  0.021676074           14 
 3240000   0.71574367   -6.9657895    857.86768  0.022064498  0.021669948           35 
 3241000   0.72886559    -6.940978    859.20378  0.022092044  0.021663831           23 
 3242000   0.72419158   -6.9564594    858.63325  0.022070565    0.0216577           20 
 3243000   0.71944649   -6.9601765    859.02295  0.022073773  0.021651612           26 
 3244000   0.74559827   -6.9525112    859.55284  0.022080581  0.021645514           42 
 3245000    0.7268486   -6.9298897    858.11521  0.022036857    0.0216394           17 
 3246000   0.73278923   -6.9559819    857.83312  0.022022826  0.021633308           22 
 3247000   0.73549961   -6.9127807    860.68737  0.022089297   0.02162723           13 
 3248000   0.74393249   -6.9281512    858.96054  0.022038191  0.021621151           18 
 3249000   0.72476766   -6.9363681    857.82153  0.022002194  0.021615064           24 
 3250000   0.73196221   -6.9464471    859.56719  0.022040184   0.02160896           26 
 3251000   0.73379616   -6.9358399    858.62081  0.022009146  0.021602843           25 
 3252000   0.72671215   -6.9439639    858.66633  0.022003545  0.021596744           11 
 3253000   0.73961914   -6.9347219    859.06508  0.022006996  0.021590626           15 
 3254000   0.74200224   -6.9452658    858.48779  0.021985448  0.021584521           40 
 3255000   0.73835521   -6.9539487    859.25618  0.021998366   0.02157842           44 
 3256000   0.73598523   -6.9345107    859.14354  0.021988727  0.021572325           54 
 3257000    0.7203798   -6.9397853    858.70101  0.021970653  0.021566243           66 
 3258000   0.72207311   -6.9491599    860.31547  0.022005204  0.021560168           60 
 3259000   0.73065691   -6.9390499    860.78907  0.022010562  0.021554114           51 
 3260000   0.71260741   -6.9132627    860.04801  0.021984867   0.02154808            7 
 3261000   0.72974834   -6.9689629    861.48646  0.022014885  0.021542027           23 
 3262000   0.73882033   -6.9675623    858.74581  0.021938121  0.021535949           27 
 3263000   0.72451721   -6.9600877    856.26554  0.021868054  0.021529837           29 
 3264000     0.730972   -6.9359278     858.6964  0.021923417  0.021523725           44 
 3265000   0.72729571   -6.9566147    861.43474  0.021986594  0.021517646           41 
 3266000   0.73586565   -6.9620858    858.68629  0.021909734  0.021511559           61 
 3267000   0.72786185   -6.9724625    860.57548  0.021951216  0.021505457           45 
 3268000   0.71125734   -6.9682811    859.81575  0.021925126   0.02149939           21 
 3269000   0.72699926   -6.9602471    860.73367  0.021941819  0.021493346           29 
 3270000   0.72475253   -6.9586535    859.52052  0.021904193  0.021487297           47 
 3271000   0.73103928   -6.9765013     860.4276  0.021920605  0.021481237           27 
 3272000   0.74094572   -6.9307742    861.67679  0.021945721  0.021475217           19 
 3273000    0.7333004    -6.952221    860.37497  0.021905871  0.021469197           40 
 3274000   0.73571389   -6.9571554    861.68335  0.021932482  0.021463162           43 
 3275000   0.72366739   -6.9498022    861.82251  0.021929326  0.021457139           40 
 3276000   0.70961985   -6.9374005     861.5272   0.02191512  0.021451127           49 
 3277000   0.72538231   -6.9738217    860.64133  0.021885905  0.021445116           42 
 3278000   0.72230994   -6.9506108    860.76359  0.021882337  0.021439085           30 
 3279000   0.70844873   -6.9404742     861.1136  0.021884558  0.021433061           30 
 3280000   0.73167131   -6.9650094    860.48954  0.021862031  0.021427027           11 
 3281000   0.73249376   -6.9487012    862.24864  0.021900047  0.021420986           17 
 3282000   0.70824334   -6.9562379    861.76851  0.021881183  0.021414967            9 
 3283000   0.72722586   -6.9614213    860.85819  0.021851411  0.021408933           64 
 3284000   0.73515817   -6.9615483    860.83962  0.021844286  0.021402924           21 
 3285000    0.7478895   -6.9409728    861.99935  0.021867056  0.021396939           33 
 3286000    0.7231113   -6.9505787      862.029  0.021861153  0.021390958            9 
 3287000   0.71794961    -6.944916      859.594  0.021792769  0.021384974           33 
 3288000   0.73714304   -6.9463665    861.97372  0.021846455  0.021378961           16 
 3289000   0.73288217    -6.978177    860.04617  0.021790974  0.021372934           16 
 3290000   0.72096703   -6.9654804    860.54555     0.021797  0.021366915           30 
 3291000   0.72575887   -6.9592662    860.49512    0.0217891  0.021360886           37 
 3292000   0.73017156    -6.991234    860.75258  0.021788998  0.021354845           15 
 3293000   0.72755014   -6.9686999     861.6974  0.021806291  0.021348814           22 
 3294000   0.71881102   -6.9833706    860.60591  0.021772058  0.021342777           34 
 3295000   0.72933759   -6.9627522    860.01834   0.02175059  0.021336785           35 
 3296000   0.74394879   -6.9510099    861.42403  0.021779531  0.021330796           22 
 3297000   0.72637143   -6.9619138    862.05538  0.021788883  0.021324822           38 
 3298000   0.73723893   -6.9481063    863.56205  0.021820347   0.02131881           18 
 3299000    0.7277877   -6.9505213    861.97895  0.021773743  0.021312793           26 
 3300000   0.72487114     -6.95815     862.7369  0.021786285  0.021306779           68 
 3301000   0.73830956   -6.9710963    861.74552  0.021754658  0.021300777           25 
 3302000   0.72952825   -6.9917063    862.02016  0.021755001   0.02129476           49 
 3303000   0.71954797   -6.9474829    861.38101  0.021732289  0.021288737           89 
 3304000   0.71772898   -6.9486806    861.47635  0.021728116  0.021282716           31 
 3305000   0.74372984   -6.9806365    862.16384  0.021738876  0.021276696           36 
 3306000    0.7194464   -6.9567906     863.5729  0.021767819  0.021270682           50 
 3307000   0.72688208   -6.9858104    861.82498   0.02171719  0.021264671           71 
 3308000   0.71454631    -6.980959    861.43923  0.021700908  0.021258668           31 
 3309000    0.7292025   -6.9561082    863.48527  0.021745877  0.021252665           60 
 3310000      0.73115   -6.9735414    862.33346  0.021710309  0.021246671           45 
 3311000   0.70817187   -6.9436813    863.12671  0.021723717  0.021240679           40 
 3312000   0.72630833   -6.9768268    862.89444  0.021711313  0.021234711           38 
 3313000    0.7128695   -6.9658891    860.47595  0.021643927  0.021228724           43 
 3314000   0.71672342   -6.9705566     863.1305  0.021704147  0.021222719           25 
 3315000   0.71072827   -6.9519432    860.91101  0.021641805   0.02121673           17 
 3316000   0.72051866   -6.9491432    861.82649  0.021658285  0.021210714           25 
 3317000   0.70516975   -6.9616805    861.25697  0.021637448   0.02120472           26 
 3318000     0.722371   -6.9801057    861.76664  0.021643727  0.021198717           40 
 3319000   0.72128314   -6.9549527    862.77203  0.021662449  0.021192715           23 
 3320000   0.72865395   -6.9748632    861.68256  0.021628578  0.021186698           32 
 3321000   0.71095666   -6.9927186      861.884   0.02162712  0.021180673           27 
 3322000   0.72797159   -6.9894889    863.52829  0.021661858  0.021174659           26 
 3323000   0.71437847   -6.9726715    860.50742  0.021579582  0.021168628           40 
 3324000   0.70714855   -6.9708467    860.23405  0.021566237  0.021162611           50 
 3325000   0.70857675   -6.9587476    862.13668  0.021607436  0.021156615           28 
 3326000   0.72832727   -6.9841311    861.75288  0.021591323  0.021150602           36 
 3327000   0.70126027   -6.9783998    861.99986  0.021591019  0.021144585           25 
 3328000   0.71455701   -6.9674897    861.61233  0.021574828  0.021138562           69 
 3329000   0.70039454   -6.9781285    860.85133  0.021549297  0.021132531           57 
 3330000   0.70807799   -6.9887646    862.42887  0.021582304  0.021126509           66 
 3331000   0.72439575    -6.986037    861.49135   0.02155237   0.02112049           50 
 3332000   0.70002686   -6.9874751    863.02794  0.021584332  0.021114483           35 
 3333000    0.6985171   -6.9501039    861.49636  0.021539563  0.021108478           50 
 3334000   0.71309636   -6.9461054    863.33622   0.02157909  0.021102482           50 
 3335000    0.7284928   -6.9979771    860.91088  0.021512016  0.021096464           67 
 3336000   0.72587527   -6.9669659    863.77454  0.021577102  0.021090472           66 
 3337000   0.70445639   -6.9676076    861.15419  0.021505199  0.021084489           45 
 3338000   0.71871435   -6.9687304    861.58076  0.021509406  0.021078475           16 
 3339000   0.72603338   -6.9529114    862.64142  0.021529436  0.021072478           18 
 3340000    0.7327051   -6.9502025    861.97437  0.021506346  0.021066484           29 
 3341000   0.71651887   -6.9631777    863.33175  0.021533766  0.021060474           27 
 3342000   0.72199325   -6.9884776     862.7622  0.021513121  0.021054473          100 
 3343000   0.72546427   -6.9672979    863.42156  0.021523122  0.021048479           84 
 3344000   0.70068237   -6.9477734    862.78491   0.02150082  0.021042501           68 
 3345000   0.71103979   -6.9753756    862.38864   0.02148452  0.021036528           63 
 3346000    0.7094096   -6.9754086    865.43646  0.021554006  0.021030547           43 
 3347000   0.71554998   -6.9670141    862.76541  0.021481063  0.021024579           25 
 3348000    0.7140508   -6.9856762     865.0448  0.021531382  0.021018599           61 
 3349000   0.71011657   -6.9758522    863.40574  0.021484168  0.021012601           96 
 3350000   0.71983176   -6.9946844    863.65162  0.021483871  0.021006616           57 
 3351000   0.70933781   -6.9942423    864.29313  0.021493413  0.021000623           83 
 3352000   0.72454523   -6.9872976    863.28499  0.021461938  0.020994631           84 
 3353000   0.70961654   -7.0084111    862.95713  0.021447389  0.020988641           62 
 3354000   0.71892835   -6.9810267    863.29372  0.021449357  0.020982645           52 
 3355000   0.71900653   -6.9914758    862.24572  0.021416933  0.020976646           68 
 3356000   0.71427328   -6.9891909     862.5824  0.021418911  0.020970633           56 
 3357000   0.72311143   -7.0136308    860.75073  0.021367062  0.020964615           32 
 3358000   0.70798941   -6.9813509    863.44143  0.021427472  0.020958604           25 
 3359000   0.72407177   -6.9744822    862.37775  0.021394704  0.020952626           50 
 3360000   0.72398679   -6.9977323     862.9093   0.02140152  0.020946637           38 
 3361000   0.72801696   -6.9790375    864.99254  0.021446805  0.020940695           23 
 3362000   0.72032761    -6.977751    864.67212  0.021432484  0.020934777           18 
 3363000   0.69302815   -6.9911393    864.91742  0.021432189  0.020928825           32 
 3364000   0.71065429   -6.9973814     862.2526  0.021359805  0.020922862           23 
 3365000   0.71265434   -7.0108727    862.52384  0.021360174  0.020916879           19 
 3366000   0.70388578    -7.013532    864.24131  0.021396348  0.020910896           31 
 3367000   0.71052697   -7.0311435    863.38079  0.021368696  0.020904911           28 
 3368000    0.7112895   -7.0024461    862.40614  0.021338236  0.020898933           58 
 3369000   0.72017432   -6.9666401    865.63851  0.021411856  0.020892973           90 
 3370000   0.72330683   -6.9993031    863.97869  0.021364458  0.020887006           89 
 3371000   0.71235225   -6.9848873     866.1945  0.021412897  0.020881043           79 
 3372000   0.70397092   -6.9630811    865.34315  0.021385507  0.020875092           71 
 3373000   0.71435919   -6.9861933    864.68629  0.021362938  0.020869162           67 
 3374000    0.7186819    -6.985721    863.48498  0.021326936  0.020863224           37 
 3375000   0.71820475   -6.9796309    864.94198  0.021356592  0.020857277           57 
 3376000   0.70850844   -6.9890058    864.48719   0.02133904   0.02085134           36 
 3377000   0.71164657   -6.9704874    866.29633  0.021377365  0.020845409           56 
 3378000   0.71552618   -6.9769006    863.59598   0.02130442  0.020839474           17 
 3379000   0.70406416   -6.9737092    864.12625  0.021311193  0.020833549           34 
 3380000   0.70472017   -6.9747728    863.61572  0.021292301  0.020827621           37 
 3381000   0.70549595   -6.9973732    866.05298  0.021346076  0.020821699           43 
 3382000   0.69426572   -6.9653212     863.2937  0.021271775  0.020815752           31 
 3383000   0.71117906   -6.9994899    863.12309  0.021261284  0.020809823           36 
 3384000   0.71859576   -6.9764322    865.13199  0.021304472  0.020803885           32 
 3385000   0.71095907   -6.9736338    864.06638  0.021271944  0.020797971           20 
 3386000   0.73260361   -6.9636279    866.86411  0.021334517  0.020792075           46 
 3387000   0.71323206   -6.9810895    862.50408  0.021220945  0.020786161           32 
 3388000   0.71453144   -6.9957795    864.69145  0.021268483  0.020780227           24 
 3389000    0.7036959    -6.981006    862.86774  0.021217363  0.020774297           29 
 3390000   0.71168164   -6.9769644    864.74521  0.021257257  0.020768378           94 
 3391000   0.71449799   -7.0076852    864.30581   0.02124019  0.020762454           48 
 3392000   0.69666454   -7.0018551    865.91969  0.021273577  0.020756528           66 
 3393000   0.71182219   -7.0033229    864.72108  0.021237869  0.020750602           95 
 3394000   0.72170626    -7.000782    865.61891  0.021253656  0.020744667          108 
 3395000   0.70255271   -6.9950044    864.83649  0.021228191  0.020738745          103 
 3396000   0.70471912   -6.9752941    866.26783  0.021257063  0.020732848           97 
 3397000   0.71627127   -6.9917249    864.11202   0.02119792  0.020726941           62 
 3398000    0.7113049   -7.0046361    865.14975  0.021217131  0.020721044          102 
 3399000   0.71827281   -6.9911054    865.05787  0.021208637  0.020715133           60 
 3400000   0.71968761   -7.0088032    866.35034  0.021234077  0.020709231          105 
 3401000   0.71285262    -6.985353    865.27999  0.021201607  0.020703315           68 
 3402000   0.70392458   -6.9952758    864.83756  0.021184538  0.020697409           87 
 3403000    0.7061205   -7.0043288    864.35601   0.02116652  0.020691488           88 
 3404000   0.70397421   -7.0082846     865.6844  0.021192822  0.020685578           85 
 3405000   0.71713986    -6.970961    865.76632  0.021188603   0.02067966           65 
 3406000   0.69858393   -7.0043224    863.20169  0.021119634  0.020673727           75 
 3407000   0.71005732   -6.9984922     863.3043  0.021115945  0.020667788           82 
 3408000   0.70740502    -6.999084    864.47399  0.021138351  0.020661857           61 
 3409000   0.72663463   -7.0019548    862.14947  0.021075327  0.020655928          141 
 3410000   0.71214452   -6.9986231    865.59715  0.021153401      0.02065           47 
 3411000   0.70825012   -7.0113421     865.9105  0.021154854  0.020644067           54 
 3412000   0.70389084   -7.0038481    862.87792  0.021074588  0.020638114           47 
 3413000   0.69588559   -6.9828262    864.71451  0.021113256  0.020632186           72 
 3414000   0.70868738   -7.0028265    863.27129  0.021071844  0.020626258           89 
 3415000   0.70999056   -7.0159628    865.18969  0.021112486  0.020620334           76 
 3416000    0.7091436    -7.006544    864.95251   0.02110052  0.020614388           31 
 3417000   0.69421309   -7.0136394    866.22716  0.021125431  0.020608451           43 
 3418000   0.69989435    -7.026494     861.7163  0.021009272  0.020602495           53 
 3419000   0.70303398   -7.0362245    863.95954  0.021057803  0.020596564           54 
 3420000   0.70680932   -7.0181677    864.97538  0.021076398  0.020590651           75 
 3421000   0.70793877   -6.9956039    866.92035  0.021117615   0.02058473           33 
 3422000   0.69309945   -6.9946585    865.93434  0.021087433  0.020578813           48 
 3423000    0.6995969   -7.0096353    866.37524  0.021092006  0.020572906           41 
 3424000   0.71250698   -7.0079601    866.13859  0.021080086  0.020567006           66 
 3425000   0.70287422   -6.9820548    865.62291  0.021061385  0.020561091           66 
 3426000   0.71273364   -7.0194016    863.81497  0.021011261  0.020555166           38 
 3427000   0.71070644   -6.9979453    864.63057  0.021024963   0.02054926          189 
 3428000   0.71102103   -6.9958191    865.56004  0.021041425  0.020543355           57 
 3429000   0.70167672   -7.0055277    865.12329  0.021024674   0.02053748           56 
 3430000   0.70800142   -7.0139895     866.1258  0.021042901   0.02053157           28 
 3431000    0.6964147   -7.0032594    867.40638  0.021067871  0.020525672           45 
 3432000   0.68640425   -7.0228664    866.53644  0.021040609  0.020519785           94 
 3433000   0.71059941   -6.9867054     865.9906   0.02102123  0.020513884           66 
 3434000   0.69621625   -7.0105421    865.29989  0.020998347  0.020507998           29 
 3435000   0.70552756   -7.0251196    866.19039  0.021013838  0.020502121           20 
 3436000   0.69249125   -7.0063053    865.90789   0.02100087  0.020496246           57 
 3437000   0.71121487   -6.9947877    868.11821  0.021048351  0.020490365           35 
 3438000    0.6946633   -6.9903041    865.98276  0.020990468  0.020484507           63 
 3439000   0.69398412   -7.0006388    867.40483  0.021018824  0.020478641          115 
 3440000    0.7056137    -6.995125    866.49108  0.020990578  0.020472776           82 
 3441000   0.69609586   -7.0234539    865.11966  0.020951266  0.020466908          142 
 3442000   0.70763401   -7.0348318    866.10448  0.020969022  0.020461011           96 
 3443000   0.70532006    -7.016971    866.59161  0.020974722  0.020455099          124 
 3444000   0.68801009   -6.9993646    866.37289  0.020963339  0.020449232           53 
 3445000    0.7094993    -7.032464    866.10841  0.020950857  0.020443365          108 
 3446000   0.68341513    -7.026346    867.45904  0.020977439  0.020437461          144 
 3447000   0.69772268   -7.0116095    865.55168  0.020925241  0.020431563          114 
 3448000   0.68488391   -7.0195235    864.37126  0.020890643  0.020425643          144 
 3449000   0.68862106   -7.0297202    866.17484  0.020928164  0.020419715          147 
 3450000   0.71301678    -7.025559    863.83127   0.02086549  0.020413792          147 
 3451000   0.67816187   -7.0499442    864.55352  0.020876884  0.020407884          101 
 3452000   0.69833767   -7.0299876    864.13764  0.020860797  0.020401959           86 
 3453000   0.70615131   -7.0126665    866.76352  0.020918127  0.020396049           29 
 3454000   0.70226045   -7.0118485    865.10443  0.020872043  0.020390165           65 
 3455000   0.72360112   -7.0309508    865.49136  0.020875334   0.02038429           41 
 3456000   0.69639524   -7.0224251    867.05742  0.020907056  0.020378431           36 
 3457000   0.69787411   -7.0110466    865.83074  0.020871438  0.020372581           51 
 3458000   0.71350495   -7.0244559    866.67279  0.020885695  0.020366714           32 
 3459000   0.69087327    -6.987989    866.64167  0.020878907  0.020360831           27 
 3460000   0.70474413   -7.0163042    866.67906  0.020873773  0.020354964           38 
 3461000   0.70274524   -7.0143291     868.2511  0.020905593  0.020349081           29 
 3462000   0.70832508   -7.0215923     866.3309  0.020853334  0.020343218           38 
 3463000     0.704733   -7.0060385    867.29479  0.020870507  0.020337358           56 
 3464000   0.69509794   -7.0027684    867.12432  0.020860381  0.020331504           31 
 3465000   0.69913021   -7.0147816    866.05994  0.020828762  0.020325646           34 
 3466000   0.70992135   -7.0144923    865.87048  0.020818198  0.020319796           16 
 3467000   0.69914177   -7.0301347    865.37438  0.020800269  0.020313907           14 
 3468000   0.70075271    -7.003304    866.96798  0.020832564  0.020308015           38 
 3469000   0.70174688    -7.030185    865.44675  0.020790015  0.020302145           57 
 3470000   0.71077353   -7.0014246    867.23899  0.020827065  0.020296286           59 
 3471000   0.69356632   -7.0212362    868.05006  0.020840537  0.020290458           90 
 3472000   0.69222428    -7.001377    866.75978  0.020803566  0.020284628           34 
 3473000   0.69418489   -7.0255551    868.10323  0.020829812   0.02027879           70 
 3474000    0.6907588   -7.0186214    868.83886  0.020841462  0.020272937           50 
 3475000    0.6883132   -7.0138719    866.73343  0.020784974  0.020267114           43 
 3476000   0.70541535   -7.0424341    866.34446   0.02076967  0.020261275           44 
 3477000   0.68661475   -7.0219336    865.98274  0.020755027  0.020255425           80 
 3478000   0.69011599   -7.0081538    867.88967   0.02079475  0.020249569           62 
 3479000   0.69424578   -7.0172579    867.14758  0.020770997  0.020243716           73 
 3480000   0.70463044   -7.0313211    866.69604  0.020754216  0.020237858           69 
 3481000   0.69050754   -7.0127131    866.31436  0.020739116  0.020232005           70 
 3482000   0.69357955   -7.0481862    866.67945  0.020741898  0.020226148           90 
 3483000   0.68760445   -7.0492428    866.44643  0.020730367  0.020220297          101 
 3484000   0.69183879   -7.0326472     866.5391  0.020726634   0.02021445           88 
 3485000    0.7001907   -7.0246239     867.7232     0.020749  0.020208606           48 
 3486000   0.69795975   -7.0337053    866.47478  0.020713205   0.02020276          178 
 3487000   0.70369488   -7.0154361    866.86659  0.020716628  0.020196927          174 
 3488000   0.67322712   -7.0191848    867.33455  0.020721869   0.02019112           94 
 3489000   0.70073826   -7.0249408    867.02661  0.020708575   0.02018528          113 
 3490000    0.6989546   -7.0313128    867.40974  0.020711789  0.020179458           55 
 3491000   0.68442323   -7.0270847    867.80352  0.020715256  0.020173606           54 
 3492000   0.69699721   -7.0171986    866.96869  0.020689402  0.020167776           55 
 3493000   0.70387592   -7.0240499    866.46448   0.02067145  0.020161947           50 
 3494000   0.69587359   -7.0091226    867.50202  0.020690279   0.02015615           77 
 3495000   0.68346918   -7.0281656    867.03303  0.020673177  0.020150337           63 
 3496000   0.70213035   -7.0244535    868.65401  0.020705902   0.02014453           61 
 3497000   0.70456859    -7.015686     869.2556  0.020714317  0.020138723           50 
 3498000   0.70579089   -7.0467023    867.58271  0.020668542  0.020132942           40 
 3499000   0.70765184   -6.9987678    867.82289  0.020668355  0.020127162           43 
 3500000    0.6917176   -7.0249016    870.59686  0.020728497  0.020121397           48 
 3501000    0.6876307    -7.005692    868.26323  0.020667029  0.020115626           63 
 3502000   0.70090315   -7.0229231    869.96304  0.020701576  0.020109851           44 
 3503000   0.70069234   -7.0304022    869.16152  0.020676599  0.020104097           52 
 3504000   0.70112667   -7.0314412    868.65633  0.020658684  0.020098333          123 
 3505000   0.69410529   -7.0186532    868.84483  0.020657271  0.020092575           78 
 3506000   0.68342932   -7.0270261    867.89695  0.020628849  0.020086802           46 
 3507000    0.7060079   -7.0212193    866.64903  0.020593314  0.020081016           66 
 3508000   0.70025683   -7.0294867    869.22909  0.020648734  0.020075244           80 
 3509000   0.68860633   -7.0349864    868.07737  0.020615497  0.020069476           53 
 3510000   0.69410022   -7.0154937    869.33402  0.020639459  0.020063698           60 
 3511000   0.69915031   -7.0403702    868.60644  0.020616312  0.020057907           27 
 3512000    0.6817859   -7.0271559    867.62291  0.020587104  0.020052124           35 
 3513000   0.68459624   -7.0290993    868.02248  0.020590722  0.020046364           31 
 3514000   0.67549553   -7.0308427    867.63863   0.02057576  0.020040605           80 
 3515000   0.68902925   -7.0298298    869.96728  0.020625113  0.020034827           57 
 3516000   0.67592173    -7.033283    868.42501  0.020582694  0.020029048           42 
 3517000   0.68641977    -7.051144    867.00692  0.020543241  0.020023245           47 
 3518000   0.67826198   -7.0159959     870.8495  0.020628423  0.020017472           29 
 3519000   0.69076659   -7.0218289    868.66907  0.020570926  0.020011683           28 
 3520000   0.68546535   -7.0246326     866.9329   0.02052398  0.020005885           49 
 3521000   0.68173521    -7.003072     868.6706  0.020559278  0.020000115           86 
 3522000   0.70591846   -7.0355208    869.90649  0.020582682  0.019994346           39 
 3523000    0.6832175   -7.0417553    868.84612  0.020551758  0.019988558           68 
 3524000    0.6881502   -7.0468799    869.93469  0.020571668  0.019982768           39 
 3525000   0.69630459   -7.0410956    867.61758  0.020511054  0.019976992           46 
 3526000   0.69329285   -7.0621216     867.7419  0.020508175  0.019971203           27 
 3527000   0.68391644   -7.0321138    868.36272  0.020517029  0.019965422           45 
 3528000   0.68818862   -7.0484809    869.65906  0.020541833  0.019959649           46 
 3529000   0.69266205   -7.0032794    870.26063  0.020550218  0.019953916           72 
 3530000   0.69227688   -7.0015282    870.81213  0.020557416  0.019948175           83 
 3531000   0.68519479   -7.0356804    869.15463  0.020512476  0.019942427           63 
 3532000    0.6819973   -7.0397773    869.52309  0.020515362  0.019936662           76 
 3533000   0.68772659   -7.0365556    870.22374  0.020526081  0.019930914           35 
 3534000   0.69322903   -7.0304192    870.12702  0.020517992  0.019925168           55 
 3535000   0.69546405   -7.0320146    870.05115    0.0205104  0.019919406           56 
 3536000   0.68435912   -7.0686362    869.47143  0.020490937  0.019913656          118 
 3537000   0.69445814   -7.0394776    870.84637  0.020517538  0.019907899           65 
 3538000   0.68284969   -7.0367124    869.45036  0.020478857  0.019902143           87 
 3539000   0.67763386   -7.0478618    867.84395  0.020435244  0.019896373           47 
 3540000   0.69065036   -7.0719011     866.9914  0.020409402  0.019890589           91 
 3541000   0.68391105   -7.0371903    870.42389  0.020484418  0.019884814           33 
 3542000   0.68860348    -7.035352    868.50614  0.020433515  0.019879036           45 
 3543000    0.6839769   -7.0641517    866.50847  0.020380762  0.019873244           71 
 3544000   0.67421732   -7.0428752    869.28123   0.02044021  0.019867455          172 
 3545000    0.6864646   -7.0495875    869.61776  0.020442354  0.019861671          145 
 3546000   0.67037849   -7.0571221    868.44623  0.020409058  0.019855889          210 
 3547000   0.68198375   -7.0382745     868.8663  0.020413173  0.019850099          177 
 3548000   0.69913542   -7.0710876    866.66668  0.020355756  0.019844306          153 
 3549000   0.69595276   -7.0598666    868.55013  0.020394246  0.019838515          159 
 3550000   0.67015958   -7.0827392    867.16968  0.020356096  0.019832728          162 
 3551000   0.67962886   -7.0705463    867.50791  0.020358301  0.019826923          160 
 3552000   0.68151946   -7.0539423    868.24393  0.020369837  0.019821105          236 
 3553000   0.65999351   -7.0770615    868.38692  0.020367458  0.019815286          267 
 3554000   0.67954397   -7.0717444    867.85896  0.020349347  0.019809487          312 
 3555000   0.68821891   -7.0868325    867.86638  0.020343797  0.019803665          310 
 3556000   0.67613026   -7.0602547    867.61622  0.020332214  0.019797857          301 
 3557000   0.67743662   -7.0719025    868.36772  0.020344104  0.019792051          206 
 3558000   0.68807623   -7.0846948    867.47594  0.020317499  0.019786238          373 
 3559000   0.68916231   -7.0880347    866.91427  0.020298639  0.019780418          420 
 3560000    0.6701327   -7.0468214    867.47331  0.020306023    0.0197746          336 
 3561000   0.69039524   -7.0832231    867.14487  0.020292635  0.019768792          394 
 3562000   0.67530936   -7.0559847    867.83683  0.020303126  0.019763001          306 
 3563000   0.68228887   -7.0706573    868.23895  0.020306833  0.019757197          344 
 3564000   0.68445236   -7.0671862    866.65504    0.0202641    0.0197514          445 
 3565000   0.67257154    -7.072646    868.87778  0.020310373  0.019745618          360 
 3566000   0.67288376   -7.0774374    870.56527  0.020344113  0.019739829          311 
 3567000   0.68802171   -7.0851576    868.26925  0.020284769   0.01973403          437 
 3568000   0.68489335   -7.0690634      866.913  0.020247408  0.019728238          452 
 3569000   0.68664777   -7.0756271     869.2646  0.020296642  0.019722438          390 
 3570000   0.68984501   -7.0624321    867.94611   0.02026018  0.019716648          427 
 3571000   0.67813819    -7.090459    867.89205  0.020253245  0.019710843          533 
 3572000    0.6899873   -7.0798342    866.58637  0.020217114  0.019705041          453 
 3573000   0.69060927   -7.1051656    866.87174  0.020218111  0.019699227          431 
 3574000   0.66979505   -7.0453097     868.9875  0.020261786  0.019693441          490 
 3575000    0.6786858   -7.0907597    868.69343  0.020249264   0.01968765          537 
 3576000   0.68843529   -7.1137342    867.89718  0.020225046  0.019681847          562 
 3577000   0.67043069   -7.0824722    867.60034  0.020212476  0.019676048          484 
 3578000   0.67491312   -7.0714284    866.79584   0.02018809  0.019670237          574 
 3579000   0.67917949   -7.1024891    867.62581  0.020201775  0.019664448          614 
 3580000   0.66596807   -7.1022255    866.30593  0.020165408   0.01965864          678 
 3581000   0.67153472   -7.0958993    865.70477  0.020145787  0.019652818          707 
 3582000   0.69073181   -7.0676754    868.39933  0.020202851  0.019647005          693 
 3583000   0.67213506    -7.073328    867.39283  0.020173803  0.019641209          653 
 3584000   0.67278659     -7.12093    866.34174  0.020143735  0.019635395          776 
 3585000   0.69091607   -7.0932805     866.4104  0.020139712  0.019629564          933 
 3586000   0.69502743   -7.1076911    866.94172  0.020146443  0.019623734          851 
 3587000   0.67403338   -7.1092621    869.05262  0.020189867  0.019617907          881 
 3588000   0.68282011   -7.1122067     866.3314  0.020121038  0.019612068          953 
 3589000   0.67027576   -7.1156245     868.4485  0.020164589  0.019606225         1048 
 3590000   0.67474672   -7.1230437     865.9154  0.020100172  0.019600366         1016 
 3591000   0.68798083   -7.1117635    868.39494  0.020152115  0.019594533         1031 
 3592000    0.6793171   -7.1203183    866.66756   0.02010643  0.019588698          965 
 3593000   0.66764329   -7.1061713    867.37244  0.020117182  0.019582866         1042 
 3594000   0.67298557   -7.1262043    865.53429  0.020068964  0.019577015         1155 
 3595000   0.67914599   -7.1547513     864.5401  0.020040336   0.01957115         1119 
 3596000   0.68195102   -7.1483658     866.0404  0.020069531  0.019565286         1201 
 3597000   0.65986217   -7.1551987    865.44291  0.020050109  0.019559422         1245 
 3598000   0.66243362   -7.1380882     863.3675  0.019996468  0.019553527         1281 
 3599000    0.6760956   -7.1489966    865.27574  0.020035096  0.019547636         1270 
 3600000   0.68585777   -7.1397252    863.74056  0.019993995  0.019541716         1386 
 3601000   0.67598771   -7.1257931    863.36358  0.019979718  0.019535789         1424 
 3602000   0.69343757   -7.1590315    863.73271  0.019982711  0.019529864         1483 
 3603000   0.67098961    -7.157822    863.64404  0.019975114  0.019523918         1644 
 3604000   0.67654037   -7.1580475    863.49266  0.019966071   0.01951797         1704 
 3605000   0.68012354   -7.1573233    862.93421  0.019947624  0.019512023         1770 
 3606000   0.68371483   -7.1952634    860.25575  0.019880194  0.019506047         1844 
 3607000   0.67342936   -7.2003161    860.58113    0.0198822  0.019500048         2044 
 3608000   0.67130661   -7.2314379    860.87174  0.019883401  0.019494016         2156 
 3609000    0.6611599    -7.214481    863.23677  0.019932501  0.019487973         2153 
 3610000   0.67285174   -7.2347774    859.59414  0.019842893  0.019481924         2303 
 3611000   0.67058798   -7.2427275    858.08572  0.019802587  0.019475862         2272 
 3612000   0.68401458   -7.2656656    858.39881  0.019804328  0.019469771         2391 
 3613000   0.68945927   -7.2587589    859.18044  0.019816875  0.019463677         2434 
 3614000   0.68022658   -7.2554093    859.49015  0.019818533  0.019457561         2529 
 3615000   0.66763081   -7.2621258    857.64355  0.019770483   0.01945144         2526 
 3616000   0.68117561   -7.2783356    856.80778  0.019745754  0.019445311         2647 
 3617000   0.67557853   -7.2892493    858.89121  0.019788296  0.019439155         2644 
 3618000   0.67943574   -7.2875195    858.78567  0.019780396  0.019433014         2727 
 3619000    0.6710554   -7.2956952    857.45526  0.019744295  0.019426849         2817 
 3620000   0.66541354   -7.3129511    855.34544  0.019690273  0.019420675         2973 
 3621000   0.68871699   -7.3312367    857.54552  0.019735467  0.019414483         3015 
 3622000   0.68642662   -7.3191307    858.01243  0.019740761  0.019408298         3014 
 3623000   0.66529462   -7.3027055    857.56516  0.019725024  0.019402097         3051 
 3624000   0.68687232   -7.3542607    858.20216  0.019734229  0.019395888         3176 
 3625000   0.68429873   -7.3424182    855.69876  0.019671236  0.019389664         3055 
 3626000   0.67706283   -7.3247912    855.33904  0.019657544  0.019383451         3144 
 3627000   0.66598352   -7.3435819    856.43704  0.019677351  0.019377235         3201 
 3628000   0.66977097   -7.3378072    856.03988  0.019662805  0.019371012         3169 
 3629000   0.67486766    -7.358263    855.39876  0.019642665  0.019364783         3155 
 3630000   0.67011178   -7.3600693    855.10816  0.019630582   0.01935856         3185 
 3631000   0.66061459   -7.3409468    856.61522  0.019659764  0.019352345         3208 
 3632000   0.68100743   -7.3404193    856.80318  0.019658663  0.019346134         3296 
 3633000   0.67230295   -7.3571351    855.94072  0.019633469  0.019339915         3295 
 3634000   0.66287467   -7.3598457    855.38882   0.01961541  0.019333703         3262 
 3635000   0.68053451   -7.3688359    856.73204  0.019640808  0.019327476         3265 
 3636000   0.67584968   -7.3550735    854.69135  0.019588636  0.019321245         3275 
 3637000   0.68092256   -7.3602326    855.37882  0.019599001  0.019315012         3335 
 3638000   0.65738266   -7.3709585    854.39393  0.019571054  0.019308777         3318 
 3639000   0.67170838   -7.3393004    854.71684   0.01957307  0.019302542         3268 
 3640000   0.66759491   -7.3781577    854.99305  0.019574017  0.019296306         3282 
 3641000   0.67538533   -7.3710731    855.41746  0.019578354  0.019290068         3263 
 3642000    0.6646169   -7.3654267    855.96955  0.019585611  0.019283828         3273 
 3643000   0.65693472   -7.3556176    854.87149  0.019555117  0.019277587         3331 
 3644000   0.66578464   -7.3718589    855.01265  0.019552979  0.019271353         3330 
 3645000    0.6762056   -7.3695751    854.14767  0.019527839  0.019265109         3334 
 3646000   0.66665108   -7.3714775    853.08453  0.019498184   0.01925886         3311 
 3647000    0.6577544   -7.3640877    853.51217  0.019502609  0.019252623         3367 
 3648000   0.66365612   -7.3851301    855.04006  0.019532165  0.019246386         3357 
 3649000   0.65705412   -7.4035816    855.66593  0.019541106  0.019240148         3340 
 3650000   0.65914318   -7.3781496    854.89719  0.019518201  0.019233909         3315 
 3651000   0.67403723   -7.3916701    854.98169  0.019514783   0.01922768         3312 
 3652000   0.65608117   -7.3825142    854.39874  0.019496138  0.019221428         3432 
 3653000   0.66168593   -7.4045455    854.74026  0.019498592  0.019215175         3370 
 3654000   0.68363691   -7.3829863    854.40871  0.019485694  0.019208926         3329 
 3655000   0.65387609   -7.3939597    852.87505  0.019445396  0.019202682         3377 
 3656000   0.66802714   -7.3852255    852.75767  0.019437401  0.019196426         3378 
 3657000   0.67019971   -7.3833329     853.2764  0.019443907  0.019190181         3408 
 3658000   0.69434987   -7.3937757    854.66329  0.019470186  0.019183933         3416 
 3659000   0.65360179   -7.3769267    854.45053  0.019460019   0.01917769         3372 
 3660000   0.67903256   -7.4037234    853.75095  0.019438774  0.019171434         3391 
 3661000   0.66632759   -7.3928157    853.48789  0.019427476  0.019165177         3383 
 3662000   0.66266612   -7.3657648    854.07147  0.019435451   0.01915892         3380 
 3663000   0.66845181   -7.3668321    853.23966  0.019411222  0.019152678         3372 
 3664000   0.67084411   -7.3950232    854.63862  0.019437742  0.019146439         3353 
 3665000   0.65935761   -7.3812621    853.33809  0.019402867   0.01914019         3341 
 3666000   0.67308544   -7.3861851    853.22765  0.019395064  0.019133948         3396 
 3667000   0.66833323   -7.3961155    853.30912  0.019391626  0.019127709         3319 
 3668000   0.66016569   -7.3792992    854.80883  0.019420411  0.019121468         3354 
 3669000   0.65751908   -7.3895259    851.55269  0.019341162  0.019115225         3386 
 3670000   0.66322258   -7.3823796    853.78022  0.019386472  0.019108988         3366 
 3671000   0.66853295   -7.3863063    854.97424  0.019408296  0.019102745         3402 
 3672000    0.6639069   -7.4144579    852.89182  0.019355751  0.019096509         3420 
 3673000   0.64475252   -7.3958605    852.52747  0.019342215  0.019090263         3361 
 3674000   0.66729446   -7.4244862      852.547  0.019337393  0.019084019         3444 
 3675000   0.65995987   -7.4176675    852.52585  0.019331652  0.019077778         3446 
 3676000   0.67072147    -7.410992    854.17293  0.019363732  0.019071534         3395 
 3677000   0.65576362   -7.4164787    852.95172  0.019330789  0.019065295         3469 
 3678000   0.67042105   -7.4029865    852.69378  0.019319689  0.019059055         3402 
 3679000   0.66036794   -7.3939633    853.49935  0.019332684  0.019052812         3436 
 3680000   0.66640395   -7.3968622    853.70546  0.019332098  0.019046572         3357 
 3681000   0.66619998   -7.4254412    852.81943  0.019306788  0.019040329         3422 
 3682000   0.66058658   -7.4036022    852.90007  0.019303369  0.019034098         3366 
 3683000   0.65334094   -7.4092513    851.93958  0.019276396  0.019027866         3390 
 3684000    0.6638423   -7.4090881    852.93741  0.019293734  0.019021632         3402 
 3685000   0.66572223   -7.3794796    853.80873  0.019308203  0.019015406         3415 
 3686000   0.65127379   -7.4020844    853.18031  0.019288757  0.019009174         3405 
 3687000   0.66952601   -7.4061958      853.969  0.019301352  0.019002947         3423 
 3688000   0.65855872    -7.442961    851.48052  0.019239889  0.018996723         3370 
 3689000   0.65490241   -7.4188715    852.28208   0.01925278  0.018990488         3366 
 3690000   0.64817763   -7.3938195    852.89461  0.019261396  0.018984264         3395 
 3691000   0.66475566   -7.4056767    851.97964   0.01923552  0.018978041         3427 
 3692000    0.6388696   -7.4108659    853.41104  0.019262618  0.018971815         3391 
 3693000   0.66631554   -7.4014506    853.88666  0.019268135   0.01896559         3377 
 3694000   0.64584841   -7.4412543    852.86975  0.019239978  0.018959367         3450 
 3695000   0.65740957   -7.4436404    852.32733  0.019222538  0.018953145         3413 
 3696000   0.67237867   -7.4331757    852.43132  0.019219682  0.018946919         3466 
 3697000   0.65656299   -7.4352164    855.25517  0.019278135  0.018940693         3396 
 3698000   0.65663696   -7.4301997    853.37939  0.019230652  0.018934469         3452 
 3699000   0.66545875   -7.4252992    853.29454  0.019223541  0.018928241         3436 
 3700000   0.67264264   -7.4370523    851.48183  0.019177519  0.018922008         3459 
 3701000   0.65122074   -7.4134329    852.87036  0.019203602  0.018915777         3443 
 3702000   0.66294354   -7.4333269       852.96  0.019200432  0.018909549         3438 
 3703000   0.65461457   -7.4416532    851.76555  0.019168367  0.018903325         3474 
 3704000   0.64569242   -7.4654617    852.41572   0.01917782  0.018897095         3427 
 3705000   0.66164401   -7.4220006    852.99546  0.019185683  0.018890872         3475 
 3706000   0.65553052   -7.4241336     852.7365  0.019174683  0.018884647         3482 
 3707000   0.64852247   -7.4501392    851.43871  0.019140336  0.018878418         3483 
 3708000   0.66198958   -7.4517718    853.30759  0.019177175  0.018872193         3414 
 3709000   0.66544408   -7.4298741     850.6584  0.019112483  0.018865975         3488 
 3710000   0.64977086   -7.4242857    852.40587  0.019146583   0.01885975         3494 
 3711000   0.66320789   -7.4377612    851.20585  0.019114476  0.018853531         3491 
 3712000   0.65934927   -7.4420584    850.34433  0.019089986  0.018847308         3448 
 3713000   0.68165222    -7.449364    853.47211  0.019155043  0.018841088         3493 
 3714000   0.64318235    -7.472199    851.91285    0.0191149  0.018834864         3476 
 3715000   0.64735675   -7.4493351    850.84675   0.01908584  0.018828638         3513 
 3716000   0.65361901   -7.4104935    851.69898  0.019099816   0.01882242         3452 
 3717000   0.65567282   -7.4494984    852.72113  0.019117593  0.018816206         3451 
 3718000   0.65795795   -7.4235902    853.52327   0.01913043  0.018809994         3461 
 3719000   0.65351239   -7.4365912    851.65151  0.019083345  0.018803773         3426 
 3720000   0.63587971   -7.4336656     851.0408  0.019064534  0.018797547         3421 
 3721000   0.65861954    -7.437197    852.73339  0.019097317  0.018791334         3469 
 3722000   0.66275582    -7.431268    851.74958  0.019070159  0.018785133         3442 
 3723000   0.65976173    -7.452932    852.49946  0.019081821  0.018778924         3416 
 3724000   0.64985314   -7.4465677    852.22795  0.019070622  0.018772715         3474 
 3725000   0.64733328   -7.4469658    852.27162  0.019066479  0.018766509         3459 
 3726000   0.66286975    -7.452721    851.14988  0.019036274  0.018760303         3470 
 3727000   0.65458963   -7.4232086    851.88119  0.019047518  0.018754112         3469 
 3728000   0.65060554   -7.4237429    851.96778  0.019044344  0.018747912         3453 
 3729000   0.64937871   -7.4334729    851.96675  0.019039214  0.018741714         3497 
 3730000   0.65906053    -7.437432     852.3374  0.019042391  0.018735512         3428 
 3731000   0.65811768   -7.4557616    851.49418  0.019018453  0.018729314         3423 
 3732000   0.65593347   -7.4549364    852.44614  0.019034614  0.018723124         3497 
 3733000    0.6515729   -7.4642155    851.56884   0.01900993  0.018716922         3445 
 3734000   0.64227303   -7.4414181    850.11677  0.018972433  0.018710729         3424 
 3735000   0.64429132    -7.436715    852.38257  0.019017907  0.018704534         3443 
 3736000   0.65112037   -7.4503767    852.85336  0.019023317  0.018698346         3430 
 3737000   0.66183346   -7.4507204    850.57569  0.018967436  0.018692163         3471 
 3738000   0.64311564    -7.439781    850.80737  0.018967527   0.01868598         3458 
 3739000    0.6510317   -7.4595061    849.61444  0.018935866  0.018679786         3483 
 3740000   0.66608195   -7.4401962    850.55582  0.018951778  0.018673589         3463 
 3741000   0.66336058   -7.4456438    850.98937   0.01895637  0.018667405         3482 
 3742000    0.6387642   -7.4341319    850.34348  0.018936921  0.018661215         3478 
 3743000   0.66607408    -7.455642    851.16839  0.018950227  0.018655035         3428 
 3744000    0.6502149   -7.4573466    850.02577  0.018919733  0.018648851         3462 
 3745000   0.64890611    -7.439084    850.19826  0.018918519  0.018642659         3479 
 3746000   0.64852168   -7.4634862    850.71507  0.018924966  0.018636478         3464 
 3747000   0.65773693   -7.4407439    850.49237  0.018914962  0.018630294         3440 
 3748000   0.65396983   -7.4509987    851.67386  0.018936185  0.018624115         3491 
 3749000   0.66330387   -7.4726335    850.17179  0.018897746  0.018617938         3484 
 3750000   0.64824117   -7.4514638     850.5807  0.018901793   0.01861176         3497 
 3751000    0.6422507   -7.4520598     851.3301  0.018913403  0.018605585         3471 
 3752000   0.67001772   -7.4416209    850.37073  0.018887054  0.018599402         3462 
 3753000   0.66395829   -7.4632846    849.76049  0.018868472  0.018593229         3457 
 3754000    0.6605258   -7.4492972    850.02905  0.018869407  0.018587055         3455 
 3755000   0.63368441   -7.4486963    850.43345  0.018873357  0.018580885         3470 
 3756000   0.65272037   -7.4514948    851.35343  0.018888743  0.018574711         3446 
 3757000   0.65692577   -7.4649159    851.88916  0.018895598  0.018568542         3465 
 3758000   0.64420123   -7.4498529    851.33019  0.018878175  0.018562373         3448 
 3759000    0.6477986   -7.4617246    851.17133  0.018869631  0.018556206         3438 
 3760000   0.64338324   -7.4480576    850.81342   0.01885668  0.018550034         3446 
 3761000   0.64555555   -7.4616758    851.05758  0.018857077  0.018543871         3468 
 3762000   0.64829425   -7.4621653    849.64671  0.018820811  0.018537711         3487 
 3763000   0.63946857   -7.4580996    849.92302  0.018821929  0.018531551         3491 
 3764000   0.64318401   -7.4562586    850.84264  0.018837288  0.018525395         3457 
 3765000   0.64349759   -7.4513695    850.56909   0.01882623  0.018519248         3513 
 3766000   0.64615443   -7.4632226    851.30927   0.01883761  0.018513099         3461 
 3767000   0.65418242   -7.4739597    851.00143  0.018825799  0.018506945         3433 
 3768000   0.64819995   -7.4495837    850.50879  0.018809908  0.018500788         3462 
 3769000   0.65222956   -7.4356889    851.58184  0.018828643  0.018494641         3415 
 3770000    0.6462098   -7.4591836     851.1302  0.018813665  0.018488501         3418 
 3771000   0.65520356   -7.4452407    850.60868  0.018797151  0.018482348         3478 
 3772000   0.64164886   -7.4464247    850.36748  0.018786839  0.018476205         3416 
 3773000   0.64928088    -7.459896    852.14773   0.01882118  0.018470064         3472 
 3774000   0.65643483   -7.4499827    849.95423  0.018767758   0.01846392         3449 
 3775000   0.64136053   -7.4509285    849.32262  0.018748844  0.018457786         3477 
 3776000   0.65644391   -7.4370323    850.56328  0.018771259  0.018451653         3457 
 3777000     0.654068   -7.4628274    851.25078  0.018781457  0.018445522         3454 
 3778000   0.65988054    -7.434547    851.82446   0.01878914  0.018439384         3479 
 3779000   0.65400489    -7.464978    850.45592   0.01875399   0.01843325         3495 
 3780000   0.62922276   -7.4467853    850.38805  0.018747532  0.018427117         3474 
 3781000   0.63315172   -7.4458929    850.10153  0.018736259  0.018420979         3516 
 3782000   0.63012712   -7.4487513    849.52875  0.018718684  0.018414845         3524 
 3783000   0.62754365   -7.4608634    850.88232  0.018743553   0.01840872         3520 
 3784000   0.64183257   -7.4643373    849.51381  0.018708461  0.018402593         3476 
 3785000   0.66094681   -7.4693817    850.78833  0.018731579  0.018396464         3446 
 3786000   0.65123832   -7.4535813    849.31498  0.018694202  0.018390337         3466 
 3787000   0.64768654   -7.4660806    851.91192  0.018746411  0.018384217         3457 
 3788000   0.64562977    -7.457755    849.77489  0.018694449  0.018378093         3486 
 3789000   0.64702779   -7.4669491    850.69338  0.018709716  0.018371964         3420 
 3790000   0.63210663   -7.4754661      850.308  0.018696306  0.018365833         3496 
 3791000   0.63863529   -7.4737956     849.3554  0.018670434  0.018359704         3527 
 3792000   0.64551009   -7.4291864    850.84579  0.018698264  0.018353579         3481 
 3793000   0.65120346   -7.4444151    850.72461  0.018690672  0.018347455         3486 
 3794000   0.64998111    -7.477844    849.77866  0.018664968   0.01834133         3503 
 3795000   0.63320708   -7.4584801    852.43589  0.018718399  0.018335209         3474 
 3796000   0.63694123   -7.4620005    850.31474  0.018666902  0.018329089         3482 
 3797000   0.65097213    -7.448127    849.71749  0.018648878  0.018322968         3473 
 3798000    0.6487569   -7.4678791    849.40257  0.018637058  0.018316847         3465 
 3799000   0.64941888    -7.473477    850.79426   0.01866268  0.018310734         3429 
 3800000    0.6447759   -7.4749922     850.6079  0.018653682  0.018304622         3483 
 3801000   0.65796907    -7.464227    849.15381  0.018616895  0.018298507         3480 
 3802000   0.63946773   -7.4507165    850.69461   0.01864577    0.0182924         3483 
 3803000    0.6361955   -7.4609998     851.2716   0.01865351    0.0182863         3502 
 3804000   0.65317267   -7.4816704    850.96051  0.018641792  0.018280196         3482 
 3805000   0.64407484   -7.4718725    850.15009  0.018619143  0.018274095         3488 
 3806000   0.62817907   -7.4672583    850.59285  0.018623946  0.018267996         3515 
 3807000   0.62400545    -7.491536    850.44477  0.018615812  0.018261897         3533 
 3808000   0.65018674   -7.4881416    850.41083  0.018610181  0.018255804         3524 
 3809000   0.64731151    -7.476604    850.35274  0.018604024  0.018249715         3520 
 3810000   0.64555556   -7.4756945     851.4674  0.018623521  0.018243633         3482 
 3811000   0.65052576   -7.4949449    848.32392  0.018549898  0.018237536         3525 
 3812000   0.64181959    -7.476458    850.99289  0.018603377  0.018231446         3527 
 3813000   0.62703579     -7.44268    850.63879  0.018590759  0.018225352         3503 
 3814000    0.6252086   -7.4509779    850.85157  0.018590534  0.018219271         3489 
 3815000   0.65054648   -7.4854419     851.0687  0.018590404  0.018213182         3513 
 3816000    0.6389264   -7.4738074    851.65697  0.018598379  0.018207088         3492 
 3817000   0.65998962   -7.4766885    851.16403  0.018582745  0.018201002         3447 
 3818000   0.63930025   -7.4871558    849.86097  0.018549436  0.018194918         3498 
 3819000   0.63794468   -7.4569616    850.68427  0.018562544  0.018188826         3501 
 3820000   0.63319697   -7.4865802    850.71313  0.018558314   0.01818274         3539 
 3821000   0.65353365   -7.4737788     850.0298  0.018538555  0.018176643         3510 
 3822000   0.64852144   -7.4906742    851.36809  0.018562884  0.018170556         3500 
 3823000   0.64990558   -7.4710122     849.2403  0.018511647  0.018164474         3448 
 3824000    0.6532883   -7.4958667    849.45274  0.018511435  0.018158397         3470 
 3825000    0.6547991   -7.4831918    849.33921  0.018504122  0.018152313         3459 
 3826000   0.63656053   -7.4704792     849.7364  0.018507937  0.018146237         3496 
 3827000   0.63668104   -7.4733128    848.68287   0.01848016  0.018140158         3528 
 3828000   0.64410029   -7.4976975     848.9093  0.018480262  0.018134081         3517 
 3829000   0.64808898    -7.476346    850.52673  0.018510637  0.018128005         3433 
 3830000   0.64909818   -7.4701375    848.74392  0.018467013  0.018121929         3465 
 3831000   0.64835494   -7.4882885    849.10633  0.018470076  0.018115858         3464 
 3832000   0.63127506   -7.4675353    848.78193  0.018458201  0.018109784         3432 
 3833000   0.64136294   -7.4835192    848.83047  0.018454441  0.018103715         3477 
 3834000   0.65615965   -7.4829388     849.4918  0.018464002  0.018097642         3489 
 3835000   0.65545795   -7.4785128    849.60705  0.018461692  0.018091576         3492 
 3836000   0.65303736   -7.4927932    849.91881  0.018463652  0.018085508         3512 
 3837000   0.64652432   -7.4900678    850.80617  0.018478112  0.018079442         3487 
 3838000    0.6394851   -7.4953367    849.60551  0.018447228  0.018073376         3524 
 3839000   0.63235369    -7.488292     849.9508  0.018449917  0.018067317         3517 
 3840000   0.63938041    -7.486638     850.3127  0.018452967  0.018061256         3483 
 3841000   0.63676437   -7.4907402    848.96723  0.018418971  0.018055197         3483 
 3842000   0.62863004   -7.4699683    849.68693  0.018429788  0.018049143         3473 
 3843000   0.62189269   -7.4761355    849.34407  0.018417557  0.018043088         3529 
 3844000   0.63952734   -7.4970884    849.46769  0.018415446  0.018037039         3498 
 3845000   0.64778658   -7.4705168       849.08  0.018402254  0.018030984         3476 
 3846000   0.63931496    -7.497658    847.92802  0.018372509  0.018024926         3514 
 3847000   0.64399133   -7.5024356    846.88346  0.018345106  0.018018861         3515 
 3848000   0.63908585   -7.5006205    848.57047  0.018376873  0.018012806         3487 
 3849000   0.63716675   -7.4845026    849.53336  0.018392945  0.018006754         3479 
 3850000   0.63964373   -7.4886813    849.88102  0.018395693  0.018000702         3531 
 3851000   0.63352378   -7.5241196      849.591   0.01838464  0.017994651         3530 
 3852000   0.64015705    -7.507878    848.55901  0.018357542    0.0179886         3519 
 3853000   0.63872423   -7.4689098    846.27401  0.018303357  0.017982551         3533 
 3854000   0.63968275   -7.5013629    848.66897  0.018350393  0.017976507         3531 
 3855000   0.62843387   -7.5038177    848.71561  0.018346641  0.017970458         3536 
 3856000    0.6496718   -7.4781223    847.59512  0.018317668  0.017964415         3487 
 3857000   0.63343078   -7.4996909    848.26874  0.018327472  0.017958379         3519 
 3858000   0.64123871    -7.515909     849.7972  0.018355737   0.01795233         3498 
 3859000   0.61991855   -7.5211028    849.71948  0.018349302  0.017946292         3544 
 3860000   0.64167366   -7.4754028     848.6501  0.018321462  0.017940249         3555 
 3861000   0.62779575    -7.511338    849.55866  0.018336326  0.017934208         3518 
 3862000   0.62968598   -7.4978733    848.80091  0.018315228  0.017928168         3494 
 3863000   0.63055952   -7.4921509    849.00705  0.018314933  0.017922136         3537 
 3864000   0.63245001   -7.4853093      847.822  0.018284636  0.017916101         3519 
 3865000   0.63454158    -7.496131    846.83338   0.01825859  0.017910072         3532 
 3866000   0.64402816    -7.512889     848.8602  0.018297556  0.017904044         3531 
 3867000   0.63080296    -7.504326    847.61506  0.018265991  0.017898009         3534 
 3868000    0.6239658    -7.490761    846.67997  0.018241123  0.017891984         3490 
 3869000     0.620124   -7.4793244    848.84986  0.018283145  0.017885959         3479 
 3870000   0.63545824   -7.4952353    848.55572  0.018272087  0.017879942         3533 
 3871000   0.63700516   -7.4903103    848.51149  0.018266415  0.017873928         3494 
 3872000   0.61126491   -7.4963205    849.97752  0.018293249  0.017867915         3521 
 3873000   0.63297811   -7.4967208    847.49796  0.018235174   0.01786191         3532 
 3874000      0.63227   -7.4833531     848.1547  0.018244594  0.017855891         3508 
 3875000   0.62627284   -7.5035094    847.62295   0.01822845  0.017849883         3508 
 3876000   0.62893412   -7.4923448    848.93027  0.018251855  0.017843873         3507 
 3877000   0.63554566   -7.4893234    848.57574  0.018239527  0.017837863         3525 
 3878000   0.64063054   -7.5106613    848.99754  0.018243887  0.017831851         3521 
 3879000   0.62230729   -7.4991277    848.67882  0.018232337   0.01782584         3509 
 3880000   0.63804155   -7.4751986    846.07993   0.01817182  0.017819825         3514 
 3881000   0.61391777   -7.4795341    848.21577  0.018212999  0.017813824         3495 
 3882000    0.6241834   -7.5073638    849.70945  0.018240371  0.017807819         3512 
 3883000     0.646756     -7.50503    848.45058  0.018208657   0.01780182         3525 
 3884000   0.63912289   -7.5068707    849.11456  0.018218215  0.017795827         3482 
 3885000   0.64489632   -7.5007199    848.35994  0.018197339  0.017789827         3494 
 3886000    0.6339219   -7.5103901    849.85794   0.01822478   0.01778383         3525 
 3887000   0.61781118   -7.5152333    848.45882  0.018190096   0.01777784         3502 
 3888000   0.63599885   -7.5130154    847.68572  0.018168847  0.017771849         3532 
 3889000   0.63571758   -7.5156875    848.96122  0.018191506  0.017765863         3515 
 3890000   0.63513013   -7.5017507    846.00601  0.018123522  0.017759873         3528 
 3891000   0.62068379   -7.4989785    847.47882  0.018150407  0.017753888         3539 
 3892000   0.62277473   -7.4998921    847.52852  0.018146808  0.017747895         3515 
 3893000   0.63348124    -7.515788    846.51636   0.01812048  0.017741912         3536 
 3894000   0.62584635   -7.5002448    848.26523  0.018153253  0.017735929         3521 
 3895000   0.60979973   -7.5014008    849.37533  0.018172343  0.017729951         3538 
 3896000   0.63095935   -7.4994751    849.18525  0.018163613  0.017723972         3527 
 3897000   0.63695083   -7.4998966    847.77548  0.018128806  0.017717998         3534 
 3898000   0.61984129   -7.5141942    848.49588  0.018139556  0.017712025         3527 
 3899000   0.62048098    -7.503274    847.53023  0.018114265  0.017706056         3524 
 3900000   0.64340579   -7.5016905    847.22348  0.018103066  0.017700088         3517 
 3901000   0.63487456   -7.4870161    847.57474  0.018105929  0.017694116         3496 
 3902000   0.62245785   -7.5157362    847.97147  0.018109762  0.017688147         3551 
 3903000    0.6272645   -7.5101804    847.66332  0.018098542  0.017682178         3526 
 3904000   0.64159204   -7.5108535    848.93962   0.01812115  0.017676211         3519 
 3905000   0.61677924   -7.5014172     847.7598  0.018091332  0.017670246         3522 
 3906000   0.62451758   -7.5174471    849.03857  0.018113982  0.017664281         3536 
 3907000   0.61625714   -7.5047879    849.39738  0.018116999  0.017658323         3522 
 3908000   0.62779483    -7.521022    848.99209  0.018103721  0.017652369         3546 
 3909000   0.62676726   -7.5096031    847.49675  0.018067211  0.017646413         3528 
 3910000   0.62509117   -7.5230536    848.14502  0.018076407  0.017640462         3490 
 3911000   0.63151463    -7.540013    848.65178  0.018082583  0.017634513         3544 
 3912000   0.62030395    -7.507904    846.19284   0.01802558  0.017628568         3555 
 3913000   0.62273893   -7.5209465    846.00902  0.018017059  0.017622619         3503 
 3914000   0.63191457   -7.5169608    847.41031  0.018042291  0.017616668         3553 
 3915000   0.63683477   -7.5260131    848.61846  0.018063399  0.017610717         3486 
 3916000   0.62515037   -7.5096174    848.15954   0.01804902  0.017604769         3525 
 3917000   0.62773403   -7.5025441    847.82995    0.0180374  0.017598828         3555 
 3918000   0.61291406   -7.5059332    849.05566  0.018058866  0.017592887         3557 
 3919000   0.63388018   -7.5111674     847.7034  0.018025504  0.017586945         3538 
 3920000   0.62815069   -7.4888343    846.80734  0.018001857  0.017581004         3528 
 3921000   0.61289551   -7.5191676    847.36407  0.018009098  0.017575064         3555 
 3922000   0.63300191   -7.5022184    848.73204  0.018033572  0.017569129         3515 
 3923000   0.62469965   -7.5123703    847.40328  0.018000749  0.017563196         3534 
 3924000   0.63318905   -7.5362617    848.42755  0.018017914  0.017557265         3557 
 3925000   0.63562471   -7.5277507    846.88171  0.017980503  0.017551334         3537 
 3926000   0.62088818   -7.5181389    847.43235  0.017987611  0.017545406         3531 
 3927000   0.61937632   -7.5167295    848.82339   0.01801255  0.017539482         3533 
 3928000   0.63059696   -7.5293133    847.23636  0.017974295  0.017533559         3504 
 3929000   0.62473525    -7.541888      847.397  0.017973127  0.017527634         3540 
 3930000   0.62003483   -7.5373393    848.19951  0.017985571  0.017521718         3547 
 3931000   0.61997013   -7.5040457    846.59588     0.017947  0.017515801         3500 
 3932000   0.62015848   -7.5291076    848.26296  0.017977767  0.017509888         3512 
 3933000   0.60895697   -7.5079943     847.9257   0.01796605  0.017503972         3523 
 3934000   0.63536294   -7.5348218    848.28102   0.01796901  0.017498063         3498 
 3935000   0.63329406   -7.5204143    847.20943   0.01794175  0.017492148         3533 
 3936000   0.63388317   -7.5356993    847.85052  0.017950765  0.017486236         3531 
 3937000    0.6370323   -7.5187086     847.4883  0.017938538  0.017480325         3538 
 3938000   0.61137121   -7.5091176    846.82917  0.017920035  0.017474418         3526 
 3939000   0.63184804    -7.520622    848.37019  0.017948087  0.017468521         3539 
 3940000   0.63771059   -7.5162428    847.05276  0.017915668  0.017462623         3511 
 3941000    0.6111696   -7.5199563    847.45852  0.017919701  0.017456728         3520 
 3942000   0.62557941   -7.5307621    846.44547   0.01789374  0.017450828         3545 
 3943000   0.62632531   -7.5355207    846.94734  0.017899809  0.017444932         3544 
 3944000   0.61800715     -7.52927    847.15936   0.01789975  0.017439036         3552 
 3945000    0.6289789   -7.5187658      847.673  0.017906062  0.017433142         3541 
 3946000   0.61692373   -7.5196576    846.30013  0.017872532  0.017427254         3516 
 3947000   0.61784811   -7.5062919    848.29324  0.017910084  0.017421364         3548 
 3948000   0.61723395   -7.5274089    846.87392  0.017875589  0.017415474         3523 
 3949000   0.60716599   -7.5288913    847.01707  0.017874084  0.017409593         3536 
 3950000   0.61786379   -7.5285539    846.91359  0.017867375   0.01740371         3525 
 3951000   0.60088777   -7.5421709    846.86757  0.017861882  0.017397827         3544 
 3952000   0.62229774   -7.5057287    847.66546  0.017874187  0.017391948         3506 
 3953000   0.60745077   -7.5314845    846.54432  0.017846031   0.01738607         3543 
 3954000   0.62429936   -7.5218138    848.42775  0.017881212  0.017380191         3520 
 3955000   0.60744146   -7.5133622    846.75873  0.017841524  0.017374317         3544 
 3956000   0.62833726   -7.5198475    845.34635  0.017807262  0.017368443         3507 
 3957000   0.61794541   -7.5184913    847.99679   0.01785858  0.017362578         3557 
 3958000   0.61860691   -7.5629811    847.33087  0.017840047  0.017356708         3578 
 3959000   0.61918494   -7.5352554    846.65392  0.017821292  0.017350843         3526 
 3960000   0.61328591   -7.5318539    846.68455  0.017817436  0.017344979         3516 
 3961000   0.62116926   -7.5458382    845.45591  0.017787089  0.017339113         3539 
 3962000   0.62426501   -7.5261909    845.12342  0.017775606  0.017333249         3534 
 3963000   0.61202706   -7.5243775    848.03758  0.017832399  0.017327387         3511 
 3964000   0.60775175   -7.5278467    846.37487  0.017792946  0.017321528         3521 
 3965000   0.60845991   -7.5152403    847.76411  0.017817657  0.017315677         3522 
 3966000   0.60544302   -7.5179248    847.52636  0.017808169  0.017309826         3487 
 3967000   0.63125783    -7.531852    846.45561  0.017781187   0.01730398         3538 
 3968000   0.62363476   -7.5216006    846.79638  0.017783862  0.017298136         3531 
 3969000   0.62099901   -7.5219147    847.44342  0.017792967  0.017292293         3529 
 3970000   0.63344903    -7.545079    848.43304  0.017809258   0.01728645         3569 
 3971000   0.60758567   -7.5205835    846.57014  0.017765679  0.017280607         3580 
 3972000   0.61951049   -7.5312528     847.7666  0.017786308  0.017274763         3551 
 3973000   0.60730297   -7.5530841    845.92192   0.01774314  0.017268918         3595 
 3974000   0.62551273   -7.5513082    846.90116  0.017759209  0.017263071         3542 
 3975000   0.61728805   -7.5483951    846.16162  0.017739237  0.017257231         3576 
 3976000    0.6161623   -7.5634839    846.33193  0.017738345  0.017251391         3549 
 3977000   0.61266617   -7.5306035    846.66913  0.017740951  0.017245558         3553 
 3978000   0.61925469    -7.546051    847.76779  0.017759506  0.017239723         3537 
 3979000   0.61233139   -7.5379176    845.95515   0.01771708  0.017233895         3548 
 3980000   0.60937553   -7.5237022    847.85587  0.017752426  0.017228063         3550 
 3981000   0.61220065   -7.5278387    847.32147   0.01773678  0.017222238         3532 
 3982000   0.62266718   -7.5294873    846.43625  0.017713801  0.017216413         3596 
 3983000   0.61566621   -7.5331434    846.77494  0.017716439  0.017210586         3537 
 3984000   0.61005409   -7.5291077    847.04746  0.017717693  0.017204763         3543 
 3985000   0.61660618   -7.5334644    848.28729  0.017739174  0.017198945         3553 
 3986000   0.60483005    -7.549334    847.44103  0.017717031   0.01719313         3559 
 3987000   0.61519581   -7.5509329     846.8616  0.017700477  0.017187317         3567 
 3988000   0.60693228   -7.5331483    844.97111  0.017656534  0.017181501         3555 
 3989000   0.61009582   -7.5158083    848.16325  0.017718794  0.017175682         3535 
 3990000    0.6238566   -7.5228951    846.60857  0.017681883  0.017169873         3571 
 3991000   0.60470364   -7.5122143    847.64906  0.017699179  0.017164068         3526 
 3992000   0.60801618   -7.5333836    847.66091  0.017694992  0.017158265         3538 
 3993000   0.60893386   -7.5167128    848.25363  0.017702931  0.017152462         3544 
 3994000   0.59801727   -7.5356051    847.40979  0.017680892  0.017146653         3558 
 3995000   0.60576472   -7.5389672    846.85129  0.017664816  0.017140854         3548 
 3996000   0.61783646    -7.531326    847.88693  0.017681993  0.017135058         3532 
 3997000   0.60090024   -7.5343652    846.73508  0.017653554  0.017129255         3552 
 3998000   0.62186563   -7.5251452    845.54417  0.017624316  0.017123466         3534 
 3999000   0.61276192   -7.5300854    848.23632  0.017676009  0.017117667         3547 
 4000000   0.62118509   -7.5221987    846.19346   0.01762903  0.017111874         3567 
 4001000   0.60309038   -7.5386079    848.15349  0.017665448  0.017106085         3572 
 4002000   0.61801704   -7.5290664    847.49912  0.017647408  0.017100299         3523 
 4003000   0.61300206    -7.537689    847.77076  0.017648654   0.01709452         3551 
 4004000    0.6145669   -7.5341067    846.28208  0.017613263  0.017088736         3573 
 4005000   0.60755838   -7.5433766    846.59695  0.017615417  0.017082959         3522 
 4006000   0.59643287   -7.5368089    846.30669  0.017604982  0.017077179         3569 
 4007000   0.63129154   -7.5544309    845.24293  0.017578465  0.017071404         3525 
 4008000   0.61534743   -7.5549284    847.02708  0.017611175  0.017065629         3566 
 4009000   0.59636911   -7.5344501    846.53721    0.0175966  0.017059858         3554 
 4010000   0.60970798   -7.5357068    846.42851  0.017589952  0.017054092         3528 
 4011000   0.60660916   -7.5449278    846.78584  0.017592991  0.017048318         3527 
 4012000   0.60066388   -7.5418721    847.42498  0.017601881  0.017042546         3541 
 4013000   0.59499274   -7.5343394    845.96441  0.017567165  0.017036778         3534 
 4014000    0.6234404   -7.5467294     846.2816  0.017569374  0.017031013         3559 
 4015000   0.61197728    -7.532148    847.83786  0.017597299  0.017025247         3526 
 4016000   0.59031381   -7.5214306    846.75933  0.017570537  0.017019485         3533 
 4017000   0.60826572   -7.5336892    846.35361  0.017557746   0.01701373         3527 
 4018000   0.60663807    -7.549057    847.93175  0.017586107  0.017007979         3518 
 4019000    0.6052577   -7.5355337    847.79085   0.01757881  0.017002229         3521 
 4020000   0.61246058   -7.5360612    845.42181  0.017525328  0.016996477         3528 
 4021000   0.60853413   -7.5448907    847.54005  0.017564869  0.016990725         3532 
 4022000   0.62071363   -7.5173301    845.96454  0.017527858  0.016984984         3555 
 4023000   0.61248535   -7.5446187    845.81294  0.017520361  0.016979246         3544 
 4024000   0.62293524   -7.5074031    848.38448  0.017569261  0.016973514         3557 
 4025000   0.62114801   -7.5437817    846.56678  0.017527262  0.016967776         3545 
 4026000   0.60513714    -7.543889     846.4438  0.017520364  0.016962036         3562 
 4027000   0.61223321    -7.539641    847.72245  0.017542473  0.016956303         3558 
 4028000   0.59203424   -7.5372661    848.84154   0.01756127  0.016950575         3496 
 4029000   0.61048488   -7.5244267    847.90128  0.017537463  0.016944842         3557 
 4030000   0.60988283   -7.5358226    847.69308  0.017528806  0.016939112         3590 
 4031000   0.60455644   -7.5474543    847.82793  0.017527246  0.016933386         3579 
 4032000   0.59861608    -7.542425    846.53973  0.017496274  0.016927664         3567 
 4033000   0.60536134   -7.5551667    846.36273  0.017488279  0.016921942         3538 
 4034000   0.60911166   -7.5393594    847.31722  0.017503661  0.016916216         3552 
 4035000   0.61257722   -7.5562468    846.56209  0.017483728    0.0169105         3575 
 4036000    0.5987065   -7.5333114    844.63366  0.017439578  0.016904778         3556 
 4037000   0.59343262   -7.5462044    846.64327  0.017476742  0.016899066         3575 
 4038000    0.5957289   -7.5298456    846.70858  0.017473761  0.016893353         3526 
 4039000   0.61360343    -7.539396    846.44001  0.017463894   0.01688764         3518 
 4040000   0.59738055   -7.5514813    847.83513  0.017488348  0.016881927         3541 
 4041000    0.6104659   -7.5419414    847.86724  0.017484683  0.016876218         3548 
 4042000    0.6008411    -7.554019    846.67985  0.017455877  0.016870516         3548 
 4043000   0.59744021   -7.5394853    844.53256    0.0174073   0.01686481         3558 
 4044000   0.60850785   -7.5362766    847.86724  0.017471712  0.016859109         3570 
 4045000   0.60838701   -7.5386221    845.39106   0.01741638  0.016853416         3587 
 4046000    0.5977472   -7.5362308    846.18482  0.017428424  0.016847724         3512 
 4047000   0.61277507   -7.5418731    846.50087  0.017430625   0.01684203         3556 
 4048000   0.62214061   -7.5367554    847.20319  0.017440777  0.016836342         3580 
 4049000   0.61155334   -7.5343744    845.69557  0.017405441  0.016830652         3557 
 4050000   0.60275111   -7.5595373    846.96786  0.017427322   0.01682496         3545 
 4051000   0.60552051   -7.5396026    845.34975  0.017389734  0.016819274         3524 
 4052000   0.60048357    -7.552014    847.20687  0.017423636  0.016813589         3555 
 4053000   0.59747259    -7.545946    845.62416  0.017386795  0.016807909         3548 
 4054000   0.59580534    -7.549924    845.80858  0.017386297  0.016802231         3561 
 4055000    0.6114288   -7.5482269     846.8095  0.017402579  0.016796547         3536 
 4056000   0.60208224   -7.5288761    845.30345  0.017367346   0.01679087         3543 
 4057000   0.60659743   -7.5415159    847.16908  0.017401386  0.016785194         3541 
 4058000   0.59105716   -7.5483904    846.31568  0.017379573  0.016779519         3565 
 4059000   0.59023299   -7.5354346    847.10693  0.017391536  0.016773849         3555 
 4060000    0.5945578   -7.5257222    846.12591  0.017367116  0.016768181         3548 
 4061000   0.60792037   -7.5413854    845.82687  0.017356703  0.016762509         3554 
 4062000   0.59755966   -7.5436003    846.80706  0.017372539  0.016756839         3559 
 4063000   0.60653629   -7.5668571    846.77575  0.017367621  0.016751172         3533 
 4064000   0.58499414   -7.5486694    845.67303  0.017340736   0.01674551         3559 
 4065000   0.60871896   -7.5406435    846.45718  0.017352546  0.016739847         3523 
 4066000   0.60227959    -7.527828    845.81398  0.017335096  0.016734186         3560 
 4067000   0.59442764   -7.5554806    846.16451  0.017338016  0.016728523         3553 
 4068000   0.60468297   -7.5394474    845.50356  0.017320214  0.016722861         3598 
 4069000   0.60107974   -7.5405516    847.35961  0.017353969  0.016717204         3558 
 4070000   0.59972205   -7.5350722    845.34525  0.017308461  0.016711552         3583 
 4071000   0.59339307    -7.533985    845.46346  0.017306629  0.016705911         3560 
 4072000   0.60246758   -7.5412863    846.28811  0.017319256  0.016700261         3557 
 4073000   0.60050219   -7.5585876    844.74423  0.017283416  0.016694609         3590 
 4074000   0.59334571   -7.5587423     845.6243  0.017297175  0.016688964         3580 
 4075000   0.60002423    -7.545465    845.61566  0.017292754  0.016683325         3545 
 4076000   0.60128858   -7.5441867    846.75826  0.017311872  0.016677688         3556 
 4077000   0.61792812    -7.557244    846.33268  0.017298927  0.016672048         3589 
 4078000   0.58699075   -7.5472106    845.94446  0.017286751  0.016666415         3532 
 4079000   0.59393199   -7.5485678    847.99081   0.01732432  0.016660783         3558 
 4080000   0.59430297   -7.5606313    847.07229  0.017301313  0.016655151         3583 
 4081000   0.59797713   -7.5576721    845.97976  0.017274764  0.016649521         3565 
 4082000   0.59940713   -7.5604978    846.46896  0.017280519  0.016643894         3573 
 4083000   0.58442445   -7.5520614    847.71625  0.017301744  0.016638268         3590 
 4084000   0.60554604   -7.5577895    845.75784  0.017257547  0.016632636         3570 
 4085000   0.59315291   -7.5853106    846.09951  0.017260292  0.016627016         3575 
 4086000   0.59110592   -7.5358448    845.86344  0.017251253  0.016621392         3584 
 4087000   0.60075286    -7.550116     848.8017  0.017306943  0.016615774         3569 
 4088000   0.60827098   -7.5513135    844.65248  0.017218128  0.016610159         3562 
 4089000   0.59454375   -7.5609841    845.39218  0.017228992  0.016604548         3565 
 4090000   0.59147665   -7.5416849    845.70883  0.017231231  0.016598936         3522 
 4091000   0.59914505   -7.5305017    844.98608  0.017212297  0.016593333         3538 
 4092000   0.58653925   -7.5447176    846.54907  0.017239921  0.016587729         3568 
 4093000   0.60484568   -7.5467825    847.47862  0.017254634  0.016582127         3566 
 4094000   0.60027614   -7.5578322    847.65886  0.017254088  0.016576531         3565 
 4095000   0.59825098   -7.5727724    845.62773  0.017208542  0.016570932         3577 
 4096000   0.58847202   -7.5539241    846.18734  0.017215726  0.016565329         3560 
 4097000   0.59442554    -7.569297    846.54545  0.017218807  0.016559734         3543 
 4098000   0.60598564   -7.5537578    846.21144  0.017207814  0.016554143         3560 
 4099000   0.58899179   -7.5556462    845.50334   0.01718922  0.016548549         3592 
 4100000   0.60374623   -7.5343881     844.6985  0.017168669  0.016542959         3576 
 4101000   0.59421813   -7.5564603    845.68696  0.017184568  0.016537368         3532 
 4102000   0.59050766   -7.5632925    845.34602  0.017173452  0.016531781         3573 
 4103000   0.58610427   -7.5621928    843.69106  0.017135654  0.016526191         3588 
 4104000   0.59641484   -7.5408476    845.80509  0.017174405  0.016520604         3584 
 4105000   0.59704116   -7.5903438    845.04881  0.017154868  0.016515014         3578 
 4106000   0.60070686   -7.5590645    845.69916  0.017163889   0.01650943         3523 
 4107000   0.59262757   -7.5723855     845.0666  0.017146875  0.016503844         3578 
 4108000   0.58228383   -7.5545135    845.13865  0.017144163  0.016498257         3573 
 4109000   0.59955952   -7.5766229    846.56764  0.017168971  0.016492679         3563 
 4110000    0.5830763   -7.5570613    844.31018  0.017119022  0.016487096         3584 
 4111000   0.57910862   -7.5517226    844.75719  0.017123919  0.016481516         3590 
 4112000   0.59563248   -7.5773794    845.60566   0.01713695  0.016475941         3569 
 4113000   0.59168844   -7.5412358    847.07288  0.017162511  0.016470369         3589 
 4114000   0.58636451   -7.5748948    845.62027  0.017128915  0.016464796         3615 
 4115000   0.60496867   -7.5768072    846.12835  0.017135042  0.016459227         3607 
 4116000   0.58272162   -7.5623478    846.26339  0.017133612  0.016453659         3559 
 4117000   0.61052928   -7.5605426    845.89434  0.017121981  0.016448096         3612 
 4118000   0.58823992   -7.5463104    844.66044  0.017092853  0.016442534         3624 
 4119000   0.58941622   -7.5677684    846.72916  0.017130557  0.016436969         3584 
 4120000    0.5933372   -7.5693889    844.40552    0.0170794  0.016431409         3574 
 4121000   0.59967512   -7.5716762    844.64604  0.017080119  0.016425853         3606 
 4122000   0.58827604   -7.5900231     845.6536  0.017096345    0.0164203         3620 
 4123000   0.59752188    -7.567847    844.37285  0.017066312  0.016414745         3596 
 4124000   0.60966368   -7.5621205     846.3346  0.017101815  0.016409192         3554 
 4125000   0.57916351   -7.5887654    845.02054  0.017071122  0.016403648         3584 
 4126000   0.60607334   -7.5795623    846.26213  0.017092061  0.016398103         3624 
 4127000   0.59829983   -7.5596596     845.6929  0.017076425  0.016392561         3585 
 4128000    0.5935432   -7.5597453    845.62625  0.017070943   0.01638702         3631 
 4129000    0.5995726   -7.5875396    846.41606  0.017082749  0.016381473         3584 
 4130000   0.59231629   -7.5904902    844.44691   0.01703888  0.016375938         3587 
 4131000   0.58951402   -7.5677383    845.06042  0.017047132  0.016370398         3594 
 4132000   0.60880231    -7.550947    844.12242  0.017024089  0.016364859         3595 
 4133000   0.58800263   -7.5621328    845.67295  0.017051233  0.016359324         3578 
 4134000   0.60687727   -7.5626231    844.95952  0.017032727  0.016353797         3609 
 4135000   0.58306504   -7.5732263    844.34275  0.017016178  0.016348263         3599 
 4136000   0.58742391   -7.5609334    844.42183  0.017013657  0.016342736         3593 
 4137000   0.60126845   -7.5741242    845.83035  0.017037917  0.016337213         3571 
 4138000   0.59178109   -7.5780087     845.4802  0.017026748  0.016331691         3603 
 4139000   0.57814833   -7.5611175    846.24694  0.017038072   0.01632617         3567 
 4140000   0.58523497   -7.5899914    845.30217  0.017014939  0.016320648         3596 
 4141000   0.58787644   -7.5821855    845.33006  0.017011391  0.016315135         3595 
 4142000   0.59321596   -7.5721392    847.02319  0.017041349  0.016309625         3565 
 4143000   0.59707251   -7.5636975     845.4476  0.017005543  0.016304112         3584 
 4144000   0.60387712   -7.5745549    846.17848  0.017016137  0.016298599         3581 
 4145000   0.59534137   -7.5604914    844.12803  0.016970809  0.016293088         3593 
 4146000   0.58392192   -7.5714433    844.10156  0.016966183  0.016287575         3637 
 4147000    0.5842437   -7.5882348    843.67266  0.016953474  0.016282064         3591 
 4148000   0.60217014   -7.5527237    844.66032  0.016969229  0.016276557         3580 
 4149000   0.58751271   -7.5725596    844.69818  0.016965899  0.016271054         3531 
 4150000   0.58278962   -7.5673455    843.30493  0.016933834  0.016265552         3572 
 4151000   0.57310462   -7.5860919    842.95976  0.016922825  0.016260052         3601 
 4152000   0.58432293   -7.5605907     843.7687  0.016934985   0.01625455         3588 
 4153000   0.57016235   -7.5691725    844.95308  0.016954673  0.016249058         3591 
 4154000   0.58385575   -7.5820671     845.7585  0.016966749  0.016243564         3566 
 4155000   0.59150214   -7.5492628    843.84516  0.016924291   0.01623807         3572 
 4156000   0.59735509   -7.5800269    845.73991  0.016958211  0.016232582         3581 
 4157000   0.59215759   -7.5825504    844.59339  0.016931148  0.016227094         3617 
 4158000   0.59570829   -7.5789918    843.66601   0.01690849  0.016221606         3621 
 4159000   0.59158568   -7.5796939    845.60631  0.016943302  0.016216125         3586 
 4160000   0.58381713   -7.5607869    844.52471  0.016917562  0.016210645         3577 
 4161000   0.59155239   -7.5961238    845.58641  0.016934759   0.01620517         3612 
 4162000   0.59074722   -7.5818071    846.21704  0.016943317  0.016199695         3591 
 4163000   0.58863289   -7.5813302    843.36284  0.016882113  0.016194218         3584 
 4164000   0.57813059   -7.5731185    844.86621  0.016908145  0.016188742         3586 
 4165000   0.58636948   -7.5781729     845.8963  0.016924696  0.016183265         3573 
 4166000   0.57817109   -7.5799471      844.578  0.016894263  0.016177792         3560 
 4167000   0.58404666   -7.5779465    844.29968  0.016884643  0.016172328         3597 
 4168000    0.5796029    -7.593948    843.60546  0.016866712  0.016166861         3567 
 4169000   0.58649956   -7.5811657    845.08416  0.016892223  0.016161396         3585 
 4170000   0.58893125   -7.5954875    845.80225  0.016902523  0.016155925         3580 
 4171000   0.58887668    -7.587695    844.84851  0.016879416  0.016150464         3616 
 4172000   0.57362912   -7.5865388     845.9129   0.01689663  0.016145005         3593 
 4173000   0.60603267   -7.6096144    845.18887  0.016878123  0.016139549         3632 
 4174000   0.57510534   -7.5925494    844.24334  0.016855202  0.016134093         3596 
 4175000   0.57084136   -7.5686488    844.48598  0.016856008   0.01612864         3601 
 4176000   0.56799973   -7.5732876    845.72763  0.016876749  0.016123186         3573 
 4177000   0.57648535   -7.5832659     845.3602  0.016865378  0.016117732         3593 
 4178000   0.57367405   -7.5851531    845.52363  0.016864601  0.016112284         3580 
 4179000   0.58193256   -7.5821248    844.95641  0.016849254  0.016106836         3592 
 4180000   0.56966929   -7.5908831    845.08132  0.016847714  0.016101386         3582 
 4181000   0.58311355   -7.5892447    844.08438  0.016823814  0.016095939         3624 
 4182000   0.57835764   -7.5847631    845.48698   0.01684774  0.016090498         3610 
 4183000   0.57995914   -7.5730809    844.13553  0.016816789  0.016085055         3584 
 4184000   0.59214985   -7.5887987    845.03739  0.016830732  0.016079616         3607 
 4185000   0.58362388   -7.5861352    844.54427  0.016816891  0.016074177         3595 
 4186000   0.59088502   -7.5624303     845.2745  0.016827411  0.016068742         3598 
 4187000   0.57743057   -7.5958682    844.45822  0.016807145  0.016063307         3608 
 4188000   0.57774532   -7.5850995    844.71901  0.016808322  0.016057874         3599 
 4189000   0.58604881   -7.5776239    845.51622  0.016820168  0.016052449         3619 
 4190000   0.58686169    -7.582334    844.60308  0.016797993  0.016047021         3580 
 4191000    0.5789467   -7.5718616    844.06197  0.016783225  0.016041595         3614 
 4192000   0.58532446   -7.6034917    843.74398    0.0167729  0.016036169         3584 
 4193000   0.57713947    -7.586752    846.30948  0.016819888  0.016030745         3611 
 4194000   0.58129885   -7.6021001    844.90106  0.016787893  0.016025321         3596 
 4195000   0.57209422   -7.6009141    844.76006   0.01678109  0.016019894         3602 
 4196000   0.57638098   -7.5985475    842.85649  0.016739285  0.016014477         3614 
 4197000   0.59502161    -7.599738     845.3265   0.01678434  0.016009059         3614 
 4198000   0.57303831   -7.5911121     844.8749  0.016771377  0.016003645         3584 
 4199000   0.59298975   -7.5930264    844.92875  0.016768452  0.015998235         3580 
 4200000   0.58377335   -7.5746637    844.88633  0.016763618  0.015992823         3613 
 4201000   0.58642528   -7.5807248    844.36876   0.01674936  0.015987416         3623 
 4202000   0.58588754   -7.5914746    844.00899  0.016738239  0.015982012         3604 
 4203000    0.5793622    -7.586588    845.00468  0.016753999  0.015976608         3593 
 4204000   0.57011416   -7.5741857    843.12777  0.016712809  0.015971207         3603 
 4205000   0.58783805   -7.5980211     845.3484  0.016752842   0.01596581         3609 
 4206000   0.58532972   -7.5869642     845.9643  0.016761062  0.015960412         3582 
 4207000    0.5844909   -7.6111179    845.40613  0.016746021  0.015955024         3594 
 4208000   0.57726524   -7.6063433    844.76098  0.016729265  0.015949628         3558 
 4209000   0.58320642   -7.5931589    843.49955  0.016700316  0.015944236         3604 
 4210000   0.57899297     -7.58157    843.87813  0.016703843  0.015938844         3620 
 4211000   0.56982708   -7.5998842    844.78382  0.016717799  0.015933459         3615 
 4212000   0.58194345    -7.577121    844.43993  0.016707026  0.015928074         3582 
 4213000   0.58902781   -7.5974321    844.33215  0.016700929  0.015922687         3587 
 4214000   0.57970611   -7.6036278    844.03075  0.016691005  0.015917309         3644 
 4215000   0.57173487   -7.5801168    843.26016   0.01667181  0.015911925         3609 
 4216000   0.58700399    -7.599239    843.89432  0.016680391  0.015906545         3592 
 4217000   0.57952698   -7.5883373    843.97441  0.016678018  0.015901164         3626 
 4218000   0.58864365   -7.5882921    842.24255  0.016639848  0.015895785         3578 
 4219000   0.58522946   -7.5990626    841.95806  0.016630285  0.015890409         3630 
 4220000   0.58462341   -7.5913007    843.92985  0.016665281  0.015885034         3618 
 4221000   0.57597152   -7.5938575    845.28013  0.016687991  0.015879662         3616 
 4222000    0.5833499   -7.5932539    843.69049  0.016652662  0.015874291         3630 
 4223000   0.57195315   -7.6058313    844.28513  0.016660453  0.015868923         3616 
 4224000    0.5799737   -7.5863634    844.32121  0.016657221  0.015863559         3622 
 4225000   0.56956115    -7.603662    843.39069  0.016634925  0.015858198         3647 
 4226000   0.58767258   -7.5925062     844.1089  0.016645151  0.015852837         3618 
 4227000   0.56863785    -7.614215    842.44394  0.016608389  0.015847481         3647 
 4228000   0.56612219   -7.6126421    844.77409  0.016650388  0.015842125         3581 
 4229000   0.57064155   -7.6070643    844.26579  0.016636435   0.01583677         3578 
 4230000   0.55429283   -7.5976215    843.44233  0.016616279   0.01583142         3572 
 4231000   0.57259847   -7.6102197    844.95428  0.016642131  0.015826065         3606 
 4232000   0.57995156   -7.6036767    843.93162  0.016618061  0.015820717         3612 
 4233000   0.58136203   -7.6000803    843.25669  0.016600848  0.015815367         3609 
 4234000   0.57951509   -7.6091674    845.39341  0.016638982  0.015810023         3602 
 4235000   0.58301658   -7.6030589    844.10816  0.016609763  0.015804685         3610 
 4236000   0.56779285   -7.6234294    843.44001  0.016592698  0.015799345         3589 
 4237000   0.57502329    -7.596987      842.759  0.016575387   0.01579401         3611 
 4238000   0.56268374   -7.5726494    844.22919  0.016600385  0.015788679         3605 
 4239000   0.58190232    -7.615495    844.35935  0.016599028  0.015783343         3597 
 4240000   0.58696076    -7.614352    843.37925   0.01657585  0.015778018         3610 
 4241000    0.5671684   -7.5900655    844.26059  0.016589259  0.015772687         3578 
 4242000   0.58285264   -7.6126822    843.83561     0.016577  0.015767355         3590 
 4243000   0.56255171   -7.6159664    845.23581  0.016600593  0.015762025         3618 
 4244000    0.5710852   -7.6072813    843.36746  0.016559996    0.0157567         3601 
 4245000   0.58250977   -7.6046026    843.89447   0.01656644   0.01575137         3606 
 4246000   0.57481684   -7.6074447    844.10541  0.016566679  0.015746047         3597 
 4247000   0.58057065   -7.6133071    843.79599  0.016556706  0.015740731         3604 
 4248000   0.57771434   -7.6227086    845.23334  0.016581006  0.015735412         3606 
 4249000    0.5752684   -7.6175657    843.73803  0.016547776  0.015730098         3583 
 4250000   0.56776432   -7.6065042    844.05018  0.016550003  0.015724784         3587 
 4251000   0.57139734   -7.6232763    846.13098  0.016586901  0.015719476         3567 
 4252000   0.57229372   -7.5973589    844.49941  0.016551023  0.015714165         3584 
 4253000   0.57172561   -7.6090803    843.59512  0.016529413  0.015708856         3614 
 4254000   0.56826734   -7.6102541    844.77452  0.016548631  0.015703553         3580 
 4255000   0.56801679   -7.6224932    843.08564  0.016511665  0.015698253         3622 
 4256000   0.56821733   -7.6024033    843.07895  0.016507655  0.015692957         3639 
 4257000    0.5770191   -7.6352244    844.79517  0.016537373  0.015687663         3627 
 4258000   0.56979605   -7.6082765    843.58881   0.01650988   0.01568237         3629 
 4259000    0.5739506   -7.5973381    844.75735  0.016528867  0.015677078         3616 
 4260000   0.56595407   -7.6046101    844.89608  0.016527701  0.015671784         3570 
 4261000   0.56835098   -7.6075551    843.26904  0.016492002  0.015666496         3593 
 4262000   0.57183039   -7.6017601    843.78036   0.01649813  0.015661204         3602 
 4263000   0.56515448    -7.605837    842.08264  0.016461073  0.015655916         3622 
 4264000   0.57572452   -7.6211035    844.31716  0.016500883  0.015650633         3618 
 4265000   0.57068551    -7.607929    843.38184  0.016478739  0.015645352         3634 
 4266000   0.57975763   -7.6075559    844.19297  0.016490721  0.015640072         3609 
 4267000   0.57039995   -7.5995327    844.84555  0.016499601  0.015634799         3605 
 4268000   0.57098553   -7.6072563    844.17495  0.016482641  0.015629521         3614 
 4269000   0.55990432   -7.6101534    843.09495  0.016457698  0.015624248         3615 
 4270000   0.56654207   -7.6064507    844.53753  0.016481997  0.015618978         3597 
 4271000    0.5664474   -7.6051195    845.17681  0.016490611   0.01561371         3587 
 4272000   0.57393903   -7.6137506     843.9498  0.016462816  0.015608443         3624 
 4273000   0.56159736   -7.5943266    842.90134  0.016438516   0.01560318         3595 
 4274000   0.56498548   -7.5978462    844.32957  0.016462517  0.015597913         3618 
 4275000   0.56662614   -7.6025276    843.71841  0.016446753  0.015592651         3623 
 4276000   0.55854875   -7.6204409     844.7887  0.016463765  0.015587386         3600 
 4277000   0.54576135   -7.6024716    844.50142  0.016454318  0.015582128         3605 
 4278000   0.56001443    -7.633513     843.1697  0.016424531  0.015576869         3594 
 4279000   0.56813856   -7.6196701    843.23192  0.016421904  0.015571615         3609 
 4280000   0.56127707   -7.6065938    843.62416  0.016425704  0.015566364         3588 
 4281000   0.56653226   -7.6206898    843.72299  0.016423791  0.015561116         3578 
 4282000   0.56781575   -7.6191071    842.73503  0.016400728  0.015555867         3603 
 4283000   0.56906985   -7.6387079     843.6119   0.01641396  0.015550622         3613 
 4284000   0.55883581   -7.6126927    844.01632  0.016417996  0.015545374         3617 
 4285000   0.57748831   -7.5985428    843.78137  0.016409595   0.01554013         3623 
 4286000   0.55814129   -7.6250978    843.13001  0.016393102  0.015534891         3631 
 4287000    0.5608182   -7.6140544    843.41564   0.01639483  0.015529656         3578 
 4288000   0.55613578   -7.6243045    843.86548  0.016399749  0.015524422         3613 
 4289000   0.56708243   -7.6197931    843.75892  0.016393855  0.015519186         3607 
 4290000   0.56635288   -7.6079901    842.88893  0.016373134  0.015513952         3623 
 4291000   0.55267481   -7.6202251    843.02932  0.016372045  0.015508717         3591 
 4292000   0.56474862   -7.6370858    844.32564  0.016393399   0.01550349         3567 
 4293000    0.5704412   -7.6082056    842.31761  0.016350602   0.01549826         3626 
 4294000   0.57796716   -7.6109004    843.08878   0.01636176  0.015493039         3583 
 4295000   0.55916593   -7.6035601    843.23807  0.016360847  0.015487817         3622 
 4296000   0.56363398   -7.6058341    843.83505  0.016368619  0.015482595         3606 
 4297000   0.55232681   -7.6302761     843.6409  0.016361044  0.015477379         3622 
 4298000   0.56393482   -7.6209198    844.16929  0.016367483  0.015472164         3609 
 4299000   0.57130629    -7.587628    843.44687  0.016349672  0.015466951         3621 
 4300000   0.56042249   -7.5909169    844.24123  0.016361264  0.015461743         3580 
 4301000    0.5581532   -7.6054454    842.77229  0.016328999  0.015456534         3610 
 4302000   0.55174742   -7.6223956    844.81102  0.016364695  0.015451326         3619 
 4303000   0.56571609   -7.6319607    843.57865  0.016337025  0.015446125         3610 
 4304000   0.56067063   -7.6140451    843.95648  0.016340545  0.015440919         3603 
 4305000   0.56644381   -7.6333519    842.69262  0.016312285  0.015435719         3607 
 4306000   0.56050374    -7.610877    842.97051  0.016313874  0.015430518         3587 
 4307000   0.55348158   -7.6221477    844.69861  0.016343522   0.01542532         3598 
 4308000   0.56522427    -7.623806    842.88741  0.016304693  0.015420124         3622 
 4309000   0.56393195   -7.6097679    841.88794   0.01628158  0.015414928         3615 
 4310000   0.55643816   -7.6200188    842.89795  0.016297331  0.015409738         3622 
 4311000   0.56036003   -7.6332372     842.7336  0.016290374  0.015404551         3617 
 4312000   0.55765556   -7.6011937    842.18909  0.016276072  0.015399362         3615 
 4313000   0.55936793   -7.6204536    842.91875  0.016286397  0.015394174         3603 
 4314000   0.56955609   -7.6201904    842.19715  0.016268682  0.015388986         3643 
 4315000   0.55985432   -7.6160038    841.79185  0.016257085  0.015383799         3621 
 4316000   0.56329893     -7.61729    843.32096  0.016282842  0.015378622         3624 
 4317000   0.56765408   -7.6343492    843.32266  0.016279103  0.015373444         3597 
 4318000   0.55756592   -7.6184421    844.14352  0.016291175  0.015368269         3602 
 4319000   0.55283093   -7.6292363    844.28446  0.016290122  0.015363092         3610 
 4320000   0.56078277   -7.5985625    843.72562  0.016275571  0.015357919         3589 
 4321000   0.56261291   -7.6422112    843.30064  0.016263609  0.015352747         3629 
 4322000   0.57356003   -7.6179526    842.63712  0.016247052  0.015347578         3616 
 4323000   0.56624994   -7.6045725    843.77553  0.016265239  0.015342413         3580 
 4324000   0.56147609    -7.602662    842.20638  0.016231236  0.015337256         3620 
 4325000   0.56313303   -7.6156035    842.78454  0.016238623  0.015332091         3603 
 4326000   0.56461886   -7.6368437    844.20971  0.016262323  0.015326929         3596 
 4327000   0.54901737   -7.6299375    843.90772  0.016252749  0.015321768         3597 
 4328000   0.56194521   -7.6222364    842.72689  0.016226257   0.01531661         3618 
 4329000   0.55570114   -7.6098684    842.06627  0.016209792  0.015311458         3590 
 4330000   0.55437053   -7.6115695    844.23657  0.016247817  0.015306302         3596 
 4331000   0.53398385   -7.6184298    842.60265  0.016212627  0.015301148         3610 
 4332000   0.56448879   -7.6392175    842.86064  0.016213847  0.015295996         3625 
 4333000   0.55280068   -7.6450643    843.02799  0.016213324  0.015290848         3603 
 4334000   0.57570823   -7.6251579    843.13048  0.016211554  0.015285703         3611 
 4335000   0.55567334   -7.5996136    842.65703  0.016198713  0.015280558         3583 
 4336000   0.57682151   -7.6107735    843.30655   0.01620746  0.015275418         3578 
 4337000   0.54866742   -7.6300077    842.67681  0.016191623  0.015270281         3658 
 4338000   0.55895671   -7.6214442    844.69523  0.016226664  0.015265145         3612 
 4339000   0.57359864   -7.6229064    842.64096  0.016183471   0.01526001         3625 
 4340000   0.56138115   -7.6304281    843.14727  0.016189464  0.015254873         3634 
 4341000   0.55553498   -7.6128181    841.78993  0.016159678  0.015249737         3590 
 4342000   0.57723057   -7.6199316    842.80716  0.016175479  0.015244607         3631 
 4343000   0.55781925   -7.6311209    842.91201  0.016173766  0.015239476         3636 
 4344000   0.55085446   -7.6158783    841.67813  0.016146373  0.015234353         3575 
 4345000    0.5533312   -7.6207623     842.9391  0.016166841  0.015229226         3623 
 4346000       0.5513   -7.6264393     841.8103  0.016141477  0.015224104         3608 
 4347000   0.54591164   -7.6243395    842.69759  0.016154773  0.015218985         3621 
 4348000   0.56803651   -7.6139619    843.22755  0.016161215  0.015213869         3582 
 4349000   0.56489355   -7.6293748    844.16681  0.016175497  0.015208757         3596 
 4350000   0.55812226   -7.6261637    842.90216  0.016147551  0.015203641         3596 
 4351000    0.5511988   -7.6235036    843.65644  0.016158286  0.015198528         3602 
 4352000    0.5509631   -7.6162614    843.38377  0.016149352  0.015193417         3589 
 4353000   0.55237706   -7.6034632    843.82629  0.016154114  0.015188307         3608 
 4354000   0.55998534   -7.6279042    842.73273  0.016129473  0.015183202         3625 
 4355000   0.56198337   -7.6170096    844.45237  0.016158675    0.0151781         3620 
 4356000   0.55590766   -7.6270817    841.52129  0.016098892  0.015173001         3572 
 4357000   0.55136566    -7.630366    843.23507  0.016127975  0.015167904         3612 
 4358000   0.56343589   -7.6200785    842.11385  0.016102835  0.015162805         3598 
 4359000   0.56894468   -7.6392682    842.49135  0.016106358  0.015157708         3625 
 4360000   0.57222787   -7.6314823    842.79844  0.016108533  0.015152616         3619 
 4361000    0.5549562   -7.6410576    842.52407  0.016099596   0.01514752         3634 
 4362000   0.54849549   -7.6320768    842.07138  0.016087257  0.015142426         3604 
 4363000   0.55148086   -7.6287215    841.26428  0.016068154  0.015137339         3640 
 4364000   0.56055462   -7.6316191    843.81313  0.016113144  0.015132255         3625 
 4365000   0.55458623   -7.6390648    842.34991  0.016081518  0.015127168         3618 
 4366000   0.54883123   -7.6335188    841.81599  0.016067644  0.015122086         3633 
 4367000   0.55571506   -7.6282168    842.73778  0.016081554  0.015117003         3632 
 4368000   0.55571619   -7.6486825    842.28744  0.016069281  0.015111923         3618 
 4369000   0.56217412   -7.6259725    843.37041  0.016086259  0.015106847         3603 
 4370000   0.54839719   -7.6391186    843.62193  0.016087375  0.015101769         3621 
 4371000   0.55150728    -7.622883    842.30169  0.016058524  0.015096697         3641 
 4372000   0.55189825   -7.6374354    843.70231  0.016081548  0.015091627         3630 
 4373000   0.55110343   -7.6322276    842.08911  0.016047128   0.01508656         3619 
 4374000   0.54740033   -7.6316647    843.03881  0.016061553  0.015081492         3642 
 4375000   0.55916807   -7.6350493    842.54602  0.016048496  0.015076427         3600 
 4376000   0.54545368   -7.6436012    842.03189  0.016035037   0.01507136         3638 
 4377000   0.54875503   -7.6336046    843.07146  0.016051166  0.015066296         3650 
 4378000   0.54983539   -7.6338944    841.39432  0.016015576  0.015061238         3614 
 4379000   0.56049123   -7.6420634    843.03253  0.016043095   0.01505618         3660 
 4380000   0.54238212   -7.6399182     842.2196  0.016023965   0.01505112         3638 
 4381000   0.55201213   -7.6346317    842.90808  0.016033403  0.015046068         3628 
 4382000   0.55604968   -7.6314033    842.09934  0.016014364  0.015041018         3643 
 4383000   0.54949469   -7.6168971    842.19807  0.016012588  0.015035967         3600 
 4384000   0.56007382   -7.6498245    842.98389  0.016023873  0.015030918         3632 
 4385000   0.54714225   -7.6453314    842.17151   0.01600478  0.015025873         3628 
 4386000   0.55274924   -7.6564298    843.84872  0.016032997  0.015020827         3654 
 4387000   0.56157814   -7.6399366    841.71919  0.015988891  0.015015784         3619 
 4388000   0.53707421    -7.617585    841.81243  0.015987018  0.015010745         3630 
 4389000   0.54287073    -7.629942    842.14608  0.015989711  0.015005704         3624 
 4390000   0.54520821   -7.6332465    842.45675  0.015991966  0.015000666         3617 
 4391000   0.55662786   -7.6329917    842.78598  0.015994572   0.01499563         3623 
 4392000   0.55012865   -7.6270793    841.72315  0.015970764  0.014990592         3637 
 4393000   0.54803372   -7.6323731    841.88263  0.015970154   0.01498556         3606 
 4394000   0.55111383   -7.6317816    842.59579  0.015980045   0.01498053         3629 
 4395000   0.54599099   -7.6394533    842.70393  0.015978459    0.0149755         3643 
 4396000   0.54526713   -7.6485335    841.39786  0.015950066  0.014970474         3659 
 4397000   0.56193442   -7.6299961    841.50259  0.015948423  0.014965446         3647 
 4398000   0.53520618    -7.636698    842.53216  0.015964305  0.014960426         3636 
 4399000   0.53628007   -7.6424844    842.41843  0.015958521  0.014955405         3637 
 4400000   0.54748381   -7.6385205    841.92371  0.015945525  0.014950384         3610 
 4401000   0.52979806   -7.6391384    842.20634  0.015947253  0.014945366         3638 
 4402000   0.54066114   -7.6306529    842.21972  0.015943884  0.014940352         3619 
 4403000   0.54541028   -7.6286048    843.08933  0.015956721  0.014935336         3606 
 4404000     0.546555   -7.6369619      840.612  0.015906222   0.01493033         3625 
 4405000   0.56338632   -7.6372711    842.74644   0.01594299  0.014925321         3628 
 4406000   0.53837925   -7.6230347     841.4792  0.015915403  0.014920313         3621 
 4407000   0.54586256   -7.6545978    842.47249  0.015930574  0.014915309         3636 
 4408000   0.54097014   -7.6292109    841.07053  0.015900456  0.014910309         3634 
 4409000   0.54294719   -7.6411162    842.25063  0.015919154  0.014905306         3630 
 4410000   0.55181207   -7.6423945    842.30418  0.015916557  0.014900304         3636 
 4411000   0.54911275   -7.6257083    841.43508  0.015896529  0.014895305         3605 
 4412000   0.54534358   -7.6261025    841.21914  0.015888847  0.014890309         3636 
 4413000   0.55106328   -7.6237802    841.79475  0.015896117  0.014885316         3614 
 4414000   0.53844839   -7.6468171    842.14672   0.01589916  0.014880327         3658 
 4415000   0.54224601    -7.625836    841.49314  0.015883223  0.014875336         3644 
 4416000   0.54147924   -7.6408261    842.23353  0.015893598  0.014870348         3619 
 4417000   0.54047647   -7.6303002    842.52037  0.015895411  0.014865366         3630 
 4418000   0.54412172   -7.6390321    843.49192  0.015910139  0.014860384         3622 
 4419000   0.53773863   -7.6432905    842.40667  0.015886073  0.014855406         3650 
 4420000    0.5345473   -7.6397832    841.62362  0.015867715  0.014850424         3647 
 4421000   0.53714036   -7.6506166    842.30959  0.015877056  0.014845448         3625 
 4422000   0.54611526   -7.6417122    842.14257  0.015870318  0.014840474         3628 
 4423000   0.55570825   -7.6208451    841.41185  0.015852963  0.014835501         3630 
 4424000   0.53246301   -7.6430584    841.04377  0.015842446  0.014830532         3673 
 4425000   0.54535641   -7.6552391    841.53613  0.015848138  0.014825561         3637 
 4426000   0.55125703   -7.6538851    841.57833  0.015845352  0.014820595         3614 
 4427000   0.55068718    -7.651012    842.26626  0.015854722   0.01481563         3628 
 4428000   0.54112382    -7.639601    842.40797  0.015853808  0.014810668         3605 
 4429000   0.55122998    -7.625318    841.79124  0.015838625  0.014805707         3620 
 4430000   0.54141685   -7.6424248    842.47876  0.015847983  0.014800747         3632 
 4431000   0.53747115   -7.6501314    842.90503  0.015852423  0.014795793         3616 
 4432000     0.542204   -7.6595038    841.49147  0.015822267   0.01479084         3624 
 4433000   0.54856164   -7.6363435     842.9661  0.015846419  0.014785883         3608 
 4434000    0.5454797   -7.6614254     841.8362   0.01582161  0.014780928         3619 
 4435000   0.53537685   -7.6460653     841.1012  0.015804232   0.01477598         3635 
 4436000   0.53708963   -7.6530731    841.98718  0.015817312  0.014771029         3574 
 4437000    0.5387124    -7.645001    841.80595  0.015810344  0.014766083         3632 
 4438000   0.54982096   -7.6542628    841.59307  0.015802784  0.014761135         3600 
 4439000   0.53867491   -7.6535604    841.79027  0.015802926  0.014756191         3643 
 4440000   0.55345465   -7.6530514    843.34531  0.015828553  0.014751251         3608 
 4441000   0.53522189   -7.6432219    841.34617  0.015787476  0.014746312         3617 
 4442000   0.53884146   -7.6614732    842.25018  0.015800881  0.014741374         3650 
 4443000   0.54444748   -7.6541215    841.40369  0.015781448  0.014736436         3631 
 4444000   0.54404383   -7.6627805    841.92642  0.015787699  0.014731503         3647 
 4445000   0.53688329   -7.6668499    843.27936  0.015809512  0.014726568         3630 
 4446000   0.54318907   -7.6577816    840.89331  0.015761233  0.014721636         3658 
 4447000   0.53668029   -7.6330685    840.90319  0.015757874  0.014716706         3611 
 4448000   0.53937792   -7.6351188    841.13745   0.01575872  0.014711782         3613 
 4449000   0.53360754   -7.6568712    842.14776  0.015774102  0.014706856         3652 
 4450000   0.53844872   -7.6368932    841.73689  0.015762863  0.014701938         3614 
 4451000   0.53148346   -7.6338883    842.46939  0.015773036  0.014697017         3615 
 4452000   0.53944627   -7.6619982    840.15332   0.01572614  0.014692095         3607 
 4453000    0.5415623   -7.6543023    840.93014  0.015737146  0.014687179         3634 
 4454000   0.52741292   -7.6489139    842.82582  0.015769081  0.014682266         3612 
 4455000   0.53659331   -7.6545155    842.06189  0.015751251  0.014677349         3613 
 4456000   0.53751168   -7.6581979     841.5573   0.01573828  0.014672438         3631 
 4457000   0.54587921   -7.6447686    841.71498  0.015737697   0.01466753         3628 
 4458000   0.53313362   -7.6463554    840.74088  0.015715958  0.014662623         3637 
 4459000   0.52851611    -7.649174      841.829  0.015732769  0.014657717         3645 
 4460000    0.5354029   -7.6349193    840.87781  0.015711469  0.014652813         3609 
 4461000    0.5295469   -7.6550231    841.77299  0.015724669  0.014647912         3618 
 4462000   0.54132555    -7.653347    840.23854  0.015692487  0.014643012         3616 
 4463000   0.53656956   -7.6543717    840.55322  0.015694847  0.014638115         3639 
 4464000   0.53973304   -7.6568917    842.58408  0.015729243  0.014633218         3613 
 4465000   0.53125826   -7.6432102    841.89436  0.015712847  0.014628323         3658 
 4466000   0.54762037   -7.6460606    841.11843  0.015694851   0.01462343         3638 
 4467000   0.54686733   -7.6465916    841.85075  0.015704999  0.014618541         3609 
 4468000   0.54034394   -7.6466763    840.90703  0.015683882  0.014613652         3606 
 4469000   0.54081818   -7.6505607    839.94644  0.015662461  0.014608765         3624 
 4470000   0.52127112   -7.6517218    841.02086  0.015678987  0.014603883         3613 
 4471000   0.53712974   -7.6399559    841.30885  0.015680848  0.014598999         3626 
 4472000   0.52724943   -7.6584128    841.34542  0.015678023   0.01459412         3641 
 4473000   0.53143526   -7.6642983     840.4138  0.015657161   0.01458924         3628 
 4474000   0.54691282   -7.6546353    840.84094  0.015661618  0.014584364         3634 
 4475000   0.53961157    -7.661645    841.69935  0.015674103  0.014579488         3642 
 4476000   0.53161275   -7.6552818    842.15191  0.015679027  0.014574616         3617 
 4477000    0.5441971   -7.6583776    841.64218  0.015666037  0.014569746         3622 
 4478000   0.53332783   -7.6496284    842.11042  0.015671252  0.014564876         3643 
 4479000   0.53769574   -7.6513622    841.98577  0.015665435  0.014560008         3614 
 4480000   0.53484224   -7.6415129    841.08756   0.01564523   0.01455514         3610 
 4481000   0.55378483   -7.6342932    841.47689  0.015648979  0.014550281         3616 
 4482000   0.54050062    -7.642489    841.63384  0.015648406  0.014545424         3615 
 4483000   0.52338652   -7.6576881    840.57035  0.015625146  0.014540567         3642 
 4484000   0.53255574   -7.6660057    842.16151  0.015651232  0.014535711         3605 
 4485000    0.5445095   -7.6654716    840.52532  0.015617342  0.014530857         3615 
 4486000   0.54041139   -7.6438754    842.09141  0.015642952  0.014526003         3621 
 4487000   0.54466226   -7.6604264     842.3834  0.015644889  0.014521155         3625 
 4488000   0.53298024   -7.6765975    840.67102  0.015609607  0.014516309         3637 
 4489000   0.53554527    -7.665362    840.86697  0.015609768   0.01451146         3647 
 4490000   0.53557992   -7.6749543     841.4355  0.015616843  0.014506618         3650 
 4491000   0.52130022   -7.6728599    840.64311  0.015598662  0.014501776         3637 
 4492000   0.54240076   -7.6574715    840.61094  0.015594593  0.014496932         3618 
 4493000   0.53387004   -7.6489017    842.49495  0.015626066  0.014492091         3626 
 4494000   0.53060873   -7.6519109    841.16586  0.015597943  0.014487253         3647 
 4495000   0.53837805   -7.6540711    841.81053  0.015606424  0.014482419         3609 
 4496000   0.54069805   -7.6655741    841.10613  0.015589897  0.014477583         3619 
 4497000   0.53299693   -7.6685089    840.29702  0.015571437  0.014472749         3613 
 4498000   0.53616312   -7.6901753    839.85319  0.015559752   0.01446792         3604 
 4499000   0.53132662   -7.6542116    842.92888  0.015613264  0.014463088         3577 
 4500000   0.53254676   -7.6666599    841.77652  0.015588454  0.014458265         3599 
 4501000   0.53008241   -7.6610109    841.57252  0.015581214  0.014453442         3608 
 4502000   0.54855337   -7.6750607    839.93076  0.015547363   0.01444862         3621 
 4503000   0.52937784   -7.6595245    841.19289  0.015567268  0.014443803         3617 
 4504000   0.52667331   -7.6636616    840.16351  0.015544766  0.014438984         3607 
 4505000   0.52409405   -7.6702799    840.26663  0.015543223   0.01443417         3599 
 4506000   0.52433265   -7.6522676    842.37176  0.015578705  0.014429354         3630 
 4507000   0.53043578   -7.6819235    842.28382  0.015573623  0.014424543         3600 
 4508000   0.52973726   -7.6674069    840.78721  0.015542502   0.01441973         3600 
 4509000   0.53225271   -7.6870537    842.40297  0.015568917  0.014414921         3597 
 4510000    0.5217224   -7.6708617    840.21652  0.015525065  0.014410112         3612 
 4511000   0.54690801   -7.6673502    841.42172  0.015543888  0.014405308         3587 
 4512000   0.52461321   -7.6668384    840.30855  0.015519883  0.014400508         3602 
 4513000   0.51389849   -7.6659638    841.35398  0.015535748  0.014395708         3626 
 4514000   0.52823787   -7.6515308    841.78321  0.015540231  0.014390907         3623 
 4515000   0.53354536   -7.6683928    840.55731  0.015514162  0.014386112         3592 
 4516000   0.53975458   -7.6468149    842.64416  0.015549235  0.014381318         3604 
 4517000   0.52665416   -7.6596093     841.9036   0.01553213  0.014376529         3604 
 4518000   0.53034268   -7.6542139    840.72127  0.015506885  0.014371736         3614 
 4519000   0.53617121   -7.6644511    841.55689  0.015518863   0.01436695         3616 
 4520000   0.53195797   -7.6794633     841.3134   0.01551094  0.014362163         3642 
 4521000    0.5338062   -7.6550224    841.88884  0.015518116  0.014357378         3593 
 4522000   0.52942487   -7.6732265    841.08123  0.015499801  0.014352596         3636 
 4523000   0.54059144   -7.6753237    841.24038  0.015499307  0.014347811         3609 
 4524000   0.53007488   -7.6632735     840.7796  0.015487393  0.014343032         3610 
 4525000   0.52633273   -7.6644476    840.14182  0.015472225  0.014338253         3625 
 4526000   0.53369917   -7.6813335    840.92839  0.015483289  0.014333479         3620 
 4527000   0.53116458    -7.666611    840.52968  0.015472529  0.014328708         3633 
 4528000   0.52696268   -7.6622629    841.57644  0.015488377  0.014323937         3599 
 4529000   0.52981679   -7.6667124     840.6042  0.015467068   0.01431917         3603 
 4530000   0.52070239   -7.6714392    840.76255  0.015466566  0.014314397         3621 
 4531000   0.52599095   -7.6748626    840.56747  0.015459565  0.014309628         3617 
 4532000   0.53347408   -7.6743235    841.74561  0.015477817  0.014304859         3599 
 4533000   0.51631477   -7.6538928    841.18751  0.015464143  0.014300095         3634 
 4534000   0.51607304   -7.6659977    839.61539  0.015431837   0.01429533         3621 
 4535000   0.52187802   -7.6745147    841.57585  0.015464459  0.014290569         3625 
 4536000   0.51780504   -7.6775296    840.23829  0.015436477   0.01428581         3654 
 4537000   0.52395523   -7.6578189    840.34427  0.015435021   0.01428105         3617 
 4538000   0.51642513   -7.6564203    841.68584  0.015456255  0.014276293         3611 
 4539000   0.52040881   -7.6893431     841.6165  0.015451577  0.014271539         3616 
 4540000   0.52810665   -7.6688726      840.114  0.015420595  0.014266783         3605 
 4541000   0.52353033   -7.6735044     840.8004  0.015429795  0.014262032         3611 
 4542000   0.52235386   -7.6649054    842.16519  0.015451438  0.014257283         3618 
 4543000   0.51871258    -7.663911    841.02764  0.015427171  0.014252538         3619 
 4544000   0.52446252    -7.679425    840.72658  0.015418254  0.014247794         3605 
 4545000   0.51443996   -7.6637479    841.23953  0.015424267  0.014243048         3602 
 4546000   0.52348257   -7.6705771    840.07221  0.015399476  0.014238309         3643 
 4547000   0.52477583   -7.6850137    840.22292  0.015398851  0.014233565         3610 
 4548000   0.52119728   -7.6707165    839.89299   0.01538942  0.014228828         3622 
 4549000   0.53561251   -7.6788509    840.40719  0.015395457  0.014224092         3608 
 4550000   0.52478914   -7.6721963    841.22693  0.015407087  0.014219357         3598 
 4551000   0.51761539   -7.6645764    840.42024   0.01538893  0.014214627         3632 
 4552000   0.52172506   -7.6906928     842.1073  0.015416434  0.014209896         3629 
 4553000   0.52145762   -7.6902974    840.99751  0.015392736  0.014205164         3630 
 4554000   0.52553588   -7.6781526     841.2164  0.015393361  0.014200436         3583 
 4555000    0.5287952   -7.6879796    841.50992  0.015395352  0.014195713         3603 
 4556000   0.52450891    -7.658465    840.08749  0.015365955  0.014190994         3605 
 4557000   0.51660242   -7.6617231    840.51976  0.015370488  0.014186273         3597 
 4558000   0.52733794   -7.6667363    841.25162  0.015380496  0.014181558         3626 
 4559000   0.52906171   -7.6779044    840.87038  0.015370154  0.014176841         3641 
 4560000   0.51307131   -7.6575963    840.11545  0.015352987  0.014172131         3614 
 4561000    0.5338902   -7.6771449    840.45524  0.015355829  0.014167423         3614 
 4562000   0.52159666   -7.6804058    840.14462  0.015346789  0.014162712         3622 
 4563000   0.51588142   -7.6923901    839.69121  0.015335145  0.014158005         3616 
 4564000   0.52325179   -7.6767759    840.87995   0.01535349  0.014153299         3632 
 4565000   0.53560595    -7.679967    840.62081  0.015345396  0.014148594         3603 
 4566000   0.52228714   -7.6639956    840.11241  0.015332757  0.014143892         3632 
 4567000   0.53926808   -7.6750555     840.2915  0.015332667  0.014139195         3624 
 4568000    0.5133152   -7.6726736    841.18122  0.015345542  0.014134498         3601 
 4569000    0.5311701   -7.6775894    841.07958  0.015340329  0.014129806         3599 
 4570000   0.52032203   -7.6929905     842.0995  0.015355571  0.014125111         3614 
 4571000   0.53108736   -7.6725987    840.29888  0.015319384  0.014120421         3613 
 4572000     0.526443   -7.6793033    840.46835  0.015319123  0.014115734         3614 
 4573000   0.52220611    -7.687964    842.02435  0.015344128  0.014111048         3616 
 4574000   0.52164333   -7.6734729    838.93373  0.015284465  0.014106361         3619 
 4575000   0.52296832   -7.6792765    840.12201  0.015302769  0.014101678         3635 
 4576000   0.51763184   -7.6788522    840.27868  0.015302278  0.014096996         3627 
 4577000   0.51949493    -7.672045    841.22299  0.015316128  0.014092316         3593 
 4578000   0.51178709   -7.6846687    839.96507  0.015289884  0.014087639         3645 
 4579000   0.52845535   -7.6680434    840.75777  0.015300971   0.01408296         3622 
 4580000   0.51755425   -7.6827996    839.41653  0.015273226  0.014078285         3635 
 4581000   0.50900834   -7.6853414    840.16752  0.015283554  0.014073611         3613 
 4582000   0.51553387   -7.6867507    840.03053  0.015277727   0.01406894         3608 
 4583000   0.53088373   -7.6689717    840.75319  0.015287533  0.014064271         3623 
 4584000   0.52500403   -7.6869654    840.29879  0.015275938  0.014059605         3617 
 4585000   0.51563502   -7.6848736    838.92833  0.015247698  0.014054938         3643 
 4586000   0.50691283   -7.6681704    839.56816  0.015255999  0.014050275         3630 
 4587000   0.52453483   -7.6764016    839.69703  0.015255015  0.014045615         3606 
 4588000    0.5304969   -7.6989997    840.71289  0.015270141  0.014040955         3601 
 4589000   0.52472495   -7.6828519    840.39734  0.015261083  0.014036298         3602 
 4590000   0.53677851   -7.6946394     838.6569   0.01522616  0.014031638         3633 
 4591000   0.52039138   -7.6825378    840.08744   0.01524881  0.014026985         3596 
 4592000   0.51410764   -7.6602109    839.37136  0.015232494  0.014022332         3623 
 4593000   0.51484342   -7.6739645    840.32054  0.015246399   0.01401768         3608 
 4594000   0.51654709   -7.6786083    840.14889  0.015239967  0.014013027         3602 
 4595000   0.52677758   -7.6858816    841.84508  0.015267412   0.01400838         3617 
 4596000    0.5046658   -7.6774634    839.86547  0.015228196  0.014003735         3596 
 4597000   0.51465847   -7.6941767    839.83709  0.015224369   0.01399909         3614 
 4598000   0.52479453   -7.6733918    839.21904  0.015209856  0.013994446         3603 
 4599000   0.51915322   -7.6855198    840.31947  0.015226489  0.013989809         3586 
 4600000   0.51418644   -7.6779668    840.42342  0.015225062  0.013985171         3650 
 4601000   0.51701191   -7.6949297    840.46762  0.015222553  0.013980534         3611 
 4602000   0.51279162   -7.6746813    839.81409  0.015207411    0.0139759         3600 
 4603000   0.50589092   -7.7015558    840.37277  0.015214222  0.013971265         3627 
 4604000   0.50302736   -7.6910246    841.57616  0.015232699  0.013966632         3617 
 4605000    0.5197255   -7.6854849    840.48586  0.015209661  0.013962002         3616 
 4606000   0.50423542   -7.6894327    840.30947  0.015203167  0.013957375         3595 
 4607000   0.51695681   -7.6996929    840.49475  0.015203219  0.013952746         3608 
 4608000    0.5205499   -7.6758886    841.00618  0.015209168  0.013948122         3592 
 4609000   0.51250545   -7.6921475    840.88133  0.015203611  0.013943499         3588 
 4610000   0.50219336   -7.6941167    841.03821  0.015203149  0.013938874         3635 
 4611000   0.51474838   -7.6951205    839.00141  0.015163041  0.013934254         3599 
 4612000   0.51863693   -7.6914198    839.68886  0.015172175  0.013929637         3607 
 4613000   0.52844064   -7.6732505    841.14925  0.015195268  0.013925023         3605 
 4614000   0.51335597   -7.6945936    840.28976  0.015176451  0.013920412         3606 
 4615000   0.51886677   -7.6746703    840.38419  0.015174868  0.013915798         3609 
 4616000   0.50401988   -7.6736273    839.16838  0.015149631  0.013911188         3617 
 4617000   0.52170902   -7.6991735    840.78422  0.015175515  0.013906581         3634 
 4618000   0.50505299   -7.6725414    840.03843   0.01515877  0.013901979         3627 
 4619000     0.506986   -7.6830387    841.09851  0.015174614  0.013897373         3600 
 4620000   0.50186754    -7.701702     840.8681  0.015167174  0.013892768         3635 
 4621000   0.50607946   -7.6835672    840.09107  0.015149879  0.013888166         3604 
 4622000   0.50679053   -7.6832107    841.20887  0.015166754  0.013883567         3647 
 4623000   0.53351856   -7.6769793    839.35442  0.015130046  0.013878972         3626 
 4624000   0.51151458   -7.6887793    839.91487  0.015136874  0.013874376         3623 
 4625000   0.51651239   -7.6931508    840.00163  0.015135165  0.013869783         3599 
 4626000   0.51113739   -7.6974725    839.87792  0.015129664   0.01386519         3630 
 4627000   0.50946906   -7.7073602    840.30177  0.015134028  0.013860597         3584 
 4628000    0.5053744   -7.7011585     838.7148  0.015102182  0.013856008         3634 
 4629000   0.52266565   -7.6870703    840.64036  0.015133585  0.013851422         3592 
 4630000   0.50192017   -7.7029637    839.29677  0.015106133  0.013846836         3635 
 4631000   0.51744761   -7.6896956    840.88317  0.015131418   0.01384225         3611 
 4632000   0.52010746   -7.6938304    838.98763  0.015094049  0.013837666         3618 
 4633000   0.51006328   -7.6937918    839.77704   0.01510499  0.013833085         3595 
 4634000    0.5046936   -7.6900782     839.5773  0.015098139  0.013828507         3583 
 4635000    0.4999728    -7.682022    839.86328  0.015100023  0.013823931         3642 
 4636000   0.51960939   -7.6918928    840.28096  0.015104274  0.013819353         3567 
 4637000   0.51725535   -7.7009767    840.06138   0.01509707  0.013814777         3598 
 4638000    0.5044487   -7.6968407     839.7013  0.015087345  0.013810208         3608 
 4639000   0.50888195   -7.6816828    839.37348  0.015078204  0.013805637         3620 
 4640000   0.51560207   -7.6846463    838.48873  0.015059065  0.013801067         3616 
 4641000   0.50143149   -7.6927429    839.71562   0.01507785  0.013796497         3598 
 4642000   0.50604504   -7.6983383    838.70507   0.01505646  0.013791931         3612 
 4643000   0.51694262   -7.7125377    840.62993  0.015087765  0.013787366         3636 
 4644000   0.49654241   -7.6845417    839.14863  0.015057936  0.013782804         3617 
 4645000   0.50375062    -7.692016    839.38825  0.015058993  0.013778238         3603 
 4646000   0.49982771   -7.6801079    839.28049  0.015053819  0.013773681         3618 
 4647000   0.49861155   -7.7195657    839.16711  0.015048546  0.013769124         3641 
 4648000   0.50014244    -7.688259    839.19983  0.015045895  0.013764566         3596 
 4649000   0.50811794   -7.7043814    839.25643  0.015043673  0.013760015         3602 
 4650000   0.49304806   -7.7028651    839.44834  0.015043877  0.013755464         3613 
 4651000   0.50770349   -7.7081589    839.61199  0.015043575  0.013750917         3611 
 4652000   0.51099468   -7.6935933    840.70427  0.015059907  0.013746374         3578 
 4653000   0.50630162   -7.7081295    840.50727  0.015053143   0.01374183         3597 
 4654000   0.51377722   -7.7029019    839.98524  0.015040561  0.013737287         3610 
 4655000   0.50310195   -7.7047098    840.22227  0.015041573  0.013732746         3577 
 4656000   0.50436448   -7.6930743    839.29433  0.015021734   0.01372821         3627 
 4657000   0.50961077   -7.7177401    840.02433  0.015031571  0.013723671         3610 
 4658000    0.5103283   -7.7017407    841.56643  0.015055933  0.013719137         3594 
 4659000   0.50521578   -7.6929192    839.33118  0.015012721  0.013714604         3596 
 4660000   0.50672202   -7.6946285    840.07127  0.015022734   0.01371007         3607 
 4661000   0.50564132   -7.7108668    839.48757  0.015009075   0.01370554         3612 
 4662000   0.51855315   -7.7113051    839.82575    0.0150119  0.013701011         3611 
 4663000   0.49360744   -7.7078171    839.88128  0.015009673  0.013696483         3591 
 4664000   0.50245116   -7.6966537     840.1849   0.01501188  0.013691958         3599 
 4665000   0.51697735   -7.6837907    840.04384  0.015006142  0.013687438         3580 
 4666000   0.50474043   -7.6947988    839.40352   0.01499149   0.01368292         3600 
 4667000    0.5054202   -7.6996469    838.17248  0.014966297  0.013678396         3620 
 4668000   0.50348532   -7.7031392    839.87596  0.014993501  0.013673879         3594 
 4669000   0.50548037   -7.7152449    839.97587  0.014992073  0.013669365         3609 
 4670000   0.50143691   -7.7022367    838.60947   0.01496448  0.013664853         3623 
 4671000   0.50726495   -7.7144535    839.12716  0.014970512  0.013660338         3614 
 4672000   0.51159803   -7.7007365    837.88987  0.014945239  0.013655828         3587 
 4673000   0.50413599   -7.7008043    839.37788  0.014968576  0.013651319         3627 
 4674000   0.50262154   -7.7125988    839.46265  0.014966885  0.013646814         3630 
 4675000   0.51171674   -7.6986027    837.80532  0.014934141  0.013642311         3640 
 4676000   0.50643588   -7.7056851    838.51282  0.014943556  0.013637808         3614 
 4677000   0.49371132   -7.7090764     840.0697  0.014968101   0.01363331         3598 
 4678000   0.50936829   -7.6873949    839.35323  0.014952138   0.01362881         3601 
 4679000   0.51255559   -7.7035225    839.40724  0.014949905  0.013624313         3605 
 4680000   0.49814505   -7.7013742    838.99909  0.014939442  0.013619815         3620 
 4681000   0.50445765   -7.7058614    838.17859  0.014921644  0.013615323         3597 
 4682000   0.50289692   -7.7003972    839.59736  0.014943709  0.013610827         3604 
 4683000   0.50972148   -7.7040287    837.95436  0.014911281  0.013606333         3614 
 4684000   0.50679304   -7.7096403    839.46132  0.014934908  0.013601846         3602 
 4685000    0.4976933   -7.6984467    838.11406  0.014907756  0.013597358         3618 
 4686000   0.50371626   -7.6906036    839.99238  0.014937978  0.013592871         3600 
 4687000   0.50302564   -7.7109576    839.43254  0.014924837  0.013588388         3623 
 4688000   0.50046763   -7.7208071    838.53812  0.014905754  0.013583903         3599 
 4689000   0.51217192   -7.7228125    839.43931  0.014918592  0.013579423         3618 
 4690000   0.50637227   -7.6957672    839.28828  0.014912727  0.013574946         3583 
 4691000   0.51433567   -7.7021858    841.51628  0.014949127  0.013570474         3604 
 4692000   0.49967917   -7.7045419    838.41149  0.014890798  0.013566002         3595 
 4693000   0.49404511   -7.7093463    839.19845  0.014901599  0.013561531         3613 
 4694000   0.50102385   -7.7107779    838.94899  0.014893996  0.013557063         3637 
 4695000   0.49658534   -7.6983959    839.70762  0.014904289  0.013552594         3580 
 4696000   0.50609679   -7.7011613    838.36323  0.014877258   0.01354813         3599 
 4697000   0.50506457   -7.6963418    839.22405  0.014889363  0.013543663         3591 
 4698000    0.4982935   -7.7005271    839.73674  0.014895288  0.013539199         3601 
 4699000   0.50402306   -7.7069457    839.11467  0.014881086  0.013534742         3621 
 4700000   0.50597806   -7.6946245    839.61415  0.014886776  0.013530279         3611 
 4701000   0.49537785   -7.7185507     838.7677  0.014868604   0.01352582         3638 
 4702000   0.50033761   -7.7076017    838.78713  0.014865786  0.013521363         3618 
 4703000   0.48996418   -7.6909679    840.40565  0.014891304  0.013516912         3592 
 4704000   0.50608168   -7.7273663    840.43458  0.014888651  0.013512461         3635 
 4705000    0.5008644   -7.7153689    838.42806  0.014849948  0.013508011         3648 
 4706000   0.51234952   -7.6864999    838.76035  0.014852677  0.013503563         3600 
 4707000   0.50319191   -7.7078881    840.02974  0.014871995  0.013499118         3619 
 4708000   0.50387615   -7.7129709    839.71978  0.014863349  0.013494673         3604 
 4709000   0.49819261   -7.7082129    838.54698  0.014839438   0.01349023         3563 
 4710000   0.50019543   -7.7045638    839.23532  0.014848466  0.013485791         3602 
 4711000   0.51233158    -7.699886    839.65812  0.014852793  0.013481355         3609 
 4712000   0.48447609   -7.6980951    838.85386  0.014835418  0.013476918         3610 
 4713000   0.48996204   -7.7252883    838.61519   0.01482805  0.013472483         3624 
 4714000   0.50922267   -7.7067374    838.37627  0.014820681  0.013468048         3620 
 4715000   0.49523497   -7.7182388    840.05258  0.014847165  0.013463617         3609 
 4716000   0.50160916   -7.7151366    838.65088  0.014819248   0.01345919         3596 
 4717000   0.50144331   -7.7034329    838.90316  0.014820563   0.01345476         3608 
 4718000   0.49818658   -7.7056446    839.29716  0.014824381  0.013450335         3608 
 4719000   0.48978273   -7.7201771    840.24567  0.014837989  0.013445911         3595 
 4720000   0.49519302     -7.68796    839.35061  0.014819043  0.013441492         3575 
 4721000   0.49768264   -7.6862571    838.99256  0.014809584  0.013437079         3630 
 4722000   0.50344299   -7.7126062    839.58471  0.014816898  0.013432661         3618 
 4723000   0.49898649    -7.712616     839.5699    0.0148135  0.013428245         3609 
 4724000     0.495752   -7.6968147    838.62781  0.014793745  0.013423833         3620 
 4725000   0.50083821   -7.7076304      839.847  0.014812116  0.013419421         3617 
 4726000   0.48236034   -7.7223711    839.73482  0.014807004  0.013415008         3609 
 4727000   0.49517182   -7.7036358    838.95329  0.014790094  0.013410597         3618 
 4728000   0.49959062   -7.7324905    840.27537  0.014810268  0.013406186         3588 
 4729000   0.48634525    -7.719121    838.53394  0.014776449   0.01340178         3592 
 4730000   0.49735157   -7.7191915    838.84209  0.014778754   0.01339738         3595 
 4731000   0.48772439   -7.7203354    838.64058  0.014772081   0.01339298         3599 
 4732000   0.50188114   -7.7210675     839.2755   0.01478014  0.013388583         3618 
 4733000   0.48874199   -7.7089077    838.80404  0.014768717  0.013384186         3580 
 4734000    0.4929893   -7.7135237    838.90834  0.014767433  0.013379792         3593 
 4735000   0.50629197    -7.710249    839.93526  0.014782388  0.013375398         3635 
 4736000   0.49417445   -7.6992302     839.0544  0.014763767  0.013371009         3616 
 4737000   0.48631645   -7.7162641    838.31302  0.014747608  0.013366615         3606 
 4738000   0.48757441   -7.6933374    840.01484  0.014774427  0.013362228         3616 
 4739000   0.49966905   -7.7102281      838.459  0.014743951  0.013357841         3610 
 4740000   0.50334708   -7.7119617    840.05282  0.014768861  0.013353456         3597 
 4741000   0.49537191   -7.7191344    839.10854  0.014749148  0.013349073         3623 
 4742000   0.49271265   -7.7003624    839.16798  0.014747082  0.013344692         3621 
 4743000   0.49467796   -7.7147846    839.85794  0.014756096  0.013340314         3608 
 4744000   0.49660223   -7.7215641    839.79705  0.014751916  0.013335933         3595 
 4745000   0.48110278   -7.7264529    838.66383  0.014728905  0.013331552         3613 
 4746000   0.48945757   -7.7216901    839.01356  0.014731942  0.013327178         3607 
 4747000   0.49229381   -7.7040398    837.88579  0.014709041  0.013322804         3620 
 4748000   0.49563606   -7.7105577    837.82819  0.014704932  0.013318433         3592 
 4749000   0.49180732   -7.7166024    839.39359  0.014729304  0.013314062         3613 
 4750000   0.49655742   -7.7095727     839.4706  0.014727554  0.013309694         3600 
 4751000   0.50083065   -7.7280565    840.70271  0.014746066  0.013305329         3616 
 4752000   0.50026507   -7.7169232    838.53046  0.014704869  0.013300964         3609 
 4753000   0.49639292   -7.7032821    838.52512  0.014701682  0.013296603         3608 
 4754000   0.48652569   -7.7181471    839.48284  0.014715377  0.013292246         3601 
 4755000   0.48793092   -7.7166934    839.41691  0.014711127  0.013287884         3618 
 4756000   0.49274654   -7.7250113    838.74573  0.014696274  0.013283524         3619 
 4757000   0.50171357   -7.7080049    839.77608  0.014711234  0.013279169         3620 
 4758000   0.48890138   -7.7237193     838.2901  0.014682116  0.013274816         3622 
 4759000   0.49093156   -7.7287627      839.103  0.014693265  0.013270464         3615 
 4760000   0.48391391   -7.7218278    839.09011  0.014689953  0.013266114         3637 
 4761000   0.50929005    -7.718618    839.12333  0.014687449  0.013261765         3586 
 4762000   0.49855741   -7.7224717    839.39943  0.014689196  0.013257419         3615 
 4763000   0.49693799   -7.7137859    839.40412  0.014686194  0.013253072         3619 
 4764000   0.48473965   -7.7023207    838.44425  0.014666321  0.013248729         3576 
 4765000   0.48376527   -7.7235991    837.53804  0.014647395  0.013244385         3570 
 4766000     0.476925   -7.7133336    838.16856  0.014655346  0.013240042         3590 
 4767000   0.50588935   -7.7146597    838.63203  0.014660374  0.013235702         3610 
 4768000   0.48603517   -7.7107399    837.62173  0.014639641  0.013231365         3604 
 4769000   0.49104182   -7.7300888    839.60174   0.01467117  0.013227029         3609 
 4770000   0.47608838   -7.7295568    839.04226   0.01465832  0.013222694         3599 
 4771000   0.48597592   -7.7123592    837.55844  0.014629331  0.013218361         3601 
 4772000   0.47392723   -7.7181441    837.87939   0.01463187  0.013214029         3608 
 4773000   0.49265365   -7.7234949    839.30066  0.014653619    0.0132097         3591 
 4774000   0.48603379   -7.7378866    840.00332  0.014662815  0.013205371         3618 
 4775000   0.48747054   -7.7167936    838.58627  0.014635014  0.013201047         3633 
 4776000   0.48319848   -7.7216715    839.20646   0.01464277  0.013196723         3604 
 4777000   0.49570916   -7.7207665    838.17897  0.014621781    0.0131924         3588 
 4778000   0.48516703   -7.7288574    838.86336  0.014630657  0.013188076         3609 
 4779000   0.47753994    -7.727284    839.26677   0.01463463  0.013183756         3596 
 4780000   0.49677983   -7.7364043    839.14383  0.014629425  0.013179439         3600 
 4781000   0.48473735   -7.7189532    838.66863  0.014618083  0.013175121         3595 
 4782000   0.48210039   -7.7381947    839.46221  0.014628855  0.013170806         3609 
 4783000   0.48608005   -7.7330834    837.69724  0.014595046  0.013166493         3615 
 4784000   0.48937031    -7.736073    837.12435  0.014582016  0.013162179         3615 
 4785000   0.48935095   -7.7270414    838.36253  0.014600532   0.01315787         3609 
 4786000   0.48715392   -7.7228111    839.27857  0.014613431  0.013153564         3603 
 4787000   0.48399174   -7.7219191    838.37627  0.014594671  0.013149258         3604 
 4788000   0.48765816   -7.7279365    838.19974   0.01458855  0.013144951         3595 
 4789000   0.47940838   -7.7476845    839.28381  0.014604368  0.013140649         3619 
 4790000   0.48388478    -7.724559    839.52712  0.014605552  0.013136349         3609 
 4791000   0.49407034   -7.7381836     838.6732   0.01458765  0.013132048         3593 
 4792000   0.49106015   -7.7290514    837.92926  0.014571669  0.013127751         3609 
 4793000   0.48015944   -7.7227274    836.88271  0.014550433  0.013123454         3593 
 4794000   0.48037064   -7.7240872    837.26339  0.014554015   0.01311916         3599 
 4795000   0.48288731   -7.7276057     838.3193  0.014569331  0.013114866         3608 
 4796000   0.47568459   -7.7255101    837.79881  0.014557249  0.013110574         3610 
 4797000   0.49306835   -7.7248554    838.43451  0.014565258  0.013106287         3583 
 4798000   0.48554957   -7.7150266    837.94656  0.014553747  0.013102001         3630 
 4799000    0.4867489   -7.7297861    838.58982  0.014561885  0.013097717         3604 
 4800000   0.47582669   -7.7273639    837.46867  0.014539387  0.013093437         3597 
 4801000   0.49537185   -7.7197979    837.59207    0.0145385  0.013089154         3618 
 4802000   0.48878601   -7.7195699     838.7576  0.014555699  0.013084874         3612 
 4803000   0.48734057   -7.7420828     838.9656  0.014556277  0.013080599         3605 
 4804000    0.4773789   -7.7286183    838.14034  0.014538932  0.013076324         3600 
 4805000   0.47511622   -7.7437222     839.0858  0.014552303  0.013072053         3612 
 4806000   0.48897714   -7.7170511    838.53588   0.01453974  0.013067778         3600 
 4807000   0.49144821   -7.7165566    837.45514   0.01451798  0.013063509         3601 
 4808000    0.4773316   -7.7319072    838.33046  0.014530131  0.013059241         3625 
 4809000   0.49015162    -7.718489    838.76112  0.014534573  0.013054976         3611 
 4810000   0.48049041   -7.7164158    837.82016  0.014515249  0.013050711         3603 
 4811000   0.48496166   -7.7256477    838.96179  0.014532006  0.013046448         3610 
 4812000   0.48315036   -7.7176914    837.19377  0.014498368  0.013042187         3630 
 4813000   0.48404331   -7.7267864    838.19198  0.014512639  0.013037928         3583 
 4814000   0.48919255    -7.724434    836.71252  0.014484014  0.013033668         3584 
 4815000   0.48219855   -7.7251099    837.05357  0.014486908  0.013029411         3625 
 4816000   0.47612664    -7.733068    838.74606  0.014513186  0.013025156         3616 
 4817000   0.47736424   -7.7249825    837.01723  0.014480265  0.013020902         3624 
 4818000   0.48423251   -7.7417511    837.56204  0.014486683  0.013016648         3617 
 4819000   0.46469973   -7.7281261    838.04567   0.01449204  0.013012397         3603 
 4820000   0.47967852   -7.7285891     838.1458  0.014490764  0.013008147         3609 
 4821000   0.46158148   -7.7266991     839.3479  0.014508537  0.013003896         3603 
 4822000   0.47760856   -7.7421776    837.55286  0.014474507  0.012999649         3627 
 4823000   0.47787054   -7.7261132    837.21095  0.014465598  0.012995404         3599 
 4824000    0.4846888   -7.7464439    838.55922   0.01448589  0.012991163         3601 
 4825000   0.47976028   -7.7238865    837.53333   0.01446517  0.012986923         3620 
 4826000   0.48780677   -7.7374287    839.09357  0.014489114  0.012982684         3610 
 4827000   0.48602694   -7.7424412    836.92789  0.014448724  0.012978447         3609 
 4828000     0.477226   -7.7251251    838.68207  0.014476009  0.012974212         3600 
 4829000    0.4862772   -7.7428333    837.81506   0.01445805  0.012969979         3625 
 4830000   0.48289054   -7.7354671    837.83064  0.014455325  0.012965749         3626 
 4831000   0.47559622   -7.7283888    838.18471   0.01445844  0.012961521         3604 
 4832000   0.46947705   -7.7500316     837.5823  0.014445059  0.012957291         3608 
 4833000   0.48365488   -7.7408277    836.47647  0.014423003   0.01295306         3623 
 4834000   0.48588945   -7.7331524    837.61449  0.014439637  0.012948837         3607 
 4835000   0.46748904   -7.7321635    837.92846  0.014442062  0.012944615         3570 
 4836000   0.46819777   -7.7486047    838.71034  0.014452549  0.012940394         3605 
 4837000   0.49421631   -7.7186601    837.67262  0.014431683  0.012936176         3597 
 4838000   0.47680556   -7.7479832    838.55347  0.014443873  0.012931956         3623 
 4839000   0.47269997   -7.7354849    838.08069  0.014432746  0.012927739         3615 
 4840000   0.46600167   -7.7344032    837.13004  0.014413396  0.012923525         3605 
 4841000   0.47965591   -7.7423484      838.376  0.014431867  0.012919312         3601 
 4842000   0.47962145   -7.7489198    837.81334  0.014419202  0.012915101         3636 
 4843000   0.47002475   -7.7277171     837.3394   0.01440807  0.012910894         3623 
 4844000   0.46837393   -7.7270847     836.6457  0.014393162  0.012906686         3591 
 4845000   0.47314622   -7.7283506    837.48397  0.014404609   0.01290248         3604 
 4846000   0.48233709   -7.7437052    837.79738  0.014407026  0.012898276         3621 
 4847000   0.46657114     -7.75763    838.32861  0.014413187  0.012894072         3640 
 4848000   0.47152382   -7.7251414    837.82604  0.014401575  0.012889871         3589 
 4849000   0.47678834   -7.7305426    837.72939  0.014396944  0.012885674         3621 
 4850000   0.47598311   -7.7337593    836.51845  0.014373169  0.012881478         3598 
 4851000   0.46881843   -7.7336665    838.13957  0.014398055  0.012877283         3600 
 4852000    0.4744614   -7.7302681    838.43003  0.014400076  0.012873088         3627 
 4853000   0.48236909   -7.7468086    838.35679  0.014395851  0.012868896         3616 
 4854000   0.45935823   -7.7456255    835.15491  0.014337916  0.012864703         3625 
 4855000   0.47494913   -7.7506876    838.70366  0.014395875  0.012860515         3613 
 4856000   0.47842949   -7.7500267    837.62271   0.01437436   0.01285633         3617 
 4857000   0.46745277   -7.7361781    837.47328  0.014368837  0.012852143         3635 
 4858000   0.47039047   -7.7419978     837.3999   0.01436462   0.01284796         3604 
 4859000   0.47057378   -7.7564732    836.76686  0.014350807  0.012843777         3620 
 4860000   0.47462171   -7.7438656      836.738  0.014347359  0.012839596         3606 
 4861000   0.47116604   -7.7467918    836.97117  0.014348405  0.012835418         3606 
 4862000   0.46873758   -7.7442908    838.47221  0.014371181  0.012831243         3615 
 4863000   0.47754814    -7.722986    838.51662  0.014368987  0.012827072         3609 
 4864000   0.48868181   -7.7378986     837.6706  0.014351539    0.0128229         3620 
 4865000    0.4795739   -7.7357525    837.03596  0.014337718  0.012818733         3631 
 4866000    0.4733958   -7.7400137    838.20976  0.014354873  0.012814562         3613 
 4867000   0.48419195   -7.7492032    837.56954  0.014340962  0.012810394         3614 
 4868000   0.47409571   -7.7367497    838.03951  0.014346061  0.012806229         3605 
 4869000   0.46858387   -7.7561113    837.77182  0.014338533  0.012802063         3618 
 4870000   0.47549867   -7.7333385    836.84562   0.01431974  0.012797901         3623 
 4871000   0.48041378   -7.7461505    837.41414  0.014326527  0.012793738         3633 
 4872000   0.47586256   -7.7483786    836.11877  0.014301429  0.012789578         3613 
 4873000   0.47562628   -7.7357134    836.28276  0.014301299   0.01278542         3589 
 4874000   0.47996212   -7.7478904    837.88604  0.014325777  0.012781265         3608 
 4875000   0.47016181   -7.7475034    838.11737  0.014326793   0.01277711         3608 
 4876000   0.48042526   -7.7326061    836.92045  0.014303399  0.012772955         3617 
 4877000   0.47597775   -7.7468132    837.40954  0.014308823  0.012768803         3608 
 4878000   0.48035617   -7.7363426    837.38685  0.014305502  0.012764653         3607 
 4879000   0.46391493   -7.7475317    837.11659  0.014297954  0.012760507         3612 
 4880000   0.46081403   -7.7470826    838.05104  0.014310981  0.012756361         3626 
 4881000   0.47385801   -7.7593062    836.90308   0.01428845  0.012752215         3637 
 4882000   0.46598325   -7.7433825    837.76462  0.014300229  0.012748072         3626 
 4883000   0.46839612    -7.749768    837.27597  0.014288961   0.01274393         3614 
 4884000     0.460116   -7.7499476    838.33859  0.014304167  0.012739788         3622 
 4885000   0.47611802   -7.7426366    837.81182  0.014292252  0.012735649         3597 
 4886000   0.46041933   -7.7258393    838.25737  0.014296926  0.012731513         3621 
 4887000    0.4737548   -7.7509472    836.93917  0.014271523   0.01272738         3618 
 4888000   0.47127798   -7.7606473     838.0569  0.014287659  0.012723249         3611 
 4889000   0.47273947   -7.7456552    837.08821  0.014268225  0.012719119         3601 
 4890000   0.45939056   -7.7501727    838.58477  0.014290811  0.012714989         3586 
 4891000   0.46965318   -7.7383554    837.40456   0.01426778  0.012710863         3612 
 4892000   0.48190623   -7.7502073    837.68516  0.014269644  0.012706739         3622 
 4893000   0.47211866   -7.7390345    837.03303  0.014255621  0.012702613         3652 
 4894000   0.47655202    -7.731528    837.85714  0.014266741   0.01269849         3618 
 4895000   0.46743112   -7.7499674    837.99944  0.014266249  0.012694372         3599 
 4896000   0.47685101   -7.7487527    836.92878  0.014245111  0.012690254         3589 
 4897000   0.47549094   -7.7338685     836.9337  0.014242286  0.012686136         3605 
 4898000    0.4712403   -7.7518907    838.16266  0.014260287  0.012682021         3620 
 4899000   0.45634044   -7.7285276    836.86207  0.014235253  0.012677908         3595 
 4900000   0.47521301   -7.7559568    837.17849  0.014237729  0.012673795         3627 
 4901000   0.46318451   -7.7516422    839.27663    0.0142705  0.012669685         3619 
 4902000   0.46420822    -7.738604    836.93478  0.014227777  0.012665577         3631 
 4903000   0.45904758   -7.7340792    836.66014  0.014220208  0.012661472         3634 
 4904000   0.47058571    -7.733193    837.12657  0.014225234  0.012657367         3615 
 4905000   0.46442781   -7.7485817    837.32225  0.014225658  0.012653262         3628 
 4906000   0.46197415   -7.7616978    837.97472  0.014233841   0.01264916         3602 
 4907000   0.46905959   -7.7537598    836.91421  0.014212931  0.012645059         3616 
 4908000   0.47261591   -7.7607545    837.43282   0.01421884   0.01264096         3635 
 4909000   0.47171956   -7.7377235    835.97645  0.014191221  0.012636861         3630 
 4910000   0.45879567   -7.7535042    837.75412  0.014218502  0.012632766         3624 
 4911000   0.46439697   -7.7505818    837.55335    0.0142122  0.012628671         3606 
 4912000   0.46328447   -7.7472903      837.703  0.014211845   0.01262458         3600 
 4913000   0.47304825   -7.7616052    837.53531  0.014206108  0.012620487         3615 
 4914000   0.46673539   -7.7459302    836.65486  0.014188286  0.012616398         3636 
 4915000   0.47352674   -7.7605526    837.10423  0.014193019  0.012612313         3647 
 4916000     0.460697   -7.7579868    838.12118   0.01420737  0.012608224         3615 
 4917000    0.4717012   -7.7516481    836.80189  0.014182121   0.01260414         3627 
 4918000   0.46666528   -7.7570112    836.47874  0.014173762  0.012600055         3603 
 4919000   0.45973819   -7.7394816    836.77115  0.014175834  0.012595973         3592 
 4920000   0.46752284   -7.7476859    836.90447  0.014175211  0.012591893         3610 
 4921000   0.46721939   -7.7599808    836.97168  0.014173469  0.012587815         3571 
 4922000   0.46527728   -7.7591738    837.94681  0.014187099   0.01258374         3618 
 4923000   0.47117325    -7.747839    837.19977  0.014171572  0.012579667         3621 
 4924000   0.46548253   -7.7533002    836.41965  0.014155491  0.012575597         3603 
 4925000   0.46347356   -7.7388844    836.09687  0.014147155  0.012571525         3587 
 4926000   0.46487408   -7.7531175    837.01362  0.014159792  0.012567457         3619 
 4927000   0.46438905    -7.737263     836.1408  0.014142156  0.012563389         3610 
 4928000   0.46394574    -7.732571    835.70053  0.014131841  0.012559324         3608 
 4929000   0.46723654   -7.7634456    836.28672  0.014138884  0.012555261         3620 
 4930000   0.45431817   -7.7571866    836.08108   0.01413254  0.012551199         3641 
 4931000   0.47012481    -7.755516    837.29635  0.014150212   0.01254714         3617 
 4932000   0.45552049   -7.7418445    836.24558  0.014129589   0.01254308         3623 
 4933000   0.46621038   -7.7670684    837.10879  0.014141307  0.012539023         3620 
 4934000   0.44824169    -7.741923     837.7708  0.014149622  0.012534967         3615 
 4935000   0.46124733   -7.7667163    838.15442  0.014153232  0.012530911         3593 
 4936000   0.45703336   -7.7474612      837.188  0.014134049   0.01252686         3624 
 4937000   0.46451318   -7.7570724    836.73767  0.014123585  0.012522809         3595 
 4938000   0.46698863   -7.7605477    837.23921  0.014129189   0.01251876         3608 
 4939000   0.45403994    -7.759782    836.71398  0.014117466  0.012514711         3628 
 4940000   0.45417522   -7.7588735    837.36328  0.014125561  0.012510665         3622 
 4941000    0.4720678   -7.7617321    837.09252  0.014118136  0.012506621         3633 
 4942000   0.45680462   -7.7650602     835.8737  0.014094727  0.012502577         3633 
 4943000   0.45700694      -7.7569    836.77291  0.014107035  0.012498538         3623 
 4944000   0.46191848   -7.7624415    836.35279  0.014097101  0.012494498         3614 
 4945000   0.45724216   -7.7564347    837.32534  0.014110639  0.012490461         3639 
 4946000   0.46957991   -7.7520637    836.54851  0.014094698  0.012486427         3607 
 4947000   0.45716142   -7.7722856    837.81973  0.014113263  0.012482392         3624 
 4948000   0.45920015    -7.747344    837.59454  0.014106618  0.012478358         3611 
 4949000   0.44973822   -7.7364655    836.53523   0.01408593  0.012474328         3603 
 4950000   0.45984531   -7.7433997    837.29889  0.014095941  0.012470299         3618 
 4951000   0.46131819   -7.7439586    836.83423  0.014085273  0.012466273         3595 
 4952000   0.45246376   -7.7727887    838.06945  0.014103215  0.012462249         3606 
 4953000   0.44911149   -7.7457072    836.67154  0.014076848  0.012458223         3607 
 4954000   0.45735863   -7.7761056    836.59853  0.014072778  0.012454201         3623 
 4955000   0.46232925   -7.7676953    837.08945  0.014078195   0.01245018         3623 
 4956000   0.46530359   -7.7471157    834.87971  0.014038198  0.012446159         3625 
 4957000   0.45553842   -7.7545199    837.58437  0.014080835  0.012442141         3618 
 4958000   0.46526354   -7.7653113    837.30695  0.014073332  0.012438125         3637 
 4959000   0.45065683   -7.7454466    837.35901  0.014071369   0.01243411         3615 
 4960000   0.45374316   -7.7534729    835.85566  0.014043274  0.012430096         3618 
 4961000   0.46133644   -7.7664868    837.19979  0.014063021  0.012426084         3609 
 4962000   0.46335636   -7.7493184    836.60538  0.014050205  0.012422072         3625 
 4963000   0.45931667   -7.7678582    836.96127  0.014053349  0.012418059         3630 
 4964000   0.45925781   -7.7631754    837.24373   0.01405526  0.012414052         3606 
 4965000   0.46659128   -7.7555951     835.8726  0.014029416  0.012410043         3596 
 4966000   0.45665394   -7.7674508    836.87712  0.014043447  0.012406039         3613 
 4967000   0.45997505   -7.7660219    836.22708  0.014029714  0.012402037         3610 
 4968000   0.45556498   -7.7608373    836.59668   0.01403309  0.012398039         3600 
 4969000   0.46258109   -7.7672566    835.92666  0.014019029   0.01239404         3636 
 4970000   0.45613327   -7.7648778    836.40535  0.014024235  0.012390044         3653 
 4971000   0.46192212   -7.7593083    837.32538  0.014036837  0.012386048         3615 
 4972000   0.44972674   -7.7772632    836.77149   0.01402473  0.012382055         3625 
 4973000   0.44881791   -7.7521966    836.06258   0.01401003  0.012378064         3638 
 4974000   0.46303984   -7.7715868    837.24958  0.014027101  0.012374071         3629 
 4975000   0.45529372   -7.7597708    836.31729  0.014008665  0.012370082         3599 
 4976000   0.44957402      -7.7697    837.60757  0.014027458  0.012366094         3603 
 4977000   0.45078082   -7.7704286    837.03034  0.014014975  0.012362109         3617 
 4978000   0.45428231   -7.7678984    836.24106  0.013998946  0.012358122         3619 
 4979000   0.45489704   -7.7728353    836.57757  0.014001767  0.012354141         3618 
 4980000   0.44419916    -7.756022    836.56708   0.01399878  0.012350161         3612 
 4981000   0.45460581   -7.7531297    836.21143  0.013990019  0.012346181         3594 
 4982000   0.45685059   -7.7597726    835.69464  0.013978567    0.0123422         3629 
 4983000   0.44926514   -7.7831908    837.78067  0.014010647  0.012338224         3610 
 4984000   0.45367581   -7.7601753    835.87552  0.013975982  0.012334249         3622 
 4985000   0.45168624   -7.7659231    836.73663  0.013987573  0.012330277         3628 
 4986000   0.45501972   -7.7664248    835.90284  0.013970832  0.012326305         3605 
 4987000   0.46401924   -7.7709048    836.30949  0.013974826  0.012322332         3637 
 4988000    0.4539714   -7.7594907    837.64054  0.013994262  0.012318366         3601 
 4989000   0.45455279    -7.761643    836.81133  0.013977606  0.012314398         3628 
 4990000    0.4486628   -7.7724008    836.54801  0.013970408  0.012310432         3619 
 4991000   0.44537044   -7.7637062    837.14624  0.013977597  0.012306468         3647 
 4992000   0.44665591   -7.7756751    836.44025  0.013963012  0.012302503         3585 
 4993000   0.45891042   -7.7536558     835.3527  0.013942064  0.012298545         3624 
 4994000   0.45017782   -7.7623063    837.50014  0.013975106  0.012294587         3597 
 4995000   0.44908517   -7.7505892    836.83973   0.01396129  0.012290629         3619 
 4996000   0.45169147    -7.747071    836.65975  0.013955493  0.012286674         3648 
 4997000   0.45508425    -7.766805    835.14787  0.013927488  0.012282719         3636 
 4998000   0.44526613   -7.7674568    837.04278  0.013956295  0.012278768         3624 
 4999000   0.44933748   -7.7821245    836.94955   0.01395195  0.012274819         3640 
 5000000   0.44622825   -7.7693198    834.72244  0.013912041  0.012270871         3632 
 5001000   0.44268965   -7.7698675    837.22823  0.013951014  0.012266923         3632 
 5002000   0.45278813   -7.7656849    836.02943  0.013928253  0.012262978         3615 
 5003000   0.45170392   -7.7663217    836.38487  0.013931389  0.012259034         3617 
 5004000    0.4507515   -7.7755984    836.08699  0.013923644  0.012255094         3638 
 5005000   0.44151176   -7.7644685    835.94618  0.013918518  0.012251153         3627 
 5006000   0.45167664   -7.7707153      835.716  0.013911906  0.012247213         3609 
 5007000   0.46329698    -7.761957    836.89831  0.013928805  0.012243277         3630 
 5008000   0.44458579   -7.7690296    836.55764  0.013920355  0.012239341         3616 
 5009000   0.45386079   -7.7529815    836.58251  0.013917989  0.012235408         3623 
 5010000   0.45560044   -7.7626311    836.58434  0.013915242  0.012231475         3633 
 5011000   0.45159022   -7.7663021    836.66181  0.013913753  0.012227544         3604 
 5012000   0.44525083   -7.7845196    836.94769   0.01391573  0.012223614         3622 
Loop time of 10725.2 on 48 procs for 5000000 steps with 4000 atoms

Performance: 80558.279 tau/day, 466.194 timesteps/s
99.4% CPU use with 48 MPI tasks x no OpenMP threads

MPI task timing breakdown:
Section |  min time  |  avg time  |  max time  |%varavg| %total
---------------------------------------------------------------
Pair    | 669.39     | 700.28     | 730.6      |  51.2 |  6.53
Neigh   | 66.559     | 67.586     | 69.203     |   7.0 |  0.63
Comm    | 572.34     | 606.14     | 634.27     |  62.9 |  5.65
Output  | 29.721     | 29.729     | 29.804     |   0.2 |  0.28
Modify  | 9159.8     | 9200.8     | 9240.4     |  21.3 | 85.79
Other   |            | 120.6      |            |       |  1.12

Nlocal:        83.3333 ave          90 max          77 min
Histogram: 4 2 4 9 6 7 6 6 1 3
Nghost:        1770.02 ave        1791 max        1746 min
Histogram: 1 1 5 8 6 7 5 7 7 1
Neighs:        10744.1 ave       11522 max        9896 min
Histogram: 4 4 4 4 6 9 2 6 3 6
FullNghs:      21487.9 ave       23554 max       19805 min
Histogram: 6 4 3 7 7 6 10 2 0 3

Total # of neighbors = 1031420
Ave neighs/atom = 257.85500
Neighbor list builds = 269879
Dangerous builds = 1

#clear
#
#next RN
#
#jump SELF
Total wall time: 2:58:48
