
units lj                  # Use reduced LJ style units
atom_style atomic         # Uncharged point particles
atom_modify map hash      # Needed for indexing of clusters etc
                          # Used to be able to find where atoms are in relation to each other.

lattice fcc 1.0 spacing 1 1 1
Lattice spacing in x,y,z = 1.5874011 1.5874011 1.5874011
region box block 0 10 0 10 0 10 units lattice
create_box 2 box
Created orthogonal box = (0.0000000 0.0000000 0.0000000) to (15.874011 15.874011 15.874011)
  3 by 4 by 4 MPI processor grid
create_atoms 1 box
Created 4000 atoms
  using lattice units in orthogonal box = (0.0000000 0.0000000 0.0000000) to (15.874011 15.874011 15.874011)
  create_atoms CPU = 0.015 seconds
set type 1 type/fraction 2 0.02 78393
Setting atom values ...
  77 settings made for type/fraction
mass 1 1.0
mass 2 1.0
pair_style lj/cut  3.5
pair_modify tail  yes
pair_coeff 1  1  1.0  1.0   # Intearaction between 1 and 1 set with epsilon = 1 and sigma = 1
pair_coeff 1  2  1.5  0.8
pair_coeff 2  2  0.5  0.88

write_data data.0
System init for write_data ...
Neighbor list info ...
  update every 1 steps, delay 10 steps, check yes
  max neighbors/atom: 2000, page size: 100000
  master list distance cutoff = 3.8
  ghost atom cutoff = 3.8
  binsize = 1.9, bins = 9 9 9
  1 neighbor lists, perpetual/occasional/extra = 1 0 0
  (1) pair lj/cut, perpetual
      attributes: half, newton on
      pair build: half/bin/atomonly/newton
      stencil: half/bin/3d
      bin: standard
WARNING: Not all mixed pair coeffs generated from mixing. Use write_data with 'pair ij' option to store all pair coeffs. (../write_data.cpp:312)


#############################
#   M E L T   S Y S T E M   #
#############################

velocity all create 2.4 3143649 mom yes dist gaussian # Assign velocities
                                                    # Temperature 2.4, random number seed, zero linear momentum
                                                                                # Gaussian distribution

timestep 0.002   # simulation timestep
thermo 1000       # output thermodynamic data every 1000 steps bf 100

# Define a fix  in this case with index 1 applied to all
# particles in the simulation. This fix is for simulations
# in the anisotropic NPT ensemble. Note that we use the MTK
# correction.
fix 1 all npt temp 2.4 2.4 0.1 iso 5.68 5.68 0.5 mtk yes tchain 5 pchain 5 # Use NPT ensemble
                                                                         # Set temperature and pressure and damping
                                                                         # Numbers of thermostats in chain and in barostat
run 10000          # run for 10000 steps
Per MPI rank memory allocation (min/avg/max) = 3.642 | 3.644 | 3.648 Mbytes
Step Temp E_pair E_mol TotEng Press Volume 
       0          2.4   -8.2581388            0   -4.6590388   -2.3989133         4000 
    1000    2.3754261   -4.4669725            0  -0.90472417      5.60187    5129.5336 
    2000    2.4464488   -4.3643863            0  -0.69563056    5.6024727    5207.0038 
    3000    2.4018178   -4.4171401            0  -0.81531406    5.7656841    5142.4688 
    4000    2.4124926   -4.4424423            0  -0.82460805    5.9279992    5100.1983 
    5000    2.4023053   -4.4670418            0  -0.86448477    5.6413838    5129.1776 
    6000    2.3557846   -4.4038414            0   -0.8710478    5.4738102     5187.962 
    7000    2.3821051   -4.4438953            0  -0.87163086    5.6776279    5132.6134 
    8000    2.3834016   -4.3945717            0   -0.8203631    5.7611511    5146.5435 
    9000    2.4153972   -4.4253113            0  -0.80312135    5.5971919    5160.9616 
   10000    2.3879848   -4.4168889            0  -0.83580719    5.6717052    5148.3447 
Loop time of 2.04505 on 48 procs for 10000 steps with 4000 atoms

Performance: 844966.295 tau/day, 4889.851 timesteps/s
99.6% CPU use with 48 MPI tasks x no OpenMP threads

MPI task timing breakdown:
Section |  min time  |  avg time  |  max time  |%varavg| %total
---------------------------------------------------------------
Pair    | 0.86044    | 0.91617    | 0.96655    |   2.6 | 44.80
Neigh   | 0.16524    | 0.1721     | 0.1774     |   0.7 |  8.42
Comm    | 0.63581    | 0.70829    | 0.75479    |   3.7 | 34.63
Output  | 0.00024632 | 0.00025216 | 0.00031201 |   0.0 |  0.01
Modify  | 0.19247    | 0.2339     | 0.26234    |   4.9 | 11.44
Other   |            | 0.01434    |            |       |  0.70

Nlocal:        83.3333 ave          91 max          72 min
Histogram: 1 2 1 2 11 6 7 11 5 2
Nghost:        1388.06 ave        1411 max        1360 min
Histogram: 1 2 5 6 6 10 6 3 3 6
Neighs:        7389.62 ave        8440 max        5997 min
Histogram: 1 1 1 5 9 7 13 4 4 3

Total # of neighbors = 354702
Ave neighs/atom = 88.675500
Neighbor list builds = 900
Dangerous builds = 179

# Equilibrate just above the melting temperature to avoid step fn in T

fix 1 all npt temp 1.25 1.25 0.1 iso 5.68 5.68 0.5 mtk yes tchain 5 pchain 5
run 2000
Per MPI rank memory allocation (min/avg/max) = 3.642 | 3.644 | 3.648 Mbytes
Step Temp E_pair E_mol TotEng Press Volume 
   10000    2.3879848   -4.4168889            0  -0.83580719    5.6717052    5148.3447 
   11000     1.259125   -5.8836185            0   -3.9954031    5.6846419    4287.7469 
   12000    1.2423017   -5.9432968            0   -4.0803101    5.6660595    4264.1932 
Loop time of 0.459202 on 48 procs for 2000 steps with 4000 atoms

Performance: 752610.124 tau/day, 4355.383 timesteps/s
99.6% CPU use with 48 MPI tasks x no OpenMP threads

MPI task timing breakdown:
Section |  min time  |  avg time  |  max time  |%varavg| %total
---------------------------------------------------------------
Pair    | 0.19933    | 0.213      | 0.22786    |   1.3 | 46.38
Neigh   | 0.030908   | 0.03201    | 0.033438   |   0.3 |  6.97
Comm    | 0.14008    | 0.15845    | 0.17408    |   1.7 | 34.51
Output  | 5.1577e-05 | 5.3331e-05 | 6.8134e-05 |   0.0 |  0.01
Modify  | 0.0434     | 0.051052   | 0.059238   |   1.9 | 11.12
Other   |            | 0.004635   |            |       |  1.01

Nlocal:        83.3333 ave          93 max          76 min
Histogram: 1 4 8 8 11 8 3 3 1 1
Nghost:        1565.71 ave        1586 max        1545 min
Histogram: 1 5 5 4 6 7 13 4 0 3
Neighs:        8917.69 ave       10113 max        7901 min
Histogram: 1 2 7 9 12 8 3 4 0 2

Total # of neighbors = 428049
Ave neighs/atom = 107.01225
Neighbor list builds = 141
Dangerous builds = 9

#############################
# L I N E A R  Q U E N C H  #
#############################

# Define solid atoms. This closely follows ten Wolde  Ruiz-Montero and Frenkel  Faraday Discuss  1996  104  93-110
# Compute components of the per-atom q6 vector
compute q6 all orientorder/atom degrees 1 6 components 6 nnn NULL cutoff 1.3 # compute the Q6 parameter.
                                                                             # Use all neighbours within 1.3 unit cell.

# get number of connections
compute coord_number all coord/atom orientorder q6 0.5

# An atom is solid if it has 8 or more connections (of a possible 14)
variable is_solid atom c_coord_number>=8
group solid dynamic all var is_solid    # Must be dynamic to update
dynamic group solid defined

# do clustering
compute cluster solid cluster/atom 1.3 # Create a cluster where all atoms within are solid and max 1.3 units from another member

# define chunks one chunk per cluster
compute clus_chunks solid chunk/atom c_cluster nchunk every compress yes  # Says which atoms are in which chunk

# count the size of each chunk
compute size_chunks solid property/chunk clus_chunks count


# Find the maximum entry in the vector of chunk sizes
variable max_n equal max(c_size_chunks)


# Thermo style which includes this variable
# thermo_style custom step temp pe vol v_max_n

thermo ${N}  # Print the thermo information every 100 steps
thermo 1000  

# Reset the npt fix at a lower temperature (below freezing)
fix 1  all npt temp  ${temp} ${temp}  0.1  iso  5.68  5.68  0.5  mtk yes tchain  5  pchain  5
fix 1  all npt temp  0.45 ${temp}  0.1  iso  5.68  5.68  0.5  mtk yes tchain  5  pchain  5
fix 1  all npt temp  0.45 0.45  0.1  iso  5.68  5.68  0.5  mtk yes tchain  5  pchain  5

dump dmp2 all dcd ${N} traj.dcd
dump dmp2 all dcd 1000 traj.dcd


compute msd all msd com yes
variable twopoint equal c_msd[4]/6/(step*dt+1.0e-6)
fix 9 all vector 10 c_msd[4]
variable fit equal slope(f_9)/6/(10*dt)
thermo_style custom step temp pe c_msd[4] v_twopoint v_fit v_max_n

fix 1 all npt temp 1.25 ${temp} 0.1 iso 5.68 5.68 0.5 mtk yes tchain 5 pchain 5
fix 1 all npt temp 1.25 0.45 0.1 iso 5.68 5.68 0.5 mtk yes tchain 5 pchain 5
run 5000000 # 5000000  # Run for this many steps
Neighbor list info ...
  update every 1 steps, delay 10 steps, check yes
  max neighbors/atom: 2000, page size: 100000
  master list distance cutoff = 3.8
  ghost atom cutoff = 3.8
  binsize = 1.9, bins = 9 9 9
  4 neighbor lists, perpetual/occasional/extra = 1 3 0
  (1) pair lj/cut, perpetual
      attributes: half, newton on
      pair build: half/bin/atomonly/newton
      stencil: half/bin/3d
      bin: standard
  (2) compute orientorder/atom, occasional
      attributes: full, newton on
      pair build: full/bin/atomonly
      stencil: full/bin/3d
      bin: standard
  (3) compute coord/atom, occasional
      attributes: full, newton on
      pair build: full/bin/atomonly
      stencil: full/bin/3d
      bin: standard
  (4) compute cluster/atom, occasional
      attributes: full, newton on
      pair build: full/bin/atomonly
      stencil: full/bin/3d
      bin: standard
Per MPI rank memory allocation (min/avg/max) = 9.730 | 9.735 | 9.741 Mbytes
Step Temp PotEng c_msd[4] v_twopoint v_fit v_max_n 
   12000    1.2423017   -5.9432968            0            0 8.3333333e+20            7 
   13000    1.2315012   -5.9499824   0.56690672 0.0036340173  0.046876802            1 
   14000    1.2465301    -5.887091    1.1089146 0.0066006816  0.044902324            4 
   15000    1.2638793   -5.8768885    1.6312857 0.0090626983  0.045380926            3 
   16000     1.237799   -5.9076048    2.1524583   0.01121072  0.044602403            3 
   17000    1.2683529    -5.917724    2.7658237  0.013557959  0.045189694            2 
   18000    1.2450565   -5.8668805    3.2242865  0.014927252  0.045247089            3 
   19000    1.2556569   -5.9434954    3.8241327  0.016772511  0.045145165            7 
   20000    1.2251367    -5.902619    4.4039427  0.018349761  0.045238235            1 
   21000    1.2510523   -5.9104827    4.9626302  0.019692976  0.045443788            6 
   22000    1.2487285   -5.8748197     5.543831  0.020999359  0.045709532            2 
   23000    1.2476611   -5.9091314    6.1333477  0.022222274  0.045974794            5 
   24000    1.2438435     -5.85616    6.7175101  0.023324687  0.046376708            3 
   25000    1.2516292   -5.9760297    7.2656726  0.024218908  0.046616952            3 
   26000    1.2302525   -5.9015957    7.8381831  0.025122381  0.046721354            4 
   27000    1.2490573   -5.9457391     8.410025  0.025956867  0.046798006            3 
   28000     1.262759   -5.9066551    8.9285438  0.026573047  0.046796773            4 
   29000    1.2371676   -5.9122861    9.4995214  0.027297475  0.046806543            4 
   30000    1.2134143    -5.898967    10.092534  0.028034817  0.046813118            2 
   31000    1.2053592   -5.8960944    10.644547  0.028614372    0.0468452            4 
   32000    1.2514721   -5.8918283    11.316373   0.02946972  0.046937924            3 
   33000    1.2644082   -5.8977916    11.837723   0.02989324  0.047052424            4 
   34000    1.2486565   -5.9440405    12.235829  0.029989777  0.047009166            2 
   35000    1.2562593   -5.9205841    12.754605  0.030368107  0.046915419            5 
   36000    1.2365951   -5.9002318    13.250355  0.030672117   0.04681754            2 
   37000    1.2585519   -5.9267848    13.724386   0.03091078  0.046637962            1 
   38000    1.2553631   -5.9177227    14.314885  0.031392292  0.046455864            3 
   39000    1.2202462   -5.9351612    14.901125  0.031840011  0.046333768            3 
   40000    1.2189532   -5.9237235    15.352387  0.031984138  0.046237338            6 
   41000    1.2465996   -5.9389024    15.931638  0.032381377  0.046149651            2 
   42000    1.2553124   -5.8914394    16.575387  0.032887672  0.046092764            4 
   43000    1.2444259   -5.9470219    16.957053  0.032862505  0.046024594            5 
   44000    1.2461883   -5.9018342    17.590661  0.033315646  0.045947249            6 
   45000    1.2542236    -5.889039    18.153114  0.033616877   0.04588666            3 
   46000    1.2527086   -5.9445041    18.651409  0.033788783   0.04585331            3 
   47000    1.2396976   -5.9101863    19.312405  0.034241853  0.045843019            4 
   48000    1.2373729   -5.8990304    19.988701  0.034702606  0.045867603            3 
   49000    1.2485442   -5.9153861     20.40037  0.034694507  0.045911458            6 
   50000    1.2387643   -5.9053346    20.896221  0.034827034  0.045886807            3 
   51000    1.2029399    -5.916977    21.346115  0.034879273  0.045854373            2 
   52000    1.2367484   -5.9234709    21.887105  0.035075489  0.045807728            4 
   53000    1.2622776    -5.929783    22.555712  0.035464956    0.0457815            3 
   54000    1.2302652   -5.8939387    23.267316  0.035906351  0.045788985            6 
   55000     1.224565    -5.916514    23.805582  0.036069063  0.045801832            3 
   56000    1.2580354   -5.9021995    24.226965  0.036052031  0.045814727            2 
   57000    1.2557554    -5.924236    24.663264  0.036057403  0.045790294            3 
   58000    1.2575756    -5.906804    25.187254  0.036188584  0.045759936            2 
   59000    1.2496818   -5.9208487    25.613351  0.036177049  0.045716046            5 
   60000     1.258184   -5.9173493    25.990006  0.036097231  0.045654796            6 
   61000    1.2966178    -5.914145    26.711916  0.036491688  0.045588516            2 
   62000    1.2312163   -5.8975918    27.263191  0.036644074  0.045546715            2 
   63000     1.235857   -5.9078947    27.746144  0.036701248  0.045498739            5 
   64000    1.2487327   -5.9029532    28.444738  0.037037419  0.045473357            3 
   65000    1.2598219    -5.914102    29.105089  0.037314216  0.045482694            7 
   66000    1.2222777   -5.9428813    29.484698  0.037228154  0.045478335            2 
   67000    1.2369969    -5.939846    30.061016  0.037389323    0.0454651            4 
   68000    1.2218329   -5.8784532    30.664285   0.03757878  0.045465362            4 
   69000    1.2257288   -5.9357224    31.065038  0.037518161  0.045454895            4 
   70000    1.2364148   -5.9524033    31.577992  0.037592847   0.04543563           12 
   71000    1.2233053   -5.8994061    32.109113  0.037686752  0.045408346            2 
   72000    1.2369158   -5.9111821    32.464436  0.037574579  0.045371643            3 
   73000    1.2243276   -5.9092395    33.242121  0.037947626  0.045332717            2 
   74000    1.2354783   -5.9135518    33.787476  0.038048959  0.045324385            9 
   75000    1.2725851   -5.8931093    34.421113  0.038245681  0.045309267            4 
   76000    1.2387734   -5.9215425    34.864732  0.038228873  0.045303576            3 
   77000    1.2792523   -5.8994933    35.502163  0.038422254  0.045296994            5 
   78000    1.2433682   -5.9353383    36.042118  0.038506536  0.045302863            5 
   79000    1.2392728   -5.9345079    36.806062   0.03882496  0.045317055            2 
   80000    1.2301249    -5.923885    37.470549  0.039031821  0.045339321            3 
   81000    1.2563202   -5.9373276    37.849546  0.038939862  0.045354043            2 
   82000    1.2609539    -5.934383    38.211914  0.038833245  0.045352037            3 
   83000    1.2097164   -5.9012808    38.849906  0.039005929  0.045342391            3 
   84000    1.2442551   -5.8990986    39.127862  0.038817323  0.045328396            3 
   85000     1.230899   -5.9027401    39.465308  0.038691478  0.045312545            3 
   86000    1.2394424   -5.9397746    40.051977  0.038810055   0.04528755            2 
   87000    1.2344262   -5.9379701    40.289525  0.038591499  0.045245246            2 
   88000    1.2182104   -5.8980316    40.929726   0.03875921  0.045202218            4 
   89000     1.252337   -5.9328745    41.410183  0.038773579    0.0451602            6 
   90000    1.2237294   -5.9383866    41.840506  0.038741209  0.045116401            5 
   91000    1.2456235   -5.9625286     42.50558  0.038924523  0.045080364            2 
   92000    1.2379449   -5.9367153    43.066725  0.039009714  0.045049348            4 
   93000    1.2580571   -5.9463296    43.393444  0.038883014  0.045013505            3 
   94000    1.2391643    -5.952198    44.143635  0.039134428  0.044977002            3 
   95000    1.2351426   -5.8979732    44.709808   0.03921913  0.044956018            2 
   96000    1.2263849   -5.9128875    45.340652  0.039358205  0.044933147            3 
   97000      1.28849   -5.9615529    45.967615  0.039491078  0.044923069            4 
   98000    1.2544351   -5.9479114     46.63331  0.039654175  0.044915728            2 
   99000    1.2228858   -5.8729347    47.083574  0.039632637  0.044919271            3 
  100000    1.2443304   -5.9413439    47.596216  0.039663513  0.044915422            9 
  101000    1.2488843   -5.8991739    48.335915  0.039881118   0.04491129            2 
  102000    1.2529489   -5.9244794    48.954986  0.039995904  0.044916788            3 
  103000    1.2348394   -5.9302531    49.578476  0.040112035  0.044922718            6 
  104000    1.2505743   -5.9644526    50.138461  0.040175049  0.044932628            2 
  105000    1.2390041   -5.9222432    50.897766  0.040395052  0.044952134            3 
  106000     1.221568   -5.9272636     51.44822  0.040446714  0.044970947            3 
  107000    1.2408543   -5.9580438    51.967788  0.040473355  0.044991725            3 
  108000    1.2335557   -5.9745537      52.4875  0.040499614  0.045019674            2 
  109000    1.2376533   -5.9435647    52.915145  0.040455004   0.04503808            2 
  110000    1.2427785   -5.9619198    53.465387  0.040504081  0.045056212            5 
  111000    1.2376165   -5.9691916    54.188519  0.040682071  0.045073469            5 
  112000    1.2542935   -5.9888851    54.637327  0.040652773   0.04508934            3 
  113000    1.2478387   -5.9812847    55.330916   0.04080451  0.045104181            2 
  114000    1.2493391   -5.9453081    56.106493  0.041013518  0.045132598            3 
  115000    1.2170051   -5.9573383    56.722132  0.041102994  0.045162704            4 
  116000    1.2056738   -5.8947055    57.225603  0.041110347  0.045191345            5 
  117000    1.2555474   -5.9460307    57.645574  0.041058101  0.045219266            2 
  118000    1.2463702   -5.9177684    58.139584  0.041059028  0.045245156            5 
  119000    1.2082612   -5.9579686    58.636017  0.041061636  0.045267697            3 
  120000    1.2448316   -5.9063564    59.258791  0.041151938   0.04529014            3 
  121000    1.2201314   -5.9275475     59.72181  0.041130723  0.045308323            3 
  122000    1.2650627   -5.9139403    59.969746  0.040962941  0.045312417            6 
  123000    1.2073681   -5.9249116    60.511391  0.040996877  0.045312226            4 
  124000    1.2077913      -5.9454    60.988809  0.040987103  0.045306131            2 
  125000    1.2572633   -5.8944635    61.379623  0.040919749  0.045303744            4 
  126000      1.24001   -5.9388171    61.567989  0.040719569  0.045292868            3 
  127000    1.2299875   -5.9566638    61.853861  0.040586523  0.045271727            6 
  128000    1.2684484   -5.8892875    62.608512   0.04076075  0.045244077            4 
  129000    1.2403436   -5.9336851    62.970723  0.040678761  0.045214185            3 
  130000    1.2529254   -5.8966647    63.476587   0.04069012  0.045190545            4 
  131000    1.2290342   -5.9047977    64.238709  0.040864318  0.045168777            5 
  132000    1.2155192    -5.950442    64.812982  0.040917286  0.045150859            2 
  133000    1.2153792   -5.8959892     65.38243  0.040966434  0.045136966            4 
  134000    1.2313375   -5.9457747     65.74959  0.040889048  0.045121175            2 
  135000    1.2307236   -5.9105672    66.200712  0.040864637   0.04510452            4 
  136000    1.2567887   -5.9358758    67.117089  0.041125667  0.045093343            3 
  137000    1.2522866   -5.9484987    67.441686  0.041022924  0.045082714            5 
  138000    1.2252889   -5.9395855     67.94921  0.041032131    0.0450707            2 
  139000    1.2267737   -5.9418172    68.887642  0.041299545   0.04506405            2 
  140000    1.2390274   -5.9229639    69.383155  0.041299497  0.045059213            3 
  141000    1.2406576    -5.921702    69.934795  0.041332621  0.045056822            4 
  142000    1.2445844    -5.943577    70.753457  0.041521982  0.045060288            2 
  143000    1.2262191   -5.9233612    71.197441   0.04149035  0.045063359            2 
  144000    1.2350866   -5.8748394    71.793593  0.041547218  0.045065846            1 
  145000    1.2363519   -5.9521263     72.09899  0.041436201  0.045065395            5 
  146000    1.2227165   -5.8899776    72.722536  0.041508296  0.045063295            2 
  147000     1.258828   -5.9341431    73.261076  0.041531222   0.04506401            3 
  148000    1.2483152   -5.9225041    73.444846   0.04135408  0.045058213            4 
  149000    1.2086869     -5.93998    73.845728  0.041300742  0.045045567            3 
  150000    1.2398893   -5.9422199    74.470649  0.041372583  0.045032336            7 
  151000    1.2587827   -5.9337087    74.628467  0.041185688  0.045017376            3 
  152000     1.222729   -5.9749854    75.172665  0.041213084  0.045000257            3 
  153000    1.2299091   -5.9226251    75.769136  0.041268592  0.044983979            1 
  154000    1.2078447   -5.9303915    76.117768  0.041189268  0.044969146            2 
  155000     1.229368     -5.93395    76.955481  0.041373914  0.044955778            3 
  156000     1.247959   -5.9711507    77.469692  0.041383382  0.044947739            3 
  157000    1.2038981   -5.9122757    78.340661  0.041582092  0.044938988            2 
  158000    1.2048183   -5.9544143    78.311933  0.041303762  0.044928075            6 
  159000    1.2052665   -5.9507357    79.110498  0.041462525  0.044914781            6 
  160000    1.2536735   -5.9581958    79.354907  0.041330681  0.044905173            4 
  161000    1.2211172   -5.9571203    79.920566  0.041366752  0.044890589            2 
  162000    1.2593957    -5.942725    80.856126  0.041592657  0.044879274            2 
  163000    1.2148336   -5.9619215    80.796453   0.04130698  0.044865192            2 
  164000    1.2435406   -5.9292455    81.365303  0.041344158  0.044847069            1 
  165000    1.2180756   -5.9075184    81.763058  0.041294473  0.044830547            5 
  166000    1.2170052   -5.9091687    82.342178  0.041336435  0.044810528            2 
  167000    1.2528634   -5.9537138    82.477225    0.0411563  0.044789386            3 
  168000    1.2228097   -5.9664364    83.013596  0.041177379   0.04476693            5 
  169000    1.2418053   -5.8864887    84.020618  0.041430285  0.044745099            2 
  170000    1.2460967    -5.922325    83.844803  0.041100394  0.044720837            2 
  171000    1.2192012   -5.9506513    84.301466  0.041082586  0.044695919            2 
  172000     1.214939   -5.9791324    85.165303  0.041262259  0.044673575            2 
  173000    1.2458131   -5.9313543    85.482395  0.041176491  0.044650011            3 
  174000    1.2091187   -5.9180861    86.099957  0.041235612  0.044627872            2 
  175000    1.2325186   -5.9370124    86.459588  0.041171232  0.044604645            5 
  176000    1.2366735   -5.9483022    87.082483  0.041232236  0.044584197            5 
  177000    1.1922245   -5.9372338    87.961293  0.041413038  0.044565663            2 
  178000    1.2197494    -5.952097    88.723297  0.041537124  0.044551221            7 
  179000    1.2071592   -5.9213732    89.150502  0.041503958  0.044537434            2 
  180000    1.2541201   -5.9061312    89.473306  0.041422827  0.044524102            3 
  181000    1.1823226   -5.9165042    90.046222  0.041457745  0.044510549            3 
  182000    1.2316142   -5.9425913     90.56976   0.04146967  0.044495149            1 
  183000    1.2019778   -5.9528736    90.834364  0.041363553  0.044478108            3 
  184000     1.265358   -5.9520953    91.675419  0.041519664  0.044462556            7 
  185000    1.2369837   -5.9790492     91.97555  0.041430428  0.044450955            4 
  186000    1.2093639      -5.9627    93.124216  0.041722319  0.044440714            2 
  187000    1.2283051   -5.9279778    93.461518  0.041649518  0.044432819            3 
  188000    1.2118425   -5.9486628     93.54405  0.041464561  0.044420788            4 
  189000    1.2095603   -5.9897446    93.885767  0.041395841  0.044407911            4 
  190000    1.2317682   -5.9617861    94.520237  0.041456244  0.044393088            6 
  191000    1.2235824   -5.9276817    95.272877  0.041567573  0.044379049            3 
  192000    1.2200051   -5.9737638    95.915966  0.041630194  0.044367459            3 
  193000    1.2177235   -5.9174792    96.428191  0.041635661  0.044355575            4 
  194000    1.2047892   -5.9748521    96.775759  0.041570343  0.044346303            4 
  195000    1.2417372    -5.957015    97.272369  0.041569388  0.044335973            3 
  196000    1.2059636   -5.9988064    97.799449  0.041581398  0.044323737            4 
  197000    1.2014758   -5.9670502    98.457137  0.041648535  0.044315058            2 
  198000    1.2341949   -5.9172582    98.892931  0.041621604  0.044303318            3 
  199000     1.210868   -5.9715176    99.477314  0.041657167   0.04429216            4 
  200000    1.2130085   -5.9297628    99.852629  0.041605262  0.044280374            2 
  201000    1.2072979   -5.9754268    100.18561  0.041536323  0.044266285            4 
  202000    1.2126239   -5.9608896    100.46075  0.041444205  0.044253064            3 
  203000    1.2305348    -5.921682    101.14222  0.041519794  0.044234558            5 
  204000    1.1956211   -5.9756302     101.4281  0.041433048  0.044216129           10 
  205000    1.2256742   -5.9813202    101.61269   0.04130597   0.04419791            4 
  206000    1.2173642   -5.9105648     102.3911  0.041420347  0.044179376            2 
  207000    1.2166467       -5.991    102.64588  0.041322817  0.044160489            6 
  208000    1.2424345   -5.9887836    103.00321  0.041267313  0.044141264            2 
  209000    1.2383266   -6.0076582    103.98105  0.041459747   0.04412274            2 
  210000    1.2457558    -5.953292    104.29403   0.04138652  0.044106905            6 
  211000    1.2213281   -5.9745769    105.48023  0.041658858  0.044094212            2 
  212000    1.2289719   -5.9605042    105.97224  0.041655754  0.044085101            3 
  213000    1.2218583   -5.9881323    106.50658  0.041669241  0.044076282            1 
  214000    1.2500519   -5.9322653    107.09198  0.041702485  0.044068458            5 
  215000    1.2331368   -5.9789334     107.3966  0.041626588  0.044058794            2 
  216000    1.2353321   -5.9601279     107.5322  0.041486188  0.044045839            4 
  217000    1.2141275    -5.965188    108.03046   0.04148635  0.044030937            3 
  218000    1.2333328   -5.9550645     108.3236  0.041408102  0.044017431            3 
  219000    1.2084835   -5.9935723    108.85174  0.041419991  0.044002425            6 
  220000    1.2451584   -5.9562598    109.54382  0.041493873  0.043987556            6 
  221000    1.2136675   -5.9672632     109.9528  0.041460331  0.043972191            2 
  222000    1.2265661   -5.9866959    110.37123  0.041430643  0.043956197            2 
  223000    1.2389566   -5.9912844    110.83209  0.041417074   0.04393996            5 
  224000     1.229987   -5.9213901     111.4695  0.041469308  0.043921274            4 
  225000    1.2346137   -5.9917339    111.77732  0.041399008   0.04390438            7 
  226000     1.225858   -5.9712916    112.20438  0.041373295  0.043887547            2 
  227000    1.2342237   -5.9589677    113.31215  0.041597704  0.043871751            1 
  228000    1.2193025   -5.9647063    113.78239  0.041587132  0.043857108            2 
  229000    1.1985558   -5.9595151    113.59107  0.041335907  0.043841374            3 
  230000    1.2144383   -5.9719392    114.67774  0.041549907  0.043826732            6 
  231000    1.2110639   -5.9510917    115.48986  0.041663007  0.043813023            3 
  232000    1.2153782   -5.9907569    116.21859  0.041745182  0.043805362            2 
  233000    1.2089336   -5.9874004    116.15688   0.04154395  0.043797618            4 
  234000    1.1956694   -5.9829366    116.57104  0.041513903   0.04378669            3 
  235000    1.2150815   -5.9173136    117.39116   0.04162807  0.043778168            3 
  236000    1.2082143   -5.9538465     117.7462  0.041577049  0.043769316            3 
  237000    1.2153529   -5.9390879      118.376  0.041623065  0.043759399            4 
  238000    1.1773071   -5.9689037     119.2776  0.041763864  0.043750903            3 
  239000    1.2181794   -5.9801373    119.29828  0.041596332  0.043740489            5 
  240000    1.2089531   -5.9776241    120.19582  0.041734659    0.0437313            7 
  241000    1.2108999   -5.9466271    120.15345  0.041546835  0.043722317            5 
  242000    1.2215382   -5.9744383    120.81369  0.041602509  0.043713059            4 
  243000    1.2231915    -5.960812    121.15399  0.041548007   0.04370435            3 
  244000    1.2486572   -6.0224955    121.78448  0.041593059  0.043694608            6 
  245000    1.2143093   -5.9542433    122.31756  0.041604613  0.043686997            3 
  246000    1.2285605   -5.9348639     123.2593  0.041754505  0.043678111            2 
  247000    1.2177662   -5.9454858    123.37509  0.041624525  0.043670887            4 
  248000     1.227534   -5.9471103    123.65067  0.041549284  0.043661761            6 
  249000    1.1920709   -6.0084063    124.17816  0.041558955  0.043653636            2 
  250000    1.2022024   -5.9685627    124.83788  0.041612627  0.043644658            3 
  251000    1.2247301   -5.9718492    125.68751  0.041728921  0.043636974            5 
  252000    1.2106367      -5.9913    126.35303   0.04178341  0.043629578            3 
  253000    1.2449374   -5.9773639      126.789  0.041761858  0.043622278            3 
  254000     1.204939   -5.9733984    126.90262  0.041634717  0.043612839            6 
  255000    1.2122198   -5.9529304    127.74399  0.041746403  0.043604631            2 
  256000    1.2018638   -5.9659998    128.27981   0.04175775  0.043597937            4 
  257000    1.1675587   -5.9602345    128.14079  0.041550191  0.043588557            3 
  258000     1.200643   -5.9675289    128.31466  0.041445303  0.043577163            2 
  259000    1.2027042   -5.9792005    128.96522    0.0414946  0.043564417            3 
  260000    1.2128132   -5.9720764    129.46638  0.041495634  0.043552543            3 
  261000    1.2317558   -6.0034316     129.7679  0.041432917  0.043540879            4 
  262000    1.2411017   -5.9527591    130.42686  0.041484369  0.043529438            5 
  263000    1.2226463   -5.9560325    131.34867  0.041618717  0.043518346            4 
  264000    1.2180726   -6.0054744    131.35738  0.041463819  0.043507254            4 
  265000    1.2149468    -5.977797     131.8992  0.041477736  0.043496308            3 
  266000    1.2076115    -6.003123    132.63829   0.04155335  0.043484471            3 
  267000    1.2280786   -5.9338855     133.1921  0.041570568   0.04347419            8 
  268000    1.2494853   -5.9724281    133.96194  0.041654831  0.043465214            5 
  269000    1.2101323   -5.9756957    134.19763  0.041572996  0.043455339            7 
  270000    1.2603131   -5.9529832     134.3696  0.041472099  0.043445805            1 
  271000    1.1990105   -5.9702767     134.8774  0.041475216  0.043434806            3 
  272000    1.1964739   -5.9857861    135.27457  0.041444416  0.043423237            5 
  273000    1.2212829   -5.9319433    136.32195  0.041612316  0.043413333            2 
  274000    1.2245154   -5.9893421     136.6527   0.04156104   0.04340433            6 
  275000    1.2364868   -5.9491954    137.19934  0.041575557   0.04339389            1 
  276000    1.2208002   -5.9675371    137.73756  0.041587429  0.043383719            3 
  277000    1.2134504   -5.9877611    137.45175  0.041351308   0.04337107            3 
  278000    1.2141048   -5.9527429    138.54353  0.041529836   0.04335907            5 
  279000    1.2064818   -5.9662211    139.06069  0.041535452  0.043348397            3 
  280000    1.2337773   -5.9695601    139.29633  0.041457242  0.043337545            5 
  281000    1.2254228   -6.0132777    139.65741  0.041416788  0.043325877            3 
  282000    1.2216292   -5.9700127    140.54515  0.041532254  0.043316282            2 
  283000     1.201683   -5.9731908    141.28692  0.041603922  0.043306215            2 
  284000    1.2051203   -5.9799604    141.51438  0.041524173   0.04329697            3 
  285000    1.2095259     -5.98978    142.20686  0.041580953  0.043287253            4 
  286000    1.2010985   -5.9726024    142.95405  0.041653279  0.043279612            2 
  287000     1.194394   -5.9719715    143.60232  0.041696376  0.043274263            2 
  288000    1.1964986   -6.0000286    143.87137  0.041629447  0.043268136            2 
  289000    1.2006321   -5.9681053    144.44328  0.041650312  0.043260981            3 
  290000     1.226878   -5.9977282    145.12546  0.041702718  0.043254811            3 
  291000    1.2207829   -5.9754527    145.31774  0.041614474  0.043249431            2 
  292000    1.2459361   -5.9968497    146.03414  0.041676409  0.043242753            3 
  293000    1.1835761   -5.9943492     146.1992  0.041581114  0.043235852            2 
  294000    1.1945063   -5.9735004    147.11013  0.041697881  0.043226797            2 
  295000    1.1758555   -5.9657114      147.051  0.041539829  0.043218379            3 
  296000    1.1970638   -6.0193614    147.63781  0.041564698   0.04320965            1 
  297000    1.2250776   -5.9558965    148.70024  0.041722851  0.043201493            2 
  298000    1.2155115   -5.9873139    148.82273  0.041617095  0.043194419            2 
  299000    1.2187847   -6.0006411    149.70628  0.041724159  0.043189346            3 
  300000    1.1889708   -5.9620708    150.14988  0.041708299  0.043183831            3 
  301000    1.1821436   -5.9842195    150.20047  0.041583739  0.043175386            3 
  302000     1.206349   -5.9558278    150.34605  0.041486216  0.043165804            2 
  303000    1.1881755   -5.9430952    151.45853   0.04165526  0.043157076            6 
  304000    1.1961442   -5.9666903    151.71191  0.041587695   0.04314857            4 
  305000    1.2125816   -5.9666475    151.92943  0.041510773  0.043140253            8 
  306000    1.2155032   -5.9947216    152.57103  0.041549844  0.043131283            9 
  307000    1.1812849   -5.9902128    152.74716  0.041462312  0.043122461            3 
  308000    1.1944732   -5.9622875    152.54309  0.041272481  0.043112198            3 
  309000    1.2100897   -6.0074423    153.89803  0.041504323   0.04310139            4 
  310000    1.1904066   -6.0085361    153.56507  0.041280932  0.043089956            3 
  311000    1.2193234   -5.9975386    154.74354  0.041463971   0.04307842            5 
  312000     1.216085   -5.9661194    155.23148  0.041461399  0.043068578            6 
  313000    1.2269545   -6.0013977    155.67362  0.041446651  0.043058374            2 
  314000    1.1873755   -5.9978628    156.55345  0.041548156  0.043048165            1 
  315000    1.1941778    -5.961774    156.50181  0.041402595  0.043036871            5 
  316000    1.2027815   -6.0112322    156.65638  0.041312337  0.043025059            3 
  317000    1.2139358   -5.9914963    157.20222  0.041325504   0.04301192            3 
  318000    1.2245967   -5.9756231    158.29198  0.041481126  0.043000206            3 
  319000    1.1583829    -5.992761    158.94623  0.041522003  0.042990146            3 
  320000    1.1941276   -5.9786278    159.20298   0.04145911  0.042980753            3 
  321000    1.1692143   -5.9740696    159.76853  0.041476773  0.042971713            5 
  322000    1.1927667   -5.9605987    159.92531  0.041388538  0.042962883            9 
  323000    1.1935495   -5.9850005    160.77039  0.041478429  0.042954371            5 
  324000    1.2105304   -5.9758179    161.20575  0.041462384  0.042945416            2 
  325000    1.2000928   -5.9763073    161.16941   0.04132549  0.042935548            6 
  326000    1.1947179   -6.0109342    162.28781  0.041484614  0.042926477            4 
  327000    1.1768921   -5.9526948    162.54833  0.041424142  0.042917475            2 
  328000    1.2036748   -5.9952114    162.23389  0.041217959  0.042906894            2 
  329000    1.2002984   -6.0221943    162.96984  0.041279088  0.042895758            8 
  330000    1.1961555   -5.9668764    163.34367  0.041248402   0.04288592            3 
  331000    1.1948501   -5.9565545    164.32754  0.041371485  0.042876682            4 
  332000    1.1857538   -5.9585089    165.02434  0.041421773  0.042868703            2 
  333000      1.22227   -6.0234538    165.48815   0.04141345   0.04285972            4 
  334000    1.1962423   -5.9701927    165.71405  0.041345822  0.042851263            3 
  335000    1.2177916   -5.9815845    166.72375   0.04147357  0.042842677            3 
  336000    1.1944851   -6.0003727    166.98952  0.041416051  0.042833977            2 
  337000    1.2059985   -5.9833588    167.14158  0.041330756  0.042825783            4 
  338000    1.2025323   -6.0133196    167.09331  0.041196576  0.042816166            4 
  339000    1.2178096   -6.0255342    167.64378  0.041210368  0.042805122            3 
  340000    1.2167825   -5.9700024    168.60487  0.041324723  0.042794784            3 
  341000    1.1969223   -6.0150611    169.13463  0.041332999    0.0427849            4 
  342000    1.2275136   -5.9966979    169.26501  0.041243912  0.042772744            5 
  343000    1.2076022    -5.988412     169.6784  0.041224101  0.042761245            2 
  344000    1.2147975   -5.9796015    169.50279  0.041061723  0.042749367            3 
  345000    1.1897652   -6.0055937    170.47865  0.041178418  0.042737097            3 
  346000    1.1873114   -5.9840553    170.64815  0.041100228  0.042724165            3 
  347000    1.1852968    -6.013314    170.98009    0.0410615  0.042711249            3 
  348000    1.2199375   -5.9816268    171.68191  0.041111569  0.042698553            4 
  349000    1.1991316   -6.0000577    172.48615  0.041185803  0.042686736            3 
  350000     1.216318   -5.9927715    172.29707  0.041023111  0.042674502            7 
  351000    1.2186272    -5.965508    173.14895  0.041108488  0.042661747            4 
  352000    1.2093516   -6.0053609    173.74006  0.041131643  0.042650427            2 
  353000    1.1929297   -6.0055275    175.00482  0.041313697  0.042639794            4 
  354000     1.191325   -6.0109299    175.49261  0.041311819  0.042629728            4 
  355000     1.242954   -6.0209537    175.48136  0.041192808  0.042620298            5 
  356000    1.1742676   -6.0466447    176.37333  0.041285892  0.042611145            4 
  357000    1.2110769    -6.034513    176.82783  0.041276336  0.042602803            4 
  358000    1.1894191   -5.9888426    177.47331  0.041311291  0.042594562            3 
  359000    1.1986591   -5.9892653    178.43802  0.041420153  0.042587538            3 
  360000    1.2021737   -5.9584152    178.89835  0.041411655  0.042581605            4 
  361000    1.1883551    -5.988129    179.34926  0.041401031   0.04257663            2 
  362000    1.1918231   -6.0037482    179.76491  0.041382345  0.042570643            3 
  363000     1.173024   -5.9858686    181.00866  0.041553871  0.042564916            6 
  364000    1.2014815   -6.0115328    181.15879  0.041474082  0.042560269            2 
  365000    1.2180447   -6.0047811    181.49203  0.041436536  0.042554273            3 
  366000      1.18882   -5.9893679    182.22442  0.041490078  0.042548923            4 
  367000    1.2029835   -5.9693329    182.11681  0.041352591  0.042541812            3 
  368000    1.1851604   -6.0479588    182.85906  0.041408301  0.042535648            2 
  369000    1.1813133   -5.9926574    183.66191  0.041477395  0.042531363            4 
  370000    1.2021989   -6.0012033    183.70543  0.041375097  0.042527082            4 
  371000    1.1956141   -6.0292334    184.45851  0.041432729  0.042523398            4 
  372000    1.1919505   -6.0296779    185.77676  0.041616658  0.042519991            5 
  373000    1.2008541   -5.9640843    186.41187  0.041646976  0.042516962            2 
  374000    1.1933728    -5.982658     186.3953   0.04153193  0.042513185            8 
  375000    1.1966035   -5.9551444    187.30491  0.041623312  0.042510126            4 
  376000    1.1951933   -6.0131315      186.429  0.041318483  0.042505222            2 
  377000    1.1752985    -5.975771    186.98848  0.041332556  0.042498601            2 
  378000    1.1767535   -6.0073602    187.36007   0.04130513  0.042490997            7 
  379000    1.1629981    -5.973929    187.53395  0.041234379  0.042482626            2 
  380000    1.1919867    -5.977533    188.48007  0.041333349  0.042474179            7 
  381000    1.1570457    -6.021757    187.59531  0.041031345  0.042465729            2 
  382000    1.2060173   -5.9651432    189.48645  0.041336485  0.042456339            3 
  383000    1.1960289   -5.9917033     189.1994  0.041166101  0.042446978            3 
  384000    1.1605797   -6.0115154    189.42177  0.041107155  0.042436657            2 
  385000    1.1899487   -6.0244976    188.85853   0.04087847  0.042425215            3 
  386000    1.1771505   -5.9815264    190.22079  0.041066665  0.042414269            3 
  387000    1.1753067    -5.956748    191.33287  0.041200016  0.042403662            4 
  388000    1.2027097   -5.9827592    191.18422  0.041061903  0.042392451            4 
  389000    1.1816471   -6.0107477    191.18658  0.040956851  0.042381699            3 
  390000    1.1871009   -6.0188046    192.11912  0.041051094  0.042371108            3 
  391000    1.1715013   -5.9985799    193.35959  0.041210484  0.042362046            4 
  392000    1.1804577   -6.0120279    192.52242  0.040927384  0.042352088            7 
  393000    1.1789451   -6.0265546    193.84562  0.041103821  0.042342451            2 
  394000    1.1934745   -6.0059417     194.3491  0.041105986  0.042333648            4 
  395000    1.1727249   -5.9809134    194.86493  0.041110744  0.042325198            5 
  396000    1.1814346   -5.9833227    195.35722  0.041110527  0.042317088            2 
  397000    1.2199075   -6.0066431    195.85538   0.04111154  0.042309287            3 
  398000    1.1694497   -6.0158916    196.29588  0.041100478  0.042302031            4 
  399000     1.152742   -6.0406583    197.75301  0.041301799  0.042296108            2 
  400000    1.2161722   -6.0162131    198.05631  0.041261732  0.042289624            3 
  401000    1.1858931   -6.0256335    198.23736  0.041196458  0.042283566            8 
  402000    1.1867013   -5.9739972    198.73747  0.041197651  0.042276625            2 
  403000    1.1466093   -6.0353585    198.58905  0.041064733  0.042269682            7 
  404000    1.1720461   -5.9950275    200.04946  0.041264327  0.042262877            4 
  405000    1.1673686   -6.0084402    200.64905  0.041285813  0.042256991            2 
  406000    1.1917805   -6.0192476    200.78796  0.041212635  0.042251583            3 
  407000    1.2210177   -6.0083386     201.0989  0.041175042  0.042245059            6 
  408000    1.1596282   -6.0160208    201.44118  0.041144032     0.042238            6 
  409000    1.1879255   -5.9948694    202.16371  0.041190649  0.042230132            3 
  410000    1.1705963    -6.015429     201.9348  0.041043658  0.042221738            7 
  411000    1.1918279   -6.0195769    203.35907  0.041232578  0.042215195            2 
  412000     1.217042   -6.0100852    203.33974  0.041128589  0.042207736            4 
  413000     1.179023   -6.0088862    203.43739  0.041048707  0.042200173            2 
  414000    1.2017221    -6.021206    204.01152  0.041065121  0.042191891            2 
  415000    1.1938186   -6.0291683    205.04468   0.04117363  0.042184621            6 
  416000    1.2073384   -6.0154392    205.35884  0.041137587  0.042177775            1 
  417000    1.1732063   -6.0235819    205.73603  0.041114315  0.042170906            5 
  418000    1.2194885   -6.0330441    206.21151  0.041110747  0.042163946            3 
  419000    1.1873355   -6.0350565    207.34284  0.041237638  0.042156899            2 
  420000    1.1901882   -6.0016345    207.80985  0.041232113  0.042150378            3 
  421000    1.1993141   -6.0515277    208.56949  0.041284538  0.042145603            6 
  422000    1.1997006   -6.0330561    209.11419  0.041294271  0.042142077            4 
  423000    1.1918277   -6.0118899     210.0545  0.041381895  0.042139203            3 
  424000    1.2110939   -6.0037547    210.56537  0.041384703  0.042137144           12 
  425000     1.189041   -5.9774181     211.9616  0.041561098  0.042135906            3 
  426000    1.2106216    -6.025509     212.7561  0.041618955  0.042136067            2 
  427000    1.2144212   -6.0310214    213.58748  0.041683739   0.04213686            4 
  428000    1.1649567   -6.0148362    213.71698  0.041611561  0.042137812            4 
  429000    1.1912365    -6.040215    214.14382  0.041597479  0.042138085            3 
  430000     1.187274   -6.0397406    215.27981  0.041720893  0.042139169            7 
  431000    1.1758789   -6.0080525    215.74202   0.04171346  0.042140983            2 
  432000    1.1690117    -5.990318    216.26912   0.04171858  0.042142456            9 
  433000    1.1781081   -6.0109896    216.71497  0.041708038  0.042144328            4 
  434000    1.1546173   -6.0052917    217.23256   0.04171132  0.042146004            3 
  435000    1.1941683    -6.018855    217.34732  0.041637418  0.042147104            8 
  436000    1.1783361   -6.0483585    217.19831  0.041513439  0.042147095            5 
  437000    1.1736495   -6.0117303     219.3198  0.041822997  0.042147644            7 
  438000     1.154972   -6.0382143    219.39546  0.041741906  0.042148912            4 
  439000    1.1674527   -6.0436823    219.70167  0.041704949  0.042149984            4 
  440000    1.2066432   -5.9836014    220.17118  0.041699086  0.042152209            3 
  441000    1.1829862   -6.0468574    220.30254  0.041629354  0.042153526            2 
  442000     1.177877    -5.971916    221.46633  0.041754588  0.042154163            5 
  443000    1.1418735   -6.0419559    221.36711  0.041641668  0.042154764            4 
  444000    1.1659345   -6.0403137    221.35329  0.041545286  0.042154864            3 
  445000    1.1988021   -6.0156636    221.92191   0.04155841  0.042154225            3 
  446000    1.1788775   -6.0198931    223.00065  0.041666788  0.042154203            3 
  447000    1.2094729   -6.0201408    222.71035  0.041519455   0.04215424            5 
  448000    1.1909002   -6.0038011    223.56824  0.041586355  0.042154089            2 
  449000    1.1736231   -5.9796161    224.46918  0.041660946  0.042154061            5 
  450000    1.1832839   -6.0117334    225.20562  0.041704744  0.042153541            3 
  451000    1.1644903   -6.0520413    224.60787  0.041501823   0.04215313            4 
  452000    1.1587676   -6.0494552    225.45648  0.041566461  0.042152217            5 
  453000    1.1615419   -5.9814113    226.28464  0.041627049  0.042151837            3 
  454000    1.1736372   -6.0119985    226.88887  0.041646268  0.042150974            2 
  455000    1.1970636   -6.0483277     225.7758  0.041350878  0.042149149            4 
  456000    1.1711766   -6.0360364     227.7478  0.041620577  0.042147282            2 
  457000    1.1946179   -6.0129742    227.20792  0.041431058  0.042144863            4 
  458000    1.1628934   -6.0205332    226.90352  0.041285212  0.042141033            3 
  459000    1.1851254   -6.0369324    226.74282  0.041166089  0.042136994            8 
  460000    1.1765102   -6.0312305    228.37087  0.041371535  0.042133075            3 
  461000    1.1721405   -5.9975057     228.7032  0.041341865  0.042129511            3 
  462000    1.2028296   -6.0079869    228.84316  0.041277625  0.042126384            2 
  463000    1.1854377   -6.0141978    229.05287  0.041226218  0.042122347            6 
  464000    1.1858601   -6.0569895    229.11601  0.041148709  0.042117831            4 
  465000    1.1816588   -6.0102344    230.70288  0.041344601  0.042112849            4 
  466000    1.1824438   -6.0160177    228.84677  0.040923958  0.042107153            2 
  467000     1.160488   -6.0506387    230.86903  0.041197186  0.042100092            4 
  468000     1.178213   -6.0316555    230.05549  0.040964297   0.04209313            7 
  469000    1.1902141   -6.0637723    231.10119  0.041062756  0.042085916            2 
  470000    1.1809907   -6.0177343    231.67498  0.041077125  0.042078568            5 
  471000    1.2084653    -6.045753    232.28162  0.041097243  0.042071592            2 
  472000    1.1819562   -6.0375048    232.19134  0.040994234  0.042064511            6 
  473000    1.1685938   -6.0246579    232.87358  0.041027763  0.042056759            5 
  474000    1.1817456   -5.9978007    233.51419  0.041053831   0.04204936            3 
  475000    1.1702767   -6.0394411    233.53273  0.040970654  0.042041405            6 
  476000    1.1920455   -5.9893326    234.45709  0.041046409  0.042033597            3 
  477000    1.1930172   -6.0000913    235.00029  0.041055256  0.042026623            4 
  478000    1.1473002   -5.9987966    235.69371  0.041090256  0.042019563            3 
  479000    1.1849626   -6.0148253    235.69395  0.041004515  0.042012504            2 
  480000    1.1745266   -6.0318929    236.03975  0.040979122  0.042005664            4 
  481000     1.164518   -6.0021338    236.71027  0.041010095  0.041998664            6 
  482000    1.1960089   -6.0510436    237.87339  0.041126104    0.0419917            5 
  483000    1.1947605   -6.0558899    238.20338  0.041097891   0.04198588            3 
  484000    1.1554099   -5.9962275    239.00116  0.041150337    0.0419803            2 
  485000    1.1654875   -6.0384714    238.94979  0.041056664  0.041974414            2 
  486000    1.2215597   -6.0615066    239.31569  0.041034926  0.041969347            5 
  487000    1.1961163   -6.0429889    240.36371  0.041129999  0.041963803            7 
  488000    1.1695863   -6.0149413    240.41741  0.041054885  0.041957969            3 
  489000    1.1895139   -5.9771647    240.92815  0.041057966  0.041951929            3 
  490000    1.1618474    -6.025513    241.07519  0.040999183  0.041946073            4 
  491000     1.194299   -6.0531947    241.88145   0.04105252  0.041939937            2 
  492000    1.1908591   -6.0559357    242.35586  0.041049433  0.041933941            3 
  493000    1.1772192   -6.0292129     243.2202  0.041112272  0.041928306            3 
  494000    1.1726427   -6.0577167    243.07668  0.041004837  0.041922844            5 
  495000    1.1346786     -6.04655    243.93302  0.041066165  0.041917194            6 
  496000    1.1393162   -6.0417227     243.0106  0.040828394  0.041910103            7 
  497000    1.1706571   -6.0409295    243.90244  0.040895781  0.041902709            2 
  498000    1.1641574    -6.045698    244.96493  0.040991453   0.04189589            2 
  499000    1.1802861   -6.0213727    245.06968  0.040926801  0.041889076            3 
  500000    1.1745964   -5.9956295    244.94317  0.040823861  0.041881332            5 
  501000    1.1782669   -6.0502447    245.56237   0.04084537  0.041873878            4 
  502000    1.1782045   -6.0384013    245.48837  0.040751722  0.041865374            6 
  503000    1.1836717   -6.0377486    246.18971  0.040786898   0.04185676            2 
  504000    1.1653025    -6.048796    246.11167  0.040693067  0.041848135            3 
  505000     1.139529   -6.0593468    246.83595  0.040732006   0.04183903            2 
  506000    1.1716848   -6.0346761    247.38474  0.040741887  0.041830207            6 
  507000    1.1947235   -6.0724555    248.45627  0.040837652  0.041821026            7 
  508000    1.1825203   -6.0141905    248.59155  0.040779453  0.041813112            3 
  509000    1.1678995   -6.0204737    249.47646  0.040844215  0.041804417            3 
  510000    1.1916724   -6.0462881    249.24498  0.040726303  0.041795836            2 
  511000    1.1707629   -6.0126653    250.45331  0.040843658  0.041787201            2 
  512000     1.183459   -6.0408018    249.72848  0.040645911  0.041778814            4 
  513000     1.188201   -6.0738655    250.98234   0.04077036  0.041770299            4 
  514000    1.1781412   -6.0788501    251.29966  0.040742487   0.04176173            1 
  515000    1.1718858   -6.0653279    250.94714  0.040606334  0.041753363            4 
  516000    1.1712104   -6.0341018    252.22388  0.040733831  0.041744974            6 
  517000    1.1701331   -6.0556746    251.78466  0.040584246  0.041737151            4 
  518000    1.1936767   -6.0204162    252.77522  0.040665254  0.041729092            5 
  519000    1.1565056   -6.0677448    253.21009  0.040656726  0.041721151            7 
  520000    1.1519397    -6.056712     254.6228  0.040804936  0.041713438            3 
  521000    1.1743551   -6.0696541    254.53441  0.040712478  0.041706148            4 
  522000    1.1520131   -6.0847108    255.65052  0.040812663  0.041699041            3 
  523000    1.1691964   -6.0297841    256.69903  0.040901693  0.041691937            3 
  524000     1.142758   -6.0565798    255.77603  0.040676849  0.041685493            5 
  525000    1.1722871   -6.0507469    256.80171  0.040762176  0.041678498            3 
  526000    1.1603608   -6.0899678    256.25385  0.040597884   0.04167157            4 
  527000     1.167106   -6.0687831    257.44818  0.040709706  0.041663964            4 
  528000    1.1761394   -6.0357792    258.48665  0.040796504  0.041656798            8 
  529000    1.1428948   -6.0213855    258.71611  0.040755531  0.041649641            3 
  530000    1.1794017   -6.0410385    259.46292  0.040796057  0.041641978            4 
  531000    1.1786175   -6.0395485     259.7962  0.040771532  0.041634908            3 
  532000    1.1870043   -6.0705065     260.0995  0.040742403  0.041628398            3 
  533000    1.1744046   -6.0416741    259.70211  0.040603832  0.041620638            4 
  534000    1.1848905   -6.0367002     260.8412  0.040705555  0.041612604            5 
  535000    1.1454476   -6.0556388    261.69748  0.040762847  0.041604457            2 
  536000    1.1915953   -6.0541596     262.2423  0.040771502  0.041596347            2 
  537000    1.1676119   -6.0232984    262.46752  0.040730528   0.04158863            3 
  538000    1.1608166   -6.0266095    263.82807  0.040865562  0.041581664            5 
  539000    1.1660779   -6.0598354    261.83155  0.040481068  0.041574239            9 
  540000    1.1574914   -6.0591817    263.33539  0.040638178  0.041565986            4 
  541000    1.1790034   -6.0269345    265.07992   0.04083178  0.041558484            2 
  542000    1.1377452   -6.0563963    264.13298  0.040610851  0.041552035            8 
  543000    1.1715138   -6.0953799    265.42162  0.040733828  0.041544803            2 
  544000    1.1547708   -6.0792133    265.13852  0.040615582  0.041537438            4 
  545000    1.1779824   -6.0723571    265.95124  0.040665328  0.041530473            4 
  546000    1.1686046   -6.0930906    265.28523  0.040489199   0.04152317            3 
  547000    1.1691483   -6.0460187    267.15547  0.040700101  0.041515847            2 
  548000    1.1572608   -6.0173807    268.34557  0.040806808  0.041509149            3 
  549000    1.1905817    -6.067301    267.64328  0.040625877  0.041502341            5 
  550000    1.1730496   -6.0651112    267.75739  0.040569301  0.041495312            3 
  551000    1.1623634   -6.0203912     268.6572  0.040631761  0.041488294            2 
  552000     1.196332   -6.0465018    269.16766  0.040635214  0.041480841            2 
  553000    1.1569564   -6.0259989    269.51543  0.040614139  0.041473422            3 
  554000    1.1785774   -6.0660812    269.39321  0.040522444    0.0414657            2 
  555000    1.1662494   -6.0714888    270.38596  0.040598493  0.041457566            3 
  556000     1.153041   -6.0381413    270.31636  0.040515042  0.041449378            6 
  557000    1.1470197   -6.0366888    271.19792  0.040574195  0.041441157            5 
  558000    1.1551622   -6.0459008    271.57993  0.040558533  0.041433479            3 
  559000    1.1401082    -6.078005    271.62858  0.040493229  0.041425949            7 
  560000    1.1632711   -6.0577348    272.14576  0.040497881  0.041417875            5 
  561000    1.1369973   -6.0529547    272.08726  0.040417003  0.041409995            5 
  562000    1.1404123   -6.0490726    273.41403  0.040541819  0.041402503            2 
  563000    1.1790169    -6.048408    273.46389  0.040477189  0.041394635            3 
  564000    1.1761083   -6.0400777    273.90864  0.040471135  0.041386587            3 
  565000    1.1371035   -6.0419772    274.51236  0.040488549  0.041378491            4 
  566000    1.1780725     -6.06811     275.0193  0.040491652  0.041370461            3 
  567000    1.1381117   -6.0680563    275.79327  0.040533991  0.041361812            2 
  568000    1.1321559   -6.0436963    275.37686  0.040401535   0.04135294            3 
  569000    1.1442249   -6.0744536    274.64799  0.040223783   0.04134386            3 
  570000      1.17103   -6.0187572    276.31291  0.040396624   0.04133482            5 
  571000    1.1634671   -6.0352607    276.41691  0.040341055  0.041325856            4 
  572000     1.152235   -6.0572043    277.32042   0.04040216  0.041316731            6 
  573000    1.1575581   -6.0551742    276.93984  0.040276301  0.041307332            4 
  574000    1.1600594   -6.0769844    277.21266   0.04024574  0.041297827            2 
  575000    1.1819343   -6.0620733    276.76615  0.040111036  0.041288551            8 
  576000    1.1677237   -6.0467753    278.03781  0.040225377  0.041278832            4 
  577000     1.154351   -6.0623101    278.72021  0.040254218  0.041269618            6 
  578000    1.1826585   -6.0476224    279.96511  0.040364058  0.041260452            4 
  579000    1.1567342   -6.0607767    279.59466  0.040241028  0.041250478            3 
  580000    1.1587715   -6.0347994    279.88572  0.040213466  0.041240849            3 
  581000    1.1573344    -6.062304    279.41455  0.040076671   0.04123116            5 
  582000    1.1647131   -6.0711529    280.69628  0.040191335  0.041221227            9 
  583000    1.1406503   -6.0124984    280.35829  0.040074084   0.04121102            2 
  584000    1.1695022   -6.0700929    282.07886  0.040250979  0.041200768            4 
  585000    1.1817678   -6.0250485    281.61679  0.040116352  0.041190762            3 
  586000    1.1820862   -6.0388088     281.8951  0.040087472  0.041180359            3 
  587000    1.1502368   -6.0766593    280.98612  0.039890136  0.041169443            7 
  588000    1.1588129   -6.0809321    283.22367   0.04013941  0.041158593            2 
  589000    1.1606226   -6.0981818    282.46162  0.039963444  0.041147543            6 
  590000    1.1497491   -6.0882268    282.89463  0.039956869  0.041136549            4 
  591000    1.1460877   -6.0954726    283.67168  0.039998826   0.04112592            2 
  592000    1.1615549   -6.0219816    285.02786  0.040122165  0.041115074            6 
  593000    1.1522244   -6.0557991    285.24745  0.040085364  0.041104181            4 
  594000      1.18096   -6.0576953    285.03128  0.039987553  0.041093045            2 
  595000    1.1725848   -6.0301878    286.32325  0.040101295    0.0410824            4 
  596000    1.1607927   -6.0629837    286.24564   0.04002316  0.041071643            9 
  597000    1.1567461   -6.0814579    285.56686  0.039861371  0.041060971            2 
  598000    1.1301528   -6.0845392    286.02999  0.039859251   0.04105022            4 
  599000    1.1558351   -6.0675712     286.4075  0.039845228  0.041038943            5 
  600000    1.1805904     -6.06567    287.29114  0.039901548    0.0410279            6 
  601000    1.1537531   -6.1062362    287.22008  0.039825303  0.041016464            7 
  602000    1.1600212    -6.023629    288.32229  0.039911724  0.041004833            1 
  603000    1.1321182   -6.1009999     287.4496  0.039724931  0.040992723            7 
  604000    1.1692522   -6.0336606    289.11569  0.039889029  0.040980546            4 
  605000    1.1715478   -6.0503043    289.08343  0.039818655  0.040968239            3 
  606000    1.1759046    -6.065228    289.02556  0.039744989  0.040955897            2 
  607000    1.1531595   -6.0444493    288.92719  0.039666006  0.040942924            6 
  608000    1.1514206     -6.07494    289.85077  0.039727353  0.040930952            3 
  609000    1.1448487   -6.0762991    290.48521  0.039748934  0.040918754            5 
  610000    1.1301915   -6.0247598    291.09807  0.039767496  0.040905906            2 
  611000    1.1811045   -6.0603844    290.93746  0.039680505  0.040893608            2 
  612000    1.1715373   -6.0660452    291.78127  0.039730565  0.040881468            5 
  613000    1.1856005   -6.0973714    291.30451  0.039600939  0.040869175            3 
  614000     1.141496    -6.037788    292.46425  0.039693845  0.040856234            5 
  615000    1.1661762   -6.0600521    292.76426  0.039669954  0.040843971            3 
  616000    1.1480244   -6.0810468    293.32297  0.039681138  0.040831514            4 
  617000    1.1611347   -6.0752697    293.31678  0.039615988  0.040819427            6 
  618000    1.1353595    -6.053058    293.77884  0.039614191  0.040807137            3 
  619000    1.1421207   -6.0821177    293.70938  0.039540843  0.040794893            4 
  620000    1.1595132   -6.1058115    293.86893  0.039498512  0.040782836            3 
  621000    1.1631441   -6.0585388    296.21174  0.039749294  0.040770665            6 
  622000    1.1191136   -6.0906884     294.1779  0.039412902  0.040758495            4 
  623000    1.0972291    -6.081755    296.10725  0.039607711    0.0407461            6 
  624000    1.1535434   -6.0533191    295.98971  0.039528541  0.040733762            4 
  625000    1.1312983   -6.0682235     297.4846  0.039664613  0.040721739            7 
  626000    1.1397137   -6.0591648    298.05559  0.039677261  0.040709994            2 
  627000    1.1944975   -6.0651277    298.22946   0.03963709  0.040698432            4 
  628000    1.1555018   -6.0155903    297.85598  0.039524413  0.040686797            3 
  629000    1.1539614   -6.0446974    298.10834  0.039495011  0.040674744            3 
  630000    1.1622213   -6.0872526    298.74269  0.039516229  0.040662591            4 
  631000    1.1446025   -6.0775591    299.24957  0.039520545  0.040650892            6 
  632000    1.1772578   -6.0508502    299.62776   0.03950788  0.040639212            3 
  633000    1.1382703   -6.0897538    301.04048  0.039631448  0.040627504            3 
  634000     1.145049   -6.0897112    299.75733   0.03940028  0.040615413            6 
  635000    1.1493612   -6.0452149    301.78174  0.039603903  0.040603675            3 
  636000    1.1389076   -6.1077181     301.3722  0.039487972  0.040592491            7 
  637000    1.1690322   -6.0564349    301.77259   0.03947836  0.040581243            5 
  638000    1.1573627    -6.094803    301.87841  0.039430304  0.040569848            5 
  639000    1.1769538   -6.0472342    302.81776    0.0394911  0.040558307            3 
  640000    1.1363167   -6.0710266    302.35965  0.039369746  0.040546193            2 
  641000    1.1694628   -6.0670528    303.35501  0.039437729  0.040534324            5 
  642000    1.1580293   -6.1095268    304.37561  0.039508776  0.040522583            4 
  643000    1.1659444   -6.0833269     304.0957  0.039411055  0.040511344            3 
  644000    1.1180303   -6.0961543    303.95023  0.039331034  0.040500384            4 
  645000    1.1309076   -6.0570779     305.1869  0.039429832  0.040488833            4 
  646000    1.1493815   -6.0703198    305.86057  0.039455698  0.040477648            8 
  647000    1.1506733   -6.1429458    305.54649  0.039354262   0.04046645            3 
  648000    1.1369477   -6.0673926    307.04365  0.039486066  0.040455326            6 
  649000    1.1209737   -6.0858658    307.13734  0.039437255  0.040444264            6 
  650000    1.1327444   -6.0592709    307.86926  0.039470418  0.040432977            4 
  651000    1.1435305   -6.0870641    308.44241  0.039483156  0.040421759            6 
  652000    1.1408903    -6.054341    307.89525  0.039352665  0.040410341            3 
  653000    1.1421874    -6.103066    308.55284   0.03937632  0.040398514            5 
  654000     1.158643   -6.0872903    307.81277  0.039221811  0.040386397            3 
  655000    1.1346451   -6.0827947    308.82728  0.039291002   0.04037406            4 
  656000    1.1711652   -6.0753544    308.64818  0.039208356  0.040361488            4 
  657000    1.1823474   -6.0930937    309.64444  0.039275043  0.040349594            3 
  658000    1.1610786   -6.0776277    309.89338  0.039246882  0.040337481            3 
  659000    1.1450954   -6.0880553    311.26016  0.039360162    0.0403256            2 
  660000    1.1203532   -6.1001657    310.81054  0.039243755  0.040313534            6 
  661000     1.151949   -6.0675021    311.21611  0.039235516  0.040301997            5 
  662000      1.15018   -6.0552288    311.88562  0.039260526  0.040290505            7 
  663000    1.1586264   -6.0857212    312.30841   0.03925445  0.040278962            2 
  664000    1.1535514   -6.0749035    313.21553  0.039309178  0.040267752            3 
  665000    1.1472256   -6.1041831    313.72137  0.039313455   0.04025659            3 
  666000    1.1417298   -6.0488832    315.38775  0.039462931  0.040245795            4 
  667000    1.1529037   -6.0776981    314.43643  0.039284911  0.040234809            2 
  668000    1.1790061   -6.1260364    314.82029  0.039273988  0.040223575            6 
  669000    1.1650079    -6.070507    315.26737  0.039270972  0.040212723            5 
  670000    1.1269693   -6.0481228    315.66747  0.039262124  0.040202442            3 
  671000    1.1651601   -6.0768942    316.79721  0.039343915  0.040191946            2 
  672000    1.1379273   -6.1125784    316.61604  0.039262901  0.040181528            5 
  673000    1.1412805   -6.0957049    317.72183  0.039341485  0.040170919            4 
  674000    1.1249044   -6.0923689    317.16094  0.039213767  0.040160238            4 
  675000    1.1387033   -6.1084621     316.8675  0.039119445   0.04014923            3 
  676000    1.1492789   -6.0925479    318.09014  0.039212295   0.04013846            5 
  677000    1.1707016   -6.0537989    318.26112  0.039175421  0.040127331            6 
  678000    1.1685408    -6.094675    319.49957  0.039269859  0.040116476            3 
  679000     1.129312   -6.0901956    319.29836  0.039187329  0.040106326            4 
  680000    1.1347303   -6.0741383    320.96914  0.039334453  0.040096141            7 
  681000    1.1421671   -6.1073404    321.49964   0.03934161  0.040086845            4 
  682000    1.1378385   -6.0762143    322.59667   0.03941797  0.040077759            5 
  683000    1.1355283   -6.0941651    321.65745  0.039245663  0.040068576            3 
  684000    1.1370527   -6.1080985    323.66494  0.039432863   0.04005926            4 
  685000    1.1382977   -6.1171049     322.9847  0.039292542  0.040050243           10 
  686000    1.1517525   -6.0740584    323.76721  0.039330322  0.040040872            4 
  687000    1.1462136   -6.0827689    323.54748  0.039246419  0.040032197            3 
  688000    1.1649923   -6.1109852    324.08229  0.039254153  0.040023717            5 
  689000    1.1393131   -6.0961262    324.03031  0.039190893  0.040014856            4 
  690000    1.1389038   -6.0604515    325.87194  0.039356515    0.0400056            4 
  691000    1.1240538    -6.093761    325.39204  0.039241683  0.039996372            4 
  692000    1.1525922   -6.1072809    324.64845   0.03909543  0.039987037            8 
  693000    1.1324902   -6.1059894    327.01961  0.039324147   0.03997753            7 
  694000    1.1351345    -6.077438    327.47015  0.039321583  0.039968453            5 
  695000    1.1245646    -6.086544      327.343   0.03924976  0.039959001            6 
  696000    1.1400096    -6.084579    326.96041  0.039147558  0.039949154            3 
  697000    1.1574339   -6.0965197     328.3176  0.039253659  0.039939773            4 
  698000    1.1611974   -6.1061148    327.54574   0.03910527  0.039930343            3 
  699000    1.1352758    -6.089378    328.43569  0.039155423  0.039920496            2 
  700000    1.1381748   -6.1289701    328.62766  0.039122341  0.039910754            3 
  701000    1.1279548   -6.0605686     329.7108  0.039195293   0.03990117            3 
  702000    1.1352768   -6.0764907    329.58957  0.039125068  0.039892018            7 
  703000    1.1130899   -6.0940366    330.89262  0.039223877  0.039883069            4 
  704000    1.1459639   -6.0608728    331.47003  0.039236509  0.039874105            4 
  705000    1.1632365   -6.0694091    330.94685  0.039119013  0.039865264            8 
  706000    1.1370563   -6.0874085     332.8147  0.039284077  0.039856941            6 
  707000    1.1522033   -6.0570442    332.42129  0.039182142  0.039848797            4 
  708000    1.1309684   -6.0975049    333.34131  0.039235088  0.039839775            2 
  709000    1.1171584   -6.1246252    332.21038  0.039046825  0.039830882            5 
  710000    1.1461748   -6.1104743    333.20931  0.039109073  0.039822011            3 
  711000    1.1291457   -6.1258342    334.12709  0.039161638   0.03981259            3 
  712000    1.1347343   -6.0924395     333.0275  0.038977937   0.03980288            7 
  713000    1.1607348   -6.1321788    334.71868   0.03912093  0.039793713            3 
  714000    1.1328024   -6.0818456    334.99095  0.039097917   0.03978478            5 
  715000    1.1385095   -6.0681668    335.30027  0.039079286  0.039775451           10 
  716000    1.1254594   -6.0527564    335.20092  0.039013142  0.039766086            7 
  717000    1.1498852    -6.105883    335.93379  0.039043909   0.03975693            5 
  718000    1.1216254    -6.132486    335.55469   0.03894553  0.039747888            8 
  719000     1.130848   -6.1274518    336.53003  0.039004408  0.039738959            5 
  720000    1.1466202    -6.099259    338.00766  0.039121257  0.039730436            3 
  721000    1.1410663   -6.1072289    337.34003  0.038989832  0.039721984            6 
  722000    1.1256536    -6.094254    338.21628  0.039036967  0.039713035           13 
  723000    1.1284961   -6.0966078    339.24484  0.039101526  0.039704021            7 
  724000    1.1293972   -6.0891466    339.33774  0.039058212  0.039695122            1 
  725000    1.1196721   -6.0932505    340.15702  0.039098508  0.039686472            7 
  726000     1.122037   -6.1348937    340.11918   0.03904031  0.039677547            4 
  727000    1.1484299   -6.0979471    341.84311  0.039184218   0.03966939           12 
  728000    1.1303475   -6.0801486    341.77057  0.039122089  0.039661202            8 
  729000    1.1269564   -6.1196795    340.76314  0.038953263  0.039652737            5 
  730000    1.1472313   -6.1283263    341.82067  0.039020624  0.039644674            3 
  731000    1.1012734   -6.0829748    342.72836  0.039070721    0.0396368            4 
  732000    1.1383547   -6.0934043     342.8922  0.039035997  0.039628687            4 
  733000    1.1125364   -6.1047914    343.42232   0.03904301  0.039620344            2 
  734000    1.1219532   -6.1122946    343.22673  0.038967612  0.039612198            5 
  735000    1.1181487   -6.1133387    345.36735  0.039157296  0.039604098           15 
  736000     1.137529   -6.1310568    345.07447  0.039070932  0.039596173            3 
  737000    1.1230333   -6.0730748    346.16538  0.039141269  0.039588006            2 
  738000    1.1330786    -6.114754    345.97924  0.039067213  0.039580162            4 
  739000    1.1419553   -6.1040642    345.68808  0.038981515  0.039572101            5 
  740000    1.1377787    -6.055958    346.99979  0.039076553  0.039563778           11 
  741000    1.1529403    -6.125455    345.31568  0.038834422  0.039555456            2 
  742000    1.1348407   -6.1334293     346.8772  0.038957457  0.039546945            4 
  743000    1.1567809   -6.0874457     347.5499  0.038980474  0.039538193            2 
  744000    1.1450558   -6.0950253    347.91681  0.038969176  0.039529427            2 
  745000    1.1633349    -6.093476    348.37884   0.03896855  0.039520704            6 
  746000    1.1344362   -6.0894031    348.06194  0.038880914  0.039512061            3 
  747000    1.1443163   -6.1124725    348.61596  0.038890669    0.0395034            4 
  748000    1.1463341   -6.1052419    349.16214  0.038899526  0.039494678            3 
  749000    1.1353843   -6.1181315    349.61084  0.038897512  0.039485982            6 
  750000    1.1445366    -6.115936    349.87856  0.038875396  0.039476898            6 
  751000    1.1088084   -6.1115688    349.07205  0.038734137  0.039467705            5 
  752000    1.1647004   -6.1370955    350.00602  0.038786128  0.039458514            4 
  753000     1.129915   -6.1078002    349.82238  0.038714296  0.039449579            8 
  754000    1.1337872    -6.093337    350.16023  0.038700291  0.039440399            8 
  755000    1.1127191    -6.126343    350.75414  0.038714585   0.03943123            5 
  756000    1.1210459   -6.1302656    351.33481  0.038727382  0.039421635            7 
  757000    1.1214443   -6.0703657    351.40913  0.038684404  0.039412114            4 
  758000    1.1388154   -6.0968066    352.00111  0.038698451  0.039402521            2 
  759000    1.1268715   -6.1149491    352.43573  0.038695184  0.039392799            2 
  760000    1.1399686   -6.0844273    353.08267  0.038715205   0.03938324            3 
  761000    1.1103805   -6.1015588    352.87624  0.038641725  0.039373517            4 
  762000    1.1386063   -6.1178333    353.04447  0.038609413   0.03936426            6 
  763000    1.0999373   -6.1191336    353.28447  0.038585023  0.039354602            4 
  764000    1.0917979   -6.1153922    354.55343   0.03867293  0.039344697            8 
  765000    1.1289979   -6.0936164    354.83532  0.038653085  0.039334823            3 
  766000     1.124056   -6.0876395     354.1486  0.038527915  0.039325187            3 
  767000    1.1277933   -6.1336299    353.37202   0.03839331   0.03931505            8 
  768000    1.1327368   -6.1370806    356.05463    0.0386344   0.03930548            6 
  769000    1.1327461   -6.1254925    356.88698  0.038674359  0.039295858            2 
  770000    1.1399976   -6.0801814    356.59516   0.03859255  0.039286326            3 
  771000    1.1138926     -6.12356     357.7515  0.038667478  0.039277088            3 
  772000    1.1171097   -6.1035391    359.02518  0.038754877  0.039268151            3 
  773000    1.1215129   -6.1158458    358.15235  0.038610646  0.039259162            4 
  774000    1.1330236   -6.1156335    358.18225   0.03856398  0.039249784            2 
  775000    1.1086987   -6.1069134    358.94411  0.038596141  0.039240459            4 
  776000    1.1652657    -6.123497    358.01145  0.038446246  0.039230751            6 
  777000    1.1489107   -6.1022133    358.95355  0.038497806  0.039221112            6 
  778000    1.1174421   -6.0910897    360.41474  0.038604835  0.039211579            5 
  779000    1.1166388    -6.130421    360.11563  0.038523281  0.039202192            3 
  780000    1.1232374   -6.0989116    358.96549  0.038351014  0.039192499            5 
  781000     1.118724   -6.1495303    361.31277  0.038552365   0.03918302            4 
  782000    1.1362062   -6.1142634    361.75561  0.038550257   0.03917355            2 
  783000    1.1205798   -6.0911635    362.14361  0.038542317  0.039164144            3 
  784000     1.128869   -6.0927649    362.42107  0.038522647  0.039154956            3 
  785000    1.1339982   -6.1152693    362.01129  0.038430073  0.039145406            5 
  786000    1.1104167   -6.1162244    361.72165  0.038350472  0.039136044            3 
  787000    1.1137054   -6.0947609    363.63169  0.038503991  0.039126588            5 
  788000    1.1193007   -6.0826999    363.59025  0.038450746  0.039117016            6 
  789000      1.11004   -6.1220871    363.57684  0.038400596  0.039107368            5 
  790000    1.1309975   -6.1172838    363.53683  0.038347767  0.039097647            4 
  791000    1.1276095   -6.0929805    364.61777  0.038413166  0.039087747            3 
  792000    1.1166178   -6.0999397     365.5739  0.038465267  0.039078205            3 
  793000    1.1091722    -6.079362    366.58066  0.038522558  0.039068898            6 
  794000    1.1215485   -6.1490624    365.93256   0.03840602  0.039059871            4 
  795000     1.118525   -6.1287495    366.95034  0.038464396  0.039050958            9 
  796000    1.1192815   -6.1537613    366.58081  0.038377388  0.039042233            3 
  797000    1.1387406   -6.1086443    367.94876  0.038472267  0.039033643            4 
  798000      1.10976   -6.1531182    367.17639  0.038343399  0.039024947            5 
  799000    1.1455511   -6.1253845    368.73905   0.03845839  0.039016164            5 
  800000    1.1170947    -6.087942     370.1786  0.038560271  0.039007911            6 
  801000    1.1143265   -6.1082341    370.88111  0.038585218  0.038999738            3 
  802000    1.1220326   -6.0548737    370.29543   0.03847625  0.038991737            3 
  803000     1.114314   -6.1367026    371.13248  0.038515202  0.038983696            4 
  804000    1.1426977   -6.1231768    371.61079  0.038516873  0.038975585            5 
  805000    1.1215575   -6.1023515    371.89711  0.038498666  0.038967374            3 
  806000    1.1328707   -6.1277171    373.18299  0.038583849  0.038959422            3 
  807000    1.1241554   -6.1279846    371.67645  0.038380467  0.038951513            8 
  808000     1.096209   -6.1598973    372.91821  0.038461036   0.03894357            8 
  809000    1.1221986   -6.1356964    373.82025  0.038506412  0.038935791            3 
  810000    1.1085177    -6.121078    375.33321  0.038614528   0.03892808            4 
  811000     1.094476   -6.1258028     374.4707  0.038478288  0.038920546            4 
  812000    1.1050341    -6.136763    373.93272   0.03837569  0.038912679            5 
  813000       1.1253   -6.1461328    376.43268  0.038584736  0.038905283            4 
  814000    1.1279735   -6.0973722    377.89089  0.038686618   0.03889846            3 
  815000    1.1176156    -6.147778    377.12323  0.038560658  0.038891638            5 
  816000    1.1241286   -6.1286349    377.97227  0.038600109  0.038884729            4 
  817000    1.1495313   -6.1682018    377.24403  0.038478583  0.038877127            7 
  818000    1.1377698     -6.11602    378.13942  0.038522761  0.038869718            3 
  819000    1.1228507   -6.1363234    377.89537  0.038450893  0.038862717            3 
  820000    1.1123827   -6.1289908    378.53034   0.03846853   0.03885568            7 
  821000    1.1233058    -6.089236    378.67736  0.038436597   0.03884809            5 
  822000    1.1155719   -6.1465724    379.07116   0.03842976  0.038840436            6 
  823000    1.1029038   -6.0924299    380.05996  0.038483188  0.038832945            3 
  824000    1.1110259   -6.1312674    379.60786  0.038390762  0.038825447            2 
  825000    1.1161026   -6.1027261      380.282  0.038412324  0.038817423            5 
  826000    1.1039709   -6.1273449    381.00027  0.038438284  0.038809619            6 
  827000    1.1328871   -6.1225706    381.35347  0.038427396  0.038801537            3 
  828000    1.1236244   -6.1261989    380.76626  0.038321886  0.038793523            3 
  829000    1.1101795   -6.1044793    380.22772  0.038221524  0.038785794            7 
  830000    1.1350929   -6.1597656    381.73726  0.038327034  0.038777373            5 
  831000    1.1236049   -6.1389231    382.38622  0.038345991  0.038769344            3 
  832000     1.116844   -6.1641796      382.207  0.038281951  0.038760998            3 
  833000    1.1092368   -6.1009333    384.16313  0.038431686  0.038752869            4 
  834000     1.127552   -6.1104183    382.75486   0.03824489   0.03874499            5 
  835000    1.1193937    -6.151041    383.41731  0.038265201  0.038736804            4 
  836000     1.114643   -6.1500885    383.78345  0.038255926  0.038728876            2 
  837000    1.1038945   -6.1045061    384.55899  0.038287435  0.038720566            2 
  838000    1.1374437   -6.1251046    384.84617  0.038270304  0.038712036            4 
  839000    1.1167447   -6.1403621    384.84591  0.038224663  0.038703958            5 
  840000    1.1190938   -6.1278194    385.46262  0.038240339  0.038695613            2 
  841000    1.1071438   -6.1219174    386.04413   0.03825249  0.038687462            2 
  842000    1.0895003   -6.1141595    386.32315  0.038234675  0.038678996            8 
  843000    1.1339922   -6.1267959     385.5333   0.03811124  0.038670543            3 
  844000    1.1084031   -6.1127872    386.64688  0.038176035   0.03866193            2 
  845000    1.1282647   -6.1118016    385.43894   0.03801173  0.038653277            3 
  846000    1.1218942   -6.1388781    387.77153  0.038196565  0.038644901            4 
  847000    1.1119076   -6.1249199    387.95869  0.038169883  0.038636026            4 
  848000    1.1008719   -6.0842857    388.75027   0.03820266  0.038627344            3 
  849000    1.0959183    -6.129404    387.02193  0.037988018  0.038618511            6 
  850000    1.0900707   -6.1155578    387.00288  0.037941459  0.038609371            3 
  851000    1.1045059   -6.1203384    389.23396   0.03811535  0.038600322            6 
  852000     1.112135   -6.1345592    387.73701  0.037924199  0.038591395            8 
  853000    1.0939368    -6.152122    388.64285  0.037968235  0.038582264            3 
  854000    1.1164902   -6.1106368    389.30976  0.037988852   0.03857339            4 
  855000    1.1160681   -6.1422973    389.67201  0.037979728  0.038564312            6 
  856000    1.1112277   -6.1619336    390.01719  0.037968963  0.038555249            3 
  857000    1.1172091   -6.1192995    391.21858   0.03804148  0.038545932            6 
  858000    1.1026435   -6.1144218    390.32991   0.03791083  0.038536925            5 
  859000    1.1042783   -6.1464296      391.397  0.037970217  0.038528113            3 
  860000    1.1423947   -6.1140571    392.45811  0.038028887  0.038519469            9 
  861000     1.106076   -6.1730748    391.95232  0.037935765  0.038510866            3 
  862000    1.1184528   -6.1544449    391.18563  0.037817636  0.038501833            3 
  863000    1.1008404    -6.131018     393.4225  0.037989813  0.038492716            4 
  864000    1.1234957   -6.1888085    392.56048  0.037862701  0.038483512            5 
  865000    1.1246383   -6.1335736    393.11442  0.037872295   0.03847453            4 
  866000    1.0938748   -6.1318528    394.27586  0.037940325  0.038465347            7 
  867000    1.1237432   -6.1469605    394.32262  0.037901059  0.038456309            7 
  868000    1.1107748   -6.1714954    395.50628  0.037971033  0.038447395            3 
  869000    1.1063255   -6.1813648    394.88029  0.037867308  0.038438669            5 
  870000    1.1147925   -6.1475169    395.17194  0.037851718  0.038429576            5 
  871000    1.1270854   -6.1787894     396.0286  0.037890222  0.038420388            5 
  872000    1.1360095   -6.1418856    396.30112  0.037872813  0.038411569           13 
  873000    1.1198162   -6.1349149    396.26507   0.03782599  0.038402487            4 
  874000     1.113252   -6.1550671    397.56165  0.037906336  0.038393552            4 
  875000    1.1016032   -6.1740315    395.98776   0.03771312   0.03838424            2 
  876000    1.1291768    -6.122406    397.60564  0.037823976  0.038375079            3 
  877000    1.1019497   -6.1395188    398.60608   0.03787591  0.038366275            3 
  878000    1.0896227   -6.1590695    397.67764  0.037744651  0.038357388            8 
  879000    1.0840115   -6.1597503    397.49997  0.037684866  0.038348397            2 
  880000    1.1373943   -6.1456191    400.14326  0.037892354  0.038339138            4 
  881000    1.1422967   -6.1358352    399.89075  0.037825459  0.038329807            3 
  882000    1.1269274   -6.1229723    400.37071  0.037827921  0.038320743            1 
  883000    1.0998905   -6.1418097    399.98327  0.037748515  0.038312101            5 
  884000    1.1091781   -6.1296257    400.16249  0.037722708  0.038303077            5 
  885000    1.1109197   -6.1617711    401.47134  0.037803328  0.038294594            4 
  886000     1.083193   -6.1266011     401.0157  0.037717805  0.038285926            4 
  887000    1.1096989   -6.1508278    401.47101  0.037718058  0.038277138            8 
  888000    1.1160031   -6.1355073    403.44712  0.037861029  0.038268707            7 
  889000    1.1086522   -6.1396829    402.10121  0.037692277  0.038260372            2 
  890000    1.1371784   -6.1618329    403.26382  0.037758785  0.038251658            3 
  891000    1.0956344   -6.1446827    403.64325  0.037751894  0.038243281            4 
  892000    1.0831457   -6.1462351    404.24501   0.03776579  0.038235059            5 
  893000    1.1296717   -6.1390931    405.91126   0.03787899  0.038227088            8 
  894000    1.0906117   -6.1279211     406.5441  0.037895609  0.038219469            3 
  895000    1.1368353   -6.1577617    405.34455  0.037741579  0.038211668            4 
  896000    1.1342309   -6.1372832    407.71503  0.037919925  0.038203793            2 
  897000    1.0959013     -6.19213    407.04541  0.037815442  0.038196033            2 
  898000    1.0968373   -6.1556021    407.34354  0.037800997  0.038188568            4 
  899000    1.1153456   -6.1627394    408.30692   0.03784825  0.038181279            5 
  900000    1.0989789   -6.1362817    409.15873  0.037885067  0.038173448            2 
  901000    1.1034598    -6.171932    408.52591   0.03778449  0.038165817            2 
  902000    1.1054661   -6.1323511    410.71207  0.037944574  0.038158073            3 
  903000     1.134664   -6.1434981    410.95351  0.037924835  0.038150688           13 
  904000    1.1142424   -6.1784741    409.88453  0.037784341  0.038143047            3 
  905000    1.1004174    -6.168123    410.60473  0.037808907  0.038135478            3 
  906000    1.1134525   -6.1452813    410.85402  0.037790105  0.038127871            3 
  907000    1.1273022   -6.1345748    412.15169  0.037867667  0.038120303            6 
  908000      1.10218   -6.1181547    412.10207  0.037821408  0.038112898            7 
  909000    1.0880299   -6.1774785    412.63661  0.037828805  0.038105445            6 
  910000    1.0925816   -6.1768991    412.22408  0.037749458   0.03809797            6 
  911000    1.1245908   -6.1697931    413.59279  0.037833222  0.038090211            4 
  912000    1.1037411    -6.166059    413.06278   0.03774331   0.03808263            6 
  913000    1.1074045   -6.1369413    413.87631  0.037776224  0.038075656            2 
  914000    1.1021869   -6.1324245    414.23116  0.037767247  0.038068437            2 
  915000    1.0881401   -6.1528885    414.83331  0.037780812  0.038061227            4 
  916000    1.1553799   -6.1330933    415.37361   0.03778872  0.038054209            5 
  917000    1.1223717   -6.1425906    414.41985  0.037660837  0.038046665            4 
  918000    1.0937281   -6.1272957    415.38998  0.037707877  0.038039313            6 
  919000    1.0766683   -6.1843584    415.40874  0.037668547   0.03803206            5 
  920000    1.0871857   -6.1427855    417.44927  0.037812433  0.038024807            4 
  921000     1.103064   -6.1505185    418.00196  0.037821386  0.038017753            4 
  922000    1.1194443   -6.1343659    418.70097  0.037843544  0.038010826            3 
  923000     1.096476   -6.1677107     417.1355  0.037661205   0.03800344            4 
  924000    1.1081898   -6.1335631    418.88507  0.037778235  0.037995924            5 
  925000    1.0830876    -6.202356    417.37617  0.037601456  0.037988306            3 
  926000     1.111421   -6.1425093    418.69915  0.037679909  0.037980388            8 
  927000    1.0856661   -6.1694693    418.53395  0.037624411  0.037972871            6 
  928000    1.1035651   -6.1773643    420.18208  0.037731868  0.037965316            5 
  929000    1.0902026   -6.1406342      418.869  0.037573466  0.037957592            3 
  930000    1.1010659   -6.1538933    421.41806  0.037761475  0.037949969            5 
  931000    1.1113698   -6.1866947    419.91904  0.037586738  0.037942311            3 
  932000    1.1117146   -6.1412763    420.44998  0.037593882  0.037934749            3 
  933000    1.1060982   -6.1411539    421.09077  0.037610823  0.037927309            3 
  934000    1.1173028   -6.1674125    421.44568   0.03760222  0.037919849            2 
  935000    1.1074169   -6.1556377    422.41977  0.037648821  0.037912592            4 
  936000    1.1218822   -6.1327583    422.21235  0.037590131  0.037905133            6 
  937000    1.1173858    -6.145003    422.85637   0.03760729  0.037897456            4 
  938000    1.1032943   -6.1641488    422.44436  0.037530594  0.037889729           12 
  939000    1.1029925   -6.1467481    423.70374   0.03760239  0.037882398            5 
  940000    1.1143009   -6.1244607    424.92826  0.037670945  0.037874874            3 
  941000    1.1118774   -6.1663526    423.91726   0.03754138  0.037867408            2 
  942000    1.1195238   -6.1672179    424.22727  0.037528952  0.037859762           11 
  943000    1.1142098   -6.1481413     424.5631  0.037518832  0.037852256            4 
  944000    1.1151587   -6.1593676    424.56235  0.037479021  0.037844544            4 
  945000    1.0844019   -6.1832435     425.0251  0.037480168  0.037836921            6 
  946000    1.1078255   -6.1663791     426.0491  0.037530752  0.037829329            2 
  947000    1.1027198   -6.1572144    425.67821  0.037458484   0.03782165            4 
  948000    1.1113077   -6.1805848    426.36389  0.037479245  0.037813867            5 
  949000    1.0888679   -6.1525518     427.9349  0.037577704  0.037806059            2 
  950000    1.0932108   -6.1779915    426.92698  0.037449735  0.037798289            5 
  951000    1.1181199   -6.1346094    427.72295  0.037480104  0.037790341            2 
  952000    1.1102635   -6.1704548    425.82615  0.037274698  0.037782662            3 
  953000    1.1176113   -6.1661483     427.3611  0.037369806  0.037774913            7 
  954000    1.1008142   -6.1811318    428.82771  0.037458745  0.037767153           10 
  955000    1.0779691   -6.1729114    429.10575  0.037443783  0.037759573            9 
  956000    1.1168519   -6.1910398     429.8984   0.03747371  0.037751883            2 
  957000      1.11085   -6.1329375    431.17115  0.037545381  0.037744042            3 
  958000    1.1009376   -6.2067606    431.58976  0.037542602   0.03773681            4 
  959000    1.0974471   -6.1659322    431.01928  0.037453882  0.037729542            5 
  960000    1.0967236   -6.1344082    432.22703  0.037519708  0.037722259           10 
  961000    1.1214027   -6.1748326    432.27332  0.037484679   0.03771531            4 
  962000    1.1015057   -6.1708391    432.25016  0.037443708  0.037708316            4 
  963000    1.1023254   -6.1420716    431.55733  0.037344871  0.037701451           10 
  964000    1.0911804   -6.1550918    433.86873  0.037505942  0.037694547            5 
  965000    1.1026169   -6.1582753    433.56234  0.037440616  0.037687722            4 
  966000    1.0995869   -6.1928829    432.93392  0.037347647  0.037680755            3 
  967000    1.0987315   -6.1808478    433.56591  0.037363488  0.037673816            5 
  968000    1.1007857   -6.1271535    435.93631  0.037528953  0.037666761            2 
  969000    1.1055889    -6.159452    435.15054  0.037422647  0.037659708            9 
  970000    1.1008998   -6.1815199     435.5116  0.037415086  0.037652637            4 
  971000    1.1012395   -6.1453413    435.86078  0.037406521  0.037645886            6 
  972000    1.0849049   -6.1767178    435.86763  0.037368624  0.037638953            5 
  973000    1.0870583   -6.1825015     436.4077  0.037376473  0.037632085            5 
  974000    1.0983784   -6.1508013    437.97517  0.037472208  0.037625433            6 
  975000    1.0913228   -6.1768612    437.78745  0.037417731  0.037618674            3 
  976000    1.1118912   -6.1637104    437.35756  0.037342688  0.037611924            5 
  977000    1.1138982   -6.1463664    438.58026  0.037408756  0.037605109            3 
  978000    1.0870877   -6.1939059     439.4791  0.037447094   0.03759828            2 
  979000    1.1119981   -6.1410005    438.56838  0.037331322  0.037591377            4 
  980000    1.0854199   -6.1652273    439.37684  0.037361976  0.037584422           12 
  981000    1.0923851   -6.1706135    439.89247  0.037367692  0.037576957            4 
  982000    1.1122703   -6.2013597    438.87661  0.037243433  0.037569482            4 
  983000    1.1121467    -6.137556    440.33111  0.037328849    0.0375621            5 
  984000    1.0750521   -6.1712343    439.38037  0.037210397  0.037554522            4 
  985000    1.1038994    -6.149249    440.57781  0.037273926  0.037546996            2 
  986000    1.0822721   -6.1656404    440.32442  0.037214707  0.037539348            7 
  987000    1.0891892   -6.1790121    438.55289  0.037027431  0.037531488            3 
  988000    1.1029294   -6.1276362     440.9572  0.037192746  0.037523923            3 
  989000    1.0894639   -6.1605974    440.92335  0.037152288  0.037516497            3 
  990000    1.1053772   -6.1914891    440.70991  0.037096794  0.037508712            6 
  991000    1.0982809   -6.1687669    442.01274  0.037168916  0.037501016            5 
  992000    1.0774428   -6.1808519    443.29572  0.037239224  0.037493578            4 
  993000    1.1027737   -6.1713363    442.45373  0.037131062  0.037486155            3 
  994000    1.0946941   -6.1597827    442.95742  0.037135934  0.037478365            4 
  995000     1.092305    -6.173702    443.86629  0.037174731   0.03747069            5 
  996000    1.0983259    -6.176867    443.18535  0.037080434  0.037462771            4 
  997000    1.0686692   -6.1718071    444.53231  0.037155826  0.037454948            6 
  998000    1.0799351   -6.1743752      443.774  0.037055277  0.037447217            4 
  999000    1.0893959   -6.1607782    445.62526  0.037172611  0.037439191            4 
 1000000    1.0868351   -6.1771416    445.30376  0.037108647  0.037431554            3 
 1001000    1.0988655   -6.2040794    445.17457   0.03706082  0.037423562            3 
 1002000    1.0796618   -6.1361799    445.30372  0.037034574  0.037415679            7 
 1003000    1.1131001   -6.2161638    445.26489  0.036994424  0.037407744            7 
 1004000    1.0807849   -6.1620491    446.31038  0.037044354  0.037399921            6 
 1005000    1.0821704   -6.1824711    446.27685  0.037004714  0.037391994            7 
 1006000    1.0714828   -6.1685769    447.82913  0.037096515  0.037384051            3 
 1007000    1.1114963   -6.1940973    446.89156  0.036982088  0.037376027            6 
 1008000    1.0832631   -6.1914549     448.5274  0.037080638  0.037368281            3 
 1009000    1.0968099   -6.1939112    447.08777   0.03692499  0.037360194            5 
 1010000    1.0740307   -6.1556856    448.86392  0.037034977  0.037352208            6 
 1011000    1.1024524   -6.1845552    449.10647  0.037018338  0.037344152            3 
 1012000     1.105213   -6.1680531    448.31219  0.036916353  0.037336181            6 
 1013000    1.0841722    -6.209272    449.24037  0.036956266  0.037328077            5 
 1014000    1.0854799    -6.176283    449.73468  0.036960444  0.037320131            4 
 1015000    1.0835065   -6.2256823    451.06451  0.037033211  0.037312584            3 
 1016000    1.0822216   -6.1760689    450.95006  0.036987374  0.037305039            6 
 1017000     1.079271   -6.2001747     453.1763  0.037133424  0.037297704            3 
 1018000    1.1061301   -6.1448833    452.29619  0.037024901  0.037290204            6 
 1019000    1.0816179   -6.1961415    452.07647  0.036970597    0.0372827            4 
 1020000    1.0939335   -6.1795054     452.2777  0.036950793  0.037275011            8 
 1021000    1.0990755   -6.1989598    453.21412  0.036991031  0.037267287            5 
 1022000    1.1005978    -6.189764    454.28492  0.037042149  0.037259807            5 
 1023000    1.0744862   -6.1802322    453.54157  0.036945387  0.037252381            8 
 1024000    1.0804655   -6.1838085    454.68488   0.03700235  0.037244756            6 
 1025000    1.0875263   -6.2135954    453.99963  0.036910539  0.037236899            5 
 1026000    1.0953012   -6.2148085    454.12671  0.036884885  0.037228999            3 
 1027000    1.1105919   -6.1882923    455.21523  0.036937295  0.037221471            6 
 1028000    1.0717687   -6.1697887    454.60515  0.036851909  0.037213888            6 
 1029000     1.076541   -6.1781393    455.82789  0.036915119  0.037206102            3 
 1030000    1.1038257   -6.1432576    456.38348   0.03692423  0.037198334            2 
 1031000    1.0764098   -6.1709941    456.49179   0.03689717  0.037190852            3 
 1032000    1.0895187   -6.1710096    456.74126  0.036881561  0.037182801            4 
 1033000    1.0796088    -6.179194    457.40585  0.036899472  0.037174596            3 
 1034000    1.0882857    -6.159175    456.99779  0.036830899  0.037166539            7 
 1035000    1.0619228   -6.1838063    456.03864  0.036718087  0.037158697            3 
 1036000    1.0814658   -6.1398948    459.28654  0.036943898  0.037150845            5 
 1037000    1.0816068   -6.2018227    457.78777  0.036787831   0.03714311            5 
 1038000    1.0953331   -6.2203299    458.60745  0.036818196  0.037135197           10 
 1039000    1.0967798   -6.2072271    458.07998  0.036740454  0.037127217           10 
 1040000    1.0951791   -6.1851326    460.47384  0.036896942  0.037119544            5 
 1041000    1.1008923   -6.1840846    459.70065  0.036799603  0.037111657            4 
 1042000    1.1001931   -6.1811014    460.41196  0.036821174  0.037103695            4 
 1043000    1.0849172   -6.2351071    458.83002  0.036659477    0.0370957            7 
 1044000    1.0793717   -6.2203492    461.03404   0.03680029  0.037087691            3 
 1045000     1.082602   -6.1823161    460.62764  0.036732667  0.037079997            3 
 1046000    1.0632111   -6.1643043     461.0588  0.036731899  0.037072193            7 
 1047000    1.0987348   -6.1719563     461.7205  0.036749483  0.037064526            5 
 1048000    1.0967104   -6.1953383    461.80579  0.036721199  0.037056708            4 
 1049000    1.0738554   -6.2157618    462.08193  0.036708129  0.037048851            4 
 1050000    1.1218181   -6.2155082    460.43554  0.036542503  0.037040938            5 
 1051000    1.0691668   -6.2280518    462.94334  0.036706576  0.037032831            4 
 1052000    1.0688852   -6.1944488    463.58799   0.03672275  0.037024676            2 
 1053000    1.0852371   -6.1973194    463.41724  0.036674362  0.037016733            4 
 1054000    1.0858774   -6.2131564    462.82516  0.036592755  0.037008678            5 
 1055000    1.0955122   -6.1994219    463.95516  0.036647327  0.037000656            2 
 1056000    1.0830378   -6.1861646    463.87507  0.036606303  0.036992547            4 
 1057000    1.0807711   -6.1880538    466.18889  0.036754091  0.036984564            8 
 1058000    1.1197436   -6.1747728    463.46713  0.036504972  0.036976631            5 
 1059000    1.0847728   -6.1659519    464.71923   0.03656903  0.036968633            5 
 1060000    1.0616289   -6.2068836    466.14023  0.036646245  0.036960424            8 
 1061000    1.1002608   -6.1747159     465.0544  0.036526422  0.036952317            4 
 1062000    1.0785355   -6.2255724    465.60028  0.036534861  0.036943977            6 
 1063000    1.0770574   -6.2013939    468.15856  0.036701048  0.036935542            3 
 1064000    1.0832779   -6.2178129    466.57948  0.036542879  0.036927608            5 
 1065000    1.0537762   -6.1944358    467.64615  0.036592031  0.036919483            5 
 1066000    1.0676297    -6.173186    468.61442  0.036633397   0.03691164            3 
 1067000    1.0825207   -6.1939788     468.6144  0.036599063  0.036903579            3 
 1068000    1.0793111   -6.1957331    469.85941  0.036661939  0.036895791            5 
 1069000     1.086136   -6.1974721    468.77412   0.03654304  0.036887794            3 
 1070000    1.0691716   -6.2006181    469.78856  0.036587894  0.036879929            2 
 1071000    1.0625106   -6.2177991    469.71147  0.036547733  0.036872234            4 
 1072000    1.0795259   -6.2070955    471.03774   0.03661674  0.036864401            5 
 1073000    1.0797587   -6.2085298    471.45134  0.036614736  0.036856656            6 
 1074000    1.0659527   -6.2005036    470.89168  0.036537219  0.036849048            4 
 1075000    1.0795145   -6.2165578     471.7014     0.036566    0.0368413            3 
 1076000    1.0859468   -6.2303566      472.653  0.036605715  0.036833508            3 
 1077000    1.0810735   -6.1967561    471.28249  0.036465683  0.036825791            6 
 1078000    1.0914304   -6.2115455    472.44308  0.036521574   0.03681819            5 
 1079000    1.0922206   -6.2078954      471.971  0.036451267  0.036810307            5 
 1080000    1.0744872   -6.2199114    473.60763  0.036543798  0.036802565           18 
 1081000    1.0730294   -6.1666566    473.60847  0.036510057  0.036794842            3 
 1082000     1.076297   -6.1938636    472.38363   0.03638198  0.036786902            5 
 1083000    1.1013939    -6.206777    473.22564  0.036413176  0.036778892            5 
 1084000    1.0689868   -6.2062288    474.35344  0.036466286  0.036770723            7 
 1085000    1.1004624   -6.2371483     473.5771  0.036373049  0.036762476            8 
 1086000    1.0815121   -6.1927119    474.83904   0.03643639  0.036754377            3 
 1087000    1.0750136   -6.1695049    475.06422  0.036420134  0.036746284            4 
 1088000     1.068237   -6.2061078    474.66228  0.036355873  0.036737857            4 
 1089000    1.0562542   -6.2267195    474.55749  0.036314469   0.03672943            3 
 1090000    1.0897747   -6.2037588    475.15964   0.03632719  0.036721197            9 
 1091000    1.0771714   -6.1993947    476.67504  0.036409643  0.036713004           10 
 1092000     1.065886   -6.1383109     477.7011  0.036454602  0.036705087            3 
 1093000    1.0723688   -6.2213892    477.68816  0.036420262  0.036697019            4 
 1094000    1.0806145   -6.1869052    478.20671  0.036426471  0.036689072            6 
 1095000    1.0725746   -6.1910085     478.1227  0.036386811  0.036681214            4 
 1096000    1.0670353   -6.2105458    477.05536  0.036272457  0.036673265            5 
 1097000    1.0870881   -6.2283246    479.34065  0.036412994   0.03666539            3 
 1098000    1.1028635   -6.2370725    479.64653  0.036403046  0.036657798            6 
 1099000    1.0832507   -6.1982255    480.07343  0.036402292   0.03665023            5 
 1100000    1.0768562   -6.2519189    479.24747  0.036306626  0.036642626            8 
 1101000     1.067624   -6.1925086    480.51549  0.036369626  0.036634983            4 
 1102000    1.0659696   -6.1844796    481.59724  0.036418424  0.036627632            4 
 1103000    1.0788001   -6.1941189    482.69753  0.036468535   0.03662005            7 
 1104000    1.0507914   -6.2202662    481.98935  0.036382047  0.036612419            3 
 1105000     1.078487   -6.2348137    482.86661   0.03641528  0.036605041           14 
 1106000    1.0857706   -6.1854814    483.39822   0.03642241  0.036597726           11 
 1107000    1.0743919   -6.2107062    482.31832  0.036308215  0.036590482            5 
 1108000    1.0946817   -6.1900651    482.55495  0.036293242  0.036583207            7 
 1109000    1.0737622   -6.2143376    484.10123  0.036376708  0.036575619            6 
 1110000    1.0739622   -6.2314407    483.36432  0.036288613  0.036568354            5 
 1111000    1.0626756   -6.1648402     485.5141  0.036417199  0.036561201            5 
 1112000      1.07537   -6.1764507     486.0393  0.036423808  0.036554142            2 
 1113000     1.077448   -6.1955661    486.16967  0.036400844  0.036547177            6 
 1114000    1.0775877   -6.2200707    484.29014  0.036227569  0.036539808            6 
 1115000    1.0675225   -6.2100917    484.58946  0.036217448  0.036532347            5 
 1116000    1.0781491   -6.2021103    485.95109   0.03628667  0.036524741            2 
 1117000    1.0820068   -6.2046356    484.82499  0.036170172  0.036516731           13 
 1118000    1.0559788   -6.2166436    484.61946    0.0361225  0.036508627            6 
 1119000    1.0864149    -6.212176    486.10674  0.036200978  0.036500727            7 
 1120000    1.0611503   -6.1900548    486.28805  0.036182147  0.036492672            5 
 1121000    1.0635131   -6.2085711    486.62792  0.036175135  0.036484782            4 
 1122000     1.044539   -6.2177816    485.93325  0.036091299  0.036476627            9 
 1123000     1.046548   -6.2615568     488.0478  0.036216073  0.036468461            3 
 1124000    1.0682201   -6.2166244    487.93155  0.036175234  0.036460471            2 
 1125000    1.0862009   -6.2070114     487.5961  0.036118229  0.036452313            7 
 1126000    1.0497047   -6.1982591    487.40891    0.0360723  0.036444254            4 
 1127000    1.0704876   -6.1868899     489.0849  0.036164219  0.036436127            4 
 1128000    1.0906034   -6.2076334    489.16101  0.036137782  0.036428144           10 
 1129000    1.0680437   -6.2403035    488.10379  0.036027738  0.036420117           10 
 1130000    1.0757504   -6.2370648     488.2691  0.036008045  0.036412041            4 
 1131000    1.0735246   -6.2085969    489.79476  0.036088621  0.036404061            6 
 1132000    1.0426244   -6.2064175    491.05538  0.036149542  0.036396182            4 
 1133000     1.081286   -6.2040729    489.16727  0.035978764  0.036388155            5 
 1134000    1.0768004   -6.2370828    491.49875  0.036118368  0.036380307            5 
 1135000    1.0654898   -6.2146258    490.92011  0.036044061   0.03637249            4 
 1136000    1.0760238   -6.2415013    492.95992  0.036161966  0.036364874            3 
 1137000    1.0596356   -6.2136101    492.11327  0.036068108   0.03635707            4 
 1138000     1.057331   -6.1979104    494.34553  0.036199878  0.036349424            5 
 1139000    1.0864016   -6.2169612    493.00647  0.036070125  0.036341548            1 
 1140000    1.0649938   -6.2363346    493.85505  0.036100516  0.036333768            3 
 1141000    1.0722571   -6.2158834    492.81031  0.035992573  0.036325992            5 
 1142000    1.0395986   -6.2070777    493.07636   0.03598047  0.036318119            8 
 1143000     1.081959   -6.2405405    492.92729  0.035938123   0.03631036            5 
 1144000    1.0817993   -6.2328546    495.57684  0.036099712  0.036302634            4 
 1145000    1.0802658   -6.2397653    494.70618  0.036004817  0.036294938            8 
 1146000    1.0754199   -6.2222777    495.52599  0.036033013  0.036287305            6 
 1147000    1.0564301   -6.2287681    495.39072   0.03599177  0.036279985            3 
 1148000    1.0364418   -6.2248476    496.58767  0.036047305  0.036272451            5 
 1149000    1.0735903   -6.2012482    496.14892  0.035984111  0.036264876            9 
 1150000    1.0635634    -6.208322    497.76125  0.036069656   0.03625729            2 
 1151000     1.078473     -6.21874    498.71379  0.036107283  0.036249903            6 
 1152000    1.0606764   -6.1815921    500.24656  0.036186817  0.036242641            8 
 1153000    1.0493564   -6.2280694    499.20303  0.036080011  0.036235373            7 
 1154000    1.0588032   -6.2176048    499.66411  0.036082041  0.036228236            2 
 1155000    1.0583976   -6.2134316    500.96834  0.036144902  0.036221062            4 
 1156000    1.0534125   -6.1864113    500.30568  0.036065865  0.036214091            6 
 1157000    1.0375051   -6.2082923    499.65332  0.035987706   0.03620706            3 
 1158000    1.0840606   -6.2325899    500.76645  0.036036734  0.036200011            5 
 1159000     1.056548   -6.2164758    501.12297  0.036031275  0.036192789            5 
 1160000    1.0595732   -6.2318321     501.2583  0.036009935  0.036185745            4 
 1161000    1.0831739   -6.1925417     502.2758  0.036051952   0.03617888           11 
 1162000    1.0973872   -6.2312897    503.54607  0.036112025  0.036171929            8 
 1163000    1.0450113   -6.2224098    503.05656  0.036045898  0.036164958            4 
 1164000    1.0811412   -6.2306286    502.74254   0.03599245  0.036157982            1 
 1165000    1.0986996   -6.2314201     504.0502  0.036055093  0.036151121            6 
 1166000    1.0638017   -6.2206146    504.07429  0.036025893  0.036144227            9 
 1167000    1.0757963   -6.2250092    504.36806     0.036016  0.036137186            4 
 1168000    1.0621159   -6.2386481    502.99366  0.035887105  0.036130031            8 
 1169000    1.0690085   -6.2176147    506.30566  0.036092505  0.036123143            4 
 1170000    1.0623534   -6.1996081    505.59106  0.036010759  0.036116159            3 
 1171000    1.0668069   -6.2249166    507.85561  0.036141162   0.03610923            4 
 1172000    1.0540542   -6.2659813     506.8113  0.036036071   0.03610243            3 
 1173000    1.0552192   -6.2330446    507.08817  0.036025019  0.036095438            7 
 1174000    1.0505324   -6.2239416    505.09795  0.035853063  0.036088584            6 
 1175000    1.0789897   -6.2142195    507.35737  0.035982792  0.036081754            4 
 1176000    1.0642349   -6.1967183     508.0485   0.03600117  0.036074915            4 
 1177000    1.0699647   -6.2452092    507.41667  0.035925847  0.036068214            5 
 1178000    1.0681439   -6.2395113    509.23553  0.036024019  0.036061481           14 
 1179000    1.0756352   -6.2213765    508.62296  0.035950167  0.036054922            4 
 1180000     1.073065   -6.2122643    512.20543    0.0361727  0.036048291            8 
 1181000    1.0621853   -6.2251809    509.42832  0.035946113   0.03604171            5 
 1182000    1.0833587   -6.2538994    510.07822  0.035961521  0.036034893           10 
 1183000    1.0569898   -6.1857713    512.22277   0.03608219  0.036028139           10 
 1184000    1.0645635   -6.2532479    511.85519  0.036025844  0.036021586            7 
 1185000    1.0565041   -6.1969937    511.42523  0.035965206  0.036014953           11 
 1186000    1.0533268   -6.2362155    510.35182  0.035859459  0.036008228            3 
 1187000     1.084446   -6.2167261    511.49772  0.035909697  0.036001548            6 
 1188000     1.045041   -6.2373743    512.34808  0.035939119  0.035994947           12 
 1189000    1.0685806   -6.2369085    513.21748  0.035969826  0.035988485           10 
 1190000    1.0532869   -6.2444584    514.28727  0.036014514  0.035982069            4 
 1191000    1.0485848   -6.2321398    512.80401  0.035880493  0.035975368            8 
 1192000    1.0635192   -6.2032715    514.44068  0.035964813  0.035968746            7 
 1193000     1.077391   -6.2559762    513.99751   0.03590371   0.03596206            3 
 1194000    1.0354876   -6.2562486    514.36106  0.035899013  0.035955455            9 
 1195000    1.0616527   -6.1957311    515.37798  0.035939887  0.035948853            8 
 1196000    1.0397123   -6.2233109    515.10586  0.035890877  0.035942435            7 
 1197000    1.0758623   -6.2390052    514.40123  0.035811837   0.03593577            6 
 1198000    1.0623439   -6.2554599    517.04854  0.035966092  0.035929116            5 
 1199000    1.0466943   -6.2293591    516.18038  0.035875756  0.035922461            5 
 1200000    1.0867708   -6.2537013    515.19257  0.035777262  0.035915735            9 
 1201000     1.051766   -6.2088914    517.13911  0.035882536  0.035909033            4 
 1202000    1.0550639   -6.2674586    517.06623  0.035847631  0.035902439            9 
 1203000    1.0474399   -6.2164861    518.85745  0.035941913  0.035895962            8 
 1204000    1.0576859   -6.2227751    518.52993  0.035889391  0.035889522            5 
 1205000    1.0413231   -6.2337102    516.39424  0.035711911  0.035882974           14 
 1206000    1.0745785   -6.2202414    519.01119  0.035863128  0.035876347            4 
 1207000    1.0426756   -6.2319509    519.54564  0.035870315  0.035869536            5 
 1208000    1.0432127     -6.24473     518.3615  0.035758933   0.03586273            3 
 1209000    1.0507601   -6.2389885    520.21052  0.035856805  0.035856123            8 
 1210000    1.0369895   -6.2405292    520.40025  0.035840238  0.035849368            5 
 1211000    1.0593571   -6.2213174    519.50221  0.035748845  0.035842503            7 
 1212000    1.0699993    -6.260039    518.95236  0.035681543   0.03583555            5 
 1213000    1.0811256   -6.2077557    519.83322  0.035712642  0.035828726            3 
 1214000    1.0648281   -6.2453862    520.27017  0.035713219  0.035821897            5 
 1215000    1.0498338   -6.2579768    520.70546   0.03571368  0.035815026            7 
 1216000    1.0327919   -6.2382635      520.236  0.035652138  0.035808253           11 
 1217000     1.031577   -6.2337872    521.80991  0.035730616  0.035801639            3 
 1218000    1.0463428    -6.250193    523.04312  0.035785654  0.035794821            5 
 1219000    1.0490542   -6.2516782    520.35492  0.035572526  0.035788047            3 
 1220000     1.060805   -6.2337752    524.55726  0.035830414  0.035781386           11 
 1221000    1.0816975   -6.2659523    523.65167  0.035739262  0.035774916            7 
 1222000    1.0590856   -6.2416268    523.80391  0.035720398   0.03576805            2 
 1223000    1.0557551   -6.2503027    523.97662  0.035702959  0.035761227            5 
 1224000    1.0610083   -6.2214707    523.82172  0.035663244  0.035754732            3 
 1225000     1.054113   -6.2362978    524.35037  0.035670093  0.035747949            3 
 1226000    1.0436077   -6.2484119    525.70897  0.035733345  0.035741268            5 
 1227000     1.050041   -6.2486608     525.4933  0.035689575  0.035734791            5 
 1228000    1.0693907   -6.2298883    525.82578  0.035683074  0.035728342            9 
 1229000    1.0644128    -6.221788    525.75389  0.035649165  0.035721667            5 
 1230000    1.0592338   -6.2395434    526.38244  0.035662767   0.03571504            4 
 1231000    1.0587378   -6.2643546    525.89824  0.035601018  0.035708531            3 
 1232000    1.0464258    -6.217052    527.91218  0.035708346  0.035701826            3 
 1233000    1.0575728   -6.2598815    528.05784  0.035689229   0.03569509            4 
 1234000    1.0492853   -6.2499664    527.34701  0.035612305  0.035688365            3 
 1235000    1.0260357   -6.2396651    528.53738  0.035663791  0.035681573            8 
 1236000    1.0505239   -6.2745678     528.1047  0.035605765   0.03567506            7 
 1237000     1.046497   -6.2377676    528.65903  0.035614325  0.035668431            6 
 1238000    1.0682259   -6.2342023    529.45206  0.035638938  0.035661846            4 
 1239000    1.0594052   -6.2297182    529.04476  0.035582779  0.035655399            5 
 1240000    1.0483039   -6.2441186    530.01958  0.035619595  0.035648851            4 
 1241000    1.0495694   -6.2355877    530.93461  0.035652338  0.035642519            3 
 1242000    1.0517655   -6.2261215    531.07652  0.035633154  0.035636273            8 
 1243000    1.0403681   -6.2393363    532.25177  0.035683278  0.035629935            3 
 1244000    1.0677559   -6.2699113     531.8362  0.035626755  0.035623593            3 
 1245000    1.0390478   -6.2440293    533.02784  0.035677901  0.035617162            5 
 1246000    1.0377059   -6.2388824    533.89258  0.035707101    0.0356108            3 
 1247000    1.0678256   -6.2461152    533.91304  0.035679834  0.035604654            7 
 1248000    1.0477294   -6.3118723    532.85385  0.035580519  0.035598397            4 
 1249000    1.0295977   -6.2384065    534.21225  0.035642664   0.03559216            3 
 1250000    1.0321195   -6.2625352    534.71561  0.035647707  0.035585956            6 
 1251000    1.0376459   -6.2397994    534.92127  0.035632912  0.035579887           10 
 1252000    1.0684346   -6.2738814    535.31949  0.035630956  0.035573823            3 
 1253000    1.0563581   -6.2714535    535.06558  0.035585633  0.035567517            6 
 1254000    1.0364105   -6.2343535    535.53795  0.035588646  0.035561361            4 
 1255000    1.0635854   -6.2592163    535.53238  0.035559919   0.03555506            6 
 1256000    1.0653561   -6.2242024     536.6759  0.035607477  0.035548873            3 
 1257000    1.0325616    -6.263888    536.32757  0.035556058  0.035542745            4 
 1258000    1.0612239   -6.2739247    537.23008  0.035587578  0.035536537           11 
 1259000    1.0352906   -6.2402607    537.46728  0.035575012  0.035530384           10 
 1260000    1.0593764   -6.2397883    536.96097  0.035513292  0.035524483            9 
 1261000    1.0793759   -6.2639691    538.60003  0.035593447  0.035518352            8 
 1262000    1.0444757   -6.2485679    540.30327  0.035677712  0.035512294            3 
 1263000    1.0759975   -6.2396687    539.26227  0.035580778  0.035506187            7 
 1264000    1.0495978   -6.2568235    538.35522  0.035492828  0.035500135            9 
 1265000    1.0431889   -6.2552224     540.5408  0.035608748  0.035493821            6 
 1266000    1.0391648   -6.2660935    537.94754  0.035409923  0.035487363            3 
 1267000    1.0544493   -6.2587992    540.22464  0.035531744  0.035481067            7 
 1268000    1.0556897   -6.2679974    538.77006  0.035408127  0.035474652            9 
 1269000    1.0322799   -6.2644964      539.841  0.035450551   0.03546815           10 
 1270000    1.0402622   -6.2570281    539.28438  0.035386114   0.03546172            8 
 1271000    1.0647206   -6.2324799    539.96978  0.035403212  0.035455425            4 
 1272000      1.03795   -6.2570532    540.15516  0.035387524  0.035448829            3 
 1273000    1.0467242   -6.2583826    540.86559  0.035406231  0.035442122            6 
 1274000    1.0266915   -6.2437888    541.42895   0.03541529  0.035435438            4 
 1275000    1.0235063    -6.259226    541.31249  0.035379902  0.035428969            4 
 1276000    1.0532124   -6.2874389    542.06013  0.035401001  0.035422345            3 
 1277000    1.0427141   -6.3118813    542.01605  0.035370402  0.035415844           11 
 1278000     1.054045    -6.243024    542.96808  0.035404805  0.035409439            7 
 1279000    1.0376136   -6.2853705    541.67169  0.035292656  0.035402901            6 
 1280000    1.0371529   -6.2302723    543.85015  0.035406911  0.035396368            4 
 1281000    1.0186532    -6.273694     543.3925  0.035349499   0.03538983            4 
 1282000    1.0554381   -6.2761719    544.00834  0.035361956  0.035383333            4 
 1283000    1.0591313   -6.2804633    546.04957  0.035466976   0.03537679            6 
 1284000    1.0413017   -6.2632149    545.53657   0.03540606  0.035370303            4 
 1285000     1.037286   -6.2518242    545.03584  0.035346033   0.03536378            5 
 1286000    1.0382616   -6.2354519    545.64053  0.035357733  0.035357346            6 
 1287000    1.0360941   -6.2728356    544.96136  0.035286284   0.03535078            3 
 1288000    1.0525221   -6.2780939    545.33741  0.035283217  0.035344201            7 
 1289000    1.0448616   -6.2913281    546.23819   0.03531408  0.035337449            7 
 1290000    1.0369222   -6.2341598    547.42191  0.035363172  0.035331072            4 
 1291000    1.0481543   -6.2601539    546.14246  0.035253192  0.035324581            4 
 1292000     1.026504   -6.2537809    547.26617  0.035298386  0.035317982            5 
 1293000    1.0716104   -6.2863823    547.74718  0.035302087  0.035311454            7 
 1294000    1.0277509   -6.2732736    548.48967  0.035322622  0.035305062            4 
 1295000    1.0228319   -6.2535052    549.44214  0.035356637  0.035298671            4 
 1296000    1.0395996   -6.2486816     549.6113  0.035340232  0.035292471            9 
 1297000    1.0746001   -6.2362286    549.93184   0.03533358  0.035286063            4 
 1298000    1.0466476     -6.27245    549.81715  0.035298995  0.035279605            6 
 1299000    1.0499046   -6.2529289    552.12219  0.035419694   0.03527313            8 
 1300000    1.0301716   -6.2729176     550.1163  0.035263865  0.035266684            4 
 1301000    1.0270737   -6.2586356    549.86422  0.035220613  0.035260029            4 
 1302000    1.0520624   -6.2400387    551.58542  0.035303726  0.035253491            5 
 1303000     1.074392   -6.2474319    550.35522  0.035197955  0.035246856            9 
 1304000     1.028597   -6.2770485    551.20752   0.03522543  0.035240304            9 
 1305000    1.0774514   -6.2525028     550.7147  0.035166967  0.035233472            3 
 1306000    1.0468018   -6.2802047    550.43931  0.035122467  0.035226624           13 
 1307000    1.0393676    -6.260183    551.84353  0.035185127  0.035219814            5 
 1308000    1.0453035   -6.2479557    549.71191   0.03502242  0.035212845            6 
 1309000    1.0463479   -6.2554164    551.57602  0.035114338  0.035205681            3 
 1310000    1.0265779   -6.2629131    551.28985  0.035069329  0.035198638            5 
 1311000     1.039375   -6.2312373    552.42189  0.035114537  0.035191617            7 
 1312000    1.0669639   -6.2635239    552.76837   0.03510978  0.035184564            2 
 1313000    1.0356316   -6.3029145    552.12381  0.035042131  0.035177544            6 
 1314000    1.0292786    -6.269731    551.42751  0.034971303  0.035170244            6 
 1315000    1.0554263   -6.2578662    550.78667  0.034904098  0.035163075            4 
 1316000    1.0395206   -6.2712957     552.0654  0.034958549  0.035155766            5 
 1317000    1.0474251   -6.2919077    552.35217   0.03495015   0.03514845            7 
 1318000     1.023929   -6.2680887    551.38709  0.034862613  0.035140917            3 
 1319000    1.0391923    -6.269973    552.08587   0.03488033  0.035133371            8 
 1320000    1.0468155   -6.2852256    552.02387  0.034849992  0.035125809            4 
 1321000    1.0303168   -6.2609371    553.88085  0.034940755  0.035118307            7 
 1322000    1.0497445   -6.2692347    553.34973  0.034880846  0.035110796            6 
 1323000    1.0249501   -6.2604891    554.27887  0.034913005  0.035103407            5 
 1324000    1.0461632    -6.246037    555.04472  0.034934839  0.035096104           13 
 1325000    1.0292285   -6.2806048    554.33595  0.034863897  0.035088821            6 
 1326000    1.0465181   -6.2679083    556.39773  0.034967178  0.035081399            4 
 1327000    1.0307485   -6.2842231    556.38502  0.034940029  0.035074052            2 
 1328000    1.0185638   -6.2554514    556.15609  0.034899353  0.035066884            4 
 1329000    1.0527753    -6.286333    557.24931  0.034941642  0.035059516            6 
 1330000    1.0176656   -6.2335927    557.98531  0.034961486  0.035052303            3 
 1331000    1.0330137   -6.2558278    556.94747   0.03487024  0.035045113            7 
 1332000    1.0184368   -6.2911158    557.36832   0.03487039  0.035037863            5 
 1333000    1.0392035   -6.2855034    556.40991  0.034784316  0.035030462            8 
 1334000    1.0374439   -6.2727477    558.58311  0.034893997  0.035023098            4 
 1335000    1.0349565   -6.2589202    558.92243   0.03488904  0.035015897            4 
 1336000    1.0579234   -6.2869888    557.40066  0.034768005  0.035008682            5 
 1337000     1.016111    -6.290836    557.55807  0.034751812  0.035001415            9 
 1338000    1.0545636   -6.2977349    558.67339  0.034795303  0.034994204            3 
 1339000    1.0540015   -6.2774184    559.51111  0.034821453  0.034987052            4 
 1340000    1.0604008   -6.2772942    561.47177  0.034917399  0.034979946            5 
 1341000    1.0352022    -6.266962    561.71677  0.034906585  0.034972813            6 
 1342000    1.0380192    -6.261427    560.25624  0.034789881  0.034965574            8 
 1343000    1.0541862   -6.2737202    561.09893  0.034816265  0.034958304            4 
 1344000    1.0422444   -6.3108737    561.00051  0.034784258  0.034951236            4 
 1345000    1.0336381   -6.3000784    561.34272  0.034779599  0.034944045            4 
 1346000    1.0422461   -6.3002578    560.43665  0.034697663  0.034936817            9 
 1347000    1.0513082   -6.2778581    562.40466  0.034793656  0.034929536            6 
 1348000    1.0268927   -6.2499812    562.88407  0.034797482   0.03492223            9 
 1349000    1.0292943   -6.2730447    561.87296  0.034709227  0.034915135            4 
 1350000    1.0307565   -6.2684009    563.22369  0.034766895  0.034908024            7 
 1351000    1.0347055   -6.2665007    563.77485  0.034775157  0.034900706            4 
 1352000    1.0288331   -6.2993366    562.83895   0.03469175  0.034893367            5 
 1353000    1.0255864   -6.2686763    563.24949  0.034691395  0.034885739            8 
 1354000    1.0465343   -6.2938374    562.64201  0.034628386  0.034878216            5 
 1355000     1.047806   -6.2905426    563.68759  0.034667133  0.034870675            3 
 1356000    1.0506293   -6.2768413    561.84284  0.034528198  0.034863072            6 
 1357000    1.0460209   -6.2689636    562.53276  0.034545122  0.034855459            7 
 1358000    1.0601822    -6.298108    564.84465  0.034661552  0.034847934            8 
 1359000    1.0107078   -6.2839898    565.33026  0.034665824  0.034840466            6 
 1360000    1.0221721   -6.2747123    564.82643  0.034609463  0.034832987            5 
 1361000    1.0279993   -6.2619377    565.57409  0.034629812   0.03482563            5 
 1362000    1.0625876   -6.2635838    566.99748  0.034691476  0.034818413            9 
 1363000    1.0203647   -6.2900776    566.60658  0.034642124   0.03481107            5 
 1364000    1.0500049   -6.3257653    566.06545  0.034583666   0.03480351            6 
 1365000    1.0305538   -6.3017021    566.69847  0.034596976  0.034796002            9 
 1366000    1.0510751   -6.2660931    566.89235  0.034583476  0.034788412            4 
 1367000    1.0401871   -6.3124837     565.8637   0.03449547  0.034780754            5 
 1368000    1.0314933   -6.3052031    566.54466  0.034511736  0.034773273            6 
 1369000    1.0216929   -6.2779802    568.81283  0.034624594  0.034765807            5 
 1370000    1.0283334   -6.2649521    568.05575  0.034553269  0.034758358            5 
 1371000    1.0157158   -6.2707001    568.95845  0.034582935  0.034750747            4 
 1372000    1.0425913   -6.2874371     567.9778  0.034498166  0.034743212            3 
 1373000    1.0429289   -6.2618573    569.47483  0.034563901  0.034735838            6 
 1374000     1.028396   -6.2770612    567.59078  0.034424477  0.034728336           12 
 1375000    1.0165052   -6.3179585    569.45725  0.034512561  0.034720601            9 
 1376000     1.038492   -6.2888086    568.39986  0.034423441  0.034712916            4 
 1377000    1.0442796   -6.2808897    571.10129  0.034561927    0.0347053            6 
 1378000    1.0398616   -6.3212227    570.08126  0.034475161  0.034697698            4 
 1379000     1.039406   -6.2961811    568.91096  0.034379439  0.034690015            5 
 1380000    1.0381442   -6.2595143    570.26899  0.034436533  0.034682362            5 
 1381000    1.0418041   -6.2865143    570.49982  0.034425526  0.034674837            5 
 1382000     1.030082   -6.2802404    571.96127   0.03448874  0.034667354           10 
 1383000    1.0196219   -6.3225494    571.77702  0.034452701  0.034659923            3 
 1384000    1.0221734   -6.2929662    573.56077   0.03453521  0.034652334           10 
 1385000    1.0380352   -6.2889923    573.00961  0.034477112  0.034644988            4 
 1386000    1.0291989   -6.2843652    574.35115  0.034532898   0.03463756            5 
 1387000    1.0443634   -6.2854515    572.83878  0.034417134   0.03463012            4 
 1388000    1.0316723   -6.2770858    573.07477  0.034406506  0.034622596            7 
 1389000    1.0483798   -6.2914161    573.76358  0.034423061  0.034615065            6 
 1390000     1.057906   -6.2602688    573.97789  0.034411145  0.034607579           12 
 1391000    1.0290754   -6.2755279    574.32112  0.034406968  0.034600028            6 
 1392000    1.0165515   -6.2742614     574.9509  0.034419953  0.034592457            4 
 1393000    1.0209643   -6.2716767    575.82301  0.034447416  0.034584942            3 
 1394000    1.0010261    -6.283964    573.81231  0.034302506  0.034577331            4 
 1395000    1.0252041   -6.2997269    574.41182  0.034313729  0.034569726            4 
 1396000    1.0240201   -6.2681835     576.1566  0.034393302  0.034562078            5 
 1397000    1.0250437   -6.2915359    575.10996  0.034306249  0.034554396           14 
 1398000    1.0329846   -6.2599223    576.24245  0.034349216  0.034546846           11 
 1399000    1.0244776   -6.2787046    576.76031   0.03435551  0.034539396            5 
 1400000    1.0305432    -6.302628    577.26687  0.034361123  0.034531793            4 
 1401000    1.0351668   -6.2966848    575.52741  0.034233132  0.034524253            4 
 1402000    1.0288243   -6.3005182    577.43754  0.034322251  0.034516552            8 
 1403000    1.0174915   -6.3095384    576.83125  0.034261775  0.034508886            3 
 1404000    1.0454934   -6.3063281    578.36229  0.034328246  0.034501218            7 
 1405000    1.0294535   -6.3268752    578.26856  0.034298254  0.034493469            9 
 1406000     1.048886   -6.2658736    577.48969  0.034227696  0.034485677            3 
 1407000    1.0176067   -6.2838856    577.49596  0.034203741  0.034477901            7 
 1408000    1.0497147   -6.2648649    578.38209  0.034231895  0.034470226            4 
 1409000    1.0388074   -6.2858195    579.10277  0.034250223  0.034462563            5 
 1410000    1.0403016   -6.2999728    578.80117  0.034208107  0.034454804            2 
 1411000    1.0336646   -6.3259767    578.95827  0.034193141  0.034447099            4 
 1412000    1.0193319   -6.3414294    577.95671  0.034109815    0.0344394            5 
 1413000    1.0352836   -6.3232423    577.93243  0.034084243  0.034431704            3 
 1414000    1.0429878    -6.313351    579.72712  0.034165908  0.034424098            5 
 1415000      1.02161   -6.2758083    581.80556  0.034264167  0.034416524            3 
 1416000    1.0090134   -6.2799069    581.11607  0.034199392  0.034408919            8 
 1417000    1.0184395   -6.2819539      579.705  0.034092272  0.034401293           10 
 1418000    1.0347827   -6.3186113    580.51549  0.034115861    0.0343938            6 
 1419000    1.0163383   -6.3526836    580.82276  0.034109863  0.034386145            4 
 1420000    1.0426417   -6.2803327    582.62511  0.034191615  0.034378281            6 
 1421000    1.0064814   -6.2783359     582.2985  0.034148399   0.03437071            3 
 1422000    1.0306979   -6.2693591    581.76537  0.034093141   0.03436298            5 
 1423000    1.0172319   -6.2790707    582.31461  0.034101348  0.034355243            8 
 1424000     1.024949   -6.2517113    584.81108  0.034223495  0.034347635            5 
 1425000    1.0235383   -6.3183404    581.80816  0.034023869  0.034340007            8 
 1426000    1.0076307   -6.2549351     584.7792  0.034173632  0.034332284            6 
 1427000    1.0053527    -6.300935    583.01069  0.034046408  0.034324679            6 
 1428000    1.0158222   -6.3086402    585.50678  0.034168229  0.034317238            6 
 1429000    1.0224445   -6.2888223    584.07344  0.034060733  0.034309838            3 
 1430000    1.0287132   -6.2816148    586.34479  0.034169277  0.034302351            8 
 1431000    1.0095651   -6.3042302    584.60084  0.034043841   0.03429477            6 
 1432000    1.0148128   -6.2866221    585.20701  0.034055343  0.034287173            4 
 1433000    1.0178621   -6.2606685    587.43084    0.0341609  0.034279743            3 
 1434000    1.0162472   -6.3184705     585.7993  0.034042265   0.03427233            7 
 1435000    1.0206211   -6.2852866    587.16821  0.034098038  0.034264901            4 
 1436000    1.0158894   -6.3011155    586.20926  0.034018643  0.034257517           12 
 1437000    1.0524363   -6.2759338    587.41067  0.034064641  0.034249924            9 
 1438000    1.0203905   -6.3131986    588.09419  0.034080563  0.034242545            7 
 1439000    1.0257807   -6.2943832    586.90756  0.033988161  0.034235126            6 
 1440000    1.0212725   -6.3052353     588.3444  0.034047708  0.034227744           10 
 1441000    1.0154936   -6.3175113     586.6838  0.033928048  0.034220177            3 
 1442000    1.0275197    -6.290774    589.19479  0.034049629  0.034212616            4 
 1443000    1.0298603    -6.332754    587.65516  0.033937119  0.034204894            6 
 1444000   0.99614887   -6.3150802    589.71449  0.034032461  0.034197202            5 
 1445000    1.0170873   -6.2914096    589.00321   0.03396789  0.034189728            3 
 1446000    1.0329703     -6.31052    589.24959  0.033958598  0.034182161           11 
 1447000    1.0269818   -6.2906363    591.73098  0.034078034  0.034174659            8 
 1448000    1.0197065   -6.2845101     590.9306  0.034008437  0.034167339           15 
 1449000    1.0389532   -6.2674619    590.76903  0.033975675  0.034160063            3 
 1450000    1.0312778   -6.3225565    592.29561  0.034039977  0.034152564            5 
 1451000    1.0101279   -6.3023493     590.1602  0.033893878  0.034145079            3 
 1452000    1.0126192   -6.2814618    591.44744  0.033944412  0.034137566            6 
 1453000    1.0283936   -6.3307328    590.47864  0.033865487  0.034129878            6 
 1454000    1.0094803   -6.3110581     592.6601  0.033967223  0.034122221            9 
 1455000    1.0180567   -6.3000821    591.47912  0.033876238  0.034114391            9 
 1456000    1.0209939   -6.2948082    591.19051  0.033836453  0.034106618            7 
 1457000    1.0186383   -6.2861591    592.67484  0.033898126  0.034099124            5 
 1458000    1.0059595   -6.3065775     593.4535  0.033919382  0.034091518            7 
 1459000    1.0008764   -6.2781856    593.92528   0.03392308  0.034083805            8 
 1460000    1.0226463   -6.3266725    592.08803  0.033794979  0.034076321           10 
 1461000    1.0189885   -6.3146441     595.5871   0.03397143  0.034068793            6 
 1462000   0.99772345   -6.3054357    594.70434  0.033897876  0.034061162            6 
 1463000    1.0232198   -6.3238501    593.00888  0.033778131  0.034053585            3 
 1464000    1.0265014   -6.3211731    592.45936   0.03372378  0.034046037            7 
 1465000    1.0107947   -6.3260023    594.43309  0.033813031  0.034038476            8 
 1466000     1.034819   -6.3014338      596.956  0.033933379  0.034031031           12 
 1467000   0.99491401   -6.3044479    594.51485  0.033771578  0.034023428            8 
 1468000    1.0221631   -6.3148049    596.16237  0.033842097  0.034015838            4 
 1469000    1.0080653   -6.3184439    596.72692  0.033851085  0.034008368            4 
 1470000    1.0381407   -6.2737371    597.69355  0.033882854  0.034001086            6 
 1471000    1.0094782   -6.3185656    596.61935  0.033798966  0.033993836            4 
 1472000   0.99831941   -6.3377518    597.60615   0.03383187  0.033986592            4 
 1473000    1.0467889   -6.3109388    599.70834  0.033927831  0.033979379            7 
 1474000    1.0233218   -6.3172259    598.99051   0.03386423  0.033972284            4 
 1475000    1.0142823   -6.2878597    600.94505  0.033951697  0.033965204            6 
 1476000    1.0187845   -6.3245087    600.90889  0.033926654  0.033958114            7 
 1477000    1.0231207   -6.3398075    600.18995  0.033863121  0.033951091            3 
 1478000   0.98252958   -6.3415177    599.12382  0.033780098  0.033944002            5 
 1479000     1.029604    -6.335508     600.4597  0.033832528  0.033936792            6 
 1480000     1.029955   -6.3161831    601.17434  0.033849907  0.033929708            3 
 1481000    1.0245159    -6.328008    602.32383   0.03389173  0.033922541            4 
 1482000    1.0138548    -6.361411    600.78647  0.033782415    0.0339154            5 
 1483000    1.0061025   -6.3273666    601.55135  0.033802616  0.033908319            7 
 1484000    1.0149277   -6.3318002     602.4263   0.03382897   0.03390122            5 
 1485000     1.027589   -6.3061997    602.63411  0.033817851  0.033894241            5 
 1486000    1.0228386    -6.273575    602.86304  0.033807932  0.033887272            4 
 1487000    1.0018625   -6.2963541    602.94943  0.033790037  0.033880137            5 
 1488000   0.98783742   -6.3050242    604.01016  0.033826734  0.033873047           10 
 1489000    1.0196751   -6.3198674    604.32797  0.033821803  0.033866059            3 
 1490000   0.98784368   -6.3073709    603.38393  0.033746305  0.033858958           13 
 1491000    1.0227273   -6.3323679    604.50189  0.033786155  0.033852054           11 
 1492000     1.024184   -6.3336567    606.42586  0.033870971   0.03384518            5 
 1493000    1.0173634    -6.303789    605.69691  0.033807597  0.033838271            5 
 1494000     1.013376   -6.3033801    606.54609  0.033832334  0.033831497            4 
 1495000    1.0284479   -6.2861718    606.38765  0.033800872  0.033824711            4 
 1496000    1.0085566   -6.2965871    605.62822  0.033735975  0.033817854            7 
 1497000    1.0317609   -6.2890604    606.04742  0.033736775  0.033810906           11 
 1498000    1.0092049   -6.3187734    605.77771  0.033699249  0.033803898            9 
 1499000    1.0224861   -6.3232536    606.83858  0.033735745  0.033796833            4 
 1500000    1.0028994   -6.3304549    607.17195  0.033731775  0.033789762            8 
 1501000    1.0206516    -6.277363    607.13997  0.033707527  0.033782707            4 
 1502000   0.99997491   -6.3126717    605.48728  0.033593391  0.033775549            3 
 1503000    1.0059275   -6.3168246     607.5106  0.033683223  0.033768384           11 
 1504000    1.0166751   -6.3166648    607.21353  0.033644367  0.033761335            5 
 1505000    1.0090161   -6.3276644    607.02767   0.03361172  0.033754202            7 
 1506000   0.99480195   -6.3213458    607.04037  0.033590105  0.033747044            5 
 1507000    1.0065745   -6.3637933    606.67043  0.033547358  0.033739802            6 
 1508000    1.0305777   -6.3508323     607.3045  0.033560151   0.03373259           12 
 1509000    1.0260882   -6.3052032    607.96903  0.033574609  0.033725362            9 
 1510000    1.0018501    -6.320217     610.0201  0.033665568  0.033718187            9 
 1511000    1.0164921   -6.3337399    609.08677  0.033591814  0.033710982            8 
 1512000   0.99827564   -6.3474231    607.24543  0.033468112   0.03370389            4 
 1513000   0.98661082   -6.3046192    609.94873  0.033594885  0.033696747            6 
 1514000   0.99069128   -6.3119596     609.3772  0.033541238  0.033689585            7 
 1515000     1.030852   -6.2996503    611.07544   0.03361251  0.033682427            7 
 1516000    1.0038785   -6.3178297    611.22724  0.033598683  0.033675399            3 
 1517000   0.99160897   -6.3077639      611.373  0.033584542   0.03366838            5 
 1518000    0.9780683   -6.3341883    612.26373  0.033611316  0.033661346            6 
 1519000    1.0173031   -6.3023395    612.35691  0.033594301  0.033654267            4 
 1520000    1.0095533   -6.3181968    611.32613  0.033515687  0.033647251            7 
 1521000   0.97209132   -6.3369946    610.95193   0.03347315  0.033639961            8 
 1522000   0.99313396   -6.3578185    610.69632  0.033437162  0.033632597            3 
 1523000    1.0141526   -6.3098565    613.63708  0.033576115  0.033625273            8 
 1524000     1.010683   -6.3248837    612.30984  0.033481509  0.033618062            6 
 1525000    1.0309537   -6.3332032    612.90744   0.03349221  0.033610824            7 
 1526000   0.99630595   -6.3160562    613.01936  0.033476374  0.033603629            7 
 1527000   0.99913117    -6.312545    613.07382  0.033457423  0.033596374            4 
 1528000    1.0110106    -6.314264    614.48224  0.033512339  0.033588984            9 
 1529000     1.024251   -6.3089286     613.4547  0.033434418  0.033581745           16 
 1530000   0.99952639   -6.3416225    613.44737  0.033412166  0.033574509            3 
 1531000    1.0010769   -6.3321081     615.7204  0.033514065  0.033567398            5 
 1532000    1.0261107   -6.3214706    615.34755  0.033471908  0.033560272           11 
 1533000    1.0041155   -6.3299151    614.89778  0.033425624  0.033553075           10 
 1534000    1.0026937   -6.3343687    615.28799  0.033425032  0.033545954            6 
 1535000   0.99029598   -6.3096611    617.70703  0.033534584  0.033538941            7 
 1536000   0.99056558   -6.3325506     617.0587  0.033477577  0.033532024            7 
 1537000    1.0162282   -6.3315379    617.50089  0.033479771  0.033524909            8 
 1538000    1.0167135   -6.3397926    617.01956  0.033431922    0.0335179            5 
 1539000    1.0001428    -6.308253    617.80002  0.033452459  0.033510842            6 
 1540000   0.99284375   -6.3681409    617.78947  0.033430166  0.033503744            4 
 1541000    1.0147811   -6.3307177    617.09112  0.033370707  0.033496478            6 
 1542000   0.99847888     -6.37381     615.4363  0.033259636  0.033489103            6 
 1543000    1.0071238   -6.3484915    617.59882  0.033354872   0.03348174            3 
 1544000    1.0265353   -6.3608061    617.76053  0.033341998  0.033474437            4 
 1545000    1.0055176   -6.3485054    617.53687  0.033308353  0.033467169            9 
 1546000    1.0083218   -6.3414764    617.61479  0.033291009  0.033459883           12 
 1547000    1.0127644   -6.3477664    618.10516  0.033295904  0.033452509            6 
 1548000    1.0130092   -6.3546088    619.39271  0.033343708  0.033445001           10 
 1549000    1.0076203   -6.3547646    618.45094  0.033271516   0.03343759            6 
 1550000   0.98889318   -6.3522413    618.80145  0.033268895  0.033430096            4 
 1551000   0.98216846   -6.3262569    618.46032  0.033229117  0.033422604            7 
 1552000   0.99215266   -6.3220209    617.49593  0.033155924  0.033415107            5 
 1553000    1.0072135   -6.3131794    620.91707  0.033318151  0.033407751            4 
 1554000    1.0032883   -6.3560638    618.51959  0.033168146  0.033400517            7 
 1555000   0.99048216   -6.3193436    622.23018  0.033345669  0.033393179            6 
 1556000    1.0112292   -6.3324495    620.14371  0.033212495  0.033385849            6 
 1557000    1.0211839   -6.3372666    621.23776   0.03324972  0.033378544            8 
 1558000   0.99391571   -6.3511163    620.19964  0.033172852  0.033371193           15 
 1559000    1.0113474    -6.331372    622.41985   0.03327025  0.033363805            3 
 1560000   0.98006574   -6.3300925    622.80176  0.033269325   0.03335644            3 
 1561000   0.97889088   -6.3285093    622.85024    0.0332506  0.033349111            7 
 1562000    1.0025762   -6.3112315    621.88276  0.033177697  0.033341724            3 
 1563000   0.99519208   -6.3603524     622.4695  0.033187753  0.033334215            2 
 1564000   0.99684978   -6.3443414    622.23128   0.03315384  0.033326763            2 
 1565000   0.99748438   -6.3530576    622.73103  0.033159267  0.033319487           19 
 1566000   0.98992981     -6.31534    624.32725  0.033223034  0.033312228            6 
 1567000   0.97817383    -6.307244    625.94414  0.033287818  0.033305007            4 
 1568000     1.004604   -6.3467784    622.65408  0.033091734  0.033297773            6 
 1569000    1.0025674   -6.3245743    623.33311  0.033106709  0.033290554            6 
 1570000    1.0081514   -6.3264025    624.19976  0.033131622  0.033283295           12 
 1571000    1.0004272   -6.3130968    624.84082  0.033144537  0.033276142            6 
 1572000   0.98409642   -6.3596446    625.92615  0.033180987  0.033268867            6 
 1573000    1.0199431   -6.3303938    623.83505  0.033049113  0.033261496            3 
 1574000    1.0189257   -6.3224193    624.04522  0.033039243  0.033254066            5 
 1575000    1.0004762   -6.3425378    626.02104  0.033122806  0.033246648           12 
 1576000   0.97913978   -6.3487395    625.71586  0.033085652  0.033239202           17 
 1577000    1.0072343   -6.3638343    624.64525  0.033008098  0.033231785            5 
 1578000   0.96109651   -6.3702328    625.74123  0.033045058  0.033224246            6 
 1579000   0.99574072   -6.3316278    625.62934  0.033018226   0.03321691            9 
 1580000     1.009446    -6.352659    627.42322  0.033091942  0.033209378           34 
 1581000    1.0127419   -6.3473407    626.62336  0.033028851  0.033202056            7 
 1582000   0.99278808   -6.3541897    627.16377   0.03303644  0.033194795            5 
 1583000   0.99553802   -6.3436141    628.09105  0.033064384  0.033187595            7 
 1584000      0.99245      -6.3353    628.24365  0.033051539  0.033180412            6 
 1585000    1.0027388   -6.3771303    628.18751  0.033027734  0.033173197            9 
 1586000    1.0035991   -6.3511477    627.38684   0.03296484  0.033165882            8 
 1587000    1.0088061   -6.3396602    629.53418  0.033056825   0.03315845           11 
 1588000   0.97585733   -6.3671233     628.8237  0.032998725  0.033150997            4 
 1589000   0.99871838   -6.3354883    629.62934  0.033020209  0.033143766           11 
 1590000   0.98088473   -6.3333977    629.59137  0.032997451  0.033136599            4 
 1591000   0.96318246   -6.3844704    627.64196  0.032874605  0.033129258            4 
 1592000    1.0109373   -6.3669543    631.05503  0.033032612  0.033121966            3 
 1593000   0.99821495   -6.3665664    629.89793  0.032951346  0.033114704            4 
 1594000   0.98440986   -6.3579519     630.4598  0.032960048  0.033107503            9 
 1595000    1.0140344   -6.3630771    632.22274  0.033031491  0.033100199            3 
 1596000   0.99251151   -6.3725464    631.47436  0.032971719  0.033093023            8 
 1597000    1.0015703   -6.3413121    631.27391  0.032940613  0.033085864           13 
 1598000   0.99271534   -6.3349167    632.67663  0.032993149  0.033078756            9 
 1599000   0.99705198   -6.3581952    632.86431  0.032982297  0.033071637            9 
 1600000    1.0014089   -6.3750205    632.47037  0.032941165   0.03306458            9 
 1601000    1.0165454   -6.3546653    633.59213  0.032978978  0.033057533            4 
 1602000    1.0030415   -6.3678539    633.22237  0.032939158  0.033050442            6 
 1603000    1.0024335   -6.3567742      632.765  0.032894833  0.033043348           12 
 1604000   0.98576898   -6.3816004     633.1144  0.032892477  0.033036228            5 
 1605000   0.97634896    -6.362931    633.47218   0.03289056  0.033029249            5 
 1606000    1.0010962   -6.3677551    636.26239   0.03301486  0.033022358            8 
 1607000   0.97759068   -6.3455692    637.60446  0.033063911  0.033015471            4 
 1608000     1.006988   -6.3368864    637.73662  0.033050198  0.033008627            6 
 1609000   0.99327626   -6.3718986    637.76828  0.033031297  0.033001895            5 
 1610000    1.0187291   -6.3658358     636.6861  0.032954767  0.032995088            7 
 1611000   0.98446723   -6.3333831    639.11155  0.033059774  0.032988278            8 
 1612000    1.0044296   -6.3539586    639.34499  0.033051333  0.032981624            5 
 1613000   0.99323312   -6.3373014    638.30138  0.032976926  0.032974841            9 
 1614000    1.0123578     -6.38621    638.20176  0.032951351  0.032967957            6 
 1615000   0.99513286   -6.3663668    638.25699  0.032933797  0.032961021            9 
 1616000   0.98153037   -6.3706316    636.74014  0.032835197  0.032954104            6 
 1617000    1.0126435   -6.3404067    638.33407  0.032897035  0.032947167            7 
 1618000   0.98000908   -6.3474295    640.77568  0.033002456   0.03294031            6 
 1619000     1.026892   -6.3210192    639.07336  0.032894449  0.032933369            5 
 1620000   0.99283546   -6.3604954     638.3432  0.032836585  0.032926335            8 
 1621000    1.0166199   -6.3760143     640.6947  0.032937214  0.032919288            4 
 1622000      1.01013   -6.3439213    639.95378  0.032878842  0.032912231            3 
 1623000   0.99209599   -6.3730514    639.28607    0.0328243  0.032905226            4 
 1624000    1.0029097    -6.314924    642.13017  0.032950029  0.032898164            3 
 1625000    0.9690759   -6.3627266     639.4527  0.032792446  0.032891114            5 
 1626000   0.98689207   -6.3797093    639.49157  0.032774271  0.032883959           10 
 1627000   0.97544033   -6.3973168     640.5489  0.032808282  0.032876709            7 
 1628000   0.99245527   -6.3707029    640.32623  0.032776731  0.032869468           11 
 1629000    1.0040065   -6.3644179    642.09138  0.032846909  0.032862384            6 
 1630000   0.98194872   -6.3625034    639.93531  0.032716529  0.032855133            5 
 1631000   0.99045448   -6.3624682    642.52177  0.032828621  0.032847975            6 
 1632000   0.99804267   -6.3669395    640.25126  0.032692568  0.032840694            6 
 1633000    0.9889387   -6.3299345    641.06307  0.032713976  0.032833357            8 
 1634000   0.99028519   -6.3768883     641.0103  0.032691264  0.032825971            4 
 1635000   0.97028569   -6.3626594    641.62424   0.03270256  0.032818646           13 
 1636000   0.99322608   -6.3692549    641.44989  0.032673691  0.032811135           11 
 1637000   0.99573602   -6.3808167    639.56856  0.032557959  0.032803583           12 
 1638000    1.0015457   -6.3864547    640.65978  0.032593599  0.032795995           10 
 1639000   0.99333222   -6.3734243    642.16716  0.032650354  0.032788433            5 
 1640000   0.99813608   -6.3426057    640.69611  0.032555697  0.032780904            6 
 1641000   0.98356753   -6.3662138     642.2315  0.032613828  0.032773341            5 
 1642000    1.0018652   -6.3346049    641.87915  0.032576084  0.032765744            3 
 1643000    0.9951098   -6.3776864    641.17333  0.032520457  0.032758241           10 
 1644000   0.97796962   -6.3753974    643.72482  0.032630009  0.032750733           11 
 1645000    1.0114206   -6.3949073    641.99366  0.032522475  0.032743307            6 
 1646000   0.98504351   -6.3663817    641.97623  0.032501834  0.032735826           12 
 1647000   0.97414647   -6.3810574    643.77402  0.032573063  0.032728324            4 
 1648000    1.0088412   -6.3510278    643.79669  0.032554444  0.032720769           18 
 1649000    1.0148746   -6.3893785     640.8128   0.03238391  0.032713311           11 
 1650000    1.0043778   -6.3423025    644.75315   0.03256329  0.032705953            7 
 1651000   0.97883801    -6.392776    644.57047  0.032534347  0.032698588            3 
 1652000   0.98393815   -6.3371983    646.29265  0.032601526    0.0326911            8 
 1653000   0.99849643   -6.3834791     645.6116  0.032547469  0.032683601            4 
 1654000    1.0029085   -6.3276605    644.62912  0.032478291  0.032676092            9 
 1655000   0.97797522   -6.3391305    646.59941  0.032557875  0.032668589            5 
 1656000   0.97378098   -6.3513601    645.52941  0.032484371  0.032661058            3 
 1657000    1.0164886   -6.3839979    645.95167  0.032486002  0.032653662            6 
 1658000   0.98098375   -6.3638244    646.18773  0.032478274  0.032646136            4 
 1659000    0.9801116   -6.3629665    646.87756  0.032493347  0.032638649            8 
 1660000   0.98525455   -6.3794262    646.82261  0.032471015  0.032631164           10 
 1661000   0.99762149   -6.3502712    646.81367  0.032451017  0.032623598            8 
 1662000   0.98517414   -6.4009477    645.59125  0.032370199  0.032616013            7 
 1663000   0.97467138   -6.3421051    648.20621  0.032481771  0.032608455            4 
 1664000   0.97457306   -6.3696249    646.85069  0.032394365  0.032600905            6 
 1665000   0.98693586   -6.3746261    647.08443  0.032386608  0.032593438            5 
 1666000    1.0059936   -6.3307347    647.53775  0.032389844  0.032585969            4 
 1667000   0.99782908   -6.3285628    645.99381  0.032293232  0.032578427            2 
 1668000    1.0019505   -6.3645937    648.12841  0.032380516  0.032570828            5 
 1669000   0.97962023    -6.387496    648.27906  0.032368637  0.032563299           10 
 1670000   0.99544908   -6.4032566    647.39571  0.032305175  0.032555721            9 
 1671000    0.9770311   -6.3258924    647.90143  0.032311063  0.032548188            5 
 1672000   0.97368463   -6.3918477    649.05841  0.032349402  0.032540717            6 
 1673000   0.98322353   -6.3957765    648.69892   0.03231216  0.032533284            9 
 1674000   0.98277404   -6.3918915    649.51159  0.032333313  0.032525831            6 
 1675000   0.98399662   -6.3625225    651.15472  0.032395757  0.032518393            9 
 1676000   0.99237377   -6.3902952    650.49145  0.032343449  0.032510963            4 
 1677000   0.96164131   -6.3712383    650.72004  0.032335522  0.032503444            4 
 1678000   0.98488786    -6.403914    649.77802  0.032269469  0.032495919            6 
 1679000   0.98543011    -6.380307    651.70496  0.032345889  0.032488444            7 
 1680000   0.96589359   -6.3765008    651.21426  0.032302295  0.032481046           11 
 1681000   0.96942231   -6.4065981    651.49134  0.032296815   0.03247371           10 
 1682000   0.96652821   -6.3456117    652.25449  0.032315422  0.032466452            3 
 1683000   0.96211744   -6.3898112    653.56641  0.032361181  0.032459162            8 
 1684000    1.0030509   -6.3601139    653.86699  0.032356839  0.032451957            7 
 1685000   0.97198422   -6.3607779    652.75289  0.032282537  0.032444625            5 
 1686000   0.97889749   -6.3832114    651.27858  0.032190519  0.032437243            9 
 1687000   0.98553683   -6.3625259    652.26632  0.032220229  0.032429797            4 
 1688000   0.96952686   -6.3298812    655.67536  0.032369439  0.032422434            3 
 1689000   0.97382109   -6.3526153    655.19377  0.032326513  0.032415168           12 
 1690000   0.99469075   -6.3557522    653.69785  0.032233622  0.032407764            6 
 1691000   0.97564396   -6.3641349    657.15292  0.032384828  0.032400405            6 
 1692000   0.98446754   -6.3764146    653.97647  0.032209243  0.032393036            8 
 1693000     0.978538   -6.3646813    654.21101  0.032201763  0.032385656            5 
 1694000    1.0003222    -6.380082    654.58213   0.03220101  0.032378226            6 
 1695000   0.96458214   -6.3942931    653.47765  0.032127712  0.032370816            8 
 1696000   0.99634416   -6.3965287    654.37079  0.032152653   0.03236328            7 
 1697000   0.98948116   -6.3871108     655.7139  0.032199661   0.03235584            7 
 1698000   0.97657616   -6.3934609    654.94693  0.032143057  0.032348464           10 
 1699000   0.99854813   -6.3782859    656.76537   0.03221333  0.032341012            7 
 1700000    0.9868853   -6.3948866    655.18457  0.032116891  0.032333665           10 
 1701000   0.96928755   -6.3918833       655.71  0.032123751  0.032326166            5 
 1702000   0.97476123   -6.3681289    657.56939  0.032195916  0.032318818            7 
 1703000   0.98652746   -6.3569639    656.75307  0.032137066  0.032311487            8 
 1704000    0.9858819   -6.3501391    658.55304  0.032206232  0.032303999            5 
 1705000   0.99612699   -6.3862907    656.93726  0.032108371  0.032296547            5 
 1706000   0.93940557   -6.3755835    657.80911  0.032132137  0.032289068            9 
 1707000   0.97663121   -6.3909359    657.22713  0.032084902  0.032281486            9 
 1708000   0.98405191   -6.3855687    658.05966  0.032106736  0.032273878            3 
 1709000    1.0025443   -6.4055555    656.48803  0.032011314  0.032266219            8 
 1710000    0.9931969   -6.3410119    659.60893  0.032144685  0.032258678            9 
 1711000   0.97352382   -6.3723805    656.61436  0.031980048  0.032251174            5 
 1712000   0.97806939    -6.373615    659.47715  0.032100718  0.032243532           14 
 1713000    0.9932721   -6.3842086    660.13384  0.032113925  0.032236021            3 
 1714000   0.95578455   -6.3738695    660.13968  0.032095472  0.032228407            6 
 1715000   0.96539259   -6.3682808    658.80923   0.03201211  0.032220813            8 
 1716000   0.96199518     -6.36424    657.76588  0.031942787  0.032213201            7 
 1717000   0.96228142   -6.3670909    661.26933  0.032094221  0.032205631            5 
 1718000   0.97965988     -6.38465    661.30526  0.032077283  0.032198068            4 
 1719000   0.99521989   -6.3875175    659.30819  0.031961809  0.032190419           13 
 1720000    0.9715104   -6.3650975    659.51097  0.031953051  0.032182888            7 
 1721000   0.95957427   -6.3943139    658.68346  0.031894415   0.03217528            7 
 1722000   0.98613879   -6.3840209    660.75147  0.031975971  0.032167688           10 
 1723000   0.99269329   -6.3838542    662.09937  0.032022604  0.032160231            5 
 1724000   0.96976318   -6.4072392     662.2344  0.032010557   0.03215276            7 
 1725000     0.968838   -6.3619179     662.7568  0.032017237  0.032145353           11 
 1726000   0.97202265   -6.4142675    661.97652  0.031961014  0.032137892           11 
 1727000   0.96842358   -6.3946324    661.82569  0.031935229  0.032130426            6 
 1728000   0.98401051   -6.3965211    661.56419  0.031904137  0.032122984            7 
 1729000   0.96452158   -6.4085525    663.15452  0.031962335  0.032115556            6 
 1730000   0.99044708   -6.3634736    663.75278  0.031972677  0.032107997            8 
 1731000   0.98729081   -6.3849932    664.68322     0.031999  0.032100526            3 
 1732000    0.9934904   -6.3424463    663.75777  0.031935997  0.032093101            9 
 1733000   0.96943381   -6.4029028    663.07407  0.031884693  0.032085624            5 
 1734000   0.98075233   -6.4173494    663.32841  0.031878528  0.032078026            6 
 1735000   0.97914032   -6.4091954    663.63213  0.031874742   0.03207038            5 
 1736000   0.96855726   -6.4046996    662.25596  0.031790321  0.032062611            4 
 1737000   0.96431413   -6.4026367    664.28445  0.031869337  0.032054955            4 
 1738000   0.97742019   -6.3512578    667.49447  0.032004913  0.032047466           19 
 1739000    0.9662684   -6.4049239    663.46978  0.031793645  0.032039909            5 
 1740000   0.94535412    -6.404264    666.09495  0.031901099  0.032032302           11 
 1741000   0.97320481    -6.370216    664.97667  0.031829249  0.032024699            5 
 1742000    0.9703371   -6.4093599    666.01446  0.031860623  0.032017138            9 
 1743000   0.97663335   -6.3732839    665.06082   0.03179675  0.032009567           14 
 1744000   0.96780225   -6.4065604    664.62725    0.0317578  0.032001954            3 
 1745000   0.98280479   -6.4248604    666.65261  0.031836323  0.031994483           13 
 1746000   0.98571045   -6.4196947    665.78546  0.031776702  0.031986784            5 
 1747000   0.98334581   -6.4080663    668.00398  0.031864338   0.03197924            6 
 1748000   0.97389683   -6.3898764    669.35746  0.031910634  0.031971725           12 
 1749000   0.97992751   -6.3998766    666.39041   0.03175102  0.031964223            8 
 1750000   0.97288887   -6.4144351    665.71403  0.031700668  0.031956689           10 
 1751000   0.96382749   -6.4045051    665.65257  0.031679639  0.031949105           12 
 1752000   0.96702787   -6.3954952    667.44346   0.03174674  0.031941605            5 
 1753000   0.97383693   -6.4009536    667.39607  0.031726377  0.031934244            3 
 1754000   0.95025261   -6.4015518     667.5124  0.031713816  0.031926759            6 
 1755000   0.97896407   -6.4068785    668.45011  0.031740271   0.03191917            8 
 1756000   0.98040143    -6.384581     669.3983  0.031767193  0.031911797            4 
 1757000    1.0031833   -6.3908595    670.03329   0.03177923  0.031904418            7 
 1758000    0.9773675   -6.3956888    670.10923  0.031764753  0.031896996            7 
 1759000   0.95685546   -6.4241262     669.1967  0.031703463  0.031889535           15 
 1760000    0.9767641    -6.410033    669.25971  0.031688433  0.031882004            9 
 1761000    1.0003835   -6.3990494    669.56943  0.031685095  0.031874434           13 
 1762000   0.97500662   -6.3773254    672.31355  0.031796895  0.031867002            5 
 1763000   0.96944573   -6.3866978    671.08269  0.031720679  0.031859572            3 
 1764000   0.97679575   -6.3798733    671.02245  0.031699851  0.031852069            4 
 1765000   0.95440306   -6.3950938    669.87294  0.031627617  0.031844489            8 
 1766000   0.97762121   -6.4187467    669.91484  0.031611685   0.03183688            4 
 1767000   0.96887725   -6.4069409    670.86441  0.031638578  0.031829212            6 
 1768000   0.96966648   -6.4136497    671.05114  0.031629484  0.031821542            6 
 1769000   0.95016694   -6.4090776    671.57789  0.031636418  0.031813787           13 
 1770000   0.96550164   -6.3719167    672.90708  0.031681124  0.031806169            8 
 1771000   0.95297508   -6.4044687    672.20951  0.031630412  0.031798505            4 
 1772000   0.97173947    -6.416641    672.62177  0.031631949  0.031790813            3 
 1773000   0.97504953    -6.418632    669.45049  0.031465054  0.031783121            5 
 1774000   0.98698894    -6.397636    673.24188  0.031625417  0.031775412            8 
 1775000   0.96721383   -6.4208532    672.10559  0.031554253  0.031767669           12 
 1776000   0.96004238   -6.3827723    672.73679  0.031566103  0.031759913            8 
 1777000   0.95617409   -6.4142291    672.03001  0.031515195   0.03175214            4 
 1778000   0.97291458    -6.392251    671.35907  0.031466023  0.031744404           16 
 1779000   0.96179618   -6.4468528    672.68761  0.031510568  0.031736481            7 
 1780000   0.95976315   -6.4208603     672.2134  0.031470665  0.031728666            3 
 1781000    0.9671398    -6.416212    673.99747  0.031536472   0.03172089            4 
 1782000   0.95289436   -6.3693134    672.81492  0.031463473   0.03171312           12 
 1783000   0.96795242   -6.4036553    671.77775  0.031397352  0.031705413            5 
 1784000   0.97501856   -6.3853392    671.39171   0.03136172  0.031697762           13 
 1785000   0.95550293   -6.4075027    672.69338   0.03140492  0.031690096            3 
 1786000   0.95977895   -6.4011167    677.33695  0.031604001  0.031682457            6 
 1787000   0.95164299   -6.3992791    675.89285  0.031518973  0.031674874            7 
 1788000   0.96291849   -6.4094724    673.83379  0.031405378  0.031667242           12 
 1789000     0.956527   -6.4096732    675.43776  0.031462538  0.031659632            6 
 1790000   0.96657231    -6.415732    675.79234  0.031461468  0.031651976           12 
 1791000   0.96908527   -6.4166027    673.44728  0.031334789   0.03164423           18 
 1792000   0.95409854   -6.4258195    674.49117  0.031365847  0.031636542            9 
 1793000   0.97772076   -6.4022973    676.28839  0.031431883  0.031628858           12 
 1794000   0.96767089   -6.4035184    676.34722  0.031417095   0.03162125           19 
 1795000   0.97026492   -6.4239723     677.4538  0.031450966  0.031613652            4 
 1796000   0.95386094   -6.4384927    676.33783  0.031381674  0.031606016           10 
 1797000   0.96921978   -6.4212715    677.24608  0.031406329  0.031598366            7 
 1798000   0.96640274   -6.4089202    678.75102  0.031458612  0.031590842            6 
 1799000   0.97824515   -6.4310058     678.4924  0.031429146  0.031583224            6 
 1800000    0.9675828   -6.4126686    678.87865  0.031429567  0.031575628            7 
 1801000   0.96048961   -6.4025412    678.84612  0.031410611  0.031568122            7 
 1802000    0.9674787   -6.4270987    679.09963  0.031404904   0.03156065           10 
 1803000   0.97077001   -6.4109035    676.76261   0.03127947  0.031553067            9 
 1804000   0.94245541   -6.4128727    681.26565  0.031470143   0.03154553            9 
 1805000   0.96995974   -6.3917122     679.8635  0.031387973  0.031538091            8 
 1806000   0.96261768   -6.4072513    681.10937  0.031428081  0.031530696            6 
 1807000   0.95506355   -6.4272436    680.17466  0.031367583  0.031523425            4 
 1808000   0.98279518   -6.4244913    681.11462  0.031393558  0.031516083            8 
 1809000   0.94021454   -6.4037692    683.24457  0.031474322  0.031508821            6 
 1810000   0.96117333   -6.3783422    682.17641  0.031407754  0.031501622            7 
 1811000   0.96649385   -6.4131413    681.94923  0.031379957    0.0314944           17 
 1812000   0.97659392   -6.4019442    680.68861  0.031304664  0.031487079            5 
 1813000   0.96293939   -6.3915758    684.02529  0.031440765  0.031479712            4 
 1814000   0.95429041   -6.3950326    681.61452  0.031312685   0.03147237            7 
 1815000    0.9480999   -6.3760528    683.41273  0.031377995  0.031465013            7 
 1816000   0.96499723   -6.4120358    683.17033  0.031349593   0.03145761            3 
 1817000   0.96340073   -6.4447393    682.00131  0.031278725  0.031450192            6 
 1818000   0.96071437   -6.4364099     683.9756  0.031352017  0.031442716            7 
 1819000   0.95507396   -6.4223208    683.09945  0.031294642  0.031435294            9 
 1820000   0.97881874   -6.4267025    682.48218  0.031249184  0.031427826            9 
 1821000   0.97422966   -6.4251062    684.45273  0.031322201  0.031420386            4 
 1822000   0.98482612   -6.4094082    684.85535  0.031323424  0.031413051            8 
 1823000   0.94600711   -6.4396087    683.93961  0.031264382  0.031405673            8 
 1824000   0.95265837   -6.4394223    682.89448  0.031199492  0.031398302            4 
 1825000   0.95930102   -6.4263533    682.32857  0.031156556  0.031390885            8 
 1826000   0.96173264   -6.4112682    685.44861  0.031281883  0.031383416            4 
 1827000   0.95497211   -6.4252841    684.25902  0.031210501  0.031376026           12 
 1828000   0.95547348   -6.4192879    683.88526  0.031176389  0.031368652            5 
 1829000   0.94767576   -6.4175367    684.55396   0.03118981  0.031361178           14 
 1830000    0.9489272   -6.4678129    684.89521  0.031188306  0.031353649            4 
 1831000   0.95831288   -6.4543147     682.9419  0.031082373  0.031346022            8 
 1832000   0.96646061   -6.4492126    686.45545   0.03122523  0.031338455            8 
 1833000   0.98095642   -6.3816585    685.98907  0.031186992  0.031331027            7 
 1834000   0.95469462   -6.4117824    687.86995   0.03125545   0.03132372            5 
 1835000   0.94298827   -6.4589743     687.1078  0.031203806  0.031316286            4 
 1836000   0.97624211   -6.4023151    686.92449   0.03117849  0.031308955            4 
 1837000    0.9586794   -6.4242665    687.58561  0.031191508  0.031301605            8 
 1838000   0.94898414   -6.3951077    689.09268  0.031242867  0.031294292            9 
 1839000   0.96180572   -6.4373844    687.71144  0.031163288  0.031286867           11 
 1840000   0.94239308   -6.4014661    687.82061  0.031151296  0.031279443           12 
 1841000   0.95212837   -6.4276448    689.47919  0.031209451  0.031272132            9 
 1842000   0.95115026   -6.4200251    690.19785  0.031225021  0.031264717            5 
 1843000   0.95664269   -6.4416049     691.5771  0.031270442  0.031257345            8 
 1844000   0.95170489   -6.4361457    689.59082  0.031163721  0.031250118            5 
 1845000   0.96117423   -6.4211279    688.90711  0.031115949  0.031242926            7 
 1846000   0.94487491   -6.4489696    689.77865  0.031138437  0.031235646           11 
 1847000   0.96066891   -6.4265609    689.58141  0.031112679  0.031228283            6 
 1848000   0.95126311   -6.4381428    689.05396  0.031072058  0.031220979           13 
 1849000   0.94775078   -6.4253938    691.71071  0.031174992  0.031213561            4 
 1850000   0.95915176   -6.4256741    690.58026  0.031107219  0.031206252           14 
 1851000    0.9424305   -6.4534682    690.63255  0.031092767  0.031198909            7 
 1852000   0.95360508    -6.452224    691.81744  0.031129295   0.03119151           11 
 1853000   0.93970596   -6.4280449    689.43103  0.031005173  0.031183993            4 
 1854000   0.95101705   -6.4390644    689.29025  0.030982122  0.031176404            7 
 1855000   0.94914717    -6.430168    690.71841  0.031029578  0.031168872            5 
 1856000   0.94976501   -6.4152397    689.98059  0.030979732  0.031161293            5 
 1857000   0.96004684     -6.44258    689.35433  0.030934946  0.031153775            3 
 1858000   0.96323549   -6.4051518    692.05416  0.031039386  0.031146279            8 
 1859000   0.95404095   -6.4316955    691.30019  0.030988892  0.031138858            4 
 1860000    0.9570996   -6.4329767    691.17282  0.030966524  0.031131384            9 
 1861000   0.93736126   -6.4377581     690.7447  0.030930714  0.031123863            6 
 1862000   0.96261718   -6.4167463    692.19955  0.030979214  0.031116395            5 
 1863000   0.94226734   -6.3892227    693.37092  0.031014981    0.0311091            5 
 1864000   0.95340577   -6.4342383    693.81961  0.031018402  0.031101844           11 
 1865000   0.97665095   -6.4357276     693.0066  0.030965442  0.031094531            9 
 1866000   0.94285376   -6.4522746    693.43272  0.030967878  0.031087233            8 
 1867000     0.938022   -6.4164317    694.15991  0.030983749   0.03108001            5 
 1868000   0.95256972   -6.4428393    694.24843  0.030971111  0.031072798            5 
 1869000   0.93278364     -6.40723    695.76053   0.03102196  0.031065539            5 
 1870000   0.95362152   -6.4434522    693.63037  0.030910444  0.031058201           18 
 1871000   0.95210111   -6.4232013    694.43134  0.030929598  0.031050787            8 
 1872000    0.9527148   -6.4441074    693.74308  0.030882438  0.031043421            7 
 1873000   0.96218183   -6.4500598    694.23933  0.030888029     0.031036            4 
 1874000   0.95671725   -6.4580823    693.05421  0.030818846   0.03102858           17 
 1875000   0.95455078    -6.443721    696.12917  0.030939074  0.031021122            8 
 1876000    0.9701626   -6.3951108    695.17461   0.03088018  0.031013721            4 
 1877000   0.94478019   -6.4315536    694.71257  0.030843215  0.031006364            7 
 1878000   0.94874669   -6.3907936    697.40237  0.030946147  0.030998986            6 
 1879000    0.9593664   -6.4151139    695.41449  0.030841516  0.030991558            5 
 1880000    0.9634093   -6.4541535    693.70094  0.030749155  0.030984067            4 
 1881000    0.9523872   -6.4399237    696.10945  0.030839511  0.030976495            4 
 1882000    0.9459718   -6.4752923    694.61081  0.030756766  0.030968956            5 
 1883000   0.95412631   -6.4539924    695.01456  0.030758301  0.030961317            4 
 1884000   0.93848134     -6.41064    698.95965  0.030916474  0.030953772            8 
 1885000   0.93887073   -6.4223078    697.03834  0.030815134  0.030946332            9 
 1886000   0.95998491   -6.4260707    697.84373  0.030834382  0.030938799            7 
 1887000   0.94171508   -6.4613583    697.21294  0.030790185  0.030931251            5 
 1888000   0.94941762   -6.4536713     698.5375   0.03083234  0.030923752            3 
 1889000   0.95113425   -6.4050708    696.23539   0.03071446  0.030916321            3 
 1890000   0.95880796   -6.4461029    697.93906  0.030773327  0.030908834            5 
 1891000   0.95396635   -6.4431146     697.7631  0.030749299  0.030901335            5 
 1892000    0.9384176   -6.4515239    696.82527   0.03069174  0.030893754            6 
 1893000   0.94663543   -6.4683416    697.60086   0.03070967  0.030886201            5 
 1894000   0.95298882   -6.4486793    697.68459   0.03069714  0.030878582            6 
 1895000   0.94481017   -6.4043437    699.96957  0.030781423  0.030871013            8 
 1896000   0.92854754    -6.418614    699.06471  0.030725418  0.030863508            5 
 1897000    0.9666086   -6.4616802    697.45287  0.030638415  0.030855972           14 
 1898000   0.93095039   -6.4361774    698.74038  0.030678802  0.030848335            7 
 1899000   0.93811893   -6.4135899    700.22843  0.030727946  0.030840846            6 
 1900000   0.93341024    -6.433008    700.96629  0.030744135  0.030833362           15 
 1901000   0.94144604   -6.4568744    699.59626  0.030667905  0.030825769            6 
 1902000   0.94733668   -6.4156232    701.09022  0.030717237  0.030818185            5 
 1903000   0.94880517    -6.443939    699.17178  0.030617086  0.030810541           12 
 1904000   0.92892985   -6.4629318    699.24229  0.030604092  0.030802976           10 
 1905000   0.93560315   -6.4268689    701.15403  0.030671655  0.030795405            5 
 1906000   0.96911247   -6.4268862    699.72442  0.030593058  0.030787836            6 
 1907000   0.94525975   -6.4565349    700.27274  0.030600976  0.030780204            7 
 1908000   0.95535272   -6.4479921    699.89785  0.030568564  0.030772626            7 
 1909000   0.94485663   -6.4396504    702.01705  0.030645061  0.030765061            4 
 1910000   0.95139093   -6.4493913    700.63523  0.030568728   0.03075745            9 
 1911000   0.95459681   -6.4313209    701.39846  0.030586013  0.030749785           10 
 1912000   0.94083255   -6.4361148    699.60291  0.030491759  0.030742081            6 
 1913000   0.94293369   -6.4586042    700.44497  0.030512501  0.030734386           18 
 1914000   0.93041039   -6.4384424    699.98289  0.030476441  0.030726629            3 
 1915000   0.95777904   -6.4389614    701.38957  0.030521739  0.030718848            5 
 1916000   0.94232064   -6.4580074    699.92992  0.030442324  0.030711035           10 
 1917000   0.93852047   -6.4361548    699.82033   0.03042168  0.030703171            4 
 1918000   0.94553859   -6.4343301     700.4972  0.030435228  0.030695373            9 
 1919000   0.93793931   -6.4410863     700.7123  0.030428709  0.030687495            5 
 1920000   0.94418483   -6.4415078    701.39656  0.030442559  0.030679603            3 
 1921000     0.952934   -6.4634212    701.35967  0.030425111   0.03067168           12 
 1922000   0.94166573   -6.4721947    700.41409  0.030368283  0.030663711            5 
 1923000    0.9346344   -6.4369331     700.9871  0.030377323  0.030655782            6 
 1924000   0.95268792    -6.404011    701.42828  0.030380643  0.030647863            4 
 1925000    0.9653618   -6.4500363    702.58715  0.030415028  0.030639852           12 
 1926000   0.93696524   -6.4633595    701.17691  0.030338219  0.030631834           13 
 1927000   0.96301689   -6.4336982    701.68599   0.03034449  0.030623882           16 
 1928000   0.95334711    -6.464959    702.41916  0.030360441   0.03061598           17 
 1929000   0.91545825   -6.4711201    701.80354  0.030318107  0.030608046           12 
 1930000   0.93864699   -6.4579424    700.85534  0.030261457  0.030599947            7 
 1931000   0.93932403    -6.462963    704.75745  0.030414183  0.030592023            5 
 1932000     0.950846   -6.4689606    703.65339  0.030350819  0.030584075            7 
 1933000   0.95163141   -6.4293768    703.24795  0.030317639  0.030576104           10 
 1934000   0.94793577   -6.4691605    703.33091  0.030305537  0.030568168            6 
 1935000    0.9465838   -6.4348509    703.92591    0.0303155  0.030560264            3 
 1936000   0.94329906   -6.4315197    703.91255  0.030299266  0.030552384            4 
 1937000   0.94887917   -6.4667414    702.94343   0.03024193  0.030544483           13 
 1938000   0.92101566   -6.4659417    702.75911    0.0302184  0.030536579            9 
 1939000   0.92862069   -6.4595628    704.05414  0.030258473  0.030528637           15 
 1940000   0.95604703   -6.4316899    705.20653  0.030292377  0.030520782            9 
 1941000   0.94732525   -6.4730457    703.68461  0.030211429  0.030512964           17 
 1942000   0.95506785   -6.4525542    704.35158  0.030224493  0.030505101           12 
 1943000   0.91661796   -6.4680996    705.22601  0.030246441  0.030497271           25 
 1944000   0.94966204   -6.4454651    705.23371  0.030231212  0.030489465           14 
 1945000   0.94378466   -6.3871901    706.00401  0.030248672  0.030481657            8 
 1946000   0.93252462   -6.4651371    705.04124  0.030191899   0.03047372            7 
 1947000   0.95052429   -6.4347718    703.44287  0.030107981  0.030465818            7 
 1948000   0.95290967   -6.4353124    706.02601  0.030203029  0.030457858            8 
 1949000   0.95407201   -6.4666801    704.74381   0.03013271  0.030449856            8 
 1950000   0.94277755   -6.4744054    704.89824  0.030123856  0.030441951            8 
 1951000   0.95784487   -6.4871116    705.89122  0.030150829  0.030434026           15 
 1952000   0.94485321   -6.4538798    706.15169  0.030146503  0.030426148            9 
 1953000   0.94748424   -6.4391784    706.77336  0.030157594  0.030418319            7 
 1954000     0.952368   -6.4558503    707.98332  0.030193761  0.030410407           19 
 1955000   0.92852467   -6.4649688    705.59244  0.030076404  0.030402492            7 
 1956000   0.94563053   -6.4575348    707.22163  0.030130437  0.030394571            5 
 1957000   0.93740724   -6.4637716    708.99298  0.030190469   0.03038666            5 
 1958000   0.96551353   -6.4216212      708.703  0.030162708  0.030378829            8 
 1959000   0.92726186   -6.4482566    708.20709  0.030126216  0.030371046            6 
 1960000   0.95260247   -6.4513703    707.46505  0.030079296  0.030363333            7 
 1961000   0.94394563   -6.4552632    710.61447  0.030197793  0.030355596           17 
 1962000   0.91379917   -6.4715452       705.88  0.029981311  0.030347851            7 
 1963000   0.93587577   -6.4772926     708.8621  0.030092635  0.030339974            8 
 1964000   0.93618363   -6.4695567    707.66813  0.030026652  0.030332115            5 
 1965000   0.95156934   -6.4620225    709.30172   0.03008065  0.030324276            3 
 1966000   0.96179638   -6.4944762    708.84296  0.030045904  0.030316415           11 
 1967000   0.94920748   -6.4515868    710.39495   0.03009638   0.03030856            5 
 1968000   0.94658438    -6.452056    709.54496  0.030045095  0.030300736            6 
 1969000   0.91946676   -6.4329887    711.51764  0.030113325  0.030293042           11 
 1970000   0.96127664   -6.4703239     709.0683  0.029994429  0.030285233           15 
 1971000   0.93846077   -6.4458466    708.57681  0.029958431  0.030277362            6 
 1972000   0.93886085   -6.4431472     711.2677  0.030056951  0.030269505            6 
 1973000    0.9372392   -6.4207317    708.55738  0.029927242  0.030261689           10 
 1974000   0.95788732   -6.4357344    712.10628    0.0300619  0.030253757            5 
 1975000   0.95609092   -6.4689546     710.1913  0.029965878  0.030245898           11 
 1976000    0.9445602   -6.4744436    710.08347  0.029946165  0.030237963            6 
 1977000   0.91741344   -6.4633097     710.7937  0.029960955   0.03023003            9 
 1978000   0.93029072   -6.4774832    709.19844    0.0298786  0.030222079            9 
 1979000   0.93640593   -6.4649069     712.9169  0.030020082  0.030214154            7 
 1980000   0.93182386   -6.4549074    712.69085  0.029995406  0.030206336            6 
 1981000   0.92238755   -6.4507724     711.4331  0.029927356  0.030198442            4 
 1982000   0.92404583    -6.458179    712.94705   0.02997591  0.030190587            5 
 1983000   0.95075234   -6.4527639    713.44729  0.029981816  0.030182688            7 
 1984000   0.93821273   -6.4668826    712.42293  0.029923678  0.030174825           10 
 1985000     0.930913   -6.5085366    711.26954  0.029860182   0.03016697           26 
 1986000   0.94791244   -6.4887016    711.50966  0.029855223  0.030159058           21 
 1987000   0.93504386   -6.4541179    714.55379  0.029967866   0.03015119            5 
 1988000   0.91937807   -6.4666325    712.42219  0.029863438  0.030143355            5 
 1989000   0.94342271   -6.4190199    713.28013  0.029884369  0.030135488           15 
 1990000   0.94292771   -6.4836737    715.01998   0.02994221  0.030127644            5 
 1991000   0.94019495   -6.4671615    714.00445  0.029884667  0.030119798            5 
 1992000   0.92953654   -6.4535276    715.66669  0.029939202  0.030111981            6 
 1993000   0.93181751   -6.4861307    713.38879  0.029828934  0.030104135            6 
 1994000   0.96152891   -6.4261747     715.8882   0.02991843  0.030096299            4 
 1995000   0.94137308   -6.4534746    716.91863  0.029946476  0.030088544           18 
 1996000   0.93248713   -6.4351151    716.10184  0.029897371  0.030080847            7 
 1997000   0.92898684   -6.4462533    714.84381  0.029829904  0.030073082           12 
 1998000   0.94528275   -6.4790907    716.33672   0.02987724  0.030065212            5 
 1999000   0.91777504   -6.4984393    714.49492  0.029785515  0.030057302            6 
 2000000   0.96318497   -6.4937569    714.11384  0.029754743  0.030049389           10 
 2001000   0.89878921   -6.4834581    712.68787  0.029680488  0.030041417            8 
 2002000   0.94668412   -6.4451831    715.40509  0.029778766  0.030033447           11 
 2003000   0.90124432   -6.4724284    716.11452  0.029793415  0.030025507           16 
 2004000   0.92498011   -6.4758884    716.35835  0.029788687  0.030017569            8 
 2005000   0.92934815    -6.466521     717.1965  0.029808666  0.030009637           12 
 2006000   0.94129684   -6.4635034    715.81925  0.029736592  0.030001706           11 
 2007000   0.93645706   -6.4481452    718.11349  0.029817036  0.029993845           38 
 2008000   0.92421751   -6.4637048    717.18233  0.029763543  0.029985916           13 
 2009000   0.92613965   -6.4529818     717.9019  0.029778575   0.02997805            9 
 2010000   0.93321387    -6.473184    717.12055  0.029731366  0.029970145            8 
 2011000   0.95031994    -6.470745    716.16789  0.029677105  0.029962197           10 
 2012000   0.93677561   -6.4872802    717.23463  0.029706537  0.029954206            7 
 2013000   0.92474432   -6.4706149    716.85816  0.029676195  0.029946271           10 
 2014000   0.91963117   -6.4956824    716.32513  0.029639405  0.029938271           16 
 2015000   0.93787168   -6.4692545    716.79329  0.029644057  0.029930217            8 
 2016000   0.93530943   -6.4958829    715.71376  0.029584729  0.029922118           17 
 2017000   0.95122143   -6.4695224      717.384  0.029639068  0.029914037            7 
 2018000   0.92636911    -6.493512    717.79448  0.029641331  0.029905984           10 
 2019000   0.93209728   -6.4842299    716.52506  0.029574255  0.029897906            4 
 2020000   0.92698665   -6.4627798    717.88035  0.029615526  0.029889919            3 
 2021000   0.93558095   -6.4658657    715.86567  0.029517799  0.029881886            5 
 2022000   0.92764665   -6.5144349    719.33466   0.02964617  0.029873924           13 
 2023000   0.89974676   -6.4845206    718.11673  0.029581345  0.029865939           12 
 2024000   0.91602853   -6.5132371    716.79981  0.029512508  0.029857931           15 
 2025000   0.91739918   -6.4616734    718.37729  0.029562851  0.029849952            7 
 2026000   0.93105563   -6.4617256    720.90151  0.029652086  0.029842017           10 
 2027000   0.91895584   -6.4796487    719.14005  0.029565041  0.029834142            6 
 2028000   0.91684455   -6.4682168    720.80157  0.029618736  0.029826301            5 
 2029000   0.91259973   -6.5097954    721.35077  0.029626695  0.029818353            7 
 2030000   0.93316917    -6.463509    722.05033  0.029640818  0.029810531            5 
 2031000   0.93263509   -6.4556006    721.33773  0.029596985   0.02980277           12 
 2032000   0.92339847   -6.4510793    721.99805    0.0296095  0.029794961            7 
 2033000   0.93239255   -6.5013877    724.41383  0.029693959  0.029787174            7 
 2034000   0.92173792   -6.5059022     721.6021  0.029564164  0.029779322            4 
 2035000   0.92474592   -6.4960496    721.59403  0.029549305  0.029771548            8 
 2036000   0.93509927   -6.4765904    722.97831   0.02959145   0.02976378           16 
 2037000   0.95004479    -6.496979    722.33668  0.029550674  0.029756035           14 
 2038000   0.94118697   -6.4874073    721.93485  0.029519744   0.02974822            4 
 2039000    0.9233513   -6.4665322    723.62998  0.029574545  0.029740416            6 
 2040000     0.922811    -6.481511    722.04584  0.029495336   0.02973259           16 
 2041000   0.91870869   -6.4740368    721.94567  0.029476795  0.029724808           10 
 2042000   0.93895826   -6.4863695    720.92002  0.029420504  0.029716988           16 
 2043000   0.91109757   -6.4675861    722.98473  0.029490322  0.029709191            5 
 2044000    0.9050716   -6.4570128    723.40876  0.029493182  0.029701478            6 
 2045000   0.92729921   -6.4420144    722.97884  0.029461241  0.029693712           11 
 2046000   0.91614039   -6.5020141    724.16287  0.029495066  0.029685872            6 
 2047000   0.92205061   -6.4798995     725.0569  0.029517053  0.029678055           27 
 2048000   0.92193684   -6.4866543    723.08508  0.029422407  0.029670338            8 
 2049000   0.90916199   -6.4916147    724.75003  0.029475762  0.029662556           11 
 2050000   0.91584932   -6.4757939     724.8043  0.029463589  0.029654869            5 
 2051000   0.92932129   -6.4519666    725.85258  0.029491816  0.029647169            8 
 2052000   0.92953272   -6.4781041    727.71338  0.029553012   0.02963952            4 
 2053000    0.9212588   -6.4785061    725.67932  0.029456053  0.029631949            7 
 2054000   0.91931276   -6.4815411     726.3392  0.029468484  0.029624318            6 
 2055000   0.93477519   -6.4964694    724.77252  0.029390613  0.029616643           19 
 2056000   0.91683006   -6.4773415     726.4663   0.02944497  0.029608995            5 
 2057000   0.92182189   -6.4732062    725.60925  0.029395935  0.029601386           10 
 2058000   0.95213345   -6.4983448    728.41379  0.029495214  0.029593798            4 
 2059000   0.91965161   -6.5008803    728.10919  0.029468561  0.029586181            7 
 2060000   0.92708381   -6.4846117    727.02363  0.029410341  0.029578586           13 
 2061000   0.93981682   -6.4675183      727.509  0.029415696  0.029571059            5 
 2062000   0.91719632   -6.5007258    727.76603  0.029411818  0.029563543            5 
 2063000   0.91628608   -6.4736724    727.55167  0.029388902   0.02955597           22 
 2064000   0.89937968   -6.4804367     729.2293  0.029442397  0.029548363            5 
 2065000   0.90948566   -6.4740113    726.73355  0.029327423  0.029540858            8 
 2066000   0.93175823   -6.5005945    729.37618   0.02941982  0.029533323            9 
 2067000   0.92628831   -6.4621324    731.43853  0.029488733  0.029525855           12 
 2068000   0.91165883   -6.4722355    729.41331  0.029392864  0.029518406           11 
 2069000   0.92093152   -6.5121776    729.37644  0.029377173  0.029510925            9 
 2070000   0.94138405   -6.4862145    732.31697  0.029481359   0.02950349           26 
 2071000   0.89900834   -6.5126599    732.50896   0.02947485  0.029496135           13 
 2072000   0.91073538   -6.4830595    731.85191  0.029434198  0.029488777            7 
 2073000   0.91251863   -6.5010732    732.73027  0.029455309  0.029481433            7 
 2074000   0.90850505   -6.4893872     732.1973  0.029419692  0.029474129            7 
 2075000   0.92775558   -6.4836347    733.94642   0.02947576    0.0294668            5 
 2076000   0.91450213   -6.4806215    734.25844  0.029474086  0.029459442            3 
 2077000   0.91817263   -6.4974438    733.52959  0.029430653  0.029452151            4 
 2078000   0.92978034   -6.4888886    732.56382   0.02937776   0.02944482            6 
 2079000   0.94328317   -6.4865495    734.20256  0.029429315  0.029437512            9 
 2080000   0.92058817   -6.4844522    734.60034  0.029431103  0.029430135            5 
 2081000   0.92498441    -6.507716    733.88837   0.02938845  0.029422856            6 
 2082000   0.91527024   -6.4902224    733.96842  0.029377539  0.029415608           10 
 2083000    0.9228899   -6.5058238    735.02077  0.029405535  0.029408304            4 
 2084000   0.89729579   -6.4913497     734.9958  0.029390427  0.029401026            8 
 2085000   0.92163042   -6.5058342    737.87037  0.029491222  0.029393777           10 
 2086000    0.9157487   -6.5025568    734.97167  0.029361284  0.029386611            8 
 2087000   0.90786184   -6.4921164     735.8751  0.029383289  0.029379417           13 
 2088000   0.92139677    -6.503616    737.22269     0.029423  0.029372246            6 
 2089000   0.92270248   -6.5372514    734.92453  0.029317238  0.029364952            6 
 2090000   0.90609545   -6.4972778    737.22524  0.029394946  0.029357724            7 
 2091000   0.90826381   -6.5033004    735.14416   0.02929795  0.029350507            6 
 2092000   0.92914958   -6.5187235     734.4542  0.029256461  0.029343324           10 
 2093000   0.93611649   -6.5156971    734.51224  0.029244794  0.029336045            4 
 2094000   0.91901931   -6.4684555    735.99075  0.029289667  0.029328819           12 
 2095000   0.89622009   -6.4793378    737.14672  0.029321668  0.029321589           11 
 2096000   0.91945351   -6.4996703    735.51824  0.029242933  0.029314458           15 
 2097000   0.92745352   -6.5041653     737.9424  0.029325322  0.029307307           17 
 2098000   0.90899247   -6.5093582    736.69779  0.029261908  0.029300079           15 
 2099000   0.92546634   -6.5059663    736.20459  0.029228386  0.029292885            6 
 2100000   0.92086926    -6.529701    737.04378  0.029247769    0.0292856           10 
 2101000   0.89754078   -6.4855025    736.39644  0.029208172  0.029278406            9 
 2102000   0.89911834   -6.5005071    739.95832  0.029335487  0.029271249           13 
 2103000   0.91217364   -6.4734828    737.76359  0.029234569  0.029264182            8 
 2104000   0.91307228   -6.4778992    738.17966  0.029237154  0.029257068           16 
 2105000   0.89785397   -6.5296058    738.15768  0.029222394  0.029249914           12 
 2106000   0.93162244   -6.4994447    739.02247  0.029242738  0.029242706            7 
 2107000   0.89637329   -6.4883842    740.77561  0.029298197  0.029235526            7 
 2108000   0.92459166   -6.4759054    740.29155  0.029265162  0.029228371            8 
 2109000   0.91839792   -6.4724467    738.54268  0.029182183   0.02922119            4 
 2110000    0.9219084   -6.5115399    739.32085  0.029199086  0.029213991            8 
 2111000   0.89364877   -6.4856174    741.64698   0.02927708  0.029206819            7 
 2112000   0.90212499   -6.4846506    741.68735   0.02926481  0.029199624           10 
 2113000   0.93029875   -6.5114616    740.24107  0.029193921  0.029192452            6 
 2114000   0.91882665   -6.4988245    740.04451  0.029172363  0.029185278            8 
 2115000   0.91050058   -6.5068493    739.18428  0.029124676  0.029178089            6 
 2116000   0.91801948   -6.5080398    741.53172   0.02920336  0.029170933            9 
 2117000   0.89916255   -6.4805833    741.59222  0.029191947  0.029163722           24 
 2118000   0.90097163   -6.4764296    740.64429  0.029140867  0.029156515            5 
 2119000   0.91180444   -6.4773898    739.29839  0.029074185  0.029149292            8 
 2120000    0.9156707   -6.4795863    742.00221  0.029166753  0.029142171            9 
 2121000   0.90946452   -6.4928612    741.14854  0.029119462  0.029134957            5 
 2122000   0.91903162   -6.5137187    741.30307  0.029111808   0.02912764            6 
 2123000   0.89430858   -6.5101146    739.24232  0.029017205  0.029120375            8 
 2124000   0.91449891   -6.4986236    741.78852  0.029103442  0.029113076            5 
 2125000     0.922699   -6.5031064    741.46697  0.029077136   0.02910579           20 
 2126000   0.92332784   -6.5469485    740.65645  0.029031689  0.029098464            6 
 2127000   0.90908672   -6.5090429    743.03106  0.029111074  0.029091151            7 
 2128000   0.91600966   -6.5156125    741.07982  0.029020983  0.029083692            8 
 2129000   0.91462152   -6.5595473    741.13448  0.029009491  0.029076325            5 
 2130000   0.92089348   -6.5175622    743.83162  0.029101394  0.029069009            5 
 2131000   0.87952052   -6.4965039     743.9436  0.029092116  0.029061795            8 
 2132000   0.89847277   -6.5134474    743.36802  0.029055973  0.029054631            5 
 2133000   0.92196767   -6.4974933    743.63908  0.029052941  0.029047424            8 
 2134000   0.91092153   -6.5006693    744.71101  0.029081186  0.029040277            8 
 2135000   0.90856286   -6.5138902    744.66648  0.029065827  0.029033073            9 
 2136000   0.91557772   -6.5328845    744.13488   0.02903148  0.029025786            7 
 2137000   0.89730178   -6.5031171    743.72258  0.029001816  0.029018595            6 
 2138000   0.90147792   -6.5257603    744.43714  0.029016103  0.029011358           13 
 2139000   0.92558847   -6.5243044    745.47659  0.029043034  0.029004163            5 
 2140000   0.91819782   -6.5286747    743.55969  0.028954817  0.028996996           12 
 2141000   0.92052143   -6.5421071    743.49536  0.028938789   0.02898979           28 
 2142000   0.90399622   -6.5141667    746.33664  0.029035817  0.028982535            7 
 2143000   0.91226543   -6.4852831    747.03278  0.029049338  0.028975384           21 
 2144000   0.92018694   -6.5383621    745.50092  0.028976248  0.028968182           10 
 2145000   0.91443472   -6.5258924    744.63678  0.028929168  0.028960982            6 
 2146000   0.94698566   -6.5140872    746.27389  0.028979259  0.028953845            7 
 2147000   0.90926017   -6.5287054    746.81834  0.028986894  0.028946688           14 
 2148000   0.90115724   -6.5285334    746.48019  0.028960281  0.028939519            6 
 2149000   0.91506987   -6.4926851    749.12808  0.029049484  0.028932416            6 
 2150000   0.90620228   -6.5120448    747.18039   0.02896048  0.028925333            9 
 2151000   0.90294233   -6.5406225    745.83988  0.028895083   0.02891809           12 
 2152000   0.92453868   -6.5359507    746.69054  0.028914597  0.028910835            4 
 2153000   0.92142144   -6.4722875    744.90593  0.028832092  0.028903594            5 
 2154000   0.91044573   -6.5377208    745.70532  0.028849633  0.028896445            8 
 2155000   0.89624641   -6.4722545    748.14195   0.02893047  0.028889281            9 
 2156000   0.89536118   -6.4950056    746.10335  0.028838256   0.02888209            6 
 2157000   0.91381835   -6.5059502    748.17535  0.028904936  0.028874857            7 
 2158000   0.91518554   -6.5162415    747.17969  0.028853093  0.028867588           25 
 2159000    0.8904504   -6.4994875    746.57815   0.02881651  0.028860317            8 
 2160000   0.90606298    -6.514196    746.79345  0.028811476  0.028853016            9 
 2161000    0.9019115   -6.5045379    746.87937  0.028801456  0.028845773           10 
 2162000   0.92894458   -6.5218987    746.91861  0.028789647  0.028838557            6 
 2163000   0.88711175   -6.5103579    748.77983  0.028848044  0.028831339            9 
 2164000   0.90543821   -6.4976872    748.29852  0.028816178  0.028824103           12 
 2165000   0.91902723   -6.5253559    747.69594  0.028779674  0.028816897            5 
 2166000   0.89557614   -6.5111282    750.14061  0.028860442  0.028809647            6 
 2167000   0.89429371   -6.5047129    750.14764  0.028847394  0.028802386            6 
 2168000   0.89373824   -6.5179881    748.05733  0.028753741  0.028795194            8 
 2169000   0.89515465   -6.5519053    747.68511  0.028726184  0.028787934           11 
 2170000   0.88910564   -6.5036467    750.21251  0.028810004  0.028780684           10 
 2171000   0.89485416   -6.5156986    748.56189  0.028733375  0.028773559           14 
 2172000   0.92005008   -6.4990955    751.64463  0.028838422  0.028766433            5 
 2173000   0.91613502   -6.5258093    749.20362  0.028731539   0.02875924            7 
 2174000    0.9111435   -6.5151246    750.45559  0.028766313  0.028752034           12 
 2175000    0.8947363   -6.5344321    750.45529  0.028753076   0.02874487           10 
 2176000   0.90554607   -6.5321931      750.002  0.028722503  0.028737678           17 
 2177000   0.90119837    -6.532988    751.91909  0.028782694   0.02873051            6 
 2178000   0.90993405   -6.5028835     748.9391   0.02865546  0.028723411            9 
 2179000   0.89819119   -6.5171083    751.93283  0.028756801  0.028716219            6 
 2180000   0.90370976   -6.5579931    750.81001  0.028700688  0.028709005            5 
 2181000   0.88625004   -6.5067212      749.767  0.028647677  0.028701799            7 
 2182000   0.89020678    -6.549475    750.08222  0.028646587  0.028694557           14 
 2183000   0.88411304   -6.5397399    750.39901  0.028645557  0.028687264           17 
 2184000   0.88461034   -6.5342952    750.90565  0.028651772  0.028679978            5 
 2185000   0.90670146   -6.5231201    751.70901  0.028669299   0.02867278            7 
 2186000   0.93197785   -6.5276227    752.00922  0.028667628    0.0286656           11 
 2187000   0.89243024   -6.5150091    753.10564  0.028696298  0.028658397           18 
 2188000   0.89097708   -6.5247282     752.2862  0.028651973  0.028651167           13 
 2189000   0.88868157   -6.5247604    751.90894  0.028624522  0.028643993            6 
 2190000   0.91697023   -6.5474389    753.85299  0.028685426  0.028636827           10 
 2191000   0.90524598   -6.5359001    752.81066  0.028632689  0.028629701           14 
 2192000   0.90029611   -6.5308549    753.27874  0.028637422  0.028622524           10 
 2193000   0.89961959   -6.5083103     754.3558  0.028665291   0.02861534           13 
 2194000   0.89495532   -6.5751376     753.3296  0.028613248  0.028608153            6 
 2195000   0.90817486   -6.5504863    753.08139  0.028590789  0.028600983           10 
 2196000   0.90431908   -6.4909648     753.8369   0.02860644  0.028593906            5 
 2197000   0.88271082   -6.5248857    756.46671  0.028693169  0.028586817            8 
 2198000   0.89907737   -6.5215256    755.84256  0.028656451  0.028579746           20 
 2199000   0.90092374   -6.5211218    754.84033  0.028605439   0.02857264           15 
 2200000    0.8863732   -6.5133708    754.83468  0.028592223  0.028565569            6 
 2201000   0.90310095   -6.5259509    756.95832  0.028659637  0.028558526           10 
 2202000   0.86350169   -6.5416765     755.5445  0.028593116  0.028551419            4 
 2203000   0.89912017    -6.529672    754.68311  0.028547553  0.028544268            4 
 2204000   0.88855527   -6.5632353    753.62378  0.028494547  0.028537067            8 
 2205000   0.89408893   -6.5781772     754.6879  0.028521841  0.028529826            7 
 2206000   0.89204107   -6.5135795    756.08758  0.028561785  0.028522675           14 
 2207000   0.89995615   -6.5447929    754.26731  0.028480113  0.028515461           10 
 2208000   0.91234492   -6.5189894    757.53388    0.0285905  0.028508334           16 
 2209000   0.89120582   -6.5422158    754.37235   0.02845829  0.028501156           13 
 2210000   0.91984018    -6.544214    754.57075  0.028452894  0.028493948            7 
 2211000   0.90193197     -6.52255    755.91982  0.028490872  0.028486815           10 
 2212000    0.8928518   -6.5629034     755.8299  0.028474604  0.028479601            6 
 2213000   0.90328352   -6.4995972    757.50686  0.028524886  0.028472427           10 
 2214000   0.89436772   -6.5088389    757.24594  0.028502181  0.028465316           10 
 2215000   0.90742421   -6.5183066    757.40686  0.028495367  0.028458208           19 
 2216000    0.9118145    -6.531408    756.42051  0.028445416  0.028451105           12 
 2217000   0.88283695   -6.5151823    756.87096  0.028449517  0.028443923            7 
 2218000   0.91177118   -6.5531353    756.28394  0.028414636  0.028436766           14 
 2219000   0.91182493   -6.5505087    757.58542  0.028450707  0.028429595            5 
 2220000   0.90041037   -6.5430089    756.11085  0.028382539  0.028422323           25 
 2221000   0.90942579   -6.5367969    759.41285  0.028493653  0.028415094           12 
 2222000   0.89476224     -6.54703    758.19012  0.028434973  0.028407856           14 
 2223000    0.9160588   -6.5416363     759.2043    0.0284602  0.028400629           18 
 2224000   0.91705921   -6.5057839    758.33537  0.028414845  0.028393482            9 
 2225000   0.91055854   -6.5813296    756.26396  0.028324493  0.028386318           10 
 2226000   0.88138664   -6.5622684    757.15255  0.028345034  0.028379172           25 
 2227000   0.88849621   -6.5347239    758.60687  0.028386726   0.02837201           13 
 2228000   0.86503031   -6.5265437    761.09595  0.028467084  0.028364868           16 
 2229000   0.90299102   -6.5386735    758.17533  0.028345122  0.028357779            5 
 2230000   0.89098869    -6.569057    758.66809  0.028350825  0.028350635            7 
 2231000   0.88657134   -6.5479397    759.44412  0.028367104  0.028343505            9 
 2232000   0.91848115    -6.518254    761.13774  0.028417628  0.028336388           11 
 2233000   0.90254004   -6.5416294    761.25023    0.0284091  0.028329316           16 
 2234000   0.88637352    -6.561017    760.10328  0.028353599  0.028322151           11 
 2235000    0.8942641   -6.5296046    760.22655  0.028345509   0.02831505           13 
 2236000   0.90406971   -6.5525619    758.85487  0.028281711  0.028307987            9 
 2237000   0.90599614   -6.5652251    760.89359  0.028345015  0.028300897            5 
 2238000   0.91698896   -6.5659702    759.41256  0.028277203  0.028293792            7 
 2239000   0.90461185   -6.5665631    762.03004  0.028361993  0.028286658           10 
 2240000   0.88812141   -6.5247726    760.51694  0.028293041  0.028279514            8 
 2241000   0.86178567   -6.5232752    760.61222  0.028283959  0.028272389           14 
 2242000   0.87600442   -6.5100138    762.58841  0.028344797  0.028265306            7 
 2243000   0.88792502   -6.5371166    760.52169  0.028255375  0.028258219           12 
 2244000   0.89474407   -6.5418245    761.58688  0.028282341  0.028251064           14 
 2245000   0.89059192   -6.5539415    761.80638  0.028277891  0.028243893            9 
 2246000   0.86040653   -6.5390422    762.25457   0.02828193  0.028236729           21 
 2247000    0.8831124   -6.5201637    761.53042  0.028242487  0.028229582            9 
 2248000   0.89580583   -6.5327915    764.13989  0.028326657  0.028222472            8 
 2249000   0.88547025   -6.5186095    763.83646  0.028302818  0.028215415            9 
 2250000   0.90269359   -6.5411821    762.09465  0.028225728  0.028208257           12 
 2251000   0.89023383   -6.5711825    761.78112  0.028201581  0.028201085           28 
 2252000   0.88580065   -6.5250623    761.36793  0.028173769  0.028193853            5 
 2253000   0.90382636   -6.5724007     762.4571   0.02820155  0.028186616            9 
 2254000   0.88617865   -6.5600216    760.41204   0.02811343  0.028179347            7 
 2255000    0.8953547   -6.5621529    760.43972  0.028101985  0.028172076           10 
 2256000    0.9057158   -6.5240058    761.92676  0.028144458  0.028164834            8 
 2257000    0.8960773   -6.5703811    762.40971   0.02814982  0.028157621            5 
 2258000   0.89069106   -6.5488269    761.67274  0.028110154  0.028150386            7 
 2259000   0.88091414   -6.5200151    762.45488  0.028126563  0.028143144            5 
 2260000   0.91400562    -6.576999    763.11124   0.02813832  0.028135952            5 
 2261000   0.89742169   -6.5484717    763.30623  0.028133062  0.028128773           10 
 2262000   0.89070254   -6.5477498    763.42651  0.028125056  0.028121536           13 
 2263000   0.89741295   -6.5659929    761.92411  0.028057303  0.028114263           10 
 2264000   0.89168513   -6.5795735    762.29157  0.028058435  0.028106998           15 
 2265000   0.89330643   -6.5649423    763.77001  0.028100442  0.028099741            8 
 2266000    0.8818877   -6.5575414    763.80266  0.028089242  0.028092519            7 
 2267000   0.88867226   -6.5647585    763.92557  0.028081369  0.028085343            7 
 2268000   0.87673493   -6.5654189    764.41913  0.028087123  0.028078174            6 
 2269000   0.90903977   -6.5356328    766.16464  0.028138851  0.028070966            2 
 2270000   0.89016464   -6.5280576     765.3594  0.028096894  0.028063833           11 
 2271000   0.88933238   -6.5411898    766.46726  0.028125175  0.028056701           10 
 2272000   0.90507039   -6.5600254    764.20692   0.02802989  0.028049561            5 
 2273000   0.88871233   -6.5391201     766.2969  0.028094182  0.028042432            9 
 2274000   0.89411576   -6.5573134    764.54899  0.028017773  0.028035305            6 
 2275000   0.90236239   -6.5594041    765.62657  0.028044929  0.028028171            5 
 2276000   0.88004006   -6.5187074    767.17566  0.028089325  0.028021086           10 
 2277000   0.89084859   -6.5515683    765.28666  0.028007856  0.028013964           13 
 2278000   0.87971032   -6.5638818    765.94428  0.028019618   0.02800683           11 
 2279000   0.88780175    -6.562997    764.49794  0.027954437  0.027999661           10 
 2280000   0.87903912   -6.5520244    764.79281  0.027952954  0.027992511           17 
 2281000   0.90478511    -6.546154    769.47378  0.028111712  0.027985404            7 
 2282000   0.89634452   -6.5657964    766.36336  0.027985808  0.027978311            8 
 2283000   0.88208046   -6.5572367    766.99837  0.027996728   0.02797123           20 
 2284000   0.89865411   -6.5906061    767.13301  0.027989383  0.027964051            8 
 2285000   0.89227382   -6.5865326    767.29035  0.027982872  0.027956924           18 
 2286000   0.89109964   -6.5684352     767.5886  0.027981503   0.02794967            9 
 2287000   0.88804334   -6.5742151    768.20657  0.027991786  0.027942511            5 
 2288000   0.87736373   -6.5766306    768.46755  0.027989057  0.027935372           14 
 2289000   0.87135672   -6.5634904    766.86695  0.027918558  0.027928242           13 
 2290000    0.8944516   -6.5370359    768.40969  0.027962507   0.02792115           11 
 2291000   0.87587675   -6.5697721    768.12617  0.027939989  0.027914056           14 
 2292000    0.9007286   -6.5673914    766.83665  0.027880914  0.027906865            4 
 2293000    0.8793902   -6.5327049    769.39678  0.027961796  0.027899703           12 
 2294000   0.88850372   -6.5530491    766.48279  0.027843751  0.027892408           12 
 2295000   0.86854728   -6.5522022    767.68147  0.027875144  0.027885143            8 
 2296000   0.90387905   -6.5636602    768.22615  0.027882773  0.027877914            9 
 2297000   0.89171148   -6.5668428    768.46215  0.027879196  0.027870771            5 
 2298000   0.90224547   -6.5519794    768.28208  0.027860534  0.027863603            4 
 2299000   0.87697112   -6.5347212    767.65746  0.027825774  0.027856352            9 
 2300000   0.88810738   -6.5777303    767.94878  0.027824231   0.02784908            9 
 2301000   0.89060694   -6.5347449    765.87645  0.027737087  0.027841777           10 
 2302000   0.87198934   -6.5629643    768.16934  0.027808042   0.02783447            7 
 2303000   0.87851395   -6.5567602    769.65146  0.027849597  0.027827249           13 
 2304000   0.87987403   -6.5707019    768.62406  0.027800349  0.027820077           10 
 2305000   0.88484051   -6.5826729    768.51782  0.027784448  0.027812873            6 
 2306000   0.88574462    -6.572823    769.15439  0.027795403  0.027805669           14 
 2307000   0.89641572   -6.5462465    768.89705  0.027774059  0.027798475            7 
 2308000   0.88068513    -6.579347    769.33309  0.027777769  0.027791306            8 
 2309000   0.88313176   -6.5576259    770.80015  0.027818686  0.027784105           12 
 2310000   0.89507995   -6.5725355     771.8085   0.02784302  0.027776984           12 
 2311000   0.89601554   -6.5652231    770.39997  0.027780181  0.027769837            4 
 2312000   0.87299815   -6.5590976    770.37693  0.027767334  0.027762661           12 
 2313000   0.88367019   -6.5587363    770.65989  0.027765524  0.027755459           10 
 2314000   0.89354133   -6.5629983     770.9374  0.027763519   0.02774825            6 
 2315000   0.88682947   -6.5471803    772.45315  0.027806089  0.027741062            6 
 2316000   0.87356482   -6.5833434    771.59321  0.027763141   0.02773388            5 
 2317000   0.86069887   -6.5359825    769.74059  0.027684527  0.027726685           14 
 2318000   0.87739482   -6.5731697    771.82385  0.027747478  0.027719471           15 
 2319000   0.88781975   -6.5454575    771.40422  0.027720433  0.027712248            6 
 2320000   0.88259958   -6.5618701    769.02557  0.027623045  0.027705005            8 
 2321000   0.90331589   -6.5945306    770.19732  0.027653214  0.027697759            8 
 2322000   0.85967834   -6.5581779    770.76459  0.027661663  0.027690512            8 
 2323000   0.88276962   -6.5463271    771.84518   0.02768852  0.027683303           15 
 2324000   0.88258206    -6.562837    771.17587  0.027652606  0.027676036            8 
 2325000   0.86399777   -6.5683387    771.54999  0.027654121  0.027668777            7 
 2326000   0.87299911    -6.609361    770.46548  0.027603378  0.027661518            6 
 2327000   0.88065903   -6.5722549    772.08731  0.027649596  0.027654297           17 
 2328000   0.88652265   -6.5479254    772.88933  0.027666428  0.027647073           16 
 2329000   0.86780785   -6.5728036    771.76037  0.027614154   0.02763985           13 
 2330000   0.86362063   -6.5509683    771.89949  0.027607278  0.027632543           13 
 2331000   0.88614945   -6.5868737    771.69788  0.027588227  0.027625257           11 
 2332000    0.8713267   -6.6070206    771.20298  0.027558711  0.027617962           10 
 2333000   0.88628966   -6.5603117    772.35481  0.027588042  0.027610595           13 
 2334000   0.87234548   -6.5910018    771.14557  0.027533047  0.027603259           25 
 2335000   0.87192903   -6.5694183     771.2566  0.027525218  0.027595906           15 
 2336000   0.89339076   -6.5584513     771.1039  0.027507987  0.027588525           29 
 2337000   0.87198005   -6.5373467    770.70879  0.027482128  0.027581199            3 
 2338000   0.89504922   -6.5755443    771.47631   0.02749773  0.027573813            8 
 2339000   0.89932279    -6.583078    773.59897  0.027561599  0.027566456            5 
 2340000   0.87939683   -6.5770316    772.28439  0.027503005  0.027559145           11 
 2341000   0.85490032   -6.5566191    770.31216  0.027421051  0.027551901           10 
 2342000   0.88929666   -6.5733233    773.50892   0.02752309  0.027544538            8 
 2343000   0.84543805   -6.5756693    774.69763  0.027553622    0.0275372           19 
 2344000   0.88088338   -6.5965815       772.33  0.027457694  0.027529906           20 
 2345000   0.88510109   -6.5707343     775.2209  0.027548717  0.027522525           14 
 2346000   0.87339173    -6.592874    772.88434  0.027453976  0.027515206           21 
 2347000   0.88113228    -6.590612    772.81112  0.027439679  0.027507905           12 
 2348000   0.87221428   -6.5557688    774.12195  0.027474516  0.027500627            5 
 2349000   0.86285651   -6.5803434    773.75236  0.027449708  0.027493334           13 
 2350000   0.89146436   -6.5723287    773.79616   0.02743958  0.027486058           15 
 2351000   0.85488226   -6.5565991    775.38755  0.027484317   0.02747876            7 
 2352000   0.87097932   -6.5674751    775.85468  0.027489182   0.02747147            7 
 2353000   0.86629286   -6.5491956    776.17526  0.027488853  0.027464227            5 
 2354000    0.8631261   -6.5904436    775.21467   0.02744317  0.027456972            9 
 2355000   0.86711773   -6.5948014    774.35668  0.027401156  0.027449723            8 
 2356000    0.8786736   -6.5442066    776.95269  0.027481349  0.027442437            7 
 2357000   0.84894477    -6.569342    774.57351  0.027385572  0.027435191            9 
 2358000   0.87457884    -6.533055    777.22925  0.027467813  0.027427896            5 
 2359000   0.91253704   -6.5406085     777.0214  0.027448827  0.027420676            8 
 2360000   0.86904209    -6.557857    777.27327   0.02744609  0.027413469           10 
 2361000   0.87320628   -6.5890256    775.12825  0.027358755  0.027406252           12 
 2362000   0.88966481   -6.5920347    776.83572  0.027407413  0.027399011           14 
 2363000   0.87502016   -6.5947585     776.5353   0.02738522  0.027391776           11 
 2364000   0.87953195   -6.5793152    777.05898  0.027392096  0.027384501           20 
 2365000   0.86752038   -6.5941725    776.15854  0.027348786  0.027377244           33 
 2366000   0.89041884   -6.5779733    776.35381  0.027344104   0.02737002           10 
 2367000   0.85423702   -6.5816864    776.58505  0.027340693    0.0273628           15 
 2368000   0.87638682   -6.5973974    777.89349  0.027375193  0.027355528            6 
 2369000   0.87316078   -6.5957733     779.0359  0.027403824  0.027348302           17 
 2370000   0.86553034   -6.5773096    777.85732   0.02735082  0.027341108            7 
 2371000   0.86020395    -6.570699    779.38364   0.02739293  0.027333902            8 
 2372000   0.88568478   -6.5572414    778.11087  0.027336666  0.027326727           16 
 2373000   0.88016215   -6.5933249    778.86578  0.027351657  0.027319576            4 
 2374000   0.86431961   -6.5753179    778.28498  0.027319748  0.027312414           12 
 2375000   0.85502468   -6.6070625    779.04979   0.02733508  0.027305183            7 
 2376000    0.8770649   -6.5813224    780.48088  0.027373768  0.027298005            9 
 2377000   0.87347118   -6.5851533    778.13756    0.0272801  0.027290845            9 
 2378000   0.86240313   -6.5929965    780.06652  0.027336225  0.027283642           17 
 2379000   0.89118992   -6.5965268     780.3846  0.027335876  0.027276461           11 
 2380000   0.86081483   -6.6096831    779.24006  0.027284316  0.027269312            9 
 2381000   0.85266956   -6.5881603    779.06928  0.027266879  0.027262138            8 
 2382000   0.87189939   -6.5994665    778.78744  0.027245572  0.027254953            9 
 2383000   0.86810627   -6.5869465    779.88665  0.027272578  0.027247747           16 
 2384000   0.85014232   -6.6070346    778.23701  0.027203475  0.027240619           12 
 2385000   0.86499693   -6.5711497    780.77664  0.027280805  0.027233476            4 
 2386000   0.84421926   -6.5851052    777.58101  0.027157761  0.027226313            8 
 2387000   0.87394384   -6.5568218    779.72973  0.027221398  0.027219209           10 
 2388000   0.87497745   -6.5935028     780.9501  0.027252586  0.027212095           12 
 2389000   0.86665165   -6.6281939     780.6695  0.027231391  0.027204944           26 
 2390000   0.86150047   -6.5955909     780.3051  0.027207291  0.027197749           17 
 2391000   0.88488442   -6.5990277    780.93068  0.027217715  0.027190606           12 
 2392000    0.8844545   -6.5719085    782.16825  0.027249451  0.027183475            7 
 2393000   0.86678481   -6.6260981    780.48721  0.027179524  0.027176317           15 
 2394000   0.87628779     -6.59037    779.91198  0.027148148  0.027169193           17 
 2395000   0.88002925   -6.5946571    780.37705  0.027152994  0.027162055           11 
 2396000   0.87273946   -6.5914001    782.25338  0.027206921  0.027154916            8 
 2397000   0.88245443   -6.5878621    781.69379  0.027176116  0.027147848            6 
 2398000   0.87466441   -6.5675425    782.88168  0.027206064  0.027140773            8 
 2399000   0.86615829   -6.5965693    780.22653  0.027102492  0.027133674            6 
 2400000   0.87394829   -6.6113184    781.35756  0.027130471  0.027126573           17 
 2401000    0.8610478   -6.6064735    782.03455  0.027142668  0.027119437           11 
 2402000   0.86680236   -6.5974013    780.42328  0.027075468  0.027112266           12 
 2403000   0.85229736   -6.6036897    782.39945  0.027132732  0.027105113            8 
 2404000   0.89431374    -6.613161    783.03018  0.027143309  0.027097971            6 
 2405000     0.872069   -6.5975358    784.56195  0.027185099  0.027090872            9 
 2406000   0.86125493   -6.5909982    782.29119  0.027095151  0.027083755            9 
 2407000   0.85986537   -6.5935581    782.61444  0.027095085  0.027076673           10 
 2408000   0.84906937   -6.6193757    783.75693  0.027123371  0.027069619           11 
 2409000   0.88317308   -6.6091641    783.65433  0.027108563   0.02706256           24 
 2410000   0.85956363   -6.5787822    783.91034  0.027106167  0.027055489            6 
 2411000   0.87116064   -6.5884531    782.24831  0.027037478   0.02704847           10 
 2412000    0.8706137   -6.5854297    783.56831  0.027071874  0.027041435            4 
 2413000   0.88132886   -6.6245544    784.86894  0.027105572  0.027034371            7 
 2414000   0.88702658   -6.5786392    784.24368  0.027072759  0.027027347           13 
 2415000   0.85659278   -6.6115451    783.20227  0.027025613  0.027020243           13 
 2416000   0.86292491   -6.5927464    781.84413  0.026967582   0.02701315           18 
 2417000   0.86606846    -6.594034    783.19751  0.027003086  0.027006045           14 
 2418000   0.84536477   -6.5527311    785.42899  0.027068824  0.026998937           17 
 2419000   0.86861529   -6.5689009    784.44403  0.027023702  0.026991817           11 
 2420000   0.89026773    -6.600453    783.33631  0.026974391  0.026984642           15 
 2421000   0.85780556   -6.6009543    783.92054  0.026983359  0.026977392           42 
 2422000   0.85255171   -6.6115807    785.78583  0.027036396  0.026970107           11 
 2423000   0.83625357   -6.6112777    782.93345  0.026927138  0.026962858           27 
 2424000   0.87027508   -6.6140771    784.28817  0.026962602  0.026955597            9 
 2425000   0.87856381   -6.6079324    783.09789   0.02691058  0.026948358            9 
 2426000   0.87179542   -6.6055892    783.86379  0.026925797  0.026941132            7 
 2427000   0.86990071   -6.6226283    785.07059  0.026956139  0.026933937            9 
 2428000   0.86865129   -6.6053001    787.47083  0.027027417  0.026926764            7 
 2429000    0.8796199   -6.5736147    786.30322  0.026976232  0.026919612            8 
 2430000   0.87208126   -6.5975816    785.35476  0.026932605   0.02691242           11 
 2431000   0.84466227   -6.5750869    786.69055  0.026967316  0.026905235            7 
 2432000   0.88685417    -6.602843    786.58938  0.026952761  0.026898038           11 
 2433000   0.86595666   -6.5759394    786.34358  0.026933264  0.026890922            7 
 2434000   0.85489965   -6.5638732    786.51785  0.026928165  0.026883786            9 
 2435000   0.87944827   -6.6048287    787.43546   0.02694851   0.02687663           12 
 2436000    0.8610477   -6.5702986    787.97683  0.026955967  0.026869506           12 
 2437000   0.88065082   -6.6060215    787.03288  0.026912627  0.026862469            6 
 2438000   0.87889216   -6.6063091    788.05794  0.026936626  0.026855381           25 
 2439000   0.86064383   -6.6138286    788.01393  0.026924078  0.026848308           10 
 2440000   0.85417816   -6.6207823    786.03708  0.026845529  0.026841199           19 
 2441000   0.84535001   -6.6187264    786.09976  0.026836671  0.026834087           20 
 2442000   0.87606758   -6.6096142    789.93162  0.026956443  0.026826964           23 
 2443000   0.85882986   -6.5721051    788.87903  0.026909504  0.026819939            7 
 2444000   0.85752106   -6.6083447    787.27169  0.026843688  0.026812871           11 
 2445000   0.85417899   -6.5757256      787.653  0.026845705  0.026805828           17 
 2446000   0.87262702   -6.6091094    788.53981  0.026864943  0.026798808            9 
 2447000   0.84737827   -6.6023155     788.7435  0.026860901  0.026791745            8 
 2448000   0.86140933   -6.5944492    788.65851  0.026847035  0.026784712           10 
 2449000   0.86194947   -6.6055234    789.55648  0.026866629  0.026777706            7 
 2450000   0.87620776   -6.6185507    788.83392  0.026831086  0.026770714           14 
 2451000   0.85032787    -6.590585    790.33912  0.026871315  0.026763705            5 
 2452000    0.8677713   -6.6134705    790.95153   0.02688117  0.026756695           12 
 2453000   0.85993907   -6.6042287    789.18585  0.026810227  0.026749689           14 
 2454000   0.86858775   -6.5901729    790.55228  0.026845704  0.026742734           16 
 2455000   0.86143293   -6.6215877    791.00176  0.026850026  0.026735751           11 
 2456000   0.84985603   -6.6124886    788.81044  0.026764741  0.026728774           16 
 2457000   0.85819244   -6.6046227    791.85796  0.026857209  0.026721794           13 
 2458000   0.85789949   -6.6105194    792.20536  0.026858061  0.026714861           21 
 2459000   0.85514919   -6.5999449    793.04951  0.026875746  0.026707942           11 
 2460000   0.86284289   -6.6024773    793.24081  0.026871301  0.026701079            5 
 2461000   0.87290814   -6.6010757    791.01905   0.02678515  0.026694257           10 
 2462000   0.85952304   -6.5881533     792.4172  0.026821595   0.02668743           14 
 2463000   0.87922326   -6.6166078    796.12935  0.026936302  0.026680605            6 
 2464000   0.84688638   -6.5778544    793.15173  0.026824666  0.026673799           12 
 2465000   0.86458081   -6.6728704    792.68462  0.026797993  0.026666926           11 
 2466000   0.85271636   -6.6293676     792.0878  0.026766957  0.026660005           14 
 2467000   0.86552901   -6.6209741     794.4276  0.026835144  0.026653081           12 
 2468000   0.86735897   -6.6399351    792.19292  0.026748816  0.026646183           30 
 2469000   0.85532335   -6.6339385    793.58937  0.026785114  0.026639302           16 
 2470000   0.85459139   -6.6220765    793.08577   0.02675728  0.026632428           10 
 2471000   0.86721192   -6.6100594    794.75705  0.026802814  0.026625592           12 
 2472000   0.86413385   -6.6078307     792.7252  0.026723476  0.026618786            8 
 2473000   0.85161015   -6.6077227    794.58386  0.026775302  0.026611954           11 
 2474000   0.85400356    -6.574464    794.60176  0.026765082  0.026605129            8 
 2475000   0.86565026   -6.5957466    795.16279  0.026773158  0.026598338            4 
 2476000   0.86087618   -6.6214992    795.06376  0.026759012  0.026591564           19 
 2477000   0.87134264   -6.6220242     794.2545  0.026720983  0.026584721           17 
 2478000   0.86443165   -6.6026281    792.69543  0.026657769  0.026577879           12 
 2479000   0.87216427   -6.6433645    795.40823  0.026738209  0.026571064           13 
 2480000   0.84336061   -6.6284314    797.33076  0.026792028  0.026564258            8 
 2481000   0.84329688   -6.6201206    796.68318  0.026759478  0.026557468            8 
 2482000   0.83123795   -6.6096616     794.6049  0.026678918  0.026550652           10 
 2483000   0.85535244    -6.598026    796.57549   0.02673431  0.026543839           13 
 2484000   0.84653503   -6.6078815    792.84011  0.026598232  0.026537012            9 
 2485000   0.84489894   -6.6058079    796.12851  0.026697804  0.026530189           13 
 2486000    0.8535162   -6.6350141    796.88756  0.026712509  0.026523388           11 
 2487000   0.86249698   -6.6129258    796.19094  0.026678426  0.026516634            7 
 2488000   0.84087665   -6.6101595    796.84193  0.026689507  0.026509844           18 
 2489000    0.8602576   -6.6361133    798.27133  0.026726642  0.026503031           12 
 2490000   0.84963248   -6.6294502    796.29519  0.026649772  0.026496187           11 
 2491000   0.88160643   -6.6146612    798.18535  0.026702307  0.026489396            6 
 2492000   0.86383264   -6.6010372    798.78714  0.026711716  0.026482611           16 
 2493000   0.84912269    -6.626718     798.1104  0.026678379  0.026475826            8 
 2494000    0.8678146   -6.6315126    798.98563  0.026696927  0.026469068            7 
 2495000   0.85187735   -6.6006942    798.56129  0.026672054  0.026462301           11 
 2496000   0.84523774   -6.5775133     796.8835  0.026605352  0.026455507            9 
 2497000   0.84862222   -6.6131894    797.79452  0.026625101  0.026448764           11 
 2498000   0.85475441   -6.6163972    797.52484  0.026605446  0.026442003           14 
 2499000   0.86200211   -6.6108407    798.53652  0.026628535  0.026435224           11 
 2500000   0.85511454   -6.6273965    799.09702  0.026636567  0.026428477            7 
 2501000   0.84520523   -6.5934881    797.30207  0.026566109  0.026421687           12 
 2502000   0.84315694   -6.6109693    797.53698  0.026563315   0.02641494            9 
 2503000   0.88454845   -6.6181636    798.50779  0.026585024  0.026408122           11 
 2504000     0.871001   -6.6265087    798.57114  0.026576516  0.026401313            7 
 2505000    0.8357466   -6.6261556    798.08683  0.026549795  0.026394492            5 
 2506000   0.85750783   -6.6226176    797.66405  0.026525141  0.026387676           17 
 2507000    0.8683786   -6.6349402    798.30362   0.02653582  0.026380854           11 
 2508000   0.82676419   -6.6205111    798.17889  0.026521095  0.026374004           35 
 2509000   0.83797082   -6.6484099    799.62331    0.0265585  0.026367178           16 
 2510000   0.86211211    -6.613171    797.76528  0.026486231  0.026360342           10 
 2511000   0.85170722   -6.6276261    800.48404  0.026565911  0.026353548           17 
 2512000   0.83164241    -6.615235    801.11742  0.026576347  0.026346727           13 
 2513000   0.84127627   -6.6199066    800.39548  0.026541832  0.026339896           10 
 2514000   0.85251955   -6.6096215    799.70153  0.026508271  0.026333095           16 
 2515000   0.85147357   -6.6534558    798.88296  0.026470608  0.026326322            7 
 2516000   0.84580493   -6.6189422    799.47296  0.026479629  0.026319498            7 
 2517000   0.84967258   -6.6492825    798.85543  0.026448663   0.02631271           13 
 2518000   0.83548714   -6.6228926    800.83216  0.026503579  0.026305958           21 
 2519000   0.80760794   -6.6353408    801.70911  0.026522069  0.026299245            7 
 2520000   0.85326801   -6.6256002    800.98578  0.026487625  0.026292516            7 
 2521000   0.85922435   -6.6144063    800.01662  0.026445082  0.026285803           17 
 2522000   0.82765591   -6.6235834    800.74647  0.026458712  0.026279116           31 
 2523000   0.84798412   -6.6260348    800.23064  0.026431188  0.026272405           26 
 2524000   0.87963457   -6.6145218    802.69794  0.026502177  0.026265721           10 
 2525000   0.85251573   -6.6226971    804.01668  0.026535204  0.026259037            8 
 2526000   0.83570522   -6.5945189    803.50981  0.026507977  0.026252358            7 
 2527000   0.85468732   -6.6575333    802.48034  0.026463538  0.026245649            9 
 2528000   0.86637664   -6.6378449    802.72197  0.026461035  0.026238954            7 
 2529000   0.83977491   -6.6213704     802.0207  0.026427465  0.026232284            8 
 2530000   0.85505252   -6.6285584    802.72891  0.026440346  0.026225648           11 
 2531000   0.84506762   -6.6220411    803.38505  0.026451503  0.026219001            8 
 2532000   0.82936936   -6.6280963    804.13468  0.026465728  0.026212377            8 
 2533000   0.83431547   -6.6564594    801.41295  0.026365737   0.02620567            9 
 2534000   0.84930581    -6.656533    803.76878  0.026432806  0.026198963            9 
 2535000   0.84003708   -6.6287285    805.27806  0.026471994  0.026192264            7 
 2536000    0.8566102    -6.628473    804.12216  0.026423573  0.026185538           16 
 2537000   0.84576543   -6.6222354    802.83393  0.026370842  0.026178838           19 
 2538000   0.83292265   -6.6189313    802.89513  0.026362462  0.026172137           11 
 2539000   0.84775942   -6.6465308    806.24448  0.026462009  0.026165442            6 
 2540000     0.841376   -6.6367778    803.85868  0.026373316  0.026158781            8 
 2541000   0.83648167   -6.6150416    803.70731  0.026357973  0.026152132           15 
 2542000   0.85569993   -6.6645759    804.93252  0.026387769  0.026145477           11 
 2543000    0.8471425   -6.6457494    805.34337  0.026390856  0.026138802           27 
 2544000   0.83107232   -6.6472389    802.84967  0.026298797  0.026132066            4 
 2545000   0.82497046   -6.6560585    806.38631  0.026404267   0.02612534            7 
 2546000   0.83060107   -6.6310358    805.24969  0.026356693  0.026118664           13 
 2547000   0.84169044   -6.6299202    804.39074  0.026318242  0.026111977            5 
 2548000   0.84224079   -6.6608098    805.05573  0.026329661  0.026105287           12 
 2549000      0.85975   -6.6132919    805.24946  0.026325665  0.026098591            5 
 2550000   0.82728763   -6.6176681    804.28384  0.026283786   0.02609196           16 
 2551000   0.83016908   -6.6350772    803.16457  0.026236919  0.026085262           21 
 2552000   0.82837457   -6.6566619    805.85704  0.026314558  0.026078569            8 
 2553000   0.85434282   -6.6566825    805.63444  0.026296985  0.026071884           10 
 2554000    0.8399241   -6.6353551    805.96368  0.026297431  0.026065206           11 
 2555000   0.85454308   -6.6499228    805.24594  0.026263729  0.026058517            8 
 2556000   0.84886019   -6.6372796     805.2855  0.026254744  0.026051902            9 
 2557000   0.85253556   -6.6742228    806.11038  0.026271359  0.026045263            8 
 2558000   0.83810754   -6.6293581    806.81753  0.026284126  0.026038609           15 
 2559000   0.83490751   -6.6344869    808.29982  0.026322125  0.026031989           10 
 2560000   0.83841404   -6.6338938    807.32772  0.026280199  0.026025337           15 
 2561000   0.84541286   -6.6504168     808.0233  0.026292571  0.026018686           19 
 2562000   0.84854033   -6.6524915    805.75625  0.026208569  0.026012008           20 
 2563000   0.83002956   -6.6305366    806.03665   0.02620746  0.026005347            9 
 2564000    0.8412901   -6.6479996    806.73229  0.026219848  0.025998664            8 
 2565000   0.83880069   -6.6914683    806.90376  0.026215197  0.025991952           14 
 2566000   0.82731771    -6.632279    807.25615  0.026216425  0.025985209           13 
 2567000   0.84928762   -6.6492569    806.01972  0.026166073  0.025978493           11 
 2568000   0.84369807   -6.6267396    806.88737   0.02618404  0.025971741           14 
 2569000   0.83897699   -6.6470258    806.34184  0.026156151  0.025965055           28 
 2570000   0.84582614   -6.6460874    806.42469   0.02614866   0.02595836           21 
 2571000   0.82409693   -6.6505917     805.8697  0.026120501  0.025951633           22 
 2572000   0.83569922   -6.6512566    807.02291   0.02614771  0.025944899            7 
 2573000   0.83535925   -6.6243699    808.29571   0.02617877  0.025938219           21 
 2574000   0.84665996   -6.6635509    807.95544  0.026157583  0.025931546           22 
 2575000   0.83064493   -6.6372861    810.62381   0.02623378  0.025924881           13 
 2576000   0.85968895   -6.6639661    807.72023  0.026129666  0.025918197           31 
 2577000   0.83613996   -6.6634312     808.3159  0.026138789  0.025911489           23 
 2578000   0.83730905   -6.6551798    808.02169  0.026119139  0.025904758           33 
 2579000   0.83521779   -6.6473104     808.5074  0.026124706  0.025898104           19 
 2580000   0.83604239   -6.6086512    808.95884  0.026129162  0.025891441           15 
 2581000   0.82572355   -6.6531036     806.3541  0.026034938  0.025884812           16 
 2582000   0.85531557    -6.638105    807.86282  0.026073548  0.025878144           16 
 2583000   0.84750254   -6.6302647    808.46459  0.026082869   0.02587145            7 
 2584000   0.83733584   -6.6746236    806.61532  0.026013136  0.025864704           16 
 2585000     0.830863   -6.6384252    807.48561  0.026031128  0.025857969           14 
 2586000   0.84196391    -6.675395    807.79527  0.026031041  0.025851249           19 
 2587000   0.84274309   -6.6467274    808.09847  0.026030746  0.025844506           24 
 2588000   0.83023469   -6.6769972    808.64588  0.026038314   0.02583778           38 
 2589000   0.83510013   -6.6743072    810.81794   0.02609817  0.025831071           10 
 2590000   0.83061266   -6.6461096    808.66486  0.026018818   0.02582434           18 
 2591000   0.83155248   -6.6665346    809.13437  0.026023876  0.025817591           14 
 2592000   0.83895625   -6.6459209    812.01128   0.02610633  0.025810848           15 
 2593000   0.84378965   -6.6529049      810.671  0.026053188  0.025804173            6 
 2594000   0.84973222   -6.6190093    812.42669  0.026099547  0.025797541           15 
 2595000   0.83612898    -6.640075    808.97677  0.025978702  0.025790935           17 
 2596000    0.8415692   -6.6376308    811.06231  0.026035642  0.025784292           12 
 2597000   0.82004875   -6.6621334    811.24822  0.026031582  0.025777611           15 
 2598000   0.82771987   -6.6532193    809.64907  0.025970268  0.025770965           14 
 2599000   0.85755801   -6.6643983    809.89097  0.025968032  0.025764288           18 
 2600000   0.82784908   -6.6750514    810.14881  0.025966308  0.025757595           22 
 2601000   0.85536365   -6.6764207    810.05291  0.025953252  0.025750886           15 
 2602000   0.84765413   -6.6252166    810.25201  0.025949655  0.025744179           10 
 2603000   0.81312197   -6.6855312     808.7798  0.025892554  0.025737503           11 
 2604000   0.80482954   -6.6506508    809.16935  0.025895076  0.025730771            8 
 2605000   0.83798159   -6.6568434      808.713  0.025870538  0.025724027           17 
 2606000   0.82200124   -6.6414734    811.46401  0.025948581  0.025717327           56 
 2607000   0.83227381   -6.6257263    811.59845  0.025942924    0.0257107           17 
 2608000   0.83034103   -6.6737321    812.76659  0.025970302  0.025704028            9 
 2609000     0.824799   -6.6607494    810.88886  0.025900372  0.025697306           14 
 2610000   0.83524087   -6.6575611    809.83014  0.025856646  0.025690646            9 
 2611000   0.82652066   -6.6646271    812.32638  0.025926413   0.02568398           14 
 2612000   0.83023756   -6.6398799    813.85323    0.0259652  0.025677353           11 
 2613000   0.82925412   -6.6454651    811.75435  0.025888326  0.025670709            6 
 2614000   0.83425674   -6.6548561    811.38965  0.025866796  0.025664071           18 
 2615000   0.83106831   -6.6708783    809.17017  0.025786175  0.025657416           18 
 2616000   0.83117117    -6.668309    812.51054  0.025882726  0.025650752           30 
 2617000   0.82903441   -6.6639161    814.23391  0.025927713   0.02564413           11 
 2618000   0.84676709   -6.6666021    814.02302  0.025911097  0.025637501            8 
 2619000   0.83774255   -6.6505465    813.01787  0.025869221  0.025630855           18 
 2620000   0.82743208   -6.6505992    813.80208   0.02588429  0.025624258           14 
 2621000   0.84766644   -6.6523924      813.522  0.025865509  0.025617629           14 
 2622000   0.85465262   -6.6496307    814.75609  0.025894867   0.02561111           10 
 2623000   0.84069109   -6.6806385     814.7976  0.025886313  0.025604574            9 
 2624000   0.83871889   -6.6911982    812.97238  0.025818483  0.025598007           18 
 2625000   0.81771491   -6.6445596     813.9172  0.025838641  0.025591446           20 
 2626000   0.83616837   -6.6826263    815.28729   0.02587228  0.025584914           20 
 2627000   0.82375578   -6.6595244    814.76169  0.025845759  0.025578377           18 
 2628000   0.86123653   -6.6677207    814.43564  0.025825585  0.025571792           27 
 2629000   0.83778004   -6.6649199    816.32835  0.025875756  0.025565276           14 
 2630000   0.82489631   -6.6527317    815.15076  0.025828605  0.025558746           15 
 2631000   0.82965105   -6.6456027     813.3121  0.025760551  0.025552222           28 
 2632000   0.84056713   -6.6532056    813.11249  0.025744443  0.025545681            9 
 2633000   0.83109962   -6.6722725    815.10312  0.025797668  0.025539111           15 
 2634000   0.83328133   -6.6765206    811.93732  0.025687716  0.025532511           18 
 2635000   0.84077093   -6.6567914    815.83859  0.025801347  0.025525928            8 
 2636000   0.82474684   -6.6697241    813.69022  0.025723641  0.025519362           12 
 2637000   0.83551534   -6.6494774     814.0018  0.025723733  0.025512764           20 
 2638000   0.82266045    -6.682062    813.23936  0.025689896  0.025506124           27 
 2639000   0.84405588    -6.667485    816.59083  0.025785993  0.025499515            9 
 2640000   0.82419249   -6.6842419    816.64005  0.025777779  0.025492926           22 
 2641000   0.83230873   -6.6483796    816.03473  0.025748919  0.025486339           12 
 2642000   0.84466778   -6.6541518     817.6295  0.025789475  0.025479781           10 
 2643000   0.83613971   -6.6628925    814.33857  0.025675954  0.025473207           14 
 2644000   0.82307141   -6.6665699    814.49711   0.02567124  0.025466546           16 
 2645000   0.81294269   -6.6502225    815.59959  0.025696269   0.02545987           14 
 2646000   0.82367451   -6.6663128    814.71522  0.025658705  0.025453218           21 
 2647000   0.82218784   -6.6634601    816.36849  0.025701061  0.025446598           10 
 2648000   0.83564617    -6.663418    816.08341  0.025682383  0.025439947           12 
 2649000   0.81236773   -6.6852921    815.53018  0.025655284  0.025433329           22 
 2650000   0.81967928   -6.6627441     815.1671  0.025634185  0.025426662           13 
 2651000   0.82541714   -6.7135741    814.67269  0.025608974  0.025419994           20 
 2652000   0.84580854   -6.6532935    815.17018   0.02561495  0.025413352           27 
 2653000   0.79788275    -6.680021    814.56015  0.025586134  0.025406724           20 
 2654000   0.82206712   -6.6766611    815.10412  0.025593573  0.025400094           11 
 2655000   0.82381437    -6.676703     817.5977    0.0256622   0.02539345            8 
 2656000   0.82603276    -6.651077    815.54421  0.025588109  0.025386815           13 
 2657000   0.82648521   -6.6875876    817.53473  0.025640909  0.025380224           14 
 2658000   0.81806688   -6.6990552    818.05949  0.025647714  0.025373629           13 
 2659000   0.80928564   -6.6975954    814.53391  0.025527576  0.025367014           35 
 2660000   0.82809952   -6.6812438    819.62506  0.025677477  0.025360397           25 
 2661000   0.83885134   -6.6896469    817.22055  0.025592526  0.025353827           11 
 2662000   0.83616312   -6.6855558    818.36631   0.02561878  0.025347264            7 
 2663000   0.83295874   -6.6510285    819.30052  0.025638394  0.025340731            6 
 2664000   0.83215429   -6.6591017    817.49879  0.025572409  0.025334201           18 
 2665000   0.82722047   -6.6857643    819.78894  0.025634426  0.025327671           11 
 2666000    0.8285996   -6.6764003    818.27826   0.02557759  0.025321121           11 
 2667000   0.82050713   -6.6574585    817.53595  0.025544805  0.025314535           26 
 2668000    0.8358984   -6.6669827    819.58023  0.025599083  0.025307969            7 
 2669000   0.82142507    -6.646904    818.33386  0.025550577   0.02530141           18 
 2670000   0.81222695   -6.6621293    817.94743  0.025528946  0.025294835           15 
 2671000   0.83377092   -6.6786355    818.63331  0.025540787  0.025288266           14 
 2672000   0.82422575   -6.6919712    818.06999   0.02551366  0.025281721           18 
 2673000    0.8053952   -6.6929551    820.12846   0.02556829  0.025275151           23 
 2674000   0.82857829   -6.6616584     819.3056  0.025533084  0.025268613            9 
 2675000   0.82873077   -6.6956091    820.12668  0.025549118   0.02526215            8 
 2676000   0.82788306   -6.6649215    819.68237  0.025525734  0.025255608            6 
 2677000   0.81026139   -6.7063836    819.47332  0.025509691  0.025249043           16 
 2678000   0.82547289   -6.6618277    817.93949  0.025452436  0.025242504           24 
 2679000   0.82136695   -6.7016513    819.80231  0.025500881  0.025235915           15 
 2680000   0.82748586   -6.6914385    820.14187  0.025501924  0.025229339           14 
 2681000   0.82721411   -6.6826041     818.6074  0.025444716  0.025222773           14 
 2682000   0.82592532   -6.6582583    821.82389  0.025535169  0.025216204            8 
 2683000   0.81970709   -6.7086409    819.22104  0.025444808  0.025209693           13 
 2684000   0.82939791   -6.6865579    820.11746   0.02546316  0.025203153           10 
 2685000    0.8210743    -6.700099    819.07539  0.025421334  0.025196595           10 
 2686000   0.82303867   -6.6901093    820.18636  0.025446338  0.025189999           20 
 2687000   0.83185769   -6.6996451     820.1291  0.025435092  0.025183427           14 
 2688000   0.84656101   -6.6588594      823.618  0.025533792  0.025176892           15 
 2689000   0.83429962   -6.6658323    820.15305  0.025416916  0.025170391           33 
 2690000   0.82552697   -6.6751549    820.52099  0.025418866   0.02516386           13 
 2691000   0.80058318   -6.7071143    818.66781  0.025352032  0.025157316           10 
 2692000    0.8311924   -6.7094944    820.45281  0.025397871  0.025150733           34 
 2693000   0.80817732   -6.6971333    819.78374  0.025367735  0.025144126           10 
 2694000     0.834812    -6.678542    821.54881  0.025412918   0.02513754            5 
 2695000   0.81464749   -6.6803429    820.55253  0.025372682  0.025130975            8 
 2696000   0.81455492   -6.6616394    820.61748  0.025365278  0.025124409            9 
 2697000   0.80595216   -6.6643427    821.87691  0.025394788  0.025117909           15 
 2698000    0.8310374   -6.6840774    822.18954  0.025395032  0.025111371           13 
 2699000   0.79608555   -6.6772022    821.86644  0.025375647  0.025104836           20 
 2700000   0.81369577   -6.6860726    822.33939  0.025380845  0.025098289           10 
 2701000   0.82066617    -6.697326    821.28109  0.025338797  0.025091723           29 
 2702000   0.83424354   -6.6922758    821.07706  0.025323127   0.02508516           15 
 2703000   0.79284123   -6.6980011    821.36221  0.025322549  0.025078617           20 
 2704000   0.82297386   -6.6668329    821.58847  0.025320157  0.025072071           19 
 2705000   0.80192089   -6.7047561    822.90016  0.025351206   0.02506557           10 
 2706000   0.82670443   -6.6977092    822.70297  0.025335765  0.025059006           13 
 2707000   0.83454862   -6.6832623    824.18532  0.025372039  0.025052496           14 
 2708000   0.80892087   -6.6980349    822.92719  0.025323954  0.025045984            8 
 2709000   0.81981744   -6.6696856    825.07722  0.025380744  0.025039488           12 
 2710000    0.8251159   -6.6857158    824.05086  0.025339817  0.025032994           25 
 2711000   0.83045225   -6.6839205    822.66255  0.025287795  0.025026455           18 
 2712000   0.80071875   -6.7119146    822.18755  0.025263875  0.025019899           13 
 2713000   0.83013346   -6.7044269    822.34535   0.02525941   0.02501329            9 
 2714000     0.801795   -6.6842461    822.62955  0.025258829   0.02500676           16 
 2715000   0.81531912   -6.6929767    821.54298  0.025216175  0.025000201           13 
 2716000   0.81838978   -6.7043209    821.70875  0.025211977   0.02499362           17 
 2717000   0.82824026   -6.6999337    822.34484  0.025222207  0.024987034            9 
 2718000   0.81397288   -6.6963343    822.92974   0.02523086  0.024980422           12 
 2719000   0.81983004   -6.6959211    825.42692  0.025298116  0.024973842            8 
 2720000   0.82538023   -6.7274506    825.11662  0.025279308  0.024967266           17 
 2721000   0.81457339   -6.7202335    823.01712  0.025205718  0.024960682           14 
 2722000   0.81509046   -6.6946972    821.24424  0.025142182  0.024954081           16 
 2723000   0.83205521   -6.7094888    822.62402  0.025175175  0.024947517           10 
 2724000   0.82492758    -6.730775    823.00869  0.025177701  0.024940909           23 
 2725000   0.80470781   -6.7148894     822.8334  0.025163101  0.024934309            8 
 2726000   0.81857082   -6.7167458    823.85383  0.025185065  0.024927705           18 
 2727000   0.82012509   -6.7016107    825.62445  0.025229937  0.024921114           13 
 2728000   0.80195961    -6.705794    823.13964  0.025144784  0.024914537           22 
 2729000   0.81502327   -6.6923886    825.40318   0.02520469  0.024907943           17 
 2730000   0.83476018   -6.7267484    824.38137  0.025164267  0.024901346           39 
 2731000   0.80966395   -6.6847956    824.47862   0.02515802  0.024894786           15 
 2732000   0.83122195   -6.6800385     823.1106  0.025107083  0.024888229            7 
 2733000   0.81684854   -6.6920706    824.24675  0.025132539  0.024881673           13 
 2734000   0.80287644   -6.6718225    827.51662  0.025223013  0.024875133            9 
 2735000   0.82732503   -6.7060053    823.99123  0.025106375  0.024868582           14 
 2736000   0.82584619   -6.7112875    824.46633  0.025111669  0.024862004           13 
 2737000   0.78964951   -6.7152109    826.34359  0.025159651  0.024855405           20 
 2738000   0.83920997   -6.6991829    824.50043  0.025094364  0.024848853            9 
 2739000   0.83781286   -6.7171851    824.46621  0.025084161  0.024842287           11 
 2740000   0.82175412   -6.6847043     828.6407  0.025201968  0.024835756            6 
 2741000   0.81180689    -6.703989    825.00477  0.025082232  0.024829193           10 
 2742000   0.81316473   -6.7045272    824.16382  0.025047527  0.024822621           11 
 2743000   0.80935942   -6.6862383    825.67847  0.025084411  0.024816086           12 
 2744000   0.83437406   -6.7100368    826.28864    0.0250938  0.024809558            7 
 2745000   0.79812359   -6.6812887    825.81697  0.025070339  0.024803002           21 
 2746000   0.79926607   -6.6654534    824.28359  0.025014675  0.024796422           11 
 2747000   0.80579302   -6.6719003    824.73196  0.025019171  0.024789861           11 
 2748000   0.81710926   -6.7029829    825.28844  0.025026942  0.024783337           21 
 2749000   0.78726632   -6.6939445    824.86231   0.02500492  0.024776768           16 
 2750000   0.80498837   -6.6985513     826.8303  0.025055463  0.024770197           23 
 2751000   0.79148751   -6.6881902    826.90674  0.025048671  0.024763626           20 
 2752000   0.81778505   -6.6969546    826.14575  0.025016526  0.024757092           19 
 2753000   0.80799937    -6.716445    824.67569   0.02496294  0.024750558           13 
 2754000   0.81230457   -6.7209286     825.2087  0.024970004  0.024743957           23 
 2755000    0.8136105   -6.6730842    825.70621  0.024975989  0.024737393           21 
 2756000   0.81346848    -6.685315    823.97813  0.024914675  0.024730841           12 
 2757000   0.82382226   -6.7204287    826.53784  0.024983008  0.024724301           19 
 2758000   0.81335859   -6.6811059     827.8993  0.025015086  0.024717774            9 
 2759000   0.79725183   -6.6972834    826.38915  0.024960407  0.024711279           14 
 2760000    0.8201504   -6.6631513    826.56115  0.024956556  0.024704786            8 
 2761000   0.81592471    -6.698069    826.68611  0.024951289  0.024698308           11 
 2762000   0.79242137   -6.7146088    828.15735  0.024986645  0.024691822            6 
 2763000   0.79549671    -6.716374    827.73441  0.024964845  0.024685311           38 
 2764000   0.81554035   -6.7322724    829.25337  0.025001609  0.024678814           10 
 2765000   0.80503707   -6.7062358     827.5552  0.024941386  0.024672297           11 
 2766000   0.81614446   -6.7038676    827.95414  0.024944388   0.02466582           20 
 2767000   0.80413453   -6.6954155    827.72072  0.024928344  0.024659337           28 
 2768000   0.82702354   -6.7041012    828.66013   0.02494762  0.024652864           16 
 2769000   0.80724973    -6.715653    827.09739  0.024891579  0.024646394           21 
 2770000   0.80743527   -6.6848954    828.61725  0.024928317  0.024639917           15 
 2771000   0.80425203   -6.6809667    827.84746   0.02489617   0.02463345           11 
 2772000   0.81158165   -6.6926107    829.41949  0.024934448  0.024626947           15 
 2773000   0.80292245   -6.7240557    829.46762  0.024926903  0.024620453           39 
 2774000   0.81003229   -6.7210529    828.58589  0.024891429  0.024613918           10 
 2775000   0.80911254   -6.6990167    829.37127  0.024906044  0.024607396           14 
 2776000   0.80451917   -6.7492445    829.18448  0.024891465  0.024600849           25 
 2777000   0.81616523   -6.7226133    827.03943  0.024818132  0.024594329           48 
 2778000   0.81581658   -6.7368745     828.8854  0.024864573  0.024587786           10 
 2779000   0.80649282   -6.7222483    828.15567  0.024833743  0.024581271           25 
 2780000   0.80569513   -6.7536672    829.02121  0.024850756  0.024574768           14 
 2781000   0.80102303   -6.7154561    829.14182  0.024845434   0.02456821           12 
 2782000   0.81973425   -6.6957573    829.77639  0.024855511  0.024561736           28 
 2783000    0.8106642   -6.7131651    828.66512  0.024813305  0.024555278           13 
 2784000   0.79085542   -6.6962742    828.44842  0.024797905  0.024548787           14 
 2785000   0.80418552   -6.7028059    829.52502  0.024821216  0.024542301           10 
 2786000   0.80174329   -6.7056215    830.23046  0.024833407  0.024535755            9 
 2787000   0.80496793   -6.7035657     829.6203  0.024806252  0.024529263           11 
 2788000   0.79306858   -6.6858247    829.66841  0.024798793   0.02452275           11 
 2789000   0.79185915   -6.7428607    830.81794  0.024824248  0.024516223           25 
 2790000   0.81473207   -6.6858476    829.40582  0.024773173  0.024509694           22 
 2791000   0.79527108   -6.7070032    828.92256  0.024749867  0.024503205            9 
 2792000   0.80303222   -6.7076095    829.37355  0.024754464  0.024496691           12 
 2793000     0.784574   -6.6972693    829.51491  0.024749818  0.024490214            9 
 2794000   0.80736943   -6.7171931     831.3717   0.02479634  0.024483694           27 
 2795000   0.79136393    -6.725434    830.27365   0.02475473  0.024477195           28 
 2796000   0.80366344    -6.753337    828.81034  0.024702263   0.02447066           54 
 2797000   0.80373522   -6.7253546    829.80431  0.024723046  0.024464107           50 
 2798000   0.80279677   -6.7304641    830.30726  0.024729189  0.024457619           55 
 2799000   0.79906326    -6.720365    831.02429  0.024741702  0.024451117            8 
 2800000   0.80710065   -6.6859098    830.44395  0.024715594  0.024444636           12 
 2801000   0.81638589   -6.7145941    830.87638  0.024719635  0.024438162           16 
 2802000   0.81210147   -6.6917756    831.25283  0.024722009  0.024431689           14 
 2803000   0.79251784   -6.7167934    829.11512  0.024649635  0.024425172           13 
 2804000   0.80176839   -6.7396053    832.69916   0.02474736  0.024418643           23 
 2805000   0.80831656   -6.7097433    832.59151  0.024735339  0.024412144           17 
 2806000   0.80302116   -6.6939816    831.57397  0.024696305  0.024405645           14 
 2807000   0.81200569    -6.743984    831.51837  0.024685856  0.024399119           11 
 2808000    0.8048736   -6.7002843    832.32974  0.024701144  0.024392587            7 
 2809000   0.81925189    -6.721811    830.56919  0.024640121  0.024386092            9 
 2810000   0.82171271   -6.7452204    831.68747  0.024664516  0.024379603           13 
 2811000   0.80800955   -6.7155238    829.49844  0.024590847  0.024373096           10 
 2812000   0.79306082    -6.709389    833.06309   0.02468774  0.024366587           10 
 2813000   0.79927152   -6.7244272     833.7394  0.024698999   0.02436007            5 
 2814000   0.81096781    -6.723997    833.88359  0.024694491  0.024353547           12 
 2815000   0.80552358   -6.7439835      831.891  0.024626732   0.02434706           20 
 2816000   0.81626415   -6.7416448    832.86286  0.024646746  0.024340587           17 
 2817000   0.78280089   -6.7050902    833.22741  0.024648781  0.024334099           27 
 2818000   0.80916239   -6.7170331    834.46859  0.024676739  0.024327673           15 
 2819000   0.79551664   -6.7338657    834.98171  0.024683153  0.024321254           13 
 2820000   0.79194068   -6.7138076    834.30206  0.024654316  0.024314802           23 
 2821000   0.80696354   -6.7276964    832.64635  0.024596666  0.024308316           12 
 2822000   0.78148236   -6.7587204    833.29174  0.024607009  0.024301831           18 
 2823000   0.78797733   -6.7288677    832.71981  0.024581409   0.02429535           32 
 2824000   0.80777508   -6.7310773    831.83565  0.024546614  0.024288848           57 
 2825000   0.78236287   -6.7275717    832.83422  0.024567381  0.024282386           30 
 2826000   0.79813282   -6.7324328    833.80657  0.024587361   0.02427591           30 
 2827000   0.79711648   -6.7322289    833.64941   0.02457403  0.024269488           17 
 2828000   0.80761599    -6.714169     834.6637  0.024595229  0.024263037           10 
 2829000   0.80865002   -6.7322599    834.48448  0.024581256  0.024256648           11 
 2830000   0.80857638    -6.720267    833.14393  0.024533096  0.024250244           10 
 2831000   0.81069139   -6.7237422     833.0506  0.024521683  0.024243836           13 
 2832000   0.79160503   -6.7296181    836.46181  0.024613401   0.02423741           20 
 2833000   0.80618506   -6.7579067    833.09521  0.024505683  0.024230939           21 
 2834000   0.80706643   -6.7476708    833.90746   0.02452092  0.024224494           18 
 2835000   0.79454874   -6.7190608    835.13658    0.0245484  0.024218051           25 
 2836000    0.7968056   -6.7200545    835.50942    0.0245507   0.02421166           14 
 2837000   0.79988487   -6.7503342    833.96708  0.024496742  0.024205222           26 
 2838000    0.7977339   -6.7356475    835.53508  0.024534152  0.024198818           33 
 2839000    0.8104859   -6.7271953    836.30307  0.024548053  0.024192453           17 
 2840000   0.80613409   -6.7504962    836.21543  0.024536838  0.024186098           39 
 2841000   0.77985589   -6.7173853    834.64916  0.024482259   0.02417969           16 
 2842000   0.80630931   -6.7334382    833.40062  0.024437034  0.024173287           12 
 2843000   0.79603217   -6.7136206     836.4223   0.02451701  0.024166886           17 
 2844000     0.790525   -6.7545756    836.17899   0.02450126  0.024160531           21 
 2845000   0.79327691   -6.6999557    836.73839  0.024509033  0.024154146           11 
 2846000   0.79477141   -6.7296563    835.49606  0.024464045  0.024147786           11 
 2847000   0.79048156   -6.7245164    835.70514  0.024461572  0.024141424           18 
 2848000   0.81428543   -6.7150261    836.99436  0.024490706  0.024135077           30 
 2849000    0.7999945   -6.7533146    836.81897  0.024476979  0.024128702           37 
 2850000   0.80042852   -6.7409858     834.6242  0.024404216  0.024122308           24 
 2851000   0.80076743   -6.7414641    836.81086  0.024459572  0.024115938           10 
 2852000   0.78260705   -6.7248688     837.6663  0.024475991  0.024109614           20 
 2853000   0.79405797   -6.7420936    837.48409  0.024462089  0.024103301           23 
 2854000   0.79128152   -6.7327646    836.94188  0.024437686  0.024096965           18 
 2855000   0.78506846    -6.710604    837.25755  0.024438341  0.024090642           17 
 2856000   0.79502221   -6.7324378    838.30417  0.024460323  0.024084287           27 
 2857000   0.80795046   -6.7023885    837.60146  0.024431264  0.024077983           10 
 2858000   0.78906546   -6.7184699    837.62275  0.024423337  0.024071693           23 
 2859000   0.81096006   -6.7183799    838.48147  0.024439824  0.024065428            9 
 2860000   0.79826985   -6.7113001    838.55078  0.024433298  0.024059113           11 
 2861000   0.79511643   -6.6943746    836.40148  0.024362154  0.024052775            8 
 2862000   0.80282156   -6.7507538     837.8851  0.024396841  0.024046413           11 
 2863000   0.79845131   -6.7423684    835.69421  0.024324549  0.024040049           15 
 2864000   0.79765699   -6.7009254    839.55504  0.024428394  0.024033747           13 
 2865000   0.80262282   -6.7148323    837.95157  0.024373228  0.024027444            8 
 2866000   0.82074906   -6.7214927    837.31327  0.024346164  0.024021147           13 
 2867000   0.78110164   -6.7368497    838.20014   0.02436345  0.024014816           20 
 2868000   0.79752168   -6.7403561    837.18621  0.024325494  0.024008478           27 
 2869000   0.77485204   -6.7295498    837.73986  0.024333097  0.024002112           30 
 2870000   0.78356313   -6.7407722    837.07831   0.02430541  0.023995724           18 
 2871000   0.79750493    -6.731094    839.04512  0.024354032  0.023989349           11 
 2872000   0.78791785   -6.7274442    838.03976  0.024316381  0.023982974           26 
 2873000   0.79047799   -6.7393219    839.81445  0.024359393  0.023976634            9 
 2874000   0.78489085   -6.7390015    839.13333  0.024331168  0.023970302           10 
 2875000   0.80688318   -6.7177803    839.19064  0.024324366  0.023963978           26 
 2876000   0.80313623   -6.7284322    839.54174  0.024326082  0.023957668           34 
 2877000   0.77726129   -6.7328005    838.74371  0.024294511  0.023951353           35 
 2878000    0.7856096   -6.7391238    840.15031  0.024326798  0.023945001           33 
 2879000   0.77939714    -6.715555    839.16175  0.024289735  0.023938645           35 
 2880000   0.79755134   -6.7339708    838.52631  0.024262914  0.023932297           26 
 2881000   0.79333829   -6.7640955    840.10934  0.024300282  0.023925952           27 
 2882000   0.79736989   -6.7588556    837.02696  0.024202723  0.023919612           22 
 2883000   0.80737076   -6.7505403    840.28995  0.024288645  0.023913233           11 
 2884000   0.78499029    -6.747504    840.05567  0.024273453  0.023906899           11 
 2885000   0.81492009   -6.7545294    840.25355  0.024270755  0.023900588            9 
 2886000    0.8091968   -6.7514491    838.20986  0.024203334  0.023894244           36 
 2887000    0.8029631   -6.7403782    838.58247  0.024205706  0.023887868           31 
 2888000   0.80728991   -6.7557263    840.93081  0.024265086  0.023881473           17 
 2889000   0.79077175    -6.751393    838.18486   0.02417748   0.02387509           22 
 2890000   0.78532716   -6.7361308    839.96075  0.024220321  0.023868704           26 
 2891000   0.79927314   -6.7227855    839.36827  0.024194866  0.023862367           10 
 2892000   0.79324537   -6.7177035     838.8144  0.024170539  0.023856006           10 
 2893000   0.78260945    -6.727058    840.68387  0.024216035  0.023849645           34 
 2894000   0.80213395   -6.7294186    839.30251  0.024167891  0.023843263           25 
 2895000   0.80348479   -6.7488287    839.67146  0.024170163  0.023836918           26 
 2896000   0.79868497   -6.7241026    840.71962  0.024191978  0.023830594            8 
 2897000   0.80647882   -6.7238428     841.1652  0.024196445  0.023824295           10 
 2898000   0.79179475    -6.736676    840.88913  0.024180157  0.023818009           10 
 2899000   0.78152632   -6.7693027    840.43885  0.024158872   0.02381168            8 
 2900000   0.78891755   -6.7630386      840.723  0.024158707  0.023805362           33 
 2901000   0.78112332    -6.770409    840.63306  0.024147796  0.023799032           17 
 2902000    0.7980336   -6.7465407    841.82312  0.024173648  0.023792716           10 
 2903000     0.770819   -6.7435494    840.80283  0.024136033  0.023786413           17 
 2904000   0.81048478   -6.7248666    840.73296  0.024125716  0.023780125           10 
 2905000   0.80254165   -6.7574881    841.05222   0.02412657  0.023773829           24 
 2906000   0.77751606   -6.7348243    842.34745   0.02415541  0.023767516           15 
 2907000   0.76858867    -6.764506    840.93788  0.024106693  0.023761189           10 
 2908000   0.77153912   -6.7582153    841.09204  0.024102821  0.023754881           11 
 2909000   0.78938597   -6.7449966    841.61889  0.024109628  0.023748601           21 
 2910000   0.79415057   -6.7648835     842.0373  0.024113325  0.023742322           13 
 2911000   0.79115712   -6.7620933    841.01252  0.024075705  0.023736054           23 
 2912000   0.78240227   -6.7452849    843.11517  0.024127609  0.023729786           15 
 2913000   0.79415089   -6.7434447    842.61416  0.024104994  0.023723473           14 
 2914000   0.78879383   -6.7654657    842.61568  0.024096765  0.023717162           19 
 2915000   0.77393392   -6.7474527    841.59247  0.024059247  0.023710916           27 
 2916000   0.77595633   -6.7387075    843.82949  0.024114926  0.023704638            9 
 2917000    0.7978518   -6.7521206    841.46106  0.024038997  0.023698344            9 
 2918000   0.76410804   -6.7331347    842.48179  0.024059909  0.023692054            6 
 2919000   0.79904234     -6.73937    842.78224  0.024060244  0.023685772            8 
 2920000   0.77993033   -6.7578284    841.94489  0.024028108  0.023679495           23 
 2921000   0.80116175   -6.7476898    842.35599   0.02403161  0.023673223           25 
 2922000   0.78522151   -6.7619035    841.73016  0.024005537  0.023666931           13 
 2923000   0.79319097   -6.7499235    843.42176  0.024045551  0.023660653           14 
 2924000   0.78063539   -6.7643522    843.30776  0.024034079  0.023654344           15 
 2925000   0.77443635   -6.7426353      843.797  0.024039801  0.023648083           14 
 2926000   0.80050651   -6.7575826    842.37253  0.023991015  0.023641801           16 
 2927000   0.78941837   -6.7628883    842.89731   0.02399776  0.023635464           12 
 2928000   0.77901436   -6.7451025    843.19415  0.023998012  0.023629111           18 
 2929000   0.78327605   -6.7429153    842.58929   0.02397261  0.023622785           11 
 2930000   0.77651491   -6.7686987    840.85622  0.023915137  0.023616447           15 
 2931000   0.78975775   -6.7641004     842.5179  0.023954222  0.023610123           39 
 2932000    0.7710906    -6.773512    842.27143  0.023939047  0.023603791           65 
 2933000   0.77403789   -6.7472965     843.6959  0.023971358  0.023597468           63 
 2934000    0.7833563   -6.7662019    843.58956  0.023960167  0.023591133           59 
 2935000   0.77491682   -6.7628782     842.6629  0.023925693  0.023584773           93 
 2936000   0.78127412   -6.7520464    842.48548  0.023912508  0.023578394           24 
 2937000   0.78745873   -6.7539667    844.17016  0.023952167   0.02357203           34 
 2938000   0.77085032     -6.76659    843.06606  0.023912697   0.02356569           22 
 2939000   0.78128969     -6.77687    841.51581  0.023860605   0.02355933           21 
 2940000   0.78740958   -6.7778441    842.06551   0.02386807  0.023552953           27 
 2941000   0.79425979    -6.784426    841.20213   0.02383549  0.023546583           16 
 2942000   0.79032018   -6.8014806    842.73868  0.023870912   0.02354021           14 
 2943000   0.77333589   -6.7836605    841.94255  0.023840258  0.023533878           34 
 2944000   0.79099697   -6.7624007    843.21601  0.023868207  0.023527566           31 
 2945000    0.7770545   -6.7680649    843.56728  0.023870042  0.023521235           21 
 2946000   0.78108377   -6.7747163     843.8787  0.023870749  0.023514902           16 
 2947000   0.78150849   -6.7866558    843.08543  0.023840217  0.023508557           19 
 2948000   0.76047483   -6.7632011    844.07024  0.023859968  0.023502242           13 
 2949000   0.79288384   -6.7594132     845.5953  0.023894973  0.023495934           14 
 2950000   0.77914354   -6.7583848     844.5245  0.023856624  0.023489603           20 
 2951000   0.76892013    -6.765231    841.77232  0.023770821  0.023483269           14 
 2952000   0.78378153   -6.7628906    842.29737  0.023777591  0.023476963           23 
 2953000    0.7789981   -6.7666861    843.73265  0.023810042  0.023470641           37 
 2954000   0.77307831   -6.7623922    846.05974   0.02386763  0.023464314           41 
 2955000   0.78311413   -6.7803257    842.93732  0.023771498  0.023457958           38 
 2956000   0.78523928   -6.7700246     843.7523  0.023786432  0.023451619           33 
 2957000   0.77667298   -6.7724548    843.18602  0.023762429  0.023445248           43 
 2958000   0.77609818   -6.7633502    843.37113   0.02375961  0.023438885           66 
 2959000   0.78963402    -6.797687     844.2097  0.023775197   0.02343252           25 
 2960000   0.76442105   -6.7654722    842.56732  0.023720927  0.023426162           28 
 2961000   0.76201943   -6.7525347    844.60786  0.023770344  0.023419839           16 
 2962000   0.79014212   -6.7637449    844.53774  0.023760346  0.023413518           14 
 2963000    0.7783367   -6.7696637    846.10399  0.023796377  0.023407214           27 
 2964000   0.77945812   -6.7540271    847.17391   0.02381843  0.023400956            9 
 2965000   0.76265352   -6.7722177    844.22576  0.023727537  0.023394654           17 
 2966000   0.78485009   -6.7830322    846.30541  0.023777967  0.023388344           17 
 2967000   0.76248114   -6.7493778     845.5534  0.023748832  0.023382053           22 
 2968000   0.76412237   -6.7584315    846.90809  0.023778866  0.023375823           41 
 2969000   0.77165109    -6.745421    846.06211  0.023747112  0.023369529           28 
 2970000   0.78288459   -6.7709461    845.94226  0.023735754  0.023363242           11 
 2971000   0.77165441   -6.7612336    843.88994  0.023670199  0.023356978           36 
 2972000    0.7909075   -6.7844293    846.86198  0.023745569  0.023350676           32 
 2973000   0.75606796   -6.7800345     845.4879  0.023699067  0.023344412           32 
 2974000   0.77917993   -6.7580714    846.15989  0.023709928  0.023338152           54 
 2975000   0.76426878   -6.7715684     848.2446  0.023760353  0.023331905           24 
 2976000   0.81002931   -6.7459082    846.96547  0.023716551  0.023325678           40 
 2977000   0.77940927    -6.789135    845.51102  0.023667871  0.023319436           71 
 2978000   0.78913325   -6.7993173    847.78026  0.023723423  0.023313172           98 
 2979000   0.76713784   -6.7939818    845.89954  0.023662849  0.023306879           76 
 2980000   0.78162717   -6.7925276    844.23944  0.023608485   0.02330055           46 
 2981000   0.77608139   -6.7624573    845.58104   0.02363807   0.02329423           37 
 2982000   0.76847666   -6.7628019    847.25124  0.023676817  0.023287925           60 
 2983000   0.75965864   -6.7778004    846.94114  0.023660217  0.023281597           14 
 2984000   0.77721879   -6.7770656    846.00645  0.023626185  0.023275315           54 
 2985000   0.78099672   -6.7782527    846.07082  0.023620068   0.02326902           40 
 2986000   0.78039902   -6.7923174    846.09306  0.023612778   0.02326271           38 
 2987000   0.77460154   -6.7693025     848.4821  0.023671524  0.023256412           35 
 2988000   0.77241662   -6.7745704    846.11816  0.023597673  0.023250133           15 
 2989000    0.7862887   -6.7766821    847.12683    0.0236179  0.023243874           29 
 2990000   0.78112809   -6.7855172    845.69906  0.023570208   0.02323759           37 
 2991000   0.76749636    -6.752369    848.12916  0.023630033  0.023231322           32 
 2992000   0.75523128   -6.7668944    847.57735  0.023606767  0.023225029           42 
 2993000   0.76228065   -6.7682861    846.43543  0.023567085  0.023218753           35 
 2994000   0.77106437   -6.7782038    847.52664  0.023589586  0.023212477           40 
 2995000   0.77355942   -6.7924595    848.86107  0.023618839  0.023206229           41 
 2996000   0.77242428   -6.7945106    846.97916   0.02355861  0.023199956           45 
 2997000   0.76890346   -6.7885642    846.54143  0.023538578  0.023193673           90 
 2998000   0.76869407   -6.7995124    845.86818  0.023512013  0.023187367           72 
 2999000   0.78139752   -6.7979382    847.28999  0.023543681  0.023181059           33 
 3000000   0.77064498    -6.763401    846.25538  0.023507094  0.023174765           44 
 3001000   0.76644045   -6.7868023    847.56346  0.023535584  0.023168456           29 
 3002000   0.78502471   -6.8008267    847.75939  0.023533183  0.023162197           20 
 3003000   0.76795873   -6.7622384    847.65797  0.023522532  0.023155908           14 
 3004000   0.75082946   -6.7624896    846.68579  0.023487733   0.02314961           54 
 3005000   0.76471976   -6.7882891    846.37654   0.02347134  0.023143322           26 
 3006000   0.77798053   -6.7957023    846.97782  0.023480201  0.023137024           31 
 3007000   0.75937213   -6.7970718    847.45768  0.023485691  0.023130705           31 
 3008000   0.75778067   -6.7847267    849.54608   0.02353574  0.023124424           13 
 3009000   0.76422942   -6.7880005    848.39371  0.023496004  0.023118139           12 
 3010000   0.76995237   -6.8000974    847.02945  0.023450428  0.023111859           10 
 3011000   0.75554356   -6.7913312    846.93108  0.023439917  0.023105566           24 
 3012000   0.75770233   -6.7978534    847.43301  0.023446022   0.02309927           10 
 3013000   0.78144415   -6.7778764     848.5892  0.023470218  0.023092986           26 
 3014000   0.76840007   -6.7722184    847.69977  0.023437839  0.023086709           22 
 3015000   0.75547741    -6.767377    848.87648  0.023462589  0.023080451            9 
 3016000   0.78264318   -6.7632838    847.47682  0.023416137  0.023074176           19 
 3017000    0.7790107   -6.7728482    847.99523  0.023422694  0.023067896           15 
 3018000   0.77388664   -6.7923879    848.77757  0.023436536  0.023061648           18 
 3019000   0.77326513   -6.7766137    848.06309  0.023409051  0.023055398           18 
 3020000   0.75021433   -6.7617703    848.89715  0.023424314  0.023049122           29 
 3021000   0.77184849   -6.7886551    850.48684  0.023460412  0.023042868           14 
 3022000   0.77556275   -6.7594797    849.38518  0.023422269  0.023036614           16 
 3023000   0.78107804   -6.7698896    848.67248  0.023394875  0.023030341           19 
 3024000   0.76419969    -6.781343    848.99462  0.023396016  0.023024071           23 
 3025000   0.77198042   -6.7856063    848.40748  0.023372107  0.023017823            9 
 3026000   0.75286021   -6.7939531    848.53821  0.023367983  0.023011545           11 
 3027000   0.76660208   -6.7786099     849.7747  0.023394304  0.023005239           16 
 3028000    0.7606643   -6.7810241     848.0686  0.023339625  0.022998974            8 
 3029000   0.76298367   -6.7826403    849.09587  0.023360181   0.02299271           14 
 3030000   0.76988796   -6.7839055    850.27265  0.023384836  0.022986444           20 
 3031000   0.78224317   -6.7828406    849.43096   0.02335398  0.022980174           27 
 3032000   0.75293531   -6.7863975    849.30704  0.023342872  0.022973899           14 
 3033000   0.75961279   -6.7874751    849.29039  0.023334718  0.022967619           11 
 3034000   0.76393799    -6.803372    848.68576   0.02331042    0.0229613           36 
 3035000   0.76463568   -6.7968022    849.34244   0.02332077  0.022954988           37 
 3036000   0.77255338   -6.8083717    847.61607  0.023265703   0.02294869           20 
 3037000   0.76396139   -6.8246645    847.69155  0.023260113  0.022942405           21 
 3038000   0.76909518   -6.8071842    848.47348  0.023273905  0.022936081           21 
 3039000   0.76309106   -6.8263722    847.16798  0.023230448  0.022929755           27 
 3040000   0.75794063   -6.8115717    849.05258  0.023274468  0.022923456           19 
 3041000   0.76378542   -6.7858769    849.94674  0.023291317  0.022917167           14 
 3042000   0.76788844   -6.7749284    851.08122  0.023314739  0.022910906           41 
 3043000   0.75340051   -6.7739353    848.67423  0.023241161  0.022904643           71 
 3044000   0.76799283    -6.779697    848.98397  0.023242005  0.022898339           95 
 3045000   0.76670789   -6.7846253    849.51271  0.023248843  0.022892057           88 
 3046000    0.7739164   -6.8020244     848.0746  0.023201866  0.022885766           96 
 3047000   0.76384494   -6.8090498    849.06855  0.023221435  0.022879481          123 
 3048000   0.76643353   -6.8123201     850.4086  0.023250454  0.022873182           51 
 3049000   0.79173409   -6.8257889    849.64493  0.023221956  0.022866868           53 
 3050000   0.77107566   -6.8096763    850.20623  0.023229678   0.02286056           25 
 3051000   0.75585496   -6.8006411    847.58082  0.023150356  0.022854251           90 
 3052000   0.77331196   -6.8102193    849.42322  0.023193076  0.022847932           82 
 3053000   0.76356055   -6.8085282    851.44657  0.023240708   0.02284161           45 
 3054000    0.7678859    -6.812457     847.3599  0.023121586  0.022835265           42 
 3055000   0.76995752   -6.8107749    849.05566  0.023160274  0.022828961           58 
 3056000   0.76326278   -6.8071982    849.61959  0.023168073  0.022822666           77 
 3057000   0.75333708   -6.8163992    849.91996  0.023168683  0.022816353           92 
 3058000   0.73972212   -6.7948597    850.42109  0.023174763  0.022810026           46 
 3059000   0.77344472   -6.8092441    849.68326  0.023147087  0.022803714           19 
 3060000   0.75280541   -6.7921052    849.31153  0.023129399  0.022797425           35 
 3061000   0.75662248   -6.7895157     849.1071  0.023116277  0.022791126          103 
 3062000   0.75778331   -6.7971012    851.88711  0.023184387  0.022784809          112 
 3063000   0.77685969   -6.8109686    849.47818  0.023111279   0.02277847           83 
 3064000   0.76837446   -6.7978144    850.60547  0.023134396  0.022772147           68 
 3065000   0.77835917   -6.8057587    850.85537  0.023133642  0.022765836           61 
 3066000   0.76620889   -6.8204049    849.84854  0.023098732  0.022759536           82 
 3067000   0.77480486   -6.7986306    850.92015  0.023120317  0.022753235           70 
 3068000   0.77163512   -6.7935776    849.40675  0.023071674  0.022746964           68 
 3069000   0.77889492   -6.8078227    849.88274  0.023077081  0.022740677           47 
 3070000   0.77854227   -6.7899596    850.20069  0.023078195  0.022734376           69 
 3071000   0.75752252   -6.7842507    849.50114  0.023051697  0.022728074           96 
 3072000   0.77701101   -6.7920464    850.95544  0.023083644  0.022721776           59 
 3073000   0.75796925   -6.8297757    848.59298  0.023012067  0.022715444          103 
 3074000   0.75000112   -6.8084109    851.73599  0.023089785  0.022709125           51 
 3075000   0.76792547   -6.8050991    851.30767  0.023070669  0.022702827           28 
 3076000   0.76203389   -6.8214238     850.5819  0.023043506  0.022696542          111 
 3077000   0.77533038   -6.8186694    849.44215   0.02300515  0.022690256           61 
 3078000   0.77074166   -6.8032524    849.67169   0.02300389  0.022683934           69 
 3079000   0.77129509   -6.8238859    848.60242  0.022967479  0.022677602           59 
 3080000   0.75677456   -6.8370288    848.91046  0.022968357  0.022671271           41 
 3081000   0.75407069   -6.8080812    849.83371  0.022985873  0.022664916           40 
 3082000   0.77377077   -6.8339934    851.60813  0.023026393  0.022658601           42 
 3083000   0.75406787   -6.8056663    851.38588  0.023012917   0.02265228           60 
 3084000    0.7637861   -6.8084399    850.79605  0.022989517   0.02264597           62 
 3085000   0.76213087    -6.812817    852.10948  0.023017544   0.02263967           83 
 3086000   0.77646447   -6.8224849    849.52984  0.022940425  0.022633359          145 
 3087000   0.75160926   -6.8127257    850.54563  0.022960415  0.022627028           81 
 3088000   0.76318572   -6.8081879    849.42693  0.022922791  0.022620694           47 
 3089000   0.75890516   -6.8357909    849.93047  0.022928954  0.022614343           42 
 3090000   0.75177036   -6.8248724      850.807  0.022945173  0.022607991           55 
 3091000   0.75281893   -6.7957525     851.0145  0.022943344  0.022601636           35 
 3092000   0.74508942   -6.7925273    849.61786  0.022898282  0.022595305           49 
 3093000   0.76263514   -6.8299559    850.51139  0.022914953  0.022588969           22 
 3094000   0.76356499   -6.7804732    852.57301  0.022963074  0.022582639           26 
 3095000   0.78353652   -6.8034091    851.64236  0.022930597  0.022576315           17 
 3096000   0.75881971    -6.777586    850.68736  0.022897485  0.022569997           10 
 3097000   0.74579471   -6.7780929    851.27979  0.022906032  0.022563681           16 
 3098000   0.75662962   -6.7988354    852.53261  0.022932338  0.022557361           21 
 3099000   0.76354862   -6.8042813    849.99218  0.022856625  0.022551037           33 
 3100000   0.75059984   -6.8314318    851.78241  0.022897377  0.022544687           29 
 3101000   0.75423045   -6.7811114    850.77834   0.02286301  0.022538368           14 
 3102000   0.76234198   -6.7820335    851.92703  0.022886499   0.02253207           25 
 3103000   0.74293075    -6.805576    850.72958  0.022846965   0.02252575           30 
 3104000   0.75947992    -6.809112     850.0267  0.022820734  0.022519382           17 
 3105000    0.7520479   -6.8221725    850.95347  0.022838258  0.022513019           35 
 3106000   0.74533149   -6.8073081    850.10345  0.022808099  0.022506674           12 
 3107000   0.75691803   -6.8200916    850.71589  0.022817184  0.022500343           13 
 3108000   0.75283431   -6.7981608    850.02048  0.022791197  0.022494035           50 
 3109000   0.77928147   -6.7855776    850.76997  0.022803955  0.022487717           10 
 3110000   0.76147101   -6.8092523    851.21336  0.022808504  0.022481408           44 
 3111000   0.73647199   -6.8087111    850.20555  0.022774176  0.022475087           10 
 3112000    0.7529543   -6.8305659     851.4161  0.022799274  0.022468791            8 
 3113000   0.74103417   -6.8194452    853.40052  0.022845072  0.022462502           12 
 3114000   0.74954952   -6.8393095    850.97729  0.022772888  0.022456209           56 
 3115000   0.76181176   -6.8076613    852.13643  0.022796587  0.022449917           22 
 3116000   0.73984296   -6.8168878    852.61776  0.022802144  0.022443613           23 
 3117000   0.74994188   -6.8233836    853.59503  0.022820956  0.022437321           30 
 3118000   0.74418914   -6.8055998    854.87745  0.022847911  0.022431035           20 
 3119000   0.76490506   -6.8046618     854.2156  0.022822903  0.022424791           18 
 3120000   0.74483465   -6.8047525     853.6241  0.022799789  0.022418543           15 
 3121000   0.75155217   -6.8019779    853.49761  0.022789106  0.022412305           28 
 3122000     0.759358   -6.8053888    856.57236  0.022863879  0.022406106           21 
 3123000   0.75037075   -6.8291682    855.35576  0.022824094  0.022399909           21 
 3124000   0.74908484   -6.8214564    854.17289  0.022785235   0.02239367           84 
 3125000   0.75698105   -6.8196666    852.61697  0.022736453   0.02238744           21 
 3126000   0.72984823   -6.8512216    852.98953  0.022739111  0.022381179           57 
 3127000   0.75739006   -6.8646757    852.39326  0.022715949   0.02237489          128 
 3128000   0.75675268   -6.8065262    852.22412  0.022704181  0.022368628           47 
 3129000   0.75058293   -6.8054037    852.05473  0.022692413  0.022362365           36 
 3130000   0.75345545   -6.7929618    853.05281  0.022711736  0.022356097           37 
 3131000   0.74401187   -6.8213765    852.98742  0.022702742  0.022349834           28 
 3132000   0.77082391   -6.8213473    855.28988  0.022756755  0.022343592           25 
 3133000   0.74986653   -6.8124286    854.36566  0.022724908  0.022337376           43 
 3134000   0.76128705   -6.8432732    853.29387  0.022689158  0.022331135           19 
 3135000   0.74650489   -6.8387364    853.80389  0.022695478  0.022324901           13 
 3136000   0.74584898   -6.8174243    854.34787  0.022702696  0.022318676           16 
 3137000   0.74788436    -6.821462    856.11686  0.022742452  0.022312429           71 
 3138000   0.74435963   -6.8442891    854.13209  0.022682496   0.02230619           21 
 3139000   0.72585507   -6.8208158    854.39977  0.022682377  0.022299968           36 
 3140000   0.74023938   -6.8079462    855.18239  0.022695923  0.022293747           20 
 3141000   0.73271215   -6.8539581    855.58895  0.022699484   0.02228755           19 
 3142000   0.75598739   -6.8143572    855.59067  0.022692305  0.022281353           29 
 3143000   0.76287691   -6.8363661    856.39025  0.022706285  0.022275137           31 
 3144000   0.75336185    -6.829269    854.82698  0.022657628  0.022268927           63 
 3145000    0.7477727   -6.8158914    854.22635  0.022634508  0.022262739           26 
 3146000    0.7529107    -6.859124    855.35286  0.022657153  0.022256521           37 
 3147000   0.75412814   -6.8048641    855.04396  0.022641774   0.02225032           42 
 3148000   0.75021138   -6.8032398     853.0299  0.022581266  0.022244109           52 
 3149000   0.73324145   -6.8522624    852.87516      0.02257  0.022237858           38 
 3150000   0.75414274   -6.8430699     853.5052  0.022579503  0.022231639           51 
 3151000    0.7530952   -6.8573512    852.67156   0.02255029  0.022225437           51 
 3152000   0.76378088   -6.8093613    853.87444  0.022574938  0.022219233           28 
 3153000   0.75368549   -6.8323782    853.94241  0.022569574  0.022213007           34 
 3154000   0.73249593   -6.8333541    855.61926  0.022606723  0.022206808           23 
 3155000   0.72555361   -6.8186879    857.82493  0.022657816  0.022200615           25 
 3156000   0.74817072   -6.8447304    854.70993  0.022568386   0.02219443           17 
 3157000   0.73830001   -6.8211041    855.00423  0.022569006  0.022188232           21 
 3158000   0.74961251   -6.8119279    855.85345  0.022584269  0.022182054           15 
 3159000   0.74773866   -6.7765616     857.6449  0.022624377   0.02217589           24 
 3160000   0.74705647   -6.8216977    856.60987  0.022589923  0.022169736           21 
 3161000   0.75878597   -6.8236925    855.96721  0.022565834  0.022163543           23 
 3162000   0.75687287   -6.8401422    854.97203   0.02253247  0.022157369           17 
 3163000   0.74500939   -6.8184209     856.1389  0.022556089  0.022151181           45 
 3164000   0.75764682   -6.7954608    857.92019  0.022595875  0.022145007           19 
 3165000   0.74180473   -6.8234786    857.06931  0.022566332  0.022138867           41 
 3166000   0.75081497   -6.8435577    856.04356  0.022532206  0.022132678           45 
 3167000    0.7346044   -6.8166899    856.10114  0.022526606  0.022126472           54 
 3168000   0.73842217   -6.8302198    857.79629  0.022564086  0.022120287           57 
 3169000   0.74617183   -6.8145692    858.00684  0.022562502  0.022114128           84 
 3170000   0.75747652   -6.8207212    855.49686  0.022489402  0.022107989          119 
 3171000   0.74194105   -6.7790519    857.81414  0.022543208  0.022101826           54 
 3172000   0.74334723   -6.8582289    855.60767  0.022478133   0.02209566           29 
 3173000   0.76415212   -6.8294482    855.01268  0.022455423  0.022089481           15 
 3174000   0.74964098   -6.8373426    856.31395  0.022482513  0.022083283           16 
 3175000   0.74938323   -6.8445589    857.94816  0.022518324  0.022077113           33 
 3176000   0.74671001   -6.8143575     856.9078  0.022483937  0.022070949           36 
 3177000   0.73873421   -6.8284559     857.2146  0.022484907  0.022064776           21 
 3178000    0.7549884   -6.8726196    857.13992  0.022475874  0.022058588           44 
 3179000   0.75232224   -6.8237483    856.82475  0.022460542  0.022052386           16 
 3180000   0.77211817    -6.849129    855.75767  0.022425515  0.022046201           23 
 3181000   0.75438012   -6.8276403    856.36542  0.022434387  0.022040032           43 
 3182000   0.74773334   -6.8305497    856.32591  0.022426302  0.022033874           18 
 3183000   0.74664385   -6.8517152    855.82931  0.022406255  0.022027688           18 
 3184000   0.73062574   -6.8568306    857.81305  0.022451137  0.022021503           10 
 3185000   0.74549351   -6.8419035    857.28629  0.022430306   0.02201532           17 
 3186000   0.72751123   -6.8521776    858.39751  0.022452331  0.022009146           25 
 3187000   0.73928963   -6.8356829    856.39363  0.022392889  0.022002969           29 
 3188000   0.75243617   -6.8254421    855.04793  0.022350688  0.021996796           35 
 3189000   0.73243881   -6.8412766    858.25216  0.022427411  0.021990623           18 
 3190000   0.73033162   -6.8416417    857.36888  0.022397306  0.021984431           42 
 3191000   0.73512444   -6.8436957    856.59559  0.022370093  0.021978235           22 
 3192000   0.74323269   -6.8309482    857.74498  0.022393092  0.021972069           24 
 3193000   0.74444808   -6.8247299    855.04809  0.022315693   0.02196588           38 
 3194000   0.74290797   -6.8298889    854.75176  0.022300975  0.021959664           46 
 3195000   0.74394061   -6.8416171    856.74747  0.022346048  0.021953447           50 
 3196000   0.75237418   -6.8543092    856.22777  0.022325505  0.021947228           43 
 3197000   0.73970128   -6.8234219    856.62288  0.022328821  0.021941025           61 
 3198000   0.71625923   -6.8423071    854.90053  0.022276958  0.021934798           31 
 3199000   0.76085317   -6.8601083     856.6133  0.022314611   0.02192855           31 
 3200000   0.74552023   -6.8481432    856.04971  0.022292961  0.021922307           50 
 3201000   0.74076152   -6.8288476    856.31063   0.02229279  0.021916061           46 
 3202000   0.73110323   -6.8408602    856.64148  0.022294438   0.02190983           32 
 3203000   0.74345173   -6.8707303    856.14421   0.02227454  0.021903601           90 
 3204000   0.72699481   -6.8530943    854.64379  0.022228563  0.021897386           19 
 3205000   0.74354589    -6.826854    856.70153  0.022275131  0.021891205           23 
 3206000   0.75865171   -6.8574657    856.51947   0.02226345  0.021885022           60 
 3207000    0.7307798   -6.8605253    855.52434   0.02223065  0.021878807           92 
 3208000    0.7555544   -6.8348227    856.50259  0.022249132  0.021872598           45 
 3209000   0.73060374   -6.8684773    856.02565  0.022229813  0.021866396           55 
 3210000   0.74625196   -6.8553348    855.35926  0.022205588  0.021860157          133 
 3211000    0.7303735   -6.8601739    855.26873  0.022196323  0.021853944           47 
 3212000   0.73269058   -6.8373041    857.56011  0.022248861  0.021847723          108 
 3213000   0.74597321   -6.8737098    858.18872   0.02225824  0.021841508           76 
 3214000   0.74185139   -6.8480992    856.34606  0.022203538  0.021835304          149 
 3215000   0.73905618   -6.8455605    856.46968  0.022199836  0.021829103           93 
 3216000    0.7502594   -6.8421701    857.89026  0.022229744  0.021822937           65 
 3217000   0.73689982   -6.8529173    858.59037  0.022240969  0.021816755           41 
 3218000   0.74236709   -6.8454158    857.25243   0.02219941  0.021810574           41 
 3219000   0.73166505   -6.8541101    858.60917  0.022227637  0.021804399           68 
 3220000   0.73740058   -6.8556828    857.62886  0.022195364  0.021798231           63 
 3221000   0.73760164   -6.8582976    856.46327  0.022158317  0.021792054           63 
 3222000   0.73934636   -6.8631228    855.45088  0.022125256  0.021785864           65 
 3223000   0.73675451   -6.8565656    859.32932  0.022218671  0.021779707           63 
 3224000   0.73654148   -6.8487211    859.03541  0.022204182  0.021773522           72 
 3225000   0.73899201   -6.8705373    858.09267  0.022172937  0.021767318          121 
 3226000    0.7351422   -6.8532213    857.94163  0.022162162   0.02176114           53 
 3227000   0.74516702   -6.8734637    858.20286  0.022162041  0.021754965           71 
 3228000    0.7373602   -6.8597286    859.96538  0.022200676  0.021748795          111 
 3229000   0.73476685   -6.8702183     857.9363  0.022141435  0.021742619          103 
 3230000   0.74588384   -6.8664976    856.19702  0.022089706  0.021736404           75 
 3231000   0.73935429    -6.856651    855.81492  0.022073015  0.021730201           41 
 3232000   0.73131067   -6.8943779     857.5844  0.022111809  0.021724021           48 
 3233000   0.73502882   -6.8526398    857.60085  0.022105394  0.021717823           65 
 3234000   0.74114238   -6.8627928    858.88367  0.022131614  0.021711647           76 
 3235000   0.73443547    -6.866524    857.19245  0.022081207  0.021705489          100 
 3236000     0.734063   -6.8677278    857.80205  0.022090082  0.021699317           48 
 3237000   0.71069674   -6.8832257    858.56566  0.022102916  0.021693127          100 
 3238000   0.72158975   -6.8680717    858.08916  0.022083827   0.02168691           55 
 3239000   0.73988781   -6.8885903    857.31936  0.022057203  0.021680698           77 
 3240000   0.73807443   -6.8703332    855.80611  0.022011474  0.021674495           60 
 3241000   0.75034992   -6.8853665    858.19344  0.022066066  0.021668286           51 
 3242000   0.72994126   -6.8864993    858.12707  0.022057554  0.021662069           42 
 3243000     0.717994   -6.8589307    855.65624  0.021987261  0.021655865           23 
 3244000   0.73682356   -6.8691479    858.38098  0.022050477  0.021649657           51 
 3245000   0.73811929    -6.875086    857.31001  0.022016179  0.021643462           54 
 3246000   0.73395383   -6.8640528    856.88437  0.021998469  0.021637277           95 
 3247000   0.73754466    -6.865138    856.79984  0.021989525  0.021631106           63 
 3248000   0.73925816   -6.8418345    855.92883  0.021960407  0.021624953           60 
 3249000   0.72435908   -6.8326903    857.62655  0.021997193  0.021618841           52 
 3250000   0.74704851   -6.8679013    858.56626  0.022014519  0.021612675           67 
 3251000   0.73649293   -6.8658896    857.93807  0.021991645  0.021606501           45 
 3252000   0.71768347    -6.904112    859.48616  0.022024553  0.021600311           54 
 3253000   0.73414751   -6.8881973    859.60599  0.022020852  0.021594119           47 
 3254000   0.72697795   -6.8930626    858.49933  0.021985744  0.021587937           42 
 3255000   0.73256425   -6.8895547    858.52094  0.021979543  0.021581764          100 
 3256000   0.72865751   -6.8605633    857.10753  0.021936618  0.021575586          120 
 3257000   0.73228299   -6.8547163    858.08932  0.021955003  0.021569411          125 
 3258000   0.73033381   -6.8831915    859.63175  0.021987716   0.02156323          113 
 3259000   0.73358854    -6.874732    859.67054  0.021981961  0.021557055           63 
 3260000   0.73111419   -6.8719801    858.35277  0.021941533  0.021550867           61 
 3261000    0.7115794   -6.8529165    857.65915  0.021917079  0.021544684           30 
 3262000   0.72443296    -6.894798    858.13304  0.021922467  0.021538507           29 
 3263000   0.73950301   -6.8811004    860.10906  0.021966214  0.021532325           55 
 3264000   0.72192715   -6.8648943    857.44098  0.021891365  0.021526153           44 
 3265000   0.74333767   -6.8534704    858.06477  0.021900581  0.021519988           16 
 3266000     0.715575   -6.8411284    860.31105   0.02195119  0.021513856           27 
 3267000   0.73171589   -6.8497772    860.19627  0.021941544  0.021507718           21 
 3268000   0.72239484   -6.8588662    859.72093  0.021922708  0.021501571           18 
 3269000   0.73026392   -6.8451322    861.14775  0.021952375  0.021495441           70 
 3270000   0.72741169   -6.8828737     858.9375  0.021889335  0.021489308          165 
 3271000   0.72343755   -6.8529946    860.19925  0.021914788  0.021483168          102 
 3272000   0.72850356   -6.8813032    857.96086  0.021851082  0.021477021           66 
 3273000   0.72274524   -6.8806395     859.1148  0.021873786  0.021470863           52 
 3274000   0.72564798   -6.8809962    858.02893  0.021839466    0.0214647           60 
 3275000    0.7352398   -6.9117586    857.15337  0.021810518  0.021458535           43 
 3276000   0.72037542   -6.9111749    858.19792  0.021830431  0.021452339           33 
 3277000    0.7196556   -6.8954947     861.5071  0.021907921  0.021446142           37 
 3278000   0.73024035   -6.8752582    861.54589  0.021902224  0.021439961           63 
 3279000   0.71546809   -6.9023806    858.72551  0.021823867  0.021433807           72 
 3280000   0.73298406   -6.8737643    859.86344  0.021846124  0.021427637          120 
 3281000   0.72291408   -6.9205902    858.45735  0.021803753  0.021421446           93 
 3282000   0.71398365    -6.896118    859.77395  0.021830539  0.021415261          273 
 3283000   0.72859203   -6.8921162    859.05508  0.021805642  0.021409064           97 
 3284000   0.74939427   -6.9205051    856.83967  0.021742785  0.021402872          188 
 3285000   0.72655165   -6.8869243     859.9732  0.021815657  0.021396694          104 
 3286000   0.73705586   -6.8880277    860.38858  0.021819552  0.021390533          186 
 3287000   0.72525533   -6.8773727    860.12913  0.021806336   0.02138439          109 
 3288000   0.71466696   -6.8329853    861.54715  0.021835643  0.021378258          157 
 3289000   0.71547523   -6.8538039    860.17036  0.021794121   0.02137214          161 
 3290000    0.7187685   -6.8652344     859.9597  0.021782161  0.021366023          229 
 3291000   0.71696694   -6.8894414     859.9335  0.021774878  0.021359888          176 
 3292000   0.72439675   -6.8974935    860.47697  0.021782021  0.021353732          256 
 3293000   0.72565566   -6.9008101    859.74147  0.021756794  0.021347539          321 
 3294000   0.71537842   -6.8798784    858.95383  0.021730263  0.021341335          225 
 3295000   0.74184593   -6.8953867    858.23727  0.021705545  0.021335136          210 
 3296000   0.72526612   -6.9176541    858.40117  0.021703104  0.021328932          214 
 3297000   0.73705594   -6.8916574    857.98028  0.021685883  0.021322738          169 
 3298000   0.72874301   -6.8983168    857.31554  0.021662511  0.021316547          261 
 3299000   0.71183709   -6.9058753     859.6333  0.021714492  0.021310366          242 
 3300000   0.71182945   -6.9180063    859.03236  0.021692736  0.021304173          334 
 3301000    0.7387992    -6.893978    859.31242  0.021693235   0.02129801          238 
 3302000   0.73060704   -6.9132941    860.07769  0.021705978  0.021291844          226 
 3303000   0.72073777   -6.9100907    860.07541  0.021699349  0.021285689          284 
 3304000   0.71454187   -6.9026185    859.77767  0.021685272  0.021279521          291 
 3305000   0.72722135   -6.9106927    858.81261  0.021654377  0.021273366          280 
 3306000   0.72059827   -6.8876457    858.20794  0.021632586  0.021267197          434 
 3307000   0.71930811    -6.926337    857.62494  0.021611353  0.021260996          442 
 3308000   0.71653402   -6.9039209    858.61019   0.02162964  0.021254797          493 
 3309000   0.72276837   -6.9199218    856.83868   0.02157849  0.021248585          445 
 3310000   0.71763243   -6.9197947     857.2253  0.021581704  0.021242382          446 
 3311000   0.71879634   -6.9409617    859.43081  0.021630696  0.021236166          606 
 3312000   0.72686705   -6.9160058    857.75212  0.021581927  0.021229977          450 
 3313000   0.71420441   -6.9234468    859.88703  0.021629113  0.021223776          511 
 3314000   0.70956841   -6.9365751     858.6104  0.021590485  0.021217571          499 
 3315000   0.73397576   -6.9277276    858.78507  0.021588363  0.021211344          614 
 3316000   0.73461108   -6.9239219    856.47299  0.021523748  0.021205084          644 
 3317000   0.72166603   -6.9301446    857.50399  0.021543161  0.021198848          663 
 3318000   0.72661603   -6.9563063    858.33675  0.021557584  0.021192602          634 
 3319000    0.7192649    -6.950858    857.85202  0.021538918  0.021186352          637 
 3320000   0.74142327    -6.949441    857.40396  0.021521184  0.021180091          696 
 3321000   0.71775341    -6.946246    859.16869  0.021558986  0.021173849          909 
 3322000   0.73417763   -6.9716229    858.67021  0.021539991  0.021167578          915 
 3323000   0.71203545   -6.9824539    856.31726  0.021474503  0.021161295          885 
 3324000   0.72839838   -6.9788444    856.34248  0.021468674  0.021155023          844 
 3325000   0.72998624   -6.9717921    857.41346  0.021489059  0.021148757          950 
 3326000   0.71284981   -6.9556459    856.91599  0.021470134  0.021142476         1030 
 3327000   0.72381135   -6.9771424    855.60586  0.021430865  0.021136186         1002 
 3328000   0.73022932    -6.981487    856.68403  0.021451423  0.021129919         1202 
 3329000   0.70983167   -6.9731422    857.41262  0.021463218   0.02112363         1158 
 3330000   0.72520725   -6.9779516    856.49301  0.021433759  0.021117337         1176 
 3331000   0.71290755   -7.0114219    855.47644  0.021401892  0.021111032         1332 
 3332000   0.71658334   -6.9928283    856.29969  0.021416059  0.021104702         1353 
 3333000   0.72696958   -7.0118006    856.28245  0.021409202  0.021098354         1522 
 3334000    0.7244659    -7.030252    857.07878  0.021422685  0.021092002         1603 
 3335000   0.71979008   -6.9868196    855.35542  0.021373199  0.021085646         1536 
 3336000   0.71495998   -7.0216898    855.65854  0.021374364  0.021079272         1597 
 3337000   0.69917012    -7.044503    853.86979  0.021323289  0.021072881         1734 
 3338000   0.70966378   -7.0239348    854.92486  0.021343241  0.021066453         1812 
 3339000   0.70637665    -7.062394    852.87682  0.021285735  0.021060018         1976 
 3340000   0.72773831   -7.0708385     853.3554  0.021291302   0.02105355         2236 
 3341000   0.72120161   -7.0418255    850.78755  0.021220881  0.021047072         2193 
 3342000   0.71688041   -7.0999268    851.36662   0.02122897  0.021040571         2199 
 3343000   0.72664792   -7.1042323    850.72141  0.021206536  0.021034053         2289 
 3344000   0.71421284   -7.0772844    851.88668  0.021229233  0.021027507         2318 
 3345000   0.70616193   -7.0836583    851.20432  0.021205887  0.021020949         2408 
 3346000   0.71436641    -7.129346    850.02299  0.021170128  0.021014374         2474 
 3347000   0.71118631   -7.1071255    849.35915  0.021147275  0.021007764         2488 
 3348000   0.71019617   -7.1267484    849.07928  0.021133992  0.021001135         2567 
 3349000   0.70730544    -7.144649    849.32171  0.021133714  0.020994484         2612 
 3350000   0.73004017   -7.1764485    848.81266  0.021114743   0.02098782         2643 
 3351000   0.70620324   -7.1755444    847.14937  0.021067079  0.020981144         2658 
 3352000    0.7192489   -7.1627326    848.87346  0.021103656  0.020974437         2769 
 3353000   0.70238933   -7.2014756    847.12126  0.021053814  0.020967726         2836 
 3354000   0.71030393   -7.1983681     844.8432  0.020990936  0.020960986         2808 
 3355000   0.71126826    -7.219311    845.55406  0.021002336  0.020954206         2935 
 3356000   0.71498892   -7.2286398    844.15219  0.020961268  0.020947412         3026 
 3357000   0.71048035   -7.2488541    843.87575  0.020948162  0.020940594         3160 
 3358000   0.72558122   -7.2643627    843.26322  0.020926723   0.02093374         3233 
 3359000   0.71043952   -7.2947168    843.32657  0.020922064   0.02092687         3264 
 3360000   0.71182021   -7.2808205    844.17959  0.020936994  0.020919981         3343 
 3361000   0.72901157   -7.2819515    842.19858  0.020881647  0.020913062         3412 
 3362000   0.71533231   -7.3290315    841.60497  0.020860722  0.020906111         3515 
 3363000   0.71997164   -7.3175481    840.97527  0.020838915  0.020899133         3606 
 3364000   0.71162024   -7.3399527     840.1067  0.020811204  0.020892145         3645 
 3365000   0.71790181   -7.3252638    839.96852  0.020801598  0.020885132         3684 
 3366000   0.72993965   -7.3743377    838.35534   0.02075548  0.020878114         3708 
 3367000   0.73058898   -7.3615549    838.98828  0.020764981  0.020871093         3705 
 3368000   0.72932494     -7.36181    840.37911  0.020793228  0.020864064         3664 
 3369000   0.70636321   -7.3494789    839.31438   0.02076072  0.020857039         3712 
 3370000   0.71825292   -7.3656338    839.29761  0.020754145  0.020850003         3732 
 3371000   0.72131086   -7.3919773    838.45538  0.020727167  0.020842947         3708 
 3372000   0.71800462   -7.3528742    838.86936  0.020731252  0.020835906         3693 
 3373000   0.70756216   -7.3893978    836.79921   0.02067396  0.020828835         3730 
 3374000   0.70856733   -7.3822265    836.95514  0.020671684  0.020821763         3755 
 3375000   0.71024884     -7.40515    839.26667  0.020722634  0.020814695         3752 
 3376000   0.70258224   -7.3807629    837.68908  0.020677554  0.020807631         3727 
 3377000   0.71828291   -7.3867214    839.50118  0.020716148  0.020800557         3743 
 3378000   0.71206148   -7.3894509    837.60545  0.020663249  0.020793481         3733 
 3379000   0.70030538   -7.3883584    836.87088  0.020639017  0.020786403         3711 
 3380000   0.71604092   -7.3967165    838.95512  0.020684298  0.020779328         3763 
 3381000   0.71073748   -7.3957666    838.10909  0.020657327  0.020772245         3711 
 3382000   0.70583232   -7.4091268    837.21916  0.020629291  0.020765173         3726 
 3383000   0.71835165   -7.4130925    837.24644  0.020623865  0.020758091         3753 
 3384000   0.70921311   -7.3844783    838.89554  0.020658381  0.020751019         3693 
 3385000   0.70840578   -7.3829116    838.57655  0.020644425   0.02074394         3685 
 3386000   0.69057742   -7.4016117    837.58351  0.020613888  0.020736867         3704 
 3387000   0.70531028   -7.3874834    838.00058  0.020618064  0.020729789         3745 
 3388000   0.70747742   -7.3866192    839.07678  0.020638449  0.020722712         3757 
 3389000   0.71539218   -7.3973321    836.17688  0.020561052  0.020715635         3729 
 3390000   0.67955286   -7.4202983     840.6663  0.020665347  0.020708568         3743 
 3391000   0.71507278   -7.3767091     837.4617    0.0205805    0.0207015         3691 
 3392000   0.72369172    -7.411882    838.57466  0.020601775  0.020694434         3729 
 3393000   0.71019257   -7.4054227    838.82636  0.020601885  0.020687375         3689 
 3394000   0.73132884   -7.4052954     839.8352  0.020620585  0.020680327         3708 
 3395000    0.7126397   -7.3848872    838.91507  0.020591926  0.020673274         3713 
 3396000   0.71530918   -7.4092681    837.87065  0.020560234  0.020666222         3734 
 3397000   0.71444303   -7.3871753    838.95187  0.020580705  0.020659166         3693 
 3398000   0.71298924   -7.3975321    838.29403  0.020558516  0.020652109         3715 
 3399000   0.70020535   -7.4010394    838.06537  0.020546861  0.020645066         3729 
 3400000   0.71241763   -7.4113153    837.69635  0.020531773  0.020638015         3722 
 3401000   0.71048376   -7.4118841    837.58222   0.02052294  0.020630968         3749 
 3402000   0.71672315   -7.4073583    839.52253  0.020564436   0.02062391         3731 
 3403000   0.68742498   -7.4099975    838.40308   0.02053098   0.02061685         3762 
 3404000   0.71732828   -7.4177686    836.51453  0.020478715  0.020609787         3743 
 3405000   0.71115111   -7.4091457    837.85987  0.020505626  0.020602727         3740 
 3406000   0.71892916   -7.4035439    837.57046  0.020492525  0.020595676         3753 
 3407000   0.71672564   -7.4117473    840.34717  0.020554426  0.020588628         3751 
 3408000   0.71005539   -7.4223012    837.35114  0.020475135  0.020581576         3743 
 3409000   0.71958194   -7.3925268    838.62282  0.020500216  0.020574516         3748 
 3410000   0.71585459   -7.4008414    836.74602  0.020448339  0.020567463         3749 
 3411000   0.70494607   -7.4157268    836.94225  0.020447138  0.020560405         3759 
 3412000   0.71481843   -7.4216082    836.64028   0.02043377  0.020553348         3743 
 3413000   0.69518181   -7.4217706    838.92528  0.020483575  0.020546302         3745 
 3414000   0.71084425    -7.418528    836.90955  0.020428372  0.020539251         3748 
 3415000   0.69658724    -7.435102    837.99699  0.020448926  0.020532198         3782 
 3416000   0.70675984   -7.4218715     835.5721  0.020383785  0.020525144         3760 
 3417000    0.6972409   -7.3900468    837.49775  0.020424782  0.020518097         3783 
 3418000   0.73210473   -7.3962188    836.99621  0.020406578  0.020511058         3762 
 3419000   0.70234726   -7.4277662    838.03317  0.020425884  0.020504012         3789 
 3420000   0.71112878   -7.4229591    837.50215  0.020406973  0.020496959         3774 
 3421000   0.69561736   -7.3881817    837.84839  0.020409442  0.020489919         3753 
 3422000   0.68784567   -7.4132371    839.43763  0.020442179  0.020482878         3780 
 3423000   0.70243153   -7.3912831    837.51602  0.020389425  0.020475833         3758 
 3424000   0.69175839   -7.4127775    836.78029  0.020365564  0.020468796         3755 
 3425000   0.70520746   -7.4081695     837.3127  0.020372572  0.020461769         3671 
 3426000    0.7258802   -7.3874554    836.89452  0.020356454  0.020454748         3728 
 3427000   0.71498492    -7.409388    837.74309  0.020371148  0.020447716         3715 
 3428000    0.7091081   -7.3919159     837.2432  0.020353053  0.020440681         3745 
 3429000   0.70234951   -7.4233603    837.70562  0.020358356  0.020433651         3764 
 3430000   0.69583052   -7.4000401    837.83176  0.020355485  0.020426616         3743 
 3431000   0.69853008   -7.4219839    837.59301  0.020343753  0.020419582         3779 
 3432000   0.69527976   -7.4297878    838.55377  0.020361154  0.020412554         3780 
 3433000   0.70555215   -7.4206452    837.95798  0.020340761  0.020405522         3760 
 3434000     0.713188   -7.4285122    838.71097   0.02035311  0.020398486         3771 
 3435000   0.70229002   -7.4461178    837.51289   0.02031812  0.020391462         3812 
 3436000   0.69509875   -7.4153058    838.02924  0.020324729  0.020384438         3762 
 3437000   0.69631322   -7.4228291    838.62935  0.020333366  0.020377413         3745 
 3438000   0.70722388   -7.4283637     836.1159  0.020266528  0.020370382         3761 
 3439000   0.70510598   -7.4055645      838.109  0.020308932  0.020363367         3718 
 3440000   0.70180342   -7.4147388    838.12334  0.020303375  0.020356348         3736 
 3441000   0.70680501   -7.4125617    836.23075  0.020251641  0.020349328         3780 
 3442000   0.69814541   -7.4092706    838.45038  0.020299496  0.020342307         3781 
 3443000    0.6910366   -7.4248037    835.81583  0.020229834  0.020335279         3777 
 3444000   0.67951261   -7.4144079    836.20208  0.020233306  0.020328261         3777 
 3445000   0.69200808   -7.4239166    836.84746  0.020243044  0.020321245         3755 
 3446000   0.68431855   -7.4070261    837.73783  0.020258702  0.020314225         3743 
 3447000   0.71189843   -7.4347067    836.70702  0.020227904  0.020307212         3752 
 3448000   0.70944413    -7.420489    836.33701  0.020213095  0.020300203         3751 
 3449000   0.69850018   -7.4210453    836.89378  0.020220687  0.020293187         3720 
 3450000   0.68483797   -7.4221733    837.21275   0.02022253  0.020286177         3771 
 3451000   0.70278764   -7.4370393    837.59416  0.020225881   0.02027917         3786 
 3452000   0.71045177    -7.424646      837.873  0.020226753  0.020272172         3736 
 3453000   0.69037753   -7.4264321     837.6735   0.02021608  0.020265173         3754 
 3454000   0.69034327    -7.427169    838.81437  0.020237753  0.020258166         3764 
 3455000   0.68901408   -7.4317827    836.24813  0.020169998  0.020251163         3748 
 3456000    0.7086552   -7.4398037    835.98595   0.02015784  0.020244162         3770 
 3457000   0.68970688   -7.4255622    836.51611  0.020164789  0.020237167         3757 
 3458000   0.69610446   -7.4360115    837.28954  0.020177596  0.020230164         3742 
 3459000   0.70658757   -7.4075283    836.01533  0.020141065  0.020223163         3776 
 3460000   0.68852118   -7.4411006    837.56479  0.020172562  0.020216162         3752 
 3461000   0.70657178   -7.4267528     835.2406  0.020110772  0.020209163         3782 
 3462000   0.68098473   -7.4289072    835.82841  0.020119112  0.020202175         3752 
 3463000   0.69111909   -7.4364401    836.57317  0.020131225  0.020195181         3758 
 3464000    0.6903184   -7.4151701    834.88382  0.020084772  0.020188183         3733 
 3465000   0.69636501    -7.431567    836.50477   0.02011796  0.020181195         3765 
 3466000   0.71080464   -7.4239771     836.1404  0.020103395  0.020174203         3792 
 3467000   0.70701894   -7.4370781    835.68171  0.020086571   0.02016722         3763 
 3468000   0.68137029    -7.418964    835.77099  0.020082925  0.020160233         3753 
 3469000   0.70560454   -7.4200167    835.35768  0.020067207   0.02015325         3775 
 3470000   0.69896744   -7.4289888    837.92721  0.020123132  0.020146275         3761 
 3471000    0.6990493   -7.4224779    835.41241  0.020056958  0.020139294         3791 
 3472000   0.69670322   -7.4255086    837.90064  0.020110902   0.02013233         3781 
 3473000   0.68679026    -7.406859    837.46759  0.020094721  0.020125355         3798 
 3474000   0.70918906   -7.4269127    839.03307  0.020126489  0.020118382         3768 
 3475000   0.70064619   -7.4357157    837.70281  0.020088796  0.020111409         3771 
 3476000      0.69179    -7.438441    836.30236  0.020049443  0.020104441         3774 
 3477000   0.70140147   -7.4138701    835.98665   0.02003611  0.020097461         3767 
 3478000   0.68190665   -7.4233227    835.46779  0.020017917  0.020090493         3777 
 3479000   0.69987922   -7.4370827    837.03647  0.020049738  0.020083534         3743 
 3480000     0.692814   -7.4444025    836.56782  0.020032754  0.020076581         3788 
 3481000   0.69528115   -7.4376757    836.96599  0.020036531  0.020069621         3788 
 3482000    0.6821429     -7.44816    836.95569  0.020030531  0.020062665         3823 
 3483000   0.70447029   -7.4307691    838.12978  0.020052871  0.020055707         3802 
 3484000   0.70583928   -7.4255527    837.34678  0.020028386  0.020048745         3773 
 3485000   0.70416984   -7.4397518    836.26776  0.019996838  0.020041787         3808 
 3486000   0.70140619   -7.4483353    835.96591  0.019983886  0.020034831         3753 
 3487000    0.6920932   -7.4442992    836.64689  0.019994429  0.020027881         3792 
 3488000   0.69518001   -7.4262969    836.96144  0.019996212  0.020020935         3787 
 3489000   0.71628768   -7.4084547    837.92845  0.020013577  0.020013991         3778 
 3490000   0.69393115   -7.4171504    836.08516  0.019963829  0.020007051         3787 
 3491000   0.68368332   -7.4377148    837.58725  0.019993967  0.020000111         3773 
 3492000   0.68196553   -7.4265897    837.95948  0.019997124  0.019993165         3806 
 3493000   0.70258414   -7.4541974    837.19725  0.019973214  0.019986219         3784 
 3494000   0.67345886   -7.4276998    836.13918  0.019942262  0.019979277         3769 
 3495000   0.69413647   -7.4624536     836.2589  0.019939411  0.019972335         3796 
 3496000   0.68383927   -7.4392946    836.72645  0.019944853  0.019965397         3780 
 3497000   0.70028725   -7.4391857    835.67924  0.019914194  0.019958461         3782 
 3498000    0.6842519   -7.4268363    835.68774  0.019908704   0.01995152         3787 
 3499000   0.69340795   -7.4264082    835.30587  0.019893919  0.019944585         3769 
 3500000   0.68908075    -7.434166    837.91201  0.019950286  0.019937646         3757 
 3501000   0.69498692   -7.4296587    838.73656  0.019964214  0.019930725         3759 
 3502000   0.68550873   -7.4094545    835.87152  0.019890337  0.019923797         3769 
 3503000   0.70026006   -7.4496214    836.99065  0.019911282  0.019916865         3776 
 3504000   0.68631184   -7.4630848    836.56157  0.019895395  0.019909946         3785 
 3505000   0.70607367   -7.4248333    837.08903  0.019902259  0.019903016         3762 
 3506000   0.69942279    -7.452857    836.32812  0.019878497  0.019896089         3773 
 3507000   0.70291331   -7.4160624    836.78502  0.019883685  0.019889171         3787 
 3508000    0.6922698   -7.4589389    836.35351  0.019867767  0.019882251         3788 
 3509000   0.70190619   -7.4458289    836.70526  0.019870458  0.019875332         3785 
 3510000   0.69316647   -7.4560646    836.82617  0.019867668  0.019868422         3752 
 3511000   0.68044702   -7.4348244    835.94604  0.019841119    0.0198615         3761 
 3512000   0.68545357   -7.4204866    836.28163  0.019843433   0.01985459         3764 
 3513000   0.68841734   -7.4215137    835.37021  0.019816164  0.019847676         3814 
 3514000   0.68713733   -7.4522173    835.03005  0.019802458  0.019840761         3784 
 3515000   0.69481965   -7.4333952    836.04951  0.019820994  0.019833848         3752 
 3516000   0.68564366   -7.4428076     835.1351  0.019793684  0.019826945         3740 
 3517000    0.6762378   -7.4534959    835.25896  0.019790991  0.019820041         3773 
 3518000   0.69182749   -7.4516743    835.56242  0.019792553   0.01981314         3761 
 3519000   0.67032166   -7.4150492    836.77758  0.019815705  0.019806229         3775 
 3520000   0.69524267   -7.4617006    836.51756  0.019803919  0.019799328         3767 
 3521000    0.6907697   -7.4696682    837.46091  0.019820622   0.01979243         3777 
 3522000   0.67747863    -7.435345    835.52167   0.01976911  0.019785546         3800 
 3523000    0.6945658   -7.4255503    836.63975  0.019789946  0.019778654         3752 
 3524000   0.67998435   -7.4672629    838.64505   0.01983175  0.019771769         3764 
 3525000   0.66994182   -7.4479518    834.97216  0.019739295  0.019764877         3764 
 3526000   0.68554709    -7.442486    836.81587   0.01977727  0.019757987         3763 
 3527000   0.68905795   -7.4619124    836.29235  0.019759294  0.019751107         3778 
 3528000   0.68214834   -7.4242714     836.9249  0.019768634  0.019744234         3754 
 3529000   0.67218057   -7.4488264    837.09006  0.019766932  0.019737353         3791 
 3530000   0.68098038   -7.4386782    835.84945  0.019732046  0.019730473         3771 
 3531000   0.68999044   -7.4329443    837.50909  0.019765626  0.019723592         3808 
 3532000    0.6980868   -7.4543769    837.12754  0.019751027  0.019716715         3770 
 3533000   0.66911064   -7.4543578    836.27806    0.0197254   0.01970984         3797 
 3534000   0.68660604   -7.4508646    835.94057   0.01971186  0.019702963         3777 
 3535000   0.69461559   -7.4326184    834.98402  0.019683734  0.019696085         3794 
 3536000   0.68423931   -7.4677082    835.52316  0.019690874  0.019689218         3815 
 3537000   0.68051252   -7.4541609    836.06329  0.019698032  0.019682338         3797 
 3538000   0.69185951   -7.4611791    836.05982  0.019692383  0.019675463         3817 
 3539000   0.68973675   -7.4442167    837.06758  0.019710549  0.019668591         3759 
 3540000   0.68870981   -7.4544969    835.54079  0.019669039  0.019661716         3770 
 3541000   0.69723728   -7.4463224    834.67611  0.019643135  0.019654847         3803 
 3542000   0.66946079    -7.464014    835.34307  0.019653281  0.019647985         3770 
 3543000   0.67770455   -7.4259456    834.24788  0.019621975  0.019641117         3763 
 3544000   0.68203494   -7.4498996    835.74436  0.019651626  0.019634254         3787 
 3545000   0.67312913   -7.4532131    835.15622  0.019632257  0.019627402         3774 
 3546000   0.69652495   -7.4643875    837.52853  0.019682472  0.019620542         3763 
 3547000   0.67442343    -7.445577    834.48337  0.019605379  0.019613683         3784 
 3548000   0.68242902   -7.4528193    837.59657  0.019672975  0.019606827         3825 
 3549000   0.68405599   -7.4527969    837.48549  0.019664823  0.019599982         3795 
 3550000   0.68454534   -7.4430366    835.54169  0.019613655   0.01959313         3811 
 3551000   0.68313516   -7.4528472    835.17053  0.019599421   0.01958628         3805 
 3552000   0.68051342   -7.4520892      837.471  0.019647874  0.019579434         3778 
 3553000   0.68667872   -7.4417222    834.97558  0.019583816  0.019572588         3771 
 3554000   0.67989687   -7.4533295    837.53676   0.01963836  0.019565742         3804 
 3555000   0.68848991   -7.4460566    835.76508  0.019591305  0.019558891         3776 
 3556000   0.69126863   -7.4443752    835.44019  0.019578182  0.019552049         3786 
 3557000   0.67857618      -7.4596    835.48631  0.019573758  0.019545203         3804 
 3558000   0.68980043   -7.4658078     835.3837  0.019565854  0.019538362         3762 
 3559000   0.66426235   -7.4374296    834.76228  0.019545806  0.019531513         3796 
 3560000   0.68059844   -7.4560321    834.82338  0.019541746  0.019524681         3795 
 3561000   0.68891736   -7.4401835    835.51204  0.019552374  0.019517853         3790 
 3562000   0.66908339    -7.456183    835.31502  0.019542275  0.019511019         3800 
 3563000   0.68522881   -7.4585025    835.46127  0.019540211  0.019504187         3791 
 3564000   0.68379887   -7.4518501    834.64184  0.019515569  0.019497358         3786 
 3565000   0.68111427   -7.4349322    834.77662  0.019513245  0.019490533         3801 
 3566000   0.67783504   -7.4611371    835.31905  0.019520449  0.019483706         3796 
 3567000   0.67739987    -7.472266    834.78064  0.019502398  0.019476884         3818 
 3568000   0.66683317   -7.4859606    835.49813   0.01951369  0.019470054         3786 
 3569000   0.67194769   -7.4744024    835.65489  0.019511882   0.01946323         3771 
 3570000   0.69141365   -7.4610747     835.9185   0.01951257  0.019456416         3810 
 3571000   0.67759542    -7.457754    834.52968  0.019474696  0.019449601         3797 
 3572000   0.68880214   -7.4271201    834.98766  0.019479929  0.019442802         3773 
 3573000   0.67548145   -7.4728575    835.22527  0.019480018  0.019435993         3792 
 3574000   0.67074653   -7.4604396    835.72117  0.019486131  0.019429182         3781 
 3575000   0.67639696   -7.4805865    835.85701  0.019483846  0.019422365         3788 
 3576000    0.6855898   -7.4501168    834.79444  0.019453636   0.01941556         3734 
 3577000   0.69708523   -7.4793095    837.15437  0.019503177  0.019408761         3772 
 3578000     0.662897   -7.4616777     835.2671  0.019453771  0.019401953         3795 
 3579000   0.66703096   -7.4657698     835.7392  0.019459328  0.019395146         3791 
 3580000   0.68141148   -7.4672238    835.64557  0.019451712  0.019388349         3797 
 3581000   0.67979553   -7.4797314    834.76536  0.019425797   0.01938155         3808 
 3582000    0.6793655   -7.4587863    836.33503  0.019456892  0.019374754         3791 
 3583000   0.66689416   -7.4569958    834.87728  0.019417557  0.019367958         3808 
 3584000   0.68190907   -7.4716876    834.68883  0.019407757  0.019361165         3796 
 3585000    0.6758641   -7.4428713     833.0599  0.019364479  0.019354372         3812 
 3586000   0.66954991   -7.4742669    834.47884  0.019392053  0.019347579         3790 
 3587000   0.65716546   -7.4678922    834.25851  0.019381528  0.019340782         3786 
 3588000   0.67903549   -7.4654927    834.93953  0.019391944  0.019333995         3790 
 3589000   0.66030421   -7.4788881    836.45049  0.019421624  0.019327212         3760 
 3590000   0.68864948   -7.4677352    835.18194  0.019386768  0.019320425         3784 
 3591000   0.69259939   -7.4387399    836.08849  0.019402406  0.019313647         3784 
 3592000   0.68001177   -7.4674211    834.45208   0.01935904  0.019306871         3798 
 3593000   0.68362593   -7.4552864    834.72607  0.019360007  0.019300093         3813 
 3594000   0.67917825   -7.4744333    835.88901  0.019381585  0.019293314         3777 
 3595000    0.6848837    -7.436149    832.64915  0.019301093  0.019286529         3798 
 3596000   0.68536017   -7.4600156    835.12373  0.019353071  0.019279758         3793 
 3597000   0.67333121   -7.4626596    836.27973  0.019374473  0.019272988         3794 
 3598000    0.6547906   -7.4738046    834.57676  0.019329645  0.019266223         3779 
 3599000    0.6882008    -7.491352    835.59716  0.019347901  0.019259452         3795 
 3600000   0.68138375   -7.4613119    833.70581  0.019298746  0.019252685         3824 
 3601000   0.65710713   -7.4724605    836.15738   0.01935012  0.019245926         3802 
 3602000   0.67097096   -7.4570026    834.44355  0.019305098  0.019239166         3809 
 3603000   0.66183635    -7.449119    833.35513  0.019274566  0.019232414         3808 
 3604000   0.67807267   -7.4584838    833.16619  0.019264849  0.019225643         3822 
 3605000   0.67002834   -7.4662907    833.74718  0.019272935  0.019218881         3824 
 3606000   0.68185483   -7.4838951    835.27136  0.019302814  0.019212115         3831 
 3607000   0.67995088   -7.4891321    834.77978  0.019286105  0.019205345         3834 
 3608000   0.67473328   -7.4793545    834.65071  0.019277779  0.019198578         3832 
 3609000   0.68415663   -7.4884976    833.81341  0.019253104  0.019191818         3824 
 3610000   0.67173629   -7.4555587    833.05025  0.019230154  0.019185054         3840 
 3611000   0.68016081   -7.4814014    835.28749  0.019276458  0.019178294         3830 
 3612000   0.69788275   -7.4691442    833.64045  0.019233122  0.019171529         3836 
 3613000   0.68340624   -7.4669456    835.10663  0.019261616  0.019164774         3810 
 3614000   0.66671081   -7.4687598    835.15113  0.019257313  0.019158016         3854 
 3615000   0.66339983    -7.500793    835.73701  0.019265491   0.01915126         3847 
 3616000   0.67745025   -7.4766316    834.69594  0.019236171  0.019144513         3810 
 3617000   0.67068976   -7.4790456    834.89609  0.019235464  0.019137767         3836 
 3618000   0.68284153   -7.4823732    833.32117  0.019193873  0.019131013         3834 
 3619000   0.67241943   -7.4713826    834.84098  0.019223565   0.01912427         3806 
 3620000   0.67080272   -7.4869484    833.69866  0.019191958  0.019117525         3814 
 3621000   0.67738943   -7.4856913    834.54527  0.019206142  0.019110782         3800 
 3622000   0.67958041   -7.4806736    834.35678  0.019196502  0.019104042         3800 
 3623000   0.68276767   -7.4775748    834.70312   0.01919917  0.019097296         3819 
 3624000   0.66432709   -7.4666281    834.06275  0.019179147  0.019090556         3810 
 3625000   0.66352036    -7.509085    834.09739  0.019174653  0.019083825         3812 
 3626000   0.68512156   -7.4733558    833.30141  0.019151071  0.019077092         3804 
 3627000   0.65146022    -7.498584    833.50855   0.01915055  0.019070364         3837 
 3628000   0.67293183   -7.4703146    833.95657  0.019155562  0.019063634         3808 
 3629000   0.65893468   -7.4841384    834.56397  0.019164232  0.019056904         3819 
 3630000   0.65442411    -7.472494    835.12108  0.019171742  0.019050178         3796 
 3631000   0.65648079   -7.4809614    833.85898  0.019137496  0.019043452         3832 
 3632000   0.68205265   -7.4769921    833.84654  0.019131942  0.019036733         3791 
 3633000   0.66434738   -7.4984853    833.80768  0.019125784  0.019030023         3806 
 3634000   0.66466181    -7.513798    834.83302  0.019144034  0.019023303         3819 
 3635000   0.66520159   -7.5019009    833.30388  0.019103711  0.019016581         3823 
 3636000   0.68128711   -7.4980994    834.16425  0.019118176  0.019009859         3856 
 3637000   0.67101997   -7.5019391    833.58432  0.019099632  0.019003137         3858 
 3638000   0.66688141   -7.4965752    834.93265  0.019125267  0.018996415         3826 
 3639000   0.67137321   -7.5036603    834.43882  0.019108702  0.018989689         3832 
 3640000   0.65517027   -7.5089918     833.8937  0.019090973  0.018982966         3836 
 3641000    0.6709134   -7.5130279    832.82684  0.019061312  0.018976242         3838 
 3642000   0.67317479    -7.482624     834.5639  0.019095824  0.018969527         3848 
 3643000   0.65681555   -7.5118925    833.93613  0.019076222  0.018962807         3862 
 3644000   0.66006411   -7.4787278    833.41578  0.019059087  0.018956092         3854 
 3645000   0.66891616   -7.4946665    835.82934  0.019109038  0.018949381         3874 
 3646000   0.68310706   -7.5173566    834.25078  0.019067717  0.018942671         3860 
 3647000   0.66282936   -7.5007103    834.29286  0.019063451  0.018935969         3857 
 3648000   0.65402418   -7.5129856    833.31333  0.019035849  0.018929262         3861 
 3649000    0.6581446   -7.4994013    833.02472  0.019024041  0.018922554         3859 
 3650000    0.6797924   -7.5226866    831.78342  0.018990489  0.018915848         3872 
 3651000   0.67203505   -7.5091027    832.53118  0.019002355  0.018909153         3882 
 3652000   0.66888851   -7.5143492    832.23773  0.018990456  0.018902452         3854 
 3653000    0.6632038   -7.5067238     832.1027  0.018982177  0.018895753         3875 
 3654000   0.67769868   -7.5272098    833.26038  0.019003384  0.018889055         3857 
 3655000   0.68066699     -7.48907    832.47199   0.01898021  0.018882367         3878 
 3656000   0.67127256   -7.4780079    832.50636  0.018975801  0.018875678         3861 
 3657000   0.67167076   -7.4999242     832.6985  0.018974991   0.01886899         3881 
 3658000   0.66808461   -7.5170445    832.48255  0.018964884  0.018862299         3882 
 3659000   0.66266546   -7.4962726    832.30601   0.01895568  0.018855614         3865 
 3660000   0.66293313   -7.5102155    831.66382  0.018935879  0.018848932         3855 
 3661000   0.66350324    -7.489191    833.05965  0.018962479   0.01884225         3870 
 3662000   0.66880094   -7.5054101    834.23048  0.018983945  0.018835568         3868 
 3663000   0.66163017   -7.5058257    832.94791  0.018949584  0.018828881         3854 
 3664000   0.67251111   -7.4966038    835.33646  0.018998737  0.018822216         3883 
 3665000   0.66684843   -7.5234933     832.9062  0.018938295  0.018815546         3846 
 3666000   0.65628753   -7.4972777    833.87429  0.018955135  0.018808885         3870 
 3667000   0.67925768   -7.5076066    834.75946  0.018970081  0.018802215         3870 
 3668000   0.66784338   -7.5025393    835.15779  0.018973959   0.01879555         3873 
 3669000   0.66699599   -7.5112742     831.5204  0.018886172  0.018788876         3878 
 3670000   0.65722381   -7.5108601    834.28152  0.018943722  0.018782209         3858 
 3671000    0.6668347   -7.5358384    834.21581   0.01893707  0.018775537         3862 
 3672000   0.66824012   -7.5168079    833.27887   0.01891065  0.018768876         3857 
 3673000   0.65093601   -7.5008671    833.22108   0.01890419  0.018762216         3872 
 3674000   0.66935371   -7.5346692    834.48483  0.018927709  0.018755555         3869 
 3675000   0.66693341   -7.5074561    833.16576  0.018892648    0.0187489         3876 
 3676000    0.6637189   -7.5071327    833.56843  0.018896636  0.018742244         3864 
 3677000   0.66943237   -7.5086612    834.04904   0.01890239  0.018735592         3868 
 3678000   0.66911999   -7.5180263    832.07717  0.018852573  0.018728935         3858 
 3679000   0.66659619   -7.5091798     832.4414  0.018855699   0.01872228         3881 
 3680000   0.64653705   -7.5089368    832.48758  0.018851621  0.018715627         3854 
 3681000   0.64779288   -7.4972065    832.10892  0.018837927  0.018708974         3883 
 3682000   0.66403948   -7.5217653     832.7215  0.018846675  0.018702328         3867 
 3683000   0.67032565   -7.5237261    834.11463   0.01887308   0.01869568         3881 
 3684000   0.64116501   -7.5119354    831.76787  0.018814872  0.018689036         3859 
 3685000   0.65755009   -7.5369849    832.59781  0.018828535  0.018682387         3859 
 3686000   0.65210245   -7.4974127    832.60117  0.018823503  0.018675741         3905 
 3687000   0.67197701   -7.5365386    832.79106  0.018822689  0.018669103         3877 
 3688000   0.66018835   -7.5268709    831.34108  0.018784822  0.018662462         3859 
 3689000   0.66319113   -7.5087348    831.44207  0.018782011  0.018655825         3887 
 3690000   0.66157888   -7.5266424    831.86946  0.018786573  0.018649195         3888 
 3691000   0.65344542    -7.524113    832.15571  0.018787946  0.018642564         3886 
 3692000   0.66232843   -7.5066707    832.43077  0.018789066  0.018635936         3876 
 3693000   0.66059747   -7.5301088    832.12895  0.018777167  0.018629306         3858 
 3694000   0.65948547   -7.5120809     831.2415  0.018752064  0.018622683         3872 
 3695000   0.66217878   -7.5184764     831.5325  0.018753552  0.018616055         3885 
 3696000   0.66229724   -7.5221831    833.68945  0.018797111  0.018609431         3871 
 3697000    0.6675601   -7.5214752    831.96439  0.018753142  0.018602809         3887 
 3698000   0.66499416   -7.5299746    832.84007  0.018767804  0.018596192         3878 
 3699000   0.66589907   -7.5273516    831.92839  0.018742191  0.018589578         3884 
 3700000   0.65803663   -7.5302029    832.16971  0.018742561  0.018582966         3889 
 3701000   0.66767217   -7.5254363    832.35151   0.01874159  0.018576353         3885 
 3702000   0.67666897   -7.5301756    832.98512   0.01875079  0.018569737         3862 
 3703000   0.66670135   -7.5188083    832.13152  0.018726517  0.018563128         3879 
 3704000   0.66055507   -7.5331502    833.02976   0.01874167  0.018556521         3884 
 3705000     0.664286   -7.5397779    834.06289  0.018759849  0.018549923         3874 
 3706000   0.65284893   -7.5237694    832.32003  0.018715597  0.018543326         3892 
 3707000   0.64961561   -7.5462276    832.06112  0.018704728  0.018536732         3890 
 3708000   0.65307268   -7.5430364    832.28095  0.018704624  0.018530132         3894 
 3709000   0.67415879   -7.5124108    833.32923  0.018723134  0.018523535         3871 
 3710000    0.6420088   -7.5154617    832.57002  0.018701034  0.018516944         3890 
 3711000   0.65074859   -7.5246803    832.44883  0.018693273  0.018510353         3885 
 3712000   0.66684829   -7.5103361    831.57076  0.018668525   0.01850376         3879 
 3713000   0.64747694    -7.524836    833.72718  0.018711895  0.018497175         3885 
 3714000   0.66256213   -7.5259604    832.83387  0.018686813  0.018490592         3884 
 3715000   0.65287639   -7.5264409    832.70474  0.018678886  0.018484016         3873 
 3716000   0.68179494   -7.5083306    833.28898  0.018686961  0.018477441         3887 
 3717000   0.66451661   -7.5379584    831.93516  0.018651582  0.018470866         3881 
 3718000   0.65751886   -7.5292448    831.30899  0.018632531  0.018464294         3899 
 3719000     0.662902   -7.5321233     832.6225  0.018656953  0.018457722         3885 
 3720000   0.66056533   -7.5344541    831.58291  0.018628649  0.018451156         3885 
 3721000   0.65956518   -7.5455714    832.90105  0.018653163  0.018444585         3870 
 3722000   0.66195815   -7.5121303    832.43823   0.01863779  0.018438025         3882 
 3723000   0.64532771   -7.5371251    832.60369  0.018636487  0.018431462         3856 
 3724000   0.66442953   -7.5107597    832.77005  0.018635205  0.018424903         3872 
 3725000   0.65450054   -7.5379419     833.1298   0.01863825  0.018418341         3879 
 3726000   0.64926123   -7.5200408    830.20439   0.01856782  0.018411777         3889 
 3727000   0.64928965   -7.5346284    832.90104  0.018623134  0.018405226         3852 
 3728000   0.66728173   -7.5472186    831.44852   0.01858567  0.018398672         3875 
 3729000   0.65082907   -7.5198643    832.50682  0.018604336  0.018392123         3861 
 3730000   0.65592979   -7.5338408    831.87243  0.018585175  0.018385577         3874 
 3731000   0.66880976   -7.5123688    832.85836  0.018602215   0.01837904         3889 
 3732000   0.66313187   -7.5328696    831.67467  0.018570799  0.018372494         3880 
 3733000   0.65097074   -7.5353158    833.51603   0.01860693  0.018365948         3875 
 3734000   0.66703567   -7.5236123    833.33579  0.018597924  0.018359406         3867 
 3735000   0.66599931   -7.5254047    831.81422  0.018558997   0.01835287         3871 
 3736000   0.64705187   -7.5405352    832.20802  0.018562813  0.018346339         3874 
 3737000    0.6632231    -7.526886    832.80454  0.018571148  0.018339805         3874 
 3738000   0.65245563   -7.5319227    833.18891  0.018574748   0.01833327         3883 
 3739000   0.65833104   -7.5325887    832.09231   0.01854534  0.018326747         3876 
 3740000   0.65936607    -7.535338    831.55118  0.018528324  0.018320218         3876 
 3741000   0.65981879   -7.5166044    832.64189  0.018547667  0.018313694         3848 
 3742000   0.64757153   -7.5457248    833.15541  0.018554147  0.018307171         3868 
 3743000   0.64086059   -7.5305708    831.25399  0.018506857   0.01830065         3870 
 3744000    0.6406513   -7.5470334    831.31891  0.018503359  0.018294131         3868 
 3745000   0.64373292   -7.5384183    832.18423  0.018517673  0.018287618         3869 
 3746000   0.65432443   -7.5263227     831.4159  0.018495638  0.018281113         3874 
 3747000   0.64883314   -7.5389592    832.30192  0.018510407  0.018274602         3887 
 3748000   0.65221081   -7.5120543    831.76848  0.018493607  0.018268109         3865 
 3749000    0.6493888   -7.5323611    832.49699  0.018504868  0.018261601         3870 
 3750000   0.66181338    -7.545925     831.9789   0.01848842  0.018255109         3865 
 3751000   0.64651158   -7.5313902    831.82175      0.01848  0.018248608         3872 
 3752000    0.6525589   -7.5386815    833.15718  0.018504735  0.018242115         3875 
 3753000   0.66164734   -7.5310421    831.77995  0.018469224  0.018235623         3851 
 3754000   0.64814445   -7.5360863    830.19638  0.018429151  0.018229128         3889 
 3755000   0.65215706   -7.5078131    832.75897  0.018481113   0.01822264         3876 
 3756000   0.66317024   -7.5431537    832.63714   0.01847349  0.018216156         3877 
 3757000   0.66867924   -7.5439013     831.9235  0.018452744  0.018209673         3871 
 3758000   0.64938471   -7.5394482    831.43154  0.018436924  0.018203185         3870 
 3759000    0.6437557   -7.5198476    833.04127  0.018467706  0.018196709         3886 
 3760000   0.64934084   -7.5259026    832.39224   0.01844841  0.018190229         3875 
 3761000   0.64860777   -7.5469213    831.50159   0.01842377  0.018183756         3887 
 3762000   0.64896767   -7.5294972    832.29249  0.018436392  0.018177288         3871 
 3763000   0.64755615   -7.5168545    831.83673    0.0184214  0.018170816         3882 
 3764000   0.65883231    -7.548115    831.66573   0.01841272  0.018164346         3902 
 3765000   0.64541477   -7.5298948    831.17322  0.018396928  0.018157877         3883 
 3766000   0.65354734   -7.5418928    831.64686  0.018402524  0.018151413         3868 
 3767000   0.63869565   -7.5376039    832.65359   0.01841991  0.018144946         3885 
 3768000   0.64356697   -7.5387112    831.81835  0.018396549   0.01813848         3886 
 3769000   0.65817871   -7.5645421     832.2957  0.018402222  0.018132024         3878 
 3770000   0.64636838   -7.5421998    831.08561  0.018370593   0.01812557         3887 
 3771000   0.65269315   -7.5497712    831.78591  0.018381197  0.018119111         3878 
 3772000   0.66943316   -7.5551439    831.41498  0.018368129   0.01811266         3877 
 3773000   0.65177349   -7.5415919    833.56177  0.018410676  0.018106217         3864 
 3774000   0.65204168   -7.5282879    830.45666  0.018337234  0.018099768         3856 
 3775000   0.65665942   -7.5419515    833.27374  0.018394564  0.018093329         3879 
 3776000   0.65523305   -7.5543743    831.56959  0.018352083  0.018086888         3876 
 3777000     0.636095    -7.544588    831.15782  0.018338139  0.018080455         3870 
 3778000   0.63585233   -7.5333909    831.08397  0.018331656  0.018074023         3864 
 3779000   0.65580448   -7.5529806    831.93103  0.018345485  0.018067591         3878 
 3780000   0.64372495   -7.5432364    832.11801  0.018344753  0.018061165         3872 
 3781000   0.64843259   -7.5136754    830.75668  0.018309898  0.018054737         3879 
 3782000   0.65786094   -7.5426824    830.50465  0.018299503  0.018048308         3879 
 3783000   0.65205823   -7.5361377     830.3256  0.018290722  0.018041887         3864 
 3784000   0.64875239   -7.5305537    830.66698  0.018293406   0.01803546         3879 
 3785000   0.64945422   -7.5343525    832.02016  0.018318365  0.018029036         3858 
 3786000   0.64627927    -7.561386    832.38608  0.018321581  0.018022616         3873 
 3787000   0.63247772   -7.5494775    831.57935  0.018298991  0.018016198         3885 
 3788000   0.65116313   -7.5508277      831.311  0.018288257  0.018009784         3890 
 3789000   0.63770447   -7.5554164    828.98666   0.01823231  0.018003371         3881 
 3790000   0.64102761   -7.5328518    830.20745  0.018254342  0.017996955         3893 
 3791000     0.646859   -7.5532116    831.36194  0.018274904  0.017990546         3870 
 3792000   0.65131537   -7.5769469    831.69088  0.018277314  0.017984137         3881 
 3793000   0.63474041    -7.523245    831.87142  0.018276461   0.01797773         3862 
 3794000     0.648491   -7.5347951    832.96257  0.018295611  0.017971325         3867 
 3795000   0.65425712   -7.5446675    834.06204  0.018314933  0.017964928         3871 
 3796000   0.62787915   -7.5498923    832.29307  0.018271274  0.017958527         3876 
 3797000   0.64461374   -7.5392126    831.83699  0.018256452  0.017952129         3850 
 3798000   0.64304778   -7.5529959    831.99949  0.018255211  0.017945729         3873 
 3799000   0.64549083   -7.5758107    832.40454  0.018259291  0.017939337         3883 
 3800000   0.64529365   -7.5453632      831.798  0.018241184  0.017932953         3871 
 3801000   0.64358222   -7.5371644    831.89408  0.018238492  0.017926558         3872 
 3802000   0.62970655   -7.5240127    831.62964  0.018227898  0.017920171         3859 
 3803000   0.63565485   -7.5521001    832.02582  0.018231787  0.017913787         3890 
 3804000   0.63381902   -7.5619004    831.61907  0.018218083  0.017907399         3893 
 3805000   0.63131676   -7.5503568    830.38285  0.018186221  0.017901017         3885 
 3806000   0.63726637   -7.5559704    832.25562  0.018222448  0.017894636         3871 
 3807000   0.63719363   -7.5635234    832.02995  0.018212721  0.017888264         3869 
 3808000   0.63957235   -7.5573126    830.84043  0.018181907  0.017881885         3886 
 3809000   0.63837738   -7.5460117    832.76836  0.018219313  0.017875516         3885 
 3810000   0.65298496   -7.5633432    830.19802  0.018158312  0.017869145         3879 
 3811000    0.6476178    -7.578168    832.03372  0.018193687  0.017862786         3885 
 3812000   0.65094833     -7.56047    831.43715  0.018175873  0.017856426         3882 
 3813000   0.64874303   -7.5574617     831.0225  0.018162044  0.017850066         3868 
 3814000    0.6337094    -7.550279    832.00089   0.01817866  0.017843712         3866 
 3815000   0.63742675   -7.5518846    832.73595  0.018189951  0.017837355         3868 
 3816000   0.62496741   -7.5615951    831.68813  0.018162302  0.017831003         3855 
 3817000   0.63693612   -7.5832576    832.23181  0.018169413  0.017824648         3880 
 3818000   0.62810327   -7.5507515    831.37131  0.018145873  0.017818293         3873 
 3819000    0.6457673   -7.5361739     831.0516  0.018134145  0.017811942         3898 
 3820000   0.63631221   -7.5421686    830.28416  0.018112656  0.017805599         3868 
 3821000   0.64597194   -7.5577468     830.6685  0.018116298  0.017799253         3851 
 3822000   0.65075049   -7.5654993     830.4919  0.018107708   0.01779291         3888 
 3823000   0.62295273   -7.5521854    830.51539  0.018103483  0.017786568         3874 
 3824000   0.63436695   -7.5588701    830.68804  0.018102511  0.017780227         3857 
 3825000   0.62338641   -7.5395385    831.86698  0.018123464  0.017773893         3869 
 3826000   0.64967427   -7.5670631     832.4883   0.01813226  0.017767556         3887 
 3827000    0.6473815   -7.5486436    830.41211  0.018082312  0.017761222         3877 
 3828000    0.6506309   -7.5428239    831.76664  0.018107076  0.017754895         3875 
 3829000   0.63806219   -7.5540892    831.37047  0.018093725  0.017748571         3895 
 3830000   0.63572057   -7.5350641    830.48808  0.018069802  0.017742248         3862 
 3831000   0.63982972   -7.5504398    830.81372  0.018072168  0.017735922         3883 
 3832000   0.63552025   -7.5487694    833.00054  0.018115008  0.017729604         3896 
 3833000   0.63683952    -7.572231     830.1188   0.01804763  0.017723282         3875 
 3834000   0.65175891    -7.548176    830.81851  0.018058132  0.017716962         3864 
 3835000   0.64387518   -7.5474932    829.47995  0.018024336   0.01771065         3869 
 3836000   0.62650919    -7.555306    831.49575  0.018063429  0.017704336         3873 
 3837000   0.63279164   -7.5758023    832.14944  0.018072918  0.017698026         3873 
 3838000   0.63168571   -7.5450794     831.3637  0.018051149  0.017691719         3871 
 3839000   0.62212946   -7.5692043    830.72391  0.018032559  0.017685412         3889 
 3840000    0.6385388   -7.5562781    831.17378  0.018037626  0.017679113         3864 
 3841000   0.62695764   -7.5534554    831.43551  0.018038608  0.017672815         3875 
 3842000   0.63257817   -7.5425976    833.24646  0.018073192  0.017666515         3849 
 3843000   0.64810989   -7.5547148    831.25849  0.018025381  0.017660222         3871 
 3844000   0.64130912   -7.5691714    831.55791  0.018027183   0.01765393         3878 
 3845000   0.62698193   -7.5526995    832.76959  0.018048756  0.017647648         3877 
 3846000   0.64865607   -7.5466031    831.28411  0.018011876  0.017641355         3860 
 3847000   0.63660734   -7.5581202    830.59487  0.017992264  0.017635068         3866 
 3848000   0.63164439   -7.5689652    830.30096  0.017981223  0.017628782         3884 
 3849000   0.62486695   -7.5794531    830.62671  0.017983604  0.017622491         3868 
 3850000   0.63807293   -7.5673825    831.85324  0.018005481  0.017616208         3869 
 3851000   0.65580869   -7.5729449    831.19742  0.017986614  0.017609929         3876 
 3852000   0.63192718    -7.554026    831.85403   0.01799615  0.017603646         3869 
 3853000   0.64664953   -7.5554802     830.0832  0.017953179  0.017597373         3856 
 3854000   0.63711956   -7.5550237     830.9165  0.017966539  0.017591096         3858 
 3855000   0.63337106   -7.5791279    829.58849  0.017933171  0.017584826         3878 
 3856000   0.62611424   -7.5587532    832.68359   0.01799541  0.017578554         3862 
 3857000   0.63706445   -7.5715261    830.88897   0.01795197  0.017572283         3868 
 3858000   0.64086276   -7.5364595    831.27493  0.017955653  0.017566015         3882 
 3859000   0.63141813   -7.5717564    831.72955  0.017960818  0.017559749         3871 
 3860000   0.64809383   -7.5887193    830.26614  0.017924571  0.017553482         3875 
 3861000   0.61626108   -7.5861711    830.90085  0.017933628  0.017547221         3880 
 3862000   0.63225793   -7.5807834    831.58761  0.017943803  0.017540959         3874 
 3863000   0.63921401   -7.5644634    828.80986  0.017879236  0.017534697         3868 
 3864000   0.63918477   -7.5628819    830.34281  0.017907669  0.017528437         3855 
 3865000   0.64421378   -7.5697952    831.28552  0.017923362  0.017522182         3859 
 3866000   0.62883296   -7.5439371    830.93783  0.017911231  0.017515928         3892 
 3867000   0.63817671    -7.569093    829.50925  0.017875814  0.017509681         3864 
 3868000   0.63639365   -7.5480778    830.51572  0.017892876  0.017503432         3867 
 3869000   0.62723891   -7.5515452    831.27044  0.017904507  0.017497186         3869 
 3870000   0.63099334   -7.5713274    830.04691  0.017873534  0.017490944         3867 
 3871000   0.63400731   -7.5698353    830.95629  0.017888493  0.017484702         3874 
 3872000   0.64002323   -7.5519356    831.25915  0.017890391  0.017478465         3880 
 3873000    0.6325874   -7.5742281    830.46173  0.017868615  0.017472226         3870 
 3874000   0.62544918   -7.5629715     831.1382  0.017878554  0.017465987         3888 
 3875000   0.62455663    -7.588166    829.14378  0.017831049  0.017459749         3887 
 3876000   0.63091312   -7.5750968    830.22372  0.017849667  0.017453515         3877 
 3877000   0.63443599   -7.5595372    831.12001  0.017864328  0.017447292         3854 
 3878000   0.64584164   -7.5657635      829.409  0.017822954  0.017441068         3876 
 3879000   0.63970977   -7.5692435    831.02751   0.01785313  0.017434843         3868 
 3880000   0.62830529   -7.5477912    831.12359  0.017850593  0.017428629         3866 
 3881000   0.62928407   -7.5688254    832.63975  0.017878548  0.017422408         3886 
 3882000   0.62383173   -7.5694251     829.5163  0.017806893   0.01741619         3882 
 3883000   0.63312397   -7.5883706    828.76174  0.017786113  0.017409972         3881 
 3884000    0.6328617   -7.5981726    829.32144  0.017793543   0.01740376         3873 
 3885000    0.6373126   -7.5682179    828.77507  0.017777243   0.01739755         3872 
 3886000    0.6344139   -7.5684159    830.10616  0.017801213  0.017391342         3869 
 3887000    0.6304469   -7.5621192    830.10981  0.017796712  0.017385137         3877 
 3888000   0.63512153   -7.5762783    828.67345  0.017761348  0.017378934         3873 
 3889000   0.63542714   -7.5793525    830.55869  0.017797178  0.017372736         3882 
 3890000   0.62654916   -7.5945848    828.90107  0.017757092   0.01736653         3895 
 3891000   0.64124099   -7.5930338    830.58116  0.017788511  0.017360333         3872 
 3892000   0.63139516   -7.5828189    830.17353  0.017775213  0.017354139         3864 
 3893000   0.63059175   -7.5733501     831.8666  0.017806888  0.017347957         3868 
 3894000   0.62964152   -7.5805718    830.98707  0.017783493  0.017341771         3870 
 3895000   0.61724554   -7.5852926    830.15995  0.017761231  0.017335583         3886 
 3896000   0.63342782   -7.5768616    829.66775  0.017746145   0.01732939         3874 
 3897000   0.62967018   -7.5897934     830.3239  0.017755622  0.017323199         3876 
 3898000   0.61276495   -7.5849363    828.80809  0.017718661  0.017317022         3867 
 3899000   0.64949169   -7.5927439    829.23574  0.017723257  0.017310839         3878 
 3900000   0.63760908    -7.589733    829.34505  0.017721048  0.017304663         3884 
 3901000   0.62946313    -7.583092    830.07679  0.017732137  0.017298486         3879 
 3902000   0.62892235   -7.5784338    830.00687  0.017726099   0.01729231         3869 
 3903000   0.64030465    -7.584496    830.33822  0.017728632  0.017286145         3878 
 3904000   0.62900542   -7.5736729    830.59491   0.01772957  0.017279974         3869 
 3905000    0.6285596   -7.5646293    830.73219   0.01772796  0.017273807         3864 
 3906000   0.62506635   -7.5601934    829.45859  0.017696249  0.017267643         3862 
 3907000   0.62333249   -7.5772093    829.77431  0.017698454   0.01726148         3860 
 3908000   0.61503205   -7.5938042    829.44699  0.017686945  0.017255324         3887 
 3909000   0.61535508   -7.5850248    829.07831  0.017674561  0.017249167         3879 
 3910000   0.61962844   -7.5802515    830.99779   0.01771095  0.017243009         3871 
 3911000   0.62599098   -7.5619863    829.71376  0.017679062  0.017236852         3863 
 3912000    0.6365447   -7.5893605    830.06152  0.017681951  0.017230701         3867 
 3913000   0.62626169   -7.5712315    829.46601   0.01766475  0.017224552         3869 
 3914000   0.62214314   -7.5857656     830.3577  0.017679222  0.017218407         3889 
 3915000   0.62150443   -7.5687126    829.54853  0.017657483  0.017212263         3858 
 3916000   0.62068359   -7.5639813    830.41375  0.017671385  0.017206119         3878 
 3917000   0.62774445   -7.5829524    830.90327  0.017677289   0.01719998         3868 
 3918000   0.63480071   -7.5787621    831.12416  0.017677475  0.017193842         3859 
 3919000     0.614174   -7.5802677    829.94269  0.017647842  0.017187708         3875 
 3920000   0.62686178   -7.5916845    829.60443  0.017636149  0.017181579         3875 
 3921000   0.60752645   -7.5946886    830.65612  0.017654002  0.017175453         3863 
 3922000   0.62776563   -7.5823192    830.56928  0.017647656  0.017169326         3872 
 3923000   0.61597168   -7.5817832    829.97831  0.017630604  0.017163204         3862 
 3924000   0.61940355   -7.5835531    828.68342  0.017598612  0.017157082         3871 
 3925000   0.62698464   -7.5972035    829.38878  0.017609104  0.017150962         3874 
 3926000   0.61479087   -7.5611594    829.73709  0.017612012  0.017144841         3887 
 3927000   0.62785716   -7.5754739    830.19805  0.017617309  0.017138729         3856 
 3928000   0.61789907   -7.5689829    828.01091  0.017566423  0.017132619         3892 
 3929000   0.62383424   -7.5790129    830.22877  0.017608992  0.017126508         3880 
 3930000   0.62530307   -7.5886655     829.1997  0.017582691  0.017120398         3872 
 3931000    0.6270994   -7.5795451    830.90752  0.017614422  0.017114294         3861 
 3932000   0.63309781   -7.5795231    829.65846   0.01758347  0.017108191         3868 
 3933000   0.62318999   -7.5747112    829.35139  0.017572493  0.017102092         3862 
 3934000   0.62283862   -7.5944181    828.03755  0.017540196  0.017095995         3875 
 3935000   0.63881054   -7.5875131    830.13221  0.017580098  0.017089896         3863 
 3936000   0.61710466   -7.5655982    829.51481  0.017562559  0.017083801         3861 
 3937000   0.62951413   -7.6083685    830.50282  0.017579012  0.017077711         3894 
 3938000   0.61296891   -7.6059811    829.10362  0.017544939  0.017071619         3890 
 3939000   0.61021878   -7.5804826    830.40465  0.017568009  0.017065533         3866 
 3940000   0.62027858    -7.590824    829.33474  0.017540921  0.017059444         3885 
 3941000    0.6190649   -7.5839184     829.7413  0.017545067  0.017053365         3867 
 3942000   0.61841953   -7.5657383     829.2278  0.017529761  0.017047285         3879 
 3943000    0.6325719   -7.5700222    828.81086  0.017516503  0.017041206         3873 
 3944000    0.6149575   -7.5964394    830.47656  0.017547257  0.017035132         3882 
 3945000   0.61156323   -7.6028238     829.1265   0.01751429  0.017029052         3868 
 3946000    0.6205136   -7.5882233    828.78886  0.017502721  0.017022978         3866 
 3947000   0.61997022   -7.6107875    829.18356   0.01750662  0.017016906         3880 
 3948000   0.61596005   -7.5720622    828.74403  0.017492908  0.017010841         3876 
 3949000   0.61556031   -7.5773011     830.2954  0.017521216  0.017004786         3873 
 3950000   0.62153782   -7.5936834    830.95435  0.017530682  0.016998724         3873 
 3951000   0.62061461     -7.59961    830.09972   0.01750822  0.016992673         3870 
 3952000   0.61659364   -7.5977218    829.77236  0.017496887  0.016986613         3865 
 3953000   0.62920366   -7.6109089       830.04  0.017498103  0.016980559         3878 
 3954000   0.62847336   -7.5820195     830.3783  0.017500807  0.016974507         3871 
 3955000   0.62982255   -7.6069189    830.57828  0.017500596  0.016968455         3881 
 3956000   0.62545545   -7.6156123    830.39821  0.017492379  0.016962404         3868 
 3957000   0.61295522   -7.5825252    828.28758  0.017443509  0.016956357         3872 
 3958000   0.61818215   -7.6110574    828.96984  0.017453466  0.016950316         3878 
 3959000   0.62521122   -7.5726495    828.07849  0.017430296  0.016944275         3867 
 3960000   0.61677994   -7.5948651    828.34467  0.017431496  0.016938237         3873 
 3961000   0.61886124   -7.6062204    830.91844  0.017481243  0.016932199         3888 
 3962000   0.62178128   -7.5755589    829.00698  0.017436627   0.01692616         3862 
 3963000   0.61485984   -7.5908173    829.75289  0.017447912   0.01692013         3881 
 3964000   0.59534527    -7.604764    829.74672   0.01744338  0.016914103         3885 
 3965000   0.62015563   -7.6091508    829.43982  0.017432531  0.016908071         3880 
 3966000   0.62200132   -7.5809037    829.89409   0.01743768  0.016902048         3855 
 3967000   0.60488361   -7.5961013    829.08063  0.017416197   0.01689602         3894 
 3968000   0.62940384   -7.5882395    829.86092  0.017428195  0.016890002         3899 
 3969000    0.6156647   -7.5963455    829.21578  0.017410258  0.016883983         3877 
 3970000   0.62394033   -7.6057486    829.42313  0.017410225  0.016877963         3870 
 3971000   0.61074631    -7.593538     828.4731  0.017385904  0.016871947         3872 
 3972000   0.62233185   -7.5920705    829.21216  0.017397033  0.016865939         3887 
 3973000   0.61514047   -7.5981899    829.72915  0.017403498  0.016859927         3854 
 3974000   0.61458019   -7.6025445    827.22423  0.017346591  0.016853925         3888 
 3975000   0.60601799   -7.5766196    829.83374  0.017396934   0.01684793         3875 
 3976000   0.62074501    -7.604713    830.26312  0.017401558  0.016841923         3884 
 3977000   0.61623534   -7.5982649    829.28516   0.01737669  0.016835924         3867 
 3978000   0.61723617   -7.5663576    828.13983  0.017348329   0.01682993         3879 
 3979000   0.60629883    -7.595017    829.11856  0.017364467  0.016823932         3874 
 3980000   0.61723098   -7.6100519    830.52503  0.017389553  0.016817942         3873 
 3981000   0.63087823    -7.590696    829.53105  0.017364378  0.016811952         3883 
 3982000   0.61155873   -7.5788897     827.9509  0.017326948  0.016805963         3884 
 3983000   0.62070579   -7.6323979    828.43209  0.017332666   0.01679998         3865 
 3984000   0.61829704   -7.6016069    830.14642  0.017364174  0.016793991         3864 
 3985000   0.60374375   -7.6119518    828.32944   0.01732182  0.016788008         3879 
 3986000   0.60823304   -7.5987218    828.42807  0.017319536  0.016782025         3867 
 3987000   0.60593502   -7.5848364    828.45607  0.017315778  0.016776045         3892 
 3988000   0.60176288   -7.5918535    828.03476  0.017302632   0.01677007         3882 
 3989000    0.6118037   -7.6281002    826.99461  0.017276565  0.016764096         3876 
 3990000   0.60893503   -7.6231154    827.65064  0.017285936  0.016758123         3864 
 3991000   0.62313856   -7.5975979     828.1565  0.017292168  0.016752153         3881 
 3992000   0.61517198     -7.59049     828.6891  0.017298954  0.016746189         3863 
 3993000    0.6103419   -7.6090879    829.04436  0.017302036  0.016740224         3891 
 3994000   0.60965259   -7.6048373    829.48473  0.017306892  0.016734267         3874 
 3995000   0.61973248    -7.590404    827.62417   0.01726375  0.016728313         3863 
 3996000   0.60457659   -7.5919854    829.25727  0.017293487  0.016722357         3864 
 3997000   0.60576903   -7.6015765    829.56376   0.01729555  0.016716407         3868 
 3998000   0.60941813   -7.6050196    828.15102  0.017261777  0.016710452         3882 
 3999000    0.6112302   -7.6081908    828.35314  0.017261673  0.016704502         3874 
 4000000   0.60993876   -7.5965701    828.08695  0.017251812  0.016698552         3870 
 4001000   0.61331362   -7.6034534    827.86956  0.017242972  0.016692605         3868 
 4002000   0.62698883   -7.5911206    829.17606  0.017265868  0.016686663         3866 
 4003000   0.61500385   -7.5932463    829.69523  0.017272363   0.01668072         3876 
 4004000   0.61132876    -7.604451    829.79907   0.01727021  0.016674781         3865 
 4005000   0.60729602   -7.5981002    829.10313  0.017251418  0.016668845         3881 
 4006000   0.62480685   -7.6177843    828.19639  0.017228249  0.016662912         3875 
 4007000   0.60854324   -7.6112245    829.50418  0.017251148  0.016656986         3882 
 4008000   0.61910585   -7.6137345    828.08791  0.017217397  0.016651056         3864 
 4009000    0.6058512    -7.596797    828.33101  0.017218155   0.01664513         3866 
 4010000   0.60616809   -7.6026481     829.4899  0.017237945  0.016639205         3870 
 4011000   0.61850396   -7.6141143    829.26164  0.017228905  0.016633289         3876 
 4012000   0.60672314   -7.6015541     828.2362  0.017203311  0.016627371         3861 
 4013000   0.59627882   -7.6020342    828.93887  0.017213616  0.016621452         3863 
 4014000   0.62199621   -7.5931694    828.37567  0.017197635  0.016615542         3885 
 4015000   0.62368302   -7.5957395    829.22237  0.017210925  0.016609633         3866 
 4016000   0.61109005    -7.604178    828.59929   0.01719371  0.016603726         3882 
 4017000   0.60351656   -7.5873155    829.14685  0.017200789   0.01659782         3878 
 4018000   0.59488655   -7.5896074    830.75826  0.017229929  0.016591914         3879 
 4019000   0.61187844   -7.5979388    828.42706  0.017177305  0.016586013         3884 
 4020000   0.60753665   -7.6055692    829.56195  0.017196558   0.01658011         3873 
 4021000   0.61453393   -7.6176112    828.73702  0.017175185  0.016574209         3881 
 4022000   0.61900228   -7.5840302    828.22335  0.017160272  0.016568313         3872 
 4023000   0.60309204    -7.607989    828.34283  0.017158481  0.016562418         3888 
 4024000   0.59853305   -7.6060718    829.71391  0.017182611  0.016556524         3892 
 4025000   0.60388862   -7.5935848    828.65439  0.017156406  0.016550634         3886 
 4026000    0.6077323   -7.5960166    828.92829  0.017157814  0.016544747         3875 
 4027000   0.60831609   -7.6009867    829.36384  0.017162566  0.016538859         3867 
 4028000   0.60023148   -7.5922505    830.75035   0.01718699   0.01653298         3884 
 4029000   0.59644151   -7.6032303    827.80026  0.017121706  0.016527097         3888 
 4030000   0.61127595   -7.6071266    827.72764  0.017115956   0.01652122         3872 
 4031000    0.6051709   -7.6098913    829.05593   0.01713917  0.016515344         3891 
 4032000   0.62709697   -7.5892283    826.90446  0.017090453  0.016509469         3879 
 4033000    0.6049184   -7.6175957     828.0831  0.017110569  0.016503599         3856 
 4034000    0.6180968   -7.6131836    829.46546  0.017134884  0.016497729         3903 
 4035000   0.60108527   -7.6064496    830.11307  0.017144012  0.016491862         3875 
 4036000   0.59873329   -7.6108915    827.83133  0.017092652  0.016486001         3879 
 4037000   0.60596543   -7.6115057    826.67366  0.017064521  0.016480134         3879 
 4038000    0.6098154    -7.608697    827.89789   0.01708556   0.01647427         3875 
 4039000    0.6040368   -7.6181386     830.5788  0.017136643  0.016468407         3892 
 4040000   0.60303844   -7.5973268    827.86831  0.017076492  0.016462548         3881 
 4041000   0.60678665   -7.6134607    828.59724  0.017087298  0.016456694         3901 
 4042000   0.60069271   -7.6147314    829.58339  0.017103402  0.016450841         3877 
 4043000   0.60507779   -7.6067138    826.80362  0.017041875  0.016444992         3888 
 4044000   0.62396213   -7.6085922    829.48307  0.017092876  0.016439147         3883 
 4045000   0.61401061   -7.6204088    829.09272  0.017080608  0.016433303         3885 
 4046000   0.60298709   -7.6039317    828.20148   0.01705803  0.016427457         3879 
 4047000   0.59505026    -7.603189    828.23285  0.017054461  0.016421617         3880 
 4048000   0.59054292   -7.6006943    828.71526  0.017060179  0.016415774         3877 
 4049000    0.6153345   -7.6096858    828.08655  0.017043026  0.016409939         3875 
 4050000   0.59063638   -7.6040007    827.48469  0.017026434  0.016404104         3877 
 4051000    0.5966739   -7.5839119      827.451  0.017021538  0.016398269         3879 
 4052000   0.59520509   -7.6044889    828.73084  0.017043658   0.01639244         3884 
 4053000   0.60525411   -7.6218687     827.7477  0.017019239  0.016386617         3863 
 4054000   0.61051256   -7.6082474    829.70225  0.017055218  0.016380791         3872 
 4055000   0.60479981   -7.5957958     828.6898  0.017030205  0.016374974         3890 
 4056000   0.61197848   -7.6134107    827.12771  0.016993913  0.016369154         3883 
 4057000   0.59313922   -7.6060743    827.83176  0.017004185  0.016363339         3877 
 4058000   0.60062959   -7.6111745     828.3449  0.017010533  0.016357527         3876 
 4059000   0.59924291   -7.6189668    827.48515  0.016988691  0.016351717         3877 
 4060000   0.60483279   -7.5919386    826.23829  0.016958914  0.016345905         3877 
 4061000   0.59793251   -7.6278283     828.6427  0.017004077  0.016340097         3869 
 4062000   0.61003495   -7.6236051    827.58176  0.016978126  0.016334291         3877 
 4063000   0.60200394   -7.6131213    828.31386  0.016988963  0.016328493         3863 
 4064000   0.60372125   -7.6282811    828.26923  0.016983867  0.016322693         3878 
 4065000   0.59051763   -7.5980375    827.26962  0.016959197  0.016316896         3867 
 4066000   0.60612911   -7.6085412    828.16502  0.016973377  0.016311103         3880 
 4067000   0.60749527   -7.6124974    828.50629  0.016976196  0.016305311         3872 
 4068000   0.59876121   -7.6102272    828.00104  0.016961673   0.01629952         3878 
 4069000   0.60981771   -7.6063358    829.10028  0.016980017  0.016293734         3863 
 4070000   0.59481824    -7.612355    826.79263  0.016928596  0.016287949         3890 
 4071000   0.59648926   -7.6240012      828.953   0.01696866  0.016282169         3880 
 4072000   0.59164157   -7.6310704    828.31383  0.016951413  0.016276391         3882 
 4073000    0.5986725   -7.6115255    827.50569  0.016930716  0.016270608         3864 
 4074000   0.60072113   -7.6197303    828.27263  0.016942248  0.016264824         3875 
 4075000   0.59940797   -7.6054564    828.62162  0.016945227  0.016259051         3877 
 4076000   0.59934738   -7.6152462    827.39676  0.016916028  0.016253274         3870 
 4077000   0.59951971   -7.6267451    829.01476  0.016944951  0.016247503         3879 
 4078000   0.59105611   -7.6252892    827.83011  0.016916587   0.01624174         3868 
 4079000   0.60943142    -7.620619    828.53269  0.016926793  0.016235971         3874 
 4080000   0.60188781   -7.6326514    828.03534  0.016912487  0.016230204         3875 
 4081000   0.60354663   -7.6232025    829.02819  0.016928616  0.016224443         3889 
 4082000   0.59768119   -7.6218391    827.60755  0.016895467  0.016218683         3884 
 4083000   0.59435076    -7.638324    826.97616  0.016878442  0.016212922         3869 
 4084000   0.59800171   -7.6086112    828.28455  0.016901007  0.016207169         3872 
 4085000   0.60854073   -7.6147599    828.53291  0.016901936  0.016201418         3883 
 4086000   0.60263608   -7.6286416    827.38445  0.016874377  0.016195666         3872 
 4087000   0.61847584   -7.5853789    828.41871  0.016891337   0.01618992         3885 
 4088000   0.61017427   -7.6007399    826.98298  0.016857938  0.016184177         3889 
 4089000   0.60730122   -7.6225854    826.75798  0.016849229  0.016178436         3870 
 4090000     0.587976   -7.6277321    828.00445  0.016870506  0.016172693         3880 
 4091000   0.59017221   -7.6167067    829.23005  0.016891348  0.016166955         3872 
 4092000   0.60130357   -7.6122796    827.90994  0.016860336  0.016161216         3875 
 4093000   0.58696891   -7.6081015     826.9464  0.016836599  0.016155483         3882 
 4094000   0.60437261   -7.6190593    828.44096  0.016862908   0.01614975         3867 
 4095000    0.5932355   -7.6365082    828.20093  0.016853906  0.016144018         3876 
 4096000   0.60787477   -7.6238174    827.44003  0.016834311  0.016138295         3878 
 4097000   0.58847625   -7.6235927    827.82502  0.016838032  0.016132566         3878 
 4098000   0.59764869   -7.6295332    827.76622  0.016832728  0.016126842         3873 
 4099000   0.58596072   -7.6134043     828.5852  0.016845271   0.01612112         3882 
 4100000   0.59297893   -7.6227014    828.45309  0.016838478  0.016115406         3895 
 4101000   0.60165661   -7.6225565    826.16108  0.016787797  0.016109692         3872 
 4102000   0.58617423   -7.6091783    827.73555   0.01681569  0.016103981         3874 
 4103000   0.59842911   -7.6145339    827.99701  0.016816902  0.016098271         3880 
 4104000   0.58121698   -7.6253435    827.40349  0.016800753  0.016092561         3883 
 4105000   0.59751605    -7.641543    828.12352  0.016811277  0.016086858         3876 
 4106000   0.60089957   -7.6120573     827.8977    0.0168026  0.016081159         3877 
 4107000   0.59867446   -7.6301079    828.09901  0.016802593  0.016075459         3882 
 4108000   0.59108369   -7.6374048    827.85588  0.016793571  0.016069761         3891 
 4109000   0.61022065    -7.627945    828.13957  0.016795237  0.016064069         3877 
 4110000   0.59788515   -7.6369019    829.59769  0.016820716  0.016058373         3885 
 4111000    0.5961659   -7.6270223    828.34327  0.016791196  0.016052677         3872 
 4112000   0.59728024   -7.6408305    827.37367  0.016767463  0.016046988         3888 
 4113000   0.58853974    -7.646446    828.81838  0.016792657  0.016041302         3876 
 4114000   0.58790558   -7.6167544    827.97961  0.016771585  0.016035618         3893 
 4115000   0.59964052   -7.6501387     828.1071  0.016770091  0.016029933         3885 
 4116000   0.58648802   -7.6138654    826.62964  0.016736104   0.01602425         3891 
 4117000   0.58629085   -7.6190475    827.32783  0.016746171  0.016018575         3872 
 4118000   0.58429849   -7.6383972    828.24996  0.016760765    0.0160129         3870 
 4119000    0.5869292   -7.6507103    828.12486  0.016754165  0.016007228         3881 
 4120000   0.59978012   -7.6227996    827.62711  0.016740031  0.016001557         3866 
 4121000   0.59512805   -7.6246743     829.1241   0.01676624  0.015995889         3876 
 4122000   0.58720867   -7.6487026    827.46134  0.016728557  0.015990222         3892 
 4123000   0.58797392   -7.6293595    828.34683  0.016742397  0.015984559         3902 
 4124000   0.59987301   -7.6329261    826.85617  0.016708216  0.015978895         3869 
 4125000   0.59478629   -7.6221175    827.85772  0.016724398  0.015973234         3863 
 4126000   0.59406548    -7.613893    827.53742  0.016713876  0.015967577         3885 
 4127000   0.58790629   -7.6357739    828.77214  0.016734758  0.015961929         3889 
 4128000    0.5977327   -7.6223318    826.95817  0.016694084  0.015956277         3868 
 4129000   0.57683369   -7.6273862     827.8694  0.016708432  0.015950626         3876 
 4130000   0.58282391   -7.6411591    827.52206  0.016697378  0.015944978         3867 
 4131000   0.60370285   -7.6388555     826.4704  0.016672121  0.015939328         3858 
 4132000   0.59518968    -7.631348    827.42613  0.016687362  0.015933681         3866 
 4133000   0.60048959     -7.63033    828.05637  0.016696031   0.01592804         3868 
 4134000   0.58876729   -7.6416314    828.79111  0.016706804  0.015922401         3866 
 4135000   0.59049815   -7.6336224    827.28418  0.016672394  0.015916759         3871 
 4136000   0.58959675   -7.6432339    827.63694   0.01667547   0.01591112         3880 
 4137000   0.58214443   -7.6179552    827.95948  0.016677937  0.015905485         3883 
 4138000   0.60023577   -7.6544503    827.87791  0.016672263  0.015899853         3883 
 4139000   0.59109167   -7.6363055    828.11101  0.016672928  0.015894225         3868 
 4140000   0.59151058   -7.6342531     827.0424  0.016647391  0.015888602         3873 
 4141000   0.59102394   -7.6207334    827.71249  0.016656856  0.015882977         3871 
 4142000   0.60636422   -7.6469867     827.4245   0.01664704  0.015877358         3882 
 4143000   0.59673487   -7.6414942     827.6607  0.016647773   0.01587174         3876 
 4144000   0.58291668   -7.6388166    826.81871  0.016626824  0.015866121         3876 
 4145000   0.58691898   -7.6358689    827.10021  0.016628472  0.015860504         3890 
 4146000   0.57080916    -7.651448     827.7595  0.016637713  0.015854893         3881 
 4147000   0.57096988   -7.6271773    826.42543  0.016606893  0.015849279         3871 
 4148000   0.58267419   -7.6374645    827.49631  0.016624404  0.015843668         3888 
 4149000     0.588895   -7.6391517    827.50326  0.016620536   0.01583806         3884 
 4150000   0.59369634   -7.6232092    827.17971  0.016610034  0.015832455         3872 
 4151000   0.57403271   -7.6567467    827.17205  0.016605879  0.015826852         3888 
 4152000    0.5837033   -7.6406924    827.68116  0.016612098  0.015821251         3868 
 4153000   0.58354592    -7.641274     826.6457   0.01658732   0.01581565         3883 
 4154000   0.57501992   -7.6402467    827.17801  0.016594006  0.015810056         3878 
 4155000   0.58030204   -7.6348697    827.03776  0.016587199  0.015804463         3887 
 4156000   0.57658367   -7.6351864     826.8468  0.016579379   0.01579887         3886 
 4157000   0.58400315   -7.6546965    826.04202  0.016559258  0.015793279         3874 
 4158000   0.57269006   -7.6263007    827.45719  0.016583638  0.015787693         3886 
 4159000   0.58239429   -7.6451575     827.1223   0.01657294  0.015782107         3891 
 4160000   0.57321195   -7.6422967    827.81452  0.016582823  0.015776523         3880 
 4161000    0.5937989   -7.6310744    826.17651  0.016546033  0.015770942         3877 
 4162000   0.58975472    -7.629927    828.39242  0.016586425   0.01576536         3884 
 4163000   0.58731756   -7.6291312    827.34642  0.016561503  0.015759784         3889 
 4164000   0.58203876    -7.640364    826.66296  0.016543847   0.01575421         3881 
 4165000    0.5910584   -7.6408213    827.28768  0.016552375  0.015748642         3871 
 4166000   0.57419066   -7.6466097    826.71424  0.016536931  0.015743072         3888 
 4167000   0.59024518   -7.6438953    826.35713  0.016525821  0.015737506         3886 
 4168000   0.59750916   -7.6275144    827.20199  0.016538747  0.015731943         3873 
 4169000   0.59583478   -7.6502977    826.22625  0.016515276  0.015726381         3880 
 4170000    0.5937144   -7.6419288    827.62554  0.016539279  0.015720824         3874 
 4171000   0.59608417   -7.6383227    827.59459  0.016534696  0.015715267         3880 
 4172000   0.58417606   -7.6498279    828.12909  0.016541409  0.015709714         3882 
 4173000   0.59311105   -7.6337462    826.34217  0.016501761  0.015704159         3874 
 4174000   0.58932901   -7.6490959    827.12747  0.016513486  0.015698608         3878 
 4175000   0.58044754   -7.6270594    826.26374   0.01649229   0.01569306         3880 
 4176000   0.57367577   -7.6346841    828.59809  0.016534924  0.015687518         3872 
 4177000   0.59537682   -7.6527934    827.85065  0.016516053  0.015681974         3876 
 4178000    0.5834394   -7.6333367    827.04968  0.016496124  0.015676436         3883 
 4179000   0.59195533    -7.636474    827.78654   0.01650687  0.015670898         3877 
 4180000   0.57837595   -7.6276326    826.03649  0.016468032  0.015665365         3874 
 4181000   0.58237382   -7.6347237    826.49787  0.016473289  0.015659828         3871 
 4182000   0.57688567   -7.6389538    828.01952  0.016499672  0.015654296         3875 
 4183000   0.57792168   -7.6519012    826.18113  0.016459103  0.015648768         3883 
 4184000   0.57592315   -7.6504683    827.01435  0.016471764  0.015643237         3880 
 4185000   0.58747356   -7.6418189    827.02226  0.016467986  0.015637712         3881 
 4186000   0.56920661   -7.6773861    827.60192  0.016475592  0.015632188         3893 
 4187000   0.58506461   -7.6432437    827.53129  0.016470251  0.015626661         3887 
 4188000   0.58638172     -7.65078    827.01026  0.016455951   0.01562114         3879 
 4189000   0.59157573   -7.6421806    827.45121  0.016460794  0.015615621         3885 
 4190000   0.58016826   -7.6518194    826.42612  0.016436478  0.015610106         3866 
 4191000   0.56819549   -7.6567076    826.48034  0.016433634  0.015604593         3867 
 4192000   0.57135166   -7.6420364    826.12851   0.01642272  0.015599084         3878 
 4193000   0.56442561   -7.6277446    826.96615  0.016435451  0.015593576         3873 
 4194000   0.56820732   -7.6630167    827.49947  0.016442129  0.015588067         3881 
 4195000   0.56722879    -7.645616    827.82059  0.016444589  0.015582562         3893 
 4196000   0.58689011   -7.6595536    826.80378  0.016420475  0.015577057         3885 
 4197000   0.58096033   -7.6472471    827.80251  0.016436393   0.01557156         3864 
 4198000   0.58503394   -7.6491577    825.02471  0.016377337  0.015566062         3869 
 4199000   0.57882294   -7.6536362     826.2141  0.016397041  0.015560571         3877 
 4200000    0.5784317   -7.6510389    827.80138  0.016424631  0.015555081         3872 
 4201000   0.59111274   -7.6333428    825.45253  0.016374128  0.015549589         3883 
 4202000   0.57669062    -7.633229    826.02865  0.016381657  0.015544108         3881 
 4203000   0.57409085   -7.6368042    827.51853  0.016407299  0.015538625         3864 
 4204000   0.56875488   -7.6608409    827.72426  0.016407474  0.015533142         3867 
 4205000    0.5802148   -7.6629805    826.55385  0.016380378  0.015527661         3887 
 4206000   0.59600374    -7.683938    826.72554  0.016379885  0.015522181         3876 
 4207000    0.5753505   -7.6473997    827.00471  0.016381521  0.015516706         3888 
 4208000   0.58318068   -7.6541443    826.77476  0.016373074  0.015511227         3883 
 4209000    0.5846656   -7.6577803    828.14089  0.016396232  0.015505752         3877 
 4210000   0.56905745   -7.6411822    825.70609  0.016344143  0.015500284         3880 
 4211000   0.58701005   -7.6520204    824.31093  0.016312652  0.015494817         3862 
 4212000   0.57633022   -7.6384219    826.31898  0.016348508  0.015489353         3875 
 4213000   0.57499962   -7.6723901     827.7739  0.016373406  0.015483889         3879 
 4214000   0.57587964   -7.6560019    826.32854  0.016340938  0.015478423         3876 
 4215000   0.57122103   -7.6817727    826.16051  0.016333739  0.015472966         3884 
 4216000    0.5854921   -7.6461493    827.53837  0.016357099  0.015467507         3864 
 4217000   0.57187071   -7.6603568    826.35617  0.016329859  0.015462048         3877 
 4218000   0.56999952   -7.6496943    825.99163  0.016318785  0.015456596         3886 
 4219000   0.57284639   -7.6732999    826.51813  0.016325317  0.015451146         3870 
 4220000   0.57274188   -7.6426512    826.42264  0.016319562  0.015445695         3868 
 4221000    0.5891116   -7.6507226    824.99039   0.01628742  0.015440245         3869 
 4222000   0.57618202   -7.6601326    825.72428  0.016298048  0.015434796         3882 
 4223000   0.57855682   -7.6798259     826.1685  0.016302954  0.015429355         3891 
 4224000   0.56696098    -7.650927    826.56643  0.016306945  0.015423913         3858 
 4225000   0.57977568   -7.6454517    826.39713  0.016299746  0.015418471         3889 
 4226000   0.57562375   -7.6557702    826.32462  0.016294459  0.015413037         3887 
 4227000   0.58675684   -7.6357334     828.2195  0.016327961  0.015407604         3889 
 4228000   0.57654861   -7.6539509    827.18656   0.01630374  0.015402173         3875 
 4229000   0.57407424    -7.652795    826.95681  0.016295358  0.015396746         3868 
 4230000   0.57026192   -7.6575481    826.79373  0.016288293  0.015391322         3864 
 4231000   0.57121363   -7.6392108    827.14807  0.016291422  0.015385898         3875 
 4232000   0.57059394   -7.6621275    827.16233  0.016287853   0.01538048         3880 
 4233000    0.5665593    -7.664864    827.03205   0.01628144  0.015375057         3873 
 4234000   0.58378875   -7.6796316     827.6175  0.016289118  0.015369642         3876 
 4235000   0.56282135   -7.6373659    825.61524  0.016245872  0.015364223         3852 
 4236000   0.58111443   -7.6595911    826.81385  0.016265617  0.015358811         3875 
 4237000   0.58419398   -7.6540668    826.12077  0.016248147  0.015353399         3891 
 4238000   0.58124975   -7.6681571     826.1834  0.016245544  0.015347986         3895 
 4239000   0.56813142   -7.6671973    826.02904  0.016238677  0.015342583         3876 
 4240000    0.5758779   -7.6550853    826.97148   0.01625337  0.015337175         3880 
 4241000   0.57857148   -7.6910031    828.19201  0.016273521   0.01533177         3876 
 4242000   0.57776044   -7.6617385    826.26596  0.016231847  0.015326371         3879 
 4243000   0.58039347   -7.6428447    826.59666  0.016234517  0.015320975         3876 
 4244000   0.57818813   -7.6616489    826.41459  0.016227116  0.015315584         3874 
 4245000   0.56154451   -7.6616549    825.42917  0.016203949  0.015310191         3864 
 4246000   0.57539856   -7.6788686    825.91995  0.016209765  0.015304799         3873 
 4247000   0.58214034   -7.6457546    826.12351  0.016209943  0.015299412         3896 
 4248000   0.58104587   -7.6591372    826.19211  0.016207472  0.015294026         3881 
 4249000   0.57812947   -7.6508458    825.65476  0.016193119  0.015288643         3877 
 4250000   0.58443345   -7.6544669    824.67683  0.016170134   0.01528326         3882 
 4251000   0.56586194   -7.6374628    825.66729  0.016185746  0.015277879         3882 
 4252000   0.57105466   -7.6427413    825.70898  0.016182757  0.015272506         3875 
 4253000   0.57860646   -7.6770672    825.84313   0.01618158  0.015267133         3891 
 4254000   0.57404838   -7.6530135    825.53227  0.016171687  0.015261764         3878 
 4255000    0.5708826   -7.6454411    826.77865  0.016192296  0.015256394         3885 
 4256000   0.56698234    -7.671358    825.41173  0.016161727  0.015251024         3878 
 4257000   0.58352998   -7.6664234    825.64061  0.016162411  0.015245657         3881 
 4258000   0.56616064     -7.65983    826.30682  0.016171654  0.015240289         3877 
 4259000   0.55937019   -7.6695463    825.91075  0.016160107  0.015234926         3879 
 4260000   0.55860512   -7.6726778    826.22011  0.016162365  0.015229561         3896 
 4261000   0.57891677   -7.6806813    826.47898  0.016163635  0.015224205         3865 
 4262000   0.57612041   -7.6505857    825.92704  0.016149051  0.015218848         3881 
 4263000   0.56485652   -7.6474915    825.98502  0.016146396  0.015213496         3891 
 4264000   0.55394746   -7.6594992    826.77445  0.016158037  0.015208151         3886 
 4265000   0.57035887   -7.6612538     826.5374  0.016149617  0.015202805         3875 
 4266000   0.56085185   -7.6667454     826.1144  0.016137568  0.015197458         3870 
 4267000   0.57233158   -7.6776614    826.19281  0.016135318  0.015192117         3866 
 4268000   0.56877045     -7.68928    826.99928  0.016147284  0.015186781         3887 
 4269000   0.57450373   -7.6550257     827.3249  0.016149857  0.015181446         3880 
 4270000   0.57063579   -7.6839866    826.19305  0.016123986  0.015176111         3879 
 4271000   0.57126512   -7.6763443    825.76637  0.016111886  0.015170778         3882 
 4272000   0.58164743   -7.6635581    826.38919  0.016120263  0.015165449         3860 
 4273000   0.58023993    -7.670542    826.83626   0.01612521   0.01516012         3877 
 4274000   0.56843513    -7.674165    827.33483  0.016131158  0.015154795         3871 
 4275000   0.56493529   -7.6676352    825.71659   0.01609584  0.015149465         3879 
 4276000   0.55873341   -7.6723876    825.90641  0.016095775  0.015144143         3886 
 4277000   0.56578947   -7.6720646    826.95212  0.016112386  0.015138819         3883 
 4278000   0.55177153    -7.683811    827.75319  0.016124225    0.0151335         3879 
 4279000   0.55983827   -7.6691477    825.63705  0.016079245  0.015128185         3871 
 4280000   0.56598034    -7.665028    826.25038   0.01608743  0.015122873         3869 
 4281000   0.56715823   -7.6650206    824.90159  0.016057416  0.015117567         3872 
 4282000   0.57074752   -7.6425736    827.23472  0.016099072  0.015112259         3884 
 4283000   0.56397463   -7.6467476    824.87167  0.016049336  0.015106957         3897 
 4284000   0.55398448   -7.6603852    825.36261   0.01605514  0.015101654         3885 
 4285000   0.55481198   -7.6706735    826.13087  0.016066334  0.015096354         3866 
 4286000   0.58330738   -7.6581883    826.93831  0.016078284  0.015091057         3873 
 4287000   0.56492281   -7.6773322     825.9498  0.016055318   0.01508576         3878 
 4288000   0.56301863   -7.6545778    825.76125   0.01604791  0.015080467         3876 
 4289000    0.5669942   -7.6587927    826.75625  0.016063501  0.015075171         3851 
 4290000   0.57287893   -7.6654528    826.05833  0.016046199  0.015069878         3879 
 4291000   0.56723087   -7.6750113     826.5962  0.016052905  0.015064588         3875 
 4292000   0.55745007   -7.6839543    825.35221  0.016025012  0.015059297         3884 
 4293000   0.56670072   -7.6749848     825.8972  0.016031858  0.015054013         3885 
 4294000   0.55708624   -7.6690334    825.64495  0.016023229   0.01504873         3887 
 4295000   0.55519174   -7.6668746    825.11569   0.01600923  0.015043449         3887 
 4296000   0.57253792   -7.6619726    826.26413   0.01602778  0.015038169         3879 
 4297000   0.55384125   -7.6535465    825.68815   0.01601288   0.01503289         3889 
 4298000   0.57338236   -7.6673619    825.64973  0.016008409  0.015027614         3882 
 4299000   0.56953641   -7.6760071    826.57677  0.016022656  0.015022338         3866 
 4300000   0.55726274   -7.6524549    824.96645  0.015987722  0.015017067         3880 
 4301000   0.58015969   -7.6600872    824.93475   0.01598339  0.015011801         3877 
 4302000   0.56228273   -7.6795101    826.61574  0.016012237  0.015006535         3864 
 4303000   0.55912489   -7.6744483     825.9796  0.015996197  0.015001274         3877 
 4304000   0.56448657   -7.6629598    824.27709  0.015959516  0.014996012         3873 
 4305000   0.56584002   -7.6808912    824.43888  0.015958941  0.014990754         3877 
 4306000   0.56887318   -7.6732672    825.93961  0.015984278  0.014985498         3874 
 4307000   0.56859455   -7.6743375    826.50304  0.015991468  0.014980242         3869 
 4308000    0.5558385   -7.6814568    825.77317  0.015973638   0.01497499         3880 
 4309000   0.56576585   -7.6729735    825.28672  0.015960523   0.01496974         3886 
 4310000   0.56028487   -7.6695912    825.91637  0.015968994  0.014964489         3876 
 4311000    0.5619942   -7.6704058    825.70251  0.015961156  0.014959238         3886 
 4312000    0.5538897   -7.6591503    826.94976  0.015981558  0.014953993         3867 
 4313000   0.53986831   -7.6838685    825.59981   0.01595177  0.014948753         3885 
 4314000   0.55824972   -7.6588065    826.16381  0.015958967  0.014943514         3890 
 4315000   0.54938683   -7.6802217     826.7975  0.015967507  0.014938277         3876 
 4316000   0.56787279   -7.6757916    825.05279   0.01593012  0.014933044         3880 
 4317000   0.56064701   -7.6791629    824.99977  0.015925407  0.014927814         3882 
 4318000   0.55947983   -7.6726126    826.95997  0.015959549  0.014922585         3879 
 4319000   0.54917918   -7.6739474    825.93514   0.01593608   0.01491736         3873 
 4320000   0.55184084   -7.6797057    825.03121  0.015914954  0.014912136         3882 
 4321000    0.5667188   -7.6634327    826.19374  0.015933691  0.014906913         3881 
 4322000   0.55648664   -7.6823701    825.46844   0.01591602  0.014901689         3862 
 4323000   0.56214686   -7.6682532    826.55756  0.015933333  0.014896469         3866 
 4324000   0.55565886   -7.6665922    825.76524  0.015914378  0.014891252         3880 
 4325000   0.55584421   -7.6714977    826.13066  0.015917739  0.014886034         3871 
 4326000   0.54839566   -7.6854424    825.46364  0.015901211   0.01488082         3879 
 4327000   0.56718323   -7.6789804    825.97941  0.015907469  0.014875604         3882 
 4328000   0.56182805   -7.6685273    825.29667  0.015890648  0.014870396         3875 
 4329000   0.54445391   -7.6825506    825.26408  0.015886349  0.014865189         3886 
 4330000   0.56044864   -7.6868671    826.28595  0.015902347  0.014859984         3867 
 4331000   0.55123224   -7.6924011    825.20045  0.015877789   0.01485478         3876 
 4332000   0.55674205   -7.6807601    825.22899  0.015874673  0.014849581         3883 
 4333000   0.56684749   -7.7062925    825.21107  0.015870664  0.014844381         3870 
 4334000   0.56045869   -7.6909044    825.46993   0.01587198  0.014839185         3865 
 4335000   0.55559036   -7.6727114     824.6586  0.015852722  0.014833989         3877 
 4336000   0.55924395    -7.662961    825.71855  0.015869437    0.0148288         3872 
 4337000   0.55519469   -7.6739766    824.57359  0.015843778   0.01482361         3877 
 4338000   0.57083157   -7.6554509    827.02899  0.015887294  0.014818429         3861 
 4339000   0.55860821   -7.6736082    825.07331  0.015846073   0.01481325         3875 
 4340000   0.55914985   -7.6705835    825.76456  0.015855694  0.014808068         3881 
 4341000   0.56403837   -7.6885306    826.98059  0.015875386  0.014802887         3877 
 4342000   0.56858051   -7.6928028    824.91916  0.015832166   0.01479771         3890 
 4343000   0.54603643   -7.6865093    824.70879  0.015824484  0.014792535         3875 
 4344000   0.56392802   -7.6895851    825.61005   0.01583813  0.014787363         3864 
 4345000    0.5703875   -7.6791943    825.52405  0.015832836  0.014782195         3902 
 4346000   0.55156432   -7.6879164    824.58167  0.015811123  0.014777024         3884 
 4347000    0.5542662   -7.6683802    826.05289  0.015835689  0.014771855         3887 
 4348000   0.54433945    -7.679474    825.15918  0.015814918  0.014766688         3878 
 4349000   0.55314018   -7.6977757    826.55178  0.015837966  0.014761526         3874 
 4350000   0.54933843   -7.6787337    826.39301  0.015831284  0.014756367         3875 
 4351000    0.5582258   -7.6728868     825.7152  0.015814663  0.014751204         3891 
 4352000   0.56224388   -7.6891085     826.5206  0.015826451  0.014746046         3876 
 4353000   0.53994991   -7.6719527    825.55741  0.015804377  0.014740896         3872 
 4354000    0.5552084   -7.6942121    823.84436   0.01576796   0.01473574         3885 
 4355000   0.54926949   -7.6893472    824.85088  0.015783599  0.014730592         3871 
 4356000   0.56754755   -7.6804692    824.21529  0.015767816  0.014725441         3899 
 4357000   0.56163031    -7.688123     826.2971  0.015804015  0.014720294         3883 
 4358000    0.5610834   -7.6901485    825.53198  0.015785758  0.014715148         3879 
 4359000   0.54950807     -7.68036    824.38265  0.015760164  0.014710009         3868 
 4360000   0.55006497   -7.6772309    824.59371  0.015760583  0.014704875         3885 
 4361000   0.56041341   -7.6944009    824.87956  0.015762431  0.014699741         3881 
 4362000   0.54244035    -7.685006    824.37904  0.015749256  0.014694608         3892 
 4363000   0.54684287   -7.6837434    824.32789  0.015744669  0.014689479         3885 
 4364000   0.55469047   -7.6982955    825.10524  0.015755905  0.014684346         3877 
 4365000   0.56222264   -7.6785946    825.05544  0.015751345  0.014679223         3890 
 4366000   0.55015816   -7.6820307    825.50211  0.015756263  0.014674095         3879 
 4367000    0.5574764   -7.6763999    825.39812   0.01575067  0.014668974         3891 
 4368000   0.54583475   -7.6995277    824.95871  0.015738681  0.014663854         3884 
 4369000   0.56551108   -7.7016764    825.16954    0.0157391  0.014658735         3870 
 4370000   0.55375951   -7.7065164    824.35338  0.015719935  0.014653617         3889 
 4371000   0.54787347   -7.6927854    826.95806  0.015765997    0.0146485         3880 
 4372000    0.5483198   -7.6882734    825.55233  0.015735597  0.014643388         3887 
 4373000   0.54051847   -7.6967357    825.72494  0.015735287  0.014638276         3881 
 4374000   0.54749637   -7.6759693    826.55283  0.015747463   0.01463317         3879 
 4375000    0.5556112   -7.6825524    824.73129  0.015709167  0.014628064         3870 
 4376000   0.55406172    -7.691576    825.75554  0.015725083  0.014622959         3892 
 4377000   0.55101726   -7.6836607     826.0727  0.015727528  0.014617854         3870 
 4378000   0.56599579   -7.6727156    825.29532  0.015709139  0.014612755         3881 
 4379000   0.55890875   -7.6864829    824.70471  0.015694312  0.014607657         3879 
 4380000   0.54845854   -7.7051842     825.4937   0.01570574  0.014602559         3877 
 4381000   0.54596944   -7.6752216     824.2233   0.01567799  0.014597464         3888 
 4382000    0.5544398   -7.6910503    824.07643  0.015671619   0.01459237         3880 
 4383000    0.5518853   -7.6837473    824.65758  0.015679093  0.014587281         3873 
 4384000   0.54706386   -7.6885811    823.68305  0.015656992   0.01458219         3887 
 4385000   0.55247822   -7.6844559     825.1859  0.015681982  0.014577103         3870 
 4386000   0.55634813   -7.6954805    825.02652  0.015675378  0.014572018         3863 
 4387000   0.54554512   -7.6924033     823.9834  0.015651991  0.014566935         3884 
 4388000   0.55263591   -7.6935362    824.56874   0.01565954  0.014561859         3872 
 4389000    0.5543945   -7.6914052    825.43819   0.01567248  0.014556782         3882 
 4390000   0.56338507   -7.7087473    824.85628  0.015657864  0.014551708         3888 
 4391000   0.55441454   -7.6821785    824.60406  0.015649512  0.014546636         3885 
 4392000   0.55106277    -7.679427    824.25261   0.01563928  0.014541565         3876 
 4393000   0.54517197   -7.6841055    825.91747  0.015667302  0.014536494         3863 
 4394000    0.5380503   -7.6790218     823.1476  0.015611205  0.014531428         3871 
 4395000    0.5659785   -7.7016067    825.66246  0.015655337  0.014526363         3885 
 4396000   0.56457527   -7.6953554    824.90889   0.01563749    0.0145213         3876 
 4397000   0.55304881   -7.6891494    825.97999  0.015654234  0.014516242         3893 
 4398000   0.55142429   -7.6813605     824.6357  0.015625203  0.014511185         3875 
 4399000   0.55423803   -7.6959879    824.59058  0.015620796  0.014506129         3882 
 4400000   0.55246496   -7.6738762    825.26958  0.015630106  0.014501078         3883 
 4401000   0.54633886   -7.6871633    823.61308  0.015595188  0.014496025         3887 
 4402000   0.55776839   -7.6686599    824.30218  0.015604691  0.014490978         3872 
 4403000   0.54380272   -7.7040885    824.81855   0.01561092  0.014485928         3868 
 4404000   0.55205479   -7.6970381    825.08647  0.015612445  0.014480886         3864 
 4405000   0.54983835   -7.7041411    824.43139  0.015596508  0.014475845         3888 
 4406000   0.54144904   -7.6991768    824.56325  0.015595462  0.014470807         3898 
 4407000   0.54875935   -7.6828541    824.66366  0.015593821  0.014465773         3874 
 4408000   0.55169698   -7.6954885    824.83352  0.015593495  0.014460737         3877 
 4409000   0.54050136   -7.7002057    826.15774  0.015614987  0.014455704         3881 
 4410000   0.55776369   -7.7038417    824.11313   0.01557281  0.014450673         3882 
 4411000   0.55207889   -7.6890604     824.7772  0.015581826  0.014445643         3868 
 4412000   0.55589108   -7.6917469    825.05099  0.015583465  0.014440618         3866 
 4413000   0.54972762   -7.7028656    824.78436  0.015574899  0.014435588         3881 
 4414000    0.5325341    -7.703364    824.73752  0.015570486  0.014430566         3882 
 4415000   0.52991385   -7.6694134    824.67591  0.015565797  0.014425547         3871 
 4416000   0.54756276   -7.6853395    824.18772  0.015553059  0.014420531         3880 
 4417000   0.53883296   -7.6959651    824.62127  0.015557718  0.014415515         3867 
 4418000   0.55478014   -7.6912351    824.90687  0.015559583  0.014410502         3880 
 4419000   0.54675657   -7.7142305    826.09627  0.015578492  0.014405489         3877 
 4420000   0.54517864   -7.7072886    824.84483  0.015551373  0.014400479         3878 
 4421000   0.53289748   -7.6969423    824.74595  0.015545992  0.014395473         3866 
 4422000    0.5453463   -7.7022773    824.18016  0.015531814  0.014390465         3880 
 4423000   0.52827247    -7.693034    824.63126  0.015536801  0.014385459         3880 
 4424000   0.54129403   -7.6825777    826.03457  0.015559723  0.014380457         3867 
 4425000   0.53710297   -7.7051516    823.75166  0.015513214  0.014375459         3874 
 4426000    0.5417859   -7.6939274    823.64944  0.015507784  0.014370457         3870 
 4427000   0.55637483   -7.7061641    825.62611   0.01554149  0.014365466         3887 
 4428000   0.54511984   -7.7097741    825.01705  0.015526518  0.014360471         3892 
 4429000   0.55021856   -7.7091844    824.40479  0.015511492  0.014355481         3897 
 4430000   0.53957386   -7.6855067    824.64369  0.015512485   0.01435049         3880 
 4431000   0.54159369   -7.6988295    823.98847  0.015496661  0.014345502         3886 
 4432000   0.55242119    -7.701885    825.27718  0.015517396   0.01434052         3873 
 4433000   0.53450094    -7.698229    825.65836  0.015521061  0.014335537         3880 
 4434000   0.53425148   -7.7056031     824.1273  0.015488785  0.014330553         3884 
 4435000   0.53696175   -7.7053056    824.74494  0.015496898  0.014325574         3875 
 4436000   0.52901368    -7.707326    824.41409   0.01548719  0.014320596         3882 
 4437000   0.54683183   -7.7065922    822.63533  0.015450292  0.014315621         3885 
 4438000   0.53561015   -7.7109743     824.6629  0.015484882   0.01431065         3881 
 4439000   0.53189896   -7.6947505    825.14772  0.015490496   0.01430568         3869 
 4440000    0.5504178   -7.6918032    824.60077  0.015476741  0.014300711         3878 
 4441000   0.53886834   -7.6907289    822.63978  0.015436459  0.014295746         3880 
 4442000   0.54083435   -7.7051809    824.14189  0.015461164  0.014290785         3877 
 4443000   0.52660953   -7.6971309    825.13627  0.015476335  0.014285825         3881 
 4444000   0.53646116   -7.6953161     822.7831  0.015428726  0.014280866         3886 
 4445000   0.55388918   -7.7011801    823.86228  0.015445487  0.014275907         3889 
 4446000   0.52320212    -7.713997     824.7351  0.015458373  0.014270953         3884 
 4447000   0.53108935   -7.7111186    823.95767  0.015440328  0.014265999         3883 
 4448000   0.53695084   -7.6971892      824.623  0.015449322  0.014261047         3877 
 4449000   0.54129764   -7.6913514    824.46282  0.015442849  0.014256098         3870 
 4450000   0.53467668   -7.7014913    824.29066  0.015436155  0.014251157         3892 
 4451000   0.53516236   -7.7123408    824.38183  0.015434394  0.014246212         3882 
 4452000   0.55303809   -7.7211013    823.51211  0.015414647  0.014241272         3881 
 4453000   0.53447058   -7.7075798     824.7248   0.01543388  0.014236332         3891 
 4454000   0.52032241   -7.7231226    825.18115  0.015438953   0.01423139         3893 
 4455000   0.53289729   -7.6919382    823.77341  0.015409155  0.014226454         3885 
 4456000   0.53866679   -7.7070108    824.75272  0.015424011   0.01422152         3872 
 4457000   0.54255103   -7.7003085    823.91367  0.015404863  0.014216583         3883 
 4458000   0.54242359   -7.6975907    823.97795  0.015402609  0.014211653         3873 
 4459000   0.53767868   -7.7075602    824.20205  0.015403342  0.014206728         3881 
 4460000   0.53682478    -7.699855    824.35171  0.015402685  0.014201804         3875 
 4461000   0.51696742   -7.7055946    823.71713  0.015387378  0.014196878         3875 
 4462000   0.54104348   -7.7013915    826.19979  0.015430296  0.014191954         3878 
 4463000   0.53799693   -7.6994432    824.13473   0.01538828  0.014187037         3877 
 4464000   0.53209666   -7.6905788    823.01674  0.015363962  0.014182117         3882 
 4465000   0.53922074    -7.702539    824.94017   0.01539642  0.014177205         3876 
 4466000   0.55187484   -7.6950672    824.95867  0.015393317  0.014172294         3879 
 4467000   0.53565275   -7.7268886    825.33561  0.015396903  0.014167386         3893 
 4468000    0.5336065   -7.7205687     823.6813  0.015362603  0.014162476         3883 
 4469000   0.52468909   -7.6882405      823.192  0.015350041  0.014157567         3874 
 4470000   0.54975121   -7.7018304     824.7911  0.015376419  0.014152661         3879 
 4471000   0.53263996   -7.6888095    824.04156  0.015359009  0.014147756         3877 
 4472000   0.52776971   -7.7133034    822.75829  0.015331662  0.014142855         3874 
 4473000   0.54277423   -7.6932719    824.65933  0.015363651  0.014137956         3870 
 4474000   0.53966224    -7.693883    826.05221  0.015386161  0.014133064         3866 
 4475000   0.53979257   -7.6984634    824.17088  0.015347689  0.014128168         3867 
 4476000   0.54207789   -7.7035997    823.55749   0.01533284  0.014123276         3892 
 4477000    0.5238781   -7.6996302    823.85886  0.015335025  0.014118388         3879 
 4478000   0.53874308   -7.6970789    824.50837  0.015343687    0.0141135         3877 
 4479000    0.5336636   -7.6980848    823.77836  0.015326679  0.014108614         3879 
 4480000   0.54487224   -7.7030747    825.57427  0.015356664  0.014103732         3876 
 4481000    0.5365681   -7.7168685    825.77173  0.015356909  0.014098852         3870 
 4482000   0.53760812    -7.701409    823.63805  0.015313812   0.01409397         3879 
 4483000   0.52898561   -7.7162895    825.07066  0.015337026  0.014089096         3879 
 4484000   0.54008529   -7.7227243    824.41763   0.01532147  0.014084221         3881 
 4485000   0.52288179   -7.6940383    824.18708   0.01531377  0.014079347         3871 
 4486000    0.5312013   -7.6952857    822.77078  0.015284046  0.014074476         3875 
 4487000   0.53066628   -7.7077929    824.01764  0.015303797  0.014069606         3869 
 4488000   0.53270674     -7.70208    823.47581  0.015290326  0.014064741         3884 
 4489000   0.53438522   -7.7263487    825.25115  0.015319877  0.014059878         3876 
 4490000   0.53977062   -7.7205505    823.04242  0.015275472  0.014055016         3878 
 4491000   0.53710906    -7.688074    822.29909  0.015258278  0.014050155         3887 
 4492000   0.52663545   -7.7036171    823.42659  0.015275798  0.014045295         3893 
 4493000    0.5284664   -7.7063087    823.67072  0.015276926  0.014040442         3871 
 4494000   0.53934067   -7.6983576    823.85102  0.015276869  0.014035588         3873 
 4495000   0.53539408   -7.7373024    824.38241  0.015283322  0.014030735         3880 
 4496000   0.52693398   -7.7155671    824.22571  0.015277019  0.014025884         3874 
 4497000   0.53023716   -7.7110768    824.27705  0.015274573  0.014021034         3886 
 4498000   0.52909476    -7.711061    823.66903  0.015259912  0.014016187         3894 
 4499000   0.53631059   -7.7156671     824.5091  0.015272081  0.014011342         3887 
 4500000   0.53415127    -7.707044    823.83526  0.015256209    0.0140065         3877 
 4501000   0.52137543    -7.705351    823.12553  0.015239679  0.014001658         3878 
 4502000   0.52107149   -7.7062184    823.28779  0.015239297  0.013996822         3886 
 4503000   0.53506185   -7.7305915    823.61783  0.015242021  0.013991987         3889 
 4504000    0.5229271   -7.7179751    825.16383  0.015267241  0.013987151         3873 
 4505000    0.5247733   -7.7101686    823.41039  0.015231417  0.013982321         3867 
 4506000   0.52989579   -7.7298188    823.93602  0.015237757   0.01397749         3862 
 4507000   0.52919679    -7.730802    823.54123  0.015227077  0.013972663         3880 
 4508000   0.51539018   -7.7171472    823.46735  0.015222333  0.013967836         3882 
 4509000   0.53752262   -7.7134162      823.655  0.015222426  0.013963013         3883 
 4510000   0.53487066   -7.7194054     825.0127  0.015244137   0.01395819         3885 
 4511000   0.51577057   -7.7059256    823.52555  0.015213285  0.013953372         3883 
 4512000   0.52628182   -7.6929952    823.18196  0.015203568  0.013948559         3879 
 4513000   0.53985152   -7.7018152    824.45894  0.015223778  0.013943744         3897 
 4514000   0.52321222   -7.7084491    823.69393  0.015206283  0.013938934         3871 
 4515000   0.53085836   -7.7196296    825.57028  0.015237547  0.013934124         3873 
 4516000   0.52937475   -7.7259991    822.89541  0.015184813  0.013929315         3889 
 4517000   0.53622965   -7.7101632    822.91803  0.015181869  0.013924506         3867 
 4518000   0.53488258   -7.7314927    825.18394  0.015220303  0.013919705         3875 
 4519000   0.53054077   -7.7239589    823.73131  0.015190147  0.013914897         3879 
 4520000   0.52999182   -7.7151265    823.84501  0.015188883  0.013910095         3885 
 4521000   0.52913003    -7.705232    822.41179  0.015159105  0.013905296         3867 
 4522000    0.5356704    -7.740997    824.07653  0.015186432    0.0139005         3868 
 4523000   0.53199604   -7.7449268      824.464  0.015190213  0.013895707         3873 
 4524000   0.53406515   -7.7244374    823.80209  0.015174663  0.013890916         3874 
 4525000   0.53275111   -7.7038395    823.56263  0.015166899  0.013886127         3873 
 4526000   0.53047956    -7.716587    822.31128  0.015140508  0.013881338         3887 
 4527000   0.53251404   -7.7159985    824.54292  0.015178244  0.013876552         3867 
 4528000   0.52449357   -7.7320882    824.58292  0.015175628   0.01387177         3877 
 4529000   0.53478458     -7.72404    824.35689  0.015168118  0.013866993         3872 
 4530000   0.51984756   -7.7255065    823.23728  0.015144174  0.013862214         3878 
 4531000   0.52690925   -7.7296224    823.00364  0.015136534  0.013857436         3888 
 4532000   0.53147305   -7.7183643    824.06034  0.015152625  0.013852661         3879 
 4533000    0.5333268   -7.7175513    823.33475  0.015135943  0.013847884         3872 
 4534000   0.53948088   -7.7378967    824.46505  0.015153379  0.013843113         3881 
 4535000   0.52273122   -7.7196001    823.01281  0.015123352  0.013838345         3873 
 4536000   0.53211772    -7.719729    823.26501  0.015124651  0.013833574         3899 
 4537000   0.53779421   -7.7180285    824.54647  0.015144855  0.013828808         3876 
 4538000    0.5214831   -7.7039754    824.56007  0.015141767  0.013824045         3873 
 4539000   0.52272033   -7.7082638    823.08181  0.015111291   0.01381928         3870 
 4540000   0.52343344   -7.7384648    824.92324  0.015141763  0.013814521         3894 
 4541000   0.50737115   -7.7277139    823.33072  0.015109204   0.01380976         3877 
 4542000   0.52321578   -7.7224422    822.47202  0.015090122  0.013805005         3873 
 4543000   0.53833999   -7.7163249    822.84909  0.015093717  0.013800251         3884 
 4544000   0.52727866   -7.7270034     823.6431  0.015104957  0.013795502         3891 
 4545000   0.51535749   -7.7233386    823.97297  0.015107682  0.013790756         3872 
 4546000   0.53009399   -7.7372749    823.76087  0.015100471  0.013786007         3872 
 4547000    0.5285377   -7.7149287    822.82163  0.015079936  0.013781258         3876 
 4548000   0.52660501   -7.7402008    824.02055  0.015098588  0.013776514         3890 
 4549000   0.52489875   -7.7338253    823.74589  0.015090238   0.01377177         3879 
 4550000   0.52485857   -7.7139842    823.90278  0.015089795  0.013767031         3881 
 4551000   0.52383142   -7.7157538    823.03783  0.015070641  0.013762295         3882 
 4552000   0.52271804   -7.7099839    823.23547  0.015070948  0.013757558         3874 
 4553000   0.52696437   -7.7258409     823.6082   0.01507446  0.013752824         3883 
 4554000   0.52475921   -7.7214729    823.16546  0.015063048  0.013748091         3891 
 4555000   0.53015153   -7.7320041    821.86842  0.015036012  0.013743361         3885 
 4556000   0.52965094   -7.7205155    822.05335  0.015036094  0.013738634         3896 
 4557000   0.53025622   -7.7130221    825.12596  0.015088983   0.01373391         3877 
 4558000   0.52654327   -7.7245216    823.33226  0.015052879  0.013729185         3884 
 4559000   0.52059004    -7.726751     822.9134  0.015041921  0.013724462         3886 
 4560000   0.53190096   -7.7284959    823.95937  0.015057737  0.013719742         3873 
 4561000   0.52389497   -7.7190123    822.82041  0.015033626  0.013715026         3882 
 4562000   0.51777364   -7.7023122    824.29142  0.015057201  0.013710309         3891 
 4563000   0.51558809   -7.7193707    822.98361  0.015030017  0.013705597         3874 
 4564000   0.52232732   -7.7218379    824.89125  0.015061555  0.013700886         3884 
 4565000   0.51959332   -7.7143109     823.0874  0.015025327  0.013696176         3882 
 4566000   0.53045693    -7.740147    822.62623  0.015013619  0.013691466         3881 
 4567000   0.51996627    -7.715405      823.081   0.01501863  0.013686762         3887 
 4568000   0.51213591   -7.7194336    822.90468  0.015012126  0.013682055         3885 
 4569000   0.52142772   -7.7267918    824.09132  0.015030483  0.013677353         3883 
 4570000   0.50576437   -7.7334046    822.41882  0.014996696  0.013672654         3864 
 4571000   0.52958305   -7.7248409    822.87746  0.015001777  0.013667957         3889 
 4572000   0.52843737    -7.717182    823.27367  0.015005717  0.013663263         3879 
 4573000   0.52759718   -7.7054709    822.76706  0.014993204  0.013658571         3887 
 4574000   0.50962933   -7.7184018    823.81453   0.01500901  0.013653882         3879 
 4575000   0.51966447   -7.7200239    823.79149   0.01500531  0.013649192         3886 
 4576000   0.52006148   -7.7341155    823.97532  0.015005378  0.013644504         3879 
 4577000   0.52245768    -7.711353    822.89546  0.014982439   0.01363982         3882 
 4578000   0.52648772   -7.7204096    822.43588    0.0149708  0.013635137         3886 
 4579000   0.52088589   -7.7282264    822.94102  0.014976724  0.013630456         3875 
 4580000   0.51554303   -7.7370861    822.61822   0.01496758  0.013625777         3879 
 4581000   0.52697061   -7.7255519    822.31414  0.014958782  0.013621099         3872 
 4582000   0.52347447   -7.7161188    822.48901  0.014958697  0.013616423         3887 
 4583000   0.52437601   -7.7286245    822.57298   0.01495696  0.013611748         3873 
 4584000   0.51105563   -7.7279701    822.96438  0.014960813  0.013607078         3880 
 4585000   0.52444354   -7.7258116    823.12986  0.014960557   0.01360241         3874 
 4586000   0.52500461   -7.7369327    823.42766  0.014962706  0.013597742         3888 
 4587000   0.52045038   -7.7184587    823.07231  0.014952989   0.01359308         3893 
 4588000   0.52067485   -7.7413234    821.85425  0.014927605  0.013588416         3885 
 4589000   0.51580648   -7.7273251    823.57173  0.014955541  0.013583757         3886 
 4590000   0.52012641   -7.7564514     822.2824  0.014928874  0.013579098         3869 
 4591000   0.51822283    -7.709999    823.09488   0.01494037  0.013574443         3865 
 4592000    0.5065933   -7.7280953     822.3229  0.014923107   0.01356979         3890 
 4593000   0.52478645   -7.7205951     822.1216  0.014916206  0.013565137         3875 
 4594000   0.51978275   -7.7425494    824.30682  0.014952598  0.013560484         3883 
 4595000   0.51782854   -7.7446093    823.15588  0.014928471  0.013555835         3891 
 4596000   0.50438592   -7.7439325    822.53665  0.014913995  0.013551187         3877 
 4597000    0.5119866   -7.7359257    823.64669  0.014930873  0.013546539         3882 
 4598000   0.51045232   -7.7339225    823.52469  0.014925415  0.013541896         3888 
 4599000   0.52436529   -7.7515952    821.45396  0.014884648  0.013537254         3875 
 4600000   0.52183636   -7.7503561    823.37935  0.014916293  0.013532618         3883 
 4601000   0.51282603   -7.7401799     823.2154  0.014910081  0.013527984         3881 
 4602000     0.514443   -7.7126463    822.13219  0.014887226  0.013523348         3890 
 4603000   0.51556262   -7.7478651    824.08433  0.014919334  0.013518716         3872 
 4604000   0.51932272   -7.7415094    822.78671  0.014892606  0.013514086         3865 
 4605000   0.50827254   -7.7377651    822.90239  0.014891466  0.013509456         3894 
 4606000   0.51956665   -7.7449597    823.51323  0.014899284  0.013504829         3884 
 4607000   0.51187921   -7.7414528    822.56805  0.014878953    0.0135002         3883 
 4608000   0.49560952   -7.7473224    822.80989  0.014880098  0.013495576         3877 
 4609000   0.50581526   -7.7267243    823.34951  0.014886626  0.013490957         3895 
 4610000   0.50958083   -7.7276973    823.75779  0.014890777  0.013486336         3882 
 4611000   0.50675792   -7.7437624    823.41514  0.014881355  0.013481721         3900 
 4612000   0.50054887    -7.743547    822.93011  0.014869365  0.013477107         3867 
 4613000   0.52192511   -7.7309134     821.8015  0.014845753  0.013472495         3889 
 4614000   0.51725902     -7.72463    822.60632  0.014857071  0.013467885         3880 
 4615000    0.5228529    -7.736343    821.56865  0.014835115  0.013463277         3875 
 4616000   0.51900408    -7.718701    822.30779  0.014845245  0.013458672         3876 
 4617000   0.50913529   -7.7266978    822.26496  0.014841256  0.013454065         3881 
 4618000   0.51258257    -7.728118    822.55773  0.014843326  0.013449466         3883 
 4619000   0.50531397   -7.7279066     822.5712  0.014840355  0.013444866         3890 
 4620000   0.50633736   -7.7405291    822.38966  0.014833868  0.013440266         3888 
 4621000   0.51826039   -7.7490947    822.90562  0.014839963  0.013435666         3887 
 4622000   0.50737298   -7.7317031     822.7498  0.014833943  0.013431073         3879 
 4623000   0.51758741   -7.7273636    823.70525  0.014847957  0.013426478         3889 
 4624000   0.51777405   -7.7398469    821.74144  0.014809354   0.01342189         3883 
 4625000    0.5155604   -7.7420104    822.61013  0.014821804  0.013417296         3880 
 4626000   0.50179083   -7.7195236    823.25141  0.014830152  0.013412709         3883 
 4627000   0.51728695   -7.7390793    823.33291  0.014828415  0.013408125         3896 
 4628000   0.51015558    -7.723119    822.86895  0.014816857  0.013403543         3886 
 4629000   0.51179193   -7.7281088    822.31379  0.014803661  0.013398961         3880 
 4630000   0.51893374   -7.7339025    822.66131  0.014806719   0.01339438         3874 
 4631000   0.51000283   -7.7196952    822.34906  0.014797903  0.013389802         3887 
 4632000   0.51120131   -7.7432585    821.89266  0.014786497  0.013385227         3873 
 4633000   0.50808628   -7.7321979     821.3014  0.014772671  0.013380654         3890 
 4634000   0.51016362   -7.7447007     823.1195  0.014802178  0.013376083         3875 
 4635000   0.50551509    -7.734073    823.14658  0.014799471  0.013371514         3887 
 4636000   0.51507095   -7.7432022    822.14882  0.014778344  0.013366948         3872 
 4637000   0.51049356   -7.7478139     823.8484  0.014805701  0.013362384         3882 
 4638000   0.49700813    -7.723149    823.20919  0.014791023  0.013357817         3881 
 4639000   0.51489129   -7.7456553    822.83672  0.014781144  0.013353254         3867 
 4640000   0.49599244   -7.7512403    822.78575  0.014777043  0.013348694         3879 
 4641000   0.50428989   -7.7404846     822.7551  0.014773309  0.013344134         3879 
 4642000   0.50711019   -7.7476805    821.34236  0.014744764  0.013339576         3876 
 4643000   0.50968578   -7.7336992    822.11587  0.014755472  0.013335021         3872 
 4644000   0.50472548    -7.749462    822.92463  0.014766807   0.01333047         3885 
 4645000   0.51069173   -7.7436031    823.17332   0.01476809  0.013325922         3888 
 4646000   0.51164536   -7.7200256    822.87062  0.014759482  0.013321373         3890 
 4647000   0.50929602   -7.7283257    821.72486  0.014735759  0.013316826         3892 
 4648000   0.51176231   -7.7486927    822.64862  0.014749151  0.013312282         3886 
 4649000     0.513649   -7.7233572    823.16475   0.01475523  0.013307739         3879 
 4650000   0.51189287   -7.7423563    822.43083  0.014738904  0.013303198         3877 
 4651000   0.51150536   -7.7575118    823.04073  0.014746663  0.013298658         3883 
 4652000   0.51201633   -7.7373031    822.13999  0.014727357  0.013294123         3873 
 4653000   0.52189478   -7.7287745     821.7845  0.014717825  0.013289586         3886 
 4654000   0.51187152   -7.7431489    823.76598  0.014750143  0.013285055         3890 
 4655000   0.50842222   -7.7498251      822.492  0.014724168  0.013280524         3870 
 4656000   0.50623458   -7.7493449     821.1406  0.014696818  0.013275994         3878 
 4657000   0.50007582   -7.7425186    822.47057  0.014717461  0.013271466         3879 
 4658000   0.50799026   -7.7314935    821.66655  0.014699917  0.013266942         3882 
 4659000   0.50746395   -7.7715968    822.78139  0.014716702  0.013262422         3880 
 4660000   0.50317533    -7.731414    823.64534  0.014728994  0.013257899         3870 
 4661000    0.5118186   -7.7231482    822.06158  0.014697518  0.013253384         3889 
 4662000   0.51153503   -7.7232205    820.75388   0.01467099  0.013248869         3900 
 4663000   0.50713689   -7.7400734     822.5944  0.014700736  0.013244352         3890 
 4664000   0.49922372   -7.7578606    822.47145  0.014695388   0.01323984         3888 
 4665000   0.50576175   -7.7603473    822.54231  0.014693503  0.013235331         3884 
 4666000   0.50199756   -7.7645891    821.81538  0.014677371  0.013230823         3883 
 4667000   0.49945337   -7.7596218    822.08798  0.014679094  0.013226312         3881 
 4668000   0.51177705   -7.7568792    823.14323  0.014694788  0.013221808         3889 
 4669000   0.49786853   -7.7586395    822.35251  0.014677527  0.013217304         3883 
 4670000   0.50728823   -7.7589611     821.9725  0.014667603  0.013212804         3873 
 4671000    0.5101885   -7.7535502    822.21622  0.014668811  0.013208305         3894 
 4672000   0.49850725   -7.7331074    822.88697  0.014677636  0.013203806         3892 
 4673000   0.49358934   -7.7687189    823.40086  0.014683659   0.01319931         3890 
 4674000   0.50196809   -7.7502457    822.81037   0.01466999  0.013194816         3886 
 4675000   0.51043354    -7.736324    822.75726  0.014665905  0.013190324         3880 
 4676000   0.50467906   -7.7498903    822.52569  0.014658641  0.013185836         3880 
 4677000   0.51588048   -7.7441237    822.28893  0.014651289  0.013181349         3893 
 4678000   0.50630805   -7.7568052    823.37414  0.014667489  0.013176864         3881 
 4679000   0.49660941   -7.7483125     821.6318  0.014633323  0.013172379         3885 
 4680000   0.50197128   -7.7304938    821.00455  0.014619027  0.013167896         3887 
 4681000   0.50418182   -7.7540563    820.89589  0.014613969  0.013163418         3876 
 4682000    0.5088963   -7.7475538    823.26914  0.014653089  0.013158943         3893 
 4683000   0.50134557   -7.7345156    822.40143  0.014634519  0.013154466         3894 
 4684000   0.49555501   -7.7421657    822.23812  0.014628489  0.013149991         3882 
 4685000   0.49616559   -7.7696186    822.04239  0.014621885  0.013145517         3894 
 4686000   0.48635021   -7.7450069    822.86137  0.014633329   0.01314105         3894 
 4687000   0.51003536   -7.7466101    823.08178  0.014634126  0.013136582         3881 
 4688000   0.50075401   -7.7448056    822.14462  0.014614345  0.013132115         3881 
 4689000    0.4946153   -7.7380318    822.66463   0.01462047  0.013127651         3883 
 4690000   0.49336896   -7.7401279    822.69711   0.01461793  0.013123187         3877 
 4691000   0.50084497   -7.7535065    820.58593   0.01457731  0.013118727         3880 
 4692000   0.49883998   -7.7534505    822.39602  0.014606352  0.013114268         3887 
 4693000   0.51014798   -7.7610774     822.2696  0.014600994  0.013109812         3892 
 4694000   0.50148797   -7.7518585    823.20877  0.014614557  0.013105355         3885 
 4695000   0.48650566    -7.755528    822.13692   0.01459242    0.0131009         3888 
 4696000   0.49076364   -7.7525224    820.17107  0.014554427  0.013096447         3883 
 4697000   0.50473323   -7.7642692    823.05432  0.014602482  0.013092001         3886 
 4698000   0.49168506   -7.7470874    821.74217  0.014576099  0.013087552         3886 
 4699000   0.50399413   -7.7521896    821.91693  0.014576097  0.013083106         3882 
 4700000   0.50664595    -7.754884    821.14491  0.014559307  0.013078664         3886 
 4701000   0.49166316   -7.7577006    822.96848  0.014588536  0.013074223         3881 
 4702000   0.49937341   -7.7559554    822.82268  0.014582849   0.01306978         3884 
 4703000   0.49621029   -7.7494309    822.58545  0.014575545  0.013065342         3896 
 4704000   0.49339476   -7.7495647    822.18018  0.014565267  0.013060903         3884 
 4705000   0.49621246    -7.762226    823.23547  0.014580862  0.013056468         3871 
 4706000   0.50200975   -7.7628829    822.14387  0.014558434  0.013052037         3892 
 4707000   0.49979449   -7.7650432    821.77256  0.014548767  0.013047611         3874 
 4708000   0.49452863   -7.7565739    822.10647  0.014551587  0.013043181         3872 
 4709000   0.50586866   -7.7532927    821.15302  0.014531624  0.013038754         3886 
 4710000   0.48367246   -7.7623321    822.60454  0.014554221  0.013034329         3888 
 4711000   0.50848428   -7.7639672    822.88958  0.014556173  0.013029907         3896 
 4712000   0.50310371   -7.7414118    820.74807  0.014515211  0.013025484         3885 
 4713000   0.50203953   -7.7587698    821.98965  0.014534084  0.013021068         3883 
 4714000   0.50025747   -7.7584451    822.17684   0.01453431  0.013016651         3873 
 4715000   0.49479346   -7.7498661    821.69494   0.01452271  0.013012232         3887 
 4716000   0.49315723    -7.754428    821.07575  0.014508689   0.01300782         3890 
 4717000   0.50717442    -7.750558    822.32729  0.014527724   0.01300341         3885 
 4718000   0.49575592   -7.7570244    821.19062  0.014504568  0.012998997         3891 
 4719000   0.49632543    -7.743801    821.75548  0.014511469  0.012994592         3891 
 4720000    0.4936901   -7.7547668    821.80719  0.014509308  0.012990184         3888 
 4721000   0.50548742   -7.7694906    821.16858  0.014494962   0.01298578         3877 
 4722000   0.49223989   -7.7515552    821.18703  0.014492218  0.012981376         3876 
 4723000   0.49524393   -7.7611823    821.54538  0.014495472  0.012976976         3877 
 4724000   0.49021271   -7.7724046    820.92149  0.014481398  0.012972579         3886 
 4725000   0.49972387   -7.7620736    823.33955   0.01452098  0.012968182         3877 
 4726000   0.49930838   -7.7745264    822.19272  0.014497685  0.012963788         3892 
 4727000   0.48931511    -7.752664    822.21435  0.014494999  0.012959397         3893 
 4728000   0.49200333   -7.7500293    822.18555  0.014491426  0.012955005         3895 
 4729000   0.50346239   -7.7633579    822.04969  0.014485968  0.012950618         3895 
 4730000   0.48801852    -7.750631    821.26094  0.014469009  0.012946229         3881 
 4731000   0.48119707   -7.7555579     821.5674  0.014471349  0.012941843         3882 
 4732000   0.49177655   -7.7603082    821.83982  0.014473088   0.01293746         3887 
 4733000   0.49267542    -7.753297    821.89864  0.014471066  0.012933079         3872 
 4734000   0.48745536   -7.7565838    821.62873  0.014463257  0.012928697         3873 
 4735000   0.49468693   -7.7623225     822.0728  0.014468018  0.012924319         3884 
 4736000   0.49200082   -7.7547818    821.26904  0.014450821  0.012919944         3876 
 4737000   0.49068116   -7.7669468    820.65934  0.014437044  0.012915569         3890 
 4738000   0.48767203   -7.7583636    821.92685   0.01445629  0.012911199         3883 
 4739000   0.48519212   -7.7696734    822.40845  0.014461709  0.012906828         3873 
 4740000   0.48916201    -7.763644    820.51741  0.014425412  0.012902461         3889 
 4741000   0.49558664   -7.7630611     821.3453  0.014436921  0.012898093         3885 
 4742000   0.48619465   -7.7446069    821.78187  0.014441548  0.012893727         3874 
 4743000   0.49083134   -7.7654503    821.05946  0.014425811  0.012889365         3890 
 4744000   0.49109832   -7.7732116    820.95364  0.014420911  0.012885002         3871 
 4745000   0.47915604   -7.7632046    821.14462  0.014421226  0.012880641         3895 
 4746000   0.48395009   -7.7666537    820.81051  0.014412321  0.012876283         3885 
 4747000   0.48425976   -7.7557424    821.10639  0.014414479  0.012871925         3879 
 4748000   0.49053716   -7.7638907    820.76488  0.014405449   0.01286757         3867 
 4749000   0.48741918   -7.7535363    820.24146  0.014393231  0.012863216         3881 
 4750000   0.49886012   -7.7664872    821.34744  0.014409604  0.012858866         3877 
 4751000   0.48356058      -7.7635    821.03091  0.014401019  0.012854517         3886 
 4752000    0.4850708   -7.7656827    821.93003  0.014413756  0.012850171         3869 
 4753000    0.4788748   -7.7549601    822.26292   0.01441656  0.012845826         3872 
 4754000   0.49475667   -7.7564662    821.56774  0.014401342  0.012841485         3887 
 4755000   0.49279223   -7.7654179    821.12752  0.014390598  0.012837144         3879 
 4756000   0.48997362   -7.7801101    822.04944  0.014403726  0.012832805         3880 
 4757000   0.49153789   -7.7702636    820.66019  0.014376361  0.012828468         3888 
 4758000   0.50228362   -7.7649032    823.07545  0.014415641  0.012824134         3885 
 4759000   0.49051379   -7.7711632    821.35715  0.014382523  0.012819801         3878 
 4760000   0.48273939   -7.7695299    822.27939  0.014395648   0.01281547         3887 
 4761000   0.50546089   -7.7676987    821.85087  0.014385123   0.01281114         3885 
 4762000   0.49289551   -7.7455937    821.47864  0.014375589  0.012806811         3871 
 4763000   0.48529585   -7.7584934    821.39803   0.01437116  0.012802484         3879 
 4764000   0.49705231   -7.7722866    820.86157   0.01435876  0.012798159         3869 
 4765000   0.48204163    -7.766386    821.26019  0.014362718  0.012793835         3887 
 4766000   0.48391265   -7.7767437    820.94208  0.014354142  0.012789514         3885 
 4767000   0.48598097    -7.773708    820.87332  0.014349929  0.012785196         3893 
 4768000   0.49466023    -7.773446    820.93132  0.014347933  0.012780876         3882 
 4769000   0.49995034     -7.75879    822.29717  0.014368791  0.012776563         3879 
 4770000   0.48806529   -7.7713595    822.92299  0.014376712  0.012772251         3885 
 4771000   0.48358418   -7.7515071    821.22492  0.014344039  0.012767939         3876 
 4772000   0.49165116   -7.7832263     820.0552  0.014320606   0.01276363         3878 
 4773000   0.47342294   -7.7693563    821.82813   0.01434856  0.012759322         3880 
 4774000   0.48280083   -7.7674937    820.79544  0.014327528  0.012755018         3882 
 4775000    0.4837548    -7.770461    820.81967  0.014324951  0.012750713         3875 
 4776000   0.48486387   -7.7629422    821.04711   0.01432592  0.012746413         3874 
 4777000   0.46919583   -7.7860158    821.87293  0.014337327  0.012742109         3874 
 4778000    0.4962704   -7.7610462    821.05521  0.014320064   0.01273781         3859 
 4779000   0.48080466   -7.7626037     821.7578  0.014329319  0.012733514         3881 
 4780000   0.48407438   -7.7673949    821.97878  0.014330174  0.012729219         3882 
 4781000   0.48129318   -7.7774893    820.55958   0.01430244  0.012724926         3883 
 4782000   0.49378235   -7.7673542     821.3431  0.014313103  0.012720637         3880 
 4783000   0.48459738    -7.787518    821.49122  0.014312691  0.012716348         3890 
 4784000   0.48088689   -7.7718248    820.93487  0.014300008  0.012712058         3881 
 4785000   0.49158675   -7.7657627    820.22132  0.014284593  0.012707773         3889 
 4786000   0.49923636   -7.7782393     821.1683  0.014298097  0.012703486         3867 
 4787000   0.48385468   -7.7731617    821.00893  0.014292336  0.012699205         3880 
 4788000   0.48506588   -7.7675766    820.55412  0.014281435  0.012694926         3881 
 4789000   0.47801636   -7.7920466    820.62907  0.014279757  0.012690647         3897 
 4790000   0.47760327   -7.7833722    820.84433  0.014280521  0.012686369         3885 
 4791000   0.48894622    -7.771255     820.9228  0.014278905  0.012682095         3890 
 4792000   0.48513471    -7.761108    819.74534  0.014255449  0.012677824         3874 
 4793000   0.48662638   -7.7736828    820.90471  0.014272632  0.012673551         3880 
 4794000   0.48400223   -7.7668897    822.18036  0.014291829  0.012669282         3895 
 4795000   0.48110279   -7.7783362    821.22883  0.014272312  0.012665017         3868 
 4796000   0.48202227   -7.7715658    821.00436  0.014265436   0.01266075         3870 
 4797000   0.48965497   -7.7676303    820.77266  0.014258437  0.012656486         3896 
 4798000    0.4819405   -7.7735495    821.38051  0.014266022  0.012652225         3895 
 4799000   0.48171561   -7.7856276    821.18949  0.014259733  0.012647965         3877 
 4800000   0.49435036   -7.7629375    819.50465  0.014227511  0.012643706         3880 
 4801000   0.47571236     -7.77395    821.43505  0.014258055   0.01263945         3887 
 4802000    0.4790208    -7.768778    820.87089  0.014245295  0.012635197         3881 
 4803000    0.4810148   -7.7744245    821.14673  0.014247115  0.012630946         3885 
 4804000    0.4841151   -7.7589792    820.04447  0.014225029  0.012626695         3885 
 4805000    0.4750459   -7.7797181    820.47059  0.014229459  0.012622447         3879 
 4806000   0.48390158   -7.7708574    821.06637  0.014236829  0.012618201         3883 
 4807000   0.48315735   -7.7702183    821.44979  0.014240514  0.012613954         3890 
 4808000    0.4850594   -7.7804871    821.89863  0.014245331  0.012609709         3887 
 4809000   0.48231279   -7.7659395    819.75519  0.014205226  0.012605469         3893 
 4810000   0.48560773   -7.7754026    821.06496  0.014224965  0.012601229         3882 
 4811000   0.48024413   -7.7750548    821.97514  0.014237774  0.012596992         3888 
 4812000    0.4799888   -7.7756281    820.14594  0.014203137  0.012592753         3881 
 4813000   0.48300716   -7.7764612    820.98264  0.014214673  0.012588521         3894 
 4814000   0.48955395   -7.7866709    821.95947   0.01422863  0.012584288         3878 
 4815000    0.4827446   -7.7686674    821.33441  0.014214856  0.012580056         3878 
 4816000   0.46420407   -7.7747013    821.24935  0.014210433  0.012575826         3881 
 4817000   0.48284169   -7.7901697     821.3155  0.014208627  0.012571597         3886 
 4818000   0.47259695   -7.7738593    820.53251  0.014192136  0.012567371         3881 
 4819000   0.48284288   -7.7717704    821.13106  0.014199541  0.012563146         3889 
 4820000   0.47974121   -7.7678113    821.17115  0.014197288  0.012558925         3878 
 4821000   0.47971184   -7.7676017    821.07583  0.014192696  0.012554706         3889 
 4822000   0.47915384   -7.7818871    820.14343  0.014173639  0.012550488         3889 
 4823000     0.486985   -7.7750613    821.34494   0.01419146  0.012546273         3883 
 4824000    0.4843319   -7.7597305    820.72638  0.014177833   0.01254206         3882 
 4825000   0.48227585   -7.7888698    820.15509  0.014165028  0.012537846         3879 
 4826000   0.47636349     -7.76761    820.41521  0.014166584  0.012533637         3883 
 4827000   0.48075841   -7.7597945    820.69233  0.014168433  0.012529429         3892 
 4828000   0.47571756   -7.7705648    820.67629  0.014165222  0.012525224         3879 
 4829000   0.47257683   -7.7790802    820.39646  0.014157459  0.012521017         3889 
 4830000    0.4627176   -7.7853451    820.04694  0.014148498  0.012516814         3889 
 4831000   0.49204782   -7.7932669    820.15241  0.014147389  0.012512613         3879 
 4832000   0.47898916   -7.7881284    820.64698   0.01415299  0.012508415         3880 
 4833000   0.47618365   -7.7736357    820.61562  0.014149521  0.012504215         3880 
 4834000   0.47878801   -7.7744105    820.28986  0.014140978   0.01250002         3881 
 4835000   0.48140176   -7.8000332    820.35902  0.014139245  0.012495826         3874 
 4836000   0.48351479   -7.7743645     820.6221  0.014140855  0.012491631         3885 
 4837000   0.48322894   -7.7780259    820.49952   0.01413582  0.012487438         3883 
 4838000   0.47343863   -7.7781231    821.38194  0.014148097   0.01248325         3881 
 4839000   0.47168825    -7.789391    821.18069  0.014141708  0.012479064         3883 
 4840000   0.48151814   -7.7720584    820.47374  0.014126614  0.012474882         3882 
 4841000   0.48675742    -7.787215    821.13527  0.014135083  0.012470699         3886 
 4842000   0.47674615    -7.769681    820.29777   0.01411775  0.012466517         3907 
 4843000   0.48108741   -7.7852917    821.20696   0.01413048   0.01246234         3888 
 4844000   0.47599797   -7.7688651     820.7202  0.014119189  0.012458163         3875 
 4845000   0.47345886   -7.7855571    820.76178   0.01411699  0.012453987         3887 
 4846000   0.47654529   -7.7902862    820.88082  0.014116124  0.012449816         3885 
 4847000    0.4787355   -7.7748447    820.26298  0.014102589  0.012445644         3874 
 4848000   0.46740142   -7.7623694    821.40525  0.014119315  0.012441476         3895 
 4849000   0.48174613   -7.7813201    821.19129  0.014112726  0.012437308         3899 
 4850000   0.47614641   -7.7901598    819.53118  0.014081292   0.01243314         3879 
 4851000   0.47440818   -7.7891803    822.54647  0.014130187  0.012428974         3883 
 4852000   0.48449196   -7.7682651    820.29315  0.014088574   0.01242481         3875 
 4853000   0.47462456   -7.7839663    820.33597  0.014086406  0.012420648         3875 
 4854000   0.48053863   -7.7680542    820.44184  0.014085322  0.012416491         3897 
 4855000   0.48166627   -7.7858142    820.69175   0.01408671  0.012412336         3888 
 4856000   0.47062685   -7.7854084    819.76006  0.014067821  0.012408178         3901 
 4857000   0.46936269   -7.8006732    821.07879   0.01408755  0.012404025         3890 
 4858000   0.46902022   -7.7876395    821.30501  0.014088531  0.012399869         3894 
 4859000   0.48466812   -7.7850899    820.80291   0.01407702  0.012395718         3879 
 4860000   0.46601703   -7.7953185    822.03882  0.014095316  0.012391568         3883 
 4861000   0.47711854   -7.7711939    820.89133  0.014072745  0.012387421         3893 
 4862000   0.46902021    -7.782206    819.63644  0.014048342  0.012383277         3903 
 4863000   0.47556451   -7.7715367     820.3665  0.014057963  0.012379132         3885 
 4864000   0.47173737   -7.7802144    820.63806  0.014059726  0.012374991         3882 
 4865000   0.47213985   -7.7823564    820.52805  0.014054951  0.012370851         3885 
 4866000   0.47242592   -7.7971677    818.97375  0.014025444  0.012366713         3894 
 4867000   0.47025169    -7.785618    821.06799  0.014058421  0.012362576         3876 
 4868000   0.46765733   -7.7829677    819.34351  0.014026012  0.012358439         3884 
 4869000   0.48404541    -7.770815    820.94499  0.014050541   0.01235431         3879 
 4870000   0.47162098   -7.7725656      820.997  0.014048546  0.012350181         3885 
 4871000   0.47691107   -7.7638438    820.00831  0.014028747  0.012346052         3900 
 4872000   0.46694485   -7.7900301    821.40289  0.014049721  0.012341926         3887 
 4873000   0.46910503   -7.7748455     820.6406  0.014033802  0.012337801         3884 
 4874000   0.47406209   -7.7862001    821.12678  0.014039235  0.012333677         3893 
 4875000   0.47693958   -7.7943845    821.29402  0.014039214  0.012329556         3894 
 4876000   0.48251576    -7.778157    819.56657  0.014006812  0.012325435         3876 
 4877000   0.47292028   -7.7774261    820.20706  0.014014884  0.012321315         3876 
 4878000   0.46432084   -7.8038858    820.46957  0.014016495  0.012317199         3892 
 4879000   0.47390031   -7.7888836    820.58418   0.01401558  0.012313082         3890 
 4880000   0.47219253   -7.7991124    820.83349  0.014016965  0.012308968         3905 
 4881000   0.46864345   -7.7970843    820.55535  0.014009345  0.012304859         3882 
 4882000    0.4716227   -7.7886166     820.8301  0.014011165  0.012300751         3901 
 4883000   0.47419969   -7.7843199    820.68187  0.014005766  0.012296643         3882 
 4884000   0.45722488   -7.7903694    820.32827  0.013996865  0.012292538         3877 
 4885000   0.47197231   -7.7713166    820.11528  0.013990366  0.012288432         3889 
 4886000   0.47387116   -7.7735993    820.64829  0.013996594   0.01228433         3894 
 4887000   0.46775583   -7.8035582    821.54267  0.014008981   0.01228023         3886 
 4888000   0.47723994     -7.78354    820.59316  0.013989927   0.01227613         3891 
 4889000   0.47514618   -7.7874023    820.10798  0.013978796  0.012272033         3889 
 4890000   0.46033271   -7.7938594     819.9017  0.013972422  0.012267936         3889 
 4891000   0.47350408   -7.8101291    820.45404  0.013978976  0.012263841         3893 
 4892000   0.47010591   -7.7932654    819.85692  0.013965946  0.012259751         3878 
 4893000   0.44957558   -7.7910793    820.19001  0.013968765  0.012255661         3875 
 4894000   0.48711722   -7.7756622    819.42576  0.013952897  0.012251573         3893 
 4895000   0.46565069   -7.7852461    819.47235   0.01395084  0.012247487         3885 
 4896000   0.47151814   -7.7958911    821.06116  0.013975033  0.012243401         3886 
 4897000   0.47878127   -7.7853016    820.28935  0.013959046  0.012239316         3900 
 4898000   0.46484689   -7.7939909    821.11981  0.013970325  0.012235234         3891 
 4899000   0.46372799   -7.7966623    819.88227  0.013946422  0.012231151         3886 
 4900000   0.46308742   -7.7763137    819.41635  0.013935652  0.012227073         3890 
 4901000    0.4693747   -7.7961353    820.59752  0.013952893  0.012222995         3889 
 4902000   0.46322498   -7.7980141    819.57727  0.013932702  0.012218918         3883 
 4903000   0.48218534   -7.7844519    819.26839  0.013924611  0.012214845         3889 
 4904000   0.47807358   -7.7964573    819.93949  0.013933175  0.012210772         3895 
 4905000   0.46555945   -7.7947607     820.1073  0.013933186  0.012206703         3889 
 4906000    0.4604596   -7.7905484    819.75064  0.013924287  0.012202636         3880 
 4907000   0.46822859   -7.7938741    820.46863  0.013933643  0.012198571         3888 
 4908000   0.46933823   -7.7977638    820.34492  0.013928703  0.012194503         3891 
 4909000   0.46084552   -7.7822168     821.3271  0.013942539   0.01219044         3895 
 4910000   0.46753134   -7.7885933    820.60274  0.013927406  0.012186377         3887 
 4911000   0.45855134   -7.7998212    820.58593  0.013924284  0.012182316         3895 
 4912000     0.462911    -7.800104    819.46769  0.013902478  0.012178258         3895 
 4913000   0.47088098   -7.7948343    819.91096  0.013907167  0.012174202         3886 
 4914000   0.46253136   -7.7965974    818.60001  0.013882106  0.012170146         3890 
 4915000   0.45640348    -7.792168    819.52543  0.013894972  0.012166092         3888 
 4916000   0.45357133   -7.7969593    820.19711  0.013903531  0.012162039         3887 
 4917000   0.47373019   -7.7876876     818.6124  0.013873846  0.012157987         3886 
 4918000   0.46427529   -7.7889799    820.29322  0.013899506  0.012153941         3892 
 4919000   0.45536793   -7.7862117    819.61839  0.013885247  0.012149894         3889 
 4920000    0.4682068   -7.7950054    821.07138  0.013907036  0.012145848         3888 
 4921000   0.45666688   -7.7871442     820.2099  0.013889621  0.012141804         3889 
 4922000   0.46356554   -7.7950558      819.276  0.013870987  0.012137761         3885 
 4923000   0.46876426   -7.8001217    821.04592   0.01389813  0.012133724         3882 
 4924000   0.46477334    -7.810052      820.328  0.013883157  0.012129687         3874 
 4925000   0.45834951   -7.7987237    820.36011  0.013880882   0.01212565         3891 
 4926000   0.46398784   -7.8077679    820.36307  0.013878114  0.012121616         3881 
 4927000   0.46703832   -7.7934533    821.13257  0.013888312  0.012117585         3889 
 4928000   0.47520971   -7.8098111    819.68707   0.01386105  0.012113553         3898 
 4929000   0.46696743   -7.8014123    819.65245  0.013857653  0.012109524         3888 
 4930000   0.45403387   -7.8016101    819.08312  0.013845218  0.012105497         3884 
 4931000   0.45769972   -7.8011298    820.34885  0.013863801  0.012101471         3898 
 4932000     0.460144   -7.7873982    820.06263  0.013856154   0.01209745         3892 
 4933000   0.46389149   -7.7879958    818.72017  0.013830667  0.012093427         3895 
 4934000   0.46239655   -7.7968622    820.31717  0.013854837  0.012089405         3896 
 4935000   0.45385506   -7.8128096    820.20251  0.013850093  0.012085386         3899 
 4936000   0.44947997   -7.7982669    820.47386  0.013851868  0.012081369         3894 
 4937000   0.46476808   -7.8028194    819.53608  0.013833233  0.012077354         3912 
 4938000   0.45049998   -7.8124018    819.21625  0.013825035   0.01207334         3896 
 4939000   0.46813927   -7.7901276    819.69999  0.013830397  0.012069327         3880 
 4940000   0.46191295   -7.7888636    820.14965  0.013835183  0.012065318         3860 
 4941000   0.46620363   -7.7986327    819.63481    0.0138237   0.01206131         3876 
 4942000   0.47562471   -7.7943938    819.92177  0.013825741  0.012057303         3884 
 4943000    0.4613129   -7.8059556    819.48387  0.013815562  0.012053298         3892 
 4944000    0.4627169   -7.8050157    820.18894  0.013824652  0.012049295         3871 
 4945000   0.45610911   -7.7922725     819.2754  0.013806461  0.012045295         3879 
 4946000   0.45618968   -7.8022684     819.0392   0.01379969  0.012041296         3890 
 4947000    0.4613547   -7.7962576    820.25908   0.01381745  0.012037298         3879 
 4948000   0.45757912   -7.7827151    819.38185  0.013799883  0.012033304         3885 
 4949000   0.45591101   -7.7836036    819.85845   0.01380512  0.012029311         3891 
 4950000   0.45505239   -7.8179842    820.47202   0.01381266  0.012025321         3881 
 4951000   0.45513279   -7.8133362    819.80968  0.013798722  0.012021332         3891 
 4952000    0.4512576    -7.795596    819.22462   0.01378609  0.012017343         3886 
 4953000   0.46350352   -7.8202191    819.31561  0.013784838  0.012013356         3878 
 4954000   0.46304315   -7.7934779    818.30919  0.013765126   0.01200937         3891 
 4955000   0.46476143   -7.8019369    820.45308  0.013798404  0.012005385         3896 
 4956000   0.45500593   -7.8039968    819.29014  0.013776065  0.012001404         3895 
 4957000   0.44849024   -7.8030002    818.29175  0.013756502  0.011997423         3905 
 4958000   0.45982573   -7.8040128    819.70308  0.013777449  0.011993444         3886 
 4959000   0.45890363   -7.7979538    819.98951  0.013779484  0.011989468         3897 
 4960000   0.46445913   -7.8135984    821.22899   0.01379753  0.011985496         3891 
 4961000   0.45654802   -7.8117438    820.09279  0.013775663  0.011981525         3882 
 4962000   0.45240078   -7.8079282    819.02602  0.013754971  0.011977552         3898 
 4963000   0.45803273   -7.8133819    818.85605  0.013749346  0.011973582         3894 
 4964000   0.46279731   -7.8212536    818.66826  0.013743424  0.011969611         3881 
 4965000    0.4540977   -7.8117714    819.69104  0.013757822  0.011965645         3888 
 4966000   0.45155489   -7.8066669    819.21101  0.013746996  0.011961681         3889 
 4967000   0.45223571   -7.8037238    820.04384  0.013758201  0.011957719         3882 
 4968000   0.46112577   -7.8119625    819.36312  0.013744014  0.011953755         3887 
 4969000   0.45436767   -7.8230735    819.69887  0.013746878  0.011949793         3889 
 4970000   0.46325758   -7.8148052    819.27891  0.013737071  0.011945834         3889 
 4971000   0.45483552   -7.8071914     819.8189   0.01374336  0.011941876         3888 
 4972000   0.45193156   -7.8069595    820.16236  0.013746352  0.011937921         3892 
 4973000   0.46490415   -7.8080923    819.34239  0.013729848  0.011933967         3886 
 4974000   0.46182459   -7.8002808     818.6982  0.013716295  0.011930015         3886 
 4975000   0.46172723    -7.808489    820.06792  0.013736481  0.011926067         3890 
 4976000   0.45792049   -7.8129097    820.26048  0.013736945  0.011922119         3894 
 4977000   0.45049092   -7.7768072    818.48205  0.013704408  0.011918172         3888 
 4978000   0.45284105    -7.816681    819.36222  0.013716389  0.011914226         3889 
 4979000    0.4563111    -7.808417    820.15306  0.013726871  0.011910283         3886 
 4980000   0.45879608    -7.794387    818.47947  0.013696109   0.01190634         3891 
 4981000   0.44080559   -7.8116879    819.59034  0.013711944  0.011902401         3891 
 4982000   0.46739991   -7.8199127    819.57885     0.013709  0.011898463         3882 
 4983000   0.45643973   -7.8038025    819.70326  0.013708329  0.011894525         3869 
 4984000   0.45067136   -7.8044287    819.18712  0.013696949  0.011890589         3894 
 4985000   0.46036392   -7.8031148    818.19304  0.013677583  0.011886658         3893 
 4986000   0.46195624   -7.8000068    819.97549  0.013704631  0.011882726         3889 
 4987000   0.45536238    -7.799564    819.07354  0.013686811  0.011878797         3874 
 4988000   0.45846265   -7.7975695     819.7958  0.013696134  0.011874869         3892 
 4989000    0.4576238   -7.7977693    818.86544  0.013677849  0.011870944         3902 
 4990000   0.44856092   -7.8207251    819.23684   0.01368131  0.011867021         3876 
 4991000   0.46112738   -7.8036305    819.40938   0.01368145  0.011863097         3890 
 4992000   0.45629745   -7.8095271    819.27304  0.013676433  0.011859177         3897 
 4993000   0.46620561   -7.8125586    819.49249  0.013677356  0.011855258         3891 
 4994000   0.44589658   -7.8166524    820.10034  0.013684761   0.01185134         3892 
 4995000   0.45703328   -7.8136369    818.78418  0.013660063  0.011847426         3884 
 4996000   0.45719196   -7.8146213    820.12939  0.013679767  0.011843514         3885 
 4997000   0.45062305   -7.8073196    819.77499  0.013671119  0.011839602         3882 
 4998000   0.45102298   -7.8058946    818.72471  0.013650872   0.01183569         3862 
 4999000   0.45014886    -7.818354    820.14926  0.013671889  0.011831781         3866 
 5000000   0.46548335   -7.8199449    819.51759  0.013658627  0.011827873         3890 
 5001000   0.44459888   -7.8099541    818.24863   0.01363475  0.011823966         3895 
 5002000   0.44468283   -7.7983594    818.69675   0.01363949  0.011820062         3900 
 5003000   0.45822529   -7.8230783    819.70782  0.013653605  0.011816157         3881 
 5004000   0.43603795   -7.8148384    818.48437  0.013630502  0.011812255         3884 
 5005000   0.44995211    -7.803587     819.2699  0.013640857  0.011808354         3882 
 5006000   0.44016319   -7.8194417    819.75849  0.013646266  0.011804456         3894 
 5007000   0.45104924   -7.8116418    819.85371  0.013645125   0.01180056         3891 
 5008000   0.45150025   -7.8205333    818.68096  0.013622886  0.011796664         3889 
 5009000   0.45454151   -7.8065887    820.33585  0.013647698  0.011792771         3905 
 5010000   0.45135138   -7.8038377    819.47266  0.013630616   0.01178888         3876 
 5011000   0.44468237   -7.8026055    818.73793  0.013615678  0.011784989         3880 
 5012000    0.4535513   -7.8123153    818.12142  0.013602711    0.0117811         3881 
Loop time of 10589.4 on 48 procs for 5000000 steps with 4000 atoms

Performance: 81590.899 tau/day, 472.170 timesteps/s
99.4% CPU use with 48 MPI tasks x no OpenMP threads

MPI task timing breakdown:
Section |  min time  |  avg time  |  max time  |%varavg| %total
---------------------------------------------------------------
Pair    | 654.7      | 702.81     | 748.41     |  68.1 |  6.64
Neigh   | 66.428     | 67.781     | 69.223     |   7.7 |  0.64
Comm    | 549.57     | 604.24     | 654.27     |  85.2 |  5.71
Output  | 21.761     | 21.766     | 21.85      |   0.3 |  0.21
Modify  | 9049.1     | 9078.5     | 9123.4     |  19.8 | 85.73
Other   |            | 114.4      |            |       |  1.08

Nlocal:        83.3333 ave          89 max          78 min
Histogram: 5 2 6 5 5 7 7 7 2 2
Nghost:        1764.23 ave        1782 max        1739 min
Histogram: 4 0 3 3 4 7 11 8 3 5
Neighs:        10750.1 ave       11540 max        9879 min
Histogram: 1 4 3 7 6 7 9 5 5 1
FullNghs:      21501.1 ave       23112 max       19847 min
Histogram: 2 3 2 8 7 9 9 4 2 2

Total # of neighbors = 1032052
Ave neighs/atom = 258.01300
Neighbor list builds = 269801
Dangerous builds = 0

#clear
#
#next RN
#
#jump SELF
Total wall time: 2:56:32
