
units lj                  # Use reduced LJ style units
atom_style atomic         # Uncharged point particles
atom_modify map hash      # Needed for indexing of clusters etc
                          # Used to be able to find where atoms are in relation to each other.

lattice fcc 1.0 spacing 1 1 1
Lattice spacing in x,y,z = 1.5874011 1.5874011 1.5874011
region box block 0 10 0 10 0 10 units lattice
create_box 2 box
Created orthogonal box = (0.0000000 0.0000000 0.0000000) to (15.874011 15.874011 15.874011)
  3 by 4 by 4 MPI processor grid
create_atoms 1 box
Created 4000 atoms
  using lattice units in orthogonal box = (0.0000000 0.0000000 0.0000000) to (15.874011 15.874011 15.874011)
  create_atoms CPU = 0.007 seconds
set type 1 type/fraction 2 0.72 78393
Setting atom values ...
  2894 settings made for type/fraction
mass 1 1.0
mass 2 1.0
pair_style lj/cut  3.5
pair_modify tail  yes
pair_coeff 1  1  1.0  1.0   # Intearaction between 1 and 1 set with epsilon = 1 and sigma = 1
pair_coeff 1  2  1.5  0.8
pair_coeff 2  2  0.5  0.88

write_data data.0
System init for write_data ...
Neighbor list info ...
  update every 1 steps, delay 10 steps, check yes
  max neighbors/atom: 2000, page size: 100000
  master list distance cutoff = 3.8
  ghost atom cutoff = 3.8
  binsize = 1.9, bins = 9 9 9
  1 neighbor lists, perpetual/occasional/extra = 1 0 0
  (1) pair lj/cut, perpetual
      attributes: half, newton on
      pair build: half/bin/atomonly/newton
      stencil: half/bin/3d
      bin: standard
WARNING: Not all mixed pair coeffs generated from mixing. Use write_data with 'pair ij' option to store all pair coeffs. (../write_data.cpp:312)


#############################
#   M E L T   S Y S T E M   #
#############################

velocity all create 2.4 2750902 mom yes dist gaussian # Assign velocities
                                                    # Temperature 2.4, random number seed, zero linear momentum
                                                                                # Gaussian distribution

timestep 0.002   # simulation timestep
thermo 1000       # output thermodynamic data every 1000 steps bf 100

# Define a fix  in this case with index 1 applied to all
# particles in the simulation. This fix is for simulations
# in the anisotropic NPT ensemble. Note that we use the MTK
# correction.
fix 1 all npt temp 2.4 2.4 0.1 iso 5.68 5.68 0.5 mtk yes tchain 5 pchain 5 # Use NPT ensemble
                                                                         # Set temperature and pressure and damping
                                                                         # Numbers of thermostats in chain and in barostat
run 10000          # run for 10000 steps
Per MPI rank memory allocation (min/avg/max) = 3.642 | 3.644 | 3.648 Mbytes
Step Temp E_pair E_mol TotEng Press Volume 
       0          2.4   -4.0785584            0  -0.47945841   -3.6688173         4000 
    1000    2.3957175   -3.6314601            0   -0.0387822    5.8499611    3676.3154 
    2000    2.4503045   -3.6412185            0  0.033319387    5.7500424    3699.5677 
    3000    2.4056977   -3.6026767            0 0.0049677466    5.9627944    3681.9232 
    4000     2.465271   -3.6177451            0  0.079236887    5.8487772    3686.1681 
    5000    2.3733313   -3.6413425            0 -0.082235557    5.7139837    3682.7323 
    6000    2.3654204   -3.6468887            0 -0.099645084    5.5178219      3706.23 
    7000    2.4166103    -3.654655            0 -0.030645753     5.731326     3674.028 
    8000    2.4192327     -3.69446            0 -0.066518248    5.5705542    3653.9562 
    9000    2.4327159   -3.6201315            0  0.028030073    5.4718993    3726.5558 
   10000    2.3604883   -3.6304626            0 -0.090615296    5.6496145    3696.4621 
Loop time of 2.71172 on 48 procs for 10000 steps with 4000 atoms

Performance: 637234.764 tau/day, 3687.701 timesteps/s
99.1% CPU use with 48 MPI tasks x no OpenMP threads

MPI task timing breakdown:
Section |  min time  |  avg time  |  max time  |%varavg| %total
---------------------------------------------------------------
Pair    | 1.1645     | 1.2463     | 1.2923     |   2.5 | 45.96
Neigh   | 0.21409    | 0.22126    | 0.23276    |   0.7 |  8.16
Comm    | 0.83621    | 0.91397    | 0.99125    |   3.2 | 33.70
Output  | 0.00024824 | 0.000256   | 0.00034191 |   0.0 |  0.01
Modify  | 0.2813     | 0.31422    | 0.34606    |   2.8 | 11.59
Other   |            | 0.01572    |            |       |  0.58

Nlocal:        83.3333 ave          96 max          73 min
Histogram: 3 3 2 12 10 5 10 0 2 1
Nghost:        1737.08 ave        1772 max        1702 min
Histogram: 2 5 4 6 3 8 8 7 3 2
Neighs:        10341.8 ave       12244 max        8942 min
Histogram: 3 4 7 8 9 8 5 1 1 2

Total # of neighbors = 496404
Ave neighs/atom = 124.10100
Neighbor list builds = 904
Dangerous builds = 182

# Equilibrate just above the melting temperature to avoid step fn in T

fix 1 all npt temp 1.25 1.25 0.1 iso 5.68 5.68 0.5 mtk yes tchain 5 pchain 5
run 2000
Per MPI rank memory allocation (min/avg/max) = 3.644 | 3.646 | 3.649 Mbytes
Step Temp E_pair E_mol TotEng Press Volume 
   10000    2.3604883   -3.6304626            0 -0.090615296    5.6496145    3696.4621 
   11000    1.2383597   -5.3571663            0   -3.5000911    5.7680917    2813.6737 
   12000    1.2505871   -5.3959031            0   -3.5204914    5.7879839    2800.3135 
Loop time of 0.648056 on 48 procs for 2000 steps with 4000 atoms

Performance: 533287.385 tau/day, 3086.154 timesteps/s
99.6% CPU use with 48 MPI tasks x no OpenMP threads

MPI task timing breakdown:
Section |  min time  |  avg time  |  max time  |%varavg| %total
---------------------------------------------------------------
Pair    | 0.28432    | 0.31864    | 0.3452     |   2.3 | 49.17
Neigh   | 0.040455   | 0.043593   | 0.046424   |   0.6 |  6.73
Comm    | 0.20445    | 0.23439    | 0.27427    |   3.0 | 36.17
Output  | 5.1194e-05 | 5.2482e-05 | 6.786e-05  |   0.0 |  0.01
Modify  | 0.043329   | 0.04654    | 0.049736   |   0.9 |  7.18
Other   |            | 0.004836   |            |       |  0.75

Nlocal:        83.3333 ave          88 max          75 min
Histogram: 1 4 0 4 3 3 17 0 5 11
Nghost:        2086.65 ave        2104 max        2059 min
Histogram: 1 0 3 2 6 7 12 9 6 2
Neighs:        13632.4 ave       15061 max       11969 min
Histogram: 3 2 5 3 7 8 8 3 3 6

Total # of neighbors = 654353
Ave neighs/atom = 163.58825
Neighbor list builds = 144
Dangerous builds = 14

#############################
# L I N E A R  Q U E N C H  #
#############################

# Define solid atoms. This closely follows ten Wolde  Ruiz-Montero and Frenkel  Faraday Discuss  1996  104  93-110
# Compute components of the per-atom q6 vector
compute q6 all orientorder/atom degrees 1 6 components 6 nnn NULL cutoff 1.3 # compute the Q6 parameter.
                                                                             # Use all neighbours within 1.3 unit cell.

# get number of connections
compute coord_number all coord/atom orientorder q6 0.5

# An atom is solid if it has 8 or more connections (of a possible 14)
variable is_solid atom c_coord_number>=8
group solid dynamic all var is_solid    # Must be dynamic to update
dynamic group solid defined

# do clustering
compute cluster solid cluster/atom 1.3 # Create a cluster where all atoms within are solid and max 1.3 units from another member

# define chunks one chunk per cluster
compute clus_chunks solid chunk/atom c_cluster nchunk every compress yes  # Says which atoms are in which chunk

# count the size of each chunk
compute size_chunks solid property/chunk clus_chunks count


# Find the maximum entry in the vector of chunk sizes
variable max_n equal max(c_size_chunks)


# Thermo style which includes this variable
# thermo_style custom step temp pe vol v_max_n

thermo ${N}  # Print the thermo information every 100 steps
thermo 1000  

# Reset the npt fix at a lower temperature (below freezing)
fix 1  all npt temp  ${temp} ${temp}  0.1  iso  5.68  5.68  0.5  mtk yes tchain  5  pchain  5
fix 1  all npt temp  0.45 ${temp}  0.1  iso  5.68  5.68  0.5  mtk yes tchain  5  pchain  5
fix 1  all npt temp  0.45 0.45  0.1  iso  5.68  5.68  0.5  mtk yes tchain  5  pchain  5

dump dmp2 all dcd ${N} traj.dcd
dump dmp2 all dcd 1000 traj.dcd


compute msd all msd com yes
variable twopoint equal c_msd[4]/6/(step*dt+1.0e-6)
fix 9 all vector 10 c_msd[4]
variable fit equal slope(f_9)/6/(10*dt)
thermo_style custom step temp pe c_msd[4] v_twopoint v_fit v_max_n

fix 1 all npt temp 1.25 ${temp} 0.1 iso 5.68 5.68 0.5 mtk yes tchain 5 pchain 5
fix 1 all npt temp 1.25 0.45 0.1 iso 5.68 5.68 0.5 mtk yes tchain 5 pchain 5
run 5000000 # 5000000  # Run for this many steps
Neighbor list info ...
  update every 1 steps, delay 10 steps, check yes
  max neighbors/atom: 2000, page size: 100000
  master list distance cutoff = 3.8
  ghost atom cutoff = 3.8
  binsize = 1.9, bins = 8 8 8
  4 neighbor lists, perpetual/occasional/extra = 1 3 0
  (1) pair lj/cut, perpetual
      attributes: half, newton on
      pair build: half/bin/atomonly/newton
      stencil: half/bin/3d
      bin: standard
  (2) compute orientorder/atom, occasional
      attributes: full, newton on
      pair build: full/bin/atomonly
      stencil: full/bin/3d
      bin: standard
  (3) compute coord/atom, occasional
      attributes: full, newton on
      pair build: full/bin/atomonly
      stencil: full/bin/3d
      bin: standard
  (4) compute cluster/atom, occasional
      attributes: full, newton on
      pair build: full/bin/atomonly
      stencil: full/bin/3d
      bin: standard
Per MPI rank memory allocation (min/avg/max) = 9.842 | 9.849 | 9.853 Mbytes
Step Temp PotEng c_msd[4] v_twopoint v_fit v_max_n 
   12000    1.2505871   -5.3959031 2.8245165e-30 1.9614697e-32 8.3333333e+20            3 
   13000    1.2230932   -5.3884803   0.63574699  0.004075301  0.052730017            1 
   14000    1.2517666   -5.3751725    1.2863263 0.0076567037  0.052720887            4 
   15000    1.2174104   -5.4584887    1.9103023   0.01061279  0.053139102            2 
   16000    1.2481438   -5.4036781    2.5896155   0.01348758  0.053605463            3 
   17000    1.2138935   -5.4045852    3.3462897   0.01640338  0.054997228            1 
   18000    1.2266015   -5.4106442    3.9845043  0.018446779  0.055674306            1 
   19000    1.2315857   -5.4410351    4.6572984  0.020426747  0.055732165            1 
   20000    1.2426714   -5.4780625    5.2379607  0.021824836  0.055470036            2 
   21000    1.2467749   -5.4648318     5.850859  0.023217694  0.055073965            1 
   22000    1.2516188   -5.3830808    6.4526181  0.024441735  0.054645329            1 
   23000    1.2726846   -5.4011248    7.1422083  0.025877566   0.05432918            1 
   24000     1.237425    -5.422347    7.6638473   0.02661058  0.053920258            3 
   25000    1.2666909   -5.3911158    8.2993595  0.027664531  0.053605152            2 
   26000    1.2528021   -5.4571779    8.8877691  0.028486439  0.053283617            2 
   27000    1.2443692   -5.4109864    9.5791033  0.029565133  0.053147758            3 
   28000    1.2632176   -5.3987623    10.357903  0.030827092  0.053179041            2 
   29000    1.2388176    -5.462102    11.032929   0.03170382  0.053392751            2 
   30000    1.2318004    -5.402664    11.954236  0.033206212  0.053715688            2 
   31000    1.2367301   -5.4693227    12.507858  0.033623275   0.05408287            2 
   32000    1.1975945    -5.453097    13.228496  0.034449209  0.054353659            4 
   33000    1.2308478   -5.4465969    13.794943  0.034835715  0.054514507            5 
   34000    1.2382024   -5.4142419    14.349454  0.035170231  0.054533641            2 
   35000    1.2588713   -5.4118148    15.015531  0.035751264  0.054552009            3 
   36000    1.2696795    -5.410347    15.642725  0.036210012  0.054525918            2 
   37000    1.2620079   -5.4612978    16.164119  0.036405673  0.054480385            1 
   38000    1.2303633   -5.4126156    16.966218  0.037206617  0.054461372            1 
   39000    1.2681222   -5.4368997     17.68195  0.037781944  0.054491603            6 
   40000    1.2702704   -5.4151945    18.371541  0.038274044  0.054524603            2 
   41000     1.243101   -5.3910122     18.95782  0.038532154  0.054533571            2 
   42000    1.2641613   -5.4428017    19.753957  0.039194359  0.054569848            3 
   43000    1.2594336   -5.4675404    20.330486  0.039400165  0.054634256            3 
   44000    1.2234458   -5.4379108    21.001334  0.039775253  0.054675229            3 
   45000     1.247998   -5.4767483    21.695838  0.040177477  0.054735039            2 
   46000    1.2729439   -5.4089963    22.579148  0.040904253  0.054808402            6 
   47000    1.2487342   -5.4220083    23.100945  0.040959121  0.054893345            2 
   48000    1.2380635   -5.4144198    23.723699  0.041186978  0.054935211            5 
   49000    1.2452119   -5.4310653    24.382492  0.041466822  0.054958717            6 
   50000    1.2293536   -5.4218413    25.207265  0.042012107  0.055019364            4 
   51000    1.2334039   -5.4594064    25.845427  0.042231089  0.055097088            1 
   52000    1.2625669   -5.3739065    26.639169  0.042690976  0.055174888            1 
   53000    1.2316171    -5.406219    27.234101  0.042820913  0.055259135            2 
   54000    1.2499992   -5.4164504    28.041879  0.043274504  0.055325604            4 
   55000    1.2622798   -5.4391805    28.777282  0.043601942  0.055420115            2 
   56000    1.2475334   -5.4375194    29.275059  0.043564076  0.055485955            2 
   57000    1.2588289   -5.4448931    29.778143  0.043535296  0.055518287            1 
   58000    1.2575804   -5.4312638    30.663918  0.044057354  0.055564508            4 
   59000    1.2224616   -5.4441528    31.196979  0.044063529  0.055585763            2 
   60000    1.2439114    -5.434405    31.872007  0.044266676  0.055614218            1 
   61000     1.253128   -5.4473978    32.422519  0.044293058  0.055627112            1 
   62000    1.2347995   -5.4381835    33.156863  0.044565675  0.055616395            2 
   63000    1.2279995   -5.4588182     33.72135  0.044604961  0.055600888            2 
   64000    1.2449341   -5.4328792    34.533758  0.044965831  0.055581859            3 
   65000    1.2548026   -5.4612054    35.030851  0.044911347  0.055567006            4 
   66000    1.2154164   -5.4773682    35.639152  0.044998929  0.055544553            4 
   67000    1.2527592   -5.4500146    36.271989  0.045114414  0.055519931            5 
   68000    1.2356365   -5.4422381    36.680755  0.044951905  0.055459636            1 
   69000    1.2531625   -5.4527309    37.398614  0.045167408  0.055423357            3 
   70000     1.256025    -5.418361    38.094113  0.045350135  0.055370905            2 
   71000    1.2598281    -5.452909     38.50687  0.045195856  0.055309232            2 
   72000    1.2579385   -5.4749532    38.974106  0.045108919  0.055229247            5 
   73000    1.2211105   -5.4400658     39.70578  0.045326233  0.055146026            1 
   74000    1.2338037   -5.4614853    40.447202  0.045548651   0.05509171            2 
   75000    1.2466645   -5.4274315    41.106297  0.045673663  0.055036611            2 
   76000    1.2622358   -5.4347658    41.814611  0.045849353   0.05498003            2 
   77000    1.2444664   -5.4437067    42.344554  0.045827439  0.054919372            3 
   78000    1.2122846   -5.4421421    43.406948  0.046374944  0.054890836            2 
   79000    1.2282108   -5.4691173    43.800039  0.046202572  0.054870858            2 
   80000    1.2452048   -5.4704126    44.148495  0.045988016  0.054825721            1 
   81000    1.2499101   -5.4350725    44.980755  0.046276497  0.054768567            2 
   82000    1.2425173   -5.4468956    45.790522  0.046535083  0.054736804            1 
   83000    1.2248484   -5.4434864    46.338329  0.046524426  0.054707362            3 
   84000    1.2612451   -5.4212647    46.987933  0.046615012  0.054683517            3 
   85000    1.2598673   -5.4476824    47.054125  0.046131494  0.054633838            3 
   86000    1.2459166   -5.4453949    47.808603  0.046326166  0.054567614            2 
   87000    1.2269114   -5.4309546     48.57811  0.046530756  0.054505892            3 
   88000    1.2426792   -5.3909827    49.202845  0.046593603  0.054438325            2 
   89000    1.2214243   -5.4106411    49.753113  0.046585311  0.054383905            2 
   90000    1.2459378   -5.4223757    50.719671  0.046962658    0.0543388            1 
   91000    1.2566896   -5.4229164    51.000142  0.046703427  0.054301791            4 
   92000    1.2387774   -5.4631333    51.721896  0.046849543  0.054261875            2 
   93000    1.2582274   -5.4544717    52.452765  0.047000685  0.054229633            6 
   94000     1.201752   -5.4965986    52.969039  0.046958368  0.054192548            3 
   95000     1.250671   -5.4871866    53.774299  0.047170437   0.05415618            1 
   96000    1.2413297   -5.4303414    54.581543  0.047379811  0.054134549            3 
   97000    1.2274452   -5.4658461    55.002098  0.047252661  0.054116622            3 
   98000    1.2224103   -5.4397559    55.604361   0.04728262    0.0540919            3 
   99000    1.2231123   -5.4292688    56.181517  0.047290839  0.054058444            2 
  100000    1.2384099   -5.4382133    57.074901  0.047562418  0.054020433            2 
  101000    1.2129796   -5.4743366    57.279815  0.047260573   0.05398142            3 
  102000    1.2087232   -5.4298568    57.847193  0.047260779   0.05394343            2 
  103000    1.2598337    -5.433809    58.644713  0.047447179   0.05390924            2 
  104000     1.223922   -5.4801251    59.227517  0.047457946  0.053882084            4 
  105000    1.2402016   -5.4533152    60.076082   0.04767943  0.053861555            4 
  106000    1.2221148   -5.4431677    60.669348  0.047696028  0.053842896            3 
  107000    1.2710081   -5.4333705    61.644061  0.048009393  0.053820656            4 
  108000    1.2498359   -5.4408244    61.808257  0.047691556  0.053798124            1 
  109000    1.2675074   -5.4441726    62.187546  0.047543995  0.053772004            1 
  110000    1.2474158   -5.4351015    62.984313  0.047715388  0.053736587            2 
  111000    1.2175975   -5.4764084    63.372561  0.047576998  0.053706932            1 
  112000     1.250621   -5.4627976    64.287268  0.047832788  0.053673563            3 
  113000    1.2280254   -5.4986904    64.430738  0.047515293  0.053634667            6 
  114000    1.2326346   -5.4195376    65.379968  0.047792374  0.053599645            2 
  115000      1.25015   -5.4294592    65.846532  0.047714878   0.05356078            2 
  116000    1.2301163   -5.4661594     66.46497  0.047747823  0.053520976            2 
  117000    1.2283245   -5.4602963    66.629979   0.04745725   0.05347594            2 
  118000    1.2398997   -5.4777262    67.284803  0.047517516  0.053425872            1 
  119000    1.2330773   -5.4702032    67.716873  0.047420779  0.053376581            2 
  120000    1.2314619   -5.4616405    68.719996  0.047722219  0.053336265            2 
  121000     1.224984   -5.4860088    69.274498  0.047709709  0.053301363            2 
  122000    1.2412522   -5.4484478    69.868936  0.047724683  0.053266768            2 
  123000     1.228367    -5.481907    70.579316  0.047817965  0.053229872            7 
  124000    1.2503238    -5.444174     71.09469  0.047778689  0.053195642            7 
  125000    1.2529699    -5.446655    71.788076  0.047858717  0.053166231            2 
  126000    1.2289947   -5.4316173    72.341489    0.0478449  0.053131676            2 
  127000    1.2291721   -5.4794738     72.99901  0.047899612  0.053096503            4 
  128000    1.2175365   -5.4516123    73.517913  0.047863224  0.053053853            4 
  129000    1.2237787   -5.4756383    74.165865  0.047910765  0.053018266            3 
  130000    1.2048433   -5.4511816    75.093991  0.048137173  0.052993276            3 
  131000    1.2137225   -5.5099978    75.321631  0.047914523   0.05296806            3 
  132000    1.2245983   -5.4860602     75.53511  0.047686307  0.052930932            2 
  133000    1.2397532   -5.4551482    76.362763  0.047846342  0.052893154            1 
  134000    1.2378964   -5.4455569    77.173343  0.047993372  0.052856661            2 
  135000    1.2144935   -5.4494128    77.625674  0.047917082   0.05282388            3 
  136000    1.1969167   -5.4892982    77.921055  0.047745744  0.052784279            2 
  137000     1.231996   -5.4507541    78.909074   0.04799822    0.0527432            2 
  138000    1.2392907   -5.4704152    79.238307  0.047849219  0.052709471            4 
  139000    1.2475173   -5.4552108    80.128002  0.048038371  0.052676455            1 
  140000    1.2420453    -5.466999    80.540008  0.047940481  0.052645505            1 
  141000     1.206029   -5.4475745    81.557672  0.048201934  0.052613527            4 
  142000    1.2370031   -5.4339535    82.135904  0.048201821  0.052589996            7 
  143000    1.2343081   -5.4646142    82.557883  0.048110654  0.052563168            2 
  144000    1.2266137   -5.4585821    83.474061  0.048306748  0.052532448            3 
  145000      1.23642   -5.4543815    83.745437  0.048129562  0.052506967            1 
  146000    1.2535862   -5.4475616    84.472944  0.048215151  0.052482688            2 
  147000    1.2053113   -5.4728928    85.114091  0.048250618  0.052458519            2 
  148000    1.2158857   -5.4366607    85.690899   0.04824938  0.052435034            2 
  149000     1.244614   -5.4743964    86.087587   0.04814742   0.05240839            3 
  150000    1.2520558   -5.4826112    86.928267  0.048293482  0.052384883            3 
  151000    1.2186395   -5.4968271    87.169057  0.048106543  0.052359497            1 
  152000    1.2020534   -5.4237449    87.916839  0.048200021  0.052333558            3 
  153000    1.2262384   -5.4722425    88.767346  0.048348227  0.052308778            3 
  154000    1.2659027   -5.4889984    88.856312   0.04808242   0.05228214            4 
  155000    1.2168356   -5.4457884    90.060981  0.048419882  0.052259875            3 
  156000    1.2209912   -5.4663326    90.392542  0.048286614  0.052238188            7 
  157000     1.207177   -5.4181094    91.436727  0.048533295  0.052216034            1 
  158000    1.2515901   -5.4881297    91.522102  0.048271151  0.052200336            5 
  159000    1.2187123   -5.4468843    92.787275  0.048630647  0.052188455            6 
  160000    1.2080188   -5.4931227    93.365357   0.04862779  0.052179923            1 
  161000    1.2180499   -5.4618439    93.699298  0.048498601  0.052172052            3 
  162000    1.1971892    -5.494748    94.118358  0.048414793  0.052159423            2 
  163000    1.2302234   -5.5081363    94.625126  0.048376854  0.052142796            3 
  164000    1.1854124   -5.4677807     95.68935  0.048622637  0.052126397            3 
  165000    1.2196712   -5.4826863      96.3327  0.048652879  0.052110985            3 
  166000    1.2346726   -5.4847009    96.983037  0.048686263  0.052095735            3 
  167000     1.224838    -5.487994    96.874128  0.048340383  0.052079207            3 
  168000    1.2017295   -5.5134416    97.256689  0.048242405  0.052057587            4 
  169000      1.23814   -5.4797139     98.14561  0.048395271  0.052031426            2 
  170000    1.2418612   -5.4517548    98.686113  0.048375545  0.051999881            2 
  171000     1.217724   -5.4231841    99.234561  0.048359922  0.051974927            2 
  172000    1.2399925   -5.4774828    99.278773   0.04810018  0.051946193            1 
  173000    1.2257042   -5.4796757    99.777439   0.04806235  0.051912265            2 
  174000    1.2102083   -5.4325583     100.8642   0.04830661  0.051881804            4 
  175000    1.2239646   -5.4842061    100.86833  0.048032538  0.051851993            4 
  176000    1.1988859   -5.5077261    101.86416  0.048231136  0.051823659            1 
  177000    1.2436653   -5.4761384    102.22085  0.048126575  0.051793755            2 
  178000    1.2337283   -5.4383949    102.81035  0.048132186  0.051761942            4 
  179000    1.2374222   -5.4995549    103.26113  0.048073154   0.05173262            6 
  180000    1.2129464   -5.5240362    103.29674  0.047822563  0.051702862            5 
  181000    1.2552712   -5.4726306    104.68967  0.048199662  0.051670355            3 
  182000    1.2329889   -5.5040368    105.08423  0.048115492  0.051643314            2 
  183000    1.2268259   -5.4588486    106.21686  0.048368333  0.051618521            3 
  184000    1.2133081   -5.4966127    106.42708  0.048200669  0.051595283            2 
  185000    1.2139172    -5.447502    107.36817  0.048364042  0.051574111            3 
  186000    1.2084341   -5.4857089    107.70814  0.048256335  0.051550195            2 
  187000    1.2270046   -5.4957123    107.86773  0.048069398  0.051529584            6 
  188000    1.2146614   -5.5036477    108.52512  0.048105107  0.051505738            2 
  189000    1.1773318   -5.5077837    109.19941  0.048147887   0.05147827            1 
  190000    1.2325468   -5.4813369    109.58657  0.048064285  0.051451861            2 
  191000    1.2124363    -5.464643    110.81984  0.048350716  0.051425989            2 
  192000    1.2269713   -5.4738398    111.21834   0.04827185  0.051401883            1 
  193000    1.1925513   -5.5096328     111.4067  0.048103066  0.051377025            5 
  194000    1.2347008    -5.474545    112.38617  0.048275848  0.051353243            1 
  195000    1.2202559    -5.500285    113.31859  0.048426746  0.051331917            1 
  196000    1.2387823   -5.4842725     113.7741  0.048373341  0.051315934            3 
  197000    1.2073419   -5.4781768    114.54499  0.048453887  0.051301257            1 
  198000    1.2224276   -5.4645981    115.41949  0.048577225  0.051286945            1 
  199000    1.2263134   -5.5051493    115.45041  0.048346067   0.05127017            2 
  200000    1.2231661   -5.4739899    115.63988  0.048183282  0.051255212            2 
  201000    1.2465432   -5.5316072    116.32338  0.048226938  0.051236857            2 
  202000    1.1911423   -5.5135115    116.65841  0.048126405  0.051216617            2 
  203000    1.2293474   -5.4889961    117.51575  0.048241275  0.051196027            2 
  204000     1.254704   -5.5080171    117.80865  0.048124447  0.051176187            2 
  205000    1.2463376   -5.4550049    119.37482   0.04852635  0.051156875            2 
  206000    1.2260031    -5.491563     119.3885   0.04829632  0.051141154            2 
  207000    1.2216478   -5.4894178    120.19044  0.048385844  0.051124926            2 
  208000    1.2048381   -5.4786701    120.41785  0.048244331  0.051106287            3 
  209000    1.1903939   -5.4650946    121.09439  0.048283249  0.051087051            3 
  210000    1.2075445   -5.4667514    121.84147  0.048349788  0.051071621            3 
  211000    1.2146268   -5.4227505    123.16843  0.048644721  0.051057376            1 
  212000    1.2387569   -5.4477477     122.8952  0.048307863  0.051041939            1 
  213000    1.2242299   -5.4975145    123.80908  0.048438607  0.051025109            3 
  214000    1.2315435   -5.5136401    123.84913  0.048227853  0.051006527            1 
  215000    1.1993126   -5.4492332    124.56588  0.048281348  0.050983453            2 
  216000    1.2062125   -5.5446592    124.91466  0.048192383  0.050962594            3 
  217000    1.2305538   -5.5058223     125.1284  0.048052379  0.050940835            2 
  218000    1.1873899    -5.500745    125.87603  0.048117749  0.050918394            2 
  219000    1.2187658   -5.4976512    125.66394  0.047817327  0.050893905            2 
  220000    1.2394864   -5.4981465    126.66267  0.047978286  0.050866429            2 
  221000    1.2075398   -5.5148842    127.10782  0.047929044   0.05084065            2 
  222000    1.1758264   -5.5080224    127.94924  0.048028994  0.050815798            3 
  223000     1.191282   -5.5202852    128.33424  0.047957488  0.050790313            4 
  224000    1.2043277   -5.5264954    128.81389  0.047921833  0.050762461            1 
  225000    1.2020361   -5.4600692    129.52239  0.047971256  0.050734616            2 
  226000    1.2087539   -5.4835475    130.09535  0.047970261  0.050708587            4 
  227000    1.2213699   -5.4801339    131.07132  0.048117225  0.050682273            3 
  228000    1.2336278   -5.4753206    131.45651   0.04804697  0.050660679            2 
  229000    1.1994745   -5.5110347    132.15912  0.048092839  0.050637801            3 
  230000    1.2310137   -5.4669938    132.72458  0.048088616   0.05061384            1 
  231000    1.2054124    -5.521435    133.34366  0.048103775  0.050591803            3 
  232000    1.2290979   -5.4744374    134.41837  0.048282459  0.050572883            2 
  233000    1.1912845   -5.4695801       134.21  0.048000716   0.05055327            2 
  234000    1.2476421   -5.4464814    134.93345  0.048053223  0.050533149            2 
  235000    1.1948202   -5.5178492    135.35683  0.047998875  0.050510938            2 
  236000    1.2114153   -5.5159162    135.65918  0.047902252    0.0504922            2 
  237000    1.2047295   -5.5285359    136.40152  0.047961154  0.050470756            1 
  238000    1.2459816    -5.471939    136.82277  0.047907133  0.050450311            2 
  239000    1.2137346   -5.4769735    137.37586  0.047899533  0.050428483            3 
  240000     1.221171    -5.485044    137.93604  0.047894459  0.050408915            1 
  241000    1.2387985   -5.4993173    138.31175  0.047825639  0.050388439            3 
  242000    1.2361404   -5.5101411     139.7423  0.048120626  0.050370889            2 
  243000    1.2248384   -5.5099402     140.2941  0.048111831  0.050351395            3 
  244000    1.2100796   -5.5207497     140.3157   0.04792203  0.050332518            2 
  245000    1.2042397   -5.5650991    140.52781  0.047798575  0.050311027            3 
  246000     1.201086   -5.4454391    142.14009  0.048150436   0.05028979            4 
  247000    1.2089794   -5.5124063    141.82483  0.047849134   0.05026943            3 
  248000    1.2333254   -5.4865524    142.47317  0.047874049  0.050248438            3 
  249000    1.2209563    -5.529976    143.48736  0.048021204  0.050226233            2 
  250000    1.1903523   -5.5148815    144.79952  0.048266507   0.05020605            2 
  251000    1.2002032   -5.4360402     144.9812  0.048134529  0.050186535            4 
  252000    1.1995854   -5.5309908    145.22684  0.048024749  0.050168891            4 
  253000     1.205798   -5.4757789    145.93844  0.048069314   0.05015101            2 
  254000    1.2142503   -5.5012011    146.80516  0.048164421  0.050137439            2 
  255000    1.2174747   -5.4742895    147.48057  0.048196264  0.050125398            7 
  256000      1.21111   -5.5119036    147.72773  0.048088455  0.050114541            2 
  257000    1.1965784   -5.4771331     148.3506  0.048103309    0.0501014            4 
  258000    1.2245718   -5.5162355    148.71283   0.04803386  0.050087698            2 
  259000    1.2076537    -5.503612    149.57353   0.04812533  0.050074055            2 
  260000    1.2467783   -5.5039753    149.86587  0.048033933  0.050060023            2 
  261000    1.1743714   -5.5033173    150.58752  0.048080308  0.050047783            2 
  262000     1.203669   -5.5051451    151.12755  0.048068559   0.05003426            1 
  263000      1.20489   -5.5247809    151.39073   0.04796918      0.05002            3 
  264000    1.1986338   -5.5371271    151.82714  0.047925232  0.050002709            2 
  265000    1.2133764   -5.4990808    152.60778  0.047989869  0.049988035            2 
  266000    1.2147033   -5.5055738    152.56409  0.047795766  0.049972614            1 
  267000    1.2130381   -5.4911534    153.93759  0.048045438  0.049956564            2 
  268000    1.2038185   -5.5155563    153.55657  0.047747691   0.04994087            1 
  269000    1.1673795   -5.4692994    155.17287    0.0480709  0.049924956            2 
  270000    1.1984708   -5.4760526    155.91126  0.048120758  0.049910941            2 
  271000     1.189778   -5.5076345    156.56477  0.048144147  0.049897416            3 
  272000    1.1878689   -5.4988662    157.20508   0.04816332  0.049884383            3 
  273000    1.1927141   -5.4725685    157.78289  0.048163277  0.049872809            2 
  274000    1.1897251   -5.5009906     158.8675  0.048317365   0.04986225            4 
  275000    1.2317944   -5.5053944    158.64417  0.048073992  0.049850801            2 
  276000    1.2529201    -5.487924    160.40487  0.048431423  0.049842263            2 
  277000    1.1943209   -5.5447929    159.35169  0.047939737  0.049832902            3 
  278000    1.1969572   -5.5582654    160.40646  0.048083472  0.049823508            1 
  279000    1.2081566   -5.5374479    161.33767  0.048189269  0.049815124            1 
  280000    1.1856365   -5.5150975    162.06806  0.048234541  0.049807294            1 
  281000    1.2269088   -5.5281828    162.71441  0.048254569  0.049800174            2 
  282000    1.1951517   -5.4633604    164.18808  0.048518938   0.04979681            2 
  283000    1.2287958   -5.4932011    164.34878  0.048394812  0.049791142            2 
  284000    1.2073237   -5.5262838    164.10794  0.048153738  0.049784383            2 
  285000    1.1897294   -5.5288742    165.61657  0.048425897  0.049779501            2 
  286000    1.2056166   -5.5144437    165.85584  0.048326293  0.049774205            3 
  287000    1.2272418   -5.4869314    167.54649  0.048648808  0.049770352            3 
  288000     1.221032   -5.4814773    168.22469  0.048676124  0.049768778            2 
  289000    1.1858569   -5.5173196    168.50416  0.048588281  0.049767686            2 
  290000    1.1913513   -5.4978396    169.36668  0.048668587  0.049768888            1 
  291000     1.214654   -5.4764481    169.87915  0.048648097  0.049768735            1 
  292000    1.1957446    -5.514774    170.25442   0.04858859  0.049767058            3 
  293000    1.2093928   -5.4644236    171.42592   0.04875595  0.049764711            2 
  294000    1.2084434   -5.5237456    171.22829  0.048534094  0.049762203            1 
  295000    1.2265669   -5.4876368    172.18123  0.048638765  0.049760182            6 
  296000     1.207947    -5.505737    172.54898  0.048577979  0.049757751            3 
  297000    1.2528267   -5.5090297    173.04809  0.048554458  0.049756885            1 
  298000    1.2206074   -5.5029668    174.34571  0.048754393  0.049756302            3 
  299000    1.1926511   -5.5344407    174.44409  0.048618753  0.049755535            3 
  300000    1.1955611   -5.5582479    174.08165  0.048356015  0.049754887            3 
  301000     1.193897   -5.4989801    175.87099  0.048690749  0.049752743            4 
  302000    1.2392109   -5.5230167    175.48504  0.048423025  0.049750882            6 
  303000    1.2024638   -5.5242917    176.43282  0.048523878  0.049749561            2 
  304000    1.1858429   -5.4751824    178.21001  0.048851428  0.049748698            2 
  305000    1.1871902    -5.488067    178.56293  0.048787685  0.049748728            4 
  306000    1.2122918   -5.5732557    178.16944   0.04852109  0.049748373            5 
  307000    1.2025509   -5.5563688    178.58544  0.048475962  0.049745022            3 
  308000    1.1913147   -5.4956933    179.15109  0.048471616  0.049742369            2 
  309000    1.1802115    -5.538513    179.34889  0.048368093  0.049740348            3 
  310000    1.1963273   -5.5397396    180.59486  0.048547005  0.049738222            2 
  311000    1.2037585   -5.5333008    180.55012  0.048378917  0.049735117            4 
  312000    1.1861171   -5.5614409    181.35409  0.048438592  0.049733862            5 
  313000    1.1943701   -5.5002542    182.68332  0.048637731  0.049731812            3 
  314000    1.2028713   -5.4999595    183.14092  0.048604279  0.049732201            2 
  315000    1.1914714   -5.5012771    183.08384  0.048434879  0.049729878            3 
  316000    1.2155605   -5.4987336    183.97261  0.048515984  0.049725936            2 
  317000    1.2028763   -5.5378996    183.69743  0.048290597  0.049719774            4 
  318000    1.1818397   -5.5239413    185.65627  0.048652063   0.04971354            1 
  319000    1.2126214   -5.5199946    184.86184  0.048292018  0.049707808            2 
  320000    1.1987135    -5.512319    186.42405  0.048547929  0.049702628            2 
  321000    1.1914239   -5.5275773    186.74722  0.048480586  0.049698523            4 
  322000    1.2388205   -5.5450236    187.21388  0.048450797  0.049693177            2 
  323000    1.2038906   -5.5348961    187.14355  0.048282651  0.049688474            3 
  324000    1.2090938      -5.5518    187.26908  0.048165916  0.049682835            4 
  325000    1.1849046   -5.5334321    188.94836  0.048448298  0.049677762            2 
  326000    1.2196028   -5.5112063    189.25653  0.048378458  0.049674297            3 
  327000    1.1934917   -5.5549005    189.29306  0.048239822  0.049668369            2 
  328000    1.1922879    -5.581462    189.69533  0.048194952  0.049660737            6 
  329000    1.2460321   -5.5246496    191.33471  0.048463705  0.049653469            2 
  330000    1.2012829   -5.4969125    192.08292  0.048505789  0.049646824            5 
  331000    1.2073827   -5.5036185    192.49767  0.048463664  0.049640685            2 
  332000    1.2156852    -5.541849    191.82882  0.048149805  0.049633807            3 
  333000    1.1866216   -5.5303117    193.37971   0.04839332   0.04962554            2 
  334000    1.1934291   -5.5707884    193.14212  0.048189153   0.04961866            2 
  335000    1.2205194   -5.5627709    193.71722  0.048188362  0.049611357            3 
  336000    1.1898577   -5.5214285    194.94113  0.048348494  0.049605731            2 
  337000    1.1842913   -5.5326716    196.11911  0.048496318  0.049601235            7 
  338000    1.2000508   -5.5320887    196.23024  0.048380237  0.049597234            2 
  339000    1.1874217    -5.550208    197.35001  0.048512785  0.049595861            4 
  340000    1.2112739   -5.5531915    198.06173  0.048544541  0.049592599            3 
  341000    1.2274415   -5.5615457    197.98279  0.048382891  0.049588667            2 
  342000    1.1864087   -5.5538471    198.02143  0.048250835  0.049583982            3 
  343000    1.2096332   -5.4835849    199.92985  0.048573822  0.049580436            3 
  344000    1.1934471   -5.5557084    200.18575  0.048494609  0.049578567            3 
  345000    1.1795315   -5.5024972    200.75867  0.048492433  0.049575049            8 
  346000    1.2063624   -5.5522769     201.1323  0.048442269  0.049568779            7 
  347000    1.1538712   -5.5588116    201.28648  0.048339692  0.049562944            3 
  348000    1.1957334   -5.5049551    201.69599  0.048298848  0.049557859            1 
  349000    1.2027853   -5.5501395    202.58461  0.048372638  0.049551562            3 
  350000    1.1865852   -5.5282677    202.63697  0.048246897  0.049545911            5 
  351000    1.1842411   -5.4926915    203.83725  0.048394409  0.049541038            2 
  352000    1.1793381   -5.5841816    203.43364  0.048161372  0.049534896            2 
  353000    1.2230683   -5.4878155    205.15152  0.048430482   0.04952917            4 
  354000    1.1961828   -5.5277329    205.27052  0.048321685  0.049524145            3 
  355000    1.2222692   -5.5091537    205.73529   0.04829467  0.049517689            1 
  356000    1.1876754   -5.5415368    206.31048  0.048293652  0.049512712            2 
  357000    1.2070981   -5.4956822    207.16902  0.048358782  0.049508304            4 
  358000    1.2137031   -5.5149213    207.75881  0.048360989  0.049502758            3 
  359000    1.1993692   -5.5247123    207.92503  0.048264863  0.049497417            6 
  360000    1.2229351   -5.5344584     208.8256  0.048339259  0.049491572            5 
  361000    1.2084909   -5.5376807    208.67268  0.048170055  0.049484384            3 
  362000    1.1943809   -5.5275879    209.96309  0.048334046  0.049479312            2 
  363000    1.1770113   -5.5385152     209.8903  0.048184183  0.049472468            2 
  364000    1.2044137   -5.5230647    211.46528  0.048412381  0.049466342            1 
  365000    1.2101046   -5.5342965    211.43492  0.048272813  0.049462064            2 
  366000    1.2116495   -5.5695242    213.01122  0.048499822  0.049457963            3 
  367000    1.1825634   -5.5597922     212.8708  0.048335786   0.04945313            2 
  368000    1.2004036   -5.5545215    214.42436  0.048556241   0.04944937            2 
  369000    1.1771002   -5.5836479    214.40748  0.048420841   0.04944637            1 
  370000    1.2001097   -5.5782949    214.94864  0.048411855  0.049444392            1 
  371000    1.1830444   -5.5472949    215.07124  0.048308905  0.049441855            1 
  372000    1.1682607   -5.5303792    216.89841  0.048588353  0.049439287            2 
  373000    1.1867229   -5.5239525    216.42119  0.048351471  0.049435783            1 
  374000    1.2049703   -5.5207741    217.33767  0.048426396   0.04943236            4 
  375000    1.1730612   -5.5190437    218.32973  0.048517717  0.049428406            2 
  376000    1.1847245   -5.5390099    218.93514  0.048522859   0.04942625            2 
  377000    1.1846318   -5.5525491    218.12521  0.048215121    0.0494223            2 
  378000    1.1767968   -5.5515679    219.02287  0.048285465  0.049418644            4 
  379000    1.1899086   -5.5199142     220.4102  0.048463105   0.04941568            4 
  380000    1.1776869   -5.5439324    221.79958  0.048640259  0.049413976            3 
  381000    1.1983329   -5.5560135    221.54112  0.048456062  0.049411021            3 
  382000    1.2010863   -5.5225554    222.70343  0.048582773  0.049409307            2 
  383000    1.2105825   -5.5075013    223.08626   0.04853922   0.04940687            1 
  384000    1.1902062   -5.5328223    223.60379  0.048525129  0.049403196            3 
  385000    1.1927807   -5.5774985    222.16154  0.048086914  0.049398578            5 
  386000    1.2002298   -5.5471603    223.51441  0.048254407  0.049391886            1 
  387000    1.2176118   -5.5731759    223.40323  0.048105778  0.049384132            2 
  388000    1.1910929   -5.5619729    224.24141  0.048161816  0.049377147            1 
  389000    1.1979369   -5.5820857    224.87852   0.04817449   0.04937091            4 
  390000    1.1941283   -5.5565834    224.68574  0.048009774  0.049364617            2 
  391000      1.21736   -5.5769855    225.34423   0.04802733  0.049358494            3 
  392000    1.1763616   -5.5483389    226.72863  0.048199113  0.049352855            3 
  393000    1.1549666    -5.562364    226.92071  0.048117198  0.049347602            2 
  394000    1.1832746   -5.5560918    228.37961   0.04830364  0.049342567            2 
  395000    1.1842082   -5.5728464    227.71577  0.048041302  0.049338074            2 
  396000    1.1989793   -5.5104838    229.94792  0.048389713  0.049332735            3 
  397000    1.1855577    -5.545286    229.02402  0.048073891   0.04932795            1 
  398000    1.1874955   -5.5629574    230.47322  0.048256536  0.049323348            5 
  399000    1.1781827   -5.5797746    231.14853  0.048276636  0.049318804            2 
  400000     1.175153    -5.557511    232.29101   0.04839396   0.04931478            4 
  401000    1.2227072   -5.5480928    232.55445  0.048328023   0.04931079            4 
  402000    1.1733186   -5.5535507     234.2309  0.048555328  0.049306833            3 
  403000    1.2110283   -5.5401197     234.6855  0.048528847  0.049304105            4 
  404000    1.1723899   -5.5574244    234.53012  0.048376675  0.049300975            3 
  405000     1.186756   -5.5896407    233.89577  0.048126702  0.049297313            4 
  406000    1.1694292   -5.5326195    235.22886  0.048281786  0.049293822            2 
  407000    1.1759597   -5.5230927    236.66282  0.048456761  0.049290985            4 
  408000    1.2095779   -5.5767494    236.12759  0.048228675  0.049286867            3 
  409000    1.1853854   -5.5407327    236.78825  0.048245365  0.049281098            4 
  410000    1.1878639   -5.5426611    237.30202  0.048232117  0.049275152            2 
  411000    1.2105807    -5.559763    237.89469  0.048234932  0.049269848            2 
  412000    1.1751475   -5.5424145    238.20214  0.048180045  0.049264451            4 
  413000    1.2035558   -5.5356339    239.35633  0.048296274  0.049259536            2 
  414000     1.204508   -5.5980458    238.49545   0.04800633  0.049254252            3 
  415000    1.2166258   -5.5641984    240.04161  0.048201127  0.049247852            2 
  416000    1.1598268   -5.5516134    240.55865  0.048188833  0.049241971            3 
  417000    1.2047402   -5.5792617    241.41923   0.04824525  0.049236281            9 
  418000    1.1807736   -5.5524299     242.6768  0.048380542  0.049229554            5 
  419000    1.1890282   -5.5596822    243.32524  0.048394042  0.049225064            2 
  420000    1.1748964   -5.5710427       242.33   0.04808135  0.049219238            3 
  421000    1.1822749   -5.5473578    242.72994  0.048046306  0.049212297            5 
  422000     1.175748   -5.5521199    243.50868  0.048086232  0.049206205            2 
  423000    1.1922587   -5.5849604    245.54007  0.048372747  0.049199317            6 
  424000     1.186188   -5.5338529    244.46314  0.048047001  0.049191639            3 
  425000    1.1698581   -5.5569806    244.94919  0.048029253  0.049183877            1 
  426000    1.1846487   -5.5379573    247.14381  0.048345817     0.049177            2 
  427000    1.1958126    -5.578366    246.43287  0.048093847  0.049170794            4 
  428000    1.1942862    -5.581291    247.05917  0.048103421   0.04916479            4 
  429000    1.2046228   -5.5481327    247.78001  0.048131315    0.0491576            1 
  430000    1.1874822   -5.5193944    247.47688  0.047960636  0.049151479            4 
  431000    1.1806093   -5.5546108    248.45511  0.048038497  0.049143194            2 
  432000    1.1939051   -5.5683974    247.99797  0.047839114  0.049134546            3 
  433000    1.1777062   -5.5705113    249.24875  0.047969352  0.049126801            2 
  434000    1.1640617   -5.5929412    249.27017  0.047862936  0.049118107            2 
  435000     1.175055    -5.586565     249.3419  0.047766648  0.049108785            3 
  436000    1.1836969   -5.5707507    251.27996  0.048027515  0.049100747            4 
  437000    1.1813082   -5.5352658    252.26843  0.048106109   0.04909319            7 
  438000    1.1947178   -5.5401579    252.88432  0.048113454  0.049085619            2 
  439000     1.184815   -5.5502965    253.20905  0.048065499  0.049078088            2 
  440000    1.1597339   -5.5376234    252.83361  0.047885153  0.049070489            2 
  441000    1.1659201   -5.6105167    253.47481  0.047897734  0.049063342            1 
  442000      1.17498   -5.5416885    254.68266  0.048017093  0.049056182            1 
  443000    1.1619471   -5.5730524    254.88731  0.047947198  0.049049351            3 
  444000    1.2182864   -5.5455425    255.92327  0.048033647  0.049042176            1 
  445000      1.17773   -5.5402408    256.29181  0.047994721    0.0490353            2 
  446000    1.1748569   -5.5831849    255.99504  0.047831659  0.049027838            3 
  447000    1.1703212   -5.5804894    256.75731  0.047866761  0.049018854            2 
  448000    1.1615073   -5.5465927    256.73901  0.047756513  0.049010765            2 
  449000    1.1827513   -5.5717163    257.68014  0.047824822  0.049002438            3 
  450000    1.1646457   -5.5902155    256.52033  0.047503764  0.048993482            2 
  451000    1.1728772   -5.5892164     257.3082  0.047544013  0.048983372            3 
  452000    1.1710009   -5.4913996     260.1038   0.04795424  0.048973532            2 
  453000    1.1528074   -5.5754851    259.24001  0.047689479  0.048963577            6 
  454000     1.181786   -5.5598458    260.24221  0.047768394  0.048952348            2 
  455000    1.2008763   -5.5711423    260.54391  0.047718665  0.048942089            1 
  456000    1.1738106   -5.5500974      261.526  0.047793494   0.04893195            2 
  457000    1.1755533   -5.5729252    260.48773  0.047499586  0.048920725            3 
  458000    1.1902885   -5.5738738    262.02414  0.047675426  0.048908984            1 
  459000    1.1721195   -5.5807342    262.93084  0.047736173  0.048897901            2 
  460000     1.181832    -5.605711     261.7015  0.047409692  0.048886004            2 
  461000     1.177414   -5.5924873    263.48089  0.047628505  0.048873645            4 
  462000    1.1945119   -5.5686342     263.6026  0.047547367  0.048861813            2 
  463000    1.1649406   -5.5462285    264.66656   0.04763617  0.048849789            5 
  464000    1.1649988   -5.6135137     264.1567  0.047441936  0.048838219            2 
  465000    1.2004095   -5.5951258    265.00352  0.047491671  0.048826733            4 
  466000    1.1588698   -5.5943715    265.12592  0.047411645  0.048815228            3 
  467000    1.1792729   -5.5733629     266.7931   0.04760762  0.048803956            3 
  468000    1.1584575     -5.55784    265.35845  0.047250435  0.048793029            1 
  469000     1.181846    -5.582423    267.16038  0.047469862  0.048781109            2 
  470000    1.1787911   -5.5724884    267.83224  0.047487986  0.048769594            3 
  471000    1.1706203   -5.6064264    268.84185   0.04756579  0.048757858            1 
  472000    1.1717522   -5.5528106    268.82545   0.04746212  0.048746774            1 
  473000    1.1894086   -5.5531886    269.30689  0.047446598  0.048735183            3 
  474000    1.1708536   -5.5836694    269.94695  0.047459028   0.04872376            3 
  475000     1.164824   -5.5949214    270.16033  0.047396549  0.048711823            2 
  476000    1.1704051    -5.562352    271.42907  0.047519095  0.048702016            3 
  477000    1.1988221   -5.5986504    271.96197  0.047512574  0.048692645            3 
  478000     1.192361   -5.5326507    273.01536   0.04759682  0.048683268            4 
  479000    1.1501334   -5.5888011    273.85555  0.047643623   0.04867381            3 
  480000    1.1604292   -5.5868664    273.57344  0.047495388  0.048663793            1 
  481000     1.200129   -5.5275544    274.95158  0.047635408  0.048654153            7 
  482000     1.170739   -5.5629359    275.39225  0.047612767  0.048643486            2 
  483000     1.169035   -5.5874402    274.23181  0.047313976  0.048632498            5 
  484000    1.1717658   -5.5546636    276.05938  0.047530886  0.048622408            3 
  485000    1.1869563   -5.5798892    276.04915  0.047431125   0.04861112            5 
  486000    1.1561606   -5.5763415     276.2254  0.047363751  0.048600519            3 
  487000    1.1681098   -5.5981768    276.35032  0.047287871  0.048588903            2 
  488000    1.1500029   -5.5288089    278.46706  0.047552435  0.048577438            1 
  489000    1.1853199   -5.5915736    277.37002  0.047268238  0.048566463            1 
  490000    1.1754289   -5.5282689    278.54755  0.047372033  0.048554746            3 
  491000    1.1595034   -5.5711458    278.71055  0.047303216  0.048543398            2 
  492000    1.1818267   -5.5949132    279.74315   0.04738197  0.048532803            3 
  493000    1.1708767   -5.5975206    280.65617  0.047440191   0.04852297            6 
  494000    1.1737885   -5.6001584    280.63878  0.047341225  0.048512785            2 
  495000     1.199462   -5.5745205    282.36239  0.047535756  0.048502756            3 
  496000    1.1908659   -5.5555908    282.19531  0.047411846  0.048493079            1 
  497000    1.1795362   -5.6118599    281.22036  0.047152979  0.048482959            4 
  498000    1.1824601   -5.5947379    283.37431  0.047418726  0.048471709            4 
  499000     1.164489   -5.5997127    283.49999  0.047344687  0.048461026            2 
  500000    1.1974597   -5.5901448    284.21645  0.047369408  0.048451364            4 
  501000    1.1846669   -5.5650092    284.88637   0.04738629   0.04844189            2 
  502000    1.1679787   -5.5663407    285.73377  0.047432564  0.048431469            2 
  503000    1.1841638   -5.6163617    285.86253  0.047359597  0.048421747            3 
  504000    1.1465389   -5.6283966    285.06393  0.047133585  0.048411191            3 
  505000     1.155161   -5.6184646    285.28939  0.047077456   0.04840039            4 
  506000     1.188742   -5.5812431    287.96357   0.04742483  0.048390476            2 
  507000    1.1724081   -5.5852757    287.80207  0.047304745  0.048380521            4 
  508000    1.1904475   -5.5987483    287.50581  0.047163027  0.048370057            2 
  509000    1.1779417   -5.5971698    289.21035  0.047349436  0.048359594            3 
  510000    1.1605916   -5.6046553    288.41993   0.04712744  0.048348686            5 
  511000     1.163792   -5.5684115    289.56667  0.047222223  0.048337885            2 
  512000    1.1694204   -5.5840158    290.00029  0.047200568  0.048328044            2 
  513000    1.1850097   -5.5947136    292.07826  0.047446111  0.048317973            6 
  514000    1.1610123   -5.5634147    291.62081  0.047279638  0.048308789            2 
  515000    1.1802662   -5.5990931    291.44554  0.047159472  0.048299447            4 
  516000    1.1940558   -5.5831465    293.53261  0.047405138  0.048291127            2 
  517000    1.1742792   -5.5524049    294.54659  0.047476885  0.048282599            2 
  518000    1.1792377   -5.6142852    292.72294   0.04709185  0.048273664            5 
  519000    1.1773339   -5.6518084    294.27102  0.047249683   0.04826337            3 
  520000    1.1493048   -5.6085362    295.25821  0.047317021  0.048253216            2 
  521000    1.2096995   -5.6000666     295.1485  0.047208654  0.048244394            2 
  522000    1.1629727   -5.6114927      294.977  0.047090837  0.048234791            3 
  523000    1.1494958   -5.5694573    296.70109  0.047275509  0.048225478            2 
  524000     1.195934   -5.6168201    295.64042  0.047016607  0.048215511            2 
  525000    1.1628384   -5.5863615    297.08306  0.047156041  0.048206143            2 
  526000    1.1472422   -5.6064301    297.04555  0.047060449  0.048195416            3 
  527000    1.1857029   -5.5693475    300.61894  0.047536203  0.048185196            2 
  528000    1.1661108   -5.6101379    297.93495  0.047022562  0.048174911            2 
  529000    1.1562123   -5.5723212    300.24783   0.04729802  0.048164689            3 
  530000    1.1746559   -5.6023446    299.60963  0.047108432  0.048153802            2 
  531000    1.1628998   -5.5765558    299.40132  0.046987025  0.048142215            3 
  532000    1.1858785   -5.6193484    298.81543  0.046806928   0.04813084            4 
  533000    1.1504824   -5.5806545    300.77758  0.047025889  0.048119264            3 
  534000    1.1843178   -5.6263262    298.74869  0.046621207  0.048108031            3 
  535000    1.1669435   -5.5880382    299.93306  0.046718545  0.048094707            5 
  536000     1.172091   -5.6617466    300.74245  0.046757221   0.04808142            4 
  537000    1.1754109   -5.6116736    301.59348  0.046802215  0.048068216            5 
  538000    1.1723576   -5.5790963    302.73442  0.046891949  0.048054959            4 
  539000    1.1356161   -5.5906047    302.49883  0.046768527  0.048042274            2 
  540000    1.1831857   -5.5625625    304.37667  0.046971708  0.048029435            3 
  541000    1.1469908    -5.581062     304.4112  0.046890203  0.048016376            3 
  542000     1.144335   -5.6226516    304.44592  0.046809028  0.048004304            2 
  543000    1.1413174    -5.623528    304.20219  0.046685419  0.047991579            3 
  544000    1.1575577   -5.6144076     304.3596  0.046623713  0.047978018            3 
  545000    1.1691939   -5.6082821    305.11301  0.046653366  0.047964795            4 
  546000    1.1448667   -5.5907249    306.59087  0.046793478  0.047951769            3 
  547000    1.1733292   -5.6072709     305.5175  0.046544408  0.047939487            3 
  548000    1.1714213   -5.5972265    307.74015  0.046797468  0.047926828            6 
  549000    1.1622835   -5.6353397    307.84658  0.046728382  0.047914091            3 
  550000    1.1579058   -5.5809708    308.45074  0.046734961  0.047901888            1 
  551000    1.1789138   -5.6176466    309.50647  0.046809812  0.047889616            1 
  552000    1.1539609   -5.6202072    308.60479  0.046588887  0.047877506            5 
  553000    1.1825561   -5.6179575    310.23095  0.046749691  0.047864615            1 
  554000    1.1651964   -5.6148956    309.60573  0.046571259  0.047851643            4 
  555000    1.1512214   -5.5746859    311.81907   0.04681968  0.047838288            4 
  556000    1.1636466   -5.6028192     310.2141   0.04649492  0.047825283            2 
  557000    1.1630926   -5.6134246    311.67575  0.046630124  0.047811627            1 
  558000    1.1565086   -5.6376666    311.18099  0.046472668  0.047798347            4 
  559000    1.1651028   -5.5777821    311.93574  0.046502048  0.047785065            2 
  560000    1.1830519   -5.5660548    313.24684  0.046614114  0.047771586            4 
  561000    1.1461661   -5.6228707    313.11679  0.046511703   0.04775882            3 
  562000     1.164925   -5.5743329    315.12124  0.046726163  0.047745976            2 
  563000    1.1561898   -5.6267894    313.06199  0.046338365  0.047732858            1 
  564000    1.1413959   -5.5932924    315.70415  0.046646595  0.047719584            3 
  565000    1.1815357    -5.590752     316.3592  0.046660649  0.047706508            5 
  566000    1.1518609   -5.6339841    316.12184  0.046543263  0.047693116            1 
  567000    1.1543832   -5.5824739    317.23871  0.046625325   0.04768003            2 
  568000    1.1561646   -5.5823872     316.8011  0.046479035  0.047666849            4 
  569000    1.1487832   -5.5669953    318.09407  0.046586712  0.047653499            2 
  570000    1.1594728   -5.6367184    317.06342  0.046354301  0.047640014            3 
  571000    1.1539571   -5.5814089    317.62039  0.046354406    0.0476266            4 
  572000    1.1706879   -5.6282956    318.76314  0.046439851  0.047613048            3 
  573000    1.1736262   -5.5926697    319.25049  0.046429681  0.047599773            3 
  574000    1.1429481   -5.6264104    320.24491  0.046493163  0.047586403            2 
  575000    1.1418521   -5.6460375    318.64055   0.04617979  0.047571496            1 
  576000    1.1235425   -5.6019985     321.1217  0.046458579  0.047557189            3 
  577000    1.1403955   -5.6367148    319.44416  0.046135783  0.047542363            2 
  578000    1.1675202   -5.5830743    320.07241  0.046146542  0.047527768            4 
  579000     1.148111   -5.5916288    321.08956  0.046213235  0.047513484            3 
  580000    1.1607406    -5.595548    321.50276  0.046192925  0.047498938            2 
  581000    1.1832114    -5.578509    322.77056  0.046295261  0.047484449            1 
  582000    1.1542662    -5.629713    323.20766  0.046278302  0.047470414            3 
  583000    1.1492179   -5.6096687     322.8402  0.046146398  0.047455574            2 
  584000    1.1432751   -5.6023543    324.32565  0.046279345  0.047440979            4 
  585000    1.1738544   -5.6417898     323.1135  0.046027565  0.047426735            6 
  586000    1.1728714   -5.6029901    324.37756  0.046128777  0.047412036            2 
  587000    1.1757975   -5.6284702    324.54343  0.046073741  0.047397354            6 
  588000    1.1733203   -5.5974091    322.99097  0.045775365  0.047381376            7 
  589000    1.1669467   -5.6123367    324.88682  0.045965876   0.04736562            2 
  590000    1.1235272   -5.6168346    325.61866  0.045991336  0.047350358            1 
  591000    1.1611396    -5.647726    326.32834  0.046013585  0.047335329            2 
  592000    1.1539514   -5.6106337    327.86754  0.046152525  0.047320426            2 
  593000    1.1519535   -5.6106593    327.65432  0.046044733   0.04730593            3 
  594000    1.1472653   -5.6453673    328.38192  0.046069293  0.047290593            8 
  595000    1.1250723   -5.6163205    328.12408  0.045955753  0.047275835            3 
  596000    1.1714741   -5.6619299    327.64892  0.045812209  0.047260709            5 
  597000    1.1554757   -5.6004478    330.28474  0.046103397  0.047245981            5 
  598000    1.1491002   -5.6426455    328.87423  0.045829742  0.047231563            3 
  599000    1.1514057    -5.617423    329.56729  0.045849651  0.047216619            2 
  600000    1.1547914    -5.621597    329.73094  0.045795964   0.04720189            7 
  601000    1.1352628   -5.5916588    331.43563  0.045956133    0.0471867            2 
  602000    1.1852849   -5.6284574    332.66001  0.046049281  0.047172406            3 
  603000    1.1519949   -5.6021479     332.1994  0.045909259  0.047157819            3 
  604000    1.1566924   -5.6265446    332.75614  0.045910063  0.047143474            5 
  605000    1.1381118   -5.6199738    334.55749  0.046082298  0.047129582            4 
  606000    1.1803668   -5.5888354    334.71367  0.046027732  0.047115841            5 
  607000     1.147585   -5.6325663    334.30211  0.045895402  0.047101899            4 
  608000    1.1776601   -5.6137404    335.13673   0.04593431  0.047088623            2 
  609000    1.1409494   -5.6143737    333.90214  0.045689948  0.047074258            4 
  610000     1.160447   -5.6125271    336.30694  0.045943571   0.04706013            2 
  611000    1.1669757   -5.6198179    336.79811  0.045935366  0.047045064            2 
  612000    1.1578706   -5.6256481    336.17345  0.045775253  0.047029553            2 
  613000    1.1636033   -5.5925327    338.51308  0.046018635   0.04701543            4 
  614000    1.1700436   -5.6411967    337.28282  0.045776713  0.047001932            3 
  615000    1.1499545   -5.6370238    338.80007  0.045907869  0.046987376            4 
  616000    1.1620959   -5.6045572    338.40006  0.045779229  0.046973028            1 
  617000    1.1412037   -5.6106545    339.15825  0.045807435  0.046958711            4 
  618000    1.1592134   -5.6467617    339.63963  0.045798224  0.046944334            2 
  619000    1.1433044   -5.6143184    340.11017  0.045787583   0.04693097            2 
  620000    1.1227536   -5.6339879    340.04833   0.04570542  0.046917098            4 
  621000    1.1592776   -5.5811194    341.93934   0.04588558  0.046904181            1 
  622000    1.1395737   -5.6744883    340.17688   0.04557568  0.046889908            2 
  623000    1.1499106   -5.6808184    340.95853  0.045607081   0.04687483            3 
  624000    1.1704263   -5.6768896      341.677  0.045629942  0.046859577            4 
  625000    1.1623772   -5.6011328    344.31005  0.045908006  0.046845375            5 
  626000    1.1382665   -5.6321697    343.53367  0.045731319  0.046831547            2 
  627000    1.1418598   -5.6128814    343.67252  0.045676837  0.046817817            1 
  628000    1.1504805   -5.6002649    344.70815  0.045741527   0.04680365            2 
  629000    1.1508742   -5.6052975    344.29812  0.045614483  0.046790306            1 
  630000    1.1664408   -5.6122598    345.61445  0.045716198  0.046776803            2 
  631000    1.1422031   -5.6443353    345.42211  0.045618345  0.046763966            3 
  632000     1.139111      -5.6372    346.79154  0.045726733  0.046750452            3 
  633000    1.1443621   -5.6825855    344.26475  0.045321847  0.046736298            4 
  634000    1.1678534   -5.6295046    346.68957  0.045569081  0.046721647            9 
  635000    1.1215792   -5.5904126    348.08659  0.045680655  0.046708015            2 
  636000    1.1472146   -5.6075202    347.20574  0.045493414  0.046694032            3 
  637000    1.1384483    -5.647775    346.64703  0.045348904   0.04667973            2 
  638000     1.128564   -5.6155136    349.25483  0.045618447  0.046665373            6 
  639000    1.1690508   -5.6280495    348.88289  0.045498551  0.046651066            6 
  640000     1.162439   -5.6268375    349.97557  0.045569735   0.04663645            6 
  641000    1.1370787   -5.6362507    348.90302  0.045359207  0.046621364            2 
  642000    1.1531527   -5.6890075    348.89725  0.045287805  0.046605803            3 
  643000    1.1607082   -5.6483986      350.764  0.045459305  0.046590115            1 
  644000    1.1669541   -5.6357959    351.11009  0.045433501  0.046576051            8 
  645000    1.1369099   -5.6290888    351.13273  0.045365986  0.046562572            4 
  646000    1.1646987   -5.6444567    351.62034  0.045358661   0.04654877            4 
  647000    1.1295981   -5.6115546    352.80559  0.045441215  0.046534498            1 
  648000     1.171787   -5.6574093     352.8525  0.045377122  0.046520555            2 
  649000    1.1281223   -5.6193814    354.68034  0.045541903  0.046506602            3 
  650000    1.1369413    -5.637305    354.93871  0.045504963  0.046492565            5 
  651000    1.1450636   -5.6500837    354.86794  0.045426004  0.046478951            3 
  652000    1.1383914   -5.6367316    355.62216   0.04545273  0.046465308            5 
  653000    1.1165434   -5.6140886    356.38027   0.04547987   0.04645135            5 
  654000    1.1538746    -5.637024    356.01949   0.04536436  0.046437706            2 
  655000    1.1579589   -5.5947656    357.68867  0.045507464  0.046424273            4 
  656000    1.1366898   -5.6275538    358.59342  0.045553026  0.046410589            5 
  657000    1.1360943   -5.6692206    357.72264  0.045373242  0.046396705            2 
  658000    1.1250479   -5.6256654    358.64706   0.04542136  0.046382891            7 
  659000    1.1474909   -5.6378269    357.72663  0.045236043  0.046369162            2 
  660000     1.135384   -5.6223651    358.22329  0.045230213  0.046355702            2 
  661000    1.1562673   -5.6703154     359.0573  0.045266932  0.046342559            1 
  662000    1.1454501   -5.6506857    360.22874  0.045346014  0.046328839            2 
  663000     1.157918   -5.6518357    359.83533  0.045228171  0.046315599            7 
  664000    1.1381742   -5.6590209    362.25082  0.045463205  0.046302023            2 
  665000    1.1386344   -5.6283623    362.73063  0.045454966  0.046289252            1 
  666000    1.1472907   -5.6476639    362.76993  0.045391633   0.04627721            2 
  667000    1.1292835   -5.6866719      362.779  0.045324713  0.046264568            8 
  668000    1.1389185    -5.629601    364.37296  0.045455709  0.046252833            2 
  669000    1.1257938   -5.6194653     364.8894  0.045452093  0.046241827            2 
  670000    1.1136164   -5.6525714    365.70082  0.045485176  0.046230054            2 
  671000     1.164201   -5.6753052    364.89376  0.045317158  0.046218334            2 
  672000    1.1250711   -5.6677919    366.78883  0.045484726  0.046206947            1 
  673000    1.1255614   -5.6391017    368.15514  0.045586323  0.046195831            2 
  674000    1.1096299   -5.6276043    368.75571  0.045592942  0.046184884            3 
  675000    1.1420572   -5.6365662    366.62133  0.045261892  0.046173142            2 
  676000    1.1255691   -5.6365124    367.69339  0.045327094  0.046161154            5 
  677000    1.1597754   -5.6450364    369.17954  0.045443075  0.046148876            3 
  678000    1.1704746   -5.6150717    369.57454  0.045424599  0.046136878            3 
  679000     1.125398   -5.6328896    369.27699  0.045321182  0.046124167            5 
  680000     1.159939    -5.647321    368.03769  0.045102658  0.046111873            3 
  681000    1.1285386    -5.614673    369.60781  0.045228562  0.046099623            2 
  682000    1.1390327   -5.6821514    369.47363  0.045145849  0.046086916            2 
  683000     1.133133   -5.6700898    370.30931  0.045181711  0.046074267            6 
  684000    1.1703725   -5.6314409    371.66315  0.045280598  0.046062795            3 
  685000    1.1471391    -5.635361    371.65333    0.0452133  0.046050783            2 
  686000    1.1557256   -5.6352916    372.38964  0.045236837  0.046039114            3 
  687000    1.1422522   -5.7049029    371.66223  0.045082754  0.046027279            3 
  688000    1.1487402    -5.661446     372.0501  0.045064208  0.046014778            3 
  689000    1.1272463   -5.6046526     374.9226  0.045346227  0.046002787            3 
  690000    1.1265591   -5.6761888    373.01006  0.045049524  0.045990081            4 
  691000    1.1342727   -5.6472495    374.54243   0.04516913  0.045977531            3 
  692000     1.146055    -5.701713     374.6446  0.045116161  0.045965879            4 
  693000    1.1309746   -5.6671649    375.35397   0.04513636  0.045954267            1 
  694000    1.1451794   -5.6347134    377.28259  0.045302904  0.045942849            3 
  695000    1.1507458   -5.6609833     376.5838  0.045153933  0.045931061            1 
  696000    1.1515566   -5.6784868    376.93723  0.045131373  0.045919288            5 
  697000    1.1455186    -5.638714     377.7569  0.045164622  0.045907555            2 
  698000    1.1563613   -5.6508844     377.3223   0.04504803  0.045896262            3 
  699000    1.1068458   -5.6165217    379.76248  0.045274497  0.045885003            3 
  700000    1.1411609   -5.6922707    378.47061  0.045056025   0.04587381            3 
  701000    1.1422712   -5.6455511     380.0789  0.045182942   0.04586277            4 
  702000    1.1508986   -5.6884394     379.6283  0.045065088   0.04585197            5 
  703000    1.1283636   -5.6433849     380.4093  0.045093563  0.045840976            3 
  704000    1.1666719   -5.6637837    382.54668  0.045282514  0.045830824            5 
  705000     1.156831   -5.6538338    382.41203  0.045202367  0.045820283            4 
  706000    1.1236355   -5.6966088    382.66296  0.045167961  0.045809615            4 
  707000    1.1500685   -5.6641279    383.99827  0.045261465  0.045798987            3 
  708000    1.1511961   -5.6722335    382.40961  0.045010548  0.045788323            2 
  709000    1.1330475   -5.6577881    383.41422  0.045065141  0.045776929            8 
  710000    1.1493797   -5.6804631    384.91767   0.04517813  0.045766822            1 
  711000     1.121587   -5.6250015    386.40317  0.045288698  0.045756625            2 
  712000    1.1656275   -5.6642906    386.80934  0.045272629  0.045746216            3 
  713000    1.1492442   -5.6494901    386.51034  0.045174187  0.045736525            3 
  714000    1.1575355   -5.6471497    388.16017  0.045303475  0.045727384            4 
  715000    1.1412354   -5.6888322    386.12778  0.045003238  0.045717974            6 
  716000    1.1467337   -5.6777968    386.66082  0.045002423  0.045708211            2 
  717000    1.1470703    -5.689823    387.32227  0.045016536  0.045698518            5 
  718000    1.1212071   -5.6363067    390.08627  0.045274636  0.045689129            2 
  719000    1.1314255   -5.6877955    389.33062  0.045124087  0.045679888            3 
  720000    1.1596365   -5.6459506    391.35556  0.045295782  0.045670522            1 
  721000    1.1543798   -5.6801925    390.71846  0.045159323  0.045660702            1 
  722000    1.1368081   -5.6635145    391.61546  0.045200307  0.045650658            3 
  723000    1.1392654    -5.686024     389.9037  0.044940491  0.045640615            4 
  724000    1.1458017   -5.6598405    389.72797  0.044858192  0.045629817            2 
  725000    1.1365316   -5.6649772    391.52444  0.045002809  0.045619562            3 
  726000    1.1536023   -5.6773355    391.90275  0.044984246  0.045608963            6 
  727000    1.1049456   -5.6576602    391.90271  0.044922364  0.045598877            4 
  728000    1.1338117   -5.6607964    393.89602   0.04508883  0.045588313            1 
  729000    1.1592965   -5.6472525    393.66342  0.045000391    0.0455788            2 
  730000    1.1395297   -5.6507884    393.68606  0.044941331  0.045569207            3 
  731000    1.1153587   -5.6439093    394.44039  0.044965845  0.045559571            5 
  732000    1.1490641    -5.665019    396.39178  0.045126568  0.045549756            4 
  733000    1.1306323   -5.6725584     396.7056  0.045100683  0.045540022            3 
  734000    1.1519218   -5.6594838    397.71372  0.045153692  0.045530278            2 
  735000     1.163152   -5.6381111    397.71527  0.045092434  0.045520468            3 
  736000     1.133065   -5.6438483    398.67234  0.045139531  0.045510976            3 
  737000     1.127008   -5.6702534    398.29566  0.045035692  0.045501178            3 
  738000    1.1170731   -5.6736682    397.88657  0.044928474  0.045491565            4 
  739000    1.1237725   -5.6401718       399.27   0.04502368  0.045482126            3 
  740000    1.1130813   -5.7074961     398.9276   0.04492428  0.045472797            2 
  741000    1.1314444   -5.6389113     401.1299  0.045111325  0.045464012            2 
  742000    1.1156596     -5.67036    401.55896  0.045098715  0.045455507            2 
  743000    1.1600317   -5.6744239    401.94326   0.04508112  0.045445978            1 
  744000    1.1298384   -5.6865398    402.37256  0.045068611  0.045436792            1 
  745000    1.1022077   -5.6877391    401.70216  0.044933128  0.045427896            2 
  746000    1.1334441   -5.6507535    402.78678  0.044994055  0.045418677            3 
  747000    1.1380659   -5.6481543    402.58775  0.044911619  0.045409245            4 
  748000    1.1377679   -5.6622118    402.69107  0.044863087  0.045399963            3 
  749000    1.1659198   -5.6500596    403.76995  0.044923225  0.045391004            1 
  750000    1.1249169    -5.667422    404.65675  0.044961861  0.045381348           11 
  751000    1.1418486   -5.6752204    405.09943  0.044951113  0.045372642            1 
  752000    1.1267507   -5.6792864    406.48114  0.045044452  0.045363617            4 
  753000    1.1525637   -5.6729449    405.79507  0.044908706  0.045354591            2 
  754000    1.1260938   -5.6510048    407.59994  0.045048623   0.04534595            1 
  755000    1.1337238    -5.625737    409.30928  0.045177625  0.045337765            3 
  756000    1.1312448   -5.6519073    409.69803  0.045160717  0.045329332            2 
  757000    1.1435008    -5.655722    408.49952  0.044969123  0.045320586            2 
  758000    1.1311237   -5.7052637    407.59247  0.044810079  0.045311527            5 
  759000    1.1394807   -5.6487207    410.25066  0.045042892  0.045302712            2 
  760000    1.1311115   -5.6473264    409.45708   0.04489661  0.045293846            2 
  761000    1.1299057   -5.6300187    409.09549  0.044798016  0.045284901            2 
  762000    1.1314953   -5.6568011    410.29636  0.044870556  0.045276321            7 
  763000     1.143493   -5.6852529    410.35988  0.044818685  0.045267517            2 
  764000    1.1134276   -5.6733546    410.97468  0.044827081  0.045258477            2 
  765000    1.1387951   -5.6685116     412.3178  0.044914793  0.045249237            6 
  766000    1.1019574   -5.6882998    412.21267   0.04484472  0.045239531            3 
  767000    1.1176695   -5.7090412    411.64093  0.044724134  0.045229925            1 
  768000     1.099748   -5.6546633    413.56225  0.044874377  0.045220247            2 
  769000    1.1278824   -5.6675566    413.55875  0.044815643  0.045210928            4 
  770000     1.110621   -5.6500939    411.52419   0.04453725  0.045201642            5 
  771000    1.1305303   -5.6700712    413.35351  0.044677206  0.045192377            3 
  772000    1.1131183   -5.6607835    414.33528  0.044725311  0.045183236            3 
  773000    1.1360187   -5.6444623    414.20157  0.044653037  0.045174181            1 
  774000    1.1018509   -5.6629742    416.27929  0.044819045  0.045165037            3 
  775000    1.1215387    -5.696097    418.12144  0.044959294  0.045156177            3 
  776000     1.153688   -5.6442167    417.84814  0.044872008  0.045147348            3 
  777000    1.1201169   -5.6608513    417.21044  0.044745864  0.045138887            4 
  778000    1.1097721   -5.6528717    418.26372  0.044801169  0.045130545            4 
  779000    1.1243893   -5.6644181    418.69923  0.044790247   0.04512188            3 
  780000    1.1195264   -5.6768128    418.72691  0.044735781  0.045112706            3 
  781000    1.1179075   -5.6925112    418.17634  0.044619755  0.045104459            4 
  782000    1.1278541   -5.6827993    418.69921  0.044618415  0.045095301            1 
  783000    1.1122156   -5.6694646      420.022  0.044702213  0.045085967            1 
  784000     1.139086   -5.6358404    420.92294  0.044740959  0.045076538            4 
  785000    1.1279411   -5.6834077    419.15861  0.044496668  0.045067252            2 
  786000    1.1318193   -5.7075753    421.61643  0.044700639  0.045057927            3 
  787000    1.1290799   -5.6882389    422.65086  0.044753373  0.045048862            1 
  788000    1.1265694   -5.6406475    422.99021  0.044732467  0.045039764            3 
  789000    1.1371641   -5.6863231    422.69947  0.044645064  0.045030848            3 
  790000    1.1313282   -5.6977648    423.04805  0.044625322  0.045021484            3 
  791000    1.1224926   -5.6823221    423.36003  0.044601773  0.045012226            4 
  792000    1.1503525   -5.6592004    424.01178  0.044614035  0.045003763            2 
  793000    1.1199735   -5.6450711    426.24201  0.044792141  0.044995124            2 
  794000     1.150943   -5.6864301    424.25267  0.044526938  0.044987038            3 
  795000    1.1242361   -5.7145823    423.28066  0.044369042  0.044978311            3 
  796000    1.1251249   -5.7314082    425.19369  0.044513578  0.044968905            4 
  797000    1.1217067   -5.6855277    426.58622  0.044603327   0.04495969            2 
  798000     1.121767   -5.6991436     425.2076  0.044403467   0.04495023            8 
  799000    1.1225575   -5.7118874    426.62385  0.044495603  0.044940818            3 
  800000    1.1211721    -5.686461     427.8185  0.044564427  0.044931527            3 
  801000    1.1161034   -5.7078406    427.45254  0.044470717  0.044922567            7 
  802000    1.1123061   -5.6536468    429.63058  0.044641581  0.044913745            2 
  803000    1.1340982   -5.6878981    429.65804  0.044588837  0.044904627            3 
  804000    1.1267079   -5.6945484    430.41179  0.044611504  0.044896026            3 
  805000    1.1140148   -5.6974252    430.07698  0.044521427  0.044887109            2 
  806000    1.1193408   -5.6827943    429.87644  0.044445455  0.044878503            3 
  807000    1.1125944   -5.6668793    430.49666  0.044454426  0.044869634            2 
  808000    1.1033746   -5.6782005    431.93343   0.04454759     0.044861            8 
  809000    1.1146286   -5.6943478    430.94299  0.044390501    0.0448523            2 
  810000    1.1313601   -5.7064924    431.57542  0.044400763  0.044843086            5 
  811000    1.1312183   -5.6629726    433.64477  0.044558649  0.044834121            2 
  812000    1.1565102   -5.6585095     433.9791  0.044538085  0.044825316            4 
  813000    1.1113112   -5.6832439    433.74917  0.044459735  0.044817016            6 
  814000    1.1219304   -5.6899342    434.65432   0.04449778  0.044808657            1 
  815000    1.1407594    -5.654353     436.0281   0.04458365  0.044800098            4 
  816000    1.1111867   -5.6649457    436.29356  0.044556123  0.044791752            2 
  817000    1.1483047   -5.6773494    436.49378  0.044522009  0.044782636            2 
  818000    1.1176968   -5.7141593    437.45828   0.04456584   0.04477462            3 
  819000    1.1323781    -5.661405    438.17903   0.04458476  0.044766167            2 
  820000    1.1485521   -5.7725863    435.78959   0.04428756  0.044757527            1 
  821000      1.10797   -5.7167139     437.7037  0.044427903  0.044748434            1 
  822000    1.1147586   -5.7284477    437.63479  0.044366868  0.044739658            4 
  823000    1.1298171   -5.6922189    437.94782  0.044344656  0.044730989            3 
  824000    1.1137746   -5.6961755    440.43865  0.044542743  0.044722111            3 
  825000    1.1028289   -5.6676809    439.31371  0.044375122  0.044713538            4 
  826000    1.1308711   -5.6746534    440.64157  0.044455365  0.044705506            5 
  827000    1.1156671   -5.7234464    439.37357  0.044273838  0.044697041            2 
  828000    1.1217776   -5.7100724    441.12495  0.044396633  0.044688648            3 
  829000    1.1278657   -5.6818339    442.82579  0.044514052  0.044680661            5 
  830000    1.1162855   -5.7259265    441.37359  0.044314618  0.044672592            3 
  831000    1.1065017    -5.670668    443.14048  0.044438476  0.044665047            2 
  832000    1.1325015   -5.7068569    442.89543  0.044360519  0.044657103            3 
  833000     1.121937   -5.7184301    443.79397  0.044397156  0.044648595            2 
  834000    1.1087566   -5.6564326    443.90569  0.044355085  0.044640382            5 
  835000    1.1093394   -5.7040273    442.83689  0.044195299  0.044632449            2 
  836000    1.1218487   -5.6955139    445.32183  0.044390134  0.044623894            2 
  837000    1.1075426   -5.7240741    444.49165  0.044254445  0.044615409            3 
  838000    1.1068375   -5.7039242     445.1703  0.044269123  0.044606861            3 
  839000    1.1317165   -5.7022243    446.74162   0.04437243   0.04459876            2 
  840000     1.134716   -5.7160085    445.62301  0.044208632  0.044590562            4 
  841000    1.1209515   -5.6936539    445.77878    0.0441715  0.044582248            3 
  842000    1.1199276   -5.7048726    449.05545  0.044443335  0.044574285            2 
  843000    1.1287438   -5.6829179    449.15952  0.044400901   0.04456648            2 
  844000     1.094305   -5.6776097    449.64656  0.044396382  0.044558883            3 
  845000    1.1436449   -5.7252486    450.55049  0.044432987  0.044551397            3 
  846000    1.1240999   -5.6696318    450.70188  0.044395379  0.044543607            4 
  847000    1.1391704   -5.6710206    451.09407   0.04438155  0.044535994            4 
  848000    1.1120419   -5.7098052    451.85025  0.044403523  0.044528587            2 
  849000    1.0872204   -5.7113976    450.41208  0.044210059  0.044520466           14 
  850000    1.1450518   -5.6837418    450.93112  0.044208933  0.044512727            2 
  851000    1.1264072    -5.707699    452.55295    0.0443158  0.044504867            6 
  852000    1.1124802   -5.7064868    451.65128  0.044175595  0.044497412            4 
  853000    1.1060584   -5.7143146    453.14497  0.044269731  0.044489932            4 
  854000     1.110924   -5.7169208     454.8957   0.04438873  0.044482539            2 
  855000    1.0959988   -5.7137579    454.85324  0.044332674  0.044475171            3 
  856000     1.077187   -5.6846517    455.14024  0.044308824  0.044467708            5 
  857000    1.1249697   -5.7118102    455.94208  0.044335092  0.044460227            2 
  858000    1.1110694   -5.7110864    455.19232  0.044210598  0.044452947            2 
  859000    1.1279979   -5.7111428    454.84166  0.044125113  0.044445298            4 
  860000    1.1358613   -5.7101879    457.61808  0.044342837  0.044438032            2 
  861000    1.1077015   -5.7063247     455.3246  0.044069357  0.044430197            2 
  862000    1.1255418   -5.7031208    457.07056  0.044187022  0.044422299            1 
  863000    1.1263843   -5.6873649    457.46385  0.044173798  0.044414721            7 
  864000    1.1211117   -5.7052679    459.60442   0.04432913  0.044407183            3 
  865000    1.1331545   -5.7191068    459.02527  0.044222088  0.044399416            3 
  866000    1.1092493   -5.7203961      458.925  0.044161374  0.044391621            6 
  867000    1.1326121    -5.686647    461.82192  0.044388882  0.044384114            2 
  868000    1.1161065   -5.7130205    460.76366  0.044236142  0.044376813            1 
  869000    1.1029306   -5.7141048     462.8407  0.044384417  0.044369855            2 
  870000    1.0954965   -5.6714895    465.03184  0.044543279  0.044362826            4 
  871000    1.1278971   -5.6948315    462.54232  0.044253953  0.044356561            1 
  872000    1.1278621   -5.7148652    463.87819  0.044330866  0.044349925            2 
  873000    1.0932136   -5.6989326    465.66572  0.044450717  0.044343171            3 
  874000    1.0969762   -5.6979347    465.62632  0.044396102  0.044335901            2 
  875000    1.1155074   -5.6959848    465.30593  0.044314851   0.04432893            2 
  876000    1.0894054   -5.7220697    464.88186  0.044223921  0.044321638            4 
  877000    1.1244413   -5.7286285    465.95971  0.044275913  0.044314545            2 
  878000    1.1094895   -5.7130731    464.16797  0.044055426  0.044307042            5 
  879000    1.1410103   -5.6931757    466.78706  0.044253609  0.044299548            4 
  880000     1.115811   -5.7412778    464.86646  0.044021445  0.044291868            2 
  881000    1.1058429   -5.7269919    466.21368  0.044098911  0.044283902            3 
  882000    1.0710482   -5.6924947    465.77653  0.044007609  0.044275874            4 
  883000    1.1125476    -5.674622    466.99075  0.044072362   0.04426792            2 
  884000    1.1019988   -5.7253651    466.37944  0.043964879  0.044259245            7 
  885000    1.1235794   -5.7266398    465.49127   0.04383157  0.044250381            3 
  886000     1.098611   -5.7357418    466.13412  0.043842562    0.0442415            4 
  887000    1.1144288    -5.696421    466.90712  0.043865757  0.044232239            5 
  888000    1.1127148   -5.6819357    467.38157  0.043860883  0.044223268            4 
  889000    1.1150938    -5.709549    467.98602  0.043868206  0.044214125           11 
  890000    1.1014307   -5.7018925    468.22203  0.043841014  0.044205359            5 
  891000    1.1025895   -5.6885484    469.15806  0.043879354  0.044196153            3 
  892000    1.1011069   -5.7272687    467.22728  0.043649784  0.044186912            3 
  893000    1.0890267   -5.7311389     468.7083   0.04373911  0.044177455            2 
  894000    1.1203895   -5.6941759    471.35489  0.043936884  0.044168044            2 
  895000    1.1071452   -5.7100193    470.80613  0.043836697  0.044158541            6 
  896000    1.1049368   -5.7155416    468.84348  0.043605234  0.044148636            2 
  897000    1.1285161   -5.7485679    468.61932  0.043535797  0.044138814            2 
  898000    1.1020013   -5.7525159    468.33448  0.043460884  0.044129082            2 
  899000    1.1141662   -5.7170434    470.11044  0.043577163  0.044119346            3 
  900000    1.1135043   -5.7212552    472.74285  0.043772486  0.044109358            8 
  901000    1.0869547   -5.6765971    472.21386  0.043674977  0.044099854            4 
  902000    1.1295107   -5.7286217    473.23123  0.043720549  0.044090442            3 
  903000    1.0943644   -5.7617266    472.42365  0.043597605  0.044081026            3 
  904000    1.1022685   -5.7382796    473.61971  0.043659634  0.044071665            2 
  905000    1.1117378   -5.7386081    471.67433  0.043432259  0.044062145            5 
  906000    1.0806864   -5.7205899    475.55985  0.043741708   0.04405242            2 
  907000    1.1168834   -5.7431671    474.57996  0.043603451  0.044043237            5 
  908000    1.1062289   -5.7193356    475.69792  0.043658032  0.044033611            3 
  909000    1.0922632   -5.7243901    476.84482  0.043715147  0.044024494            5 
  910000    1.1134618   -5.7615727    474.89983  0.043488995  0.044015393            4 
  911000    1.0991897   -5.7322978    477.28352  0.043659304  0.044006618            2 
  912000    1.1199558   -5.7410087    477.28939  0.043611969  0.043997835            4 
  913000    1.1222422   -5.7021966    479.11135  0.043730499  0.043988904            2 
  914000    1.0968057   -5.7355958     478.6381  0.043639506  0.043979764            4 
  915000    1.1017157   -5.7549134    477.88652  0.043523363  0.043970685            4 
  916000    1.0867267    -5.709503    480.96986  0.043756356   0.04396153            2 
  917000    1.1178498   -5.7136253    479.12668  0.043541138  0.043952536            1 
  918000    1.1048246   -5.7181373     479.7082  0.043546496  0.043943432            3 
  919000    1.0840142   -5.7076539    480.85423  0.043603031  0.043934115            3 
  920000    1.0967204   -5.7429553    481.51302   0.04361531  0.043924578            3 
  921000    1.1120377   -5.7563478    481.00609  0.043522085  0.043915274            6 
  922000    1.1028908   -5.7320089     480.1968  0.043401735   0.04390524            5 
  923000    1.1204555   -5.7027939    481.90018  0.043508503  0.043895983            2 
  924000    1.0849063   -5.7542253     481.9339  0.043464457  0.043886443            3 
  925000    1.1186784   -5.7177104    484.11069  0.043613575   0.04387687            2 
  926000     1.103721   -5.7637249    481.68259  0.043347966  0.043867309            2 
  927000    1.0854853   -5.7016523    484.02602  0.043511868   0.04385793            2 
  928000    1.0962991   -5.7111574    484.76549  0.043531384  0.043848975            3 
  929000    1.1253877   -5.7189844    484.92902  0.043499194  0.043840014            2 
  930000    1.1114841   -5.6884357    486.26243  0.043571902  0.043830817            2 
  931000    1.1036188   -5.7622377    484.57543  0.043374099  0.043821732            5 
  932000    1.0952913   -5.7146114    485.61306  0.043420338  0.043812494            1 
  933000    1.0849974   -5.7101446    487.56279  0.043547945  0.043803134            2 
  934000    1.1134145   -5.7451509    486.95001  0.043446646  0.043793803            4 
  935000    1.1082423    -5.698526    487.85936  0.043481226  0.043784061            2 
  936000    1.0734329   -5.7569488    488.01853  0.043448943  0.043774725            1 
  937000    1.0984839   -5.7581153    486.35798  0.043254889  0.043765202            3 
  938000     1.106708   -5.7053529    489.65922  0.043502063   0.04375566            3 
  939000    1.1154072   -5.7781929    487.71089  0.043282826  0.043746788            6 
  940000    1.1210659   -5.7414825    489.55398  0.043400176  0.043737383            3 
  941000    1.1151894   -5.7104826    491.28628  0.043507464  0.043728389            3 
  942000    1.0944077   -5.7399965    491.06454  0.043441661  0.043719379            3 
  943000    1.0947732   -5.7787707    489.51688  0.043258826  0.043709935            2 
  944000    1.0914687   -5.7384969    489.46226  0.043208179  0.043700838            3 
  945000    1.1165568   -5.7309036    491.39483  0.043332877  0.043691691            4 
  946000    1.0909895   -5.7712417    491.13814  0.043264459  0.043682605            3 
  947000    1.0844781   -5.7244333    494.63433  0.043526428  0.043673525            4 
  948000     1.107333   -5.7232762    492.61985  0.043303432  0.043664348            1 
  949000     1.103877   -5.7160493    495.53598  0.043513873  0.043655457            5 
  950000    1.0952898   -5.7198782    493.98237  0.043331787  0.043646637            2 
  951000    1.0903097   -5.7314092     497.0072  0.043551279  0.043638064            3 
  952000    1.0844908   -5.7627874    495.39704  0.043364587  0.043629352            2 
  953000    1.1081083   -5.7241214    496.18799  0.043388247  0.043620557            3 
  954000    1.0995372    -5.772822    495.89493  0.043317167  0.043611618            2 
  955000    1.1069486   -5.7216842    496.31081  0.043308098   0.04360258            3 
  956000     1.109416   -5.7169509    498.44219  0.043448587  0.043593556            3 
  957000     1.079366   -5.7374686    498.01988  0.043366412  0.043584873            3 
  958000    1.0987949   -5.7628146    497.01556  0.043233782  0.043575589            7 
  959000    1.1055899   -5.7424034    497.72355  0.043250221   0.04356621            2 
  960000    1.0755843   -5.7766613    499.01531  0.043317301   0.04355686            4 
  961000    1.1047397   -5.7255613    498.06262  0.043189613  0.043547833            3 
  962000    1.1012183    -5.761653      499.344  0.043255717  0.043538386            4 
  963000     1.110907   -5.7170531    498.98267  0.043179532  0.043528941            3 
  964000     1.102621   -5.7683491    499.48517  0.043178178  0.043519759            3 
  965000    1.1238091   -5.7819096    498.16579  0.043019499  0.043510187            3 
  966000    1.1029043   -5.7890294    496.94028  0.042869244  0.043500382            7 
  967000    1.0836035   -5.7686499    500.29745  0.043114223  0.043490808            3 
  968000    1.0795914   -5.7685671    501.71058  0.043191338  0.043481726            5 
  969000    1.1051421   -5.7553949    501.61175  0.043138266  0.043472393            5 
  970000    1.1062652   -5.7494476    500.96051  0.043037845  0.043463245            2 
  971000    1.1083318   -5.7472042    502.29893  0.043108388   0.04345442            3 
  972000     1.069829   -5.7270502    503.73066  0.043186785  0.043445347            2 
  973000    1.0788439   -5.7745932    501.99845  0.042994043  0.043436424            1 
  974000    1.0870061   -5.7139662    501.42958   0.04290123  0.043427039            2 
  975000    1.0976024   -5.7547782    504.21906  0.043095646  0.043417674            2 
  976000     1.090269   -5.7575476    503.44096  0.042985055  0.043407773            2 
  977000     1.123877   -5.7623711    503.19648  0.042920204  0.043398389            5 
  978000    1.1154988   -5.7593738     504.0866  0.042952164  0.043389131            7 
  979000    1.1008829    -5.760125    504.24113  0.042921445  0.043379653            4 
  980000    1.0818477    -5.750576    505.94689  0.043022695  0.043370734            2 
  981000     1.065718    -5.744025    506.50433  0.043026192  0.043360995            5 
  982000    1.1156229   -5.7772563    505.33564  0.042883201  0.043351107            3 
  983000    1.1037033   -5.7576016    506.18778  0.042911816  0.043341022            3 
  984000    1.0944497   -5.7690199     506.2527  0.042873704  0.043330765            3 
  985000    1.1037683   -5.8043954    505.88733  0.042799266  0.043320824            5 
  986000    1.0824814   -5.7331479    507.73025  0.042911617  0.043311268            4 
  987000    1.0994158     -5.73115    509.65002  0.043030228  0.043301369            1 
  988000    1.1104393   -5.7912504    507.30148  0.042788586  0.043291953            3 
  989000    1.0940895   -5.7520663    507.07592  0.042726316  0.043281774            4 
  990000     1.101196   -5.7638097    508.39548  0.042794232   0.04327172            4 
  991000    1.1193823   -5.7734807    508.41446  0.042752645  0.043261671            7 
  992000     1.069181   -5.7214271    510.78255  0.042908481  0.043251778            3 
  993000    1.0779199   -5.7265739    509.29507  0.042740439  0.043241711            4 
  994000    1.0971421   -5.7787958    510.21104  0.042774232  0.043230879            2 
  995000    1.1167361   -5.7456911    509.63195  0.042682743  0.043220601            3 
  996000    1.0887369   -5.7559866    509.55931  0.042633811  0.043209902            4 
  997000    1.0872575   -5.7950021    509.89914  0.042619453  0.043199623            2 
  998000    1.0925949   -5.7376786    511.75224  0.042731483  0.043188807            2 
  999000     1.085131   -5.7716176    509.71268  0.042518575  0.043178035            3 
 1000000    1.1002536   -5.7517933    509.82928  0.042485773  0.043167645            7 
 1001000    1.0729923   -5.7792484    511.34239  0.042569297  0.043156796            2 
 1002000    1.1008712    -5.769318    511.64553  0.042552024  0.043145759            3 
 1003000    1.0803021   -5.7517627    513.91211  0.042697915  0.043135232            3 
 1004000    1.0612785   -5.7581216    512.25862  0.042518146  0.043124743            5 
 1005000    1.1053475   -5.7535382    513.48731   0.04257772  0.043114298            2 
 1006000    1.0911138   -5.7244092    515.82743  0.042729243   0.04310409            3 
 1007000    1.1070926   -5.7514161    514.62128  0.042586998  0.043094237            2 
 1008000    1.0843164   -5.7380478    517.99157  0.042823378  0.043084148            2 
 1009000    1.0860149   -5.7541599    516.05716  0.042621173  0.043074484            2 
 1010000     1.079882   -5.7929999    514.79605  0.042474922  0.043064488            2 
 1011000    1.1016655   -5.7635359    519.40803  0.042813059  0.043054331            2 
 1012000    1.1062038   -5.7416864     518.6515  0.042708457  0.043044988            4 
 1013000    1.1110061   -5.7651254    519.51017  0.042736934  0.043035751            4 
 1014000    1.1022001   -5.7515759    520.26032  0.042756437  0.043026692            2 
 1015000    1.0831251   -5.7932876    518.96631  0.042608072  0.043017308            4 
 1016000    1.0520519   -5.7507178    520.53794  0.042695041  0.043008183            2 
 1017000      1.11081    -5.767016    522.41804  0.042807115  0.042999317            3 
 1018000    1.0792979   -5.7566519    521.88556  0.042721477  0.042990351            3 
 1019000    1.0981299   -5.8205604    520.92516   0.04260101  0.042980857            5 
 1020000    1.1105553   -5.7613722    520.93937  0.042560406  0.042971385            5 
 1021000    1.0833257     -5.75944    522.51139  0.042647028  0.042961866            5 
 1022000    1.1005101    -5.740098    523.12062  0.042654975  0.042952387           11 
 1023000    1.0772903   -5.7677983    524.08325  0.042691695  0.042942983            3 
 1024000    1.0775591   -5.7496525    522.39028   0.04251223  0.042933674            4 
 1025000    1.0939682   -5.7895642    523.08933  0.042527588  0.042924163            2 
 1026000    1.0701293   -5.7501476    525.35341   0.04267003  0.042914908            1 
 1027000    1.0775907   -5.7483091    524.46065  0.042556041  0.042905612            4 
 1028000     1.077595   -5.7935985     526.2581  0.042660352  0.042895939            4 
 1029000    1.0875561    -5.755431     525.1953  0.042532823  0.042886672            4 
 1030000    1.0704744   -5.8061044     523.3561  0.042342726  0.042876897            5 
 1031000    1.0759732    -5.750168    527.41199  0.042629485  0.042867164            4 
 1032000    1.1018635   -5.8188537    523.73114  0.042290951  0.042857377            2 
 1033000    1.0809894   -5.7758117    527.09653  0.042521501   0.04284773            3 
 1034000     1.101482   -5.7639693     526.7741  0.042454393  0.042838105           10 
 1035000     1.074477   -5.7542275    527.50386   0.04247213  0.042828323            2 
 1036000    1.0884816   -5.7358916    529.95724  0.042628478  0.042818978            4 
 1037000    1.0660855   -5.7288122    528.76438  0.042491512  0.042809827            2 
 1038000    1.0969518   -5.7626366    526.37696  0.042258908  0.042800467            3 
 1039000    1.0803008    -5.782777     528.5544  0.042392877  0.042790648            2 
 1040000    1.1096276   -5.7483262    528.35165   0.04233587  0.042780911            4 
 1041000    1.1126833    -5.779095    527.69133  0.042242341  0.042770868            3 
 1042000    1.0701377   -5.7776677     528.4404  0.042261708  0.042760794            6 
 1043000    1.0665828   -5.7436379    531.18366  0.042440369  0.042750673            3 
 1044000    1.0841064   -5.7611742    531.86618  0.042454197  0.042740727            6 
 1045000    1.0837156   -5.7491258    530.63134  0.042315099  0.042730513            4 
 1046000    1.0724088   -5.7412825     531.0965  0.042311704  0.042720591            2 
 1047000    1.1037369   -5.7761622    532.43484  0.042377813  0.042710651            2 
 1048000    1.1040172   -5.8077316     531.2914  0.042246454  0.042700648            3 
 1049000     1.062158   -5.7998727     530.3924  0.042134764  0.042690299            3 
 1050000    1.1098104     -5.77448    532.19568  0.042237752  0.042680581            4 
 1051000    1.0837363   -5.7530461    534.18459  0.042355264  0.042670824            3 
 1052000    1.1034324   -5.7610189    533.94287  0.042295855  0.042660841            2 
 1053000    1.0984896   -5.7626301    534.75428  0.042319902  0.042651059            4 
 1054000    1.0727156   -5.7751128    534.47874  0.042257965  0.042641155            5 
 1055000    1.0875078    -5.788686     535.0009  0.042259155  0.042631762            4 
 1056000    1.0775145   -5.7843225    534.72588  0.042197434  0.042622496            3 
 1057000    1.0696012   -5.7967452    536.43825  0.042292514   0.04261329            4 
 1058000    1.0665266   -5.7941002    537.84793  0.042363574   0.04260393            4 
 1059000    1.1000558   -5.7767486    537.52642  0.042298271    0.0425945            3 
 1060000    1.0697967   -5.7870411    538.20673  0.042311849  0.042585225            3 
 1061000    1.0756754   -5.8196802    536.19763  0.042114171  0.042575718            1 
 1062000    1.0946942   -5.7777005    536.56017  0.042102963  0.042566026            4 
 1063000    1.0774103   -5.7743515    539.87554  0.042323263  0.042556578            3 
 1064000    1.0943574    -5.781453     536.7347  0.042037492  0.042547157            3 
 1065000    1.0873906   -5.7717584    540.28104  0.042275512  0.042537647            2 
 1066000    1.0893288   -5.7413447    540.66668  0.042266001  0.042528452            4 
 1067000    1.0855855   -5.7611184    542.41946  0.042363282  0.042518984            3 
 1068000    1.0561074   -5.8090575     540.1701  0.042148104  0.042509431            5 
 1069000    1.1169726   -5.8192674    539.94129  0.042090839  0.042499781            8 
 1070000    1.0891974   -5.7719488    542.15693   0.04222406   0.04249017            3 
 1071000     1.064195    -5.786213    541.24066  0.042113341  0.042480647            2 
 1072000    1.0941036   -5.7818756    541.98745  0.042132109  0.042471068            4 
 1073000    1.0857723   -5.8246365    538.61893  0.041831231  0.042461264            4 
 1074000     1.104744   -5.7663625    543.32438  0.042157385  0.042451441            5 
 1075000    1.0704281   -5.7947317    540.16107  0.041872951  0.042441537            8 
 1076000    1.0774038     -5.77407    542.61906  0.042024401  0.042431427            5 
 1077000    1.0982569   -5.7626162    543.29161   0.04203742  0.042421692            2 
 1078000    1.0593795   -5.7923644      542.163  0.041911178  0.042411591            8 
 1079000    1.0851886   -5.7985912    541.85653  0.041848667    0.0424012            3 
 1080000    1.0855065   -5.8011512    543.02762  0.041900279  0.042390798            5 
 1081000    1.0794374   -5.7777483    543.96254  0.041933591  0.042380414            3 
 1082000    1.0797976   -5.8126271    543.17877  0.041834471  0.042370221            3 
 1083000    1.0786187   -5.7888106     542.5327   0.04174613  0.042359957            2 
 1084000    1.0892076   -5.8339241    542.25475  0.041686251  0.042349069            3 
 1085000    1.0906064   -5.7904826     544.7712  0.041841106  0.042338502            2 
 1086000    1.0699661   -5.8290151    545.03641  0.041822929  0.042328075            3 
 1087000     1.073299   -5.7527256    546.08206  0.041864617  0.042317925            2 
 1088000    1.0645099   -5.7874812    544.63181  0.041715059  0.042307474            3 
 1089000    1.0855086   -5.7788297    548.84175  0.041998909   0.04229693            4 
 1090000    1.0798462   -5.7771302    547.66362  0.041870307   0.04228684            3 
 1091000    1.0906452   -5.7725067     548.9009  0.041926436   0.04227645            7 
 1092000    1.0581132   -5.7801324    547.22592   0.04176022  0.042266103            2 
 1093000    1.0907731   -5.8083111    547.31652   0.04172892  0.042255707            3 
 1094000    1.0711942   -5.8075481    548.29514  0.041765321  0.042245602            5 
 1095000    1.0718181   -5.7983625    547.88941  0.041696302  0.042234798            5 
 1096000    1.0883509     -5.80837    549.76786  0.041801084  0.042224418            4 
 1097000    1.0731127   -5.8072195    550.37609  0.041809183  0.042213891            3 
 1098000    1.0838368   -5.8017832    550.91953  0.041812351  0.042203975            4 
 1099000    1.0891577   -5.8158115    549.64457  0.041677629  0.042193644            2 
 1100000    1.0958103   -5.7589483    552.08381  0.041824531   0.04218344            3 
 1101000      1.07235   -5.8138881     550.1749   0.04164206   0.04217337            2 
 1102000    1.0847554   -5.8061262    550.85142  0.041655431  0.042163095            4 
 1103000    1.0565477   -5.8187734    550.75206  0.041610159  0.042152507            3 
 1104000     1.101545   -5.7950954     551.7754  0.041649713  0.042142085            2 
 1105000    1.0786211   -5.8039702    553.78044  0.041763231  0.042131561            2 
 1106000    1.0755719   -5.8130983     552.8504  0.041655394  0.042121249            3 
 1107000    1.0689889   -5.8020846    552.78659  0.041612962  0.042110787            3 
 1108000    1.0778548   -5.8186548     551.4321  0.041473534  0.042100373            5 
 1109000    1.0848356   -5.7761405    554.27684  0.041649897  0.042089796            5 
 1110000    1.0737029   -5.8051197    553.43686  0.041549314  0.042079022            3 
 1111000    1.0729486   -5.7645464    555.24006  0.041647169  0.042068283            1 
 1112000     1.117155   -5.7841038    553.70595  0.041494751  0.042057715            2 
 1113000    1.0701829   -5.7750928    555.85452  0.041618338  0.042047078            3 
 1114000    1.0959574   -5.7965225    555.39534  0.041546629  0.042036869            4 
 1115000    1.0698831   -5.8150169    555.62868  0.041526807  0.042026524            3 
 1116000    1.0959247    -5.756249     557.2719  0.041612299  0.042016251            2 
 1117000    1.0712812   -5.7739936    558.60871  0.041674777  0.042005804            6 
 1118000    1.0840396   -5.8079155    556.47418  0.041478398  0.041995381            2 
 1119000    1.1004072   -5.8247268    556.38054  0.041434357  0.041984716            4 
 1120000    1.0836976   -5.8321618    556.83938  0.041431501  0.041973937            3 
 1121000    1.0716134    -5.810774     557.1755  0.041419529  0.041963434            5 
 1122000    1.0778125   -5.7886563    558.79045  0.041502558  0.041953066            2 
 1123000    1.0852364    -5.747204    557.39326  0.041361922  0.041942395            4 
 1124000    1.0911165   -5.8011897    557.48947  0.041332256  0.041931467            3 
 1125000    1.0565228   -5.8166593    558.91016  0.041400753   0.04192051            7 
 1126000    1.0346835   -5.8224305    559.43666   0.04140295  0.041909288            2 
 1127000    1.0606357   -5.8268958    559.69404  0.041385244  0.041898408            3 
 1128000    1.0584884   -5.7770089    560.21199  0.041386819  0.041887738            3 
 1129000    1.0619191   -5.8109611    558.54531  0.041227141  0.041876583            5 
 1130000     1.080666   -5.8094883    559.51157  0.041261915  0.041865579            1 
 1131000    1.0613656   -5.7734293    561.94123  0.041404453  0.041855053            2 
 1132000    1.0665244   -5.7830696     560.6998  0.041276487  0.041844372            3 
 1133000    1.0978854     -5.82008     561.6372  0.041309002  0.041833544            5 
 1134000    1.0824261   -5.8092567    562.61448  0.041344392   0.04182285            2 
 1135000    1.0782404   -5.8172878    560.34647  0.041141444  0.041812315            3 
 1136000    1.0820377   -5.8189239    561.29061  0.041174487  0.041801577            4 
 1137000    1.0745762   -5.8157971     564.1156  0.041345324  0.041791009            8 
 1138000    1.0790774   -5.8011148    564.66832  0.041349467  0.041780265            5 
 1139000    1.0399665   -5.8264516    562.01733  0.041119208  0.041769731            1 
 1140000    1.0735495   -5.8419219    562.52588  0.041120313  0.041759087            3 
 1141000    1.0666026   -5.7766966    565.32011  0.041288352  0.041748557            3 
 1142000    1.0702764    -5.804604    564.81988  0.041215695  0.041737858            4 
 1143000      1.07888   -5.8263218    565.14285  0.041203183  0.041727423            3 
 1144000    1.0635138   -5.7883339    565.39198  0.041185313  0.041716547            7 
 1145000    1.0746646    -5.814377    566.47546  0.041228199  0.041705795            3 
 1146000    1.0941872   -5.7751593    566.38504  0.041185649  0.041695021            5 
 1147000    1.0357719   -5.8127119    568.41198  0.041297005  0.041684535            3 
 1148000    1.0739529   -5.8140335    566.87096   0.04114917  0.041673734            3 
 1149000    1.0676071    -5.812576    570.18205  0.041353499  0.041663283            3 
 1150000    1.0601328    -5.823044    569.67339   0.04128068  0.041653074            1 
 1151000    1.0789598   -5.7998627    567.66162  0.041099161  0.041642918            4 
 1152000    1.0694091   -5.8126586    570.28031  0.041252916  0.041632879            5 
 1153000     1.073398   -5.7725607    571.92468  0.041335984  0.041623053            8 
 1154000    1.0541574   -5.8086473    571.32464  0.041256834   0.04161284            3 
 1155000    1.1016953   -5.8410099    570.21685  0.041141187  0.041602898            2 
 1156000    1.0803026   -5.7815517    572.16265  0.041245866  0.041592755            3 
 1157000     1.073878   -5.7649888    574.78794  0.041399304   0.04158289            2 
 1158000    1.0492043    -5.780845    574.67557  0.041355467  0.041573025            5 
 1159000    1.0771828   -5.8112618    573.18489  0.041212604  0.041563024            5 
 1160000     1.039766   -5.8090568    574.48349  0.041270366  0.041553105            5 
 1161000    1.0850359   -5.8054284    574.40503  0.041229186  0.041543328            2 
 1162000    1.0719532    -5.819358    573.87472  0.041155674  0.041533626            4 
 1163000    1.0622828   -5.8079531    574.73683   0.04118206  0.041523655            3 
 1164000    1.0662256   -5.8001099    575.31704  0.041188219  0.041513755            3 
 1165000    1.0767391   -5.8282018    574.73077  0.041110928  0.041503828            2 
 1166000    1.0513046   -5.8175373    575.73039  0.041147112  0.041493738            1 
 1167000    1.0649393   -5.8264997    576.74861  0.041184562  0.041483488            2 
 1168000    1.0796022   -5.7996777    574.97412  0.041022697  0.041473576            1 
 1169000    1.0726621   -5.8232399    576.26137  0.041079368  0.041463882            5 
 1170000    1.0707869   -5.8256567    577.51335  0.041133429  0.041454192            2 
 1171000    1.0701892   -5.8037668    580.08247  0.041281132  0.041444489            4 
 1172000    1.0616821   -5.8246761    576.99563  0.041026424  0.041435005            2 
 1173000    1.0787957   -5.8227433    579.45761  0.041166355   0.04142513            2 
 1174000    1.0373479   -5.8163566     579.3034  0.041120343  0.041415234            6 
 1175000    1.0737123   -5.8684708    577.15324  0.040932854  0.041405485            4 
 1176000      1.04754   -5.8050327    581.75707  0.041224282  0.041395692            3 
 1177000    1.0495688   -5.8090249      580.897  0.041128363   0.04138593            4 
 1178000    1.0766918   -5.8226247    580.18397  0.041043009   0.04137615            3 
 1179000    1.0472529   -5.8215967    580.88347  0.041057638  0.041366643            5 
 1180000     1.070914    -5.841138    581.61553  0.041074543  0.041357189            2 
 1181000    1.0610809   -5.7901905    581.56325  0.041036075  0.041347695            2 
 1182000     1.043875   -5.8480335    583.07947  0.041108254  0.041338494            7 
 1183000     1.063036   -5.8241031    584.05583  0.041142281  0.041328787            3 
 1184000    1.0900026    -5.854778    583.29783  0.041054183  0.041319152            3 
 1185000    1.0806469   -5.8115979    585.66494  0.041186001   0.04130958            6 
 1186000    1.0765158   -5.7987259    586.14999  0.041185357  0.041300396            4 
 1187000    1.0794035   -5.8498609    583.89587  0.040992409  0.041291139            2 
 1188000    1.0998157   -5.8079011    586.13199  0.041114758  0.041281769            3 
 1189000    1.0375547   -5.8242396    586.17903  0.041083476  0.041272282            2 
 1190000    1.0834765   -5.8547264    582.29652  0.040777067  0.041262461            4 
 1191000    1.0668942   -5.8226177    585.64015  0.040976781  0.041252902            4 
 1192000    1.0490492   -5.8096484    586.80597  0.041023907  0.041243522            3 
 1193000    1.0573068   -5.8315621    585.51177  0.040899118  0.041234225            3 
 1194000    1.0638463   -5.8078829    586.32871  0.040921881  0.041224784            5 
 1195000    1.0475605   -5.8144337    586.65571   0.04091044  0.041214875            3 
 1196000    1.0455755      -5.8889     585.7349  0.040812075  0.041205023            5 
 1197000    1.0321161   -5.8193168    587.24477  0.040883094   0.04119503            4 
 1198000    1.0613855   -5.8562037    586.63589  0.040806614  0.041185275            3 
 1199000    1.0486374   -5.8345601    588.17311  0.040879421   0.04117561            2 
 1200000    1.0685184   -5.7786366    592.06228  0.041115436  0.041166199            4 
 1201000    1.0647319   -5.8286059    588.96696  0.040866428  0.041156793            5 
 1202000    1.0557949   -5.8358263    588.09954  0.040772292  0.041147154            3 
 1203000    1.0494945   -5.8700256    586.97963  0.040660822  0.041137703            6 
 1204000    1.0681314   -5.8758998    590.43596  0.040866276  0.041128113            3 
 1205000    1.0678522   -5.8588592    589.45059  0.040764218  0.041118254            2 
 1206000     1.050238   -5.8473275    590.12366  0.040776925  0.041108291            2 
 1207000    1.0568383   -5.8373867     591.4804  0.040836813  0.041098391            3 
 1208000    1.0809267   -5.8108051     589.9308  0.040696109  0.041088549            3 
 1209000    1.0659128   -5.8686601    590.43798  0.040697407  0.041078468            3 
 1210000    1.0365188   -5.8026258    591.74047  0.040753476  0.041068335            3 
 1211000    1.0643151   -5.8579094    590.00636  0.040600493  0.041058487            2 
 1212000    1.0645585   -5.8338891    591.48906  0.040668939  0.041048455            3 
 1213000    1.0557305   -5.8100038    593.92379  0.040802679  0.041038634            2 
 1214000    1.0486371    -5.828996    594.20074  0.040788079  0.041029177            3 
 1215000    1.0612959    -5.840126     594.5352  0.040777449  0.041019756            1 
 1216000    1.0472373   -5.8073302    597.28798  0.040932565   0.04101053            3 
 1217000    1.0464702    -5.802099    595.75167  0.040793732  0.041001394            3 
 1218000    1.0420212   -5.8466724    596.51456  0.040812436   0.04099215            7 
 1219000    1.0538374   -5.8438098    596.56216  0.040782209  0.040982988            4 
 1220000    1.0434754   -5.8216959     597.3181  0.040800417  0.040973661            2 
 1221000     1.055961   -5.8375872    597.71944  0.040794392   0.04096445            6 
 1222000    1.0537553   -5.8442566    597.95964  0.040777389   0.04095541            3 
 1223000    1.0795032   -5.8217477    599.22599  0.040830335  0.040946727            2 
 1224000    1.0733557    -5.824254    599.96716  0.040847437  0.040937997            4 
 1225000    1.0768829    -5.823707    602.19783  0.040965839  0.040929506            4 
 1226000      1.04122    -5.816873      602.673  0.040964722  0.040921058            7 
 1227000    1.0591241   -5.8221582    602.02797  0.040887529  0.040912585            5 
 1228000    1.0415444   -5.8372418    601.20497  0.040798383  0.040903949            2 
 1229000    1.0767571   -5.8378734    601.22822  0.040766763  0.040895235            4 
 1230000    1.0455894     -5.86555    600.49774  0.040684129  0.040886336            6 
 1231000    1.0519499   -5.8018749    605.16426  0.040966982  0.040877648            3 
 1232000    1.0518328   -5.8291271    601.40484   0.04067944  0.040869113            3 
 1233000    1.0721891   -5.8565929    601.66994  0.040664365  0.040860472            4 
 1234000    1.0764148   -5.8939879     603.7122  0.040769327  0.040852123            7 
 1235000    1.0622746   -5.8253548    603.29777  0.040708352  0.040843665            3 
 1236000    1.0486078   -5.8847304     604.4828  0.040755313  0.040835117            2 
 1237000    1.0497212   -5.8513857    603.84193  0.040679192  0.040826492            5 
 1238000    1.0799958   -5.7847766    607.34309  0.040882006  0.040817939            4 
 1239000    1.0512391   -5.8552545    606.03112  0.040760769  0.040809381            6 
 1240000    1.0641701     -5.87042    603.96331  0.040588932  0.040800547            3 
 1241000    1.0320575   -5.8323363     606.5564  0.040730352  0.040791641            4 
 1242000    1.0537175   -5.8785457    605.26962   0.04061122  0.040782922            4 
 1243000    1.0506088   -5.8959061    603.94445  0.040489705  0.040774008            5 
 1244000    1.0572161   -5.8354923    608.26646  0.040746681  0.040765174            4 
 1245000    1.0786958   -5.8655223    607.72873   0.04067796  0.040756544            5 
 1246000    1.0681272   -5.8791961    606.10516  0.040536728  0.040747711            6 
 1247000     1.053688   -5.8019009    608.97784  0.040696194    0.0407391            3 
 1248000    1.0804491   -5.8114253    609.61541  0.040706157  0.040730464            3 
 1249000    1.0401405   -5.8283047    608.06288  0.040569981  0.040721652            5 
 1250000    1.0367521   -5.8317096    608.40281  0.040560187  0.040712834            5 
 1251000    1.0576487   -5.8603235    609.85546  0.040624531  0.040704376            3 
 1252000    1.0441049   -5.8476898     609.0331  0.040537347   0.04069557            3 
 1253000    1.0436609   -5.9082911    606.59034  0.040342534  0.040686394            2 
 1254000    1.0247173   -5.8659523     608.4444  0.040433573  0.040677141            3 
 1255000    1.0667303   -5.8449437    613.20792  0.040717658   0.04066824            2 
 1256000    1.0235789   -5.8489432    611.05108  0.040542137  0.040659464            3 
 1257000    1.0454166   -5.8730742    610.06144  0.040444275  0.040650566            2 
 1258000    1.0585638   -5.8635479    609.87325  0.040399659  0.040641401            4 
 1259000    1.0540751    -5.902843    610.70084  0.040422349  0.040632331            5 
 1260000    1.0575469   -5.8535701    612.50261  0.040509432  0.040623334            2 
 1261000    1.0562064    -5.836357    614.29467  0.040595736    0.0406142            3 
 1262000    1.0425914   -5.8351438    612.54937  0.040448321  0.040605309            4 
 1263000    1.0242024   -5.8759358    611.94438  0.040376378  0.040596203            2 
 1264000    1.0885551    -5.886317    612.26343  0.040365469  0.040587016            3 
 1265000    1.0728187   -5.8833196    613.30252   0.04040201  0.040577785            1 
 1266000    1.0306711   -5.8855454    614.09515  0.040422271  0.040568644            2 
 1267000    1.0301896    -5.844782    617.59064  0.040620274  0.040559793            3 
 1268000     1.060889   -5.8813609    614.86007  0.040408785   0.04055089            4 
 1269000    1.0473853    -5.854554    615.37808  0.040410959  0.040542221            2 
 1270000    1.0755367   -5.8790317     615.4473  0.040383681  0.040533459            4 
 1271000    1.0597736    -5.845734    616.79308  0.040440144  0.040524827            2 
 1272000    1.0457395   -5.8442637    617.07987   0.04042714  0.040516011            1 
 1273000    1.0436662   -5.8740281    615.78242  0.040310449  0.040507148            2 
 1274000    1.0594285   -5.8675181    614.73246   0.04021013  0.040498126            4 
 1275000    1.0566695   -5.8700104    618.25221  0.040408641  0.040488925            3 
 1276000    1.0504522   -5.8361689     617.9094  0.040354585  0.040480129            2 
 1277000     1.060238   -5.8600844      616.709  0.040244649  0.040471285            3 
 1278000    1.0308706    -5.803986    619.20153  0.040375686  0.040461751            4 
 1279000    1.0570895   -5.9062225    617.58351  0.040238696  0.040452532            4 
 1280000    1.0377604   -5.8367889    619.84779  0.040354674  0.040443169            5 
 1281000    1.0386743    -5.868172    617.55711  0.040174155  0.040433785            2 
 1282000    1.0478293   -5.8635012     618.5971   0.04021042  0.040424434            2 
 1283000    1.0307716   -5.8845054    617.96362  0.040137933  0.040415081            4 
 1284000    1.0537967   -5.8889276    618.79622   0.04016071  0.040405927            2 
 1285000    1.0410981   -5.8850557    617.36677  0.040036755  0.040396562            2 
 1286000    1.0490369   -5.8718898    619.72932  0.040158717  0.040387109            3 
 1287000    1.0422987   -5.8588543     619.7813  0.040130879  0.040377477            1 
 1288000    1.0552015   -5.8574708    621.54841  0.040214053  0.040368144            2 
 1289000     1.069504   -5.9027066    617.94555  0.039949932  0.040358616            5 
 1290000    1.0705274   -5.8756133    620.94232  0.040112553  0.040349166            3 
 1291000    1.0577436   -5.8642712    622.07138  0.040154362  0.040339874            4 
 1292000     1.037652   -5.8642377    621.02448  0.040055759  0.040330563            3 
 1293000    1.0390684   -5.9005772    622.47178  0.040118057  0.040321036            3 
 1294000    1.0352669   -5.8992232    621.95477  0.040053759  0.040311756            7 
 1295000    1.0346023     -5.86391    624.77854  0.040204539  0.040302432            3 
 1296000    1.0362382   -5.8449231    625.68139  0.040231571  0.040293321            2 
 1297000    1.0377258   -5.8599417     623.6075  0.040067303  0.040284332            2 
 1298000    1.0375481   -5.8659053    623.99217   0.04006113  0.040275362            8 
 1299000    1.0551506   -5.8541131    626.92204  0.040218247  0.040266316            3 
 1300000    1.0276059   -5.9068798    623.58334  0.039973291  0.040257203            2 
 1301000     1.047024   -5.8645165    625.24224  0.040048824  0.040247829            2 
 1302000     1.060809   -5.8401606    627.02054  0.040131883  0.040238742            1 
 1303000    1.0741627   -5.9040431    627.76802  0.040148889  0.040229554            5 
 1304000     1.061606   -5.8670347    627.64868  0.040110473   0.04022049            5 
 1305000     1.076221   -5.8630597    628.62123  0.040141841  0.040211585            3 
 1306000    1.0292741   -5.9162857     626.4328  0.039971465  0.040202725            2 
 1307000    1.0514054   -5.8347636    630.91087  0.040226401  0.040193832            4 
 1308000    1.0406885   -5.8573122    629.32199  0.040094418  0.040184787            4 
 1309000    1.0366227    -5.887982    630.54071  0.040141374  0.040176087            2 
 1310000    1.0741059   -5.8813869    628.14852  0.039958557  0.040167291            2 
 1311000    1.0280421   -5.8658138    628.89839  0.039975743  0.040158593            4 
 1312000    1.0442162   -5.8869835    629.13939  0.039960581   0.04014984            4 
 1313000    1.0360327   -5.7913932    634.51336  0.040271221  0.040141197            8 
 1314000    1.0617773   -5.8772831    630.84946   0.04000821  0.040132467            2 
 1315000    1.0546772   -5.8413371    630.10819   0.03993081  0.040123629            4 
 1316000    1.0138745    -5.863797    632.65488  0.040061732   0.04011469            5 
 1317000    1.0436149   -5.8766528    631.88152  0.039982379  0.040105762            3 
 1318000    1.0410575   -5.8738993    631.24818  0.039911999  0.040097044            2 
 1319000    1.0306771   -5.8712503    633.95765  0.040052922  0.040088238            2 
 1320000     1.046469   -5.8798577    634.12319  0.040033029  0.040079498            3 
 1321000     1.042436   -5.9092077    632.36898  0.039892063  0.040070476            7 
 1322000      1.02057    -5.879061    632.35301  0.039860881  0.040061552            1 
 1323000    1.0421357   -5.8926221    633.10202   0.03987793  0.040052276            3 
 1324000    1.0482935   -5.8589405    632.01185  0.039779195  0.040043075            4 
 1325000    1.0139503   -5.9179388    630.76334  0.039670651  0.040033549            6 
 1326000    1.0702846   -5.8636052    634.52004  0.039876825  0.040024097            3 
 1327000     1.023605    -5.917667    630.74036  0.039609417  0.040014729            5 
 1328000    1.0421922   -5.8780952     632.6933   0.03970214  0.040005362            5 
 1329000    1.0363271   -5.8737813    635.50016  0.039848267  0.039996021            1 
 1330000    1.0415256   -5.8660186    633.88733  0.039717252  0.039986869            4 
 1331000    1.0247687   -5.8944371    635.34262  0.039778526  0.039977641            2 
 1332000    1.0433698   -5.8955332    635.28655  0.039745155  0.039968151            3 
 1333000    1.0468401   -5.8807723    636.75153  0.039806923  0.039958924            4 
 1334000    1.0431638   -5.8538809    636.08746  0.039735599  0.039949705            2 
 1335000    1.0214699   -5.8593288    639.07108  0.039892078  0.039940461            2 
 1336000     1.015267   -5.8659052    636.92684  0.039728471  0.039931249            3 
 1337000    1.0676824     -5.92262    636.09951  0.039647189  0.039921788            4 
 1338000    1.0384296   -5.8668825    638.09528  0.039741858  0.039912274            5 
 1339000     1.045742   -5.8932919    638.67236  0.039748093  0.039903232            4 
 1340000    1.0585197   -5.8859068    638.36135  0.039699089   0.03989379            3 
 1341000    1.0503223   -5.8856437    638.73911   0.03969296  0.039884497            4 
 1342000    1.0393642   -5.8788465    637.35868  0.039577663  0.039874888            4 
 1343000    1.0327951   -5.8805914    639.58792  0.039686518  0.039865517            3 
 1344000    1.0381108   -5.8631298    639.36003  0.039642859  0.039856181            5 
 1345000    1.0335573   -5.8757217     641.0406   0.03971751  0.039846965            2 
 1346000    1.0218554   -5.8978416    640.08112  0.039628598   0.03983769            7 
 1347000     1.016008   -5.8902994    640.29367  0.039612328  0.039828084            4 
 1348000    1.0366006   -5.8909205     642.3782  0.039711808  0.039818634            4 
 1349000     1.051142   -5.8704465    642.12571  0.039666772   0.03980916            3 
 1350000    1.0513178   -5.8630051    640.58185   0.03954209   0.03979975            5 
 1351000    1.0285488   -5.8638512    642.41763  0.039626057  0.039790235            3 
 1352000     1.015614   -5.8867473    641.60148  0.039546442  0.039780714            3 
 1353000    1.0564488   -5.8787579    643.52998  0.039635993  0.039771466            3 
 1354000    1.0426419   -5.8767799    642.87595  0.039566466  0.039762061            5 
 1355000    1.0374849   -5.8689184    643.36178  0.039567145  0.039752664            4 
 1356000    1.0434957   -5.9169575    643.38201  0.039539209  0.039743386            3 
 1357000    1.0152714   -5.8695786    644.00934  0.039548596  0.039733931            6 
 1358000    1.0440539   -5.9155626    641.83738  0.039386192  0.039724648            4 
 1359000    1.0412937    -5.924822    643.72053  0.039472684  0.039715203            4 
 1360000    1.0225256   -5.9065162     643.7303  0.039444259  0.039705919            3 
 1361000    1.0164669    -5.891299    645.07905   0.03949786  0.039696587            4 
 1362000    1.0469188   -5.8621913    648.51464  0.039679065  0.039687116            7 
 1363000     1.036615     -5.88597     645.0946  0.039440853  0.039677523            3 
 1364000    1.0272155   -5.8899408    645.99523  0.039466962  0.039667907            3 
 1365000    1.0327156   -5.8944056      646.175  0.039449023  0.039658511            4 
 1366000    1.0319219   -5.9082112    643.68934  0.039268506  0.039649085            4 
 1367000    1.0266884   -5.9149301    643.03958  0.039200169  0.039639504            3 
 1368000    1.0028429    -5.889253    647.88784  0.039466852  0.039629901            6 
 1369000    1.0316807    -5.917203    645.81579  0.039311893  0.039620315            3 
 1370000    1.0239845   -5.9034485     646.2974  0.039312494    0.0396108            3 
 1371000    1.0330482    -5.930973    646.25758  0.039281399   0.03960112            3 
 1372000    1.0429034   -5.9109529    646.42946  0.039263208  0.039591523            8 
 1373000    1.0182933   -5.8884169    647.76863  0.039315892  0.039581867           13 
 1374000    1.0250526   -5.8926119    650.10605  0.039429042  0.039572419            7 
 1375000    1.0175883   -5.8668662    651.99034  0.039514566  0.039563233            3 
 1376000    1.0146747   -5.9225613     649.0177   0.03930582  0.039553888            4 
 1377000    1.0421311   -5.8944973    650.35465  0.039358185  0.039544093            4 
 1378000    1.0321937   -5.8701505    651.44301  0.039395441  0.039534576            3 
 1379000    1.0319903   -5.8931996    649.56126  0.039253158  0.039525329            5 
 1380000    1.0294335   -5.8904095     653.4325  0.039458485  0.039515914            6 
 1381000    1.0684569   -5.9117581    651.60962  0.039319914  0.039506572            7 
 1382000    1.0376957   -5.8654556    651.40618  0.039279196  0.039497087            6 
 1383000    1.0164536   -5.8836304    654.15707  0.039416551   0.03948763            4 
 1384000    1.0187063   -5.8993261    654.61215  0.039415472  0.039478349            4 
 1385000    1.0409542   -5.9111116    650.77403  0.039156079  0.039468994            4 
 1386000    1.0336073   -5.8918097    653.64035  0.039300165  0.039459665            4 
 1387000    1.0125449   -5.8672145    654.02888  0.039295174   0.03945042            4 
 1388000    1.0373939   -5.8483115    656.17748  0.039395862  0.039441205            3 
 1389000    1.0210249   -5.8839824    655.43734  0.039323095  0.039431994            5 
 1390000    1.0409677   -5.8996091    655.59677  0.039304363  0.039422894            3 
 1391000    1.0183148   -5.8970171    654.99588  0.039240108  0.039413975            4 
 1392000    1.0412221   -5.8667961    655.93789  0.039268312  0.039404847            3 
 1393000    1.0188889   -5.8968703    655.68441  0.039224959  0.039395539            8 
 1394000    1.0493725   -5.9239285    654.42812  0.039121719  0.039386321            2 
 1395000    1.0173898    -5.886603    656.40772  0.039211931  0.039377125            5 
 1396000    1.0253863   -5.8891489    656.62788  0.039196984  0.039367962            2 
 1397000    1.0522018   -5.9293815    656.99255   0.03919068  0.039358776            5 
 1398000    1.0217412   -5.8872585    657.97555  0.039221242  0.039349583            5 
 1399000    1.0390262   -5.9298651    657.51809  0.039165957   0.03934025            3 
 1400000    1.0333911   -5.8685427    659.74121   0.03927031  0.039331172            5 
 1401000    1.0283278   -5.8779826    659.86309   0.03924953  0.039322297            4 
 1402000    1.0177678   -5.8573346     662.9025  0.039402193  0.039313544            4 
 1403000    1.0215753   -5.9053685    660.87243   0.03925353  0.039304649            2 
 1404000    1.0213869   -5.9051803    660.83231   0.03922319  0.039295541            4 
 1405000    1.0354795   -5.8774892    659.04914   0.03908951  0.039286445            7 
 1406000    1.0174127    -5.912811    658.42056  0.039024453  0.039277405            4 
 1407000    1.0326224   -5.9075172    660.44708  0.039116742  0.039268487            5 
 1408000    1.0292958   -5.9208836    661.07334  0.039126026  0.039259253            2 
 1409000    1.0338262   -5.8990735     662.5689   0.03918671  0.039250362            3 
 1410000     1.021114   -5.9153755    661.86521  0.039117329  0.039241411            3 
 1411000    1.0168116   -5.8765433    662.68327   0.03913792  0.039232538            2 
 1412000     1.056738   -5.8616581    662.92503   0.03912447  0.039223866            5 
 1413000     1.031094   -5.8956301    663.38373  0.039123834  0.039215149            4 
 1414000    1.0151556   -5.9803249    660.63737   0.03893431  0.039206406            2 
 1415000    1.0308489   -5.9117297    663.04309  0.039048474  0.039197517            2 
 1416000    1.0433724   -5.8984415    667.27122  0.039269728  0.039188814            4 
 1417000    1.0437989   -5.8999058    667.58785  0.039260636      0.03918            2 
 1418000    1.0262905   -5.9057944    666.50555  0.039169344  0.039171259            3 
 1419000    1.0117005    -5.877078    666.56708  0.039145354  0.039162582            2 
 1420000    1.0222084   -5.8912661    668.34054  0.039221862   0.03915406            3 
 1421000    1.0326306   -5.9221147    668.61132  0.039210141  0.039145497            6 
 1422000     1.013638   -5.9039288     668.6352  0.039183966  0.039137058            2 
 1423000    1.0181754   -5.9397112    666.87754  0.039053498  0.039128542            4 
 1424000    1.0264085    -5.894936    669.79495  0.039196802  0.039120088            4 
 1425000    1.0285022   -5.8937412    671.28331  0.039256334  0.039111783            4 
 1426000    1.0588176    -5.928987    668.70733  0.039078268  0.039103417            3 
 1427000    1.0174333    -5.888687    673.52752  0.039332371  0.039095306            2 
 1428000    1.0284602   -5.8950375    671.63642  0.039194469   0.03908706            2 
 1429000    1.0057328   -5.8664661     672.0232  0.039189596   0.03907873            4 
 1430000    1.0333811   -5.8438772    672.53026   0.03919174  0.039070514            8 
 1431000    1.0285505     -5.89445    674.15521   0.03925898  0.039062638            2 
 1432000    1.0243224   -5.9285057    670.33394  0.039009191  0.039054403            7 
 1433000    1.0260575   -5.9094841     673.3855  0.039159426  0.039046251            5 
 1434000    1.0334652   -5.9037224     674.7201  0.039209676   0.03903829            4 
 1435000    1.0336343   -5.9308947    674.56258  0.039173204  0.039030415            3 
 1436000    1.0318536   -5.9262166     673.9432  0.039109981  0.039022505            2 
 1437000   0.99060429   -5.8914175    676.59493  0.039236542  0.039014621            3 
 1438000    1.0286881   -5.9389609    674.26526   0.03907425  0.039006795            3 
 1439000     1.020515   -5.9375679    671.77015  0.038902603  0.038998663            3 
 1440000    1.0165716    -5.906695    676.08255  0.039125148  0.038990664            2 
 1441000    1.0295843   -5.9498268    675.78659  0.039080881  0.038982666            4 
 1442000    1.0640294   -5.9395607    678.12817  0.039189099  0.038974524            3 
 1443000    1.0309955   -5.9184992    677.84932  0.039145838  0.038966335            4 
 1444000   0.99109788   -5.8582155    681.87288  0.039350928  0.038958448            4 
 1445000    1.0218768   -5.9249255     676.9496  0.039039769  0.038950539            3 
 1446000    1.0017959   -5.9053455    679.57716  0.039164198  0.038942573            6 
 1447000    1.0187784   -5.9539426    678.88618  0.039097338  0.038934613            8 
 1448000    1.0213671    -5.928585    677.79248  0.039007394  0.038926658            2 
 1449000    1.0282275   -5.9416644    679.06775  0.039053816  0.038918626            2 
 1450000    1.0316699   -5.9138533    679.56794  0.039055629   0.03891089            5 
 1451000    1.0091432     -5.94736    679.64541  0.039033162  0.038903154            4 
 1452000    1.0198126   -5.9358971    680.32692  0.039045392  0.038895386            4 
 1453000    1.0169602   -5.9265255    680.17572  0.039009848  0.038887214            5 
 1454000    1.0266542   -5.9051912    681.55725  0.039062199  0.038879421            4 
 1455000     1.017613   -5.8932463    683.83683  0.039165912  0.038871369            4 
 1456000    1.0318086   -5.9532914    678.63659   0.03884138  0.038863073            3 
 1457000    1.0334978   -5.8688147    683.96656   0.03911957  0.038854989            4 
 1458000    1.0586193   -5.9597914    676.86659  0.038686933  0.038846601            5 
 1459000    1.0154055     -5.95703    679.16024  0.038791423    0.0388381            3 
 1460000    1.0332362   -5.9433072    679.63421  0.038791907  0.038829415            2 
 1461000    1.0185122   -5.9301335    682.87967  0.038950472  0.038821033            3 
 1462000     1.024688   -5.9192991    680.93745  0.038813124  0.038812654            5 
 1463000    1.0149942   -5.9736235    680.01798  0.038734221  0.038804045            4 
 1464000    1.0026437   -5.9170912     682.0617  0.038824095  0.038795619            3 
 1465000     1.022466   -5.9598412    682.79633  0.038839382  0.038787299            3 
 1466000    1.0165732   -5.9430941    683.22769  0.038837408  0.038778851            9 
 1467000    1.0469351   -5.9252697    682.59532  0.038775012  0.038770224            4 
 1468000    1.0150371   -5.9012636      684.175  0.038838272  0.038761722            5 
 1469000    1.0277711   -5.9631518    680.29115  0.038591511  0.038753119            5 
 1470000    1.0294998   -5.9298041    682.32313   0.03868045   0.03874448            3 
 1471000    1.0193971   -5.9786487    681.60678  0.038613572  0.038735622            8 
 1472000    1.0200365   -5.8752598    686.36241  0.038856567  0.038727256            3 
 1473000    1.0508956   -5.9316322    684.19881  0.038707785  0.038718922            1 
 1474000    1.0081127   -5.9217576    684.33454  0.038689198  0.038710486            8 
 1475000      1.03793   -5.9623783    683.89109  0.038637915  0.038702068            6 
 1476000    1.0009637   -5.9429794    685.07836  0.038678769  0.038693599            2 
 1477000    1.0148441    -5.925257    683.57294  0.038567645  0.038684817            3 
 1478000    1.0220534   -5.9661045    683.20317  0.038520702  0.038676008            4 
 1479000    1.0044622   -5.9432851     684.1989  0.038550761  0.038667242            9 
 1480000    1.0299665   -5.9616383    686.38788  0.038647966  0.038658273            3 
 1481000    1.0132541   -5.9549285    683.92377  0.038483219  0.038649471            3 
 1482000    1.0126679   -5.9841229    685.52139  0.038547087  0.038640657            4 
 1483000    1.0116939   -5.9252055    687.20819  0.038615879  0.038631997            6 
 1484000    1.0102745   -5.9381254    688.55871  0.038665696  0.038623334            5 
 1485000    0.9963859   -5.9154761    689.06833  0.038668257  0.038614931           11 
 1486000    1.0147407   -5.9305342    689.57158  0.038670456  0.038606304            4 
 1487000    1.0057856   -5.9399527    688.01429  0.038557178  0.038597813            2 
 1488000    1.0148538    -5.935853     687.7132  0.038514404  0.038589452            4 
 1489000    1.0128403   -5.9137293    690.55558  0.038647615  0.038580651            5 
 1490000    1.0084232   -5.9411329    686.67562  0.038404677  0.038571817            5 
 1491000    1.0244144   -5.9641978    689.12873  0.038516026  0.038563009            3 
 1492000    1.0130577   -5.9194039    686.78747  0.038359443  0.038554094            2 
 1493000    1.0108149   -5.9451676     690.7538  0.038555135  0.038545167            3 
 1494000    1.0098547   -5.9125675    687.00452  0.038320199  0.038536204            6 
 1495000    1.0161535   -5.9250195    690.62717  0.038496498  0.038527205            4 
 1496000    1.0178704   -5.9261189     688.2578  0.038338781  0.038518373            6 
 1497000    1.0161579   -5.9470394    689.09774  0.038359927  0.038509403            4 
 1498000    1.0053688   -5.9310555    692.75528  0.038537788  0.038500465            3 
 1499000     1.026879   -5.9499193    688.06981  0.038251602  0.038491642            4 
 1500000    1.0154553   -5.9363067    692.26441  0.038459134  0.038482646            4 
 1501000    1.0360629   -5.9070649    691.82095  0.038408892  0.038473669            3 
 1502000    1.0086739   -5.9744418    688.48259  0.038198102  0.038464612            6 
 1503000   0.99548687   -5.9164869    691.89034  0.038361629  0.038455447            3 
 1504000    1.0213304   -5.9173823    690.87873  0.038280071   0.03844654            8 
 1505000    1.0200495   -5.9398142    692.07038  0.038320619  0.038437422            3 
 1506000    1.0151698   -5.9247798    691.20776  0.038247442  0.038428345            5 
 1507000    1.0192706   -5.9327937    693.06373  0.038324692  0.038419257            3 
 1508000    1.0150603   -5.9325419    692.90133  0.038290304  0.038410293            4 
 1509000     1.017104   -5.9229381    693.90468  0.038320338  0.038401287            3 
 1510000   0.99908896   -5.9452151    694.04286  0.038302586   0.03839228            6 
 1511000    1.0398977   -5.9224109    694.49531   0.03830219  0.038383202            6 
 1512000    1.0161599   -5.9537831     694.2362  0.038262577  0.038373954            4 
 1513000    1.0032121   -5.9646223    691.66248  0.038095532  0.038364831            7 
 1514000    1.0067876   -5.9307074    693.46736  0.038169714   0.03835574            4 
 1515000    1.0122357   -5.9393717    693.15831   0.03812752  0.038346594            3 
 1516000    1.0324326   -5.9531171    696.48883  0.038285446  0.038337176            3 
 1517000   0.98734345   -5.9385112    695.79597  0.038222147  0.038327906            3 
 1518000    1.0090448   -5.9405008    695.17205  0.038162717  0.038318829            4 
 1519000     1.017264   -5.9528843    694.91676  0.038123588  0.038309823            3 
 1520000    1.0160419   -5.9439015    696.02994  0.038159536  0.038300573            3 
 1521000    0.9705066   -5.9455613    696.78603  0.038175873  0.038291397            5 
 1522000    1.0227883   -5.9564101    696.42994  0.038131293  0.038282047            4 
 1523000   0.99052102   -5.9497979    696.86106  0.038129846  0.038272762            8 
 1524000    1.0007591   -5.9404138    697.80599  0.038156496   0.03826333            5 
 1525000      1.00476   -5.9591229    697.17517  0.038097004  0.038254161            2 
 1526000    1.0146303   -5.9351063     696.3926  0.038029303  0.038244883            6 
 1527000   0.98177268   -5.9854562    696.53884  0.038012379  0.038235388            4 
 1528000    1.0105705   -5.9643605    697.04526  0.038015121  0.038226099            3 
 1529000    1.0235019   -5.9430446    700.39935  0.038173063  0.038216869            5 
 1530000    1.0051553   -5.9773169    697.61789  0.037996617  0.038207721            4 
 1531000   0.98174429   -5.9709475    697.69589  0.037976044   0.03819834            3 
 1532000   0.99500735   -5.9815922    697.97005  0.037966169  0.038188936            7 
 1533000    1.0010722   -5.9746447    696.63199  0.037868667  0.038179467            6 
 1534000    1.0171479   -5.9047411    703.34317   0.03820856  0.038170221            5 
 1535000    1.0005453   -5.9320637    699.79755  0.037991181  0.038161229            5 
 1536000    1.0156728     -5.95713    700.48997  0.038004013  0.038151896            3 
 1537000   0.97914172   -5.9784052    698.37251  0.037864482  0.038142437            4 
 1538000    1.0013625   -5.9307527    701.32788  0.037999993  0.038133211            5 
 1539000   0.99327555    -5.931142    700.98933  0.037956971  0.038123879            4 
 1540000    1.0233073    -5.924645    701.67066  0.037969192  0.038114659            4 
 1541000    1.0078088   -5.9703691     701.4256    0.0379313  0.038105218            2 
 1542000    1.0160536   -5.9396391    702.32927  0.037955538  0.038095633            4 
 1543000    1.0070939   -5.9669067    700.28039  0.037820285  0.038086376            4 
 1544000   0.97980491   -5.9726961    702.13866  0.037896085  0.038077078            7 
 1545000   0.99706143   -5.9900679    701.49569  0.037836876  0.038067483            8 
 1546000    1.0074345   -5.9546796    702.23554  0.037852282  0.038057932            4 
 1547000    1.0076831   -5.9682677    701.89518   0.03780948   0.03804841            6 
 1548000   0.98028328   -5.9806388    701.39332  0.037758038  0.038038771            4 
 1549000    1.0052249   -5.9438285    701.54023  0.037741566  0.038028922            3 
 1550000   0.98690959   -5.9645594    705.14055  0.037910782  0.038019026            2 
 1551000   0.98428667   -5.9610718    701.62903   0.03769767   0.03800936            4 
 1552000    1.0124317   -6.0065247    702.12487  0.037700004  0.037999572            4 
 1553000    1.0017362   -5.9277829     705.6097  0.037862723   0.03798999            6 
 1554000    1.0062009   -5.9543952    704.83662  0.037796902  0.037980443           11 
 1555000    0.9983545    -5.937644    703.24458  0.037687276  0.037970901            2 
 1556000     0.986033   -5.9454998    704.02273  0.037704731  0.037961229            3 
 1557000    1.0083325   -5.9805145    703.35882  0.037644981   0.03795157            3 
 1558000   0.99979173   -5.9665724    704.56211  0.037685179  0.037941756            4 
 1559000    0.9961173   -5.9527451    703.37328   0.03759746  0.037932122            3 
 1560000    1.0060298   -5.9905329      704.949  0.037657532  0.037922443            3 
 1561000    1.0250724   -5.9308395    704.71759  0.037621054  0.037912874            2 
 1562000     1.011552   -5.9605225    707.07126  0.037722538  0.037903595            3 
 1563000     1.011367   -5.9486687    706.23243  0.037653681  0.037894032            2 
 1564000    1.0084758   -5.9684879    703.88979  0.037504784  0.037884126            3 
 1565000    1.0188884   -5.9501673    705.96654  0.037591402  0.037874198            5 
 1566000   0.99076819   -5.9710783    706.43255  0.037592196  0.037864436            3 
 1567000    1.0092571   -5.9476678    705.91615  0.037540744  0.037854788            4 
 1568000    1.0125842   -5.9413486    707.92808  0.037623729  0.037845062            5 
 1569000   0.98756142   -5.9485208    709.16795  0.037665602  0.037835348            4 
 1570000    1.0239317   -5.9806181     704.3941  0.037388222   0.03782543            4 
 1571000   0.98866998   -5.9696413    705.65231  0.037431164  0.037815403            5 
 1572000   0.99847271   -5.9565961    705.47439  0.037397921  0.037805683            4 
 1573000   0.99123018   -5.9829947    709.38428  0.037581282  0.037795799           12 
 1574000    1.0089974   -5.9741571    708.34948  0.037502619  0.037786142            4 
 1575000   0.99453945   -5.9638274    709.03831  0.037515254  0.037776699            7 
 1576000   0.99364948   -5.9741778    709.48656  0.037515152   0.03776718            2 
 1577000    1.0068136   -5.9734509    709.14522  0.037473326  0.037757576            3 
 1578000    1.0094263   -5.9792171    708.40783  0.037410638  0.037747915            3 
 1579000   0.99737063   -5.9569738    709.98319  0.037470086  0.037738131            6 
 1580000   0.99943847   -5.9487901    712.10978  0.037558532  0.037728481            7 
 1581000   0.99093102   -5.9682656    711.14748  0.037484054  0.037718955            3 
 1582000   0.98958048    -5.961822    711.24928  0.037465723   0.03770927            6 
 1583000    1.0085972   -5.9696152    714.25688  0.037600383  0.037699898            4 
 1584000    1.0156787   -5.9784511    710.53951  0.037381077  0.037690346            3 
 1585000    1.0141089   -6.0063537    711.43019  0.037404321  0.037680635            4 
 1586000   0.98377733   -5.9831437    712.74892  0.037450028  0.037671112            6 
 1587000     1.016776   -5.9348368    715.85676  0.037589622  0.037661697            7 
 1588000    1.0296737   -5.9832171    714.68593  0.037504509  0.037652332            2 
 1589000   0.99867238   -5.9781439    713.38853  0.037412866  0.037642902            5 
 1590000   0.99611915   -5.9872534    712.47563   0.03734149  0.037633201            6 
 1591000   0.98639829   -5.9275195    716.24614  0.037515511  0.037623657            7 
 1592000    1.0102197   -5.9996637    712.25852  0.037283214  0.037614079            3 
 1593000   0.98693633   -6.0058419    713.25688  0.037312036  0.037604447            4 
 1594000   0.99630018   -5.9719551    714.62022  0.037359903  0.037594841            4 
 1595000    1.0049296   -6.0001091    713.58456   0.03728237  0.037585177            5 
 1596000   0.98306886    -5.949703    717.94501  0.037486686  0.037575711           12 
 1597000   0.99507834     -5.96507    714.98599  0.037308808   0.03756619            2 
 1598000   0.99692724   -6.0144409    716.37885  0.037358096  0.037556736            6 
 1599000   0.98775319   -5.9953037    715.26384  0.037276623  0.037547085            4 
 1600000   0.99747937   -5.9724634    717.08236   0.03734804  0.037537609            6 
 1601000   0.98163413   -5.9832038    717.46289  0.037344519  0.037527913            3 
 1602000   0.98798071   -6.0065332    717.55374  0.037325933  0.037518521            5 
 1603000    1.0234695    -5.981492    717.05543  0.037276743  0.037508997            3 
 1604000   0.96600488   -5.9830913    716.84115  0.037242371  0.037499449            4 
 1605000    1.0004041   -6.0020337    717.56642  0.037256824  0.037490139            3 
 1606000    0.9901506   -5.9626252    720.29586  0.037375252  0.037480631            5 
 1607000   0.99434254   -5.9904068    716.37268  0.037148552  0.037471232            4 
 1608000   0.98676103   -5.9901399    717.12052  0.037164206  0.037461828            4 
 1609000   0.99271868    -5.957813    717.97429  0.037185327  0.037452188            3 
 1610000    1.0018589   -5.9720127    718.46804  0.037187787  0.037442535            4 
 1611000   0.98194972   -5.9891673    720.22698  0.037255689  0.037432868            1 
 1612000   0.99957819   -5.9944882    719.15951  0.037177394  0.037423453            5 
 1613000    1.0095362   -5.9631711    720.02491  0.037199055  0.037413951            3 
 1614000    1.0176824   -5.9712855    718.66644  0.037105867   0.03740433            2 
 1615000   0.98475764   -5.9531635    721.93808  0.037251707   0.03739465            4 
 1616000    1.0000065   -6.0046478    719.94623   0.03712594  0.037384778            4 
 1617000   0.98741547    -5.945169    720.25663  0.037118977  0.037374936            4 
 1618000     1.011188   -5.9838671    719.99386  0.037082502  0.037365163            5 
 1619000    1.0008383   -5.9730683    719.75777  0.037047446  0.037355288            5 
 1620000   0.99291671   -5.9768109    720.59583  0.037067687  0.037345525            3 
 1621000   0.99203365   -5.9568034    723.23515  0.037180503  0.037335648            7 
 1622000    1.0002052   -5.9852304    722.39514  0.037114424  0.037325895            5 
 1623000    1.0090299   -6.0071999    720.47661  0.036993048  0.037316041            3 
 1624000   0.99806206   -5.9708885    720.25763  0.036959033  0.037306109            3 
 1625000   0.98169078   -5.9782511    721.66598  0.037008512  0.037296227            2 
 1626000    1.0225985   -5.9483527    722.61472  0.037034375  0.037286604            5 
 1627000   0.98730269   -5.9926225    720.96262  0.036926993  0.037276973            2 
 1628000    0.9860486   -5.9985064    723.02961  0.037010115  0.037266921            5 
 1629000     1.001671   -5.9914174    722.05827  0.036937706   0.03725717            6 
 1630000   0.99302868   -5.9995634    723.33465  0.036980299  0.037247329            3 
 1631000   0.97923066   -6.0446135    724.17458  0.037000541  0.037237545            5 
 1632000   0.99131693   -5.9738811    724.79291  0.037009442  0.037227809            2 
 1633000   0.98888084   -6.0099184    722.40938  0.036865145  0.037218137            6 
 1634000   0.99031964   -5.9718662    726.44868  0.037048586  0.037208341            3 
 1635000   0.99684738   -6.0433255     723.4194  0.036871529  0.037198664            3 
 1636000   0.98307382   -6.0202144    722.45058  0.036799642  0.037188811            3 
 1637000   0.99256849   -6.0021229    722.95658  0.036802921  0.037179247            4 
 1638000   0.99582407   -6.0453352    723.95113  0.036831051   0.03716969            6 
 1639000   0.99631146   -5.9721347    727.85516  0.037007076  0.037160158           10 
 1640000    1.0009607   -6.0128765     727.0915  0.036945706  0.037150814            2 
 1641000    0.9781084   -6.0146654    726.47654  0.036891963  0.037141425            5 
 1642000   0.98925129   -5.9917064    730.19996  0.037058463  0.037131887            5 
 1643000   0.97661494   -6.0042681    726.11197  0.036828564  0.037122312            3 
 1644000   0.97478648    -5.979548     728.8063  0.036942736  0.037112773            4 
 1645000    1.0085203   -5.9981966    728.37755  0.036898559  0.037103207            3 
 1646000   0.99286318   -6.0076089    728.19511  0.036866905  0.037093477            7 
 1647000    0.9950117   -5.9967994    726.53623  0.036760586  0.037083815            5 
 1648000   0.99665031   -5.9700484    727.48902  0.036786459  0.037074219            5 
 1649000   0.98180216   -5.9693942     728.8341  0.036832125  0.037064784            6 
 1650000   0.99629994    -6.006177    727.58751  0.036746844  0.037055466            3 
 1651000    0.9740614   -5.9806243    732.40955  0.036967976  0.037045951            5 
 1652000    1.0055157   -5.9751619    733.24115  0.036987548  0.037036451            3 
 1653000   0.96612747   -5.9970816     728.7357  0.036738037  0.037026977            3 
 1654000    0.9894175   -5.9769809    730.73034  0.036816321  0.037017472            3 
 1655000   0.98370756   -6.0723802    727.02334  0.036607419  0.037007875            4 
 1656000   0.99974342   -5.9930086    731.31612  0.036801335  0.036998171            5 
 1657000   0.99915124   -6.0274181    729.37991   0.03668175  0.036988687            3 
 1658000   0.99172072   -6.0067162    731.83606  0.036783075  0.036979188            7 
 1659000   0.98282674   -6.0075681    732.29808  0.036784111   0.03696973            4 
 1660000   0.97734666   -5.9905146    731.72494   0.03673318  0.036960307            3 
 1661000   0.97884653   -5.9984072    733.45587  0.036797906  0.036950849           18 
 1662000   0.97618332   -6.0247415    733.76362  0.036791196  0.036941144            5 
 1663000   0.98041759    -6.017843    732.47895  0.036704698  0.036931566            2 
 1664000   0.99246501   -5.9738521    734.47099  0.036782402  0.036922093            4 
 1665000    1.0044742   -6.0530243    731.31321  0.036602263  0.036912579            7 
 1666000   0.97689471   -6.0169587    734.03786   0.03671658  0.036903066            4 
 1667000    1.0073363    -6.002514    735.51447   0.03676837   0.03689357            6 
 1668000     0.965905    -6.020247    734.70228  0.036705749  0.036883992            4 
 1669000    0.9941531   -6.0140888    733.36368   0.03661692  0.036874437            3 
 1670000   0.97024278    -5.961534    735.06265  0.036679773  0.036865074            6 
 1671000   0.96731235   -5.9883401    737.37113  0.036772947  0.036855769            5 
 1672000   0.99047581   -5.9689508    734.07838  0.036586841   0.03684627            8 
 1673000   0.98439406   -5.9883394    735.33281  0.036627456  0.036836794            3 
 1674000   0.97318642    -6.010658    735.43909  0.036610866  0.036827117            3 
 1675000   0.98847227   -6.0147533    731.87844  0.036411863  0.036817556            2 
 1676000   0.97929825   -5.9880461    736.23231  0.036606618  0.036808127            4 
 1677000   0.98732596   -6.0032932    738.08506  0.036676856  0.036798779            2 
 1678000   0.98398545   -6.0138225    738.10378  0.036655928  0.036789439           11 
 1679000    1.0069695   -5.9840713    739.75231  0.036715918  0.036780126            3 
 1680000    0.9637887    -6.038188    737.79469  0.036596959  0.036770802            6 
 1681000   0.97218378   -6.0237986    737.29362  0.036550348  0.036761346            2 
 1682000   0.97991035   -6.0384165    739.60755   0.03664326  0.036751936            4 
 1683000   0.98525551   -5.9976391    739.62511  0.036622356  0.036742592            3 
 1684000    1.0039357   -5.9911358    741.01239  0.036669259  0.036733353            7 
 1685000   0.98051421   -5.9902392    738.85696  0.036540898  0.036724361            2 
 1686000   0.96450562   -6.0219355    739.97749  0.036574609  0.036715324            5 
 1687000   0.97563421    -6.013407    739.55544  0.036532081  0.036706165            2 
 1688000   0.99449267   -5.9567744    742.41418  0.036651569  0.036696858            3 
 1689000   0.97414831   -6.0112354    741.36606  0.036578156  0.036687891            4 
 1690000   0.97667039   -6.0001717    743.54163  0.036663788  0.036678931            3 
 1691000   0.98040655   -6.0027772    740.92197  0.036513009  0.036669837            7 
 1692000    0.9572706   -5.9690892    743.40837  0.036613887  0.036660623            5 
 1693000   0.98507619   -6.0037973    741.47909  0.036497297  0.036651481            9 
 1694000   0.97657614   -6.0445044    739.76828  0.036391592  0.036642316            5 
 1695000     1.001299   -5.9853911    744.77801  0.036616421  0.036633179            4 
 1696000   0.99674542   -6.0214715    744.83163  0.036597466  0.036624201            3 
 1697000   0.99352514   -6.0196356    744.80001  0.036574347  0.036615124            2 
 1698000   0.98516682   -6.0514376    741.25333  0.036378746  0.036606139            7 
 1699000   0.97922478   -5.9943105    743.72638  0.036478633  0.036596957            5 
 1700000   0.98342898   -5.9981898      745.555  0.036546814  0.036587742            4 
 1701000   0.97885454   -6.0173874    743.89865  0.036444182  0.036578432            5 
 1702000   0.98544569   -6.0201343    743.51672   0.03640407  0.036569112            4 
 1703000   0.96463234   -6.0330467    743.57083  0.036385341  0.036559746            6 
 1704000   0.98392403   -6.0042995    743.37744  0.036354531  0.036550357            4 
 1705000    0.9711504   -5.9959102     744.8233  0.036403876  0.036541127            3 
 1706000   0.98874274   -6.0474392     743.5238   0.03631906  0.036531768            5 
 1707000   0.96927774   -6.0305868    744.61006  0.036350813  0.036522408            5 
 1708000   0.99528858   -6.0403503    744.78206  0.036337923  0.036513069            5 
 1709000   0.98970973   -6.0095003    744.31412  0.036293842  0.036503614            5 
 1710000   0.98371205   -6.0341223     744.1848  0.036266316  0.036494179            7 
 1711000   0.98233975   -6.0407571    746.10593  0.036338687   0.03648473            3 
 1712000   0.96896452   -6.0702253    744.65644  0.036246906  0.036475361            9 
 1713000    0.9624283   -6.0308629    747.42086  0.036360228  0.036466051            3 
 1714000   0.96874673   -6.0357759    746.45541  0.036292076    0.0364567            3 
 1715000   0.96821084   -6.0239972    748.17507  0.036354474  0.036447251            6 
 1716000   0.98745873   -5.9907545    749.54533  0.036399831  0.036437797            6 
 1717000   0.97980019   -5.9749811    751.08733  0.036453471  0.036428583            3 
 1718000   0.98770972    -5.993203    748.65762  0.036314397  0.036419322            3 
 1719000   0.98460058   -6.0247851    748.88349  0.036304222  0.036410088            9 
 1720000   0.98662507   -6.0292959    748.21939  0.036250939  0.036400733            4 
 1721000   0.97275371    -6.042289    745.26696  0.036086915  0.036391334            5 
 1722000   0.97232348   -6.0295522    748.50108  0.036222468  0.036381991            4 
 1723000    0.9998711   -5.9877292    750.66205  0.036305961  0.036372802            4 
 1724000    0.9857434   -6.0329265    748.89177  0.036199331  0.036363546           12 
 1725000   0.97406519   -5.9910819    752.32729  0.036344313  0.036354443            4 
 1726000   0.98437064   -6.0241362    749.82804   0.03620259  0.036345218            6 
 1727000   0.97667547   -6.0206373    752.22315  0.036297199  0.036336024            4 
 1728000   0.98044518   -6.0053297    751.90876  0.036261032  0.036326889            4 
 1729000   0.98743882   -6.0294674    748.87069  0.036093633  0.036317724            2 
 1730000   0.96450831   -6.0346203    748.64778  0.036062032  0.036308375            5 
 1731000   0.97784494   -6.0507594    750.22948  0.036117344  0.036298919            4 
 1732000   0.97291988   -6.0456791    748.97794  0.036036275   0.03628953            5 
 1733000   0.97973145   -6.0095347    752.10699  0.036165945   0.03628016            5 
 1734000   0.96752552   -6.0348129    749.75506  0.036032058  0.036270635            5 
 1735000   0.98987952    -6.012158    751.78267  0.036108678  0.036260934            4 
 1736000   0.98080374   -6.0448964    750.20926  0.036012349  0.036251298            4 
 1737000   0.96118965   -6.0215727    749.13072  0.035939873  0.036241757            4 
 1738000   0.97966551   -6.0207854     753.6281  0.036134834  0.036232282            2 
 1739000   0.96979444   -6.0482534    751.70559  0.036021928  0.036222864            3 
 1740000   0.97572587   -6.0023762    754.11393  0.036116568  0.036213283            5 
 1741000   0.97470879   -6.0511746    751.77626   0.03598393  0.036203868            5 
 1742000    0.9718871   -6.0510755    753.79453  0.036059822  0.036194337            4 
 1743000   0.96175091   -6.0351872    754.19847  0.036058447  0.036184782            5 
 1744000   0.97988935   -6.0377995    753.58221  0.036008324   0.03617526            4 
 1745000   0.98321666   -6.0269461    751.40161  0.035883553  0.036165758            6 
 1746000   0.95875893   -5.9973788     753.8781    0.0359812  0.036156293            4 
 1747000   0.95981794   -6.0198099    752.17959  0.035879584  0.036146822            5 
 1748000   0.96887722   -6.0128627     757.3883  0.036107375  0.036137338            4 
 1749000   0.98138584   -6.0591588    752.85118  0.035870554  0.036127769            3 
 1750000   0.98068628   -6.0253986    755.41842  0.035972306  0.036118187            9 
 1751000   0.97907739   -6.0444568    754.98565  0.035931165  0.036108606            3 
 1752000   0.97337953   -6.0175422    753.50258  0.035840115  0.036098976            2 
 1753000   0.99450314   -6.0202896    756.89027  0.035980713  0.036089564            4 
 1754000    0.9803412   -6.0478161    752.88388  0.035769853  0.036080106            4 
 1755000   0.96848827   -6.0628397    756.00118  0.035897492  0.036070476            7 
 1756000   0.97591368   -6.0373763     757.7207  0.035958651  0.036060813            2 
 1757000   0.96464796   -6.0329468    757.10732  0.035909093  0.036051291            3 
 1758000   0.96322364    -6.059539    755.58903  0.035816696  0.036041853            6 
 1759000   0.94913089   -6.0269797    758.07736   0.03591422  0.036032414            6 
 1760000   0.96162332   -6.0357952    756.18566  0.035804245  0.036023089            5 
 1761000   0.97870694   -6.0157092    758.72522   0.03590409  0.036013692            4 
 1762000    0.9706026   -6.0786874    755.08309  0.035711459  0.036004083            5 
 1763000    0.9535015   -6.0351553    758.38791  0.035847415  0.035994643            5 
 1764000   0.98568874   -6.0487865    757.74014  0.035796492   0.03598517            5 
 1765000   0.96783154   -6.0265246    756.67345  0.035725847  0.035975661            3 
 1766000   0.98673811   -6.0495622    758.50927  0.035792246  0.035966145            5 
 1767000   0.96691714   -6.0010351    759.60911  0.035823859  0.035956675            3 
 1768000   0.97463442   -6.0676851    759.01778  0.035775725  0.035947145            8 
 1769000   0.97766612   -6.0256236    758.85567  0.035747865  0.035937433            5 
 1770000    1.0039907   -6.0355524    758.41162  0.035706762  0.035927793            6 
 1771000   0.93866333   -6.0196622    760.03895  0.035763173  0.035918231            3 
 1772000   0.96111534   -6.0455691     760.5981  0.035769286  0.035908544            4 
 1773000   0.98275149   -6.0321093    759.12779  0.035680005  0.035898798           13 
 1774000    0.9763118   -6.0713301    758.80017  0.035644502  0.035889088            4 
 1775000   0.95120122    -6.055573    758.79127  0.035624003  0.035879255           15 
 1776000   0.96539515    -6.038769    758.17091  0.035574836  0.035869471            7 
 1777000   0.99866704   -6.0438276    757.94585  0.035544262  0.035859831            4 
 1778000   0.97309843   -6.0275544    761.64889  0.035697829    0.0358501            3 
 1779000   0.98091536    -6.067681    758.06182  0.035509735  0.035840534            5 
 1780000   0.97324635   -6.0547752    761.71216  0.035660682   0.03583075            3 
 1781000   0.97513095   -6.0456402    759.15382  0.035520954  0.035821216            5 
 1782000   0.95696828   -6.0377518    761.64971  0.035617738    0.0358116            6 
 1783000    0.9598361   -6.0793473    758.66093  0.035458073  0.035801987            3 
 1784000   0.96447635   -6.0523298    761.31254  0.035562058  0.035792367            3 
 1785000   0.96490427   -6.0883053    761.97018  0.035572837  0.035782721            4 
 1786000   0.96283429   -6.0819162    762.70434  0.035587175  0.035773008            5 
 1787000    0.9468808   -6.0414445    762.97289  0.035579784  0.035763476            4 
 1788000   0.95171087   -6.0613407    761.73123  0.035502015  0.035753871            3 
 1789000   0.96753973   -6.0482924    764.47006  0.035609747  0.035744362            6 
 1790000   0.93945693   -6.0252447    762.93272  0.035518283  0.035734825            5 
 1791000   0.97154034   -6.0549745    761.86967  0.035448989  0.035725392            5 
 1792000   0.95153893   -6.0389088    763.82978  0.035520358  0.035715945            9 
 1793000     0.965025   -6.0595357    762.35055  0.035431797  0.035706378            3 
 1794000   0.96321203   -6.0517352    761.81008  0.035386942  0.035696761            2 
 1795000   0.96355863   -6.0879972    761.28021  0.035342628  0.035686953            2 
 1796000   0.96694254   -6.0067407    764.78991  0.035485798  0.035677227            2 
 1797000   0.95969017   -6.0571043    764.58577  0.035456584  0.035667605            3 
 1798000   0.96084115   -6.0754561    764.41062  0.035428746  0.035658172            4 
 1799000   0.96256731   -6.0508333    766.70525  0.035515344  0.035648686            7 
 1800000   0.94692801    -6.064905    766.40165  0.035481558  0.035639171            8 
 1801000   0.96953873    -6.057406    767.24482  0.035500871  0.035629624            4 
 1802000   0.96377099   -6.0051897    767.88371  0.035510715  0.035620275            5 
 1803000   0.94730179   -6.0659594    765.90535  0.035399582  0.035610812            3 
 1804000    0.9730391   -6.0525727    766.38256  0.035402003  0.035601199           13 
 1805000   0.95392051   -6.0654293    766.59851   0.03539236  0.035591644            5 
 1806000   0.96165722   -6.0393374    767.63913  0.035420779  0.035582174           10 
 1807000   0.94516655   -6.0453483    766.81487  0.035363165  0.035572691            3 
 1808000   0.97454826   -6.0455691     770.5041  0.035513648  0.035563255            5 
 1809000   0.94405871   -6.0629306    767.97477    0.0353775  0.035553941            8 
 1810000   0.94332188   -6.0418509    768.16567  0.035366744  0.035544499            6 
 1811000   0.96056766   -6.0924648    767.99405  0.035339318  0.035535049            3 
 1812000   0.94996377   -6.0445418    771.98146  0.035503195  0.035525531            4 
 1813000   0.93580163   -6.0931396    764.71898  0.035149797  0.035516117            3 
 1814000   0.96979457   -6.0615059    769.44315  0.035347444  0.035506677            4 
 1815000   0.93883512   -6.0673937    770.65442  0.035383582  0.035497319            3 
 1816000   0.97383828    -6.032804    773.58376  0.035498521  0.035488013            3 
 1817000    0.9404528    -6.055666    770.89639  0.035355732  0.035478744           10 
 1818000   0.96886275   -6.0437608    773.42653  0.035452261  0.035469405            3 
 1819000    0.9558516   -6.0859245    771.28019  0.035334441   0.03545991            3 
 1820000   0.95672155   -6.0784316     771.8803  0.035342504  0.035450516            5 
 1821000   0.98696531   -6.0766557    770.52069  0.035260877  0.035441137            3 
 1822000   0.94898661   -6.0641915    770.79618  0.035254125  0.035431791            5 
 1823000   0.95133584   -6.0571814    771.23147  0.035254684  0.035422401            7 
 1824000   0.93794771   -6.0735086    768.63719  0.035116831  0.035412696            4 
 1825000   0.96430976   -6.0267273    771.51407  0.035228953   0.03540304            4 
 1826000   0.95311551   -6.0750469    771.74103  0.035220018  0.035393484            3 
 1827000   0.97853005   -6.0771198    771.71159  0.035199398  0.035384054            2 
 1828000   0.95746301   -6.0922993    772.54435  0.035218105  0.035374513            4 
 1829000   0.94728286   -6.0611514    775.72647  0.035343834  0.035365047            5 
 1830000   0.94809167   -6.0559281     774.6559   0.03527577  0.035355667           11 
 1831000   0.96989705   -6.0713074    772.36621  0.035152294  0.035346257            4 
 1832000   0.96928793   -6.0888595    773.38657   0.03517952  0.035336689            7 
 1833000    0.9782872   -6.0379365    771.40896   0.03507042  0.035327154            2 
 1834000   0.97550977   -6.0402202    773.96957  0.035167647  0.035317576            2 
 1835000   0.95232396   -6.0375922    774.34188   0.03516539  0.035307903            6 
 1836000   0.95307552   -6.0837024    772.75298  0.035074118  0.035298269            3 
 1837000    0.9521526    -6.060228    772.80006  0.035057161  0.035288582            5 
 1838000   0.97004195   -6.1062539    771.41032  0.034975078  0.035278889            7 
 1839000   0.93419677   -6.0727421    772.80494  0.035019256  0.035269073           10 
 1840000   0.94143434   -6.0562193    775.25842  0.035111342  0.035259374            3 
 1841000   0.96974656   -6.0710551     771.4231  0.034918663  0.035249829           10 
 1842000   0.96531965   -6.0901059    772.53741  0.034950118  0.035240143            3 
 1843000   0.95640068   -6.0680679    776.04246  0.035089639  0.035230616            7 
 1844000   0.97187101   -6.0742416    775.02623  0.035024685  0.035221064           10 
 1845000   0.96543882   -6.0555773    774.63186  0.034987889  0.035211579            9 
 1846000   0.95834473   -6.0492332    774.94656  0.034983142  0.035202037            9 
 1847000   0.93679432   -6.0710446    775.82198  0.035003699  0.035192447            2 
 1848000   0.96245854   -6.0959976    775.86572   0.03498673   0.03518305            2 
 1849000   0.96827757   -6.0288862    780.22603  0.035164324  0.035173564            2 
 1850000   0.97289657   -6.1162028    776.43809  0.034974689  0.035164175            4 
 1851000   0.93986742   -6.0887211    778.64599  0.035055195  0.035154796            4 
 1852000   0.94926313   -6.1003715    777.84732  0.035000329  0.035145544            8 
 1853000   0.96845253    -6.054717    780.99482  0.035122991  0.035136224            6 
 1854000   0.96231026   -6.0694654    780.94839  0.035101959  0.035126869            3 
 1855000   0.95094666    -6.110732    778.05187  0.034952914  0.035117518            3 
 1856000   0.95579924    -6.052627    778.23117  0.034942132  0.035107966            2 
 1857000   0.98316144   -6.0709717    778.86952  0.034951962  0.035098623            3 
 1858000   0.95677391   -6.0613175    779.30243  0.034952567  0.035089025            5 
 1859000   0.96015081   -6.0813663    779.37798  0.034937152  0.035079539           11 
 1860000   0.94861742   -6.0575633    778.56179  0.034881801  0.035070205            4 
 1861000   0.93765011   -6.1139108    775.81902  0.034740239  0.035060626            3 
 1862000   0.94690764   -6.0717048    777.49485  0.034796583  0.035051095            4 
 1863000   0.95992506   -6.0683571    783.27561  0.035036483  0.035041688            3 
 1864000   0.95527513   -6.0640514    780.11293  0.034876293  0.035032256            6 
 1865000   0.95917018   -6.0569398    782.77489  0.034976537  0.035022807            8 
 1866000   0.96320432   -6.0779557    780.65774  0.034863243  0.035013386            5 
 1867000   0.94845149   -6.1016185    783.40228  0.034967072  0.035004021            3 
 1868000   0.95553587   -6.1041214    777.57325  0.034688314  0.034994433            4 
 1869000   0.96293973   -6.0795089    783.56511  0.034936914  0.034985077            6 
 1870000   0.95119491   -6.0866245    782.75285  0.034882034  0.034975857            8 
 1871000   0.96397717   -6.0764931    781.36395   0.03480153  0.034966476           13 
 1872000   0.95562992   -6.0945774    782.04442  0.034813231  0.034957082            4 
 1873000   0.93906866   -6.0921805    783.82601   0.03487391  0.034947591            3 
 1874000   0.96289596   -6.0947823    783.56625   0.03484375   0.03493821            6 
 1875000   0.93591028   -6.0654284    783.84334  0.034837482  0.034928898            3 
 1876000   0.96924674   -6.0502803    788.54342  0.035027693  0.034919808            3 
 1877000    0.9699548   -6.0816669    784.53221  0.034830945  0.034910799            3 
 1878000   0.95718807   -6.0972016    782.66771  0.034729664  0.034901541            9 
 1879000   0.95465501   -6.0467098    786.78566  0.034893811  0.034892283            4 
 1880000   0.93753666   -6.0558563    784.47537  0.034772845  0.034883099            3 
 1881000   0.95328282   -6.0862849    784.96309  0.034775965  0.034873893            5 
 1882000   0.95700974   -6.0695142    786.63621  0.034831571  0.034864576            7 
 1883000   0.95538927     -6.10676    782.80414  0.034643483  0.034855185            9 
 1884000   0.94943833   -6.0809511    784.92699  0.034718993  0.034845894            4 
 1885000   0.94742254   -6.0663446    786.36594  0.034764188  0.034836517            6 
 1886000   0.96268778   -6.0723046    788.11255   0.03482293  0.034827376            6 
 1887000     0.939122   -6.1158521    786.17002   0.03471869  0.034818204            9 
 1888000     0.952006   -6.0453645    788.60975  0.034807987  0.034809038            2 
 1889000   0.94110169   -6.0970365    788.31964  0.034776762  0.034799918            6 
 1890000   0.93144391   -6.0873944    789.13727  0.034794412  0.034790833            5 
 1891000   0.96927577   -6.0835003    789.05217  0.034772262  0.034781782            3 
 1892000   0.98822961   -6.0809214     789.4185  0.034770018  0.034772685            8 
 1893000   0.94082441   -6.0985395    787.83152  0.034681789  0.034763528            4 
 1894000   0.94226558   -6.0692509    790.44385  0.034778417  0.034754256            4 
 1895000   0.93922243    -6.086863    790.87659  0.034779094  0.034745132            3 
 1896000   0.95322129   -6.0819478    786.79192   0.03458122  0.034735923            5 
 1897000   0.95258857   -6.0872103    788.58728  0.034641859  0.034726674            2 
 1898000   0.93513464   -6.0694348    788.59944  0.034624141  0.034717564            5 
 1899000    0.9374997   -6.0591131    791.02728  0.034712448   0.03470846            3 
 1900000   0.95910018   -6.0763076    791.06968  0.034696038  0.034699275            3 
 1901000    0.9462027   -6.0606816      791.503  0.034696782  0.034690229            5 
 1902000   0.94174358   -6.1227131    790.13537   0.03461862  0.034680986            5 
 1903000   0.96527861   -6.1008004    790.23084  0.034604608  0.034671706            5 
 1904000   0.96082737   -6.1127846    788.99982  0.034532555  0.034662461            3 
 1905000    0.9445835   -6.0990726     789.7109  0.034545534   0.03465317            4 
 1906000   0.94128002   -6.0648348    790.88081  0.034578559  0.034643969            6 
 1907000   0.95495364    -6.078355    790.67344  0.034551365  0.034634709           12 
 1908000   0.93590072   -6.1208778    790.82962  0.034540078  0.034625439            2 
 1909000    0.9486884   -6.1151933    787.13672  0.034360779  0.034616261            4 
 1910000   0.94419783   -6.0962994    792.81356   0.03459047  0.034606998            6 
 1911000   0.94426435   -6.1036512     790.5541   0.03447384  0.034597809            6 
 1912000   0.94633631   -6.0960453    791.15361  0.034481939  0.034588484            4 
 1913000   0.94180853   -6.0906115    792.95816  0.034542523  0.034579325            7 
 1914000   0.92723787   -6.0966885    790.97502  0.034438132  0.034570047            6 
 1915000    0.9334991   -6.1069669    792.25431  0.034475818  0.034560716            6 
 1916000    0.9495525   -6.1152513    791.06546  0.034406118  0.034551447            4 
 1917000   0.94303536   -6.0823703    794.97694  0.034558205  0.034542152            3 
 1918000    0.9396301   -6.1106189    791.69412  0.034397555  0.034533053            4 
 1919000   0.97148215   -6.0685298    794.21438  0.034489073  0.034523911            4 
 1920000   0.92923846   -6.1055388    793.66534   0.03444728  0.034514836            6 
 1921000   0.94517176   -6.0419815    796.65887  0.034559209  0.034505633            4 
 1922000   0.96335397   -6.1051034    793.93941  0.034423318  0.034496466            7 
 1923000   0.93631466     -6.13569    794.11488  0.034413021  0.034487288            3 
 1924000   0.96096288   -6.1005098    795.54642  0.034457139  0.034478041            3 
 1925000   0.95224925   -6.0907067    796.59737  0.034484735  0.034468926            6 
 1926000   0.94681056   -6.1279135    794.43456   0.03437325  0.034459729            7 
 1927000   0.94561326   -6.1076012    794.98043  0.034379019  0.034450605            5 
 1928000   0.92811762   -6.0799052    795.17586  0.034369635  0.034441413            9 
 1929000   0.92626259   -6.0680109    795.58021  0.034369285  0.034432179            3 
 1930000   0.93565495   -6.0999613     798.1064  0.034460553  0.034422908            2 
 1931000    0.9348933   -6.0970535    796.39472  0.034368838  0.034413775            6 
 1932000   0.94202797   -6.1063299    797.98189  0.034419509  0.034404548            4 
 1933000   0.91778826   -6.0924468    798.34752  0.034417465  0.034395315            2 
 1934000   0.94336791   -6.0828763    796.02677  0.034299671  0.034386189            4 
 1935000   0.94585854   -6.0859224    797.89557  0.034362428  0.034376993            3 
 1936000   0.93693055   -6.1110708    796.07832  0.034266457   0.03436777            7 
 1937000   0.92477238   -6.0782601    797.13405  0.034294185  0.034358407            5 
 1938000   0.94484078   -6.1387414    794.51225  0.034163753  0.034349012            3 
 1939000   0.94862955   -6.1041352    797.65544  0.034281221  0.034339661            7 
 1940000   0.94359617   -6.1211344    795.16777  0.034156691  0.034330299            4 
 1941000   0.96511758   -6.1305096     796.6233  0.034201584  0.034320879            5 
 1942000   0.92043292   -6.1418722    796.21101  0.034166281   0.03431153            4 
 1943000   0.95949192   -6.0835036    796.63282  0.034166788  0.034302182            6 
 1944000   0.95799892    -6.109686    798.95559  0.034248782  0.034292954            5 
 1945000   0.93192997   -6.1508101    795.92217  0.034101207  0.034283637            3 
 1946000   0.94835277    -6.096096    797.96239  0.034171051  0.034274247            6 
 1947000   0.92905779   -6.1382714    798.60822  0.034181143  0.034264908            5 
 1948000   0.93610961   -6.1114848    799.30219  0.034193283  0.034255562            3 
 1949000   0.94266082   -6.1309913    797.85817  0.034113997  0.034246301            4 
 1950000   0.93220126    -6.124181    799.35384   0.03416042  0.034237075            3 
 1951000   0.94762143   -6.0851597    801.26146  0.034224392  0.034227906            5 
 1952000    0.9308015   -6.0852688    800.19219   0.03416121  0.034218856            5 
 1953000    0.9469113   -6.0772896    800.44457  0.034154488  0.034209743            9 
 1954000   0.92898871     -6.11286    800.80458  0.034152362  0.034200547            4 
 1955000   0.93686085   -6.0903328    801.29492  0.034155794  0.034191377            4 
 1956000   0.95568084   -6.1097133    802.02057  0.034169247  0.034182344            3 
 1957000   0.94856688   -6.1012876    802.95001  0.034191365  0.034173323            6 
 1958000   0.97692396   -6.1203206      802.127  0.034138875  0.034164187            4 
 1959000   0.94021974   -6.0739359    805.72801   0.03427463  0.034155177            8 
 1960000   0.93119319    -6.128731    805.21051  0.034235141  0.034146108            3 
 1961000   0.94818991   -6.0961658    801.39214   0.03405542  0.034136917            7 
 1962000   0.94839613   -6.1155901    802.47698  0.034084139  0.034127824            4 
 1963000   0.92794819   -6.1020436    802.40261  0.034063619  0.034118662            4 
 1964000   0.95303899   -6.1430426    800.44372  0.033963158  0.034109408            7 
 1965000   0.93970727    -6.115588    803.02049  0.034055152  0.034100242            4 
 1966000   0.92927557   -6.1243794    800.92488  0.033949003  0.034090968            4 
 1967000   0.94883806   -6.1156335    801.36159  0.033950245  0.034081764           20 
 1968000   0.93796712   -6.1397447     800.7968  0.033909079  0.034072551            5 
 1969000   0.95714955   -6.1293602    802.53926  0.033965603  0.034063178            5 
 1970000   0.94843688   -6.1318072    803.13576  0.033973594  0.034053833            3 
 1971000   0.95300889    -6.082194    803.32979  0.033964561  0.034044593            5 
 1972000   0.93136698   -6.1162989     803.4789  0.033953638  0.034035459            4 
 1973000   0.94346192   -6.0897073    805.30979   0.03401376  0.034026249            7 
 1974000   0.92592649   -6.1090274    804.50449  0.033962533   0.03401711            4 
 1975000   0.92391922   -6.1413825    802.72788  0.033870375  0.034008028            4 
 1976000   0.97448703   -6.1655852    801.71336  0.033810449  0.033998734            3 
 1977000   0.93734795   -6.1208774    804.31307  0.033902928  0.033989451            5 
 1978000    0.9576004    -6.127935    804.48383  0.033892982  0.033980312            4 
 1979000   0.92713026   -6.1304546    806.77357  0.033972274   0.03397114            2 
 1980000   0.93202208   -6.1307501    805.83284  0.033915523  0.033961956            4 
 1981000   0.93908402   -6.1094534    807.52176   0.03396945  0.033952825            4 
 1982000   0.92044948   -6.1367133    805.79431   0.03387968  0.033943764           15 
 1983000   0.92605384   -6.1371767     808.1833   0.03396299  0.033934648            4 
 1984000   0.94823212   -6.1561724    804.73212  0.033800912  0.033925569            4 
 1985000   0.92126711   -6.1183206    808.21638  0.033930159  0.033916587            7 
 1986000   0.91007066   -6.1116245    809.21864  0.033955129  0.033907623            4 
 1987000    0.9374334   -6.1314146    809.80009  0.033962426   0.03389868            4 
 1988000   0.93026936   -6.1238081    806.61224  0.033811714   0.03388973            5 
 1989000   0.92541907   -6.1249189    808.27386  0.033864331  0.033880757            3 
 1990000   0.94504157   -6.1156476    810.54091  0.033942249  0.033871789            6 
 1991000   0.93452261   -6.1373191    809.63598  0.033887325  0.033862729           11 
 1992000   0.94671263   -6.1319761    808.33074   0.03381571  0.033853595            5 
 1993000   0.94044886   -6.1481245     807.5219  0.033764923  0.033844522            3 
 1994000   0.93676824   -6.1407415    807.61703  0.033751966  0.033835458            5 
 1995000   0.92275665   -6.1569855    809.59047   0.03381748  0.033826401            7 
 1996000   0.91840993   -6.1329844    810.32639  0.033831262  0.033817245            6 
 1997000   0.94604881   -6.1194752    809.01659  0.033759664  0.033808168            3 
 1998000   0.91622395   -6.1237412    811.11072   0.03383011  0.033798978            5 
 1999000   0.94153879   -6.1136718    809.84597  0.033760462  0.033789866            6 
 2000000    0.9236603   -6.1064014    809.79445  0.033741436   0.03378067            5 
 2001000   0.92766147   -6.1359788    807.86821  0.033644353  0.033771474            4 
 2002000   0.95291524   -6.1043223    810.85678  0.033751947  0.033762233            3 
 2003000   0.93984334    -6.099854    812.96746   0.03382291  0.033753096            5 
 2004000   0.93381233   -6.1058276    809.72883  0.033671359  0.033743888            6 
 2005000   0.92795576   -6.1231965     810.5647  0.033689306  0.033734618            6 
 2006000   0.90370173   -6.1889192     809.0079  0.033607839  0.033725341            8 
 2007000   0.90772929   -6.1379098    811.19344   0.03368184   0.03371602            6 
 2008000   0.94278467   -6.1500388    813.36028  0.033754992  0.033706858            5 
 2009000    0.9160433   -6.1441778    812.03166  0.033683078  0.033697836            5 
 2010000   0.93915707   -6.1410687    810.48876  0.033602353  0.033688704            3 
 2011000   0.92538167   -6.1319582     809.1405  0.033529774  0.033679667            6 
 2012000   0.93674738   -6.1211213    812.43248  0.033649456   0.03367056            2 
 2013000   0.92561896   -6.1538529    811.41124  0.033590464  0.033661467            7 
 2014000   0.94527809   -6.1271957     812.8672  0.033634028  0.033652461           14 
 2015000   0.91934124   -6.1282757    813.45909  0.033641815  0.033643508            5 
 2016000   0.91808533   -6.1182855    815.68372  0.033717085  0.033634641            4 
 2017000   0.90549707   -6.1288196    815.18974   0.03367996  0.033625793            6 
 2018000    0.9300919   -6.1175784    814.81505  0.033647797  0.033616912            7 
 2019000   0.92843587   -6.1473072    814.18174  0.033604992    0.0336079            6 
 2020000   0.94829638   -6.1320842    812.45579  0.033517153    0.0335989            6 
 2021000   0.91757742   -6.1713962    815.53681  0.033627611  0.033589801            7 
 2022000   0.93662494   -6.1514226    815.17972  0.033596263   0.03358072            4 
 2023000   0.92367247   -6.1164273    816.59292  0.033637869  0.033571911           10 
 2024000   0.93228886   -6.1456872     815.9432  0.033594499   0.03356294            4 
 2025000   0.91587031   -6.1265934     814.4281   0.03351556  0.033554039            8 
 2026000    0.9269709   -6.1345126    816.41145  0.033580596  0.033544984            5 
 2027000   0.93835409    -6.133549    814.35039  0.033479296  0.033536029            8 
 2028000   0.93059709   -6.1277589    817.24921  0.033581904  0.033527118            3 
 2029000   0.93544006   -6.1005359    821.01202  0.033719896  0.033518318            9 
 2030000   0.90523095   -6.1313823    818.55847  0.033602564  0.033509535           10 
 2031000   0.92630767   -6.1370436    819.53202  0.033625965  0.033500693            4 
 2032000    0.9064967   -6.1408965    816.65682  0.033491503  0.033491859            6 
 2033000   0.92650836   -6.1603267    817.85033  0.033523952   0.03348298            7 
 2034000   0.92327705   -6.1593262    820.08161  0.033598886  0.033474158            5 
 2035000   0.93231478   -6.1138423    820.12578  0.033584184  0.033465315            4 
 2036000    0.9363384   -6.1431587    819.53392  0.033543464  0.033456601            6 
 2037000   0.94173579   -6.1674363    816.89953  0.033419225  0.033447727            7 
 2038000   0.92861599   -6.1417203    818.19354  0.033455739  0.033438769            7 
 2039000   0.91121947   -6.1482888    817.80657  0.033423515  0.033429855            9 
 2040000   0.90766533   -6.1244793     818.9356  0.033453252   0.03342106            4 
 2041000   0.92719765   -6.1290048    818.32207  0.033411811  0.033412305            5 
 2042000   0.93033964   -6.1446839    817.61355  0.033366534  0.033403464            4 
 2043000   0.92778765   -6.1722523    819.45557  0.033425337  0.033394528            3 
 2044000   0.93697893    -6.154366    817.96953  0.033348399  0.033385591            6 
 2045000   0.93918154   -6.1333783    818.12252  0.033338326  0.033376611            4 
 2046000   0.93303898   -6.1485879    818.94634  0.033355586   0.03336771            4 
 2047000   0.94465595   -6.1619616    820.11522  0.033386876  0.033358811            3 
 2048000   0.93387974   -6.1602086      821.425  0.033423869  0.033349933            2 
 2049000   0.92020901   -6.1717959     818.8379  0.033302339  0.033340874            4 
 2050000   0.90844521   -6.1459088    819.24901  0.033302805  0.033331861            6 
 2051000    0.9240115   -6.1202677      822.819  0.033431619  0.033322958            5 
 2052000   0.93896734   -6.1030659     821.1306  0.033346759   0.03331408            3 
 2053000   0.92472871   -6.1143082    821.79927  0.033357658   0.03330533           11 
 2054000   0.92329055    -6.140545    819.81024   0.03326072  0.033296426            5 
 2055000   0.91010835   -6.1354247    822.75322  0.033363878  0.033287405            4 
 2056000   0.94075634   -6.1580846    822.08357  0.033320508  0.033278511            5 
 2057000   0.93882095   -6.1545766    822.01008  0.033301332  0.033269494            1 
 2058000   0.92291867    -6.145265    821.60559  0.033268772   0.03326045            4 
 2059000   0.91673832   -6.1462344     824.3462  0.033363534  0.033251523            4 
 2060000   0.93857045   -6.1747571    820.80739  0.033204182  0.033242534            8 
 2061000   0.93455724   -6.2001728    822.35766  0.033250754   0.03323345            8 
 2062000   0.91840764   -6.1363341    823.37546  0.033275762  0.033224477            6 
 2063000   0.93580376   -6.1983636    822.28834  0.033215719  0.033215466           10 
 2064000   0.92351814   -6.1456865    823.62472  0.033253582  0.033206407           12 
 2065000   0.93619031   -6.1665865    823.49599  0.033232284  0.033197465            4 
 2066000   0.93030506   -6.1675396    821.99168  0.033155521  0.033188426            9 
 2067000    0.9138063   -6.1670828    823.35703  0.033194526  0.033179395            5 
 2068000   0.89651408   -6.1804994    822.61131  0.033148425  0.033170291            4 
 2069000   0.93847232   -6.1579796    822.37328  0.033122816  0.033161148            5 
 2070000   0.93851866   -6.1254281    826.24376  0.033262631  0.033152168            4 
 2071000   0.91748202   -6.1455425     823.7011  0.033144258  0.033143369            4 
 2072000   0.90402206   -6.1647313    825.37025  0.033195393  0.033134461            8 
 2073000   0.92520904    -6.131112    823.83745  0.033117762  0.033125502            9 
 2074000   0.92988038    -6.169433    824.29289  0.033120094  0.033116639            6 
 2075000   0.91312452   -6.1493458    822.71762  0.033040868  0.033107683            8 
 2076000   0.89097895   -6.1789264    823.79002     0.033068  0.033098662            7 
 2077000   0.92378835   -6.1898801    824.12579  0.033065551  0.033089485            6 
 2078000   0.89910367   -6.1673654    826.18044  0.033132036  0.033080397            4 
 2079000   0.95029478   -6.1629292    826.79197  0.033140611  0.033071468            5 
 2080000   0.91661479   -6.1673153    824.96139  0.033051338  0.033062518            9 
 2081000   0.89420826    -6.180402    826.07529  0.033080061  0.033053494           11 
 2082000    0.9167679   -6.1745308    824.01308  0.032981632  0.033044461            5 
 2083000   0.92847096   -6.1740061    825.07243  0.033008178  0.033035501            7 
 2084000    0.9215333   -6.2037347    823.19161  0.032917131  0.033026497            7 
 2085000   0.91271901   -6.1832302    825.43154  0.032990869  0.033017468            5 
 2086000    0.8928624   -6.1507686    829.19101   0.03312524  0.033008709            6 
 2087000   0.93152005   -6.1845019    826.28796   0.03299345  0.032999971            3 
 2088000   0.91042052   -6.1266651    831.30283  0.033177795  0.032991188            6 
 2089000   0.92900076   -6.1772979    827.15937  0.032996624  0.032982312            5 
 2090000   0.91654652   -6.1612175    828.43346  0.033031637  0.032973377            7 
 2091000   0.91389474   -6.1545984    827.16239  0.032965184  0.032964456            7 
 2092000   0.89607699   -6.2020091    827.39859  0.032958835  0.032955471            8 
 2093000   0.91464634   -6.1441722    829.76863  0.033037452  0.032946556            5 
 2094000   0.93683612   -6.1454873    829.18449  0.032998428  0.032937815            5 
 2095000   0.93480603   -6.1586624    829.18626  0.032982747  0.032928892            6 
 2096000   0.92716536   -6.1594862    827.83547  0.032913306  0.032920034            5 
 2097000   0.92230152   -6.1640234    829.46503  0.032962368  0.032911081            5 
 2098000   0.90259074   -6.1696048    831.00169  0.033007693  0.032902194            6 
 2099000   0.91250545   -6.1413245    829.28488  0.032923808  0.032893479            3 
 2100000   0.92257855   -6.1470642    831.27581  0.032987135  0.032884765            4 
 2101000   0.90758937   -6.1470916    834.98714  0.033118639  0.032876085            4 
 2102000   0.90697958   -6.1781153    833.60922  0.033048256  0.032867406            4 
 2103000   0.91872702   -6.1532425    833.54286  0.033029912  0.032858767            7 
 2104000   0.91659439   -6.1427848    833.15656  0.032998913  0.032850184            6 
 2105000   0.90765512   -6.1674439    832.41559  0.032953903  0.032841537            4 
 2106000   0.93033436   -6.1649806    833.96998  0.032999762  0.032832844            4 
 2107000    0.9048233   -6.1942952    830.35967  0.032841309  0.032824087            4 
 2108000   0.91130228   -6.1585327    833.51887  0.032950619  0.032815241            2 
 2109000   0.94120443   -6.1612648    834.49165  0.032973433   0.03280663            7 
 2110000   0.92326567   -6.2053972    833.34579  0.032912551  0.032797946            2 
 2111000   0.90720825   -6.1415829     834.8453  0.032956154  0.032789288           10 
 2112000   0.92881555   -6.1989271    832.12298  0.032833135   0.03278075           10 
 2113000    0.9096383   -6.1598985    835.96292  0.032969038   0.03277214            8 
 2114000   0.89537727   -6.1828684    834.10792  0.032880319  0.032763537            4 
 2115000   0.92005164   -6.1536687     836.2785  0.032950295   0.03275492            2 
 2116000   0.88755942   -6.2010683    833.13419  0.032810893   0.03274625            4 
 2117000   0.89685039   -6.1989516    834.03526  0.032830864  0.032737616            4 
 2118000   0.91713042   -6.1702744    837.40177  0.032947819  0.032728899            7 
 2119000   0.88768034   -6.1905126    836.93981  0.032914103  0.032720341            3 
 2120000   0.91841845    -6.150567    835.85944   0.03285611  0.032711769            5 
 2121000   0.92402006   -6.1778496    835.97479  0.032845151  0.032703235            8 
 2122000   0.91640491   -6.2089905    833.50277  0.032732594  0.032694541            4 
 2123000   0.91667328   -6.1900058    832.93559  0.032694912  0.032685729            5 
 2124000   0.91612388   -6.1478037    836.21972   0.03280837  0.032676985            5 
 2125000   0.91500492   -6.1602807    835.89749  0.032780294  0.032668375            4 
 2126000   0.88757954   -6.1810498    836.34584  0.032782449  0.032659717           14 
 2127000   0.90717173   -6.1600337    837.78519  0.032823429  0.032651099            4 
 2128000   0.89601478   -6.1990764    835.35206  0.032712721  0.032642467           10 
 2129000   0.88985175   -6.1557619    839.62767  0.032864712  0.032633814            5 
 2130000   0.90822092   -6.1669872    836.57045  0.032729673  0.032625306            4 
 2131000   0.91023906   -6.1830306    836.45587  0.032709834  0.032616695            8 
 2132000   0.92970406   -6.2085187    837.89115  0.032750592  0.032608075            7 
 2133000   0.90222583   -6.2007193    837.03796  0.032701905  0.032599334            4 
 2134000   0.90332153   -6.1704154    839.36424  0.032777423   0.03259078            7 
 2135000   0.92250819   -6.1536379    841.91261  0.032861538  0.032582222            4 
 2136000   0.91159385   -6.2024013    836.19259  0.032622994  0.032573648            5 
 2137000   0.89452735    -6.146224     842.0278  0.032835275  0.032565043            4 
 2138000   0.92260828   -6.1916586    838.09021  0.032666441  0.032556629            3 
 2139000   0.93002518   -6.1699124    842.41389  0.032819615  0.032548068            3 
 2140000   0.90677963   -6.1968725    836.77893  0.032584849  0.032539513            3 
 2141000   0.90841612   -6.1939112    836.35889  0.032553281  0.032530899            4 
 2142000   0.93087206   -6.1915483     838.3553  0.032615752  0.032522218            9 
 2143000   0.91457637   -6.1901364    840.55253  0.032685975  0.032513484            6 
 2144000   0.90314692   -6.1629724    839.67722  0.032636708  0.032504887            4 
 2145000   0.90302683   -6.1682802    841.08831  0.032676313  0.032496154            4 
 2146000   0.91656472   -6.1831357    838.46652  0.032559278  0.032487463            6 
 2147000   0.90395867   -6.1927631    837.20085  0.032494987  0.032478708            7 
 2148000   0.90032933    -6.183256    838.74854  0.032539903  0.032469935            6 
 2149000   0.92944337   -6.2368843    837.03586  0.032458347  0.032461087           12 
 2150000   0.90389653    -6.168281    840.77006  0.032587987  0.032452408            9 
 2151000   0.90170167   -6.1921484    840.26113   0.03255312  0.032443687           13 
 2152000   0.90897225   -6.1826574    840.78726  0.032558367  0.032434974            8 
 2153000   0.91218198   -6.1825494    842.36426  0.032604283   0.03242629            7 
 2154000   0.89349943   -6.2382319    838.51502  0.032440228  0.032417586           10 
 2155000   0.88106108   -6.1923263    839.58968  0.032466732  0.032408846            4 
 2156000   0.90761513   -6.1931502    842.07611  0.032547778  0.032400175            9 
 2157000   0.92817191   -6.1919129    843.14551  0.032574003  0.032391633            8 
 2158000   0.89981094   -6.1960338    842.74437  0.032543419  0.032383007           12 
 2159000   0.90363366   -6.2136525    840.57126  0.032444467  0.032374342           21 
 2160000    0.8931376   -6.1870848    841.85977  0.032479158   0.03236578            4 
 2161000   0.90992841   -6.1830127    845.37041  0.032599507  0.032357203            4 
 2162000   0.90352081   -6.1715331    846.00582   0.03260892  0.032348631            6 
 2163000   0.90877392   -6.1702954     842.5724  0.032461566  0.032340181            5 
 2164000   0.89751936   -6.1827266    844.80931  0.032532706  0.032331592            6 
 2165000   0.89802304   -6.2141856    841.92166  0.032406531  0.032323075           10 
 2166000   0.91210942   -6.1946236    842.49468  0.032413615  0.032314409            8 
 2167000   0.90125009   -6.2061762    844.44839  0.032473788  0.032305719            5 
 2168000   0.89119266    -6.213091    842.05412  0.032366779   0.03229701            7 
 2169000   0.88331706   -6.1847636     845.6753  0.032490983  0.032288366            6 
 2170000   0.89290337   -6.1873881     844.0748  0.032414547   0.03227972            9 
 2171000   0.90132026   -6.2164072    843.46543  0.032376226   0.03227108            8 
 2172000   0.89865978    -6.164068    845.15912  0.032426301   0.03226233            2 
 2173000   0.90558133   -6.1946452    842.67817  0.032316236  0.032253675           11 
 2174000   0.90377179   -6.2081045    841.80429  0.032267874  0.032245084            3 
 2175000   0.90205238   -6.2003355     846.6474  0.032438598  0.032236352            4 
 2176000   0.88877448   -6.1979547    843.24239   0.03229329  0.032227626            4 
 2177000   0.89442567   -6.2205241    844.49396  0.032326365   0.03221876           12 
 2178000   0.91298491    -6.189548     846.5247  0.032389222  0.032210063            8 
 2179000   0.92514015   -6.2210469    842.88666  0.032235225  0.032201354            8 
 2180000    0.8975413   -6.2108966    844.49199  0.032281804  0.032192614            4 
 2181000   0.90605213   -6.2040802    846.96511  0.032361497  0.032183997            4 
 2182000   0.90678061    -6.210941    847.14871  0.032353678  0.032175266            4 
 2183000   0.89631406   -6.1988307    846.41151  0.032310716  0.032166627            3 
 2184000    0.8909518   -6.1844313    845.98883  0.032279793  0.032158026            3 
 2185000   0.88249517   -6.2182933    848.08382  0.032344921  0.032149359            5 
 2186000   0.91033156   -6.2436346    841.52259  0.032080001  0.032140644            7 
 2187000   0.89754296   -6.2122249    847.68204  0.032300032  0.032131958            6 
 2188000   0.89969593   -6.2137606    846.44002  0.032237965  0.032123296            6 
 2189000   0.91067946   -6.1888242    847.64029  0.032268931  0.032114682            5 
 2190000   0.89478375   -6.1925844    848.51478  0.032287473  0.032106084            6 
 2191000    0.9110179   -6.1992414    851.12721  0.032372098  0.032097476            6 
 2192000   0.89866153   -6.2186909    848.17025  0.032244915  0.032088953            7 
 2193000   0.88250578   -6.2100255    848.75844  0.032252563  0.032080402            4 
 2194000   0.90671001   -6.1802529    852.56241  0.032382346  0.032072003           10 
 2195000   0.90645115   -6.2101099    849.70073   0.03225895  0.032063497            5 
 2196000     0.893599   -6.2013889    847.24391  0.032151029  0.032054932            5 
 2197000    0.8860668   -6.2275436    847.66739  0.032152457  0.032046333            4 
 2198000   0.90696086   -6.1798824    850.70703  0.032253072  0.032037791            5 
 2199000   0.92556901   -6.2126777    847.49034  0.032116505  0.032029175           14 
 2200000   0.91197336   -6.2024257    850.43876  0.032213589  0.032020529            5 
 2201000   0.88869329   -6.2090685    851.68419  0.032246108  0.032011929            8 
 2202000   0.88008954   -6.1864017    847.88615  0.032087729  0.032003286            4 
 2203000   0.89092064   -6.2404374    846.30371  0.032013304  0.031994646            3 
 2204000   0.90486179   -6.1784934    849.61653  0.032124037  0.031986015            4 
 2205000   0.88852963   -6.2061541    844.99358  0.031934754  0.031977478            4 
 2206000   0.90185953   -6.1835014    851.59216  0.032169544  0.031968908            7 
 2207000   0.88612942   -6.2198834     851.5268    0.0321525  0.031960429            3 
 2208000   0.89003426   -6.2048452    849.40126  0.032057716  0.031951841            7 
 2209000   0.89966199   -6.1762604    852.48683  0.032159606  0.031943237            4 
 2210000    0.8908682   -6.2492208    853.18933  0.032171543  0.031934735            4 
 2211000   0.91548134   -6.2061382     854.0045  0.032187717  0.031926229            6 
 2212000    0.8853152   -6.2009313    853.20373  0.032142998  0.031917775            6 
 2213000    0.8984127    -6.202345    853.61791   0.03214407  0.031909276            6 
 2214000   0.88890883   -6.2432739    853.03081  0.032107453   0.03190078            6 
 2215000    0.8916422   -6.2355703    852.02053  0.032054949  0.031892149            5 
 2216000   0.90844589   -6.2115817    852.98579  0.032076782  0.031883549            6 
 2217000    0.8980898   -6.2340816    854.29427  0.032111497  0.031875059            6 
 2218000   0.89789073   -6.2017658    853.58903  0.032070523  0.031866428            3 
 2219000   0.89250977   -6.2176775    853.35399  0.032047243  0.031857928            7 
 2220000   0.88267034   -6.2171996    853.65856   0.03204424  0.031849393            3 
 2221000   0.89451275   -6.2061746    853.85273  0.032037098  0.031840887            9 
 2222000   0.88701118   -6.2111495    854.81881  0.032058911  0.031832427            8 
 2223000   0.89926132   -6.1862972    855.40502  0.032066465  0.031823943            7 
 2224000   0.86898014   -6.1967401     854.0625  0.032001742  0.031815472            2 
 2225000   0.89861004   -6.2114606    854.43015  0.032001129  0.031807039            6 
 2226000   0.89831953   -6.2019068     856.4532  0.032062489  0.031798602            5 
 2227000   0.87977886   -6.2222143    854.36991  0.031970136  0.031790157            4 
 2228000   0.89206754   -6.2294005    856.06852  0.032019319  0.031781686            6 
 2229000   0.88945405   -6.2299833    854.67137  0.031952721  0.031773162            6 
 2230000   0.89357855   -6.2083352    852.80639  0.031868699  0.031764567            6 
 2231000   0.90991949   -6.2009041    856.21121  0.031981593  0.031756061            4 
 2232000   0.88020724   -6.2125318     855.2682  0.031932056   0.03174763            6 
 2233000   0.88854826   -6.2096948    857.11226  0.031986575  0.031739243            9 
 2234000   0.88767041   -6.2412385    854.10098  0.031859929  0.031730659            6 
 2235000   0.89924704   -6.2506929    852.90244  0.031800986  0.031722104            5 
 2236000   0.88256064   -6.2276246     857.0645  0.031941879  0.031713683            5 
 2237000   0.89693946   -6.2335405    855.50237  0.031869407  0.031705171            5 
 2238000   0.88386017   -6.2007043    857.51268  0.031930022  0.031696648            3 
 2239000   0.89127915   -6.2333642    855.54067  0.031842365  0.031688171            3 
 2240000   0.89180658   -6.2261404    857.33866  0.031895039  0.031679831            4 
 2241000   0.90372384   -6.2317847    856.41352  0.031846405  0.031671413            5 
 2242000   0.89795321   -6.2821559    855.53128  0.031799408  0.031662845            4 
 2243000   0.87817148   -6.2360782    854.77955  0.031757302  0.031654302            4 
 2244000   0.87112337   -6.2309328    856.84116   0.03181971  0.031645715            4 
 2245000   0.90031412   -6.1786567    861.42877  0.031975827   0.03163731           12 
 2246000    0.9025837    -6.230203     857.3527  0.031810355  0.031628954            7 
 2247000   0.89563331   -6.2060603    858.35776  0.031833473  0.031620639            3 
 2248000   0.89294281   -6.2166408     859.9852  0.031879641   0.03161229            5 
 2249000   0.90312629    -6.236205    858.97042  0.031827865   0.03160395            6 
 2250000   0.89694006   -6.2338231    858.41167  0.031793025  0.031595556            7 
 2251000   0.90788933   -6.1846326    857.82145  0.031757051  0.031587211            7 
 2252000   0.90214416   -6.1975135    860.59444  0.031845561  0.031578877            4 
 2253000   0.88276849   -6.2432212    858.39792  0.031750182  0.031570468            7 
 2254000   0.89690115   -6.2469103    858.02665   0.03172237  0.031561975            2 
 2255000   0.88851518   -6.1900037    862.08288  0.031858199  0.031553549            7 
 2256000   0.89168647   -6.2216452    861.41333  0.031819346  0.031545302            4 
 2257000   0.90445108   -6.2089646    861.99783  0.031826829  0.031536993            7 
 2258000   0.88140593   -6.2328997    862.67045  0.031837557  0.031528712            4 
 2259000   0.86793381   -6.2413252    859.66599  0.031712631  0.031520322            4 
 2260000    0.8881484   -6.1979949    862.12017  0.031789092  0.031511956            4 
 2261000   0.87864491   -6.1977269    862.14286  0.031775869  0.031503616            4 
 2262000   0.90448911   -6.2526029    860.70685  0.031708917  0.031495195           12 
 2263000   0.89303957   -6.2143925     861.3948  0.031720239  0.031486831            6 
 2264000   0.90391737   -6.2281967    860.56602  0.031675722  0.031478546            7 
 2265000   0.88059378   -6.2246039    862.14998  0.031720014  0.031470307            3 
 2266000   0.87906764   -6.2457163    864.57958  0.031795366  0.031461954            4 
 2267000   0.90373013    -6.280085    859.93819  0.031610726  0.031453673            9 
 2268000   0.89182225   -6.2276115    862.48875  0.031690504  0.031445374            6 
 2269000   0.87640288   -6.2325294    863.11319  0.031699471  0.031437058            6 
 2270000   0.89663012   -6.2321382    862.20902  0.031652313  0.031428739            5 
 2271000   0.89054133   -6.2289245    864.10411  0.031707915  0.031420519            5 
 2272000   0.89224018   -6.2480843    862.30377  0.031627926  0.031412234            7 
 2273000   0.89309897   -6.2278681    863.52712  0.031658862  0.031403893            5 
 2274000   0.89380219    -6.239821    863.59834   0.03164755  0.031395524            6 
 2275000    0.8925475   -6.2180082    863.48333  0.031629426  0.031387283            8 
 2276000   0.87598513   -6.2137221    866.43702  0.031723675  0.031379076            4 
 2277000   0.88143911   -6.2371289    864.57948  0.031641761  0.031370774            6 
 2278000   0.88478996   -6.2618222    864.97791  0.031642446  0.031362515            3 
 2279000   0.89512879   -6.2478841    866.03358  0.031667163  0.031354148            4 
 2280000   0.87459284   -6.2378195     866.0733  0.031654726   0.03134591           11 
 2281000   0.90608319   -6.2360076    866.84076  0.031668886  0.031337791            8 
 2282000   0.88513354   -6.2140223    869.05557  0.031735888  0.031329664            4 
 2283000   0.88344084   -6.2393687    868.68786  0.031708565  0.031321517            4 
 2284000   0.88106221   -6.2425695    867.29941  0.031644024  0.031313397            6 
 2285000   0.89139605   -6.2436853    868.07273  0.031658378  0.031305339            4 
 2286000   0.88927103   -6.2574316    866.21608  0.031576847  0.031297182            5 
 2287000    0.8758733   -6.2590056    867.77124  0.031619707  0.031289003            6 
 2288000   0.89266124   -6.2323882    869.64037  0.031673964  0.031280833            3 
 2289000   0.90670088   -6.2257974    866.15572  0.031533265  0.031272802            7 
 2290000   0.88171392   -6.2469005    866.97672  0.031549371  0.031264751            4 
 2291000   0.89944165   -6.2213398    870.51995  0.031664483  0.031256678            7 
 2292000   0.88132239    -6.272186    868.53504  0.031578499  0.031248647            4 
 2293000   0.88815167   -6.2423172    868.52409  0.031564329  0.031240526            5 
 2294000    0.8808032   -6.2105006    867.13242  0.031500015  0.031232414            4 
 2295000    0.8749389   -6.2429451    868.61085  0.031539973  0.031224337           10 
 2296000   0.88419505    -6.250498    869.42409  0.031555752  0.031216262            8 
 2297000   0.89825236   -6.2468184    868.75259  0.031517653  0.031208217            6 
 2298000   0.88547867   -6.2554671    867.39357  0.031454655  0.031200056            3 
 2299000   0.88199899   -6.2537855    867.39181   0.03144091  0.031191996            4 
 2300000   0.89829808   -6.2443315    867.75949  0.031440561  0.031183845            7 
 2301000   0.87792219    -6.243051    866.91337  0.031396254  0.031175693            8 
 2302000    0.8680127   -6.2490832    869.37961  0.031471894  0.031167516            5 
 2303000   0.89005497   -6.2739431    869.86526  0.031475802   0.03115941            7 
 2304000   0.88227807   -6.2350207    870.35068  0.031479697  0.031151284           12 
 2305000    0.8941865   -6.2563987    870.14627   0.03145865  0.031143121            3 
 2306000   0.85640239   -6.2410146    870.92603  0.031473187  0.031134935            7 
 2307000    0.8773223   -6.2368689    872.11069  0.031502337  0.031126786            5 
 2308000   0.87574296    -6.224895    871.91443  0.031481601  0.031118601            4 
 2309000   0.90494535   -6.2295475    870.04461  0.031400484  0.031110418            3 
 2310000   0.87908117   -6.2950676    867.65176  0.031300569  0.031102312           20 
 2311000   0.85105901   -6.2641165     865.8492  0.031222025  0.031094002            6 
 2312000   0.87117294   -6.2565206    868.50976  0.031304417  0.031085716            3 
 2313000   0.87940648    -6.273802    871.06489   0.03138294  0.031077514            3 
 2314000   0.88542805   -6.2752478    870.83234  0.031361003  0.031069338           12 
 2315000   0.87707971   -6.2467747    871.25075  0.031362518  0.031061162            5 
 2316000   0.87633944   -6.2722061    870.88387  0.031335775     0.031053           14 
 2317000   0.86951147   -6.2574652    871.61948  0.031348708  0.031044851            4 
 2318000    0.8985498   -6.2918793    868.44269  0.031220977  0.031036654           21 
 2319000   0.87625754   -6.2957459    868.90631  0.031224174  0.031028393            6 
 2320000   0.89010789   -6.2939849    868.65104  0.031201546  0.031020084            7 
 2321000   0.88057099   -6.2857964    869.23117  0.031208932  0.031011784            6 
 2322000   0.86852922   -6.2771523    871.20398  0.031266293  0.031003376            9 
 2323000   0.87046045   -6.2417237    874.15758  0.031358788  0.030995067            5 
 2324000   0.88858764    -6.220316     873.7354  0.031330156  0.030986927            5 
 2325000   0.88009221    -6.248921    872.26203  0.031263872  0.030978761            3 
 2326000   0.87803063   -6.2435771    870.20595  0.031176768  0.030970622            5 
 2327000   0.87302254   -6.2573048    870.82702  0.031185612   0.03096237           15 
 2328000   0.88067064   -6.2463053    871.08499   0.03118145  0.030954143           11 
 2329000   0.88582202   -6.2653785      873.474  0.031253542  0.030946004            7 
 2330000   0.87061233   -6.3053827     870.1999  0.031123029  0.030937658           13 
 2331000   0.85808969   -6.2361392    874.29502  0.031256078  0.030929373            7 
 2332000   0.89547738   -6.2436597    871.65917  0.031148484  0.030921108            5 
 2333000   0.88868086   -6.2660302    872.91615  0.031180031  0.030912847           10 
 2334000   0.87112584   -6.2437864    871.43434  0.031113765  0.030904678            7 
 2335000    0.8730289   -6.2957223    871.21845  0.031092735  0.030896406           12 
 2336000   0.89369063   -6.2922261    871.74312  0.031098142  0.030887995           14 
 2337000   0.86946705   -6.2743975    871.82868  0.031087886  0.030879731           10 
 2338000   0.88703364    -6.265162    870.75791  0.031036424  0.030871438            5 
 2339000   0.88792139   -6.2678012    872.33297  0.031079271  0.030863057            4 
 2340000   0.89048176   -6.2161395    877.97765   0.03126701  0.030854864            4 
 2341000   0.87876716   -6.2017058    877.79932  0.031247306   0.03084678            5 
 2342000   0.87827927   -6.2529505    876.01489   0.03117047  0.030838682            7 
 2343000   0.89687587   -6.2979755    871.84266  0.031008773  0.030830466            8 
 2344000   0.87468319   -6.2848141    873.05698  0.031038715   0.03082223           10 
 2345000   0.87130564   -6.2779039    874.83408  0.031088631  0.030813992            8 
 2346000   0.87418629   -6.2375401    875.67083  0.031105102  0.030805857           10 
 2347000   0.88977334   -6.2804322    876.22412  0.031111494  0.030797769            6 
 2348000   0.87197701   -6.2572184    876.52537  0.031108936  0.030789601            5 
 2349000   0.88208295   -6.2648537    877.79274  0.031140653  0.030781408            6 
 2350000   0.86326949   -6.2554566    877.52524  0.031117916  0.030773232            4 
 2351000   0.87259077   -6.2727395    875.28162  0.031025153  0.030765073            3 
 2352000   0.87234915   -6.2602437    878.49969  0.031125981  0.030756855            6 
 2353000   0.89627068   -6.2735978    877.16334  0.031065425  0.030748667            4 
 2354000   0.87811704   -6.2870446    877.71991  0.031071931  0.030740569           12 
 2355000   0.86633063   -6.2501242    877.75032  0.031059813  0.030732465            5 
 2356000   0.87250642   -6.2945554    876.63835  0.031007299  0.030724298            4 
 2357000   0.87576695   -6.2656473    876.66514   0.03099509  0.030716221            4 
 2358000   0.89128276   -6.3030704    876.92144  0.030991004   0.03070805            8 
 2359000   0.86805506   -6.2480433     879.1751  0.031057479  0.030699912            5 
 2360000   0.88914952   -6.2893971    881.80912  0.031137328  0.030691891           15 
 2361000   0.85828234   -6.2520056    878.15198  0.030995058  0.030683862            3 
 2362000   0.89698021   -6.3054795    877.79957  0.030969502  0.030675789            4 
 2363000   0.87497772    -6.247349     877.0253  0.030929091  0.030667711            6 
 2364000   0.88292839   -6.3028884    877.45709  0.030931228  0.030659631            9 
 2365000   0.87630877   -6.2961175    877.75977  0.030928815  0.030651489            7 
 2366000   0.87609044   -6.2977052    878.25949  0.030933344  0.030643402           11 
 2367000   0.88407382   -6.2725694    878.90731  0.030943082  0.030635268            8 
 2368000   0.89093749   -6.3160261    879.25095  0.030942108  0.030627128            6 
 2369000   0.87238204   -6.2620623    879.02022  0.030920931  0.030618962            5 
 2370000   0.87934647   -6.3024942    878.71605  0.030897189  0.030610887            8 
 2371000   0.85421446   -6.2997667    878.49031  0.030876224   0.03060257            7 
 2372000   0.85738916   -6.3119198    878.83858  0.030875442  0.030594413            3 
 2373000   0.87777508   -6.2749016    879.39043   0.03088181  0.030586312            4 
 2374000   0.88328358   -6.2834299    879.48006  0.030871948  0.030578179            3 
 2375000   0.88600469    -6.266354    881.41127  0.030926711  0.030570103            6 
 2376000   0.86945473   -6.2980311    880.11656  0.030868285  0.030562065            8 
 2377000     0.858789   -6.2891381    881.94825  0.030919515  0.030553961            3 
 2378000   0.88988511   -6.2654434    881.49358  0.030890579  0.030545877           13 
 2379000   0.84663357   -6.3013065    882.43431  0.030910548  0.030537801            8 
 2380000   0.85917448   -6.2731326    880.95354  0.030845712  0.030529741            8 
 2381000    0.8673196   -6.2874397     879.8873   0.03079544  0.030521763            4 
 2382000    0.8724598   -6.2719221    878.97232  0.030750501  0.030513697            4 
 2383000   0.85831282   -6.2997127    882.31274  0.030854411   0.03050576            9 
 2384000   0.85631226   -6.2528208    884.00686  0.030900687  0.030497748           10 
 2385000   0.86624025   -6.2642707    882.90086  0.030849087  0.030489833           14 
 2386000   0.87473864   -6.3038011    880.80231  0.030762863  0.030481858            5 
 2387000   0.85660012    -6.305837    882.91276  0.030823655  0.030473943            5 
 2388000    0.8646893   -6.2826929     886.4794  0.030935211   0.03046592            3 
 2389000   0.86036389   -6.2934297    883.71294  0.030825762  0.030458041            4 
 2390000    0.8798752   -6.2763591    880.82769  0.030712262  0.030450016            8 
 2391000   0.87617012   -6.3202333    882.65529  0.030763115  0.030442052            6 
 2392000   0.86629552   -6.2878419    884.55798   0.03081654  0.030434129            8 
 2393000   0.87521988   -6.2921332    883.42325  0.030764147  0.030426176            5 
 2394000   0.85870986   -6.2863414    883.49146  0.030753671  0.030418187            4 
 2395000   0.87136309   -6.2816131    884.01354  0.030758996  0.030410153            8 
 2396000   0.86636399    -6.272006    882.78108  0.030703293  0.030402135           10 
 2397000   0.86219557   -6.3199806    882.63308  0.030685339  0.030393984           11 
 2398000   0.87703702   -6.2855042    883.83191  0.030714203  0.030385936            6 
 2399000   0.87024444   -6.2472008    885.84884  0.030771462  0.030377893            7 
 2400000   0.87309129   -6.2577501    886.75538  0.030790117  0.030369873            6 
 2401000   0.87635465    -6.278294    883.17963  0.030653187   0.03036179            6 
 2402000   0.87901604   -6.3263073    883.70509  0.030658656  0.030353601            4 
 2403000    0.8611431   -6.2813918    882.31366  0.030597644  0.030345419            6 
 2404000    0.8501869   -6.2859193    883.83712  0.030637726  0.030337275            6 
 2405000   0.87913576   -6.3008317    883.34675  0.030607995  0.030329149            7 
 2406000   0.86694921   -6.2777598    884.87297  0.030648136   0.03032104            8 
 2407000   0.87319388   -6.3066153    881.87122  0.030531478  0.030312908            4 
 2408000   0.87475703   -6.3104259    884.02586  0.030593365  0.030304885            9 
 2409000   0.85855641   -6.2897794    888.67325   0.03074143   0.03029687            3 
 2410000   0.87421699   -6.2981648    885.03626  0.030602914  0.030288779            6 
 2411000   0.84186002   -6.2848373    884.23361  0.030562478  0.030280752            8 
 2412000    0.8724132   -6.3019784    887.43373  0.030660369  0.030272762            5 
 2413000   0.86867538   -6.2878427     887.7714  0.030659324  0.030264762            4 
 2414000   0.85626041   -6.2956909    886.59006  0.030605843   0.03025681           13 
 2415000   0.85929727   -6.3258124    886.01106   0.03057319  0.030248912            3 
 2416000   0.86659908    -6.308443    886.04147  0.030561585  0.030240971            6 
 2417000   0.87166748   -6.2689673    889.58042  0.030670956  0.030233026            8 
 2418000   0.85731572   -6.3108328    888.36495  0.030616382  0.030225149            4 
 2419000    0.8702686   -6.3097099     886.6685  0.030545284  0.030217333            3 
 2420000   0.84681007   -6.3066432    888.18134  0.030584757  0.030209456           10 
 2421000    0.8838334   -6.2831071    890.01872  0.030635368  0.030201593            6 
 2422000   0.86790508   -6.2792319    890.57434  0.030641837  0.030193744           11 
 2423000   0.86264377   -6.3161836    887.30206  0.030516648  0.030185892            3 
 2424000   0.86265923    -6.307375    888.92338  0.030559797  0.030178026           12 
 2425000   0.85007271   -6.3130634    889.61946  0.030571116  0.030170146            9 
 2426000     0.883477   -6.2797082    890.63367  0.030593352  0.030162233            4 
 2427000   0.86614437   -6.2784885    889.87367  0.030554651  0.030154403           12 
 2428000   0.85336849   -6.2980751    890.15955  0.030551879  0.030146548            7 
 2429000   0.87827623    -6.293268    892.21272  0.030609741  0.030138732            9 
 2430000     0.848725   -6.3168877     890.3545  0.030533419  0.030130846            9 
 2431000   0.87686084   -6.2943961     892.5204  0.030595105  0.030123038            9 
 2432000   0.85112311   -6.3202943    889.55604   0.03048095  0.030115172            4 
 2433000   0.85116267   -6.3138824    889.54715  0.030468117  0.030107236            4 
 2434000   0.87199368   -6.3322178    891.47578   0.03052163  0.030099361            4 
 2435000   0.86553922   -6.2991745    891.38666  0.030506046  0.030091621           10 
 2436000   0.87301098   -6.3063988    891.86927  0.030510033  0.030083769            5 
 2437000   0.86212584   -6.2866828    892.00743  0.030502237  0.030075951            9 
 2438000   0.84676103   -6.3162733    891.22978  0.030463145   0.03006809            4 
 2439000   0.87428508   -6.3022857    893.07321   0.03051364  0.030060196            5 
 2440000   0.84738481     -6.31537    889.63719  0.030383784  0.030052347            7 
 2441000   0.83834208   -6.2763793    891.51134  0.030435318  0.030044489            5 
 2442000   0.87188706   -6.2972873    891.79608  0.030432572  0.030036571            8 
 2443000   0.84553044   -6.3151827    891.43249  0.030407712  0.030028681            5 
 2444000   0.85814661   -6.3106195    892.36384  0.030427027  0.030020652            7 
 2445000   0.85760145   -6.3259606    888.53475  0.030284075  0.030012566            7 
 2446000   0.85673476   -6.3216483    892.36108  0.030402054  0.030004573            4 
 2447000   0.85813221   -6.3027657    891.96237  0.030376051  0.029996654            6 
 2448000   0.85215242   -6.2989398    894.72829  0.030457798  0.029988698            4 
 2449000   0.84296237   -6.3176419     893.8144  0.030414264  0.029980789            4 
 2450000   0.86545601   -6.2979467    892.94418  0.030372251  0.029972961            5 
 2451000   0.82636935   -6.3228684    892.95506  0.030360229   0.02996502            7 
 2452000    0.8733217    -6.322264    892.84944  0.030344258  0.029957022           10 
 2453000   0.85643764   -6.3007124    892.15253  0.030308212  0.029949101            8 
 2454000   0.85764567   -6.2806172    891.98349  0.030290121  0.029941247            4 
 2455000   0.84095355   -6.2734477     896.5415  0.030432502  0.029933429            3 
 2456000   0.87060052   -6.3179399    893.69834  0.030323641  0.029925609            7 
 2457000   0.84378465   -6.3149195    891.81173  0.030247311  0.029917583            5 
 2458000   0.85237617   -6.3070539    892.53022  0.030259365  0.029909571            8 
 2459000   0.87976969   -6.3287364    892.02738  0.030230018  0.029901573            6 
 2460000   0.85294637    -6.335036    892.83511  0.030245092  0.029893591            3 
 2461000   0.87347768   -6.3354799    893.81416  0.030265954  0.029885571            8 
 2462000   0.86322087   -6.3038508    893.50834   0.03024331  0.029877608           16 
 2463000   0.86948326   -6.3219062    894.45606  0.030263096  0.029869631            7 
 2464000   0.87077905   -6.3232644    894.18109  0.030241514  0.029861648            5 
 2465000   0.86581019   -6.2903574    894.52601  0.030240906  0.029853713            5 
 2466000     0.857498   -6.3360452     895.0006  0.030244681  0.029845807            6 
 2467000   0.86317296   -6.2903644    897.87879  0.030329644  0.029837901            7 
 2468000   0.84815005   -6.3161313     895.6717  0.030242831  0.029829947            7 
 2469000   0.83769388   -6.3284903    897.15569   0.03028067  0.029822082            6 
 2470000    0.8478395   -6.2903567    895.36146  0.030207877  0.029814228            4 
 2471000   0.85235834   -6.3326677    895.38466  0.030196434  0.029806298            6 
 2472000    0.8791808   -6.3042486    896.27136   0.03021411  0.029798354            4 
 2473000   0.84539843   -6.3064647    893.64369  0.030113347  0.029790388            5 
 2474000   0.86336297   -6.3287379    892.87886  0.030075413  0.029782514            5 
 2475000   0.84814601   -6.3590909    893.21782  0.030074674  0.029774498            6 
 2476000   0.87256726   -6.3504405    893.68054  0.030078101  0.029766415            9 
 2477000    0.8461326   -6.3716565    893.03698  0.030044307  0.029758291            7 
 2478000   0.86511623    -6.353659    890.16263   0.02993552  0.029750204           15 
 2479000   0.83841721   -6.3231858    895.37695  0.030098727  0.029742233            9 
 2480000   0.85584484    -6.285454    896.76162  0.030133119  0.029734381            8 
 2481000   0.84503918   -6.3248229    897.33202  0.030140132   0.02972642           10 
 2482000   0.85200706   -6.3415424    897.59016  0.030136656   0.02971849            5 
 2483000   0.85708122   -6.3440444     895.0414  0.030038978   0.02971045            5 
 2484000   0.83545767   -6.3207692    895.38212  0.030038316  0.029702483            7 
 2485000   0.84094975   -6.3062011     895.7252  0.030037733  0.029694634            6 
 2486000   0.87424435   -6.3135365    898.62893  0.030122986  0.029686743            4 
 2487000   0.85889035   -6.3008317     897.6166  0.030076954  0.029678885            6 
 2488000   0.86148431   -6.3309785    897.14003  0.030048902  0.029671084           15 
 2489000   0.86464808   -6.3470986    897.77637  0.030058135  0.029663164            6 
 2490000   0.87119926     -6.37075    896.12574  0.029990821  0.029655193            3 
 2491000   0.87021098   -6.3310248    895.90658   0.02997145  0.029647203            7 
 2492000   0.86193674   -6.3043283    897.54115  0.030014083  0.029639257            3 
 2493000   0.86203979    -6.328265     896.7838  0.029976728  0.029631308            6 
 2494000   0.87471829    -6.332111    898.06792  0.030007616   0.02962336            5 
 2495000   0.84311153   -6.3407391    895.24573  0.029901327  0.029615355            7 
 2496000   0.84506825    -6.332682    898.47357  0.029997114   0.02960738            6 
 2497000   0.83400697   -6.3250204    897.31415  0.029946407  0.029599409            2 
 2498000   0.84991801   -6.3078637    899.26775  0.029999591  0.029591534            6 
 2499000   0.85107403   -6.3078918    897.83652   0.02993986  0.029583628            5 
 2500000   0.84594332   -6.3212963    900.77227  0.030025742  0.029575711            9 
 2501000   0.84138979   -6.3462457    897.97611  0.029920569    0.0295677            5 
 2502000   0.83999056   -6.3478646    897.41884  0.029890049  0.029559702            4 
 2503000   0.84275992   -6.3291527     899.4173  0.029944643  0.029551743            4 
 2504000    0.8558946   -6.3237676    899.92712  0.029949651  0.029543791            9 
 2505000   0.85648711   -6.3201889    900.29776  0.029950025  0.029535847            9 
 2506000   0.84946071   -6.3525804    897.28573  0.029837913   0.02952791           10 
 2507000   0.86121025   -6.3236796    900.56208  0.029934918  0.029519968            7 
 2508000   0.85818028   -6.3378015     901.6414  0.029958845  0.029512015           15 
 2509000   0.84095998   -6.3306431    900.00106  0.029892423  0.029504088            3 
 2510000   0.84809935   -6.3049359    901.40949  0.029927274   0.02949621            4 
 2511000    0.8571898   -6.3509362    900.02866  0.029869529  0.029488285           10 
 2512000   0.85849351   -6.3270321    899.20915  0.029830452  0.029480361            4 
 2513000   0.85444684   -6.3221969    899.95717  0.029843387  0.029472359            7 
 2514000    0.8497931   -6.3253598    900.32356  0.029843661  0.029464366            4 
 2515000    0.8468319   -6.3167571    899.38234  0.029800608  0.029456465            4 
 2516000   0.85259743    -6.356905    899.53992  0.029793983  0.029448452            3 
 2517000   0.82758754    -6.304708      900.664  0.029819362  0.029440441            6 
 2518000   0.85549438   -6.3633513    897.23115  0.029693909  0.029432412           10 
 2519000   0.85337854   -6.3552815    896.37649  0.029653847  0.029424282           11 
 2520000   0.85099437   -6.3510873    899.79246  0.029755042  0.029416273            6 
 2521000   0.86549724    -6.315743    900.19818   0.02975665  0.029408213            7 
 2522000   0.84704945    -6.349837    898.08081  0.029674888   0.02940017            9 
 2523000   0.85962008   -6.3376376    897.86076  0.029655858  0.029392103            7 
 2524000    0.8479956    -6.339976    897.79507   0.02964194  0.029384031            7 
 2525000   0.83503992    -6.338267      897.891  0.029633366  0.029375862            5 
 2526000   0.84539949   -6.3311922    901.73778  0.029748541  0.029367788            4 
 2527000   0.84576502   -6.3398061    901.43974   0.02972694  0.029359731            4 
 2528000   0.84167893   -6.3387416    901.64295   0.02972188  0.029351709            5 
 2529000   0.82664665   -6.3506373      902.147  0.029726737  0.029343648            8 
 2530000   0.84678203   -6.3324395    899.47098  0.029626844  0.029335601            6 
 2531000   0.85115914   -6.3395892    900.22149  0.029639849  0.029327568            5 
 2532000   0.86020975   -6.3539162    900.13421   0.02962527   0.02931954            3 
 2533000   0.85957846   -6.3225203    900.22672  0.029616618  0.029311573            4 
 2534000   0.82827217   -6.3288419    902.77062  0.029688589  0.029303646           10 
 2535000   0.84768382   -6.3870025    899.92512  0.029583337  0.029295666            7 
 2536000   0.83959517   -6.3618962    902.79408  0.029665946   0.02928767            6 
 2537000   0.84676763    -6.329945    901.61233  0.029615436  0.029279714           15 
 2538000   0.83585174    -6.349211    902.24032  0.029624387  0.029271758            6 
 2539000   0.85337783   -6.3622647    902.73194  0.029628855  0.029263846            9 
 2540000    0.8593743   -6.3124211     905.3828   0.02970416  0.029255928            8 
 2541000    0.8251528   -6.3424655    904.87715  0.029675887  0.029247987            5 
 2542000     0.840934   -6.3493822    903.04074  0.029604011  0.029239963            4 
 2543000   0.87864008   -6.3594106    902.40066  0.029571394  0.029231985            8 
 2544000   0.85106168   -6.3440298    904.27892  0.029621296  0.029224073            7 
 2545000   0.85067769   -6.3247825    905.21799  0.029640406  0.029216154            6 
 2546000   0.84059669   -6.3118531    906.02661  0.029655231  0.029208375            4 
 2547000   0.84135261   -6.3724494    904.90043  0.029606741  0.029200455            3 
 2548000   0.85593137   -6.3645247     900.8504  0.029462663  0.029192459            6 
 2549000   0.84831058   -6.3672943    904.61524  0.029574187  0.029184561           11 
 2550000   0.81152503    -6.303682    906.31924  0.029618276  0.029176618            5 
 2551000   0.83489211   -6.3185079    904.56068  0.029549219  0.029168706            8 
 2552000   0.86127998   -6.3845997    902.25312  0.029462288  0.029160684            9 
 2553000   0.82712689   -6.3723366    904.07325   0.02951016  0.029152692            8 
 2554000   0.83506817   -6.3613698    903.29441  0.029473193    0.0291448            5 
 2555000   0.84817204   -6.3438334    904.87232  0.029513122  0.029136848            6 
 2556000   0.83575894   -6.3271669    906.58695  0.029557478  0.029128869            6 
 2557000   0.85379583   -6.4042839    902.50381  0.029412847  0.029120799            7 
 2558000   0.84872963   -6.4209314     901.2953  0.029361979  0.029112709            5 
 2559000   0.85077451   -6.3536431     903.1822  0.029411951  0.029104658            9 
 2560000   0.83246037   -6.3747176    902.85095  0.029389679  0.029096623            8 
 2561000   0.85086919   -6.3477765    904.15888  0.029420763   0.02908861            3 
 2562000   0.84190613   -6.3065997    905.54872  0.029454486  0.029080584            7 
 2563000   0.84310481   -6.3780373    901.62959  0.029315567  0.029072569            6 
 2564000   0.84086027   -6.3671517    904.45934  0.029396105  0.029064597            4 
 2565000   0.84231891   -6.3244527    907.84158  0.029494528  0.029056717            5 
 2566000   0.83561587   -6.3119046    906.87997  0.029451805  0.029048927            4 
 2567000   0.84682538    -6.363528     903.3942  0.029327172  0.029041042            6 
 2568000    0.8302726   -6.3834392    904.24065   0.02934322  0.029033109           10 
 2569000    0.8468017   -6.3751434    903.67932  0.029313589  0.029025112            4 
 2570000   0.83935884    -6.392345    903.85572  0.029307903  0.029017152           14 
 2571000   0.83457624   -6.3677141    907.61382  0.029418314   0.02900922            4 
 2572000   0.83276615   -6.3533091    908.77037  0.029444349  0.029001305            6 
 2573000   0.84794705   -6.3398405    907.12749  0.029379696  0.028993489            6 
 2574000   0.83564509   -6.3280509    908.79404  0.029422236  0.028985608           11 
 2575000   0.84854725   -6.3430256    905.46087  0.029302941  0.028977769            5 
 2576000   0.85036361   -6.3755667    906.62803  0.029329323  0.028969835            7 
 2577000   0.82023721   -6.3262695    909.97867  0.029426293  0.028961961            8 
 2578000   0.85268624   -6.3739532    905.32551  0.029264466  0.028953964            5 
 2579000   0.83979633   -6.3773724    906.89708    0.0293039  0.028945972            6 
 2580000   0.85604934   -6.3939843    906.60175  0.029283002  0.028937952            5 
 2581000   0.83447405    -6.389835    902.97176  0.029154454  0.028929923            6 
 2582000   0.83916579   -6.4209719    905.45183  0.029223206  0.028921805           10 
 2583000   0.84500862   -6.3847075    905.53819  0.029214679  0.028913864            3 
 2584000   0.84201482   -6.3716789    905.41267  0.029199325  0.028905911           18 
 2585000    0.8331607   -6.3640245    910.98505  0.029367668   0.02889801            8 
 2586000    0.8589821   -6.3715128    906.14201  0.029200245  0.028890056            7 
 2587000   0.82653701   -6.3574247    905.25244  0.029160303  0.028882118            6 
 2588000   0.81275766   -6.3622464    908.10639  0.029240932  0.028874263            6 
 2589000   0.84210708   -6.3529173    908.79848  0.029251915  0.028866399            6 
 2590000   0.83479663   -6.3736428    907.54325  0.029200233  0.028858552            5 
 2591000   0.83200241   -6.3806904    908.89086  0.029232306  0.028850641            6 
 2592000   0.81186766     -6.34419    911.18002  0.029294625   0.02884277            7 
 2593000   0.83108606    -6.395776    908.55268  0.029198891  0.028834792            6 
 2594000   0.83597023   -6.3953896     906.8538  0.029133057  0.028826813           12 
 2595000   0.83745103   -6.3748029    909.62657  0.029210873  0.028818772            8 
 2596000   0.82544547   -6.3554892    906.97907  0.029114634  0.028810773            7 
 2597000   0.84348274   -6.3738994    908.02114  0.029136861  0.028802816           12 
 2598000   0.85809067   -6.3681784     910.1386  0.029193566  0.028794927           23 
 2599000   0.82433334   -6.3462728    910.34903   0.02918908  0.028787052            5 
 2600000   0.82882518    -6.348649    908.71905  0.029125611  0.028779129            8 
 2601000   0.82015246   -6.3921463    909.23116   0.02913082  0.028771184            5 
 2602000   0.84487068   -6.3515164    910.34486  0.029155293  0.028763235            6 
 2603000   0.82136101    -6.348342    910.02525   0.02913386  0.028755248            6 
 2604000   0.84205022   -6.3731037    910.87228  0.029149779   0.02874735            9 
 2605000   0.83667415   -6.3652468    908.57031  0.029064949  0.028739413            4 
 2606000   0.82731877   -6.3854365    908.05241  0.029037235  0.028731445            6 
 2607000   0.82441238   -6.3766481    909.94673  0.029086649  0.028723466            7 
 2608000   0.86039357   -6.3748282     909.6822  0.029067044  0.028715474            6 
 2609000     0.833827   -6.3758564    910.63403  0.029086305  0.028707528            9 
 2610000   0.83425286   -6.3673577    911.42085  0.029100282  0.028699647            7 
 2611000   0.83378725   -6.3422914    910.03406  0.029044876  0.028691814            5 
 2612000   0.83758308   -6.3956186     911.1578  0.029069608  0.028683942            8 
 2613000   0.83640602   -6.3423873    914.26929  0.029157714  0.028676035            4 
 2614000    0.8490997   -6.3922937    912.28853  0.029083414  0.028668128            8 
 2615000   0.84432403   -6.3629047    913.13981   0.02909942  0.028660338            6 
 2616000   0.82498117   -6.3894854     912.5998  0.029071095  0.028652542            9 
 2617000   0.83200104    -6.359882    913.34664  0.029083768  0.028644757            9 
 2618000   0.83338492   -6.3805121    912.19728  0.029036073  0.028636957            7 
 2619000   0.83447404   -6.3543715     913.1074  0.029053946  0.028629244            7 
 2620000   0.83948331    -6.359459    914.30706  0.029081013  0.028621514           10 
 2621000   0.83404041   -6.3893549    913.86023  0.029055711   0.02861374           21 
 2622000   0.83227813   -6.3982377    911.58491  0.028972315  0.028605959           11 
 2623000   0.83244966    -6.382805    916.46543  0.029116325  0.028598168            8 
 2624000   0.82152496   -6.3777553    913.99343  0.029026722  0.028590434            6 
 2625000   0.84883656   -6.3828397    913.34392  0.028995045  0.028582685            8 
 2626000    0.8235132   -6.3663113    915.55522  0.029054177     0.028575            9 
 2627000   0.84754913   -6.3529086    914.06404  0.028995814  0.028567374            7 
 2628000    0.8246037   -6.3809248    914.70425  0.029005082  0.028559747           16 
 2629000   0.84691373   -6.3719939    914.98421  0.029002923  0.028552114            5 
 2630000    0.8494841   -6.3741196    912.87065  0.028924926  0.028544493            5 
 2631000   0.80842798   -6.3908346    915.58608  0.028999939  0.028536845            5 
 2632000   0.81326481   -6.4036289    917.75665  0.029057645  0.028529186            4 
 2633000   0.84178551   -6.3422234    914.83232  0.028954055  0.028521531            6 
 2634000   0.82540768   -6.3469995    917.23378  0.029019039  0.028513911           10 
 2635000   0.84172846   -6.4104761    915.76024  0.028961425  0.028506252            8 
 2636000   0.82336402   -6.3776503    916.03541  0.028959137  0.028498612            8 
 2637000    0.8272218   -6.3731007    918.02849  0.029011139  0.028491034           11 
 2638000   0.83264369   -6.3897984    917.06838  0.028969813  0.028483362           12 
 2639000   0.84097848   -6.4045056     917.9314  0.028986087  0.028475673           11 
 2640000   0.83731902   -6.4116888    918.50776    0.0289933  0.028467946            7 
 2641000   0.82651324   -6.4111725      913.365  0.028820049  0.028460263           10 
 2642000   0.83905382   -6.3967685      916.963  0.028922628  0.028452558            5 
 2643000   0.83235802   -6.4022121    914.81776  0.028844046  0.028444849            9 
 2644000   0.83009879   -6.4102455    919.18102  0.028970658  0.028437206           12 
 2645000   0.82307046   -6.3897019    918.78344  0.028947178  0.028429557            8 
 2646000   0.81404521   -6.3622229    917.27585  0.028888758  0.028421883            7 
 2647000   0.80553133   -6.4088254    915.29607  0.028815517  0.028414169            8 
 2648000    0.8272803   -6.3782036    919.61131  0.028940437  0.028406485            5 
 2649000   0.83714727   -6.4017032    918.60811  0.028897952  0.028398799            9 
 2650000   0.83560397    -6.423223    916.18496  0.028810848  0.028391091            9 
 2651000   0.81643792   -6.4156769    917.59295   0.02884424  0.028383371           10 
 2652000   0.83764181   -6.3930067    918.67058  0.028867225  0.028375691           14 
 2653000   0.80864521   -6.3773231    919.93665  0.028896113  0.028368034            7 
 2654000   0.83868001   -6.3937636    920.11777  0.028890912  0.028360403            7 
 2655000   0.82677155   -6.4168776    917.46022  0.028796617  0.028352687            4 
 2656000   0.82309237   -6.4090205    914.51765   0.02869345  0.028344908            6 
 2657000   0.82462319   -6.4224764     915.0421    0.0286991  0.028337204            9 
 2658000   0.82420817   -6.4308868    915.66472  0.028707823  0.028329455            7 
 2659000   0.81521921   -6.3947538    919.18127  0.028807236   0.02832177            4 
 2660000   0.82207987   -6.3699745     919.4138   0.02880369  0.028314071            5 
 2661000   0.82090029   -6.3633676    919.38164  0.028791859  0.028306308            6 
 2662000   0.82970639   -6.4122592    917.43471  0.028720095  0.028298565            5 
 2663000   0.82067029   -6.4029865     921.8192  0.028846514  0.028290839           16 
 2664000   0.79608849    -6.420391    918.02452  0.028716983  0.028283088            7 
 2665000   0.80955698   -6.4199298    916.99228   0.02867393  0.028275279           21 
 2666000   0.83084994   -6.4167725     916.2437  0.028639776  0.028267521           14 
 2667000   0.82396518   -6.3901387    922.40612  0.028821589  0.028259768            7 
 2668000   0.83199921   -6.4076751    918.95087  0.028702863  0.028252005            2 
 2669000   0.81684161   -6.4370871    919.87398  0.028720931  0.028244227            8 
 2670000   0.82277774   -6.4347996    916.87673  0.028616627  0.028236402            8 
 2671000   0.83025192   -6.4223974    915.82128  0.028572984  0.028228596           14 
 2672000   0.81304416    -6.391809    919.88709  0.028689093  0.028220834            9 
 2673000   0.82036174   -6.4227042    918.87225  0.028646722  0.028213018            5 
 2674000   0.83101242   -6.4188955    917.27228  0.028586147  0.028205285            8 
 2675000   0.81704091   -6.3959908    920.09382  0.028663359  0.028197645            6 
 2676000   0.83073663   -6.4231006    919.07366  0.028620879  0.028189857            8 
 2677000   0.84556679   -6.4115788    921.09169  0.028673007  0.028182159            4 
 2678000   0.83483145   -6.4260928    916.37621  0.028515565  0.028174413            7 
 2679000   0.82293754   -6.4358244    917.70788  0.028546344  0.028166616            5 
 2680000   0.82362503   -6.3862455     922.1227   0.02867297  0.028158865           10 
 2681000   0.81355965   -6.4122774    917.51526  0.028519062  0.028151122           10 
 2682000   0.83710863   -6.4144797    919.78827  0.028579054  0.028143382            5 
 2683000   0.84208092   -6.4246471    917.19828  0.028487958  0.028135651            8 
 2684000   0.81827676   -6.4132802    916.66979  0.028460935  0.028127822            9 
 2685000   0.82636714   -6.4018058    917.78861  0.028485059  0.028120005           19 
 2686000   0.83131678   -6.4389306    918.20499  0.028487373  0.028112183            8 
 2687000    0.8011844   -6.3903194    921.87958  0.028590733  0.028104364            4 
 2688000   0.84192054   -6.4024954    919.82429  0.028516378  0.028096643            5 
 2689000   0.83820498   -6.4148847    918.52406  0.028465478  0.028088888            4 
 2690000   0.83776844   -6.4055223    920.90854  0.028528765  0.028081205           18 
 2691000   0.80955572   -6.4197212    921.32881  0.028531178  0.028073501            9 
 2692000   0.82824131   -6.3789247     920.5601  0.028496784  0.028065763            7 
 2693000   0.82233475   -6.4276335    920.00129   0.02846891  0.028058012           16 
 2694000   0.83056774     -6.43816     920.6359  0.028477973  0.028050256           11 
 2695000   0.83467571   -6.4096456    919.68748  0.028438079  0.028042548           10 
 2696000   0.81770086   -6.4262612    919.01075  0.028406613  0.028034819            8 
 2697000   0.82648069   -6.4073858    921.40046  0.028469919  0.028027043           16 
 2698000   0.81835837   -6.4211687      921.583  0.028465005  0.028019332            3 
 2699000    0.8194328   -6.4089232    922.03727  0.028468484  0.028011595            4 
 2700000   0.80542476   -6.4363763    920.95815  0.028424634  0.028003821            7 
 2701000   0.81275969   -6.4156133    923.05923  0.028478935  0.027996087            5 
 2702000   0.84220991   -6.3813045    920.93098  0.028402757  0.027988378           17 
 2703000   0.84362092   -6.4292682     921.5078  0.028410032  0.027980615            5 
 2704000   0.81594217    -6.388404    923.63563  0.028465102  0.027972849           15 
 2705000   0.82054591   -6.4121089    921.22454    0.0283803  0.027965111            5 
 2706000   0.84219471   -6.4225826    920.65546  0.028352287   0.02795739            6 
 2707000   0.81924938   -6.3846141    923.88959  0.028441374  0.027949703           10 
 2708000   0.80765552   -6.4115363    920.91707  0.028339398  0.027941979            7 
 2709000   0.82407079   -6.4214975    922.60369   0.02838082  0.027934196            6 
 2710000    0.8049707   -6.4228157    924.46454  0.028427569  0.027926441            7 
 2711000   0.82569811   -6.4021351    921.38227  0.028322337  0.027918735           10 
 2712000   0.82832101   -6.4527213    922.68822  0.028352022  0.027911035            9 
 2713000   0.82657908    -6.428474    922.91712  0.028348603  0.027903311            7 
 2714000   0.83693239   -6.4584253    920.47374  0.028263134  0.027895514           12 
 2715000   0.79831619    -6.403419    922.77505  0.028323359  0.027887766            5 
 2716000   0.80003817   -6.3899323    924.90783   0.02837837  0.027880113            5 
 2717000   0.80616325    -6.406661    923.07999  0.028311863  0.027872456            5 
 2718000   0.82378936   -6.4140654    921.78771  0.028261826  0.027864759           10 
 2719000    0.8110302   -6.4470571    922.27753  0.028266444  0.027857023            5 
 2720000    0.8261436   -6.4365157    921.67773  0.028237675  0.027849282            8 
 2721000   0.81768537   -6.4360815     921.6672  0.028226975  0.027841533           11 
 2722000   0.79831411   -6.3983012    924.44426  0.028301624  0.027833801            3 
 2723000   0.80286975    -6.406731    922.63486  0.028235857  0.027825996            7 
 2724000   0.82050751   -6.4209822    923.44069  0.028250143  0.027818246           16 
 2725000   0.79949617   -6.3986579    923.65031  0.028246187   0.02781052            9 
 2726000   0.83563881   -6.4159218    921.92019  0.028182936  0.027802815            7 
 2727000   0.81508746   -6.4121111    923.08294  0.028208133  0.027795102            5 
 2728000   0.80376235   -6.4217063    924.93529  0.028254377   0.02778735           15 
 2729000   0.83785045   -6.4213563    924.35835  0.028226406  0.027779681            6 
 2730000   0.80838184   -6.3926956    924.50672  0.028220596  0.027771984            6 
 2731000   0.82769778   -6.4379945    921.73701  0.028125748    0.0277643            5 
 2732000   0.79813452   -6.4574972    922.73536  0.028145905  0.027756573            5 
 2733000   0.82268526   -6.4085516    925.14611  0.028209114  0.027748831            7 
 2734000   0.80787946   -6.4355883    924.08016  0.028166306  0.027741134            7 
 2735000    0.8323395   -6.4162145    923.62878  0.028142254  0.027733382            8 
 2736000   0.82960259   -6.4418063    923.96332  0.028142158   0.02772566            5 
 2737000   0.81158066   -6.4223351    925.86886  0.028189893  0.027717903           21 
 2738000   0.80548787   -6.4129638    926.68933  0.028204569  0.027710082           24 
 2739000   0.80698168   -6.4649701    920.52559  0.028006742  0.027702242            9 
 2740000   0.79726966   -6.4700158    923.76331  0.028094991  0.027694377            6 
 2741000   0.81618747   -6.4516985    924.25395  0.028099658  0.027686616           10 
 2742000   0.81248795   -6.3997331    926.68135  0.028163182  0.027678907            4 
 2743000   0.81975313    -6.456794    922.69717  0.028031874  0.027671167            5 
 2744000   0.82681755   -6.4192043    922.87384  0.028027024   0.02766341           19 
 2745000   0.83450315   -6.4370323    924.42732  0.028063975  0.027655662           11 
 2746000   0.80184405   -6.4352117    924.13292   0.02804482  0.027647871           15 
 2747000   0.82214051   -6.4097255    926.82684  0.028116334  0.027640169            5 
 2748000   0.80655184    -6.434308    926.55892  0.028097978  0.027632435            7 
 2749000   0.81266166   -6.4586757    926.05796  0.028072571  0.027624715            5 
 2750000   0.81052484   -6.4430603    925.30239  0.028039466  0.027616955           11 
 2751000   0.83565217   -6.4134143    928.26143  0.028118909  0.027609282            4 
 2752000   0.81645731   -6.4532611    925.69687  0.028031034  0.027601679            9 
 2753000   0.81248206    -6.424828    926.53211  0.028046135  0.027593973            9 
 2754000   0.80735435    -6.438867    927.01794  0.028050652  0.027586317            9 
 2755000   0.81556494   -6.4226825    927.35003  0.028050515  0.027578648            5 
 2756000   0.79358184   -6.4468466    925.79947  0.027993453  0.027570879            4 
 2757000   0.81042474     -6.47427    923.76352   0.02792176  0.027563096           16 
 2758000    0.8099944    -6.445407    926.14783  0.027983679  0.027555337            5 
 2759000   0.80501102   -6.4403306    925.88781  0.027965682  0.027547631            8 
 2760000   0.80615706   -6.4484166    925.42164  0.027941475  0.027539903            5 
 2761000   0.80280699    -6.442988    929.21826  0.028045945  0.027532182            7 
 2762000   0.82113123   -6.4444369    927.29809  0.027977857  0.027524516            6 
 2763000   0.80548725   -6.4507086    925.06672  0.027900432  0.027516831           13 
 2764000   0.82527135   -6.4432038    928.49408  0.027993671   0.02750915           15 
 2765000   0.78938958   -6.4563543    928.12236  0.027972344  0.027501401           20 
 2766000   0.81499943   -6.4418986    928.22548  0.027965337  0.027493672            6 
 2767000   0.79986532   -6.4405033    929.97764     0.028008  0.027486075            5 
 2768000   0.79222576   -6.4368649     928.1469  0.027942766  0.027478455            5 
 2769000   0.80525443   -6.4404391    928.77911  0.027951701  0.027470832           17 
 2770000    0.8108729   -6.4302816    928.62316  0.027936918  0.027463194            4 
 2771000   0.81416676   -6.4322286     929.7589  0.027960992  0.027455592            7 
 2772000   0.80798928    -6.443499    927.58049  0.027885416  0.027447955            5 
 2773000   0.79189774   -6.4396958    928.07113  0.027890105  0.027440244            8 
 2774000   0.81849484   -6.4326891    930.20986    0.0279443  0.027432599           35 
 2775000   0.78534959   -6.4175056    929.51599  0.027913393  0.027424942           10 
 2776000   0.80562596     -6.48085    928.56858  0.027874897  0.027417293           10 
 2777000   0.79603484    -6.444748    929.43103   0.02789074  0.027409598           12 
 2778000   0.81956347   -6.4319704    929.08602  0.027870351  0.027401954           14 
 2779000   0.80394953   -6.4526762    928.72998  0.027849646  0.027394318            6 
 2780000   0.81142129   -6.4782242    928.97119  0.027846858  0.027386633           11 
 2781000   0.79985862   -6.4667294     929.2127  0.027844082  0.027379036           12 
 2782000   0.81586059   -6.4369233     931.0754  0.027889869  0.027371388           10 
 2783000   0.81557648   -6.4275706    932.56941  0.027924584  0.027363757           14 
 2784000   0.78620794   -6.4873914    928.46182  0.027791601   0.02735609            8 
 2785000   0.80587992   -6.4548011    931.67239   0.02787769  0.027348403            7 
 2786000    0.8166438   -6.4681596    929.07709  0.027790054  0.027340741            8 
 2787000   0.79506997   -6.4335628    932.86075  0.027893217  0.027333143            4 
 2788000     0.789533   -6.4400225    929.86364  0.027793629   0.02732555            7 
 2789000   0.80160081   -6.4520469    932.82228  0.027872065  0.027317991            8 
 2790000   0.79972278   -6.4267573    931.41281  0.027819976  0.027310498            5 
 2791000   0.79894993   -6.4235011    932.25797  0.027835243  0.027302968            6 
 2792000    0.8051987   -6.4397174    933.40712  0.027859573  0.027295395           11 
 2793000   0.81039568    -6.467071    930.44628  0.027761257  0.027287779            4 
 2794000   0.80501327   -6.4328849    929.39499  0.027719965  0.027280153            6 
 2795000    0.8086752   -6.4507701    930.11019  0.027731371  0.027272508            6 
 2796000   0.81778984   -6.4772337    928.68246    0.0276789  0.027264827            9 
 2797000    0.7907224   -6.4689858    931.62808  0.027756765  0.027257153            5 
 2798000   0.79599424   -6.4633914    928.30452  0.027647859  0.027249449            7 
 2799000   0.80647719   -6.4654439    929.79574  0.027682379  0.027241797           10 
 2800000   0.82237565   -6.4469913    932.70332  0.027759027  0.027234131            9 
 2801000    0.7951486   -6.4759941    930.12037  0.027672271  0.027226466           11 
 2802000   0.80341831   -6.4819715    932.24948  0.027725716  0.027218831            9 
 2803000      0.81573   -6.4362618     931.1744  0.027683863  0.027211162            9 
 2804000   0.80383912   -6.4153314    931.53581   0.02768473  0.027203565           11 
 2805000   0.79004081   -6.4501198    931.31741  0.027668372  0.027196048           18 
 2806000   0.80439072   -6.4329269    932.14395  0.027683058   0.02718844            7 
 2807000   0.79100023   -6.4369694    928.60512  0.027568137  0.027180831           11 
 2808000    0.8176173   -6.4779896    932.26783  0.027667018  0.027173171           13 
 2809000   0.80842551   -6.4873943    929.89763  0.027586853  0.027165457            6 
 2810000   0.80352868   -6.4555046    932.71548  0.027660602  0.027157742           14 
 2811000    0.8060441   -6.4899454    931.11609  0.027603347  0.027150081            4 
 2812000   0.80410664   -6.4748633    932.15949  0.027624452  0.027142423            6 
 2813000   0.80089682   -6.4889715    931.96475  0.027608862  0.027134829            7 
 2814000   0.79300642   -6.4643743    931.84356  0.027595462  0.027127203            8 
 2815000   0.78190238   -6.4577809    935.22821  0.027685856  0.027119601           15 
 2816000   0.81402056   -6.4689177    932.76798  0.027603219  0.027112055            9 
 2817000   0.79366792   -6.4550302    934.66489  0.027649535  0.027104517            7 
 2818000   0.80350935   -6.4937493      931.662  0.027550923  0.027096919            8 
 2819000   0.82216407   -6.4691344    932.61997  0.027569468   0.02708932            6 
 2820000    0.8031741   -6.4536986    933.12644  0.027574658  0.027081717           18 
 2821000   0.79714338   -6.4819846    935.40454   0.02763218   0.02707415            8 
 2822000   0.79796552   -6.4801877     930.8159  0.027486886  0.027066541           18 
 2823000   0.80641702   -6.4512244    933.56644  0.027558343  0.027058903            3 
 2824000   0.78618942    -6.475736    934.53838  0.027577266  0.027051362           12 
 2825000   0.78701396   -6.4859932     932.8256  0.027516979  0.027043808            6 
 2826000    0.7905687   -6.4634944    936.20817  0.027606988  0.027036192           10 
 2827000   0.79428668   -6.4497495    934.75568  0.027554406  0.027028566            8 
 2828000   0.79169186   -6.4449484    935.63628  0.027570612  0.027020975            7 
 2829000   0.78769237   -6.4561853    933.71573  0.027504293   0.02701338           14 
 2830000   0.80088747   -6.5185366    933.58521  0.027490731  0.027005713           22 
 2831000    0.7867573   -6.4821622    933.05664  0.027465461  0.026998082            7 
 2832000   0.79923383   -6.4682631    935.35157  0.027523292  0.026990489           12 
 2833000   0.79463936   -6.4252914    936.05631  0.027534307  0.026982928            7 
 2834000   0.78429084    -6.452333    934.93828  0.027491716  0.026975369            6 
 2835000   0.81074766    -6.454964    936.18111  0.027518551   0.02696782            4 
 2836000   0.80480266   -6.4586524     933.7933  0.027438684  0.026960222            4 
 2837000   0.81135049   -6.4992422    931.65728   0.02736627  0.026952624            9 
 2838000   0.78624678   -6.4837608    932.67226   0.02738643  0.026944921            8 
 2839000   0.78378682   -6.4948459     932.6216  0.027375297   0.02693724            9 
 2840000     0.783448   -6.5280766    930.09518  0.027291525  0.026929536           21 
 2841000     0.789962    -6.497465    931.88608   0.02733445  0.026921868            8 
 2842000   0.79335512   -6.5009188    933.83516  0.027381983  0.026914176            5 
 2843000    0.7863942   -6.5196226    932.61637  0.027336627  0.026906496           12 
 2844000   0.79724235   -6.4734969     934.0122  0.027367915  0.026898856           12 
 2845000   0.80909809   -6.4763635    935.16484  0.027392058  0.026891302            4 
 2846000   0.79378069   -6.4859233     933.7852  0.027342035  0.026883755            9 
 2847000   0.80239116   -6.4778128    936.47887  0.027411277  0.026876194           10 
 2848000   0.80173012   -6.4610724    936.34376  0.027397699  0.026868629            8 
 2849000   0.81045413   -6.4916028    934.90392  0.027345967   0.02686109           11 
 2850000   0.79643182   -6.4875917    934.90497  0.027336403   0.02685361            8 
 2851000   0.80071926   -6.4938293    935.20675  0.027335635  0.026846028            6 
 2852000   0.80104348   -6.4897829    937.04039  0.027379628   0.02683846            7 
 2853000   0.77817865   -6.4757286    937.57046  0.027385514  0.026830996           15 
 2854000   0.81456211    -6.500299    936.27023  0.027337953  0.026823514           13 
 2855000   0.78588945   -6.4781175    942.05492  0.027497225  0.026816034           11 
 2856000   0.79045675   -6.4662123    937.92178  0.027366999   0.02680857            7 
 2857000   0.78584358   -6.4861473    937.25685  0.027338025  0.026801049            7 
 2858000   0.76691923   -6.4682388    935.95968  0.027290637  0.026793546            6 
 2859000   0.78486674   -6.4580258    937.26508  0.027319141  0.026786092           14 
 2860000   0.80206627   -6.4730963    937.62216  0.027319993  0.026778676           12 
 2861000    0.7978255   -6.4853551    935.19132   0.02723964  0.026771208           17 
 2862000   0.79733487    -6.467553    938.42409  0.027324251  0.026763757            5 
 2863000   0.78311055    -6.515159    935.45802  0.027228374  0.026756275           14 
 2864000   0.80193188   -6.4917523    937.62109  0.027281806  0.026748709           14 
 2865000   0.79400734   -6.4693018    940.01721  0.027341978  0.026741247           10 
 2866000   0.78507456   -6.4851143    937.97191  0.027272968  0.026733766           12 
 2867000   0.80580202   -6.4726347    937.76322  0.027257389  0.026726294           15 
 2868000   0.80060869   -6.4842628    937.30012  0.027234429  0.026718859            9 
 2869000   0.80550716   -6.4424554    937.66039  0.027235401   0.02671145            7 
 2870000   0.78812812   -6.5099644    935.31569  0.027157831  0.026703961            5 
 2871000   0.78479053    -6.507908    938.42148   0.02723852  0.026696449            8 
 2872000   0.80555737   -6.5052881    936.57356  0.027175417  0.026688964            7 
 2873000   0.79850053   -6.4836713    941.34337  0.027304309   0.02668148            5 
 2874000   0.77859858   -6.5206361    938.45738  0.027211128  0.026673983            8 
 2875000   0.77822207   -6.4843778    937.66062  0.027178569  0.026666472            8 
 2876000   0.80361209   -6.4969848    938.30189    0.0271877  0.026659005            5 
 2877000    0.8026936   -6.4990761    939.06831  0.027200449  0.026651493            9 
 2878000   0.79672872   -6.5158549     938.2538  0.027167414  0.026644044            5 
 2879000   0.80509553   -6.4592864    941.36161  0.027247933  0.026636688            6 
 2880000   0.78918156   -6.4961736    939.09941  0.027173015  0.026629361            8 
 2881000   0.78595342   -6.5121862    939.27433  0.027168643  0.026621955            8 
 2882000   0.77473424   -6.4823535    941.14039  0.027213173  0.026614544            9 
 2883000   0.80176005   -6.5086896    940.77197  0.027193085  0.026607152           27 
 2884000   0.78906523   -6.4971462    938.24556  0.027110655  0.026599768            5 
 2885000   0.78215855   -6.5082565    938.31825  0.027103358  0.026592335            9 
 2886000   0.78182964   -6.4793024    940.56282  0.027158778  0.026584925            6 
 2887000   0.78325876   -6.4750061    942.41329  0.027202785  0.026577558            8 
 2888000   0.78871782   -6.4691436    942.28531  0.027189673  0.026570131           11 
 2889000    0.7847277   -6.4754433     943.0515  0.027202362  0.026562758           18 
 2890000   0.79558455   -6.4811992    940.21654  0.027111204  0.026555358            7 
 2891000   0.80708656   -6.5041774    939.63498  0.027085062  0.026547932            7 
 2892000   0.78273111   -6.4850582    936.32713  0.026980381  0.026540482           10 
 2893000   0.79775227   -6.5068737    939.84747  0.027072458  0.026533001           10 
 2894000   0.76801402   -6.4688966    939.80586  0.027061906  0.026525553            9 
 2895000   0.79773982   -6.4967533     940.5143   0.02707295  0.026518118            3 
 2896000    0.7838367   -6.5011412    940.83849  0.027072931   0.02651066           11 
 2897000   0.78518404   -6.4777984    939.71591  0.027031294  0.026503232           11 
 2898000   0.78290032   -6.5015178    939.07028  0.027003401   0.02649576           15 
 2899000    0.7990163   -6.4901354    939.87293  0.027017159  0.026488283            9 
 2900000   0.78388332   -6.5309731    937.21814  0.026931556  0.026480792            6 
 2901000   0.78333012   -6.4942967    939.48983  0.026987528  0.026473303            8 
 2902000   0.79058856   -6.4728726    939.55791  0.026980183  0.026465833            8 
 2903000   0.80801229   -6.4859354    938.49244  0.026940304  0.026458348            8 
 2904000   0.80112745   -6.4929797    942.41229  0.027043511  0.026450858            9 
 2905000   0.80192384   -6.5166702    939.03115   0.02693721  0.026443386            8 
 2906000   0.80266379     -6.47673    939.95727  0.026954498   0.02643596            8 
 2907000     0.804946   -6.4866049     942.6633  0.027022798  0.026428496           18 
 2908000   0.79185133    -6.495301    940.47443   0.02695078  0.026421074            7 
 2909000   0.79845053   -6.5069278    942.49467  0.026999389  0.026413645           11 
 2910000   0.78799046   -6.5068956    940.92646  0.026945202  0.026406201           22 
 2911000   0.79995201   -6.5184361    940.04185  0.026910622  0.026398718            7 
 2912000   0.79344536   -6.5129851      941.128  0.026932464  0.026391256            5 
 2913000    0.8079232   -6.5126731     939.9067   0.02688828   0.02638383            8 
 2914000   0.78745754   -6.5279072    939.41733  0.026865057  0.026376402            6 
 2915000   0.78502534   -6.5002504    943.26876  0.026965945   0.02636899            4 
 2916000   0.78342168   -6.4991486    942.90085  0.026946183  0.026361551            4 
 2917000   0.76520506   -6.4834412    940.32102  0.026863245  0.026354198            6 
 2918000    0.7924759   -6.4732331    943.06528   0.02693241   0.02634685            8 
 2919000    0.7933426   -6.4800695    940.63467  0.026853793  0.026339479            7 
 2920000   0.78670105   -6.5170082    941.43361  0.026867398  0.026332079            6 
 2921000   0.79931452   -6.4874475    941.35242  0.026855883  0.026324616            9 
 2922000    0.7988425   -6.4841941     942.1428  0.026869233  0.026317218           12 
 2923000   0.78637038   -6.4809863    944.31988  0.026922109  0.026309825           12 
 2924000   0.76844945   -6.5326884     943.9234  0.026901602  0.026302414           14 
 2925000   0.79798435   -6.5226281    942.71896   0.02685809  0.026294954            6 
 2926000   0.78374663   -6.5159289    941.19258  0.026805439  0.026287426           13 
 2927000   0.80032051   -6.5137424    941.43016  0.026803045  0.026279922           11 
 2928000    0.7861379    -6.497041    943.44563  0.026851253  0.026272478            9 
 2929000   0.78539959   -6.5249926    940.74754  0.026765322  0.026265005           10 
 2930000   0.79399079   -6.5324506    941.98118  0.026791274  0.026257499            7 
 2931000   0.77360347   -6.4905372    941.54736  0.026769799  0.026249987           10 
 2932000   0.79443256   -6.5251592    941.34062  0.026754793  0.026242508            9 
 2933000   0.78086459   -6.4776655    943.29365  0.026801161  0.026235075           12 
 2934000   0.78204828   -6.5066551    940.60463  0.026715651    0.0262276            8 
 2935000   0.78397378   -6.5212083     943.2403  0.026781383   0.02622012           13 
 2936000    0.7755445   -6.5370443    940.23112  0.026686851    0.0262126            7 
 2937000     0.786341   -6.4914936    944.01624  0.026785162   0.02620514            8 
 2938000   0.76502705   -6.5127058    938.57322  0.026621659  0.026197655            9 
 2939000   0.77536806   -6.5149647    943.21661  0.026744261  0.026190179           27 
 2940000    0.7767631   -6.5200526    940.97814  0.026671716   0.02618275            8 
 2941000   0.77783952   -6.5139189    942.50501  0.026705911   0.02617534           20 
 2942000   0.77537911   -6.5250206    942.30308  0.026691114  0.026167888           18 
 2943000   0.80279065   -6.5360256    940.43458  0.026629136  0.026160421            8 
 2944000   0.76815339   -6.4986078    943.09201  0.026695313  0.026152953           20 
 2945000   0.77516633   -6.5108109    943.20287  0.026689385  0.026145502            9 
 2946000   0.78423268   -6.5034289    943.60094  0.026691586  0.026138117            8 
 2947000   0.76971331   -6.5362595    941.12383  0.026612483  0.026130719           14 
 2948000   0.78119751   -6.4923766    946.32767  0.026750556  0.026123341            8 
 2949000   0.78626105    -6.502097    944.23346  0.026682307  0.026115959            8 
 2950000   0.78951822   -6.5140178     944.9229  0.026692737  0.026108586            6 
 2951000   0.78198604   -6.4948141    943.90626  0.026654983  0.026101219           11 
 2952000   0.77025605   -6.5126858    942.63996  0.026610207  0.026093838            8 
 2953000   0.79802435   -6.5016944    944.88553  0.026664565  0.026086401           13 
 2954000    0.7799832    -6.504142    942.89864  0.026599488  0.026079036           14 
 2955000   0.77995374   -6.5200201    945.02101  0.026650339  0.026071658           11 
 2956000   0.78370017   -6.5210903    943.68444  0.026603644  0.026064252            9 
 2957000   0.77443107   -6.4927686    946.19935  0.026665521  0.026056856            8 
 2958000   0.78859859   -6.5092356    945.06003  0.026624409  0.026049485           13 
 2959000   0.77993795   -6.5386469    943.75976  0.026578792  0.026042103            8 
 2960000   0.76155862   -6.5316019    946.71919   0.02665313  0.026034645           15 
 2961000   0.76787803   -6.5480884    942.19636   0.02651684  0.026027197            8 
 2962000   0.77262885   -6.5366409    945.57476  0.026602936  0.026019701            6 
 2963000   0.78442118    -6.519729    943.93348  0.026547797  0.026012303            9 
 2964000   0.77811624   -6.5085142    943.85277  0.026536571  0.026004945           14 
 2965000   0.76914795   -6.5347867    942.93015  0.026501691  0.025997565           12 
 2966000   0.78270246   -6.5482084    942.84671  0.026490411   0.02599018            9 
 2967000   0.77552137   -6.5161544    943.24467   0.02649266   0.02598274            9 
 2968000   0.77539579   -6.5171631    945.90389  0.026558398  0.025975312            9 
 2969000   0.75734319   -6.5327602    944.44741  0.026508572  0.025967869            9 
 2970000   0.78396971   -6.4954572    946.00314  0.026543298  0.025960478            6 
 2971000   0.75017569   -6.4841157    947.99395  0.026590204  0.025953076           11 
 2972000   0.78261264   -6.5038428    944.97066  0.026496486   0.02594576           17 
 2973000    0.7810829   -6.5478823    944.49973  0.026474373  0.025938383            8 
 2974000   0.77416187   -6.5167753    945.90188   0.02650476     0.025931            6 
 2975000    0.7651365   -6.5180449      943.992  0.026442353  0.025923633           22 
 2976000   0.77965457   -6.4775061    949.57122  0.026589696  0.025916307            8 
 2977000   0.76282972   -6.5076528    948.45246  0.026549447  0.025908911            7 
 2978000   0.77590653   -6.5190738    946.70815  0.026491721  0.025901512           22 
 2979000   0.76130792   -6.5299001    945.51892  0.026449562  0.025894111           13 
 2980000   0.76896428   -6.5492619    944.05917  0.026399865  0.025886631           11 
 2981000   0.77589793   -6.5033644    947.25198  0.026480263  0.025879164           14 
 2982000    0.7765593    -6.571208    945.01315  0.026408818  0.025871769            7 
 2983000   0.77804702   -6.5278875    945.80396  0.026422057  0.025864382            5 
 2984000   0.78467863   -6.5148625    945.48898  0.026404406  0.025856976            7 
 2985000   0.78482421   -6.5739369    941.84587  0.026293855  0.025849506            8 
 2986000   0.76611862   -6.5278653    946.06915  0.026402912  0.025842038            6 
 2987000     0.783255   -6.5161929    944.85118  0.026360093  0.025834601            9 
 2988000   0.78103699   -6.5322294    944.54799  0.026342815  0.025827217            6 
 2989000   0.77939033   -6.5385282    946.05251  0.026375948  0.025819798            5 
 2990000   0.77538618   -6.5135604    947.30697  0.026402089  0.025812379           16 
 2991000   0.77592569   -6.5244236    946.70336  0.026376445  0.025804955            5 
 2992000   0.76990147   -6.5347956    944.98679  0.026319819  0.025797528            9 
 2993000   0.76948494   -6.5265227    946.29622  0.026347484  0.025790093            5 
 2994000   0.77266258   -6.5275943    944.19835  0.026280293  0.025782635            6 
 2995000   0.77705569   -6.5335622    943.67331  0.026256909  0.025775141           10 
 2996000   0.79004306    -6.526587     945.0853  0.026287419   0.02576767           20 
 2997000   0.77135599    -6.525667    943.25328  0.026227708  0.025760195           10 
 2998000   0.78155141   -6.5596206    943.65693  0.026230179  0.025752709            6 
 2999000   0.75572415   -6.5520644    945.04201   0.02625992  0.025745231           10 
 3000000   0.77213493   -6.5512939    942.71233  0.026186454  0.025737706            8 
 3001000   0.75628939   -6.5039772     946.1916  0.026274342  0.025730171           10 
 3002000   0.77713973   -6.5329077    942.69322  0.026168477  0.025722703            9 
 3003000   0.77521435   -6.5323765    944.06397  0.026197801  0.025715188            8 
 3004000   0.76595113   -6.5218899    945.96032  0.026241687  0.025707712            5 
 3005000   0.76936769   -6.5251547    946.33081  0.026243228  0.025700293            7 
 3006000   0.76227592   -6.5630831    945.69727  0.026216935  0.025692854            8 
 3007000   0.76369936   -6.5632949    945.78459  0.026210636  0.025685404           12 
 3008000     0.764716    -6.556382    946.98794   0.02623526  0.025677946            9 
 3009000    0.7634531   -6.5396044    945.30302  0.026179878  0.025670515            7 
 3010000   0.76497325   -6.5430249    947.71174  0.026237867   0.02566307           15 
 3011000   0.76384061   -6.5704946    945.48144  0.026167426  0.025655659            4 
 3012000   0.76570925   -6.5373531    946.52466  0.026187601  0.025648251            7 
 3013000   0.77491626   -6.5391379    947.51356  0.026206261  0.025640848            6 
 3014000    0.7681628   -6.5647883    946.60146  0.026172347  0.025633444           16 
 3015000   0.79203517   -6.5680629    946.06049  0.026148714  0.025626061           12 
 3016000   0.76790778   -6.5584317    945.72628   0.02613081   0.02561864            5 
 3017000   0.75442637   -6.5463201     946.5721  0.026145511  0.025611211            6 
 3018000   0.76379234   -6.5264046    945.86881  0.026117429  0.025603787            6 
 3019000   0.76759437   -6.5634697    945.51805  0.026099096  0.025596375           16 
 3020000   0.76557638   -6.5513321    946.12983  0.026107335  0.025588961           11 
 3021000    0.7749408   -6.5541274    946.08628  0.026097492  0.025581539            6 
 3022000   0.76679053   -6.5763319    944.84941  0.026054749  0.025574146            7 
 3023000   0.75660349   -6.5585309    948.56339  0.026148511  0.025566761           19 
 3024000   0.76709576   -6.5398907    947.38523  0.026107397  0.025559381            9 
 3025000   0.76180489   -6.5479565    948.24253  0.026122384  0.025551996            6 
 3026000   0.77069275   -6.5809801    947.03348  0.026080455  0.025544622           13 
 3027000   0.77653881   -6.5597273    948.85209  0.026121905  0.025537246            7 
 3028000    0.7610134   -6.5543068    948.57221  0.026105576  0.025529825           13 
 3029000   0.75631544   -6.6204364    944.54545  0.025986174  0.025522327           27 
 3030000   0.78347537   -6.5620612    946.96416  0.026044119  0.025514877           24 
 3031000   0.77453834    -6.572351    945.83868  0.026004583  0.025507425            7 
 3032000   0.76391664   -6.5420675    947.45037  0.026040303  0.025499994            5 
 3033000    0.7696574   -6.5380208    948.70233  0.026066115  0.025492538            6 
 3034000   0.76298163   -6.5907851     943.8562  0.025924418  0.025485125           12 
 3035000   0.76251253   -6.5679296    948.84471  0.026052848  0.025477672            6 
 3036000   0.77145335   -6.6004852    944.58636  0.025927381  0.025470233           11 
 3037000   0.77132362   -6.5819633    944.75168  0.025923381  0.025462755            8 
 3038000   0.76415176   -6.5718354    945.86261  0.025945321  0.025455297            8 
 3039000   0.75699531   -6.5671847    943.77767  0.025879611  0.025447835           11 
 3040000   0.76819331   -6.5904173    943.42783  0.025861508  0.025440383            7 
 3041000   0.77366637   -6.5600782    947.73181  0.025970947  0.025432933           31 
 3042000   0.76210718   -6.5570231    947.26204  0.025949541  0.025425464           11 
 3043000   0.78146209   -6.5696596     949.0845  0.025990922  0.025418025           23 
 3044000   0.75876984   -6.5822298    948.05197  0.025954117  0.025410535           11 
 3045000   0.75389144   -6.5274196    950.26036  0.026006031  0.025403151            8 
 3046000   0.76012364   -6.5634901    945.93686  0.025879209  0.025395804           18 
 3047000    0.7709401   -6.5385086    949.21416  0.025960348  0.025388413           13 
 3048000   0.75494938   -6.5427402    949.51266  0.025959992  0.025381025           15 
 3049000   0.74949684   -6.5741352    948.46922  0.025922959  0.025373634           15 
 3050000   0.75333452    -6.575259    948.61461  0.025918432  0.025366187            9 
 3051000   0.75657513   -6.5586913    946.19773  0.025843923  0.025358757           10 
 3052000   0.75582016   -6.5831589    946.79689  0.025851815  0.025351292            8 
 3053000   0.75678172   -6.5758998    946.04591  0.025822849  0.025343852           19 
 3054000   0.77346235     -6.54418    945.86601  0.025809485  0.025336376            9 
 3055000   0.77461338   -6.5553126    946.27095  0.025812083  0.025328922            7 
 3056000   0.76088379   -6.5558606    946.74535  0.025816573  0.025321466            8 
 3057000   0.75896759   -6.5383352    949.07174  0.025871545  0.025314022            7 
 3058000   0.75284633   -6.5601057    950.99896  0.025915603  0.025306623            7 
 3059000   0.75098303   -6.5516773    948.96508  0.025851724  0.025299189            8 
 3060000   0.77834268   -6.5501606    949.73969  0.025864371  0.025291802            9 
 3061000   0.75187469   -6.5447945     948.9599  0.025834692    0.0252844            5 
 3062000   0.76299225   -6.5673181    948.21552  0.025805996  0.025276979           16 
 3063000   0.76624427    -6.571495    948.45085  0.025803973  0.025269508            6 
 3064000   0.76709963   -6.5591407    946.70065  0.025747951  0.025261997           11 
 3065000   0.75800459   -6.5785528    946.03418  0.025721429  0.025254526           10 
 3066000   0.76796667   -6.5637427    948.13032  0.025770013  0.025247009            9 
 3067000   0.75278427   -6.5584466    949.95151  0.025811094  0.025239557            6 
 3068000    0.7612276   -6.5508839    949.35187  0.025786394   0.02523213           10 
 3069000   0.76518334   -6.5802049    948.68159  0.025759791  0.025224689            9 
 3070000   0.75025926   -6.5696953    947.37194  0.025715851  0.025217203            9 
 3071000    0.7638201   -6.5709198    947.44096   0.02570935  0.025209735            6 
 3072000   0.76799164   -6.5901797     946.8275   0.02568434  0.025202237            6 
 3073000   0.76836524   -6.5681581    947.55804  0.025695792  0.025194759            6 
 3074000   0.76855492   -6.5666277    945.93199  0.025643353  0.025187301           10 
 3075000   0.74605924   -6.5441082    948.69156  0.025709799  0.025179821            6 
 3076000   0.76858331   -6.5671652    944.65941  0.025592203  0.025172381            8 
 3077000   0.78465534   -6.5587812    948.61055  0.025690893  0.025164939           18 
 3078000   0.76675706   -6.5860059    945.90585   0.02560932  0.025157463            6 
 3079000   0.76138086   -6.5883627    947.76095  0.025651211  0.025149975           11 
 3080000   0.76502643   -6.5868022    944.22721  0.025547273   0.02514241           32 
 3081000   0.75793723    -6.609291    946.21002  0.025592611  0.025134887           10 
 3082000    0.7564616    -6.568046    946.46701  0.025591256  0.025127338           20 
 3083000   0.75432998   -6.5906138     944.9698  0.025542486  0.025119829           12 
 3084000   0.74615355   -6.5647499    949.22171  0.025649095  0.025112307            9 
 3085000   0.76380704   -6.5555765    949.13214  0.025638361  0.025104851            8 
 3086000   0.74441389   -6.5892042    947.16303   0.02557688  0.025097383            8 
 3087000   0.76914668   -6.6068343    945.03929  0.025511265  0.025089924           14 
 3088000   0.73572102   -6.5934606     948.9661  0.025608973  0.025082454           12 
 3089000   0.75789693   -6.5578653    947.30714  0.025555928  0.025075003           12 
 3090000   0.75617516   -6.5988551    947.83172  0.025561805  0.025067499           23 
 3091000   0.76274238   -6.6083304    946.36705  0.025514047  0.025059979           16 
 3092000   0.76385807   -6.5807283    946.36892  0.025505846  0.025052479            8 
 3093000    0.7386438     -6.59038    946.46155  0.025500096   0.02504496            7 
 3094000   0.76180036   -6.5976915    946.95155  0.025505052  0.025037444            9 
 3095000   0.75854025   -6.5984174    948.67592   0.02554324  0.025029964           14 
 3096000   0.74028296   -6.5469598    946.75433  0.025483267  0.025022511            9 
 3097000   0.74647843   -6.5454596    951.50406  0.025602843  0.025015091            5 
 3098000   0.74020934   -6.5827267    948.61799  0.025516946  0.025007656            7 
 3099000    0.7600905   -6.5758554    949.14131  0.025522784  0.025000181           20 
 3100000   0.76387517   -6.5905447    948.85145   0.02550676  0.024992755            4 
 3101000    0.7506722   -6.5960854    947.28661  0.025456482  0.024985313            6 
 3102000   0.76033737    -6.590226    951.71359  0.025567204  0.024977873            7 
 3103000    0.7526477   -6.6137111    948.73598  0.025478998  0.024970421           11 
 3104000   0.77029881   -6.5793199     951.1804  0.025536415  0.024962931            7 
 3105000   0.75755131   -6.5896072    948.97482  0.025468997  0.024955467           10 
 3106000   0.74611662   -6.5887363     950.0821  0.025490505   0.02494802            9 
 3107000   0.76341363    -6.620701    947.00994  0.025399902  0.024940567           14 
 3108000   0.75911463   -6.5932313    948.07284  0.025420228  0.024933087           20 
 3109000   0.74939275   -6.5539901    948.70462  0.025428986  0.024925653           10 
 3110000    0.7571361    -6.565003    950.30164  0.025463602  0.024918267           13 
 3111000   0.74570187   -6.5757034    948.42062  0.025405031  0.024910867           10 
 3112000   0.74309552   -6.6207464    949.54101  0.025426869    0.0249034            8 
 3113000   0.77121918   -6.5829523    951.48825  0.025470828   0.02489594           10 
 3114000   0.74339737   -6.6018701    949.42528  0.025407442  0.024888519           13 
 3115000   0.75573792   -6.5930709    949.29312   0.02539575  0.024881068            9 
 3116000   0.75267217   -6.6162428    951.61363  0.025449658  0.024873624            8 
 3117000   0.74339625   -6.5896317    946.43478  0.025303037    0.0248662           10 
 3118000   0.74452176   -6.6008525     949.8773  0.025386928  0.024858729           10 
 3119000   0.75620728   -6.6050779    949.34894  0.025364672  0.024851315           10 
 3120000   0.75119624   -6.5663479    952.48819   0.02544039  0.024843926            9 
 3121000    0.7619913   -6.5862956    950.07578  0.025367825  0.024836544           11 
 3122000   0.77017935   -6.5858838    947.82673  0.025299667  0.024829154           13 
 3123000   0.75104825   -6.5716664    950.51002  0.025363166   0.02482179           29 
 3124000   0.75553673   -6.6247223    947.20061  0.025266768  0.024814371           36 
 3125000   0.76391374   -6.5951728    949.11535  0.025309743  0.024806949            7 
 3126000    0.7406885   -6.6076454    950.07616   0.02532726  0.024799537           14 
 3127000   0.74328335   -6.6115917     951.1545  0.025347897  0.024792145            9 
 3128000   0.76014931   -6.5931069    952.50922  0.025375885  0.024784734           13 
 3129000   0.74954984   -6.6049383    949.00434  0.025274431  0.024777308           15 
 3130000   0.76191716   -6.6033925    949.54801  0.025280831  0.024769884           18 
 3131000   0.74915518   -6.6028005    948.96085  0.025257129   0.02476245           14 
 3132000     0.737966   -6.5679675    951.20306  0.025308723  0.024755044            9 
 3133000   0.73560635   -6.5527661    951.30475   0.02530335  0.024747665           11 
 3134000   0.74399293   -6.5995813    951.96344  0.025312791  0.024740293           15 
 3135000   0.74999671   -6.6093657    950.56379  0.025267512  0.024732899            6 
 3136000   0.75753631   -6.6087532    949.23648  0.025224184  0.024725475            9 
 3137000   0.73709894   -6.6071587    953.42702  0.025327463  0.024718053            8 
 3138000   0.73885517   -6.6266241    947.95913  0.025174186  0.024710638            7 
 3139000   0.74516119    -6.633195    948.97469  0.025193126  0.024703204            6 
 3140000   0.76391096   -6.5986666    950.50316  0.025225668  0.024695779           30 
 3141000   0.75227368   -6.5916124     952.0252  0.025258018  0.024688403           16 
 3142000    0.7557004   -6.6189463    949.71752  0.025188774  0.024681042           14 
 3143000   0.74197653   -6.6169064    949.65069  0.025178987  0.024673617           12 
 3144000   0.75181091   -6.6230332    949.12199  0.025156965  0.024666192           14 
 3145000   0.74591625   -6.6307342    949.79974  0.025166925  0.024658776           16 
 3146000   0.75581611   -6.5920659    951.63544   0.02520755   0.02465138            7 
 3147000   0.74505866   -6.6013365    952.26548  0.025216224   0.02464398           12 
 3148000   0.75191631   -6.5813418     951.8178  0.025196363   0.02463662            9 
 3149000   0.74559137     -6.59724    950.72287  0.025159386  0.024629309           15 
 3150000   0.74281653   -6.5950587    950.99913  0.025158707  0.024621933           17 
 3151000   0.75716571   -6.6122891    948.52302  0.025085238  0.024614518           37 
 3152000   0.75726831   -6.5951996    953.03529  0.025196576  0.024607122           12 
 3153000   0.75166857   -6.5993689    952.62951   0.02517786   0.02459969           17 
 3154000   0.76309453   -6.5990029    952.91831  0.025177508  0.024592319           15 
 3155000    0.7395893   -6.6458462    949.78082  0.025086657  0.024584903           13 
 3156000   0.74215727   -6.6347178     949.6085  0.025074158  0.024577525           20 
 3157000   0.75412884   -6.6434189    949.87558  0.025073265  0.024570145           15 
 3158000   0.74844626   -6.6127285    950.57845  0.025083873  0.024562781            9 
 3159000   0.75551094    -6.625068    949.89998  0.025058035   0.02455543           15 
 3160000   0.74207934   -6.5907114    950.12031  0.025055915  0.024548026           17 
 3161000   0.73306532   -6.5884454    954.12095  0.025153457  0.024540647           12 
 3162000   0.74961024   -6.6211457    948.77675  0.025004658  0.024533281            7 
 3163000   0.75120626    -6.615855    951.24466  0.025061773  0.024525913           15 
 3164000   0.75154635   -6.6094825     952.5131   0.02508726  0.024518558           10 
 3165000   0.75189456   -6.6060707    952.53244  0.025079843  0.024511213            6 
 3166000   0.73742485   -6.6181978    951.67016  0.025049225  0.024503839           14 
 3167000   0.73660137   -6.5847858    950.27033  0.025004482  0.024496475           14 
 3168000   0.73497705   -6.5987028    950.74781  0.025009149  0.024489122           11 
 3169000   0.75207608   -6.6053453      953.719  0.025079389  0.024481783           29 
 3170000   0.74462244   -6.6059563    953.34417  0.025061624  0.024474448           15 
 3171000   0.75099593   -6.6240831    953.02154  0.025045242  0.024467154           26 
 3172000   0.75049097   -6.6051051     954.0069  0.025063233  0.024459853            8 
 3173000   0.73694876    -6.617629    951.93902  0.025001025  0.024452536           11 
 3174000   0.76439673   -6.5961784    953.22905  0.025027018  0.024445239           11 
 3175000   0.74640029   -6.6097006    951.33735  0.024969484  0.024437904           48 
 3176000   0.73513298   -6.6107544    950.59559   0.02494216  0.024430581           16 
 3177000   0.75747032   -6.6227649    950.55681  0.024933292  0.024423264           18 
 3178000   0.74435127   -6.6193612    950.99356  0.024936899  0.024415953           15 
 3179000   0.75241021   -6.5931766    951.95076  0.024954146  0.024408647           20 
 3180000   0.74959575   -6.6292069      953.478  0.024986321  0.024401337            6 
 3181000   0.74984463   -6.6178209     955.5571  0.025032932  0.024394042           15 
 3182000   0.73441915    -6.614533    954.94879  0.025009134  0.024386724            9 
 3183000   0.74072307   -6.6018802    954.27361  0.024983601   0.02437942           12 
 3184000   0.74076081   -6.6251048    951.12531  0.024893355  0.024372108           14 
 3185000   0.74556075   -6.6315062    951.98165  0.024907945  0.024364772           17 
 3186000   0.75819498   -6.6017965    952.34374  0.024909598  0.024357469            9 
 3187000   0.73822038   -6.6247668    950.55053  0.024854893   0.02435012           12 
 3188000   0.73335515   -6.6297564    950.54372  0.024846919  0.024342747           14 
 3189000   0.74673923   -6.6173162    952.79123  0.024897858  0.024335378            8 
 3190000   0.76153503   -6.6330645    951.98263   0.02486893  0.024328038           11 
 3191000   0.73819631    -6.635006    952.15649  0.024865677   0.02432067            8 
 3192000   0.75062303   -6.6464306    953.03583  0.024880843  0.024313313            8 
 3193000   0.73469205   -6.6245736    950.81449  0.024815077  0.024305897           12 
 3194000   0.74429217   -6.6385085    951.91723  0.024836079  0.024298549            5 
 3195000   0.73781212   -6.6347147    950.02101  0.024778847  0.024291141            4 
 3196000   0.75435793   -6.6274567    950.28284  0.024777921  0.024283727            5 
 3197000   0.73332116   -6.6187255    951.71347  0.024807462  0.024276328            9 
 3198000   0.75301124   -6.6062946    952.35476  0.024816415  0.024268962            8 
 3199000   0.73586305    -6.628574    953.19576  0.024830566  0.024261612            9 
 3200000   0.73176954   -6.6412845    951.81453  0.024786837  0.024254254           15 
 3201000   0.74741962   -6.6237972    953.57594  0.024824949  0.024246874           10 
 3202000   0.74277546   -6.6181401    953.40763  0.024812816  0.024239553            8 
 3203000   0.72222907   -6.6317747    951.91864  0.024766329  0.024232237            9 
 3204000   0.73629048    -6.617172     953.1166  0.024789758  0.024224929           11 
 3205000   0.75233312   -6.6329986    954.64362  0.024821727   0.02421765           19 
 3206000   0.74748892   -6.6445657    949.03614   0.02466823  0.024210314            5 
 3207000   0.73586046   -6.6683101    952.68762  0.024755421  0.024202933            9 
 3208000   0.74136985   -6.6520027    953.38327  0.024765775  0.024195551           38 
 3209000   0.73282826   -6.6208654    955.76472    0.0248199  0.024188226           19 
 3210000   0.74787964   -6.6205286    953.04454  0.024741551  0.024180896           14 
 3211000   0.74621578    -6.620283    954.66525  0.024775907  0.024173654           18 
 3212000   0.73857419   -6.6127455    953.15172  0.024728926   0.02416639           12 
 3213000   0.76029697   -6.6412922    954.44772  0.024754843  0.024159135            7 
 3214000   0.72541344   -6.6181796    953.96987  0.024734751  0.024151838           15 
 3215000   0.72700966   -6.6323311    954.38118  0.024737718  0.024144552           17 
 3216000   0.73730247   -6.5932328    956.27804  0.024779178  0.024137307            8 
 3217000   0.74086813   -6.5926251    957.53995  0.024804164   0.02413011           16 
 3218000   0.74783292   -6.6625758    955.75673  0.024750278  0.024122886            7 
 3219000    0.7425348   -6.6198934    954.09548  0.024699583  0.024115622            9 
 3220000   0.74058897   -6.5935173    956.43003   0.02475233  0.024108393           11 
 3221000   0.73149686   -6.5914761    955.97332  0.024732829  0.024101179            8 
 3222000   0.72287326   -6.6195606    956.69433  0.024743801  0.024093943            6 
 3223000    0.7335228   -6.6657162    955.11648  0.024695327  0.024086682            5 
 3224000   0.73468307   -6.6272791    955.52178  0.024698144   0.02407944            5 
 3225000   0.72248545    -6.612167    956.69636  0.024720836  0.024072191           22 
 3226000   0.73589094   -6.6568231     953.0113  0.024617981   0.02406495           13 
 3227000   0.73021022   -6.6301723    955.14449   0.02466544  0.024057708           14 
 3228000   0.73939149   -6.6634284    953.34454  0.024611332  0.024050486           21 
 3229000   0.73853704   -6.6720044    954.42225  0.024631523  0.024043243            7 
 3230000     0.734634   -6.6301393    956.20566  0.024669909  0.024035993            8 
 3231000   0.73313417   -6.6697453    952.87155  0.024576281   0.02402878           22 
 3232000   0.73372784   -6.6445193    956.06411  0.024650993  0.024021501           16 
 3233000    0.7420464   -6.6531976    953.46998  0.024576502  0.024014254           22 
 3234000   0.71269606   -6.6475609    953.59617  0.024572154     0.024007           10 
 3235000   0.73912799   -6.6421421    955.75352  0.024620132  0.023999789           23 
 3236000   0.73444053   -6.6562764    954.75822  0.024586893  0.023992552           14 
 3237000   0.74522979   -6.6279168    954.93775  0.024583919  0.023985321            7 
 3238000   0.74826345   -6.6314382    956.71041  0.024621948  0.023978115            6 
 3239000   0.74488258   -6.6284359    954.40878   0.02455513  0.023970909            7 
 3240000   0.72680159   -6.6493067    954.14935  0.024540878  0.023963685           11 
 3241000   0.72323204   -6.6753836    953.45599  0.024515478  0.023956457            9 
 3242000   0.71539947   -6.6439381    954.96168  0.024546619  0.023949247           11 
 3243000   0.71452043   -6.6448786    957.10919  0.024594233  0.023942028            9 
 3244000   0.73575873   -6.6651097    956.40383  0.024568532   0.02393485            7 
 3245000   0.72622732   -6.6524336    955.69278  0.024542701  0.023927677           11 
 3246000   0.71902891   -6.6572207    956.24837  0.024549404  0.023920473           22 
 3247000   0.73777867   -6.6647221    954.87366  0.024506562  0.023913214           24 
 3248000   0.74932481   -6.6560531    955.72544   0.02452087  0.023905967            8 
 3249000   0.72748824    -6.678595    954.73551  0.024487932  0.023898706           12 
 3250000   0.73431704   -6.6588854    953.73683  0.024454791   0.02389148            9 
 3251000    0.7307184   -6.6919855    955.18764  0.024484457  0.023884259           15 
 3252000   0.72290181   -6.6701778    955.28227  0.024479353  0.023877021           11 
 3253000   0.73902178   -6.6351115    954.98832  0.024464298  0.023869771           12 
 3254000   0.73914281    -6.671258    954.94511  0.024455673  0.023862564            7 
 3255000   0.72976432   -6.6344951    955.67238  0.024466779  0.023855362           11 
 3256000   0.73251994   -6.6351222    954.38498  0.024426315  0.023848122           20 
 3257000   0.73339018   -6.6556583     955.2406  0.024440707  0.023840873           16 
 3258000   0.73091531   -6.6615132    952.99486  0.024375764  0.023833635           20 
 3259000   0.72245301    -6.664616    955.02413  0.024420173   0.02382637           21 
 3260000   0.74222986   -6.6666522    955.30744  0.024419924  0.023819104           12 
 3261000   0.71815496   -6.6310807     955.1892  0.024409414  0.023811867           12 
 3262000   0.73052381   -6.6322658     958.4373   0.02448491  0.023804659           22 
 3263000    0.7330055   -6.6567375    956.07628  0.024417108  0.023797422            9 
 3264000   0.73560282   -6.6501989    956.63825  0.024423975   0.02379014           22 
 3265000   0.71711634   -6.6694949    953.50205  0.024336448  0.023782872           14 
 3266000   0.73051014   -6.6391448    954.88594  0.024364307  0.023775652           19 
 3267000   0.72928833   -6.6264594    955.04978  0.024361029  0.023768434           13 
 3268000   0.72606589   -6.6541601    954.94149  0.024350813  0.023761227           12 
 3269000   0.72739944   -6.6767116    955.74663  0.024363889  0.023753934           11 
 3270000   0.74120711   -6.6673741     953.7144  0.024304648  0.023746682           11 
 3271000     0.717969   -6.6849855    953.21035  0.024284377  0.023739434            8 
 3272000   0.70932726   -6.6791172    953.21791  0.024277147  0.023732133           30 
 3273000    0.7360004   -6.6906431    955.63824  0.024331353  0.023724846           14 
 3274000   0.72955161   -6.6823394    957.21413  0.024364033  0.023717611           12 
 3275000   0.72062517   -6.6493075    954.33516  0.024283337   0.02371036           14 
 3276000   0.74270955   -6.6562492    956.20922  0.024323596   0.02370314           18 
 3277000   0.71900811   -6.6400867    955.42141   0.02429614  0.023695918           14 
 3278000   0.71578983   -6.6581979    954.41999   0.02426327  0.023688676           10 
 3279000    0.7208604   -6.6514673    955.29735  0.024278168  0.023681417           11 
 3280000   0.71862647   -6.6574159    954.43669    0.0242489  0.023674182           11 
 3281000   0.72599103   -6.6529294    953.54822  0.024218943  0.023666921           19 
 3282000   0.72278234   -6.6537557     956.5906  0.024288813  0.023659669           18 
 3283000   0.72857855   -6.6820521    954.73712  0.024234367  0.023652431            9 
 3284000   0.71587639   -6.6285648    957.44946  0.024295815  0.023645185           22 
 3285000    0.7331838   -6.6724009    956.79751   0.02427188  0.023637953           12 
 3286000   0.73540722   -6.6460607    956.37567  0.024253796  0.023630703           14 
 3287000   0.73154697    -6.669799    953.52758  0.024174211  0.023623494           29 
 3288000   0.72047701   -6.6748001    954.68535  0.024196202  0.023616269           23 
 3289000    0.7037292   -6.6612374    953.98617   0.02417113  0.023608994           26 
 3290000   0.72124973   -6.6523523    955.61524  0.024205046  0.023601711           14 
 3291000   0.71431034    -6.664216    954.61028  0.024172244  0.023594453           15 
 3292000   0.72838451    -6.702473    953.09605  0.024126571  0.023587216           20 
 3293000    0.7219387   -6.6785938    951.72925  0.024084655  0.023579945           12 
 3294000   0.73382621    -6.675168      955.154  0.024163985  0.023572666           50 
 3295000   0.72803939   -6.6777396    956.97453  0.024202694  0.023565404           15 
 3296000   0.72508741   -6.6817691    955.43834  0.024156511  0.023558168           14 
 3297000   0.70921448   -6.6675712    955.83649  0.024159248  0.023550955           16 
 3298000   0.73714184   -6.6614181    956.11373  0.024158928  0.023543731           13 
 3299000   0.73544898   -6.6778338    956.09107  0.024151032  0.023536502           39 
 3300000   0.73518726   -6.6488718    956.15133  0.024145236  0.023529257           16 
 3301000   0.73127102   -6.6720079    954.85664  0.024105237  0.023522039           31 
 3302000   0.72533216   -6.6813562    955.86089  0.024123281  0.023514837           14 
 3303000   0.71448573   -6.6574649    957.30983  0.024152534  0.023507613           13 
 3304000   0.73167629    -6.680801    956.13646  0.024115629  0.023500369           22 
 3305000   0.72132866   -6.6591424    955.58332  0.024094385   0.02349311            9 
 3306000   0.71493319   -6.6799812    956.11937  0.024100609   0.02348589           15 
 3307000   0.73163099   -6.6802574     957.8831  0.024137766  0.023478672           17 
 3308000    0.7309138   -6.6828643    955.98432  0.024082636   0.02347147           10 
 3309000     0.728854    -6.673314    956.54418  0.024089457  0.023464226           11 
 3310000    0.7090183   -6.6578961    957.64465  0.024109885  0.023457055           12 
 3311000    0.7175721   -6.6768736    955.86229  0.024057744  0.023449869           11 
 3312000   0.71781251   -6.6793492    956.37072  0.024063273  0.023442691            8 
 3313000    0.7397071   -6.6774375    956.12462   0.02404982  0.023435509            9 
 3314000   0.72502438   -6.6941024    956.82177  0.024060093  0.023428303           12 
 3315000   0.71578853   -6.6949652     956.2676  0.024038904  0.023421075            9 
 3316000   0.71814625   -6.6735678     955.5945  0.024014739  0.023413842           24 
 3317000   0.72752866   -6.6657795     956.3224  0.024025786  0.023406614           14 
 3318000   0.72494162   -6.7112105    956.16577  0.024014612  0.023399389           15 
 3319000   0.70630917   -6.6744944    958.14846  0.024057157  0.023392183           12 
 3320000   0.71792658   -6.6928188    956.16892  0.024000224  0.023384986           12 
 3321000    0.7280683   -6.7110676    956.74722  0.024007508  0.023377807           11 
 3322000     0.728597   -6.6960657    954.18968  0.023936125  0.023370636           11 
 3323000   0.70437066   -6.6740084    956.05123  0.023975605  0.023363447           10 
 3324000   0.71023397   -6.7043508    953.24428  0.023898021  0.023356273           12 
 3325000      0.70439   -6.6842342     957.8264  0.024005674  0.023349074           11 
 3326000   0.72016506   -6.6894104    957.80233  0.023997853  0.023341904            5 
 3327000   0.70966817   -6.6875389    957.41767  0.023981006  0.023334703           16 
 3328000   0.73559069   -6.7026083    958.00524  0.023988513  0.023327503           14 
 3329000   0.71770144   -6.7193666    952.80534   0.02385114  0.023320275            8 
 3330000   0.71640966   -6.6929596    956.71016  0.023941696  0.023313062           14 
 3331000   0.70939009    -6.671352    956.96599  0.023940908  0.023305895            9 
 3332000   0.71043325    -6.678849    959.18577   0.02398924  0.023298765           10 
 3333000   0.74169158    -6.691693    960.06631  0.024004058  0.023291675           24 
 3334000   0.72987608   -6.6866378     956.1524   0.02389903  0.023284577            9 
 3335000   0.71907245   -6.6686874    957.76493  0.023932157  0.023277461           13 
 3336000   0.72456266    -6.703999    955.05832  0.023857372  0.023270334           11 
 3337000   0.72319593   -6.6810639    955.59348  0.023863587  0.023263184            8 
 3338000   0.71957088   -6.6610696    957.40422  0.023901643  0.023256024            7 
 3339000    0.7146976   -6.6487245    959.77214  0.023953582  0.023248885           17 
 3340000    0.7336031   -6.6813831    957.54872  0.023890936  0.023241757            7 
 3341000   0.73034327   -6.6881508    955.00128  0.023820246  0.023234598            7 
 3342000   0.72025006   -6.6828027     956.6452  0.023854109  0.023227494           14 
 3343000   0.72358348   -6.6507572    959.44102  0.023916667  0.023220396           18 
 3344000   0.72305045   -6.6753904    959.64856  0.023914687  0.023213288           15 
 3345000   0.70730314   -6.6769504    957.25888  0.023848004  0.023206226           18 
 3346000    0.7290955   -6.6682211    958.29608  0.023866709  0.023199145           10 
 3347000   0.71857638    -6.685185    959.46201  0.023888607  0.023192083           14 
 3348000   0.69681916   -6.6732105    956.32304  0.023803341  0.023185028           12 
 3349000   0.72097596   -6.6740517    958.67327  0.023854715  0.023177955           14 
 3350000   0.72234206   -6.6632306    959.76241  0.023874687  0.023170839           15 
 3351000   0.71328167   -6.6865219    957.73937  0.023817253  0.023163766           18 
 3352000   0.71468983   -6.6693421    957.76153  0.023810698  0.023156678           18 
 3353000   0.71343851    -6.673705     960.2485  0.023865406  0.023149609            9 
 3354000    0.7107809   -6.6487057    960.01546  0.023852501  0.023142573           12 
 3355000   0.71009446   -6.6824367    958.47998  0.023807252  0.023135534           18 
 3356000   0.72026872   -6.6717583    958.21416  0.023793558  0.023128493           10 
 3357000    0.7214232   -6.6823575    959.18003  0.023810447  0.023121442           11 
 3358000   0.72251442   -6.6857392    958.78321  0.023793508  0.023114351           11 
 3359000   0.72002667   -6.7061572    956.69331  0.023734576  0.023107286           14 
 3360000    0.7156583   -6.6550387    957.50844  0.023747729   0.02310024           11 
 3361000   0.70919827   -6.6643022    960.47122  0.023814123  0.023093182            5 
 3362000   0.72049067   -6.6558068    960.42354  0.023805858  0.023086119            6 
 3363000   0.71947797   -6.6688222     958.5661  0.023752753  0.023079061            8 
 3364000    0.7126827   -6.6790317    958.75959  0.023750485  0.023072038           15 
 3365000   0.70185529   -6.7105351    957.29868  0.023707248  0.023064998           22 
 3366000    0.7247157   -6.6769495    957.13529   0.02369616  0.023057934           14 
 3367000   0.69366875   -6.6979286    958.67971  0.023727347  0.023050848           11 
 3368000   0.69769236   -6.7019418    957.39923  0.023688619  0.023043758           15 
 3369000   0.72545387   -6.7326518    954.56633  0.023611515  0.023036651           20 
 3370000   0.72932125   -6.6980012    957.97919  0.023688902  0.023029532            9 
 3371000   0.71289442   -6.7148123    955.49031  0.023620348   0.02302244           15 
 3372000    0.6971007   -6.7108118     957.8671  0.023672081  0.023015366           12 
 3373000   0.71337917   -6.6645885    961.48967  0.023754563  0.023008276           17 
 3374000   0.71559963   -6.6974835    958.94712  0.023684724  0.023001255           18 
 3375000   0.69713311    -6.720567    960.30303  0.023711186  0.022994145           18 
 3376000   0.71203258   -6.6709332    960.12067  0.023699661  0.022987093           10 
 3377000   0.71471527   -6.7356225    956.72663  0.023608889  0.022980012           15 
 3378000   0.70926336   -6.7183049    957.33025  0.023616791  0.022972896           19 
 3379000   0.70320458   -6.7357883    955.99541  0.023576882  0.022965766           16 
 3380000   0.71537254   -6.7286734    957.92552  0.023617493   0.02295867           20 
 3381000   0.71586295    -6.691338    958.94642   0.02363567  0.022951589           16 
 3382000   0.72717747   -6.7289911    956.93522  0.023579125  0.022944506           15 
 3383000   0.71894976   -6.7259566    955.12938  0.023527672  0.022937414           33 
 3384000   0.71423579   -6.7264545    957.20128  0.023571741  0.022930287           27 
 3385000   0.69677162   -6.7461399    955.94862  0.023533939  0.022923155           23 
 3386000   0.72618245   -6.6936468    960.05695    0.0236281  0.022916068           14 
 3387000   0.70554461   -6.7146502    956.26371  0.023527795  0.022908981           15 
 3388000    0.7022643   -6.7171553    958.35987  0.023572409  0.022901885            7 
 3389000    0.7149139   -6.6828073    959.39622  0.023590937  0.022894807           10 
 3390000   0.71815107    -6.691827    957.83007  0.023545479  0.022887745           19 
 3391000   0.69951455    -6.689788    958.72829  0.023560609  0.022880698           17 
 3392000   0.72322832   -6.6919534    955.16445  0.023466108  0.022873632           17 
 3393000   0.69771067   -6.6988068    959.15397  0.023557176   0.02286657           14 
 3394000   0.72158408   -6.7120482    957.22965  0.023502987  0.022859506           13 
 3395000   0.69079706   -6.7473601    957.15126   0.02349414  0.022852379           11 
 3396000   0.71449647   -6.7164501    956.39683  0.023468709   0.02284527            8 
 3397000    0.7075535   -6.6806968    959.46018  0.023536949  0.022838197           26 
 3398000   0.70340103   -6.7066684    958.14197  0.023497694  0.022831108           16 
 3399000   0.70550544   -6.6899619    961.27349  0.023567556  0.022824045           15 
 3400000   0.70846968   -6.7216263     956.5037  0.023443718  0.022816976           13 
 3401000   0.71844363   -6.6971412    959.00658  0.023498152  0.022809897           21 
 3402000    0.7060276   -6.7502116    956.77147  0.023436495  0.022802802           22 
 3403000   0.71232004   -6.7681377    955.39616  0.023395929  0.022795663           35 
 3404000   0.69896689   -6.7421459    958.72438  0.023470534  0.022788554            7 
 3405000   0.68990443   -6.7147937    960.25976  0.023501218   0.02278147           15 
 3406000   0.70599198   -6.7564621    956.39034  0.023399646  0.022774392           13 
 3407000   0.71165215   -6.7227703    959.15477  0.023460394  0.022767321           18 
 3408000   0.70244441   -6.7220109    957.59312  0.023415325  0.022760219           48 
 3409000   0.70868824    -6.732755    958.04973  0.023419618  0.022753083            9 
 3410000   0.69152551   -6.7364112    957.72276   0.02340476  0.022745972           39 
 3411000   0.69966788   -6.7489842    955.19722  0.023336197  0.022738866            8 
 3412000   0.70063897   -6.7255758    955.71349  0.023341967  0.022731761           13 
 3413000   0.68881957   -6.7307377    956.47038  0.023353608  0.022724665           29 
 3414000   0.69725112   -6.7526182     954.9355  0.023309302  0.022717547           14 
 3415000   0.70878775    -6.734792    957.63072  0.023368246  0.022710438           38 
 3416000   0.71031775   -6.7165612     959.4181  0.023405008  0.022703348           16 
 3417000    0.7154321   -6.7189892    959.53298  0.023400961   0.02269632           21 
 3418000    0.7137568   -6.7449861    957.11384  0.023335134  0.022689257           47 
 3419000   0.71414069   -6.6926405    958.85065  0.023370641   0.02268221           11 
 3420000   0.69956798   -6.7299611     959.7281  0.023385188  0.022675199           13 
 3421000   0.71899505    -6.745549    958.27753  0.023343017  0.022668172           13 
 3422000   0.72077732    -6.757388     956.9911  0.023304868  0.022661082           36 
 3423000   0.72069121    -6.754801    956.77198  0.023292725  0.022654015           13 
 3424000   0.70854096   -6.7337314     957.1244    0.0232945  0.022646953           26 
 3425000   0.71151465   -6.7399114    956.72038  0.023277868   0.02263989           17 
 3426000   0.69909546   -6.7543683    958.16828  0.023306292   0.02263282           13 
 3427000   0.70456779   -6.7266992    959.92313  0.023342163  0.022625769           49 
 3428000   0.70649978   -6.7558786    955.25879  0.023221966  0.022618716           21 
 3429000   0.69061863   -6.7163305    960.17682  0.023334714   0.02261166           24 
 3430000   0.69037955   -6.7125968    958.76023  0.023293494  0.022604645           20 
 3431000   0.70019256   -6.7267749    958.92328  0.023290666  0.022597651           23 
 3432000   0.70898001   -6.7200166    958.80085  0.023280906  0.022590648           18 
 3433000   0.71058118    -6.731533    959.92592  0.023301435  0.022583645           20 
 3434000   0.70750759   -6.7214283    958.62078  0.023262978  0.022576622           32 
 3435000   0.69603252    -6.740595    960.45162  0.023300622  0.022569618           18 
 3436000   0.70025673   -6.7177154    959.46473  0.023269905   0.02256263           16 
 3437000   0.70476692   -6.7134416    959.12452  0.023254886  0.022555667           15 
 3438000   0.70664588   -6.7238866    959.37715  0.023254245  0.022548704           18 
 3439000   0.71039278   -6.7118446    959.53916  0.023251409  0.022541764           11 
 3440000   0.69764169   -6.7059487    959.54598  0.023244815  0.022534826           16 
 3441000   0.71235214   -6.7224041    961.11959  0.023276169  0.022527864            8 
 3442000   0.70051954   -6.7144685    959.36273  0.023226872  0.022520885           10 
 3443000   0.71742218   -6.7167012    956.90092  0.023160541  0.022513892           14 
 3444000   0.70542659      -6.7114    958.79272  0.023199592  0.022506889            9 
 3445000   0.69652888   -6.7278062    958.25239  0.023179787  0.022499883           20 
 3446000   0.69932159   -6.6989267    959.62587  0.023206275  0.022492888           13 
 3447000   0.70181262   -6.7499747     959.1922  0.023189058  0.022485904           13 
 3448000   0.69383708   -6.7363202    960.13669   0.02320516  0.022478912           13 
 3449000   0.69985084   -6.7450058    958.82091   0.02316664  0.022471915           10 
 3450000   0.68579067   -6.7386923    959.49093  0.023176109  0.022464904           26 
 3451000   0.70974514   -6.7385784    959.02004  0.023158023   0.02245789           21 
 3452000   0.69622523   -6.7165297     959.4941  0.023162758  0.022450885           14 
 3453000   0.68638843    -6.734691    960.22619  0.023173718  0.022443881           11 
 3454000   0.69928912    -6.722077     957.0181  0.023089609  0.022436896            9 
 3455000   0.68898391   -6.7281153    959.49131  0.023142579  0.022429892           14 
 3456000   0.70089711   -6.7182742    958.38559   0.02310922  0.022422862            9 
 3457000   0.70045894   -6.7562084    957.22159  0.023074477  0.022415871           28 
 3458000   0.68504914   -6.7587247    958.40727  0.023096377   0.02240887           17 
 3459000   0.69679915    -6.769784    957.84479  0.023076149  0.022401858           16 
 3460000   0.69440531   -6.7570022    958.16147  0.023077107  0.022394858           23 
 3461000   0.69904215     -6.77826    957.31738  0.023050115  0.022387848           11 
 3462000   0.69543709   -6.7487993    958.81965  0.023079618  0.022380858           25 
 3463000   0.70631787    -6.731261    959.81621  0.023096935  0.022373883            9 
 3464000   0.69210527   -6.7415236    961.02704  0.023119396   0.02236695           28 
 3465000   0.70013455   -6.7546695    961.68871  0.023128637  0.022359974           25 
 3466000   0.69569933   -6.7448535    957.08781  0.023011344  0.022352977           13 
 3467000   0.69700741   -6.7587781    959.38294  0.023059873  0.022346004           15 
 3468000   0.70512798   -6.7242393    959.70906   0.02306106  0.022339054            8 
 3469000   0.69947891   -6.7301399     961.7056  0.023102373  0.022332129           18 
 3470000   0.69095154   -6.7295411    960.00374  0.023054845   0.02232518           11 
 3471000   0.71161254   -6.7550821    957.67438  0.022992278    0.0223182           10 
 3472000   0.69614576   -6.7574428      957.549  0.022982647  0.022311237            9 
 3473000   0.69863383   -6.7611399    958.26677  0.022993252  0.022304241           22 
 3474000   0.69471689   -6.7359546    959.98794   0.02302792  0.022297303            8 
 3475000    0.6884707    -6.737123    960.11024  0.023024226  0.022290343           17 
 3476000   0.69538041    -6.747455    958.68508  0.022983436   0.02228341           15 
 3477000   0.72172422   -6.7597377    960.14548  0.023011827   0.02227648           13 
 3478000   0.69433106   -6.7149609    959.69765  0.022994481  0.022269539           29 
 3479000   0.71576366   -6.7384339    960.76787  0.023013506  0.022262616           39 
 3480000   0.68990194   -6.7224706    961.21247   0.02301754  0.022255714            9 
 3481000   0.71079693    -6.725299    960.84333  0.023002091  0.022248852            9 
 3482000   0.70177613    -6.741518    959.55109  0.022964558  0.022241973            8 
 3483000   0.70151172    -6.747441    959.95197  0.022967556  0.022235047            7 
 3484000   0.69859787   -6.7585732    960.40393  0.022971774  0.022228097           13 
 3485000   0.69185781    -6.725192     960.6315  0.022970624  0.022221196           15 
 3486000   0.68703872   -6.7448755    961.00999  0.022973082  0.022214284           16 
 3487000   0.69384533   -6.7516328    958.16413  0.022898483  0.022207351           17 
 3488000   0.69886971   -6.7206941    962.92215  0.023005594  0.022200409           17 
 3489000   0.69618225   -6.7435547    959.22178  0.022910619  0.022193532           26 
 3490000   0.69255204   -6.7432393    961.19229  0.022951105  0.022186648           32 
 3491000   0.70452443   -6.7728727    958.79567  0.022887322   0.02217976           14 
 3492000   0.69161179   -6.7443802    960.83119  0.022929343  0.022172851            9 
 3493000   0.69015698   -6.7490623    960.31666  0.022910503  0.022165945           15 
 3494000   0.69036646   -6.7439747    959.43072  0.022882816   0.02215905            8 
 3495000   0.69284925   -6.7533513     960.0368   0.02289072  0.022152157           16 
 3496000   0.69242116   -6.7427807    960.39822  0.022892787  0.022145251           11 
 3497000   0.69805587   -6.7611566    958.74398  0.022846821  0.022138351           10 
 3498000   0.69008916   -6.7497003    960.77166  0.022888595  0.022131455           12 
 3499000   0.68764112   -6.7468072    960.66985  0.022879629  0.022124583           13 
 3500000   0.69178654   -6.7510325    959.87578  0.022854185  0.022117687           17 
 3501000   0.69811496   -6.7559156    960.18299   0.02285497  0.022110788           14 
 3502000   0.70813026   -6.7605396    958.54792  0.022809535  0.022103875           14 
 3503000   0.70230491   -6.7638361    960.80838  0.022856798  0.022096979           16 
 3504000   0.69315667   -6.7619766    960.72051  0.022848186  0.022090084           17 
 3505000   0.70682429   -6.7749662    960.48774  0.022836133  0.022083194           50 
 3506000   0.69835041   -6.7476287     960.6392  0.022833219  0.022076295           27 
 3507000     0.696659   -6.7611577    959.24177  0.022793503  0.022069387           28 
 3508000   0.69439445    -6.781816    959.52459  0.022793724  0.022062467           51 
 3509000   0.69789194   -6.7856809    959.04727  0.022775892  0.022055552           17 
 3510000   0.67756525   -6.7580514    959.59249  0.022782348  0.022048631           29 
 3511000   0.69467112   -6.7726629    960.80293  0.022804589  0.022041711           41 
 3512000   0.69525084   -6.7911628    959.82447  0.022774878   0.02203479           26 
 3513000   0.69959186   -6.7519829    961.66389  0.022812029  0.022027864           42 
 3514000   0.69258697   -6.7679114    959.25643  0.022748445  0.022020962           38 
 3515000   0.68593761   -6.7663275    958.87603  0.022732955  0.022014063           20 
 3516000    0.7086383   -6.8133056    956.84018  0.022678237  0.022007119           23 
 3517000   0.68059094   -6.7572614    959.88535  0.022743943  0.022000218           18 
 3518000   0.69914593   -6.7779503    958.37047  0.022701593  0.021993303           14 
 3519000   0.67298725   -6.7580149    960.09376  0.022735952  0.021986378           13 
 3520000   0.68240667   -6.8015306     958.7751  0.022698274  0.021979449           10 
 3521000   0.68106111   -6.7869867    960.07804  0.022722665  0.021972479           14 
 3522000    0.6924142    -6.766408    960.98291  0.022737623  0.021965564           12 
 3523000   0.66993571   -6.7670939    961.56518  0.022744942  0.021958678            7 
 3524000   0.68032605   -6.7975449    960.32029   0.02270905  0.021951771           11 
 3525000     0.694852   -6.7923796    958.61323  0.022662251  0.021944841           19 
 3526000   0.68988641   -6.7875505    961.26888  0.022718588  0.021937937           11 
 3527000   0.68426881   -6.7825719    957.57819  0.022624945  0.021930996           20 
 3528000   0.68264565   -6.7740841    958.66548  0.022644215  0.021924069           20 
 3529000   0.68308119   -6.7925091     960.8187  0.022688644   0.02191715           18 
 3530000   0.69612792   -6.7791857    959.20883  0.022644212  0.021910241           17 
 3531000   0.68558504   -6.7924966    957.95151  0.022608126  0.021903331           10 
 3532000   0.67951184   -6.7937431    957.25332  0.022585252  0.021896402           14 
 3533000   0.67910499   -6.7950631    957.11766  0.022575659  0.021889454           19 
 3534000   0.66628619   -6.8035728    958.67142   0.02260591  0.021882538           13 
 3535000   0.69629053   -6.7773501    959.58634  0.022621083  0.021875627           16 
 3536000   0.69569466   -6.7878899    957.88969    0.0225747  0.021868737           23 
 3537000   0.68042485   -6.7983467    958.95013  0.022593302  0.021861828           36 
 3538000   0.69402782   -6.7924503    957.80935  0.022560047  0.021854901           26 
 3539000   0.69645125   -6.7979497    958.55541   0.02257124     0.021848           28 
 3540000   0.68994478   -6.7595197     959.1024   0.02257774  0.021841114           19 
 3541000   0.67571925   -6.7705526    960.80136  0.022611347  0.021834239           22 
 3542000   0.66207185   -6.7649106    959.57739  0.022576167  0.021827339           52 
 3543000   0.68618314   -6.7557252    961.39523  0.022612551   0.02182045           29 
 3544000   0.68100736   -6.7804453    959.90716   0.02257118  0.021813571           30 
 3545000   0.66671489    -6.804641    959.35413  0.022551813  0.021806714           55 
 3546000   0.69062265   -6.7575261    960.89809  0.022581737  0.021799862           19 
 3547000   0.68956388   -6.7575692    959.93215  0.022552677  0.021793037           19 
 3548000   0.68157194   -6.7844039    962.51578  0.022607004   0.02178621           24 
 3549000   0.68442188   -6.7811027    962.55347  0.022601518  0.021779393           33 
 3550000    0.6927954   -6.7874632    958.61637  0.022502732  0.021772528           23 
 3551000   0.67194329   -6.8019282    956.87499  0.022455529  0.021765653           19 
 3552000   0.68446677   -6.7860525    960.78702  0.022540987  0.021758788           14 
 3553000   0.69261294   -6.7754809    962.51435  0.022575156  0.021751969           25 
 3554000   0.67034946   -6.7637954    961.12859  0.022536311  0.021745119           25 
 3555000   0.68293724   -6.7812815    961.06948  0.022528586  0.021738251           21 
 3556000   0.69279472   -6.7575225    962.14559  0.022547469  0.021731415           26 
 3557000   0.67680223   -6.7666163    962.04836  0.022538852   0.02172458           23 
 3558000   0.69124836   -6.7743382    960.02758  0.022485188  0.021717746           21 
 3559000   0.67811701   -6.7847734    960.04879  0.022479367  0.021710898           23 
 3560000   0.69741871   -6.7628529     959.6483  0.022463677  0.021704048           26 
 3561000   0.68058734   -6.7928258    958.90303  0.022439929  0.021697188            7 
 3562000   0.67157805   -6.7988661    958.67506  0.022428295  0.021690328           13 
 3563000   0.69342783   -6.7856257    959.61432  0.022443969  0.021683484           29 
 3564000   0.68211291    -6.772145    962.35593  0.022501775  0.021676667           21 
 3565000   0.68780288   -6.8160902    957.61346  0.022384606  0.021669816           58 
 3566000   0.68799356   -6.8141778     959.8909   0.02243155   0.02166296           27 
 3567000   0.65813683   -6.7934563    960.27168  0.022434157  0.021656108           13 
 3568000   0.69640295   -6.7998442    961.34679   0.02245298  0.021649282           18 
 3569000   0.67667701   -6.8005275    959.91775  0.022413322  0.021642447           20 
 3570000   0.68421004   -6.8050796    959.52096  0.022397781  0.021635589           13 
 3571000   0.68503218   -6.8009291    959.14808  0.022382808  0.021628771           17 
 3572000   0.68230635   -6.8120158    959.85236  0.022392972   0.02162194           21 
 3573000   0.67041644   -6.7995609    960.60336   0.02240422  0.021615107           35 
 3574000   0.68475586   -6.8023719     958.9728  0.022359933  0.021608277           17 
 3575000   0.67698933   -6.8048352    959.77856  0.022372461  0.021601453           18 
 3576000   0.68215732   -6.7882987    960.96502  0.022393853  0.021594636           32 
 3577000   0.67727229    -6.779074     962.2528  0.022417594  0.021587828           40 
 3578000   0.66958276    -6.791516    962.11418    0.0224081  0.021581012           79 
 3579000   0.67916142   -6.7961349    961.72086  0.022392681  0.021574212           24 
 3580000    0.6749661   -6.7812949    960.40583  0.022355815  0.021567386           17 
 3581000   0.68211475   -6.8025646    960.91358  0.022361388  0.021560597           25 
 3582000   0.66280437   -6.7699489    962.21069  0.022385322  0.021553787           28 
 3583000   0.68803248   -6.7889266    962.05419  0.022375435  0.021546983           22 
 3584000   0.68489179   -6.8101238    959.00521  0.022298298  0.021540194           30 
 3585000   0.69507513    -6.796265    960.27714  0.022321644   0.02153341           20 
 3586000   0.68833327   -6.8179075    958.99556  0.022285638  0.021526617           30 
 3587000   0.67293299   -6.7975899    960.28415  0.022309361   0.02151983           17 
 3588000   0.69272409   -6.7836906     962.0664  0.022344537   0.02151304            8 
 3589000   0.67307039   -6.7757032    961.57671  0.022326941  0.021506292           16 
 3590000   0.67675667    -6.784708    960.76761  0.022301941   0.02149953           12 
 3591000   0.67482784   -6.7755587     962.6096  0.022338476  0.021492793           11 
 3592000   0.68120677   -6.8049899    960.00943  0.022271934  0.021486038           11 
 3593000     0.673755   -6.7962322    961.44592  0.022299052  0.021479299           17 
 3594000    0.6724595    -6.777223    960.81149  0.022278137  0.021472573           22 
 3595000   0.68315835   -6.7637431    963.68758  0.022338609   0.02146586           28 
 3596000     0.670224   -6.7858101     961.2046  0.022274856  0.021459122           14 
 3597000   0.66124724   -6.7952425     960.3229  0.022248237  0.021452397           20 
 3598000   0.67082485   -6.7775301    961.49296  0.022269153  0.021445679           21 
 3599000   0.66685819   -6.7932976    960.94265  0.022250223  0.021438966           22 
 3600000   0.68226414   -6.7721766    964.81971   0.02233379  0.021432272           43 
 3601000   0.66635152   -6.7955487    962.66729  0.022277777  0.021425547           16 
 3602000   0.68883161   -6.8232229    961.11597  0.022235702  0.021418812           19 
 3603000   0.67020379    -6.778161    961.01719  0.022227246  0.021412086           18 
 3604000   0.67063832   -6.7661289    963.73742  0.022283977  0.021405362           13 
 3605000   0.67633687   -6.7899511    962.05185  0.022238831   0.02139869           20 
 3606000    0.6789299   -6.7937572    961.23758  0.022213847  0.021391977           11 
 3607000   0.68586175   -6.8006341     961.7509  0.022219548   0.02138525           41 
 3608000   0.66612789   -6.7963017    960.72948  0.022189798  0.021378561           28 
 3609000   0.67039625   -6.7775493    961.83356  0.022209143  0.021371881           12 
 3610000   0.68785451   -6.8196293    960.26919  0.022166879   0.02136517           19 
 3611000    0.6687649   -6.8025284    961.27289  0.022183903  0.021358454           28 
 3612000    0.6715618   -6.7920127    961.49597  0.022182908  0.021351737           19 
 3613000   0.68514843   -6.8271567    959.88559  0.022139625   0.02134501           41 
 3614000   0.68236646    -6.852899    961.03092  0.022159909  0.021338257           83 
 3615000   0.66902444   -6.8452606    959.96745  0.022129263  0.021331472           84 
 3616000   0.67791664   -6.8206634    961.49067  0.022158247    0.0213247           21 
 3617000   0.66726571   -6.8241182    960.07084  0.022119409   0.02131794           37 
 3618000   0.67690307   -6.8179433    960.98855  0.022134433  0.021311184           46 
 3619000   0.67923105   -6.7903324      961.448  0.022138897  0.021304459           84 
 3620000   0.65458613   -6.8210491    962.71306  0.022161903  0.021297744           42 
 3621000   0.65302576    -6.820959     961.2429  0.022121948  0.021291036           41 
 3622000   0.67020643   -6.8187869    962.38034   0.02214201   0.02128432           26 
 3623000   0.67136609   -6.8342324    958.29633  0.022041962   0.02127757           21 
 3624000    0.6821567   -6.8408967    960.27177  0.022081304  0.021270847           36 
 3625000   0.66980157   -6.8206452    961.60382  0.022105835  0.021264119           53 
 3626000   0.68877578   -6.8341317    962.54618  0.022121396  0.021257391           76 
 3627000   0.66997431   -6.8381244    958.67645  0.022026387  0.021250657           67 
 3628000   0.64891863   -6.8353049     961.0009  0.022073707    0.0212439           31 
 3629000   0.65044929   -6.8404525    960.59105  0.022058213  0.021237171           53 
 3630000   0.66789621    -6.838963    960.67274  0.022054011  0.021230443           92 
 3631000   0.66400784   -6.8261882    961.49043  0.022066704  0.021223722           62 
 3632000   0.67203423   -6.8313192    959.31172   0.02201064  0.021216989           64 
 3633000   0.66684331    -6.834504    961.61215  0.022057348  0.021210264           57 
 3634000   0.68914748   -6.8160682    960.18832  0.022018628  0.021203552           55 
 3635000   0.67180059   -6.8453054     960.2277  0.022013473  0.021196829           28 
 3636000   0.66723232   -6.8336032    959.47769  0.021990229  0.021190096           27 
 3637000   0.67090241   -6.8311742    960.95106  0.022017942  0.021183351          126 
 3638000   0.66845474   -6.8235911    962.66064   0.02205105  0.021176624           90 
 3639000    0.6607827   -6.8595115    959.32165  0.021968527  0.021169877           75 
 3640000    0.6566286   -6.8092277    961.69421  0.022016809  0.021163143           70 
 3641000   0.69691075   -6.8153131    962.46621  0.022028431  0.021156447           42 
 3642000   0.67832576   -6.8442278    960.80954  0.021984476  0.021149739           31 
 3643000   0.67486426   -6.8247869    961.03435  0.021983584  0.021143026           33 
 3644000   0.67901127   -6.8460043    961.78053  0.021994615  0.021136304           29 
 3645000   0.67079789   -6.8197676    959.54902  0.021937563  0.021129577           75 
 3646000   0.65873819   -6.8250604    960.99322  0.021964555  0.021122841           42 
 3647000     0.665282   -6.8113225    958.86323  0.021909863  0.021116105           21 
 3648000    0.6624795   -6.8365371    959.64876  0.021921801  0.021109395           19 
 3649000   0.66331028   -6.8403038    959.01868  0.021901404   0.02110269           74 
 3650000   0.66448556   -6.8261605    959.66083  0.021910065  0.021096004           40 
 3651000   0.67340805   -6.8366746    960.55288  0.021924424  0.021089306           60 
 3652000   0.66164344   -6.8658449    959.63333  0.021897438  0.021082593           31 
 3653000   0.67033731   -6.8490195    958.87787   0.02187421  0.021075895           76 
 3654000   0.67164723   -6.8505392    960.42892  0.021903597  0.021069199           26 
 3655000   0.65379335   -6.8381133    959.98216  0.021887418  0.021062484           22 
 3656000   0.67768985   -6.8487225    961.59721  0.021918244  0.021055778           54 
 3657000   0.67416775   -6.8587163    960.69472  0.021891685  0.021049067           45 
 3658000      0.67787   -6.8290993    961.12062  0.021895403  0.021042375           42 
 3659000   0.66276374   -6.8360281    960.57723  0.021877044  0.021035686           78 
 3660000   0.67615449   -6.8362039    961.09014  0.021882745  0.021029006           63 
 3661000   0.67292753   -6.8354467    961.64198  0.021889329  0.021022308          142 
 3662000   0.65775739   -6.8547438     960.9668  0.021867987  0.021015619           53 
 3663000   0.64967744   -6.8455674    961.34104  0.021870531  0.021008931           80 
 3664000   0.67719307   -6.8404549    959.88618  0.021831472   0.02100224           66 
 3665000   0.66946393   -6.8395346     962.2198  0.021878577  0.020995565           60 
 3666000    0.6629023   -6.8330944    957.69733  0.021769807  0.020988874           72 
 3667000   0.66934202   -6.8489522    962.02536  0.021862225  0.020982232           52 
 3668000   0.66614991   -6.8333963    961.76828  0.021850424  0.020975564           57 
 3669000   0.66123297   -6.8115003    962.29073  0.021856335  0.020968923           39 
 3670000   0.66006231   -6.8149986    961.79325  0.021839084  0.020962279           44 
 3671000   0.66709594   -6.8502957    961.35537  0.021823195   0.02095563           69 
 3672000   0.67017492   -6.8360503    961.17324  0.021813118  0.020948984           74 
 3673000   0.67144043   -6.8453819    960.49101  0.021791701  0.020942321           53 
 3674000    0.6731331   -6.8625085    959.72012  0.021768284  0.020935673           54 
 3675000   0.67857658   -6.8493098    962.26502  0.021820068  0.020929024           44 
 3676000     0.674657   -6.8387324    960.67608  0.021778112  0.020922386           64 
 3677000   0.66347537   -6.8638282     961.4686  0.021790151  0.020915762           30 
 3678000   0.65642117   -6.8439412    962.15299  0.021799732  0.020909134           23 
 3679000   0.65556072   -6.8403904    961.62397  0.021781824  0.020902505           66 
 3680000   0.68252822   -6.8354065    962.44786  0.021794562  0.020895888           34 
 3681000   0.67791189   -6.8513362    960.94771   0.02175468  0.020889267           76 
 3682000   0.66320915   -6.8393858    961.33449  0.021757525  0.020882625           69 
 3683000   0.66175233   -6.8419765    961.41438  0.021753425  0.020876016           50 
 3684000   0.66753599   -6.8536592    960.56451  0.021728296  0.020869394           67 
 3685000   0.65414387    -6.855718    960.45777  0.021719986  0.020862775           34 
 3686000   0.67955548   -6.8632039    959.91891  0.021701911  0.020856153           46 
 3687000   0.66426121   -6.8610824    961.48402  0.021731399  0.020849532           46 
 3688000    0.6831354   -6.8446763     961.3851  0.021723271  0.020842915           16 
 3689000   0.66325201   -6.8765704     961.0466  0.021709736   0.02083631           43 
 3690000   0.66102657   -6.8723286    961.14782  0.021706139   0.02082968           62 
 3691000    0.6671832   -6.8665477    961.51464   0.02170854  0.020823065           16 
 3692000   0.66959162   -6.8425405    961.35852  0.021699136  0.020816468           10 
 3693000   0.67086387    -6.854511    962.46712  0.021718276  0.020809873           25 
 3694000   0.64497956   -6.8665802    960.27754  0.021663002   0.02080325           47 
 3695000   0.66309037   -6.8506851    961.18496  0.021677604  0.020796645           49 
 3696000   0.65053859     -6.86131    961.76996  0.021684929  0.020790036           67 
 3697000    0.6640703   -6.8780664    959.96871  0.021638462  0.020783416           81 
 3698000   0.65663027   -6.8848688     960.3361  0.021640889  0.020776805          123 
 3699000   0.67127685   -6.8756282     962.0054  0.021672646  0.020770178           81 
 3700000   0.66913707   -6.8560866    960.85473  0.021640872  0.020763588           79 
 3701000   0.66586611    -6.846386    962.56604  0.021673558  0.020757001           58 
 3702000   0.65879059   -6.8649187    962.13547  0.021658011  0.020750431           65 
 3703000   0.66101333   -6.8454851     961.5858  0.021639792  0.020743848           36 
 3704000   0.64702404   -6.8629085    963.60643   0.02167941  0.020737268           31 
 3705000   0.65044036     -6.86105    960.32994  0.021599864  0.020730691           50 
 3706000   0.66548765   -6.8578467    961.41255  0.021618379  0.020724132           22 
 3707000   0.65774004   -6.8839614    960.96474  0.021602481  0.020717548           12 
 3708000   0.67980722   -6.8780848    959.79964   0.02157047  0.020710984           14 
 3709000   0.65676377   -6.8512173    961.04552  0.021592647  0.020704414           45 
 3710000    0.6463827   -6.8497787    961.82835   0.02160441  0.020697848           24 
 3711000   0.65341838   -6.8850283    960.01118  0.021557783  0.020691276           11 
 3712000   0.64659368    -6.844987    963.87958   0.02163882  0.020684698           18 
 3713000   0.64609374   -6.8696166    960.18157  0.021549995  0.020678127           29 
 3714000    0.6717244   -6.8789175    963.47059   0.02161799  0.020671581           19 
 3715000   0.65855132   -6.8773955    962.04108  0.021580105  0.020665003           30 
 3716000   0.67556217    -6.898573    960.09243  0.021530598   0.02065841           20 
 3717000   0.66891614   -6.8778907    961.86529  0.021564552  0.020651832           18 
 3718000   0.65145846   -6.8920722    961.14528  0.021542614  0.020645272           34 
 3719000   0.66814005   -6.8437074    963.68519  0.021593735  0.020638704           37 
 3720000   0.65220976   -6.8553316    963.78045  0.021590064  0.020632172           22 
 3721000   0.65792731   -6.8494569    961.88691  0.021541855  0.020625643           23 
 3722000   0.66764247   -6.8521501    964.27628  0.021589564  0.020619108           17 
 3723000     0.655538   -6.8553258    963.10887  0.021557634  0.020612608           10 
 3724000   0.66002951   -6.8404529    965.11195  0.021596669  0.020606097           17 
 3725000   0.64659585   -6.8714607    960.97426  0.021498305  0.020599585           14 
 3726000   0.65949312   -6.8631966     964.2284  0.021565316  0.020593085           14 
 3727000   0.65866551   -6.8654918    963.28345  0.021538401  0.020586578           15 
 3728000   0.65530676   -6.8709815     961.5752  0.021494438  0.020580045           26 
 3729000   0.66106554   -6.8542094    962.64276  0.021512532  0.020573555           29 
 3730000   0.66508781   -6.8892366    962.64951  0.021506915  0.020567035           21 
 3731000   0.66049946   -6.8854522    961.08134  0.021466125  0.020560518           13 
 3732000   0.66013763   -6.8627059    962.21218  0.021485624  0.020554027           32 
 3733000   0.66633038   -6.8591757    964.21791  0.021524643  0.020547534           20 
 3734000   0.65340967   -6.8813302    961.65356  0.021461649  0.020541042           27 
 3735000   0.65644948   -6.8718923    963.16668  0.021489663  0.020534533           19 
 3736000   0.65228017   -6.8871092     962.0634  0.021459301  0.020528024           30 
 3737000   0.64831739   -6.8710514    961.84785  0.021448752  0.020521517            7 
 3738000   0.64765672   -6.8830632    963.92836  0.021489396  0.020515007           22 
 3739000   0.63775219   -6.8655385    962.36575  0.021448822  0.020508517           24 
 3740000   0.66795615    -6.883834    962.74644  0.021451569  0.020502014           14 
 3741000   0.65863231   -6.8775264    961.67483  0.021421964  0.020495534           36 
 3742000   0.65514285   -6.8673598    962.58699  0.021436553  0.020489062           12 
 3743000   0.65218238   -6.8655723    964.21896   0.02146716  0.020482588           17 
 3744000   0.64851064    -6.900453    962.01178  0.021412299  0.020476098           17 
 3745000   0.66039125   -6.8659356    961.73013  0.021400314  0.020469611           29 
 3746000   0.66012763   -6.8902154     962.9872  0.021422566   0.02046312           28 
 3747000   0.63478434   -6.8668872    964.45816  0.021449563  0.020456635           14 
 3748000   0.64991263   -6.8620345    963.53308  0.021423272   0.02045019           41 
 3749000   0.66108066   -6.8782072    965.07465  0.021451824  0.020443721           61 
 3750000   0.64049349   -6.8875744    963.98722  0.021421938  0.020437241           39 
 3751000   0.65719658    -6.903177     961.2825  0.021356138   0.02043075           49 
 3752000   0.65374706   -6.8922747    960.85918  0.021341044  0.020424259           33 
 3753000   0.64350787   -6.8832528    961.18699  0.021342637  0.020417767           24 
 3754000   0.64791191   -6.8508894    964.12411  0.021402151  0.020411286           20 
 3755000   0.64937601   -6.8568614    961.94503  0.021348092  0.020404813           65 
 3756000   0.64676422   -6.8680374    960.30876  0.021306105  0.020398342           28 
 3757000   0.64278902   -6.8592041    964.45032  0.021392297  0.020391871           22 
 3758000   0.63934703   -6.8740305    961.73518  0.021326397  0.020385419           20 
 3759000   0.65942887   -6.8572091    962.79482  0.021344214   0.02037896           25 
 3760000   0.65894463   -6.8848483    961.99284  0.021320763  0.020372504           33 
 3761000   0.65219167   -6.8562686     961.9986  0.021315222  0.020366048           18 
 3762000   0.64873323   -6.8622739    963.76524   0.02134869  0.020359599           22 
 3763000   0.64924758   -6.8566218     964.1341  0.021351185  0.020353153           28 
 3764000   0.64257128   -6.8815645    960.24189   0.02125934  0.020346688           60 
 3765000   0.62657663   -6.9001738    960.10347   0.02125063  0.020340209           47 
 3766000   0.63999624   -6.8873722    962.09637  0.021289086  0.020333764           32 
 3767000   0.65033863   -6.8778474    962.14807  0.021284578  0.020327331           39 
 3768000   0.65231817   -6.8668512    963.18605  0.021301885  0.020320877           31 
 3769000    0.6462042   -6.8871764    961.44426  0.021257722  0.020314419           23 
 3770000   0.65794982   -6.8914178    959.56787  0.021210607  0.020307955           32 
 3771000   0.66068896   -6.8938768    961.30393  0.021243347  0.020301502           35 
 3772000   0.65058279   -6.8798385    963.47727   0.02128573  0.020295073           77 
 3773000   0.65787985   -6.8801872    962.79869  0.021265101   0.02028863           34 
 3774000   0.65321146   -6.8772094    962.90777  0.021261874  0.020282197           30 
 3775000   0.64748496   -6.8890288    962.97038  0.021257624  0.020275772           25 
 3776000   0.64705809   -6.8888828    963.86933  0.021271834  0.020269356           34 
 3777000   0.64933662   -6.8936808    962.04162  0.021225876  0.020262948           31 
 3778000   0.63710649   -6.8803946    962.71834  0.021235185  0.020256549           68 
 3779000   0.63401666   -6.8909108     963.9667  0.021257094  0.020250162           11 
 3780000    0.6494418   -6.8672558    963.48467  0.021240844  0.020243767           32 
 3781000   0.65338066   -6.8813148    962.91706  0.021222716  0.020237362           18 
 3782000   0.64926675   -6.8901955    961.84316  0.021193442  0.020230977           35 
 3783000   0.64503166   -6.8730455    962.33382  0.021198648  0.020224587           29 
 3784000   0.63384226   -6.8853926    963.36479   0.02121575  0.020218193           29 
 3785000   0.65601211   -6.8938825    963.28116  0.021208304  0.020211777           19 
 3786000   0.62623599   -6.8818867    961.78902  0.021169859  0.020205362           51 
 3787000   0.64253881   -6.8811949    962.06241  0.021170285  0.020198921           42 
 3788000   0.65620429     -6.88466    961.09705  0.021143459  0.020192461           48 
 3789000      0.63972   -6.8962588    962.42033  0.021166982  0.020186011           74 
 3790000   0.64913847   -6.8906964    961.70854  0.021145746  0.020179583           30 
 3791000   0.65058689   -6.8976295    962.84596  0.021165171  0.020173139           53 
 3792000   0.64146698   -6.8952674     961.0949  0.021121108  0.020166704           43 
 3793000   0.63553015   -6.9055664    962.93953  0.021156067  0.020160268           45 
 3794000   0.63940951   -6.8921518    960.16873  0.021089631  0.020153851           38 
 3795000   0.65229396   -6.8963776    960.45142  0.021090282  0.020147427           44 
 3796000   0.65310686   -6.8875577    963.56726  0.021153127  0.020141007           32 
 3797000   0.63665927    -6.872496    961.84277  0.021109709   0.02013462           38 
 3798000    0.6452789    -6.889376    961.66981  0.021100356  0.020128236           30 
 3799000   0.63875899   -6.8834206     962.2971  0.021108562  0.020121862           26 
 3800000   0.62515939   -6.8856606    962.71931  0.021112266  0.020115463           17 
 3801000   0.64907367   -6.8593339    963.83165  0.021131098  0.020109091           62 
 3802000   0.64793845   -6.8882397    964.18111    0.0211332  0.020102713           22 
 3803000   0.63882087   -6.8840149    961.67576  0.021072744   0.02009634           50 
 3804000   0.63430837   -6.8828931    964.56127  0.021130417  0.020089971           45 
 3805000   0.65209411   -6.8858612    962.95143  0.021089606  0.020083601           30 
 3806000   0.62915027   -6.8976178    962.50129  0.021074209  0.020077222           35 
 3807000   0.63645438   -6.8739276    963.44998   0.02108944  0.020070852           29 
 3808000   0.64116897   -6.8819817    962.35059  0.021059843  0.020064504           35 
 3809000   0.63351909   -6.9035539    963.86096  0.021087358  0.020058153           60 
 3810000   0.64280006   -6.8851357    962.96795  0.021062291  0.020051819           17 
 3811000   0.64887763   -6.9192005    961.41156  0.021022732  0.020045472           32 
 3812000   0.64380068   -6.8979443     961.5067  0.021019296    0.0200391           57 
 3813000   0.63650387    -6.898886    962.49069  0.021035289  0.020032732           82 
 3814000    0.6437016   -6.8896827    963.11973  0.021043518   0.02002637           39 
 3815000   0.64116526   -6.9039064     963.1011  0.021037595  0.020020042           45 
 3816000   0.64113012   -6.8815746    965.40061  0.021082298  0.020013712           49 
 3817000   0.62917079   -6.8931917    965.41601  0.021077111  0.020007393           62 
 3818000   0.65417108   -6.9114714    962.05636  0.020998262  0.020001065           38 
 3819000   0.64700423   -6.9181856    962.99947  0.021013343  0.019994729           44 
 3820000   0.62870143   -6.9159732    962.80222  0.021003539  0.019988367           70 
 3821000   0.65573817   -6.9072267    961.32574  0.020965841     0.019982           86 
 3822000   0.64223647   -6.9162578     963.0696  0.020998378  0.019975629           64 
 3823000    0.6465324   -6.9376096    963.88576  0.021010676  0.019969253           69 
 3824000    0.6416911   -6.9172498    962.48768  0.020974714  0.019962889           51 
 3825000   0.64336257   -6.9233003    962.14728  0.020961814  0.019956527           82 
 3826000   0.64021644   -6.9139242    962.30733  0.020959822  0.019950165           68 
 3827000   0.63050932   -6.9142874    962.62329  0.020961225  0.019943807           69 
 3828000   0.63569475   -6.9292044    960.70129  0.020913908  0.019937446           41 
 3829000   0.65023481   -6.9030851    961.55463  0.020927018  0.019931077          104 
 3830000   0.63839356   -6.9222462    960.57544  0.020900249  0.019924713           90 
 3831000   0.64704557   -6.9402153    961.68616  0.020918954  0.019918352           76 
 3832000   0.63681287   -6.9279309    962.64865  0.020934426  0.019912005          186 
 3833000   0.64091025   -6.9303543    963.54473  0.020948446  0.019905626           98 
 3834000   0.63951073   -6.9187642    961.45802  0.020897627  0.019899251           60 
 3835000   0.63316206    -6.937603    961.97179  0.020903342  0.019892879           71 
 3836000   0.61776389   -6.9056261     963.2075  0.020924737   0.01988653          140 
 3837000   0.64565649   -6.9126616    964.00409  0.020936584  0.019880192          151 
 3838000   0.63231862   -6.9187647    961.99764  0.020887564  0.019873862           90 
 3839000   0.63381008   -6.9060282    961.34124  0.020867874  0.019867538           53 
 3840000   0.63840035    -6.912213    962.51312  0.020887872  0.019861185          252 
 3841000   0.63777492   -6.9420368    959.99726   0.02082785   0.01985481          161 
 3842000    0.6297955   -6.9151886     961.3699  0.020852202   0.01984845           42 
 3843000    0.6252513   -6.8943727    961.37373  0.020846859  0.019842096          124 
 3844000   0.62321292   -6.9210042    961.22805  0.020838277  0.019835739           84 
 3845000    0.6309366   -6.9411522    960.26216  0.020811924  0.019829401           85 
 3846000   0.63564742   -6.9153026    963.17717  0.020869673  0.019823072           37 
 3847000   0.62451257   -6.9212367    963.17459  0.020864193  0.019816739          135 
 3848000   0.64267873   -6.9214285    961.70798  0.020827009  0.019810407          154 
 3849000    0.6408778   -6.9128855    960.96671  0.020805549  0.019804092          138 
 3850000   0.64188458   -6.9062512    962.66396  0.020836882  0.019797771          158 
 3851000   0.62112022   -6.9083635     962.0005  0.020817115  0.019791459          228 
 3852000   0.63015684    -6.924978    963.83691  0.020851439   0.01978515          130 
 3853000   0.63473076    -6.954494    962.65303  0.020820422  0.019778827          219 
 3854000   0.61906414   -6.9221977    961.49623  0.020790007  0.019772507          188 
 3855000    0.6438203   -6.9242235    961.44811  0.020783574  0.019766168          171 
 3856000   0.62956084   -6.9264888     961.5685  0.020780785  0.019759845          253 
 3857000   0.63197325   -6.9234471     961.2396  0.020768291  0.019753501          131 
 3858000   0.65192105   -6.9316971    960.07167  0.020737681  0.019747148          166 
 3859000   0.65624035   -6.9301101     963.5914  0.020808314  0.019740807          130 
 3860000   0.62383978   -6.9373733    959.86596  0.020722495   0.01973446          203 
 3861000   0.63715164   -6.9569603    959.14265  0.020701516  0.019728099          209 
 3862000   0.64050708   -6.9351488    961.02682  0.020736812  0.019721754          173 
 3863000   0.63606536   -6.9516175    959.37722  0.020695859  0.019715411          196 
 3864000   0.62551104   -6.9546065    957.94099  0.020659528  0.019709052          170 
 3865000    0.6359289   -6.9363428    960.34244   0.02070596  0.019702698          110 
 3866000   0.62955632   -6.9466076    961.33543  0.020722009  0.019696359          241 
 3867000   0.62628743   -6.9275635    959.20072  0.020670647  0.019690018          190 
 3868000   0.63304526   -6.9616382    959.66723  0.020675354  0.019683703          251 
 3869000   0.63485446   -6.9359935    961.44665  0.020708337  0.019677361          220 
 3870000   0.64637593    -6.960568    959.05094  0.020651398  0.019671019          220 
 3871000    0.6436606   -6.9352394    961.55367  0.020699941  0.019664673           93 
 3872000   0.63679641   -6.9351413    960.62173  0.020674538  0.019658345          151 
 3873000   0.61542886   -6.9341283    962.95112   0.02071932     0.019652          120 
 3874000   0.63549827   -6.9494741    960.11992   0.02065307  0.019645681          112 
 3875000     0.627576   -6.9227426     960.0065  0.020645301  0.019639362           95 
 3876000     0.637962   -6.9540156    959.05902  0.020619604  0.019633008           78 
 3877000   0.63268659   -6.9323586    960.94647  0.020654855  0.019626672          269 
 3878000   0.65808165    -6.954473    959.07162  0.020609241  0.019620328          252 
 3879000   0.63888577    -6.954605    959.93935  0.020622569   0.01961399          128 
 3880000   0.63606419   -6.9297727    961.86258  0.020658561  0.019607675          231 
 3881000   0.63977022   -6.9380809    960.69355  0.020628136  0.019601343          163 
 3882000   0.63088017   -6.9529207    959.31073  0.020593138  0.019595019          273 
 3883000   0.62862858   -6.9369263    959.60987  0.020594254  0.019588703           71 
 3884000   0.63926417   -6.9371761    961.19246  0.020622907    0.0195824           94 
 3885000   0.60872434   -6.9474123    960.47004  0.020602103  0.019576099          125 
 3886000   0.64106549    -6.942748    959.52334    0.0205765  0.019569781           88 
 3887000   0.63440978    -6.948318    961.87768  0.020621681  0.019563476          198 
 3888000   0.62485107   -6.9475288    959.61609  0.020567903  0.019557158          163 
 3889000   0.64078396   -6.9320149    958.87823  0.020546804  0.019550861          196 
 3890000   0.63272221   -6.9219316    962.45764  0.020618201  0.019544571          178 
 3891000   0.62522109   -6.9210348    961.02715  0.020582266  0.019538287          143 
 3892000    0.6240407    -6.928624    960.30211  0.020561453  0.019532002          172 
 3893000   0.62518634    -6.965169    959.45886  0.020538121  0.019525719          182 
 3894000   0.62417818   -6.9385925     962.0236  0.020587733  0.019519435          167 
 3895000    0.6222235   -6.9419664    960.03464  0.020539894  0.019513136          140 
 3896000   0.63070036   -6.9525252    961.99551  0.020576564  0.019506833          159 
 3897000     0.632196   -6.9405347    959.64686   0.02052106  0.019500536          222 
 3898000   0.61908815   -6.9475632    959.98993   0.02052313  0.019494249          137 
 3899000   0.62442899   -6.9450166    961.16258  0.020542929  0.019487972          231 
 3900000   0.61825501   -6.9564645    962.69463  0.020570398  0.019481708           76 
 3901000   0.63238562   -6.9382767    962.29159  0.020556515  0.019475454          149 
 3902000   0.63832513   -6.9583766    959.38715  0.020489218  0.019469181          179 
 3903000   0.61843716   -6.9400484    958.42714  0.020463471  0.019462892          262 
 3904000    0.6438289   -6.9254888    961.63011  0.020526599  0.019456637          198 
 3905000   0.62810459    -6.954076    957.90451  0.020441838  0.019450364          130 
 3906000   0.63785219   -6.9622793    960.52861  0.020492588  0.019444095           73 
 3907000   0.64327768   -6.9403971    960.02338  0.020476567  0.019437823           88 
 3908000   0.63324863   -6.9518595    959.56565  0.020461567   0.01943157          228 
 3909000   0.63010521   -6.9540089    960.81362  0.020482937  0.019425311          200 
 3910000   0.61982408   -6.9488674    958.11269  0.020420134  0.019419059          189 
 3911000   0.61929443   -6.9433374     962.1714  0.020501393  0.019412791           88 
 3912000   0.62901024   -6.9649234    957.93499  0.020405909  0.019406514          213 
 3913000   0.62981372   -6.9497052    960.55249  0.020456438  0.019400229           66 
 3914000   0.62125869   -6.9810942    958.33092  0.020403912  0.019393937          149 
 3915000   0.63740835   -6.9662873    959.47571  0.020423067   0.01938766          254 
 3916000    0.6236869   -6.9532165    961.03883  0.020451116  0.019381414          178 
 3917000   0.61477043   -6.9590655    960.70633  0.020438821  0.019375157          148 
 3918000   0.63316987   -6.9650117    960.11244  0.020420972  0.019368889          213 
 3919000    0.6427088   -6.9633189    956.77406  0.020344775  0.019362621          221 
 3920000   0.62605255    -6.966937    960.00663  0.020408304  0.019356353           86 
 3921000   0.60863883   -6.9470708    960.07122  0.020404472   0.01935009           68 
 3922000   0.61199268   -6.9557059    958.33771  0.020362436   0.01934384          210 
 3923000   0.63006956   -6.9705679    960.92565   0.02041222  0.019337556          216 
 3924000    0.6148971   -6.9718074    957.80389  0.020340721  0.019331274          178 
 3925000   0.63135412   -6.9828393    958.51383  0.020350612  0.019325004          172 
 3926000   0.62427022   -6.9567224    959.21611  0.020360335  0.019318729          141 
 3927000   0.63137698   -6.9811364    958.26798  0.020335031  0.019312443          132 
 3928000   0.62962392   -6.9802425    956.89025  0.020300625  0.019306151          155 
 3929000   0.61937887   -7.0027729    957.33144  0.020304816  0.019299874          102 
 3930000   0.61987268    -6.983942     957.3107  0.020299209  0.019293566          211 
 3931000   0.62107775   -6.9900531    957.44967  0.020296991  0.019287269          138 
 3932000   0.62132693   -6.9809686    956.71852  0.020276334  0.019280984          137 
 3933000   0.61467272   -7.0008799     957.7542  0.020293122  0.019274692          143 
 3934000   0.61377967   -6.9771794    958.79637   0.02031004  0.019268409          130 
 3935000   0.62682092   -6.9585757    957.82263  0.020284257  0.019262138          174 
 3936000    0.6283723   -6.9797123    957.75247  0.020277618  0.019255859          223 
 3937000   0.62097001   -6.9723866    956.76349  0.020251534  0.019249576          207 
 3938000   0.63112399   -7.0105576    956.99323  0.020251253  0.019243283          179 
 3939000   0.62190392   -6.9651099    957.70295  0.020261127  0.019236972          241 
 3940000   0.63202126   -6.9995758     957.6462  0.020254784  0.019230687           95 
 3941000   0.62088268   -7.0097068    958.87451  0.020275618   0.01922441          137 
 3942000   0.61198502   -6.9901029    958.09477  0.020253991  0.019218127          216 
 3943000   0.61754651   -6.9888301    955.41842   0.02019229  0.019211845          227 
 3944000   0.60750177   -6.9975195    955.95064  0.020198416  0.019205543          152 
 3945000   0.62726641   -6.9885564    956.53524  0.020205645  0.019199263          172 
 3946000   0.62209078   -6.9815483     958.7764  0.020247854  0.019192997          106 
 3947000   0.61590434   -6.9910927    958.17414  0.020230009  0.019186713          301 
 3948000    0.6057257   -6.9968948     957.7066  0.020215016  0.019180434          279 
 3949000   0.61792867   -6.9987798    958.90294  0.020235143   0.01917417          189 
 3950000   0.60250247   -6.9701791    957.50434  0.020200513   0.01916792          193 
 3951000   0.61020948   -6.9751541    957.47731  0.020194831  0.019161655          151 
 3952000   0.61524713   -6.9929956    957.09619  0.020181684  0.019155401          283 
 3953000   0.61953589   -6.9929837    957.06348  0.020175889   0.01914913          344 
 3954000   0.63338475   -7.0180556    956.65298  0.020162135  0.019142878          161 
 3955000   0.62033842   -6.9927915    956.74425   0.02015896  0.019136619          289 
 3956000   0.61240195   -6.9813414    959.77229   0.02021765  0.019130366          301 
 3957000    0.6259968   -6.9974464    956.27758  0.020138943  0.019124114          368 
 3958000   0.60534489   -6.9818572    957.40368  0.020157564  0.019117856          166 
 3959000   0.62659482   -6.9836124    957.27487  0.020149761  0.019111601          180 
 3960000   0.61689239   -6.9874328    957.96564   0.02015921   0.01910536          203 
 3961000   0.62700333   -7.0033512    957.02409  0.020134311  0.019099112          342 
 3962000   0.62388399   -6.9886879    957.42567  0.020137676  0.019092856          188 
 3963000   0.61723127   -6.9831374     955.4284  0.020090596  0.019086602          409 
 3964000   0.62189154   -7.0057055    955.47189  0.020086442  0.019080348          172 
 3965000   0.60338987   -6.9781726    957.63545  0.020126848  0.019074105          412 
 3966000   0.61592318   -6.9996112      958.304  0.020135821  0.019067873          431 
 3967000   0.60908194   -7.0042731    956.69947  0.020097039  0.019061629          319 
 3968000   0.63178226   -7.0058039    957.79741  0.020115033  0.019055384          370 
 3969000   0.62512851   -6.9792974     956.7355  0.020087669  0.019049146          394 
 3970000   0.61041637   -6.9710291    958.58432  0.020121417  0.019042909          142 
 3971000   0.60909128   -6.9889215     958.1456  0.020107144  0.019036696          135 
 3972000    0.6364182   -6.9923948    957.85552  0.020095995  0.019030462          395 
 3973000   0.61690532   -7.0068418    955.14729  0.020034132  0.019024245          515 
 3974000   0.63043615   -6.9814997    956.62259  0.020060027  0.019018022          441 
 3975000   0.61942995   -6.9893085    957.77794  0.020079202  0.019011794          421 
 3976000   0.61755139   -6.9953532    956.70528   0.02005167   0.01900557          378 
 3977000   0.61691481   -7.0040741    955.01492  0.020011209  0.018999344          501 
 3978000   0.61175868   -6.9958996    957.80973  0.020064725   0.01899312          452 
 3979000   0.60551832   -7.0096988    956.95445   0.02004177  0.018986888          394 
 3980000   0.61382739   -7.0255399    955.59442  0.020008258  0.018980658          485 
 3981000   0.61861808   -7.0315083    956.54248  0.020023078  0.018974431          467 
 3982000   0.61985959   -7.0083047    955.79691  0.020002447  0.018968205          457 
 3983000   0.60700178   -6.9996221    957.28425  0.020028543  0.018961991          428 
 3984000   0.61001809   -6.9895799    957.63449  0.020030842  0.018955778          472 
 3985000   0.60820471   -7.0160192    956.83969  0.020009195  0.018949564          442 
 3986000   0.62709382   -6.9913292    956.55031  0.019998125  0.018943344          478 
 3987000   0.62163262   -6.9940809    956.55021  0.019993107  0.018937131          401 
 3988000   0.60655055   -6.9996778    956.43522  0.019985691  0.018930921          389 
 3989000   0.61916266    -7.022112    953.36143  0.019916467  0.018924713          441 
 3990000   0.60750259   -7.0159288    957.02494   0.01998799  0.018918498          411 
 3991000   0.62486194   -7.0029874    958.19391   0.02000739  0.018912292          410 
 3992000   0.62434954   -7.0080109    956.23352  0.019961455  0.018906089          412 
 3993000   0.61046713   -6.9751783    955.62254  0.019943704  0.018899889          332 
 3994000   0.61293312   -6.9992552    958.48186   0.01999837  0.018893695          416 
 3995000   0.61529202   -7.0004774    957.07719  0.019964063  0.018887502          283 
 3996000   0.61979327   -7.0018933    957.29686  0.019963648  0.018881319          240 
 3997000   0.60717906   -6.9953485    956.35166  0.019938947   0.01887514          236 
 3998000   0.60983857   -7.0062368    958.55459  0.019979877  0.018868978          443 
 3999000   0.62312254   -7.0097772    956.32832  0.019928489  0.018862802          349 
 4000000   0.60210995   -7.0005318    956.88509  0.019935106  0.018856635          430 
 4001000   0.59532172   -7.0117976    957.23324  0.019937375  0.018850452          441 
 4002000   0.61367799   -6.9938745    956.05272  0.019907811  0.018844279          414 
 4003000   0.61277012   -7.0065591    956.79618  0.019918315  0.018838114          196 
 4004000   0.59489516   -7.0149282    956.46641  0.019906477  0.018831943          491 
 4005000   0.59899488   -7.0075173    957.75112  0.019928238  0.018825772          384 
 4006000   0.61991436   -7.0055006    956.73195  0.019902062    0.0188196          343 
 4007000   0.60864825   -6.9988763    958.79919  0.019940088   0.01881345          409 
 4008000   0.61006432   -7.0116337    957.02938  0.019898316  0.018807293          329 
 4009000   0.60328872   -7.0262937    957.37189  0.019900472  0.018801137          435 
 4010000   0.60675149   -6.9871092    959.12056  0.019931849  0.018794982          231 
 4011000   0.60351781   -7.0085888    958.79823  0.019920183  0.018788843          268 
 4012000   0.59648921   -7.0128129    955.42536   0.01984516  0.018782701          440 
 4013000   0.60838003   -6.9986138    957.68939  0.019887229  0.018776564          425 
 4014000   0.60946655   -6.9989407    956.49375  0.019857452  0.018770443          438 
 4015000   0.60062958   -7.0191798     956.8597  0.019860102   0.01876431          551 
 4016000   0.60215932   -7.0111693    954.92122  0.019814932  0.018758158          352 
 4017000    0.6195039   -6.9987275    957.78938    0.0198695   0.01875204          536 
 4018000   0.60277309   -7.0178378    957.82504  0.019865295  0.018745928          459 
 4019000   0.60139074   -6.9936594    955.85951  0.019819597  0.018739795          564 
 4020000   0.60816765   -6.9996542    959.14889  0.019882854  0.018733667          280 
 4021000   0.60571188   -7.0087689     956.7162  0.019827493  0.018727535          469 
 4022000   0.60332913   -7.0125592    959.08548  0.019871653  0.018721412          571 
 4023000   0.61103556   -7.0185031    956.91166  0.019821685   0.01871529          686 
 4024000   0.61892397    -7.015978    956.53549  0.019808969  0.018709198          568 
 4025000   0.61493783   -6.9981345    959.00423   0.01985516  0.018703098          485 
 4026000   0.62085201   -6.9952549    958.71803  0.019844304  0.018696997          447 
 4027000    0.6182187   -7.0073596     958.0876  0.019826331  0.018690907          556 
 4028000   0.60556525   -7.0358236    957.15092   0.01980203  0.018684798          476 
 4029000   0.60523258   -7.0237309    957.50414  0.019804421  0.018678696          462 
 4030000   0.61532812    -7.003902    957.44131  0.019798207  0.018672584          382 
 4031000   0.59365377   -7.0206265    957.77491  0.019800193  0.018666473          630 
 4032000   0.62448195   -7.0178701    957.15428  0.019782455  0.018660382          589 
 4033000   0.60434847   -7.0212922     957.9168  0.019793305  0.018654288          551 
 4034000   0.62037388   -7.0244097    955.49178  0.019738303  0.018648195          512 
 4035000   0.59928497   -7.0231529    957.84735   0.01978206  0.018642079          458 
 4036000   0.60213166   -7.0075685    958.02877  0.019780905  0.018635982          574 
 4037000   0.59886259   -7.0040177    958.40263  0.019783722  0.018629875          484 
 4038000   0.60969879   -7.0182372    957.17952  0.019753581  0.018623768          436 
 4039000   0.60544647   -7.0327797    956.77849  0.019740416   0.01861766          489 
 4040000   0.60131028   -7.0179622    956.64023  0.019732678  0.018611554          492 
 4041000   0.61591752   -7.0173749    955.06777  0.019695368   0.01860545          478 
 4042000   0.59660134   -7.0366583    958.44628  0.019760149  0.018599338          453 
 4043000   0.61935862   -7.0174658     955.5569  0.019695707  0.018593237          457 
 4044000   0.61384516   -7.0471862    955.21288  0.019683747  0.018587121          529 
 4045000   0.61271768   -7.0234305    955.76951  0.019690348  0.018581006          474 
 4046000   0.60940074   -7.0483823    954.99756  0.019669582  0.018574876          544 
 4047000    0.5959283   -7.0465575    955.27864   0.01967051  0.018568756          545 
 4048000   0.61146356   -7.0414901    954.68028  0.019653332  0.018562624          672 
 4049000   0.60798317   -7.0404228    955.60916  0.019667596  0.018556509          532 
 4050000   0.60026544   -7.0418919    955.21369  0.019654603  0.018550387          530 
 4051000   0.61137058   -7.0464874    954.98753  0.019645098  0.018544268          730 
 4052000   0.59744936   -7.0381054    953.02671  0.019599924  0.018538148          558 
 4053000    0.6190247   -7.0541456    954.90957  0.019633801  0.018532028          474 
 4054000   0.60346307   -7.0433148    956.20743  0.019655637  0.018525914          509 
 4055000     0.582422     -7.03202    955.50994  0.019636456  0.018519801          442 
 4056000   0.59733814   -7.0465989    955.34659  0.019628258  0.018513688          517 
 4057000   0.59978805   -7.0510802    955.33795  0.019623243  0.018507601          519 
 4058000     0.586184   -7.0538801    953.98337   0.01959059  0.018501499          569 
 4059000   0.61174351   -7.0427746    954.18054  0.019589812  0.018495394          533 
 4060000    0.5995947   -7.0385735    956.63801  0.019635427  0.018489304          486 
 4061000   0.60059443   -7.0404918    955.68117  0.019610957  0.018483215          571 
 4062000   0.60135911   -7.0548076    955.47777  0.019601957  0.018477131          537 
 4063000   0.59937291   -7.0308558    956.04922  0.019608853  0.018471045          490 
 4064000   0.60178453   -7.0301812    953.34786  0.019548636  0.018464962          488 
 4065000   0.60179724   -7.0375246    954.32914  0.019563943   0.01845887          576 
 4066000   0.60664467   -7.0309341    956.18391  0.019597145  0.018452785          542 
 4067000   0.59042287   -7.0632071    954.98671  0.019567796  0.018446697          472 
 4068000   0.59235156   -7.0558871    954.05548  0.019543909  0.018440606          487 
 4069000   0.60959953   -7.0574229    953.21426  0.019521878  0.018434522          539 
 4070000   0.58450848   -7.0297672    956.29327  0.019580124  0.018428438          415 
 4071000   0.59382432   -7.0612845    954.22235  0.019532923  0.018422364          432 
 4072000   0.60687311   -7.0560011    953.93541  0.019522254  0.018416283          670 
 4073000   0.58821323   -7.0379746    955.71363  0.019553843  0.018410208          535 
 4074000    0.5954828   -7.0458776    955.34575  0.019541518  0.018404129          585 
 4075000   0.58851247   -7.0777523    954.92135  0.019528044  0.018398063          578 
 4076000   0.59372562   -7.0575942    953.22446   0.01948856  0.018391985          510 
 4077000   0.59940436   -7.0502533    955.37921  0.019527823  0.018385922          537 
 4078000    0.5992087   -7.0556518      955.668  0.019528936  0.018379852          432 
 4079000   0.60565695   -7.0714561    953.45305  0.019478897  0.018373792          554 
 4080000   0.59279032   -7.0751838    955.55199  0.019516993  0.018367731          446 
 4081000    0.5768206   -7.0443931     955.1631   0.01950427   0.01836167          540 
 4082000   0.59733615   -7.0465219    955.94626   0.01951548  0.018355601          477 
 4083000   0.59824184    -7.037762    956.62594  0.019524572  0.018349567          500 
 4084000   0.60517694   -7.0574674    954.94324  0.019485456   0.01834353          511 
 4085000   0.58828796   -7.0583595    958.09614  0.019545005  0.018337486          603 
 4086000   0.58867233   -7.0561052    955.02927  0.019477673  0.018331446          464 
 4087000   0.58654624   -7.0440673    954.52539  0.019462633  0.018325399          460 
 4088000   0.59576837   -7.0629618    954.34744  0.019454245  0.018319353          523 
 4089000   0.59750575    -7.083098    952.29835  0.019407727  0.018313289          462 
 4090000   0.58969725   -7.0659215     954.2462  0.019442669  0.018307234          451 
 4091000   0.60025687   -7.0724598    954.86129  0.019450446  0.018301171          604 
 4092000   0.59330307   -7.0625128    954.60443  0.019440462  0.018295112          551 
 4093000   0.60845845   -7.0721519    954.87734  0.019441268  0.018289056          473 
 4094000   0.58592192   -7.0767344    955.09014  0.019440851     0.018283          521 
 4095000   0.60598462   -7.0818856    955.06527  0.019435598  0.018276943          459 
 4096000   0.59026624   -7.0508822    954.81235  0.019425707  0.018270892          553 
 4097000   0.60396277   -7.0621297    955.28419  0.019430563  0.018264845          499 
 4098000   0.58983985   -7.0505243    955.12628   0.01942261  0.018258811          497 
 4099000   0.59891488   -7.0473974    952.70398  0.019368626  0.018252793          469 
 4100000     0.610269   -7.0524459    954.16571  0.019393612  0.018246769          546 
 4101000   0.59673308   -7.0355585    956.50634  0.019436445   0.01824075          483 
 4102000   0.59427561   -7.0733915    955.44334  0.019410112  0.018234734          389 
 4103000   0.59885512   -7.0547864    954.78499   0.01939201  0.018228711          585 
 4104000   0.59777843   -7.0487713    956.07525  0.019413484    0.0182227          555 
 4105000   0.59049793   -7.0409746    956.03986  0.019408036  0.018216698          624 
 4106000   0.60080213   -7.0593076    953.46955  0.019351144   0.01821069          640 
 4107000   0.59663704   -7.0726074     953.0883  0.019338696  0.018204684          604 
 4108000   0.59886199   -7.0531172    955.25026  0.019377845  0.018198665          582 
 4109000   0.59324558   -7.0559578    955.01739  0.019368407  0.018192654          614 
 4110000   0.59096605   -7.0574256    956.64371  0.019396669   0.01818664          568 
 4111000   0.58933865   -7.0465066    956.38584  0.019386723  0.018180625          645 
 4112000   0.59700438   -7.0876702    953.01695  0.019313735  0.018174628          583 
 4113000    0.6006355   -7.0550607    954.44009  0.019337874  0.018168609          574 
 4114000   0.60863223   -7.0791093    953.38951  0.019311893  0.018162608          577 
 4115000   0.59071666   -7.0651276    954.38383  0.019327336  0.018156602          549 
 4116000   0.59611234   -7.0706054    953.97913  0.019314446  0.018150591          502 
 4117000   0.61081704   -7.0685783    953.60362  0.019302154  0.018144599          543 
 4118000   0.60043206   -7.0812308    955.35538  0.019332916  0.018138594          565 
 4119000   0.59260202   -7.0677741    954.20042  0.019304856  0.018132602          587 
 4120000   0.58469694   -7.0644456    954.70508  0.019310378  0.018126627          521 
 4121000   0.60429057   -7.0722495    954.55321  0.019302621  0.018120639          627 
 4122000   0.58479075   -7.0702709    955.40596  0.019315178  0.018114658          606 
 4123000   0.60693311   -7.0738177    955.19297  0.019306188  0.018108677          627 
 4124000   0.59729972   -7.0779349    953.39478  0.019265171  0.018102701          590 
 4125000   0.59580275   -7.0822044    954.24084  0.019277593  0.018096718          582 
 4126000   0.59446598   -7.0712321    954.17759  0.019271643   0.01809074          566 
 4127000   0.59114507   -7.1032857    954.30378  0.019269521  0.018084745          564 
 4128000    0.5934267   -7.0877258    954.63748   0.01927159  0.018078756          524 
 4129000   0.61172561   -7.0887769    954.18162  0.019257722   0.01807277          619 
 4130000    0.6081575   -7.0689502     952.5494  0.019220125  0.018066786          636 
 4131000   0.58921274   -7.0841168    953.87747  0.019242263    0.0180608          514 
 4132000    0.5873373   -7.0960675    951.47735  0.019189201  0.018054814          511 
 4133000   0.59983863   -7.0832406    954.14658  0.019238378  0.018048835          564 
 4134000    0.5770457   -7.0856705    952.00199  0.019190493  0.018042863          644 
 4135000   0.59617406   -7.0731188    955.58622  0.019258086  0.018036899          514 
 4136000   0.59150058    -7.071893    951.96775  0.019180524  0.018030938          624 
 4137000    0.6014901   -7.0602092    954.40357  0.019224953  0.018024978          658 
 4138000   0.58595149   -7.0798318    951.80578  0.019167991  0.018019017          659 
 4139000   0.58519399   -7.0622462    951.51373   0.01915748  0.018013051          652 
 4140000   0.58574582   -7.0915322    953.42572  0.019191339  0.018007097          667 
 4141000   0.58710327   -7.0833348    953.03302  0.019178802  0.018001139          644 
 4142000   0.59792926   -7.0592023    955.09221    0.0192156  0.017995202          631 
 4143000   0.59305915   -7.0798258    956.28584  0.019234971  0.017989257          683 
 4144000   0.57881355   -7.0825184    952.98801  0.019164013  0.017983322          729 
 4145000   0.58089257   -7.1023576    957.30123  0.019246104  0.017977384          697 
 4146000   0.58154825    -7.079685    953.59993  0.019167067  0.017971449          621 
 4147000   0.59219908   -7.0929753    953.59573  0.019162361  0.017965517          692 
 4148000   0.59226245    -7.074015     954.0959   0.01916779  0.017959588          669 
 4149000   0.58593002   -7.0745972    952.61805  0.019133487  0.017953669          749 
 4150000   0.59308011   -7.0630043    954.71865  0.019171057  0.017947742          658 
 4151000   0.58098813   -7.0795089    955.11089  0.019174313  0.017941812          690 
 4152000   0.58117317   -7.1099258    953.48025  0.019136967  0.017935885          740 
 4153000   0.58875397   -7.0909677    954.38172  0.019150448  0.017929956          755 
 4154000   0.59220903   -7.0680096    953.48391  0.019127827  0.017924027          715 
 4155000   0.58651816   -7.0825225    955.42217  0.019162097  0.017918108          707 
 4156000   0.58158124   -7.0891177    955.31841  0.019155406  0.017912192          846 
 4157000   0.58340848   -7.0768206    951.25106  0.019069262  0.017906272          722 
 4158000    0.5880088   -7.0818932    953.18721  0.019103479  0.017900346          745 
 4159000   0.58545745   -7.1078578    954.44307   0.01912405  0.017894428          686 
 4160000   0.58258613   -7.0967036    953.37287  0.019098014  0.017888528          633 
 4161000   0.59880626   -7.1131031    954.45512  0.019115099  0.017882615          698 
 4162000   0.59150396   -7.0762154    955.22267  0.019125874  0.017876709          606 
 4163000   0.58465153   -7.0995573    953.16441  0.019080079  0.017870798          677 
 4164000   0.59326326    -7.084528    954.29931  0.019098209  0.017864883          712 
 4165000   0.57472788   -7.0921854    953.61842      0.01908  0.017858967          679 
 4166000   0.59680214   -7.0859945     953.2808  0.019068667  0.017853048          691 
 4167000   0.59148009   -7.0820569    953.32729  0.019065021  0.017847141          565 
 4168000   0.58773552   -7.1029812    953.19436  0.019057789  0.017841231          810 
 4169000    0.5961832   -7.1179607    953.44067  0.019058141  0.017835324          772 
 4170000    0.5879078   -7.0735371    954.99668  0.019084666  0.017829423          714 
 4171000   0.58437348   -7.1115039    952.47874  0.019029784  0.017823523          764 
 4172000   0.57238329   -7.0977104    951.52948  0.019006262  0.017817627          701 
 4173000   0.57873661   -7.1028405     952.8572  0.019028221  0.017811726          710 
 4174000   0.57693314   -7.1049269    954.30081  0.019052484  0.017805833          747 
 4175000   0.58084645   -7.0861019    953.01963  0.019022348  0.017799938          729 
 4176000   0.58076216   -7.1021912    953.88202  0.019035002  0.017794063          664 
 4177000    0.5847161   -7.0726809    952.90031  0.019010859  0.017788173          616 
 4178000   0.57820663    -7.098606    952.31606  0.018994656  0.017782281          754 
 4179000   0.59700342   -7.0852648    954.18177  0.019027315  0.017776395          715 
 4180000   0.58388574   -7.0754874     954.1062  0.019021256  0.017770507          756 
 4181000    0.5836037   -7.1160935     953.2768  0.019000175  0.017764625          728 
 4182000   0.58225518    -7.126763    950.58308  0.018941955  0.017758721          744 
 4183000   0.57595923   -7.1135146    951.12062  0.018948136   0.01775283          835 
 4184000   0.57649035   -7.1031548    953.79388  0.018996851  0.017746934          790 
 4185000   0.57795002    -7.095899    952.47671  0.018966083  0.017741051          806 
 4186000   0.58947701   -7.1161565    952.49306  0.018961878  0.017735167          870 
 4187000   0.58737494   -7.1233214    952.05717  0.018948674  0.017729264          834 
 4188000   0.58692201   -7.0953205    953.28686  0.018968618  0.017723371          715 
 4189000    0.5742273   -7.1288586    948.92373  0.018877292  0.017717473          772 
 4190000   0.57260023   -7.1048767    950.20784  0.018898326   0.01771157          788 
 4191000   0.58166957   -7.1039558    953.77884  0.018964822   0.01770568          948 
 4192000     0.581338   -7.1009257    950.46605  0.018894443  0.017699793          916 
 4193000   0.59138062   -7.1170671    951.85467  0.018917535  0.017693923          812 
 4194000   0.58455143    -7.095959    952.03469  0.018916601  0.017688053          779 
 4195000   0.59166149   -7.1243503    951.71742  0.018905789  0.017682176          747 
 4196000   0.58714009   -7.1190859    951.67195   0.01890038  0.017676307          821 
 4197000   0.57559691   -7.1172335    952.81527  0.018918578  0.017670439          849 
 4198000   0.57437403   -7.1280877    954.62992  0.018950094  0.017664578          822 
 4199000   0.57718977   -7.1249109    953.50548  0.018923265  0.017658723          780 
 4200000   0.58094775   -7.1034808    954.68632  0.018942189  0.017652871          734 
 4201000   0.56380869   -7.0986129    952.39464  0.018892221  0.017647012          786 
 4202000     0.579574   -7.1194397      951.417  0.018868336  0.017641145          837 
 4203000   0.58405733   -7.0910887     953.6723  0.018908563   0.01763528          933 
 4204000   0.57372719   -7.1236569    951.18686  0.018854798  0.017629428          859 
 4205000   0.58636819   -7.1082725     951.7497  0.018861469  0.017623569          900 
 4206000   0.58362526   -7.1080218     951.0169  0.018842465  0.017617705          838 
 4207000   0.58893874   -7.1242512    951.18287  0.018841274  0.017611852          767 
 4208000   0.58145119   -7.0971851     951.6236  0.018845524  0.017606007          803 
 4209000   0.58517256   -7.1116104    951.85546  0.018845638  0.017600158          812 
 4210000   0.57562464   -7.1127592      953.298  0.018869715   0.01759431          796 
 4211000   0.57681641   -7.1263205    952.25213  0.018844537  0.017588466          797 
 4212000   0.57987984   -7.0987403    954.15061  0.018877624  0.017582633          847 
 4213000   0.56974258   -7.1111442     951.0867  0.018812539  0.017576805          789 
 4214000   0.56759978   -7.1177221    952.82289  0.018842408  0.017570975          824 
 4215000   0.57533124   -7.1147991     952.1035  0.018823715  0.017565137          758 
 4216000   0.56913743   -7.1180502    951.05866  0.018798598    0.0175593          803 
 4217000   0.57502947   -7.1234217     951.7304  0.018807414  0.017553459          837 
 4218000   0.57516422   -7.1185236    952.50493  0.018818258   0.01754763          829 
 4219000   0.56224351   -7.1413727    952.16057  0.018806995    0.0175418          856 
 4220000   0.58184711   -7.1200409    950.98035  0.018779233  0.017535975          895 
 4221000   0.57187624   -7.1195459    951.12358  0.018777611  0.017530138          812 
 4222000   0.57472152   -7.1402591    953.11107  0.018812393  0.017524315          875 
 4223000   0.58045213   -7.1090939    951.62765  0.018778665  0.017518499          915 
 4224000   0.57265906    -7.116381    951.19173   0.01876562  0.017512662          920 
 4225000   0.57305424    -7.120148    950.97827  0.018756968   0.01750684          836 
 4226000   0.58567372   -7.1105609    949.90798  0.018731424  0.017501023          824 
 4227000   0.57303885    -7.128073    952.63992  0.018780852  0.017495216          887 
 4228000   0.57206229   -7.1158281    952.05723  0.018764925  0.017489407          874 
 4229000    0.5824689   -7.1269042    951.70589  0.018753564  0.017483599          961 
 4230000   0.58307693   -7.1177015    951.86868  0.018752338  0.017477789          928 
 4231000   0.56037009   -7.1169652    952.51541  0.018760644  0.017471983          878 
 4232000   0.57412867   -7.1301912    952.96236  0.018765012   0.01746616          863 
 4233000   0.56638071   -7.1223616    950.20552  0.018706306  0.017460352          962 
 4234000   0.56982275   -7.1295789    950.65363  0.018710708  0.017454547          934 
 4235000   0.56813704   -7.1040077    952.72596  0.018747067  0.017448737          903 
 4236000   0.57509195   -7.1424765    951.56069  0.018719718   0.01744293          856 
 4237000   0.57772631   -7.1157559    951.48597   0.01871383  0.017437128          865 
 4238000   0.57876516   -7.1249379    952.49567  0.018729268  0.017431331          847 
 4239000   0.57787558   -7.1366493    951.62922  0.018707817  0.017425537          966 
 4240000    0.5743539   -7.1151693    951.30705  0.018697073  0.017419749          842 
 4241000   0.57044826   -7.1179369    953.88647  0.018743348  0.017413957          880 
 4242000   0.56481509   -7.1105308    950.69852  0.018676303  0.017408163          902 
 4243000   0.59302381    -7.113147    952.85955  0.018714344  0.017402386          906 
 4244000   0.56586687   -7.1358799    952.04058  0.018693854  0.017396609          928 
 4245000   0.56640028   -7.1246675    951.96781  0.018688021  0.017390829         1034 
 4246000   0.57124391   -7.1310274    952.21968  0.018688563  0.017385047          996 
 4247000   0.57738628   -7.1103768    953.54502  0.018710168  0.017379282         1062 
 4248000   0.56485916   -7.1189772    952.58335  0.018686899  0.017373522          943 
 4249000   0.57644517   -7.1196331    951.31363  0.018657598  0.017367762         1014 
 4250000   0.57284892   -7.1008439    950.83781  0.018643879  0.017362001         1117 
 4251000   0.57745648   -7.1396889    952.09324  0.018664103  0.017356235         1049 
 4252000   0.56774637   -7.1292448    950.60376  0.018630522  0.017350465         1009 
 4253000   0.58152311   -7.1311996     953.0233   0.01867355    0.0173447         1066 
 4254000   0.57074065    -7.134532    953.33497  0.018675266  0.017338937         1049 
 4255000    0.5708328    -7.130479    950.20121  0.018609503  0.017333178          987 
 4256000   0.57419251    -7.152159    950.68482  0.018614599  0.017327415          989 
 4257000   0.56937233   -7.1352591    951.56284  0.018627414  0.017321654         1065 
 4258000   0.56656535   -7.1250455    951.54521  0.018622695  0.017315897          993 
 4259000   0.56799329   -7.1323424    949.89576  0.018586048  0.017310147          919 
 4260000   0.57748784   -7.1258679    952.03066  0.018623448  0.017304401         1080 
 4261000   0.56083867   -7.1188802    950.88546   0.01859668  0.017298665         1080 
 4262000    0.5779417    -7.130387     952.8253  0.018630246  0.017292924          937 
 4263000   0.59423386   -7.1259127    950.77622   0.01858582  0.017287188          951 
 4264000   0.55954499   -7.1325681    951.66246  0.018598782  0.017281442         1037 
 4265000   0.58020963   -7.1320568    950.91198  0.018579757  0.017275711         1043 
 4266000   0.56461545   -7.1282649    950.17391  0.018560984  0.017269985         1157 
 4267000   0.56471594   -7.1536273     951.4342  0.018581248  0.017264263         1097 
 4268000   0.56236699     -7.10759    952.70311   0.01860167  0.017258549         1056 
 4269000   0.56972539   -7.1404705    950.80035  0.018560169  0.017252826         1049 
 4270000   0.56199535    -7.121346    952.16232  0.018582403  0.017247101         1009 
 4271000   0.56586918   -7.1220869    952.62259  0.018587033  0.017241383         1063 
 4272000   0.57422188   -7.1095156    952.55688    0.0185814  0.017235672         1029 
 4273000   0.56476487   -7.1290579    950.92265   0.01854518  0.017229962         1032 
 4274000   0.57073613   -7.1127834    952.49461  0.018571491  0.017224247         1074 
 4275000   0.56479492    -7.124454    951.86498  0.018554873  0.017218528         1085 
 4276000   0.57359528   -7.1240605    950.36284  0.018521259  0.017212813         1051 
 4277000   0.57165859   -7.1347055    948.61473  0.018482868  0.017207093         1101 
 4278000   0.56349782   -7.1549855    949.83248  0.018502269  0.017201371         1117 
 4279000   0.57173803   -7.1468531    951.30307  0.018526585  0.017195649         1039 
 4280000   0.56125475   -7.1211967    952.16764   0.01853909   0.01718994         1034 
 4281000   0.55427273   -7.1670516    953.21103   0.01855507  0.017184231         1074 
 4282000   0.56052748   -7.1477101    950.28825  0.018493855  0.017178527         1046 
 4283000   0.56213188   -7.1396498    952.21467  0.018527019   0.01717282         1043 
 4284000   0.57130805   -7.1388657    949.89512  0.018477574  0.017167117         1068 
 4285000   0.57259874   -7.1569461    949.52811  0.018466124  0.017161411         1057 
 4286000   0.56302259   -7.1349634    949.22863  0.018455993  0.017155702         1046 
 4287000   0.57078111   -7.1529696    949.54639  0.018457865  0.017149994         1093 
 4288000   0.56674522   -7.1346673    951.12302    0.0184842  0.017144283         1117 
 4289000   0.56670943   -7.1538526    949.61219  0.018450536  0.017138575         1090 
 4290000   0.57100627   -7.1472514    952.02233  0.018493052  0.017132872         1088 
 4291000   0.56791124   -7.1275549    949.69131  0.018443473  0.017127163         1125 
 4292000   0.56865007   -7.1211574    950.47376  0.018454368  0.017121456         1006 
 4293000   0.56558285   -7.1467991    950.67951  0.018454063  0.017115761         1185 
 4294000   0.57020277   -7.1474099    952.05067  0.018476375  0.017110064         1073 
 4295000   0.57181128    -7.135369    949.94002  0.018431122  0.017104373         1148 
 4296000   0.57269691    -7.144385    951.86417  0.018464156  0.017098688         1109 
 4297000    0.5871064    -7.171855     950.2882  0.018429296  0.017092997         1199 
 4298000   0.57240424   -7.1350329     950.4651  0.018428438   0.01708731         1106 
 4299000    0.5712419   -7.1415658    949.82715  0.018411785  0.017081635         1139 
 4300000   0.57357391   -7.1272394    953.22837  0.018473418  0.017075957         1164 
 4301000   0.55784623   -7.1609767     949.3128  0.018393257  0.017070282         1241 
 4302000    0.5485781   -7.1510765    950.94853  0.018420667  0.017064605         1100 
 4303000   0.55959648   -7.1476662     951.1812  0.018420892  0.017058924         1110 
 4304000   0.54882154   -7.1539546    951.30025  0.018418917  0.017053252         1116 
 4305000   0.56483502   -7.1401944    950.59486  0.018400985  0.017047576         1206 
 4306000    0.5619843   -7.1483487    949.98514  0.018384911  0.017041908         1160 
 4307000   0.56396001   -7.1397792    950.82668  0.018396925   0.01703624         1151 
 4308000   0.55906644    -7.136097    950.53675  0.018387046  0.017030578         1154 
 4309000   0.57635435   -7.1428434    949.83407   0.01836919   0.01702492         1087 
 4310000   0.57063458   -7.1370733    951.24517  0.018392211  0.017019269         1132 
 4311000   0.57566994   -7.1470361     949.6661  0.018357421  0.017013616         1103 
 4312000   0.54847105   -7.1540735    948.78288  0.018336095  0.017007951         1214 
 4313000   0.55684087   -7.1561554    950.48408  0.018364713  0.017002307         1103 
 4314000   0.55090518   -7.1395188    950.25295  0.018355991  0.016996656         1088 
 4315000   0.55283193   -7.1394488    950.08143  0.018348425  0.016990998         1139 
 4316000   0.55924773   -7.1679632     947.4893  0.018294125  0.016985341         1083 
 4317000   0.55508449   -7.1552663    948.45577  0.018308543  0.016979686         1134 
 4318000   0.55965464   -7.1723285    949.76553   0.01832958  0.016974037         1087 
 4319000   0.55662065   -7.1627527     949.2306  0.018315015  0.016968379         1185 
 4320000   0.56019028   -7.1724664     948.2216  0.018291312  0.016962722         1073 
 4321000   0.55631253   -7.1324105    949.00081  0.018302106  0.016957068         1084 
 4322000   0.56503981   -7.1650704    948.65517  0.018291207  0.016951422         1109 
 4323000    0.5596711   -7.1518182    948.25163  0.018279197  0.016945775         1047 
 4324000   0.55852602    -7.170664    947.98528  0.018269837  0.016940133         1028 
 4325000   0.57362844   -7.1499406    949.97044  0.018303862  0.016934484         1067 
 4326000   0.55510311   -7.1811893     949.6981  0.018294385  0.016928835         1005 
 4327000   0.55952861   -7.1479826    948.03555  0.018258138  0.016923185         1053 
 4328000   0.55175289   -7.1860708    947.75884  0.018248591  0.016917542         1080 
 4329000   0.57280998   -7.1640644    949.08542  0.018269913  0.016911897         1023 
 4330000   0.56090647   -7.1668038     950.8979  0.018300576  0.016906256         1104 
 4331000   0.56086513   -7.1746525    947.21246  0.018225438  0.016900614         1009 
 4332000   0.56158281   -7.1530738    950.09954  0.018276769  0.016894977         1099 
 4333000   0.56863913   -7.1500509    950.26895  0.018275809  0.016889341         1173 
 4334000   0.56937728   -7.1403491    948.22361  0.018232264  0.016883714          982 
 4335000   0.55701754   -7.1687487    950.43121  0.018270496  0.016878091         1024 
 4336000   0.55846673    -7.175557    948.78192  0.018234585  0.016872465         1081 
 4337000   0.55883658   -7.1568806    950.17293  0.018257108   0.01686684         1094 
 4338000   0.56159148   -7.1625933    948.48008   0.01822038   0.01686122         1106 
 4339000   0.56480106   -7.1654406    949.17704  0.018229566  0.016855597         1022 
 4340000   0.55584113   -7.1695355    947.42407  0.018191706  0.016849986         1069 
 4341000   0.56679674   -7.1749183    948.46375  0.018207474  0.016844377         1102 
 4342000   0.56083438   -7.1671043    948.22707  0.018198738  0.016838755         1010 
 4343000    0.5563318   -7.1850092    947.55713  0.018181693  0.016833143         1150 
 4344000   0.54953037   -7.1567849    948.15307   0.01818894   0.01682753         1024 
 4345000   0.54949174    -7.161355    947.59096  0.018173973  0.016821928         1093 
 4346000   0.55178612   -7.1794825    949.64221  0.018209124  0.016816329         1175 
 4347000   0.56418924   -7.1603683    949.69424  0.018205932  0.016810725         1069 
 4348000   0.55667679   -7.1709403    950.59675  0.018219042  0.016805122         1091 
 4349000   0.55215652   -7.1576286    950.05196  0.018204414   0.01679952         1207 
 4350000   0.56619297   -7.1665278    948.70882  0.018174498  0.016793931         1032 
 4351000   0.55356856   -7.1827801    949.83213  0.018191836   0.01678833         1171 
 4352000   0.56314895   -7.1654506    948.84584   0.01816877  0.016782734         1145 
 4353000   0.55989849   -7.1799827    948.04296  0.018149226  0.016777135         1130 
 4354000   0.54771154   -7.1773188    948.98856  0.018163156  0.016771534         1165 
 4355000   0.54945586   -7.1791883    949.21259  0.018163272  0.016765936         1180 
 4356000   0.55524157   -7.1581316    948.07712   0.01813738  0.016760347         1152 
 4357000   0.54370307   -7.1681684    947.34961  0.018119302   0.01675476         1131 
 4358000   0.54564289   -7.1739307    950.52151  0.018175798  0.016749175         1183 
 4359000   0.57038287   -7.1695539    950.17492  0.018165002  0.016743591         1133 
 4360000   0.54423391   -7.1751417    950.81024  0.018172979  0.016738012         1183 
 4361000   0.55915017    -7.164761    949.15446  0.018137172  0.016732436         1136 
 4362000   0.55498118   -7.1734452    949.05895  0.018131189  0.016726853         1191 
 4363000   0.55431689   -7.1760704    950.16952  0.018148245  0.016721266         1171 
 4364000   0.55366137   -7.1910377    947.60643  0.018095143  0.016715686         1233 
 4365000   0.55105121   -7.1529943    949.33329  0.018123965   0.01671011         1176 
 4366000   0.54421589   -7.1833186    948.71293  0.018107973  0.016704546         1229 
 4367000   0.55177682   -7.1584577     950.4427  0.018136835  0.016698985         1177 
 4368000   0.55961876   -7.1610177    949.77749  0.018119992   0.01669343         1174 
 4369000   0.54802964   -7.1808066    947.73554  0.018076897  0.016687875         1243 
 4370000   0.53693705   -7.1881288    948.27586  0.018083064   0.01668232         1195 
 4371000   0.55790508   -7.1752901    948.42313  0.018081734  0.016676756         1215 
 4372000   0.54862198   -7.1821598     948.1417  0.018072234  0.016671194         1154 
 4373000   0.55673374   -7.1844898    948.77167  0.018080106  0.016665636         1126 
 4374000   0.54724741   -7.1733743    949.20389  0.018084208  0.016660082         1170 
 4375000   0.55597818   -7.1750149    947.65416  0.018050555  0.016654534         1145 
 4376000   0.54349716   -7.1801775    950.07699  0.018092569  0.016648996         1171 
 4377000   0.55110797   -7.1704697     948.8928   0.01806589  0.016643453         1147 
 4378000    0.5476758   -7.1898871    946.54587  0.018017091  0.016637907         1130 
 4379000    0.5428167   -7.1689651     948.8194  0.018056242   0.01663236         1161 
 4380000    0.5490637   -7.1763051    946.00021  0.017998482   0.01662682         1161 
 4381000   0.55703616   -7.1786594     947.4198  0.018021376  0.016621276         1166 
 4382000   0.55156678    -7.180636    947.22764  0.018013609  0.016615735         1223 
 4383000   0.55283956   -7.1819811    946.99411  0.018005059  0.016610195         1190 
 4384000   0.55859587   -7.1693474    948.03471  0.018020733  0.016604642         1232 
 4385000   0.55390121   -7.1857876    948.94824  0.018033984  0.016599102         1219 
 4386000    0.5504469   -7.1734436    947.30232    0.0179986  0.016593563         1165 
 4387000    0.5408771   -7.1686037    947.55956  0.017999384  0.016588035         1177 
 4388000   0.55069275   -7.1910441    950.30942  0.018047505  0.016582503         1271 
 4389000   0.55096514   -7.1719758     948.2021  0.018003382  0.016576976         1188 
 4390000   0.53515302   -7.1923266    948.94775  0.018013435  0.016571451         1197 
 4391000    0.5495278    -7.193252    947.84755  0.017988453  0.016565926         1221 
 4392000   0.54537443   -7.1962632    948.00115  0.017987271  0.016560404         1274 
 4393000   0.55169289   -7.1826217    949.30377  0.018007887  0.016554902         1185 
 4394000   0.54734705   -7.1931019    948.20222  0.017982898  0.016549391         1245 
 4395000   0.54816011   -7.1821183    948.44916  0.017983488  0.016543874         1236 
 4396000   0.53975387   -7.1863779    948.77303  0.017985537  0.016538358         1218 
 4397000   0.55474406   -7.2051917    945.50786  0.017919564  0.016532846         1203 
 4398000   0.54258748   -7.1738965    947.87302  0.017960304  0.016527333         1191 
 4399000   0.54707841   -7.1781041    946.33687  0.017927121  0.016521826         1204 
 4400000   0.54483784   -7.2013371    948.74919  0.017968735  0.016516318         1242 
 4401000   0.54761915   -7.2006164    945.93827  0.017911427  0.016510815         1167 
 4402000   0.54828191   -7.2031242    947.00175   0.01792749  0.016505303         1249 
 4403000    0.5532018   -7.2023853    949.42493  0.017969281  0.016499809         1242 
 4404000   0.54082956   -7.1914241    946.70918  0.017913813  0.016494305         1338 
 4405000   0.54435799   -7.2007519    948.03465  0.017934821  0.016488805         1296 
 4406000   0.54301533   -7.2028459    950.11146  0.017970031  0.016483311         1236 
 4407000   0.53189579   -7.1850848    948.98929  0.017944734  0.016477817         1127 
 4408000   0.55131671   -7.1706039    947.34797  0.017909633  0.016472334         1217 
 4409000   0.54767131   -7.2068382    948.36862  0.017924862  0.016466852         1176 
 4410000   0.54762142   -7.2009686    947.00753  0.017895078  0.016461367         1196 
 4411000   0.55081513    -7.176985    948.26791  0.017914832  0.016455882         1232 
 4412000   0.54891742   -7.1884216     947.4211  0.017894778  0.016450394         1213 
 4413000   0.54371038   -7.1911278    948.86118  0.017917916  0.016444913         1196 
 4414000   0.53941415   -7.1827799    948.32432  0.017903721  0.016439432         1159 
 4415000   0.54746488   -7.2110579     947.5333  0.017884736  0.016433958         1165 
 4416000   0.54716652   -7.2088724    946.70696  0.017865092  0.016428481         1176 
 4417000   0.53726643   -7.2104431    947.84203  0.017882462  0.016423016         1274 
 4418000   0.54714308   -7.1993495    948.61389  0.017892974   0.01641754         1347 
 4419000    0.5538153   -7.1960871    946.34747  0.017846184  0.016412065         1339 
 4420000   0.54893956   -7.2170039    948.03279  0.017873921  0.016406587         1259 
 4421000   0.55133418   -7.1994375    947.10942  0.017852473  0.016401115         1283 
 4422000   0.55430906   -7.1873772    947.28023  0.017851655  0.016395653         1215 
 4423000   0.53678559   -7.2299723    947.76634  0.017856778  0.016390193         1255 
 4424000   0.54214464   -7.1926289    949.64318  0.017888095  0.016384732         1177 
 4425000   0.53412885   -7.1934595    946.62196  0.017827156  0.016379277         1301 
 4426000   0.54398107   -7.1873253    949.02297  0.017868334  0.016373813         1224 
 4427000   0.53457139   -7.2009526    946.70356  0.017820638  0.016368351         1302 
 4428000   0.53928913   -7.1893547    947.02631  0.017822687  0.016362894         1297 
 4429000   0.52974991   -7.1863974    946.96284  0.017817469  0.016357443         1225 
 4430000   0.54518153   -7.2191947    947.99943  0.017832946  0.016351989         1328 
 4431000   0.53564583   -7.2083603    947.73352  0.017823921  0.016346531         1287 
 4432000   0.53308369   -7.1744343    947.63038   0.01781796  0.016341083         1213 
 4433000   0.53865789   -7.2142707    946.29618   0.01778886   0.01633563         1302 
 4434000   0.53766858   -7.2033352    947.10224  0.017799997   0.01633017         1249 
 4435000   0.55535527     -7.21605    946.64551  0.017787402  0.016324719         1228 
 4436000   0.54262665   -7.2054564    947.63676  0.017802013  0.016319274         1266 
 4437000   0.53823544   -7.2183721    945.92544   0.01776586  0.016313825         1280 
 4438000   0.54158728   -7.2099472    945.34881  0.017751029  0.016308381         1304 
 4439000   0.53151466   -7.2311308    947.84493   0.01779389  0.016302935         1249 
 4440000   0.53782307   -7.2072472    945.81518  0.017751786  0.016297494         1282 
 4441000   0.54934784   -7.2104177    945.71171  0.017745848  0.016292052         1343 
 4442000    0.5406637   -7.2065406     948.3961  0.017792213  0.016286618         1383 
 4443000   0.53945623   -7.2190106    946.29734  0.017748844  0.016281175         1451 
 4444000   0.53691637   -7.2266333    944.63049  0.017713593  0.016275743         1369 
 4445000    0.5403152    -7.222946    947.65357  0.017766284  0.016270306         1311 
 4446000   0.53780319   -7.2023493    946.10233  0.017733212  0.016264873         1353 
 4447000   0.54249843   -7.2190615    945.91036  0.017725627   0.01625943         1430 
 4448000   0.54361938   -7.2097053    946.27653  0.017728502  0.016253995         1358 
 4449000   0.54169613    -7.204483    945.80975  0.017715774  0.016248568         1258 
 4450000   0.54735052    -7.207907    945.32997  0.017702808  0.016243141         1393 
 4451000   0.53500742   -7.2275893    946.08626  0.017712991  0.016237719         1327 
 4452000    0.5326307   -7.2106056     946.1369   0.01770996  0.016232298         1335 
 4453000   0.54064846   -7.1976563    946.45571  0.017711949  0.016226887         1378 
 4454000    0.5455469   -7.2270051    947.68337  0.017730942  0.016221472         1279 
 4455000   0.54673402   -7.2179741    947.09598  0.017715974   0.01621605         1301 
 4456000    0.5430742   -7.2158296    945.41323  0.017680529  0.016210635         1296 
 4457000   0.52411935   -7.2247604     945.5621  0.017679345  0.016205218         1323 
 4458000   0.53788662   -7.2363736    947.82756  0.017717728    0.0161998         1323 
 4459000   0.53987411   -7.2243248    945.81717  0.017676182  0.016194395         1268 
 4460000   0.53615727   -7.2403089    945.68759  0.017669798  0.016188991         1320 
 4461000   0.53022124   -7.2414087    945.75751  0.017667143  0.016183592         1293 
 4462000   0.54708378   -7.2171946     946.0832  0.017669266  0.016178191         1363 
 4463000   0.52604069   -7.2358176    946.30507   0.01766945  0.016172787         1312 
 4464000   0.53030195   -7.2001454    945.37618  0.017648152  0.016167393         1338 
 4465000   0.52449048   -7.1943109    946.09451  0.017657606  0.016161989         1330 
 4466000   0.54829141   -7.2293419    948.01508  0.017689489  0.016156599         1286 
 4467000   0.53960452   -7.2408804    945.58005  0.017640102  0.016151206         1328 
 4468000   0.54566793   -7.2393303    946.07152  0.017645321  0.016145814         1300 
 4469000   0.54185909   -7.2279005    945.61633  0.017632884  0.016140422         1328 
 4470000   0.53563633   -7.2169185    945.41827  0.017625247  0.016135027         1352 
 4471000    0.5406575   -7.2352141    945.86936  0.017629713  0.016129632         1326 
 4472000     0.535942   -7.2364018    945.15033  0.017612372  0.016124241         1269 
 4473000   0.53489031   -7.2338403    946.53367  0.017634207  0.016118845         1310 
 4474000   0.55149064    -7.231454    946.45095  0.017628724  0.016113455         1317 
 4475000   0.54446047   -7.2200247    944.37674  0.017586159   0.01610807         1345 
 4476000   0.53292741   -7.1959743    945.90249  0.017610636  0.016102687         1295 
 4477000   0.52205241   -7.2239834    945.75498  0.017603957  0.016097316         1338 
 4478000   0.52938503    -7.242348    947.14917  0.017625971  0.016091942         1312 
 4479000   0.53244662   -7.2390505    945.48434  0.017591061  0.016086569         1354 
 4480000   0.53185192   -7.2130559    946.61942  0.017608248  0.016081194         1318 
 4481000   0.53118197   -7.2458313    944.72965  0.017569174  0.016075816         1348 
 4482000   0.53888812   -7.2298603    945.54906   0.01758049  0.016070448         1328 
 4483000   0.54478511   -7.2168848    944.92872  0.017565037  0.016065085         1216 
 4484000   0.53186954    -7.224175    947.12214  0.017601883  0.016059722         1285 
 4485000    0.5372311   -7.2123965    947.22731  0.017599913  0.016054356         1204 
 4486000   0.53036706   -7.2570668    944.12617  0.017538382  0.016048993         1297 
 4487000   0.54789841   -7.2477651    945.65293  0.017562828  0.016043634         1264 
 4488000   0.53157828   -7.2231409    945.35585  0.017553399  0.016038272         1361 
 4489000   0.53620845   -7.2334735    945.52442  0.017552618  0.016032917         1366 
 4490000   0.53229949   -7.2492431    945.91624  0.017555981  0.016027565         1308 
 4491000   0.53445739   -7.2335872    946.76658   0.01756785  0.016022226         1343 
 4492000    0.5396354   -7.2374141    946.46382  0.017558323  0.016016874         1326 
 4493000    0.5238785   -7.2235366    945.98556  0.017545544  0.016011532         1365 
 4494000    0.5283478   -7.2335852    947.18419  0.017563866  0.016006188         1392 
 4495000   0.52754112   -7.2356173    945.04067   0.01752022  0.016000847         1370 
 4496000   0.53179113   -7.2353067    946.17099  0.017537274  0.015995513         1462 
 4497000   0.53210306   -7.2233783    945.57075  0.017522251  0.015990172         1359 
 4498000   0.52619916   -7.2279018    945.76202  0.017521899  0.015984829         1362 
 4499000   0.53068521    -7.239882    945.54179  0.017513925  0.015979488         1346 
 4500000   0.53363345   -7.2257306    945.19347  0.017503583  0.015974151         1291 
 4501000   0.53561765   -7.2436535    943.68045  0.017471681  0.015968823         1348 
 4502000   0.53778743   -7.2384763    944.90098  0.017490393  0.015963497         1277 
 4503000    0.5352196   -7.2499934    946.60566  0.017518056   0.01595817         1389 
 4504000    0.5355608   -7.2202091    945.58101  0.017495208  0.015952852         1394 
 4505000   0.53654869   -7.2403593    944.92749  0.017479236  0.015947534         1324 
 4506000   0.52534481   -7.2280199     944.6132  0.017469544  0.015942222         1296 
 4507000   0.53505056   -7.2174433    944.97019  0.017472269  0.015936906         1335 
 4508000   0.52753554   -7.2448838    946.04567  0.017488274  0.015931603         1364 
 4509000   0.51546563   -7.2308056    944.91474  0.017463494  0.015926295         1462 
 4510000   0.52001036   -7.2357259    947.14951  0.017500915   0.01592099         1368 
 4511000   0.53174049    -7.253097    945.92555  0.017474425  0.015915689         1381 
 4512000   0.52339618   -7.2264508    943.52093   0.01742614  0.015910387         1371 
 4513000   0.53391244   -7.2293648    944.65126  0.017443151  0.015905086         1380 
 4514000    0.5262506   -7.2349975    945.62163    0.0174572  0.015899789         1402 
 4515000   0.52990989   -7.2439984    944.36204  0.017430086  0.015894486         1443 
 4516000   0.51894001   -7.2471342    946.33043  0.017462548  0.015889183         1466 
 4517000   0.53001767   -7.2389004     946.3708  0.017459427  0.015883885         1391 
 4518000   0.53092283   -7.2404276    944.92781  0.017428947  0.015878586         1474 
 4519000   0.52578126   -7.2414233    944.00424  0.017408059  0.015873297         1456 
 4520000   0.53054734   -7.2430567     946.5392  0.017450944  0.015868008         1401 
 4521000   0.52647318   -7.2346793    946.57122  0.017447674  0.015862724         1406 
 4522000   0.53117352   -7.2247401    944.50162  0.017405676  0.015857438         1419 
 4523000   0.51927879   -7.2522574    945.13451  0.017413489   0.01585215         1398 
 4524000   0.53114227   -7.2441539    945.50425   0.01741645  0.015846861         1407 
 4525000   0.52623549   -7.2376123    946.66591  0.017433995  0.015841577         1342 
 4526000    0.5262332   -7.2551283    946.15981  0.017420824  0.015836284         1383 
 4527000   0.52753618   -7.2516039    946.25258  0.017418684  0.015831004         1374 
 4528000   0.52962738   -7.2571099     942.8288  0.017351826  0.015825721         1468 
 4529000    0.5265372   -7.2410767    945.49567  0.017397065  0.015820443         1443 
 4530000   0.54160214   -7.2415827    945.33111  0.017390197  0.015815164         1394 
 4531000   0.52136085   -7.2351472     944.3126  0.017367627  0.015809889         1570 
 4532000   0.52083192   -7.2435002    943.84342  0.017355167  0.015804616         1502 
 4533000   0.51954002    -7.221316     945.3186  0.017378458  0.015799342         1492 
 4534000   0.52899051   -7.2596741    943.79554  0.017346632  0.015794071         1432 
 4535000   0.52943588   -7.2605654    943.79284  0.017342757  0.015788796         1497 
 4536000   0.53611352     -7.24274    944.49974  0.017351921  0.015783527         1436 
 4537000   0.53285112   -7.2424649    943.47171  0.017329214  0.015778259         1519 
 4538000   0.52878672   -7.2485006    945.72387  0.017366753  0.015772989         1488 
 4539000    0.5261255   -7.2429003    943.93372   0.01733006  0.015767724         1483 
 4540000   0.52978427   -7.2494064    943.72994  0.017322503  0.015762456         1426 
 4541000    0.5357577    -7.256057    945.60716  0.017353137  0.015757193         1476 
 4542000   0.52807589   -7.2605541    943.74858  0.017315217  0.015751933         1516 
 4543000   0.53643619   -7.2506907     945.7803  0.017348674  0.015746677         1480 
 4544000   0.54111189   -7.2526094     944.9114  0.017328921  0.015741428         1447 
 4545000   0.52858001   -7.2487841    942.98429  0.017289774   0.01573617         1493 
 4546000   0.52644094   -7.2396086    944.57331    0.0173151  0.015730922         1563 
 4547000   0.51585407    -7.252221    944.74529  0.017314443  0.015725675         1466 
 4548000   0.51742991   -7.2415229     943.5209  0.017288202  0.015720435         1496 
 4549000   0.53050916   -7.2357508    945.38132  0.017318483   0.01571519         1420 
 4550000   0.52411874    -7.268759     941.8581  0.017250148  0.015709947         1496 
 4551000   0.52983126   -7.2708621    942.91356  0.017265684  0.015704711         1499 
 4552000   0.53785504   -7.2666678    944.08164  0.017283275  0.015699479         1509 
 4553000   0.51690088   -7.2720381    945.61811  0.017307601  0.015694245         1493 
 4554000   0.52836877   -7.2545515    944.38787  0.017281289  0.015689015         1445 
 4555000   0.51963744    -7.243841    944.26642  0.017275273  0.015683785         1473 
 4556000   0.52190004   -7.2458145    944.04856  0.017267496  0.015678564         1446 
 4557000   0.51789011   -7.2539747    944.42716  0.017270631  0.015673338         1468 
 4558000    0.5252169   -7.2603764    942.80674  0.017237216   0.01566812         1533 
 4559000   0.53008346   -7.2502464     944.5411  0.017265137  0.015662898         1484 
 4560000   0.51158204   -7.2518675    944.40791  0.017258917  0.015657681         1448 
 4561000   0.51864719   -7.2676198    944.65017  0.017259559  0.015652467         1472 
 4562000   0.51229017   -7.2448462      943.071  0.017226929  0.015647251         1411 
 4563000   0.51589748   -7.2546282    944.65303  0.017252046  0.015642035         1556 
 4564000   0.51893377   -7.2480773    944.59393  0.017247187  0.015636823         1428 
 4565000   0.52396678   -7.2467374     944.5226  0.017242107  0.015631615         1420 
 4566000    0.5251799   -7.2514438    945.61908  0.017258342   0.01562641         1443 
 4567000   0.52390565   -7.2619687    944.78677  0.017239376  0.015621205         1482 
 4568000   0.51846528   -7.2464035    943.20297  0.017206709  0.015615996         1484 
 4569000   0.51999397   -7.2617835    944.59409  0.017228316  0.015610795         1454 
 4570000   0.52044584   -7.2523315    944.83898  0.017229011  0.015605599         1487 
 4571000   0.52894411   -7.2658661    943.90666  0.017208245  0.015600405         1384 
 4572000   0.51729991   -7.2760378    944.04127  0.017206935  0.015595208         1448 
 4573000   0.51700161    -7.252049    944.33046  0.017208442  0.015590021         1380 
 4574000   0.52568155   -7.2462487    943.69586  0.017193118  0.015584835         1431 
 4575000   0.50875452   -7.2648168     945.2587  0.017217827  0.015579655         1450 
 4576000   0.52686861   -7.2456582    945.00049  0.017209362  0.015574476         1408 
 4577000   0.52259287   -7.2395701    944.11942  0.017189561  0.015569296         1499 
 4578000    0.5265316   -7.2657186    944.34833  0.017189972  0.015564124         1453 
 4579000   0.51709268   -7.2323265    944.48141   0.01718864  0.015558946         1521 
 4580000   0.51442495   -7.2471872    945.50893  0.017203583   0.01555377         1447 
 4581000   0.51730401   -7.2564541    943.61568  0.017165387    0.0155486         1499 
 4582000    0.5244292    -7.283395    942.14501  0.017134894  0.015543426         1487 
 4583000   0.52133234   -7.2571097    942.99861  0.017146676  0.015538254         1554 
 4584000   0.52794668   -7.2681501    942.97768  0.017142555  0.015533077         1533 
 4585000    0.5245074   -7.2748464    943.65863  0.017151193  0.015527904         1551 
 4586000   0.50975775    -7.243324      944.527  0.017163232  0.015522725         1550 
 4587000     0.519758   -7.2625342    943.20323  0.017135441   0.01551756         1563 
 4588000   0.52020063   -7.2648808    943.90714  0.017144492  0.015512394         1496 
 4589000   0.51926088   -7.2664027    943.97072   0.01714191  0.015507233         1531 
 4590000   0.50668361   -7.2551139    943.59863   0.01713142  0.015502069         1436 
 4591000   0.51737733   -7.2560422    942.95462  0.017115999  0.015496907         1456 
 4592000   0.52767874   -7.2647596    944.60588  0.017142238  0.015491748         1515 
 4593000   0.52213393   -7.2600596    943.68298  0.017121761  0.015486591         1554 
 4594000   0.51652974   -7.2587413     943.5897  0.017116342  0.015481436         1494 
 4595000   0.52696294   -7.2510699    944.86685  0.017135779  0.015476285         1502 
 4596000   0.51308945   -7.2469839     943.8773  0.017114108  0.015471133         1485 
 4597000   0.51967088   -7.2652951    944.66164  0.017124604  0.015465987         1442 
 4598000   0.51088493   -7.2551788    941.37255  0.017061268   0.01546084         1481 
 4599000   0.53411251   -7.2615163    945.41211  0.017130755  0.015455699         1439 
 4600000   0.51462315    -7.258993    944.82155  0.017116332   0.01545056         1426 
 4601000   0.52272399   -7.2666288    942.45482  0.017069746  0.015445419         1481 
 4602000   0.52504387   -7.2627292    944.61756    0.0171052   0.01544029         1495 
 4603000   0.51653697   -7.2577496    943.50814  0.017081399  0.015435157         1481 
 4604000   0.51003605   -7.2707824    944.55129   0.01709657  0.015430029         1417 
 4605000   0.50516237   -7.2605795    943.25279  0.017069359  0.015424903         1459 
 4606000   0.52217018   -7.2607101    943.63857  0.017072633  0.015419779         1488 
 4607000   0.51584125   -7.2559343    943.53508  0.017067055   0.01541466         1490 
 4608000   0.52337191   -7.2542403    942.07858  0.017037011   0.01540953         1492 
 4609000   0.52725581   -7.2705716    944.19195  0.017071526  0.015404404         1506 
 4610000   0.50764299   -7.2663253    942.53464  0.017037864  0.015399278         1505 
 4611000   0.52173006   -7.2685114    943.40827  0.017049958  0.015394163         1503 
 4612000   0.51878112    -7.261338    943.77757  0.017052934  0.015389047         1448 
 4613000   0.51800278   -7.2729288    942.72357  0.017030197   0.01538393         1423 
 4614000   0.51524993   -7.2544918    943.22003  0.017035472  0.015378819         1455 
 4615000   0.51674122   -7.2532864    943.29616  0.017033156   0.01537371         1436 
 4616000    0.5170562   -7.2698634    942.76071  0.017019799  0.015368606         1482 
 4617000   0.51435412   -7.2615959    942.86324  0.017017963  0.015363502         1396 
 4618000   0.50601769   -7.2738421    943.54301  0.017026545  0.015358395         1459 
 4619000   0.51870559   -7.2649241    942.35973  0.017001511  0.015353296         1596 
 4620000    0.5070159   -7.2607411    942.81152   0.01700598  0.015348189         1479 
 4621000   0.51241661   -7.2692776    944.23801  0.017028024  0.015343085         1461 
 4622000    0.5122942   -7.2729943    942.52576  0.016993469  0.015337984         1455 
 4623000   0.51828548   -7.2749202    944.39246  0.017023442  0.015332888         1473 
 4624000   0.52177539   -7.2838843    942.60696  0.016987582  0.015327798         1476 
 4625000   0.49720571   -7.2775392    944.84623  0.017024256   0.01532271         1541 
 4626000    0.5166373   -7.2563689    944.43613  0.017013189  0.015317628         1445 
 4627000   0.52109645   -7.2719536    943.13023  0.016985992  0.015312546         1543 
 4628000   0.51795143   -7.2729162    945.37798  0.017022796  0.015307459         1516 
 4629000   0.51549794   -7.2780257    943.16101  0.016979207  0.015302378         1498 
 4630000    0.5040609   -7.2808809    941.06426  0.016937802  0.015297293         1535 
 4631000   0.50878844   -7.2681815    943.90819   0.01698532  0.015292215         1504 
 4632000   0.51195539   -7.2825787    943.90449  0.016981586  0.015287123         1561 
 4633000   0.51314333   -7.2699237    943.34081  0.016967782  0.015282036         1599 
 4634000     0.510715   -7.2802492     943.7331  0.016971175  0.015276963         1506 
 4635000   0.50934915   -7.2874526    943.21228   0.01695815  0.015271886         1494 
 4636000   0.50835117   -7.2764336    941.24736  0.016919172  0.015266814         1567 
 4637000   0.51942926   -7.2692465    944.09049  0.016966618  0.015261748         1574 
 4638000   0.51252756   -7.2706679    942.75815  0.016939021  0.015256685         1547 
 4639000   0.49790637   -7.2828205    944.40903  0.016965025  0.015251623         1564 
 4640000    0.5033738   -7.2795189    942.51211  0.016927301  0.015246564         1529 
 4641000   0.50906417   -7.2717014    943.12673   0.01693469   0.01524151         1471 
 4642000    0.5154876   -7.2728937    942.74487  0.016924186  0.015236454         1478 
 4643000   0.49921301   -7.2858046    943.84434  0.016940275  0.015231403         1486 
 4644000   0.50970192   -7.2584718    942.04219  0.016904289   0.01522635         1447 
 4645000   0.51210843    -7.264999    945.12582  0.016955971  0.015221304         1445 
 4646000    0.5142588   -7.2679533    943.31745  0.016919885  0.015216253         1428 
 4647000   0.50557743    -7.273214    942.83968  0.016907677  0.015211208         1468 
 4648000   0.51214242   -7.2633174    942.78458  0.016903051  0.015206163         1473 
 4649000   0.50990157   -7.2750336    943.39106  0.016910286  0.015201118         1458 
 4650000   0.50771747   -7.2899329    941.55601  0.016873764  0.015196069         1376 
 4651000   0.51243074   -7.2808186    942.85998  0.016893499  0.015191032         1496 
 4652000   0.50266725   -7.2673758    942.50147  0.016883446  0.015185996         1421 
 4653000   0.50692902   -7.2644103    943.72154  0.016901668  0.015180962         1442 
 4654000   0.51263297   -7.2732724    941.24251  0.016853647   0.01517593         1497 
 4655000   0.50193084   -7.2692455    943.43714  0.016889315    0.0151709         1461 
 4656000   0.50944525   -7.2809708    943.38816  0.016884811  0.015165872         1441 
 4657000   0.50148609     -7.28704    942.17404   0.01685946  0.015160843         1488 
 4658000   0.49970388   -7.2771232    941.66706   0.01684677   0.01515582         1438 
 4659000   0.49760836   -7.2702414    943.59448  0.016877629   0.01515079         1453 
 4660000   0.50642657   -7.2924645    942.60591  0.016856329  0.015145767         1460 
 4661000    0.5014837   -7.2867055    943.90665  0.016875968  0.015140746         1505 
 4662000   0.51695858   -7.2722915     942.9747   0.01685569  0.015135728         1437 
 4663000   0.50614991   -7.2808832    943.02184  0.016852917  0.015130711         1379 
 4664000   0.50505605   -7.2752492    941.68156  0.016825357    0.0151257         1453 
 4665000   0.50125028   -7.2884591    943.14498  0.016847892  0.015120689         1404 
 4666000   0.50374252   -7.2758286    941.57165  0.016816182  0.015115677         1445 
 4667000   0.50642964   -7.2723827     942.7822  0.016834194  0.015110667         1479 
 4668000   0.49595151    -7.297262    943.07394  0.016835796  0.015105656         1471 
 4669000   0.50858445   -7.2806275    942.18163  0.016816264  0.015100648         1551 
 4670000   0.49568386   -7.2728407    943.53436  0.016836802  0.015095639         1560 
 4671000   0.50176641   -7.2763095    943.75653  0.016837161  0.015090635         1544 
 4672000   0.50345621   -7.2906911     942.0101  0.016802406   0.01508563         1527 
 4673000   0.51323213   -7.2913054    942.79048  0.016812727  0.015080631         1505 
 4674000   0.50299668   -7.2800565    943.45112  0.016820909  0.015075631         1417 
 4675000   0.50861156   -7.2725443    942.53053  0.016800901   0.01507064         1492 
 4676000   0.51101411   -7.2983061    943.47642  0.016814165  0.015065649         1482 
 4677000   0.50457692   -7.2822837    942.62432  0.016795387  0.015060657         1485 
 4678000   0.50740257   -7.2874109    943.18064  0.016801707   0.01505567         1445 
 4679000   0.50515104   -7.2886058    943.72532  0.016807817  0.015050689         1517 
 4680000   0.50813142   -7.3021865    942.30954  0.016779016  0.015045707         1482 
 4681000   0.49680869   -7.2880415    942.89144  0.016785791  0.015040729         1425 
 4682000   0.50576714   -7.2774606    942.75767  0.016779825  0.015035746         1403 
 4683000   0.51217392   -7.2700966    942.37962  0.016769514  0.015030771         1449 
 4684000   0.49819428   -7.2904517    944.18251  0.016798009  0.015025797         1414 
 4685000   0.49856723   -7.2933311    940.37561   0.01672671  0.015020821         1458 
 4686000   0.50239683   -7.3092479    942.80822    0.0167664  0.015015848         1480 
 4687000   0.49995107   -7.3002976    943.22692  0.016770267  0.015010876         1461 
 4688000   0.50017273   -7.2956589    940.19028  0.016712711   0.01500591         1454 
 4689000   0.50704299   -7.3000111    940.98327   0.01672324   0.01500094         1468 
 4690000   0.50649198    -7.290061    942.32085  0.016743441  0.014995976         1535 
 4691000   0.49842219   -7.2835738    942.23367  0.016738323  0.014991013         1481 
 4692000   0.49292673   -7.2804859     942.6453  0.016742066  0.014986048         1538 
 4693000   0.50247153   -7.2881357    943.23421  0.016748956   0.01498109         1447 
 4694000   0.50399749   -7.2908801    943.08143  0.016742676  0.014976129         1464 
 4695000   0.49580464   -7.2981761    941.80021  0.016716369  0.014971166         1503 
 4696000   0.49357464   -7.2821285    941.68115  0.016710696  0.014966212         1498 
 4697000   0.50874806   -7.2876507    942.94516  0.016729564   0.01496126         1529 
 4698000   0.50938392   -7.2854072    941.92016  0.016707822   0.01495631         1412 
 4699000   0.50091896   -7.2840547    940.11147   0.01667219  0.014951361         1496 
 4700000   0.49826829   -7.2821826    942.41752   0.01670953  0.014946411         1525 
 4701000   0.49837324   -7.2973252    941.34074  0.016686888  0.014941467         1570 
 4702000   0.49852837   -7.3053337    940.96026  0.016676596  0.014936524         1533 
 4703000   0.50680578   -7.2720253    943.07772   0.01671057  0.014931586         1498 
 4704000   0.49220449   -7.2838516    942.58025  0.016698205  0.014926645         1574 
 4705000   0.50759624   -7.2885661    940.59508  0.016659495  0.014921708         1438 
 4706000   0.49336058   -7.2795479    942.12124   0.01668298  0.014916773         1390 
 4707000   0.49393871   -7.3077782    941.99051  0.016677121  0.014911835         1534 
 4708000   0.50280976   -7.3017545    942.51857  0.016682926  0.014906902         1490 
 4709000   0.49146208   -7.2913563    942.76991  0.016683831  0.014901968         1473 
 4710000   0.49611931   -7.2916761    940.26596  0.016635987  0.014897039         1542 
 4711000    0.4968275   -7.2903689    941.37664  0.016652102  0.014892107         1507 
 4712000   0.50169536   -7.3018812    942.53642  0.016669079  0.014887184         1544 
 4713000   0.49276656    -7.292412    943.08744  0.016675285  0.014882266         1537 
 4714000   0.49961135   -7.2997087     940.5383  0.016626685  0.014877337         1569 
 4715000    0.4900317   -7.3042476    942.31479  0.016654556  0.014872415         1567 
 4716000   0.50127948   -7.2964934    940.67648  0.016622075  0.014867495         1573 
 4717000   0.50386419   -7.2798364    940.81128  0.016620933  0.014862572         1581 
 4718000   0.49313641   -7.2895073    942.19047   0.01664177  0.014857657         1653 
 4719000    0.4963199   -7.3215664    942.37775  0.016641551  0.014852737         1568 
 4720000   0.49056394   -7.2930897    942.21012  0.016635066   0.01484782         1596 
 4721000   0.50301433   -7.2873544    941.83343  0.016624893  0.014842904         1566 
 4722000   0.49814725   -7.3037887    939.89736  0.016587204  0.014837992         1573 
 4723000   0.49376171   -7.3066729    941.42359  0.016610622  0.014833087         1586 
 4724000   0.51384273   -7.3095305     941.9283  0.016616009  0.014828183         1596 
 4725000   0.48940978    -7.297515    940.85481  0.016593559  0.014823278         1608 
 4726000   0.50904641   -7.3012167    942.27368  0.016615067  0.014818374         1590 
 4727000    0.4876746    -7.302866    943.32863   0.01663015  0.014813471         1573 
 4728000   0.50089534   -7.3007689    941.82949   0.01660021   0.01480857         1586 
 4729000    0.4916867   -7.3139563    940.36064  0.016570816  0.014803674         1562 
 4730000   0.49330963   -7.3002014    942.26131  0.016600798  0.014798781         1561 
 4731000   0.49027536   -7.3076036    940.52903  0.016566776   0.01479389         1613 
 4732000    0.4921759   -7.3203268    941.83739  0.016586316  0.014788999         1598 
 4733000   0.48774898   -7.3089717    940.89561   0.01656623   0.01478411         1673 
 4734000   0.49135384   -7.3007108    939.49046  0.016537996  0.014779225         1513 
 4735000   0.48652881   -7.3108748    941.30579  0.016566452  0.014774338         1562 
 4736000   0.50649182   -7.3070273    942.54147  0.016584696  0.014769454         1623 
 4737000   0.49388125   -7.2877831    939.61631  0.016529736  0.014764575         1597 
 4738000   0.49138163   -7.2937702    941.73633  0.016563535  0.014759694         1575 
 4739000   0.48630618   -7.2971893    941.97091  0.016564165  0.014754816         1486 
 4740000   0.49667052   -7.3097221    940.64472  0.016537354  0.014749943         1548 
 4741000   0.50031517   -7.2965653    940.32784  0.016528297   0.01474507         1534 
 4742000   0.49637299   -7.3084231     941.1903  0.016539967  0.014740201         1596 
 4743000   0.49268036   -7.3169156    941.61425  0.016543929  0.014735335         1542 
 4744000   0.48501138   -7.2983463    942.58571  0.016557506  0.014730468         1557 
 4745000   0.48529101   -7.2924848      943.112   0.01656326  0.014725603         1518 
 4746000   0.49536236   -7.3101516    943.55989  0.016567634  0.014720739         1518 
 4747000    0.5004731   -7.3001547    941.29035  0.016524302  0.014715875         1473 
 4748000   0.48296631   -7.3062293    940.84128   0.01651294  0.014711019         1477 
 4749000    0.4824049   -7.3047911     942.1035  0.016531612  0.014706165         1563 
 4750000   0.49612399   -7.3000875    941.91378  0.016524803  0.014701309         1557 
 4751000    0.5011896   -7.3002273     940.6257  0.016498732  0.014696462         1509 
 4752000   0.49678893   -7.3260884     940.4702  0.016492533  0.014691614         1488 
 4753000    0.4883202   -7.3132297    941.52582  0.016507571  0.014686764         1514 
 4754000   0.49925452   -7.3175392    940.71446  0.016489876  0.014681918         1536 
 4755000   0.48270759   -7.3139735    940.42238  0.016481289   0.01467707         1613 
 4756000   0.49810997   -7.3113737    941.43689    0.0164956  0.014672229         1627 
 4757000   0.49185053   -7.2986146    940.88617  0.016482485  0.014667391         1604 
 4758000   0.48559197   -7.3057961    941.73805  0.016493941  0.014662558         1597 
 4759000   0.48255394   -7.3004599    941.57504  0.016487621  0.014657726         1487 
 4760000   0.47999929   -7.3069148    942.26737  0.016496278  0.014652889         1537 
 4761000   0.49694666   -7.3134405    942.45524  0.016496101  0.014648056         1617 
 4762000   0.48827886   -7.3047275    940.38888  0.016456476   0.01464322         1620 
 4763000   0.50011224   -7.3080401    941.15742  0.016466468  0.014638385         1617 
 4764000   0.48540293   -7.3127283     940.2884   0.01644781  0.014633553         1563 
 4765000   0.48458672   -7.3059949    942.03241  0.016474858  0.014628724         1611 
 4766000   0.49331768   -7.3120087    940.34528  0.016441902  0.014623901         1560 
 4767000   0.49266254   -7.3095912    941.42668  0.016457358  0.014619077         1560 
 4768000   0.49204427     -7.30916    940.72629  0.016441665  0.014614256         1596 
 4769000   0.48350009   -7.3052204    942.34078  0.016466429  0.014609434         1615 
 4770000   0.48915753   -7.3048938     940.3532  0.016428253   0.01460461         1622 
 4771000   0.48247005   -7.3161108    941.51744  0.016445145  0.014599789         1584 
 4772000   0.47338778   -7.3201327    939.61857  0.016408539  0.014594974         1599 
 4773000   0.48435762   -7.3218655    942.66782  0.016458339  0.014590161         1556 
 4774000   0.47523026   -7.3074462    940.15748  0.016411072  0.014585355         1567 
 4775000   0.49209231   -7.3074891    940.85347  0.016419781  0.014580549         1547 
 4776000   0.48369498   -7.3350389    940.92604   0.01641761  0.014575741         1514 
 4777000   0.49501185   -7.3216613    939.09975  0.016382314  0.014570932         1554 
 4778000    0.4960832   -7.3055921    941.30127  0.016417282  0.014566123         1666 
 4779000   0.48988979    -7.312063    939.55593  0.016383412  0.014561324         1603 
 4780000   0.48087302   -7.3071425    941.26996  0.016409867  0.014556531         1491 
 4781000   0.48977557     -7.32379     939.7406  0.016379778  0.014551734         1603 
 4782000   0.48774456   -7.3079444    940.41567  0.016388116  0.014546937         1467 
 4783000   0.49377936   -7.3129053    940.04152  0.016378171  0.014542147         1541 
 4784000    0.4815149   -7.3180083     942.3482  0.016414928  0.014537357         1535 
 4785000   0.47826092   -7.3155857    940.05202  0.016371509  0.014532567         1522 
 4786000   0.50093466   -7.3030516    940.13438  0.016369522  0.014527779         1550 
 4787000   0.49155809   -7.3137643    940.15906  0.016366532  0.014522991         1602 
 4788000   0.48192258   -7.3242256    941.65491  0.016389148    0.0145182         1526 
 4789000   0.47015268   -7.3058118    940.80682  0.016370968  0.014513415         1573 
 4790000   0.47914544   -7.3213861    941.94022  0.016387269  0.014508635         1600 
 4791000    0.4793223   -7.3364741    941.18003  0.016370626  0.014503855         1553 
 4792000   0.48913698   -7.3327977    940.96643  0.016363495  0.014499077         1500 
 4793000   0.48608751   -7.3143388    940.66455  0.016354833  0.014494301         1539 
 4794000   0.49272054   -7.3268286    940.56135  0.016349627  0.014489528         1451 
 4795000   0.48705616   -7.3233453    941.37696  0.016360392  0.014484755         1534 
 4796000   0.49074268   -7.3058088    941.68593  0.016362349  0.014479985         1609 
 4797000   0.48705086   -7.3101615    941.29855  0.016352209  0.014475219         1554 
 4798000   0.48884989   -7.2960616    940.48259  0.016334629  0.014470453         1528 
 4799000   0.47241514   -7.3296145    941.95316  0.016356761  0.014465685         1570 
 4800000   0.47523652   -7.3037116    939.88493  0.016317447   0.01446092         1542 
 4801000   0.49287286    -7.320497    940.03509  0.016316654  0.014456161         1608 
 4802000   0.47791112   -7.3231561    939.52012   0.01630432  0.014451401         1513 
 4803000   0.47620745   -7.3198861    939.65191  0.016303212  0.014446642         1454 
 4804000    0.4810623   -7.3123188    940.49236  0.016314397  0.014441888         1550 
 4805000   0.49165605    -7.324137    940.55989  0.016312173  0.014437137         1538 
 4806000   0.48265996   -7.3355544    940.71831  0.016311526  0.014432388         1506 
 4807000   0.48256447   -7.3230873     939.7529  0.016291396  0.014427637         1558 
 4808000   0.48196427   -7.3117388    939.41782    0.0162822   0.01442289         1556 
 4809000   0.47608222   -7.3146186    941.31367  0.016311667  0.014418144         1501 
 4810000   0.48988043   -7.3136945    940.75382  0.016298576  0.014413398         1589 
 4811000   0.49024466   -7.3348503    941.39675  0.016306325  0.014408656         1638 
 4812000    0.4817884    -7.329045    940.24028  0.016282909  0.014403911         1554 
 4813000   0.47956074   -7.3269493    940.04102  0.016276076  0.014399171         1566 
 4814000   0.47592732   -7.3154386    939.74741  0.016267612  0.014394434         1578 
 4815000   0.49404083   -7.3337813    939.92473  0.016267302  0.014389699         1614 
 4816000   0.48308537   -7.3134252    939.98882  0.016265034  0.014384971         1557 
 4817000   0.48131625    -7.334399    940.92174  0.016277796  0.014380238         1564 
 4818000   0.48481232   -7.3112531    940.17716  0.016261539  0.014375515         1648 
 4819000   0.48317366   -7.3120514    941.43916  0.016279988   0.01437079         1638 
 4820000   0.48193481   -7.3211525    940.19986  0.016255184   0.01436607         1542 
 4821000   0.48371639   -7.3135521    938.65441  0.016225099  0.014361349         1576 
 4822000   0.47519901   -7.3011777    940.61796  0.016255668  0.014356624         1522 
 4823000   0.47660095   -7.3134884    942.29561  0.016281284  0.014351908         1535 
 4824000   0.46955637   -7.3095964    940.40194  0.016245197  0.014347187         1579 
 4825000   0.48280649   -7.3312128    940.61073  0.016245436   0.01434247         1558 
 4826000   0.48618862   -7.3239817    941.37486  0.016255264  0.014337755         1606 
 4827000   0.46822832   -7.3384106    938.98525  0.016210642  0.014333043         1520 
 4828000   0.48254239   -7.3118028    939.11145  0.016209463  0.014328329         1503 
 4829000   0.48113434   -7.3264743    939.34443  0.016210127  0.014323617         1628 
 4830000   0.47640062   -7.3411957    939.07902  0.016202192  0.014318907         1555 
 4831000   0.48073237   -7.3255763    939.68703  0.016209326  0.014314201         1518 
 4832000   0.48141487   -7.3172446    940.82528  0.016225601  0.014309498         1580 
 4833000    0.4888198   -7.3252699    939.98741  0.016207797  0.014304801         1558 
 4834000   0.48638273   -7.3197618    939.74327  0.016200236  0.014300103         1674 
 4835000    0.4850814   -7.3190268    939.61807  0.016194727  0.014295405         1619 
 4836000   0.47439365   -7.3352126    938.69791  0.016175522  0.014290705         1634 
 4837000   0.47468748   -7.3191715     939.1844   0.01618056  0.014286007         1612 
 4838000   0.47001267   -7.3273992    938.89062  0.016172155  0.014281308         1630 
 4839000   0.47951533   -7.3196343    942.26527  0.016226928  0.014276615         1586 
 4840000   0.49044845    -7.307759    939.94356  0.016183601  0.014271925         1677 
 4841000   0.47944585   -7.3265654    939.80284  0.016177836  0.014267234         1596 
 4842000   0.48703199   -7.3375722    940.06953  0.016179085  0.014262545         1626 
 4843000   0.47187927   -7.3418801    939.36386  0.016163601  0.014257857         1512 
 4844000   0.46645181     -7.31663    940.06317  0.016172295  0.014253176         1542 
 4845000   0.46899563   -7.3349564    940.34991  0.016173889   0.01424849         1587 
 4846000   0.47996277   -7.3316191    940.73344  0.016177147   0.01424381         1621 
 4847000   0.47550615   -7.3319026    939.71633  0.016156322  0.014239131         1507 
 4848000   0.47872176   -7.3327189    940.59793  0.016168144  0.014234454         1544 
 4849000   0.47316044   -7.3425637    938.93341  0.016136203  0.014229777         1560 
 4850000   0.47863273   -7.3162187    940.39884  0.016158056  0.014225104         1488 
 4851000   0.47944206    -7.334963    939.36487  0.016136963  0.014220431         1564 
 4852000   0.46724476   -7.3245192    939.44087  0.016134942  0.014215762         1556 
 4853000   0.49217558   -7.3702642    938.46257  0.016114819  0.014211086         1575 
 4854000   0.45875836   -7.3453117    939.68783  0.016132534   0.01420642         1564 
 4855000   0.46946744   -7.3464159     939.1589  0.016120132  0.014201756         1501 
 4856000   0.46018274   -7.3331032    940.69682  0.016143205  0.014197088         1555 
 4857000   0.46611156   -7.3324209    938.74517  0.016106396  0.014192423         1566 
 4858000   0.47169887   -7.3383925    941.09329   0.01614336  0.014187761         1662 
 4859000   0.46724058   -7.3375603    939.20649  0.016107678  0.014183104         1632 
 4860000    0.4743502   -7.3388457    939.68886  0.016112635  0.014178446         1590 
 4861000   0.46924852   -7.3402123    938.85455  0.016095017  0.014173788         1583 
 4862000    0.4795546   -7.3363503    939.09172  0.016095772   0.01416913         1592 
 4863000   0.46296343   -7.3327991    938.58797   0.01608383  0.014164475         1550 
 4864000    0.4707521   -7.3364341     938.7618  0.016083501  0.014159825         1519 
 4865000    0.4715329     -7.34669    939.39065  0.016090967  0.014155175         1525 
 4866000   0.48268882   -7.3271381    939.74102   0.01609366  0.014150531         1556 
 4867000   0.47291467   -7.3327686    939.66158  0.016088994  0.014145884         1528 
 4868000   0.48404738     -7.33336    939.07214  0.016075598  0.014141241         1551 
 4869000   0.48381122   -7.3415893    941.45712  0.016113116  0.014136604         1563 
 4870000   0.47060899   -7.3387453    940.26562  0.016089419  0.014131967         1540 
 4871000   0.47379878   -7.3542229    941.17473  0.016101668  0.014127333         1581 
 4872000   0.46611801   -7.3513004    939.19658  0.016064528  0.014122698         1596 
 4873000   0.47479756   -7.3400099    941.49425  0.016100524  0.014118065         1524 
 4874000   0.47740028   -7.3416693    938.95629  0.016053828  0.014113437         1568 
 4875000   0.47244212   -7.3380632    938.79777  0.016047825  0.014108809         1516 
 4876000    0.4753094   -7.3353037    941.25118  0.016086464  0.014104184         1530 
 4877000   0.46696165   -7.3407354    938.68402  0.016039301  0.014099565         1533 
 4878000   0.47615546   -7.3376146    938.07429  0.016025596  0.014094947         1559 
 4879000   0.46782851   -7.3268629    939.35465   0.01604418  0.014090328         1532 
 4880000   0.47757203   -7.3387316     939.9255   0.01605064  0.014085714         1537 
 4881000   0.48173541   -7.3475166     940.0803  0.016049995    0.0140811         1502 
 4882000   0.46913122   -7.3336474    939.88424  0.016043361  0.014076485         1519 
 4883000   0.47643726   -7.3390045    940.90053  0.016057419  0.014071878         1514 
 4884000   0.46617855   -7.3364042    939.32762  0.016027294  0.014067268         1545 
 4885000   0.46648741   -7.3421966    938.15742   0.01600405  0.014062663         1520 
 4886000   0.46073056   -7.3245743    940.03419  0.016032784  0.014058053         1514 
 4887000   0.47415945   -7.3370941    938.96324  0.016011241  0.014053447         1518 
 4888000    0.4775432   -7.3509434     939.6715  0.016020041  0.014048845         1514 
 4889000   0.47698448     -7.34483    938.96089  0.016004651  0.014044242         1539 
 4890000   0.46203027   -7.3527219    939.53522  0.016011166  0.014039639         1479 
 4891000   0.47959692   -7.3605967    938.83432   0.01599595  0.014035038         1564 
 4892000    0.4611693    -7.341988    938.58608  0.015988452  0.014030438         1573 
 4893000    0.4661022   -7.3528902    938.45236  0.015982907  0.014025844         1541 
 4894000   0.46650965   -7.3384333    939.00499  0.015989051  0.014021251         1551 
 4895000   0.46775423   -7.3336857     939.3978  0.015992472  0.014016657         1622 
 4896000    0.4633642   -7.3387639    939.30703  0.015987661  0.014012072         1571 
 4897000   0.46686122    -7.348593    939.34971  0.015985122  0.014007482         1551 
 4898000    0.4706928   -7.3520694    938.49955  0.015967394  0.014002894         1550 
 4899000   0.47664327    -7.356039    939.38464   0.01597919  0.013998309         1489 
 4900000   0.46711637   -7.3465622    938.43227  0.015959732  0.013993727         1494 
 4901000   0.47303911   -7.3361942    938.46815  0.015957086  0.013989145         1548 
 4902000   0.46571896   -7.3268106    939.26074  0.015967305  0.013984567         1511 
 4903000    0.4726177   -7.3397002    938.83982  0.015956894  0.013979995         1487 
 4904000   0.45937746   -7.3491593    940.48936  0.015981671  0.013975418         1579 
 4905000   0.46474162   -7.3569324    937.31724   0.01592452  0.013970843         1622 
 4906000   0.45360043   -7.3451372    939.46852  0.015957816  0.013966267         1513 
 4907000   0.47005426   -7.3664578    937.05206  0.015913526   0.01396169         1542 
 4908000   0.46673516   -7.3487346    939.67105  0.015954752  0.013957117         1504 
 4909000   0.46456627      -7.3559     938.1942  0.015926431   0.01395255         1541 
 4910000   0.46526272   -7.3478821    938.74896  0.015932603  0.013947989         1521 
 4911000   0.45719171   -7.3626337    938.54862  0.015925959  0.013943424         1576 
 4912000   0.47382059   -7.3547861    940.21555  0.015950997  0.013938862         1548 
 4913000    0.4586159   -7.3604436    939.20762  0.015930654  0.013934303         1614 
 4914000    0.4773203   -7.3699119    937.70559   0.01590194  0.013929746         1511 
 4915000     0.463061    -7.351533    937.94173  0.015902708  0.013925189         1556 
 4916000   0.46032814   -7.3620775    939.32878  0.015922986  0.013920637         1552 
 4917000    0.4554013   -7.3472083     937.7976  0.015893797  0.013916082         1573 
 4918000   0.46231456   -7.3519832      939.605  0.015921191  0.013911534         1517 
 4919000   0.46126153   -7.3347555    937.51896  0.015882614  0.013906984         1572 
 4920000   0.47148796   -7.3671156    939.85907  0.015919022  0.013902438         1510 
 4921000   0.46557061    -7.345295    937.76028  0.015880246  0.013897892         1558 
 4922000    0.4726775   -7.3531081    940.32083  0.015920372  0.013893348         1537 
 4923000   0.46638424   -7.3637543    938.20572  0.015881334  0.013888806         1544 
 4924000   0.46906222   -7.3624082    936.80488  0.015854402  0.013884269         1551 
 4925000   0.44801121   -7.3454529    939.54803  0.015897598  0.013879735         1523 
 4926000   0.46936609   -7.3335651    940.50176  0.015910505  0.013875201         1495 
 4927000   0.47673369   -7.3529786    936.62346   0.01584168  0.013870671         1483 
 4928000   0.45897799   -7.3564888    937.63468  0.015855565   0.01386614         1552 
 4929000   0.46637512   -7.3486604     939.1094  0.015877281  0.013861609         1491 
 4930000   0.46354738   -7.3474259    938.15997  0.015858012  0.013857083         1558 
 4931000   0.46282361    -7.336765    938.77237  0.015865145  0.013852558         1496 
 4932000   0.47371875   -7.3618075    937.20976  0.015835526  0.013848032         1562 
 4933000   0.45898229   -7.3636035    937.67812  0.015840228  0.013843504         1617 
 4934000   0.46291708   -7.3675292    938.10218  0.015844179  0.013838983         1590 
 4935000   0.44884995   -7.3695897    937.21353  0.015825963  0.013834463         1547 
 4936000   0.46839934   -7.3497495    938.28724  0.015840884  0.013829941         1506 
 4937000   0.46628984   -7.3485805    938.42994  0.015840084  0.013825425         1488 
 4938000   0.46198513   -7.3354512    938.43473  0.015836957  0.013820913         1530 
 4939000   0.46853953   -7.3467189    937.96079  0.015825754  0.013816404         1419 
 4940000   0.47313503   -7.3625901    939.68007  0.015851553  0.013811899         1470 
 4941000   0.45684358   -7.3415146    938.22695  0.015823837  0.013807391         1501 
 4942000   0.47222171   -7.3452583     938.0676  0.015817948  0.013802886         1497 
 4943000   0.45905766    -7.352809    937.19412  0.015800022  0.013798385         1526 
 4944000   0.45648303   -7.3517596    938.45183  0.015818026  0.013793882         1596 
 4945000   0.45612012   -7.3582496    937.52991  0.015799291  0.013789382         1583 
 4946000   0.46504832   -7.3529724    938.15152   0.01580657  0.013784882         1541 
 4947000    0.4630593   -7.3651359    939.20072  0.015821048  0.013780384         1549 
 4948000   0.45353942   -7.3630994    937.81067   0.01579444  0.013775883         1523 
 4949000   0.45605391   -7.3533832    938.20236  0.015797844  0.013771389         1536 
 4950000   0.46717127   -7.3621904    938.37067  0.015797486  0.013766896         1505 
 4951000   0.46038605   -7.3641823    939.88904  0.015819852  0.013762403         1510 
 4952000   0.45905871   -7.3528895    937.80057  0.015781512  0.013757911         1499 
 4953000   0.45127304   -7.3677731    937.53271  0.015773819  0.013753421         1525 
 4954000   0.46410931   -7.3423828    938.68776  0.015790065  0.013748933         1616 
 4955000   0.46742534   -7.3621201    937.69774  0.015770228  0.013744449         1592 
 4956000   0.45333755   -7.3612654    937.16384  0.015758068  0.013739965         1564 
 4957000   0.46270114   -7.3739334    937.73957  0.015764568  0.013735482         1572 
 4958000   0.46377629    -7.353587    937.99136  0.015765621  0.013731003         1558 
 4959000   0.45163471   -7.3647946    938.89958  0.015777704  0.013726522         1545 
 4960000   0.45997131   -7.3614251     937.3189  0.015747965  0.013722043         1488 
 4961000   0.45162356   -7.3701087    937.31031  0.015744647  0.013717566         1576 
 4962000   0.45122231    -7.364449    937.96824  0.015752523  0.013713092         1497 
 4963000   0.45573964   -7.3563879    937.87717   0.01574782  0.013708624         1511 
 4964000   0.44489726   -7.3638091    937.15698  0.015732557  0.013704157         1606 
 4965000   0.45447789   -7.3557506     938.9104  0.015758818  0.013699686         1594 
 4966000   0.46410511   -7.3537605    938.06665  0.015741486  0.013695226         1593 
 4967000   0.45054931   -7.3708698    938.01369  0.015737429  0.013690761         1623 
 4968000    0.4453457   -7.3746403    935.77113  0.015696644  0.013686297         1547 
 4969000   0.45906286   -7.3789301    938.74208   0.01574331   0.01368183         1575 
 4970000   0.45752169   -7.3659461    938.03158  0.015728229  0.013677371         1618 
 4971000   0.45200428   -7.3579162    937.18751  0.015710915  0.013672917         1588 
 4972000   0.47255715    -7.366231    937.56171  0.015714027  0.013668463         1569 
 4973000   0.44339355   -7.3703544    938.18839  0.015721369  0.013664011         1587 
 4974000   0.45527711   -7.3531381    937.62501  0.015708769  0.013659561         1610 
 4975000    0.4557801   -7.3676657    937.72115  0.015707222  0.013655113         1601 
 4976000    0.4590393   -7.3771929    937.57502  0.015701618  0.013650667         1636 
 4977000   0.46033255   -7.3699351    937.06795  0.015689973  0.013646214         1586 
 4978000   0.45235873   -7.3533578    937.82417  0.015699481  0.013641768         1567 
 4979000   0.45928095   -7.3741331    935.13451  0.015651311  0.013637323         1616 
 4980000    0.4530014   -7.3555082    938.85091  0.015710357  0.013632883         1596 
 4981000   0.45661032   -7.3623682    937.63283  0.015686824  0.013628445         1591 
 4982000   0.45178497   -7.3433829      936.193  0.015659591  0.013624009         1543 
 4983000   0.45614599   -7.3747853    938.55852  0.015696008  0.013619571         1592 
 4984000   0.45696138   -7.3611831    936.48002  0.015658106  0.013615136         1578 
 4985000    0.4550278    -7.371555     938.1674  0.015683173  0.013610703         1619 
 4986000   0.45812367   -7.3743594    938.30161  0.015682271  0.013606271         1607 
 4987000   0.45224213   -7.3614142    936.61605   0.01565096  0.013601839         1569 
 4988000    0.4598245   -7.3738719    936.51467  0.015646129  0.013597408         1621 
 4989000   0.45898739    -7.365437    939.19849  0.015687821  0.013592983         1525 
 4990000   0.44968276   -7.3732276      935.474  0.015622478  0.013588556         1591 
 4991000   0.44688386   -7.3714822    936.61315  0.015638368  0.013584129         1661 
 4992000   0.44371301   -7.3669447    938.63771  0.015669032  0.013579707         1588 
 4993000   0.44729489    -7.378611    937.26677  0.015643013  0.013575286         1621 
 4994000   0.45176124   -7.3665603    938.55184  0.015661324  0.013570864         1571 
 4995000   0.45281586   -7.3860223    936.16734  0.015618407   0.01356645         1641 
 4996000    0.4542234   -7.3776682    939.09699  0.015664148  0.013562036         1606 
 4997000   0.45861519   -7.3484322     937.8389  0.015640032  0.013557626         1524 
 4998000   0.46040591   -7.3911313    937.76888  0.015635736  0.013553215         1520 
 4999000   0.44300196    -7.363679    936.85919  0.015617443  0.013548805         1602 
 5000000   0.44795245   -7.3816419    936.24984  0.015604164  0.013544396         1634 
 5001000   0.45679528   -7.3659806    935.01869  0.015580529  0.013539985         1604 
 5002000   0.44271606   -7.3756341    936.47011  0.015601595   0.01353558         1575 
 5003000   0.45538318   -7.3693462    936.04975  0.015591474  0.013531182         1656 
 5004000   0.44649886   -7.3661117    937.75141  0.015616697  0.013526779         1585 
 5005000   0.45635048   -7.3857966    935.77534  0.015580675   0.01352238         1611 
 5006000   0.46134081   -7.3902918    937.60557   0.01560803  0.013517981         1620 
 5007000   0.44982679   -7.3789714    936.40198  0.015584881  0.013513586         1535 
 5008000   0.44895542   -7.3752518    935.73831  0.015570725  0.013509191         1599 
 5009000   0.45358152   -7.3606622    937.53421  0.015597495  0.013504799         1582 
 5010000   0.45220692   -7.3801491    937.84493   0.01559955  0.013500408         1581 
 5011000   0.44604015   -7.3755335    937.65219  0.015593231  0.013496027         1576 
 5012000   0.45165079   -7.3770544    937.15722   0.01558189  0.013491639         1583 
Loop time of 13170.4 on 48 procs for 5000000 steps with 4000 atoms

Performance: 65601.482 tau/day, 379.638 timesteps/s
99.4% CPU use with 48 MPI tasks x no OpenMP threads

MPI task timing breakdown:
Section |  min time  |  avg time  |  max time  |%varavg| %total
---------------------------------------------------------------
Pair    | 955.42     | 1037.9     | 1117.3     | 127.3 |  7.88
Neigh   | 90.677     | 93.898     | 98.114     |  17.4 |  0.71
Comm    | 849.5      | 918.81     | 1002.4     | 130.7 |  6.98
Output  | 16.101     | 16.105     | 16.203     |   0.4 |  0.12
Modify  | 10916      | 10975      | 11016      |  26.0 | 83.33
Other   |            | 128.3      |            |       |  0.97

Nlocal:        83.3333 ave          90 max          76 min
Histogram: 1 0 11 4 4 9 7 7 2 3
Nghost:        2423.35 ave        2438 max        2410 min
Histogram: 4 4 6 6 2 10 6 4 3 3
Neighs:        16757.9 ave       19391 max       14603 min
Histogram: 5 6 8 4 3 9 1 5 3 4
FullNghs:      33516.3 ave       36686 max       30481 min
Histogram: 1 0 10 6 6 10 7 3 4 1

Total # of neighbors = 1608783
Ave neighs/atom = 402.19575
Neighbor list builds = 267541
Dangerous builds = 0

#clear
#
#next RN
#
#jump SELF
Total wall time: 3:39:33
