
units lj                  # Use reduced LJ style units
atom_style atomic         # Uncharged point particles
atom_modify map hash      # Needed for indexing of clusters etc
                          # Used to be able to find where atoms are in relation to each other.

lattice fcc 1.0 spacing 1 1 1
Lattice spacing in x,y,z = 1.5874011 1.5874011 1.5874011
region box block 0 10 0 10 0 10 units lattice
create_box 2 box
Created orthogonal box = (0.0000000 0.0000000 0.0000000) to (15.874011 15.874011 15.874011)
  3 by 4 by 4 MPI processor grid
create_atoms 1 box
Created 4000 atoms
  using lattice units in orthogonal box = (0.0000000 0.0000000 0.0000000) to (15.874011 15.874011 15.874011)
  create_atoms CPU = 0.002 seconds
set type 1 type/fraction 2 0.21 78393
Setting atom values ...
  872 settings made for type/fraction
mass 1 1.0
mass 2 1.0
pair_style lj/cut  3.5
pair_modify tail  yes
pair_coeff 1  1  1.0  1.0   # Intearaction between 1 and 1 set with epsilon = 1 and sigma = 1
pair_coeff 1  2  1.5  0.8
pair_coeff 2  2  0.5  0.88

write_data data.0
System init for write_data ...
Neighbor list info ...
  update every 1 steps, delay 10 steps, check yes
  max neighbors/atom: 2000, page size: 100000
  master list distance cutoff = 3.8
  ghost atom cutoff = 3.8
  binsize = 1.9, bins = 9 9 9
  1 neighbor lists, perpetual/occasional/extra = 1 0 0
  (1) pair lj/cut, perpetual
      attributes: half, newton on
      pair build: half/bin/atomonly/newton
      stencil: half/bin/3d
      bin: standard
WARNING: Not all mixed pair coeffs generated from mixing. Use write_data with 'pair ij' option to store all pair coeffs. (../write_data.cpp:312)


#############################
#   M E L T   S Y S T E M   #
#############################

velocity all create 2.4 3143649 mom yes dist gaussian # Assign velocities
                                                    # Temperature 2.4, random number seed, zero linear momentum
                                                                                # Gaussian distribution

timestep 0.002   # simulation timestep
thermo 1000       # output thermodynamic data every 1000 steps bf 100

# Define a fix  in this case with index 1 applied to all
# particles in the simulation. This fix is for simulations
# in the anisotropic NPT ensemble. Note that we use the MTK
# correction.
fix 1 all npt temp 2.4 2.4 0.1 iso 5.68 5.68 0.5 mtk yes tchain 5 pchain 5 # Use NPT ensemble
                                                                         # Set temperature and pressure and damping
                                                                         # Numbers of thermostats in chain and in barostat
run 10000          # run for 10000 steps
Per MPI rank memory allocation (min/avg/max) = 3.642 | 3.644 | 3.648 Mbytes
Step Temp E_pair E_mol TotEng Press Volume 
       0          2.4   -6.9803555            0   -3.3812555   -3.6586826         4000 
    1000    2.3948368   -4.8589255            0   -1.2675683    5.7875505     4421.972 
    2000    2.3590701   -4.8821531            0   -1.3444326    5.2223237    4474.1665 
    3000    2.3945177   -4.8747009            0   -1.2838222     5.747235    4414.6535 
    4000    2.3945093   -4.8309286            0   -1.2400627    5.7827764    4438.2085 
    5000    2.4220664   -4.8711542            0   -1.2389629     5.491146    4452.3216 
    6000    2.4272443   -4.8825367            0   -1.2425804    5.8767353    4400.2745 
    7000    2.3920542   -4.8613505            0   -1.2741663    5.6028058     4450.075 
    8000    2.3955574   -4.8383954            0   -1.2459576     5.553776    4462.3075 
    9000    2.4032221   -4.8758627            0   -1.2719308    5.5370159    4444.4965 
   10000    2.4095378    -4.876612            0   -1.2632088    5.6914035    4430.5983 
Loop time of 2.47728 on 48 procs for 10000 steps with 4000 atoms

Performance: 697538.470 tau/day, 4036.681 timesteps/s
99.5% CPU use with 48 MPI tasks x no OpenMP threads

MPI task timing breakdown:
Section |  min time  |  avg time  |  max time  |%varavg| %total
---------------------------------------------------------------
Pair    | 0.97347    | 1.0387     | 1.1395     |   3.8 | 41.93
Neigh   | 0.19526    | 0.20529    | 0.21654    |   1.1 |  8.29
Comm    | 0.76814    | 0.88099    | 0.99235    |   6.0 | 35.56
Output  | 0.0002496  | 0.00025561 | 0.00033843 |   0.0 |  0.01
Modify  | 0.25859    | 0.33727    | 0.41361    |   7.7 | 13.61
Other   |            | 0.01473    |            |       |  0.59

Nlocal:        83.3333 ave          91 max          75 min
Histogram: 1 6 2 7 4 8 9 3 4 4
Nghost:        1536.33 ave        1565 max        1503 min
Histogram: 1 3 4 7 4 10 8 4 2 5
Neighs:        8610.79 ave        9571 max        7403 min
Histogram: 1 2 5 5 5 11 5 4 5 5

Total # of neighbors = 413318
Ave neighs/atom = 103.32950
Neighbor list builds = 908
Dangerous builds = 233

# Equilibrate just above the melting temperature to avoid step fn in T

fix 1 all npt temp 1.25 1.25 0.1 iso 5.68 5.68 0.5 mtk yes tchain 5 pchain 5
run 2000
Per MPI rank memory allocation (min/avg/max) = 3.643 | 3.645 | 3.649 Mbytes
Step Temp E_pair E_mol TotEng Press Volume 
   10000    2.4095378    -4.876612            0   -1.2632088    5.6914035    4430.5983 
   11000    1.2540953   -6.6029061            0   -4.7222333    5.6586413    3608.9426 
   12000      1.28202   -6.5997043            0   -4.6771551    5.6287172    3612.6444 
Loop time of 0.507491 on 48 procs for 2000 steps with 4000 atoms

Performance: 680997.910 tau/day, 3940.960 timesteps/s
99.6% CPU use with 48 MPI tasks x no OpenMP threads

MPI task timing breakdown:
Section |  min time  |  avg time  |  max time  |%varavg| %total
---------------------------------------------------------------
Pair    | 0.22371    | 0.24666    | 0.27272    |   2.0 | 48.60
Neigh   | 0.032843   | 0.034772   | 0.037559   |   0.5 |  6.85
Comm    | 0.14856    | 0.173      | 0.19461    |   2.4 | 34.09
Output  | 5.1164e-05 | 5.2904e-05 | 6.8356e-05 |   0.0 |  0.01
Modify  | 0.043653   | 0.048419   | 0.056859   |   1.5 |  9.54
Other   |            | 0.004585   |            |       |  0.90

Nlocal:        83.3333 ave          91 max          74 min
Histogram: 1 4 4 4 7 8 3 9 6 2
Nghost:        1758.98 ave        1791 max        1727 min
Histogram: 4 4 3 2 8 8 10 5 2 2
Neighs:        10582.3 ave       12026 max        9540 min
Histogram: 5 1 9 9 7 7 5 2 2 1

Total # of neighbors = 507949
Ave neighs/atom = 126.98725
Neighbor list builds = 143
Dangerous builds = 10

#############################
# L I N E A R  Q U E N C H  #
#############################

# Define solid atoms. This closely follows ten Wolde  Ruiz-Montero and Frenkel  Faraday Discuss  1996  104  93-110
# Compute components of the per-atom q6 vector
compute q6 all orientorder/atom degrees 1 6 components 6 nnn NULL cutoff 1.3 # compute the Q6 parameter.
                                                                             # Use all neighbours within 1.3 unit cell.

# get number of connections
compute coord_number all coord/atom orientorder q6 0.5

# An atom is solid if it has 8 or more connections (of a possible 14)
variable is_solid atom c_coord_number>=8
group solid dynamic all var is_solid    # Must be dynamic to update
dynamic group solid defined

# do clustering
compute cluster solid cluster/atom 1.3 # Create a cluster where all atoms within are solid and max 1.3 units from another member

# define chunks one chunk per cluster
compute clus_chunks solid chunk/atom c_cluster nchunk every compress yes  # Says which atoms are in which chunk

# count the size of each chunk
compute size_chunks solid property/chunk clus_chunks count


# Find the maximum entry in the vector of chunk sizes
variable max_n equal max(c_size_chunks)


# Thermo style which includes this variable
# thermo_style custom step temp pe vol v_max_n

thermo ${N}  # Print the thermo information every 100 steps
thermo 1000  

# Reset the npt fix at a lower temperature (below freezing)
fix 1  all npt temp  ${temp} ${temp}  0.1  iso  5.68  5.68  0.5  mtk yes tchain  5  pchain  5
fix 1  all npt temp  0.45 ${temp}  0.1  iso  5.68  5.68  0.5  mtk yes tchain  5  pchain  5
fix 1  all npt temp  0.45 0.45  0.1  iso  5.68  5.68  0.5  mtk yes tchain  5  pchain  5

dump dmp2 all dcd ${N} traj.dcd
dump dmp2 all dcd 1000 traj.dcd


compute msd all msd com yes
variable twopoint equal c_msd[4]/6/(step*dt+1.0e-6)
fix 9 all vector 10 c_msd[4]
variable fit equal slope(f_9)/6/(10*dt)
thermo_style custom step temp pe c_msd[4] v_twopoint v_fit v_max_n

fix 1 all npt temp 1.25 ${temp} 0.1 iso 5.68 5.68 0.5 mtk yes tchain 5 pchain 5
fix 1 all npt temp 1.25 0.45 0.1 iso 5.68 5.68 0.5 mtk yes tchain 5 pchain 5
run 2000000 # 5000000  # Run for this many steps
Neighbor list info ...
  update every 1 steps, delay 10 steps, check yes
  max neighbors/atom: 2000, page size: 100000
  master list distance cutoff = 3.8
  ghost atom cutoff = 3.8
  binsize = 1.9, bins = 9 9 9
  4 neighbor lists, perpetual/occasional/extra = 1 3 0
  (1) pair lj/cut, perpetual
      attributes: half, newton on
      pair build: half/bin/atomonly/newton
      stencil: half/bin/3d
      bin: standard
  (2) compute orientorder/atom, occasional
      attributes: full, newton on
      pair build: full/bin/atomonly
      stencil: full/bin/3d
      bin: standard
  (3) compute coord/atom, occasional
      attributes: full, newton on
      pair build: full/bin/atomonly
      stencil: full/bin/3d
      bin: standard
  (4) compute cluster/atom, occasional
      attributes: full, newton on
      pair build: full/bin/atomonly
      stencil: full/bin/3d
      bin: standard
Per MPI rank memory allocation (min/avg/max) = 9.774 | 9.782 | 9.789 Mbytes
Step Temp PotEng c_msd[4] v_twopoint v_fit v_max_n 
   12000      1.28202   -6.5997043 1.0038255e-30 6.9710101e-33 8.3333333e+20            2 
   13000    1.2576693    -6.620109   0.51003014 0.0032694239  0.041687131            2 
   14000     1.249243   -6.5649129    1.0651017  0.006339891  0.044460826            4 
   15000    1.2219871   -6.5990088    1.5292738 0.0084959655  0.043124339            1 
   16000    1.2976399    -6.560972     1.985388  0.010340562  0.041598834            1 
   17000      1.26128   -6.6035762    2.4892084  0.012202002  0.041081397            3 
   18000    1.2194886   -6.5772513    3.0071506  0.013921993  0.040966896            3 
   19000    1.2521192   -6.6384361    3.5280999  0.015474122   0.04121177            3 
   20000    1.2501129   -6.5839534    4.1040889   0.01710037  0.041692804            2 
   21000    1.2617559   -6.6272549    4.6358526   0.01839624  0.042185472            3 
   22000    1.2282594    -6.602722    5.1191341  0.019390659  0.042406078            1 
   23000    1.2273284   -6.6254564    5.5007763  0.019930349  0.042337979            2 
   24000    1.2391943   -6.5723502    5.9703672  0.020730441  0.041989982            2 
   25000    1.2321812   -6.6138564    6.4791356  0.021597118  0.041720175            2 
   26000    1.2579264   -6.5849615    6.9823264  0.022379251  0.041582815            1 
   27000    1.2432011   -6.6227257    7.4508712  0.022996516  0.041483881            2 
   28000    1.2343329   -6.5895466    7.9201196  0.023571784  0.041339496            2 
   29000      1.24283   -6.6343269    8.3034639  0.023860528  0.041127769            2 
   30000    1.2542531   -6.6288374    8.7254725  0.024237423  0.040825757            6 
   31000    1.2489132   -6.6190542    9.2519194  0.024870751  0.040591894            1 
   32000    1.2408524   -6.6329884    9.7091865  0.025284339  0.040470651            1 
   33000    1.2693717   -6.6374513     10.16333  0.025664974  0.040327928            2 
   34000    1.2295029    -6.637971    10.725166   0.02628717  0.040263398            1 
   35000    1.2561512   -6.5788283    11.244469  0.026772545  0.040255321            6 
   36000    1.2543419   -6.6404647     11.74851  0.027195624  0.040257075            1 
   37000    1.2332104   -6.6304475    12.237018   0.02756085  0.040265534            2 
   38000     1.222057    -6.611398    12.705834  0.027863671  0.040304431            3 
   39000    1.2610314   -6.6614525    13.313282  0.028447184  0.040347852            1 
   40000    1.2196813   -6.6430627     13.94382  0.029049625  0.040467555            1 
   41000     1.257265   -6.5887668     14.48668  0.029444471   0.04062186            4 
   42000    1.2515062   -6.6024381    15.032577  0.029826541  0.040785152            1 
   43000    1.2657088   -6.6406331    15.448615  0.029939176  0.040910524            1 
   44000    1.2434649    -6.597668    16.043589  0.030385586  0.041030163            1 
   45000    1.2252831   -6.6072575    16.503843  0.030562671  0.041130712            1 
   46000    1.2365131   -6.5928395    17.099092  0.030976615  0.041218094            1 
   47000    1.2267757   -6.6226933    17.610864  0.031224936  0.041330111            2 
   48000    1.2233671   -6.6408643    18.095375  0.031415581  0.041421865            1 
   49000    1.2547093    -6.631544    18.634948  0.031692087  0.041516935            3 
   50000    1.2623569   -6.5900891    19.145027  0.031908379  0.041595317            2 
   51000     1.256243   -6.6034539    19.775397   0.03231274  0.041682622            1 
   52000    1.2284001   -6.6550803    20.199987  0.032371774   0.04177122            3 
   53000    1.2625925   -6.6370391    20.609931  0.032405551  0.041824469            2 
   54000    1.2101979   -6.6217623    21.259533  0.032807921  0.041873317            2 
   55000     1.223481    -6.625098     21.67455  0.032840226  0.041927766            1 
   56000    1.2249142   -6.5686712    22.342747  0.033248135  0.041974884            1 
   57000     1.227706   -6.6022146    22.649273  0.033112972   0.04199997            1 
   58000    1.2240573   -6.6300673    23.143275  0.033251832  0.042016814            1 
   59000    1.2145741   -6.6627539    23.715623  0.033496643  0.042039558            2 
   60000    1.2191011   -6.6381496    24.215243  0.033632282  0.042052764            2 
   61000    1.2327183   -6.6216574    24.797023  0.033875714  0.042083345            1 
   62000    1.2392171   -6.6501476     25.49059  0.034261545     0.042124            2 
   63000    1.2223305   -6.6312082    25.974082  0.034357251  0.042173012            2 
   64000    1.2292526   -6.6183131    26.587804  0.034619537  0.042228644            2 
   65000    1.2447914   -6.6406689    27.314298  0.035018331  0.042310164            1 
   66000    1.2350095   -6.6188451    27.864596   0.03518257  0.042416114            3 
   67000     1.239494    -6.630905    28.473387   0.03541466  0.042517639            1 
   68000    1.2239351   -6.6616285    29.003922  0.035544021  0.042612808            1 
   69000    1.2292382    -6.618053    29.530385  0.035664716  0.042696935            1 
   70000    1.2223232   -6.6325152    29.915946  0.035614221  0.042767163            2 
   71000    1.2224491   -6.6748839    30.000733  0.035212128  0.042795125            2 
   72000    1.2103724   -6.6157017    30.588912  0.035403834  0.042803889            2 
   73000    1.2516372   -6.6473903    31.065125  0.035462471  0.042817162            3 
   74000    1.2012242   -6.6422923    31.741249   0.03574465  0.042839353            1 
   75000    1.2246439   -6.6309569    32.268429   0.03585381  0.042865836            5 
   76000    1.2377426   -6.6370417    32.833543  0.036001692  0.042889938            2 
   77000    1.2066072   -6.6088921     33.35153  0.036094729  0.042907537            2 
   78000    1.2185097   -6.6535885    33.738793  0.036045718  0.042910077            2 
   79000    1.2387196   -6.6132784    34.328452  0.036211447  0.042919499            2 
   80000    1.2294061   -6.6425609    34.698508  0.036144279  0.042925169            2 
   81000    1.2064139   -6.6458432    35.276474  0.036292669  0.042914037            2 
   82000    1.2358701    -6.669958     35.54932  0.036127357  0.042900697            2 
   83000    1.2353443   -6.6471276    35.851611  0.035995593  0.042864133            2 
   84000    1.2492633   -6.6227371    36.273768   0.03598588  0.042824574            1 
   85000    1.2737385   -6.6620288    36.688675  0.035969289  0.042780198            3 
   86000    1.2133738   -6.6832144    37.037347  0.035888902  0.042720768            1 
   87000    1.2172279   -6.6571802    37.227733  0.035658748  0.042647543            1 
   88000     1.219418   -6.6764601    37.645046  0.035648717  0.042568208            1 
   89000    1.2182131    -6.636985    38.004753  0.035584974   0.04248388            2 
   90000    1.2236258   -6.6823522    38.410458  0.035565239  0.042397465            2 
   91000    1.2085568   -6.6691925    38.867286  0.035592752  0.042305425            2 
   92000    1.2047835   -6.6502715    39.725895  0.035983601  0.042226933            1 
   93000    1.2207413    -6.656623    40.133599  0.035962006  0.042164571            2 
   94000     1.227564   -6.6627444    40.465781  0.035873919  0.042105819            1 
   95000    1.2246359   -6.6525748    40.823127   0.03580976  0.042035783            2 
   96000    1.2227556   -6.6404912      41.3056  0.035855556  0.041963888            1 
   97000    1.2174675   -6.6603231    41.708836  0.035832333  0.041894228            2 
   98000    1.1950428   -6.6645954    42.361622  0.036021787  0.041828586            1 
   99000    1.2226911   -6.6200422     43.10499  0.036283661  0.041777252            3 
  100000    1.2245712   -6.6880759    43.384524   0.03615377  0.041733234            4 
  101000    1.2208402   -6.6824506    43.829681  0.036163103  0.041684359            1 
  102000     1.235486   -6.6458496    44.091736   0.03602266  0.041629939            1 
  103000    1.2181882   -6.6755222    44.650205  0.036124761  0.041577394            2 
  104000    1.1873071   -6.6601432     45.03383  0.036084799  0.041523423            2 
  105000     1.195671   -6.6769144    45.673392  0.036248724  0.041477057            4 
  106000    1.2087226   -6.6422944    46.055116  0.036206852  0.041433657            1 
  107000    1.2040834    -6.695934    46.797496  0.036446648  0.041396279            1 
  108000    1.1870641   -6.6766446    47.169738  0.036396402   0.04135679            2 
  109000    1.2179209   -6.6602798    47.429496  0.036261082  0.041310923            4 
  110000    1.2134915   -6.6587552    48.153775  0.036480133  0.041269038            1 
  111000    1.2162173   -6.7414144    48.364661  0.036309806  0.041231514            1 
  112000    1.2228764   -6.6523143    49.212124  0.036616164  0.041199981            3 
  113000    1.2112549   -6.6444044     49.72288   0.03666879  0.041175324            2 
  114000    1.2102877   -6.6817457    50.033031  0.036573853    0.0411505            5 
  115000    1.2100942   -6.6797761     50.60872  0.036672985  0.041128572            2 
  116000    1.1926561    -6.664838    51.148806  0.036744832  0.041099382            1 
  117000    1.1703695   -6.6714395    51.682651  0.036811005    0.0410789            1 
  118000    1.2307397   -6.6813801    52.060853  0.036766139  0.041060363            3 
  119000    1.2005179   -6.7037439    52.731704  0.036926964  0.041045482            4 
  120000    1.2217859   -6.6633038    52.710848  0.036604755  0.041021344            4 
  121000    1.2073736   -6.6405496    53.625569   0.03693221  0.040995631            3 
  122000    1.2014866   -6.6865066    54.130351  0.036974283  0.040980551            4 
  123000    1.1849635   -6.7036938    54.534421   0.03694744   0.04096925            3 
  124000    1.2154594   -6.7032559    54.826975  0.036846086  0.040954941            3 
  125000    1.2053313   -6.6936452    55.454984  0.036969989  0.040933546            3 
  126000    1.2002195   -6.7022523    56.046205  0.037067596   0.04091792            4 
  127000    1.2062523   -6.6976911    56.365668  0.036985347  0.040907404            1 
  128000    1.2008006   -6.6777661    56.850587    0.0370121  0.040893612            1 
  129000    1.2367877    -6.689444     57.46136  0.037119741  0.040880175            3 
  130000    1.2081399   -6.6818895    57.823209   0.03706616  0.040867696            3 
  131000    1.2333742   -6.7237857    58.357562  0.037123131   0.04085375            2 
  132000    1.2010159   -6.7004342    58.950867  0.037216456  0.040840877            2 
  133000    1.1928274   -6.6899629    59.246224  0.037121694  0.040828867            4 
  134000    1.2014623   -6.6658506    59.659025  0.037101384  0.040809754            3 
  135000    1.1953224   -6.6869435    59.774051  0.036897562  0.040784872            2 
  136000    1.1949958   -6.6755558    60.496614  0.037069004  0.040758673            3 
  137000    1.2006852   -6.6608364    60.887513    0.0370362  0.040735822            3 
  138000    1.1876111   -6.7140489     61.33597  0.037038629  0.040712388            1 
  139000    1.1904545   -6.6938562     61.64249  0.036955929  0.040688812            2 
  140000    1.2056109   -6.7378148     62.23308    0.0370435  0.040665008            1 
  141000    1.2110234    -6.663223    62.759647   0.03709199  0.040640845            1 
  142000    1.2199648   -6.6995808    63.175653  0.037074914  0.040619422            2 
  143000    1.1829396   -6.6841813    63.668398  0.037102796  0.040597329            1 
  144000    1.1862101    -6.724178    64.116444  0.037104424   0.04057655            2 
  145000    1.1992919   -6.6623063    64.816018  0.037250585  0.040559453            2 
  146000     1.203995    -6.743023    65.169024  0.037196932  0.040545525            2 
  147000    1.1949645   -6.6969971    65.728132  0.037260846  0.040533922            1 
  148000    1.1932138   -6.6828235    66.314284  0.037339124  0.040523482            3 
  149000    1.1905801   -6.7100725    66.566671  0.037229682  0.040513897            3 
  150000    1.1935367    -6.718179     67.60147  0.037556372  0.040507131            1 
  151000    1.2043976   -6.7016986    67.920934  0.037483959  0.040501003            1 
  152000    1.1812263   -6.6925388    68.130259  0.037352116  0.040491575            1 
  153000    1.2239968   -6.7218512    68.433089  0.037272924  0.040476132            1 
  154000     1.204109   -6.7220863    69.033046  0.037355544  0.040459372            1 
  155000    1.2092723   -6.7271829    69.352392  0.037286232  0.040441081            7 
  156000    1.1933384     -6.67788    69.740129  0.037254342  0.040423199            1 
  157000    1.2052434    -6.692057    70.102168  0.037209219   0.04040263            2 
  158000    1.1904265    -6.729911    70.376033  0.037118161   0.04038025            6 
  159000    1.2153571   -6.6599608    71.082182  0.037254812  0.040357822            2 
  160000     1.212884   -6.7358575     70.95805  0.036957318  0.040332113            1 
  161000    1.2086158   -6.6930613    71.297005  0.036903212  0.040304512            2 
  162000    1.2019949   -6.6782342    72.238075  0.037159503  0.040280422            3 
  163000    1.1798265   -6.6895912    72.592596  0.037112779   0.04025583            1 
  164000    1.1912871   -6.6871145    72.913672   0.03704963  0.040230317            1 
  165000    1.2005423   -6.6942878    73.364197  0.037052625  0.040205109            2 
  166000     1.164838   -6.6894176    73.926997  0.037111946   0.04017884            3 
  167000    1.1447554   -6.6920002    74.252526  0.037052159  0.040153138            1 
  168000     1.171141   -6.6990076    74.945294  0.037175245  0.040129707            2 
  169000    1.1767046   -6.7065247    75.457189  0.037207687  0.040107873            2 
  170000    1.2028643   -6.7121561    75.781314  0.037147703  0.040086814            1 
  171000    1.1761762   -6.6871214     76.54631   0.03730327  0.040064242            1 
  172000    1.1927902   -6.7020895    76.676055  0.037149251  0.040042262            2 
  173000    1.1752093   -6.6850091    77.049045  0.037114183   0.04001996            1 
  174000    1.1895956   -6.7581112    77.706513  0.037215763  0.039998458            2 
  175000    1.2020254   -6.7677862    78.108215  0.037194388    0.0399807            2 
  176000       1.1847   -6.7601736    78.490905  0.037164254  0.039963859            1 
  177000    1.1979713   -6.6905172    78.876883  0.037136009   0.03994475            1 
  178000    1.1757226   -6.7090319    79.865403   0.03739017  0.039928773            2 
  179000    1.1804922   -6.7148561    80.200974  0.037337511  0.039912558            3 
  180000     1.192292   -6.7572067    80.476339  0.037257564  0.039895452            1 
  181000     1.196056   -6.7794346    80.678264  0.037144689  0.039875815            4 
  182000    1.2035111   -6.7432467    80.923787  0.037053016  0.039855797            4 
  183000    1.1596255   -6.7171621     81.51766  0.037120975  0.039835343            2 
  184000    1.1921054   -6.7605768    81.950151  0.037115104   0.03981574            1 
  185000      1.17194   -6.7225374    82.682704  0.037244461  0.039798088            2 
  186000    1.1907826   -6.7234525    83.083297  0.037223699  0.039781446            1 
  187000    1.1751696   -6.7372459    83.075393   0.03702112   0.03976141            1 
  188000     1.176913   -6.7283095    83.674738  0.037089866  0.039741357            2 
  189000    1.1716679   -6.7354492    83.789482  0.036944216  0.039716956            2 
  190000    1.1890351   -6.7494202    84.044191  0.036861487  0.039690859            2 
  191000    1.1843312   -6.7863319    84.334005  0.036794941  0.039661277            2 
  192000     1.149766   -6.7364572    84.723861  0.036772509  0.039631228            3 
  193000    1.1887702   -6.7277172    85.291946  0.036827265  0.039599258            3 
  194000    1.1844437    -6.739791      85.2192  0.036606186  0.039566029            2 
  195000    1.1785568   -6.7423246    85.858641  0.036691727  0.039534269            2 
  196000    1.1838378   -6.7126013    86.375938  0.036724463  0.039500863            2 
  197000    1.1678561   -6.7384646    86.961633  0.036785801  0.039468465            1 
  198000     1.179816    -6.716293    86.829628  0.036544456  0.039437887            1 
  199000    1.1931188   -6.7166403    87.872604  0.036797573  0.039406523            2 
  200000    1.1699828   -6.7740967    87.752826  0.036563677  0.039375783            2 
  201000    1.1547679    -6.717479    88.616028  0.036739647  0.039345499            2 
  202000    1.1709368   -6.7028475    89.307972  0.036843223  0.039318942            2 
  203000    1.1640812    -6.726111     89.84036  0.036880279   0.03929572            2 
  204000    1.1766931   -6.7644858    90.389423  0.036923784  0.039272847            2 
  205000     1.172149   -6.7354287    90.774429  0.036900174  0.039251638            2 
  206000    1.1361712   -6.7536383    91.192928  0.036890343  0.039231343            2 
  207000    1.1649042   -6.7218224    91.969285  0.037024672  0.039211389            1 
  208000    1.1773098   -6.7795552    92.040028  0.036875011  0.039189341            2 
  209000    1.1775971   -6.7584272    92.758753  0.036985149  0.039169651            2 
  210000    1.1719273   -6.7199917    92.860399  0.036849365  0.039148561            2 
  211000    1.1653759     -6.74561      93.5161  0.036933689  0.039129436            2 
  212000    1.1599181   -6.7385711    93.948652  0.036929501  0.039111034            2 
  213000    1.1685873   -6.7614778    94.451214  0.036952744  0.039093522            2 
  214000    1.1649567   -6.7490134    94.848231  0.036934669  0.039077394            7 
  215000    1.1421968   -6.7444577     95.53602  0.037029465  0.039062252            4 
  216000    1.1444329   -6.7207674    96.202152  0.037115028   0.03904903            1 
  217000    1.1899317   -6.7336135    96.179388  0.036935249   0.03903474            2 
  218000    1.1706422   -6.7789779    96.352385  0.036831951  0.039016893            1 
  219000     1.160985   -6.7673726    96.644712  0.036775005  0.038996729           10 
  220000    1.1626841   -6.7589703    97.002817  0.036743491  0.038976008            1 
  221000    1.1530463   -6.7462288    97.496722   0.03676347  0.038956196            2 
  222000    1.1477589   -6.7556247    97.990482  0.036783214  0.038935774            2 
  223000    1.1581133   -6.7710437    98.105761  0.036661346  0.038914811            2 
  224000    1.1853724    -6.757037    99.148651  0.036885659  0.038894599            1 
  225000    1.1731131   -6.7299399     99.50554  0.036853904  0.038876019            3 
  226000    1.1908558   -6.7791601    99.250355  0.036596738  0.038857533            2 
  227000    1.1662911    -6.755104    99.830464  0.036648481  0.038836305            1 
  228000    1.1665833    -6.778813    100.43571  0.036708957   0.03881251            2 
  229000     1.172825   -6.8003225    100.36743  0.036523811  0.038788464            2 
  230000    1.1649695   -6.7454049    100.68197  0.036478974  0.038764956            3 
  231000     1.142802   -6.7522616     101.1519  0.036490586  0.038738534            4 
  232000    1.1656984   -6.7432491    101.77333  0.036556511  0.038711635            2 
  233000     1.167126   -6.7450768    102.21477  0.036557501  0.038686422            2 
  234000    1.1572559   -6.7662894     102.4029  0.036468271  0.038661178            1 
  235000    1.1539473   -6.7866166    102.65362  0.036401993  0.038634399            1 
  236000    1.1822391   -6.7884085    103.12259  0.036413344  0.038607125            1 
  237000     1.176183    -6.759342    103.66302  0.036449725  0.038581994            3 
  238000    1.1680961   -6.7863366    104.00783  0.036417307  0.038558169            1 
  239000    1.1593539   -6.8148082     104.5977  0.036470607  0.038533143            3 
  240000    1.1514058   -6.7655158    104.70315  0.036355261  0.038507814            2 
  241000     1.152914   -6.7779187    105.33582  0.036423176  0.038483185            2 
  242000     1.147704    -6.784464    105.73908  0.036411527  0.038460824            2 
  243000    1.1625407   -6.8096332    105.97087  0.036341176  0.038436082            1 
  244000    1.1435969   -6.7935433    106.80524    0.0364772  0.038413303            2 
  245000    1.1382545   -6.8109438    107.41612  0.036536095  0.038391543            5 
  246000    1.1828477   -6.7937521    107.56152   0.03643683  0.038371954            4 
  247000    1.2131582   -6.7551365    108.74341  0.036688059  0.038351978            1 
  248000    1.1378112   -6.7756019    108.99057  0.036623175  0.038335941            2 
  249000    1.1686921   -6.7588564     108.9434  0.036460307  0.038318936            1 
  250000    1.1436034   -6.7766332    109.36244  0.036454146  0.038300908            2 
  251000    1.1506549   -6.7628483    109.74559  0.036436119  0.038281206            2 
  252000    1.1413111   -6.7802398    110.58094  0.036567771   0.03826302            1 
  253000    1.1671934   -6.8138901    111.01775  0.036567112  0.038245711            5 
  254000    1.1489953   -6.7536485    111.35681  0.036534385  0.038228697            4 
  255000    1.1447112   -6.7788118    111.79198  0.036533327  0.038210789            4 
  256000    1.1354434   -6.7798939    111.58316  0.036322644  0.038192312            2 
  257000    1.1555936   -6.7485731    112.55378  0.036496038  0.038174212            2 
  258000    1.1748785   -6.7814977    112.72133  0.036408698  0.038155519            6 
  259000    1.1580515   -6.7600384    113.50005  0.036518677  0.038137102            2 
  260000    1.1410534   -6.7942606    113.64494  0.036424659  0.038117944            2 
  261000    1.1520095   -6.8082802     113.4371  0.036218741  0.038099199            3 
  262000    1.1361023   -6.8262266    114.04162  0.036272779   0.03807842            2 
  263000     1.181058   -6.7437855    114.64986  0.036327585  0.038056368            2 
  264000    1.1472013   -6.7994818    114.30466  0.036081016  0.038032672            2 
  265000    1.1712249   -6.7829167    114.71152  0.036072806  0.038008418            2 
  266000    1.1780449   -6.8223479    115.18355  0.036085073  0.037984589            2 
  267000    1.1207867   -6.7917113    115.64102  0.036092702   0.03796133            2 
  268000    1.1509653   -6.7833956    116.07312  0.036092387  0.037940067            3 
  269000    1.1817239   -6.7904128     116.6766  0.036145166  0.037918098            2 
  270000    1.1444557   -6.8128168    116.72668  0.036026753  0.037894198            2 
  271000    1.1688294   -6.8117635    117.04306    0.0359911  0.037872247            2 
  272000    1.1701252   -6.8082085    117.94459  0.036134983  0.037849988            2 
  273000    1.1371791    -6.804519    118.22794  0.036089114  0.037827264            1 
  274000    1.1306514   -6.7874671    118.74002  0.036113146  0.037804193            3 
  275000    1.1368101   -6.8277702    119.05161  0.036076245  0.037781908            2 
  276000    1.1368059   -6.7811191    119.77779  0.036164792  0.037759977            4 
  277000    1.1696186   -6.7883686    119.73468  0.036021265  0.037737725            2 
  278000    1.1438464   -6.7746004    120.25809  0.036048588  0.037714729            1 
  279000    1.1454711   -6.8015422    120.65377  0.036037567  0.037694406            2 
  280000    1.1427414   -6.7958025    120.74688  0.035936572  0.037674303            2 
  281000    1.1510791   -6.7943451    121.77048  0.036112241  0.037655248            2 
  282000    1.1553014   -6.7908355    121.85911  0.036010374  0.037635278            2 
  283000    1.1274231   -6.7780481    121.79951  0.035865581  0.037614826            2 
  284000     1.130018   -6.7819922    122.88177  0.036056858  0.037593318            3 
  285000    1.1195852   -6.8427243    123.11132  0.035997462  0.037572381            1 
  286000    1.1383924   -6.7995248    123.59877  0.036013628  0.037553029            3 
  287000    1.1464699   -6.7830195    123.98315  0.035999752  0.037533819            1 
  288000    1.1380673   -6.8205778     124.4802  0.036018577  0.037514997            3 
  289000    1.1071975   -6.8187329    125.11442  0.036076823  0.037496456            1 
  290000    1.1377819   -6.7930495    125.68174  0.036115443  0.037479436            5 
  291000    1.1392451   -6.8124177    125.73973  0.036007942  0.037463319            3 
  292000    1.1293062   -6.8073314    126.36782  0.036063877  0.037448803            3 
  293000    1.1357395   -6.7994045    127.13176  0.036158066  0.037434245            1 
  294000    1.1440567   -6.7900778    127.26551  0.036072991  0.037417483            2 
  295000    1.1446567   -6.8000795      127.817  0.036106497  0.037400975            2 
  296000    1.1317564   -6.8192662    128.23264   0.03610153  0.037384163            4 
  297000    1.1450822   -6.7749958    128.46679  0.036045676  0.037367321            3 
  298000    1.1443159   -6.8150569     128.9128  0.036049442  0.037349869            3 
  299000    1.1183758    -6.807241    128.96606  0.035943718  0.037332655            2 
  300000    1.1446116   -6.8568033    128.89381  0.035803837  0.037316149            3 
  301000    1.1167325   -6.8619495    129.74275  0.035919919  0.037298669            3 
  302000    1.1453293   -6.8314999    129.86175  0.035833816  0.037279495            1 
  303000    1.1222739   -6.8265364     129.7975  0.035697882  0.037260386            3 
  304000     1.165978   -6.8634993    130.52827  0.035780777  0.037240788            2 
  305000    1.1423042   -6.8089798    131.06801  0.035810931  0.037222022            1 
  306000    1.1410652   -6.8345966    131.33518  0.035766661  0.037202832            2 
  307000    1.1517207    -6.833168    131.50798  0.035697064  0.037182514            3 
  308000    1.1448606   -6.8281146    131.78242  0.035655417  0.037161969            3 
  309000    1.1073234    -6.849453    132.30371  0.035680612  0.037141474            2 
  310000    1.1579334   -6.8404962    132.48254  0.035613586  0.037119066            2 
  311000    1.1289031   -6.7992822    132.49033   0.03550116  0.037096864            1 
  312000    1.1242776   -6.8393984    132.71724  0.035447982  0.037074257            5 
  313000    1.1457487     -6.78284    133.21747  0.035467911   0.03705158            2 
  314000    1.1198734   -6.8221989    133.69157  0.035480777  0.037028983            2 
  315000    1.1224136   -6.8575252    134.37879  0.035549945  0.037007125            4 
  316000    1.1370431   -6.8523493    134.02931  0.035345282  0.036984496            1 
  317000    1.1228343    -6.842999    134.48285  0.035353011  0.036961978            2 
  318000    1.1036265   -6.7939481    135.47777  0.035502559  0.036940459            1 
  319000    1.1546911   -6.8500876    136.12882  0.035561342  0.036919962            4 
  320000    1.1230796   -6.8314627    136.43737  0.035530565  0.036900287            2 
  321000     1.167895   -6.8721172    136.26563  0.035375295  0.036879604            3 
  322000    1.1145058   -6.8307269    137.45113   0.03557224  0.036859676            2 
  323000    1.1222628   -6.7945119    138.01506  0.035607601  0.036841935            2 
  324000    1.1049224   -6.8480278    138.36705  0.035588234  0.036823339            3 
  325000    1.1333018   -6.8556288    138.06611  0.035401567  0.036804384            1 
  326000    1.1691296   -6.8492906    138.77253  0.035473551  0.036784912            2 
  327000    1.1057361   -6.8361486    139.40316  0.035525779    0.0367667            1 
  328000    1.1190143   -6.8341458    139.80183  0.035518757  0.036750071            1 
  329000    1.1200288   -6.8049587    140.60858  0.035615142  0.036733399            2 
  330000    1.1073434    -6.892445    139.99375  0.035351956  0.036716787            1 
  331000    1.1098176   -6.8124236    140.87627  0.035467339  0.036699397            2 
  332000    1.1392923   -6.8768175    141.40572  0.035493403  0.036682364            1 
  333000    1.1189116   -6.8097623    142.39593  0.035634616  0.036665577            3 
  334000    1.1234937   -6.8647232    142.23524  0.035487834  0.036649751            2 
  335000    1.1513478   -6.8156003    142.53907   0.03545748  0.036634218            1 
  336000    1.0886046   -6.8549148    143.01121  0.035469049  0.036617698            1 
  337000    1.1173427   -6.8686044     142.6463  0.035273565  0.036599878            1 
  338000    1.1391051   -6.8242848    143.55126  0.035392323  0.036580935            1 
  339000    1.1131877   -6.8110633     144.2418   0.03545767     0.036563            3 
  340000    1.1257349   -6.8368714    144.36376  0.035383275  0.036544785            1 
  341000    1.1413025   -6.8546898    144.11907  0.035219713  0.036524958            1 
  342000    1.1317589   -6.8640105    144.88298  0.035302871  0.036505543            4 
  343000    1.1426841    -6.837361    144.82105  0.035184901  0.036485958            1 
  344000    1.1152712   -6.8514552    145.56788  0.035263537  0.036467232            3 
  345000    1.1142206   -6.8535388    146.08615  0.035286509  0.036449472            2 
  346000    1.1272259   -6.8675618    146.64554  0.035319254  0.036431058            3 
  347000    1.1299963   -6.8757879    146.34819   0.03514606   0.03641195            1 
  348000    1.1087136   -6.8298148    146.60032  0.035105441   0.03639272            2 
  349000    1.1269362   -6.8546562    146.89949  0.035076287  0.036373181            1 
  350000    1.1144108   -6.8231507    147.50282  0.035119719  0.036353902            4 
  351000    1.1002376     -6.84508    147.66777  0.035058826  0.036333969            1 
  352000     1.105375   -6.8577406    148.22766  0.035091776  0.036313488            2 
  353000    1.1092566   -6.9044123    148.16746  0.034978153  0.036293112            1 
  354000    1.1172237   -6.8468165    149.35123  0.035158011  0.036272755            3 
  355000    1.1463346   -6.8920046    149.01183  0.034979302  0.036252745            2 
  356000    1.1431007    -6.872687    149.59985  0.035018692  0.036233415            3 
  357000    1.1059886   -6.8726702    150.08681  0.035034269  0.036214492            4 
  358000    1.1168594   -6.8898245    150.26111  0.034976982   0.03619604            1 
  359000    1.1139925   -6.8521712    151.32387  0.035126247  0.036177455            1 
  360000    1.0846136    -6.822933    152.15443  0.035220934  0.036159222            1 
  361000    1.1067077    -6.819542    152.29324  0.035155412  0.036141971            2 
  362000    1.0969821   -6.8894362    152.25884  0.035050377  0.036125241            1 
  363000    1.0928209   -6.8827088    152.43524  0.034994315  0.036107698            2 
  364000     1.108517   -6.8706384     153.4176  0.035123076  0.036089597            4 
  365000     1.107804   -6.8723338    152.67114  0.034856424  0.036071558            2 
  366000    1.1092267   -6.8530979    153.62227  0.034977749   0.03605262            2 
  367000    1.1115782   -6.8637654    153.63716  0.034885823  0.036034497            1 
  368000    1.1183455   -6.8966554    153.73185  0.034812466  0.036015103            2 
  369000    1.1107688   -6.8343792    154.62721  0.034920328  0.035996542            1 
  370000    1.1074749   -6.8570508    154.94312  0.034897099  0.035977349            2 
  371000    1.1100613   -6.8940775    155.19061  0.034858628  0.035957691            1 
  372000    1.1144707   -6.8492063    155.61491  0.034859972  0.035938709            4 
  373000    1.1078793   -6.8485079    156.58099  0.034982348  0.035920872            2 
  374000    1.0979846   -6.9405122    155.98797  0.034756677  0.035902617            2 
  375000     1.123733   -6.8809987     157.4826  0.034996134  0.035885882            2 
  376000    1.1088328    -6.914675    157.41887  0.034888934  0.035868235            2 
  377000    1.0839354   -6.8882933    157.25677   0.03476056   0.03585049            2 
  378000    1.1224582   -6.8675658    157.43274  0.034707395  0.035833175            4 
  379000    1.1127606   -6.8729976    158.48841  0.034847935  0.035814844            2 
  380000    1.0976506   -6.8948038    158.25965  0.034706064  0.035795756            2 
  381000    1.0794469   -6.8944152    158.60675   0.03469089  0.035777462            1 
  382000    1.1204769      -6.9047    159.07013  0.034701162  0.035759166            2 
  383000    1.0872267   -6.8840141    159.61866   0.03472991  0.035741127            1 
  384000    1.0961618   -6.8866638    159.62824  0.034641545  0.035723022            1 
  385000    1.1102316   -6.8939934     160.0589  0.034644783  0.035704734            1 
  386000    1.0928474   -6.8679703    160.93879  0.034744989  0.035685926            2 
  387000    1.0628423   -6.9008255    160.42943  0.034545527  0.035666131            2 
  388000    1.1243109    -6.889689    160.49384  0.034470326  0.035646636            2 
  389000    1.0884001      -6.9085    161.29494  0.034553329  0.035627219            1 
  390000    1.1109752   -6.9042476    161.76047  0.034564202  0.035606872            2 
  391000    1.0960726   -6.8956306    161.69355   0.03446154  0.035586944            3 
  392000    1.0967393    -6.900357    161.71543   0.03437828  0.035566092            2 
  393000    1.1265921   -6.8878835    161.69969  0.034287466   0.03554389            1 
  394000      1.09864   -6.9139385    162.59636  0.034390092  0.035522173            2 
  395000    1.0823892   -6.9199865    162.38811  0.034259095  0.035500623            1 
  396000    1.0941131   -6.9047666    162.70354   0.03423896  0.035478525            6 
  397000    1.0693659   -6.8703888    163.07154  0.034229963  0.035455825            3 
  398000    1.0971124   -6.9294695    162.67569  0.034061075  0.035433469            2 
  399000    1.1104604   -6.8714966    163.49371  0.034146556   0.03541089            1 
  400000    1.1075212    -6.908978    163.77615  0.034120032   0.03538788            3 
  401000    1.0937319   -6.9166275     164.2423  0.034131816  0.035365379            2 
  402000    1.0877107   -6.9075737    164.99729  0.034203418  0.035342928            2 
  403000    1.1005427   -6.9115876    164.72548   0.03406234  0.035320437            3 
  404000    1.0814799   -6.9125755    165.15605  0.034066841  0.035297979            3 
  405000    1.1026124    -6.896969    165.56743  0.034067373  0.035275774            2 
  406000    1.1129111   -6.9694023    165.30544  0.033929688  0.035253249            1 
  407000    1.0785193   -6.8841351    165.77728  0.033942931  0.035230659            2 
  408000     1.104672   -6.9410535    166.10686  0.033927054  0.035207915            1 
  409000     1.089512   -6.8850365    167.02184   0.03403053  0.035185411            3 
  410000    1.0649519   -6.9128967    166.79418  0.033901257  0.035162625            2 
  411000    1.0966967    -6.903463    167.26967  0.033915181  0.035139449            3 
  412000     1.109591   -6.9424647    167.38947  0.033857092  0.035116714            2 
  413000    1.0660428   -6.9176981    167.98987  0.033896261   0.03509312            1 
  414000    1.0801882   -6.9336243    168.18919  0.033854507  0.035070259            3 
  415000    1.1005541   -6.9106155    168.78156   0.03389188  0.035048652            2 
  416000    1.0646837   -6.9306869    169.26664  0.033907581  0.035026968            3 
  417000    1.1005016    -6.908429    169.90777   0.03395439  0.035004983            2 
  418000     1.070324   -6.9344811    169.37033  0.033766014  0.034982652            1 
  419000    1.0866038   -6.8999418     169.9289  0.033796519  0.034959526            3 
  420000    1.0768688   -6.9413767    170.06012  0.033742087  0.034936817            2 
  421000    1.0857734   -6.9089972    170.68056   0.03378475  0.034914423            2 
  422000    1.1011888   -6.8973608    171.11956  0.033791382  0.034892638            2 
  423000    1.0865583    -6.907945    171.08484  0.033704657   0.03487136            4 
  424000    1.1006803   -6.9188417    171.97662  0.033800437  0.034850031            3 
  425000     1.117839   -6.9129868     171.8733  0.033700646  0.034828729            2 
  426000    1.0822027   -6.9191885    172.06341  0.033658727  0.034806935            2 
  427000     1.062696   -6.9147168    172.63006  0.033690487  0.034784818            3 
  428000    1.0867958   -6.9279576    172.71103  0.033627536  0.034762902            2 
  429000    1.1030169    -6.901473    173.60041  0.033721914  0.034741768            1 
  430000    1.0909356   -6.9502915    173.99567  0.033720092  0.034721344            3 
  431000    1.0579012   -6.9153924    174.24555  0.033690168  0.034700559            2 
  432000    1.0818957   -6.9369527    174.50352  0.033661944  0.034679387            5 
  433000    1.0601148   -6.9124396    175.13366  0.033705478  0.034658149            2 
  434000    1.0854826   -6.9493485    174.72153  0.033548681    0.0346373            3 
  435000     1.067458   -6.9387686    175.57236  0.033634551  0.034617365            2 
  436000    1.0712861   -6.8972376    176.07964  0.033654365  0.034597567            2 
  437000    1.0904179   -6.9288057    176.62953  0.033682214  0.034577518            4 
  438000    1.0621921   -6.9399121    176.59106  0.033597995  0.034557811            2 
  439000    1.0900465   -6.9145779    177.25204  0.033646933  0.034538211            4 
  440000    1.0952655   -6.8891263    178.01823  0.033715573  0.034519182            5 
  441000    1.0810153   -6.9732028    177.56022  0.033552573  0.034499662            8 
  442000    1.0780133   -6.9336856    177.97072  0.033554057  0.034479633            1 
  443000    1.0707612   -6.9477253    178.39138  0.033557446  0.034459887            2 
  444000    1.0908175   -6.9401466    178.91626  0.033580379  0.034440669            1 
  445000    1.0894869   -6.9214665    179.40945  0.033597276  0.034421744            1 
  446000    1.0579832   -6.9335087    179.70903  0.033577921  0.034402628            1 
  447000    1.0875039   -6.9462305    179.37072  0.033439732  0.034383463            2 
  448000    1.0732339   -6.9091541    179.48176  0.033385744  0.034363713            1 
  449000     1.072229   -6.9385389    179.71898  0.033355415  0.034343623            3 
  450000     1.068298   -6.9301126    180.40197  0.033407772  0.034323371            2 
  451000      1.06704   -6.9573148    180.05997  0.033270504  0.034303015            5 
  452000    1.0631447   -6.9376835    180.68614  0.033312342   0.03428319            4 
  453000    1.0742681   -6.9300866    181.48431  0.033385635  0.034263383            3 
  454000     1.082821   -6.9314613    182.27398  0.033457045  0.034243668            3 
  455000    1.0785884   -6.9666563    182.03974  0.033340611  0.034224213            1 
  456000    1.0462043   -6.9625626    183.01103  0.033444998  0.034205128            4 
  457000    1.0588936   -6.9911942    182.45823  0.033271012  0.034186504            2 
  458000    1.0611033   -6.9160503     183.8655  0.033454422  0.034168329            1 
  459000    1.0818962   -6.9581441    184.06934  0.033418544  0.034150226            2 
  460000    1.0565908   -6.9519043    184.51559  0.033426737  0.034132369            2 
  461000    1.0758118   -6.9504522    184.67459   0.03338297  0.034114271            1 
  462000    1.0671772   -6.9396824     185.0505  0.033378518  0.034096057            3 
  463000    1.0562068   -6.9277566    185.12744  0.033320273  0.034077733            2 
  464000    1.0800436   -6.9664906     184.9171  0.033210687  0.034059307            1 
  465000    1.0644101   -6.9991026    184.79932  0.033118157  0.034040014            4 
  466000    1.0791072   -6.9753162    185.14902  0.033109625  0.034019915            2 
  467000    1.0764297   -6.9587652    185.70016  0.033137073  0.034000132            2 
  468000    1.0912409   -6.9431267    186.10007  0.033137477   0.03398041            4 
  469000    1.0767518    -6.965789     186.0597  0.033059648  0.033960225            2 
  470000    1.0889215   -6.9365252     186.0288  0.032983829  0.033940076            2 
  471000    1.0425419   -6.9451889    186.52803  0.033002129   0.03392042            3 
  472000    1.0795287   -6.9522306    186.05477  0.032848653  0.033900202            3 
  473000    1.0688026   -6.9426374    187.42608  0.033020804  0.033879133            2 
  474000    1.0527649   -6.9486295    187.90175  0.033034766  0.033858794            2 
  475000    1.0722293   -6.9867529    187.98248  0.032979383  0.033838091            2 
  476000    1.0411925   -6.9744271    188.17011  0.032942946  0.033818099            3 
  477000    1.0512331   -6.9922812    188.79363  0.032982814  0.033798532            3 
  478000    1.0690281   -6.9248409    189.16021  0.032977721  0.033779252            1 
  479000    1.0652694    -6.931506    189.54267  0.032975412   0.03375991            2 
  480000    1.0627655   -6.9778752    189.27367  0.032860012  0.033740021            1 
  481000    1.0702997   -6.9571694    190.11942  0.032938222  0.033720017            2 
  482000    1.0797604   -6.9842672    189.38909  0.032743618  0.033700253            1 
  483000     1.053939   -6.9984809    190.35075  0.032841744   0.03368062            3 
  484000    1.0513238   -6.9867778    190.75747  0.032843916  0.033661443            4 
  485000    1.0715696   -6.9686872    191.28153  0.032866243  0.033642462            1 
  486000    1.0586327   -6.9648616    191.54726  0.032844181  0.033624055            2 
  487000     1.050459   -6.9508129    191.88385  0.032834335   0.03360578            1 
  488000    1.0487754   -6.9958506    192.27163  0.032833269  0.033587573            2 
  489000    1.0725192   -6.9582423    192.44527  0.032795718  0.033568415            2 
  490000    1.0548487   -7.0136896    192.78401  0.032786397   0.03354893            1 
  491000    1.0558034   -6.9739173    193.06969  0.032768108  0.033529582            2 
  492000    1.0691938   -6.9372183    194.10481   0.03287683  0.033510301            1 
  493000    1.0659678   -7.0028515    194.45911  0.032870033  0.033491848            1 
  494000    1.0458991   -6.9882595    194.29934  0.032776542  0.033473556            3 
  495000    1.0541823   -7.0001017    194.36555  0.032721473  0.033455755            2 
  496000    1.0672764    -6.989292    195.44513  0.032836883  0.033437613            1 
  497000    1.0611093     -6.95311    195.80432  0.032831039  0.033420072            2 
  498000    1.0687219   -7.0329449    195.28467  0.032678157  0.033402521            2 
  499000    1.0566755   -6.9690096    195.94696  0.032723273  0.033384965            2 
  500000    1.0421154   -6.9496823     195.9761  0.032662683  0.033366009            2 
  501000    1.0401848   -6.9992144    195.80964    0.0325698  0.033346488            2 
  502000    1.0504035   -7.0197595     196.1933  0.032568609  0.033327331            4 
  503000    1.0358658   -6.9906764    196.87597   0.03261696  0.033308737            5 
  504000    1.0690192    -7.026181    197.13402  0.032594911  0.033290135            1 
  505000     1.038959   -6.9588846    196.85658  0.032484585  0.033271366            3 
  506000    1.0421211   -6.9978847    197.72778  0.032563863  0.033252988            2 
  507000    1.0649187   -6.9869229    197.95886  0.032537616  0.033234639            2 
  508000    1.0492391   -6.9786735    198.13316  0.032502159  0.033215949            4 
  509000    1.0566535    -7.025083    198.37121  0.032477277  0.033197459            2 
  510000     1.051126   -6.9858884    199.89716  0.032662934  0.033179065            2 
  511000    1.0647607   -6.9867255    199.78004  0.032579915   0.03316089            2 
  512000    1.0828751    -7.007544    199.35761  0.032447528  0.033142342            3 
  513000    1.0376347   -6.9868571    199.65071  0.032431889  0.033123351            3 
  514000    1.0626557   -6.9847708    200.51794  0.032509394  0.033105629            2 
  515000    1.0541427   -6.9901545    200.67566  0.032471789  0.033087865            4 
  516000    1.0506848   -7.0145201    200.42096  0.032367726  0.033069811            6 
  517000    1.0568389   -6.9745891    200.96482  0.032392782  0.033051649            3 
  518000    1.0349954   -7.0027243    201.61778  0.032435292  0.033033901            4 
  519000    1.0344129   -7.0107115    201.94229  0.032424902  0.033016004            1 
  520000    1.0302402   -6.9813592    202.36582   0.03243042  0.032998027            2 
  521000    1.0279886   -6.9882833    202.37785  0.032370098  0.032980039            1 
  522000    1.0578384   -6.9833678    202.95892  0.032400849  0.032962911            1 
  523000    1.0543038    -6.937452    204.83224  0.032637386  0.032946065            4 
  524000    1.0646795   -6.9986311    203.77272  0.032406602  0.032929121            4 
  525000    1.0392038     -7.00106    202.87218  0.032201934  0.032911292            4 
  526000    1.0368975   -6.9896172    203.58283    0.0322533  0.032893498            1 
  527000     1.042527   -7.0319256    203.81579  0.032228935  0.032875245            3 
  528000    1.0341361   -6.9998662    204.09951  0.032212675  0.032856674            2 
  529000    1.0214492   -6.9902296    204.65421  0.032239164  0.032837903            4 
  530000    1.0352058   -7.0050253    204.57385    0.0321657  0.032820056            2 
  531000     1.037196   -7.0233224    204.81385  0.032142788   0.03280131            2 
  532000    1.0374597   -6.9950875    204.72317  0.032068165  0.032782733            2 
  533000     1.022739   -6.9910796    205.11493   0.03206925  0.032763923            3 
  534000    1.0318181   -6.9934108    205.80527  0.032116927  0.032744945            2 
  535000    1.0518873   -6.9874412    205.85333  0.032064381  0.032726169            2 
  536000    1.0383092   -7.0353359     205.8035  0.031996813  0.032707302            3 
  537000    1.0261632   -7.0494049     206.0956  0.031982558  0.032687949            2 
  538000    1.0663552   -7.0498862    205.92749  0.031897071  0.032668784            3 
  539000    1.0387128   -6.9552995    207.37032  0.032060964  0.032649048            2 
  540000    1.0519882   -7.0036383    207.19983  0.031975282  0.032629629            4 
  541000    1.0422922   -7.0417154    206.30054  0.031777656      0.03261            2 
  542000    1.0342384   -7.0007521    207.53492  0.031908813  0.032589931            1 
  543000    1.0285291   -7.0311055    207.11697  0.031785906  0.032569851            2 
  544000    1.0521149   -7.0492122    207.86429  0.031841956  0.032550375            2 
  545000    1.0388601   -6.9961554    208.36846  0.031860621  0.032530941            2 
  546000    1.0484808   -6.9894458    208.51906  0.031825253  0.032511839            3 
  547000    1.0417558   -7.0230123     208.4765  0.031760589  0.032492095            3 
  548000    1.0326361    -6.995371    209.50486  0.031859012  0.032472289            1 
  549000    1.0514699   -7.0178791    209.32568  0.031773782  0.032452327            2 
  550000    1.0523458   -7.0209703    209.13205  0.031686675  0.032432286            2 
  551000    1.0569029   -6.9910402    209.77713  0.031726729  0.032412291            2 
  552000    1.0379184   -7.0034004    209.25541  0.031590491  0.032392197            2 
  553000    1.0279716   -7.0464751    208.92801  0.031484028  0.032371882            3 
  554000    1.0488805    -6.998446    210.08076  0.031600595  0.032351084            2 
  555000    1.0467102     -7.03699    210.56221  0.031615947  0.032330847            4 
  556000    1.0193001   -7.0386932    211.27548  0.031665989  0.032311091            1 
  557000    1.0497418   -7.0075333    210.93243  0.031557815  0.032291126            5 
  558000    1.0594878   -7.0322455    211.34279  0.031562543  0.032271395            4 
  559000    1.0133827   -7.0182132    211.26056  0.031493822  0.032251744            3 
  560000    1.0396116    -7.037466    211.67936  0.031499905  0.032231602            3 
  561000    1.0265169   -7.0250031    212.07952  0.031503197  0.032211589            4 
  562000    1.0315903   -7.0271738    211.76703  0.031400806  0.032191425            2 
  563000   0.99743765   -7.0546026    212.59784  0.031468004    0.0321711            5 
  564000    1.0097026   -7.0711687    211.98797    0.0313221  0.032150651            1 
  565000    1.0567619    -7.061633    212.75824  0.031380271  0.032130385            4 
  566000    1.0402948   -7.0395731    212.90261  0.031346085   0.03211059            3 
  567000    1.0313163   -7.0333356    212.73642  0.031266376  0.032090749            3 
  568000    1.0538224   -7.0250365     214.1772  0.031422711  0.032070941            2 
  569000    1.0236202   -7.0541727    213.73037  0.031302046  0.032051411            4 
  570000    1.0284567   -7.0483609    214.01548  0.031288812  0.032031543            1 
  571000    1.0172167   -6.9894742    215.26157  0.031415874  0.032012121            2 
  572000    1.0169206   -7.0254467    215.27203  0.031362475  0.031992832            2 
  573000    1.0334022   -7.0643144    215.49551  0.031340243   0.03197358            3 
  574000    1.0349516    -7.035303    215.87654  0.031340962  0.031954635            1 
  575000    1.0370088   -7.0333638    216.73075  0.031410254   0.03193617            2 
  576000    1.0085067   -7.0314751    216.68699  0.031349391  0.031917698            1 
  577000      1.03183   -7.0662958    216.17399   0.03122097  0.031898898            2 
  578000    1.0167758   -7.0339393    216.87025  0.031267337  0.031879443            3 
  579000    1.0246076   -7.0523207    217.52978  0.031308258  0.031860633            4 
  580000     1.017739   -7.0391857     217.1401   0.03119829  0.031841531            2 
  581000    1.0286719   -7.0818706    217.73052  0.031229277  0.031822584            2 
  582000     1.024386   -7.0618385    217.33642   0.03111919  0.031803101            3 
  583000    1.0293483   -7.0232149    218.13066  0.031179339  0.031783676            2 
  584000     1.020402   -7.0602635    217.68833  0.031062832   0.03176403            1 
  585000    1.0040039    -7.059181    218.32637  0.031100622   0.03174394            2 
  586000    1.0229944   -7.0744852    217.58738   0.03094246  0.031723708            2 
  587000    1.0223094   -7.0432716    218.16612  0.030971908  0.031703486            2 
  588000    1.0185506   -7.0973006    218.31001  0.030939627  0.031683558            4 
  589000    1.0364775   -7.0623405    219.15628   0.03100683  0.031663364            2 
  590000    1.0094228    -7.067528    218.54574  0.030868042  0.031642858            3 
  591000   0.98292056   -7.0346953    219.16995  0.030903828  0.031622677            3 
  592000    1.0060677   -7.0374966     218.7431  0.030791541  0.031602021            2 
  593000    1.0029809   -7.0706752    219.79469  0.030887393  0.031581867            2 
  594000    1.0306134   -7.0478953    219.93477  0.030855047  0.031561274            2 
  595000    1.0063507   -7.0535693    219.60431  0.030756906  0.031540473            1 
  596000   0.99461557   -7.0614608    220.90208  0.030886756  0.031520315            2 
  597000    1.0138642    -7.055171    221.47674  0.030915235  0.031500193            3 
  598000    1.0469418   -7.0612902    220.55482  0.030735065  0.031479404            2 
  599000    1.0269007   -7.0601837    220.79129  0.030716651  0.031458847            2 
  600000    1.0163923    -7.058375    221.10962   0.03070967  0.031438008            2 
  601000     1.027699   -7.0755156    221.22104  0.030674021  0.031416978            7 
  602000   0.99568271   -7.0425801     221.8805  0.030714355  0.031396229            3 
  603000    1.0171784   -7.0380731    221.91902  0.030668742  0.031375754            3 
  604000    1.0186075   -7.0733642    221.85743  0.030609469  0.031355521            2 
  605000    1.0287663   -7.0169917     222.4953  0.030646736  0.031335031            1 
  606000    1.0098684   -7.1048792    222.63789  0.030615772  0.031314496            2 
  607000   0.99739787   -7.0494494    223.37486   0.03066651   0.03129409            2 
  608000    1.0083424   -7.0787274    222.89423  0.030550196  0.031273779            2 
  609000    1.0171496   -7.0526411    223.56355  0.030591618   0.03125355            2 
  610000    1.0174759   -7.0995941    223.68246  0.030557714  0.031233644            5 
  611000    1.0039288   -7.0911191     224.1566  0.030572367   0.03121339            7 
  612000     1.007038   -7.0546311    224.75081  0.030603323  0.031193267            4 
  613000   0.99579086   -7.0580003    225.12487  0.030604251  0.031173531            2 
  614000    1.0162103    -7.065375    224.92288  0.030526993  0.031153747            1 
  615000    1.0202649   -7.1078639    225.37907  0.030539169  0.031134229            3 
  616000   0.99553188   -7.0730282    225.86294  0.030555052  0.031114465            2 
  617000   0.98178103   -7.0819721    225.64985  0.030476749  0.031095003            2 
  618000    1.0224393   -7.0761803    226.66527  0.030564356  0.031075554            2 
  619000    1.0059675   -7.0673654    226.47611  0.030489514    0.0310565            2 
  620000   0.99714646   -7.0751334    227.24347  0.030543477  0.031037205            1 
  621000    0.9824504   -7.0814541    227.61439  0.030544068  0.031018602            2 
  622000   0.99441577    -7.052656    227.26655  0.030448359    0.0309998            2 
  623000    1.0028529   -7.0652326    228.24416  0.030530252  0.030981002            2 
  624000    1.0014149   -7.0816534    228.59781  0.030528554  0.030962147            3 
  625000    1.0008806   -7.0912026    227.72817  0.030363756  0.030943398            2 
  626000    1.0126678    -7.063566    228.25692  0.030385639  0.030924194            2 
  627000    1.0090788   -7.0829549    228.51735   0.03037179  0.030905213            5 
  628000   0.97578906   -7.0854626    228.44148  0.030313359  0.030885897            4 
  629000     1.013498   -7.0799415    229.10923  0.030353634  0.030866554            2 
  630000    1.0281854   -7.1038397    229.37271  0.030340305  0.030847399            3 
  631000    1.0058553   -7.1162005    229.18544   0.03026749  0.030828304            2 
  632000    1.0174129    -7.122955    229.06122  0.030203219  0.030808953            4 
  633000    0.9856664   -7.1081838    229.93919  0.030271088  0.030789589            3 
  634000    1.0000488   -7.0827195    229.29559  0.030138747   0.03077073            1 
  635000    1.0032894   -7.0852424    230.29938  0.030223016  0.030751695            1 
  636000   0.99845572   -7.0871093     230.8043  0.030241653  0.030732829            2 
  637000    1.0002616   -7.0641974    231.75674  0.030318778  0.030714192            4 
  638000   0.99738706   -7.1004586    232.00272  0.030303386   0.03069588            2 
  639000   0.98647991   -7.0783504    232.10785  0.030269673  0.030677499            6 
  640000   0.98785777   -7.0769627    232.38449  0.030258397  0.030658834            3 
  641000    1.0265226   -7.0836901    232.63371  0.030243592  0.030640093            2 
  642000    1.0015402   -7.1084964    232.33349  0.030157514  0.030621639            3 
  643000   0.99959691   -7.0601702    232.40015  0.030119252  0.030603093            2 
  644000   0.98560193   -7.0869193     232.8434   0.03012984  0.030584688            5 
  645000    0.9982784   -7.0875034    233.22125  0.030131945  0.030566135            2 
  646000   0.98817261   -7.1084017    232.81059  0.030032326  0.030547564            2 
  647000   0.99387581   -7.1128902    232.54106  0.029951192  0.030528786            2 
  648000   0.98595444   -7.1020968    233.70074  0.030054107  0.030509932            4 
  649000   0.99330603   -7.1150613    233.09316  0.029929784   0.03049097            2 
  650000   0.98936177   -7.1050132    234.51795  0.030066404  0.030471939            2 
  651000    1.0015096   -7.1026252    234.25029  0.029985956  0.030453361            2 
  652000    1.0036764   -7.1140385    235.40846  0.030087994  0.030434769            1 
  653000   0.98168457   -7.1522371    235.14025  0.030007689  0.030416396            2 
  654000   0.99640479   -7.1157765    235.22448  0.029972539  0.030397896            5 
  655000   0.96982583   -7.1013122    234.73879  0.029864986  0.030379062            3 
  656000   0.98612642   -7.1105444    234.82048  0.029829838  0.030360281            4 
  657000   0.97209075   -7.1036385    236.23299  0.029963596  0.030341659            5 
  658000   0.97870518   -7.1343038    235.26415  0.029795359  0.030322804            3 
  659000   0.98462264   -7.1010982    236.11201   0.02985736  0.030303822            3 
  660000    0.9730454   -7.1277131    237.02557  0.029927471  0.030285469            3 
  661000   0.98947309   -7.1145102      236.396  0.029802823  0.030267142            2 
  662000   0.97799641   -7.0722265    237.06022  0.029841417  0.030248552            2 
  663000   0.96516642   -7.1238512    237.49093  0.029850544  0.030230243            3 
  664000   0.99015163   -7.1279267    236.91392  0.029733173  0.030212015            1 
  665000   0.99829461   -7.1069107    237.64654  0.029780268  0.030193642            4 
  666000    0.9945581    -7.114813    238.36416  0.029825345  0.030175251            4 
  667000   0.97722919   -7.1267795     238.6312  0.029813993  0.030156816            4 
  668000   0.98171055   -7.1420303     238.0049   0.02969123  0.030138423            3 
  669000   0.97617987    -7.162772    237.71229  0.029610399  0.030119606            2 
  670000    1.0128904   -7.1126418    238.60591  0.029677352   0.03010078            2 
  671000   0.97074714   -7.0998282    237.63074  0.029512014  0.030082147            4 
  672000   0.98148295   -7.1014351    239.38148  0.029685203  0.030063563            3 
  673000   0.97675737   -7.0968844    239.09436  0.029605542  0.030045267            5 
  674000    1.0026681   -7.1614636    239.08968  0.029561038  0.030026618            2 
  675000   0.96656285   -7.1551428    239.15798  0.029525677  0.030007879            2 
  676000   0.97469961   -7.1133261    239.54741  0.029530006  0.029988692            4 
  677000   0.99053867   -7.1406499     239.5291  0.029484133  0.029969775            2 
  678000   0.99903343   -7.1682446    239.72347  0.029464537  0.029950459            2 
  679000   0.97958471   -7.1424916    239.84043  0.029435497  0.029930959            2 
  680000   0.97890476    -7.113499    239.85271  0.029393715  0.029911852            2 
  681000   0.98679975   -7.1165862    240.15276  0.029387268  0.029892746            2 
  682000   0.96442802   -7.1388346    240.57326   0.02939556  0.029873928            2 
  683000   0.98395727   -7.0986306    241.53818  0.029470252  0.029854971            2 
  684000   0.95725123   -7.1244256    241.24299  0.029391202  0.029836004            2 
  685000    0.9757995   -7.1593169     241.3302  0.029358905  0.029817221            2 
  686000   0.99170358   -7.1146695    242.12677  0.029412873  0.029798456            1 
  687000   0.97337922   -7.1704683    240.68451  0.029195113  0.029779354            2 
  688000    1.0272514   -7.1484312    240.52815   0.02913374  0.029759748            2 
  689000   0.95707479   -7.0943044    241.67816  0.029230547  0.029740595            4 
  690000   0.98808956    -7.150688    242.47793  0.029284774  0.029721726            2 
  691000   0.99489113   -7.1246779    242.38588  0.029231293  0.029702975            3 
  692000   0.99011795   -7.1287265      243.908   0.02937235  0.029684656            3 
  693000   0.96530409   -7.1669039    242.89272  0.029207879  0.029666022            3 
  694000    1.0016982   -7.1210003    243.45186  0.029232932  0.029647431            1 
  695000    1.0030676   -7.1552493    243.66395  0.029216301  0.029628809            3 
  696000   0.99668821   -7.1316809    244.04182  0.029219567  0.029609927            2 
  697000   0.98882147   -7.0911526    244.77357  0.029265132  0.029591299            4 
  698000    0.9947845   -7.1292758    244.30391  0.029167133   0.02957277            2 
  699000   0.97094949   -7.1631874    244.63496  0.029164874  0.029554045            2 
  700000   0.97734582   -7.1463704    244.52631  0.029110275  0.029534859            3 
  701000   0.96985376    -7.157261    243.86593  0.028990244  0.029515452            2 
  702000   0.96047058   -7.1932714     243.7348  0.028933381  0.029495774            2 
  703000    1.0070204   -7.1515341    244.52948  0.028986424  0.029476333            3 
  704000   0.98682067   -7.1402981     245.5407   0.02906495  0.029457294            2 
  705000   0.96286086   -7.1518907    245.28786  0.028993837  0.029438608            2 
  706000   0.99249777   -7.1693025    246.01044  0.029038059  0.029419686            3 
  707000   0.96829481   -7.1406079    246.05008   0.02900166  0.029400906            4 
  708000   0.94970416   -7.1533557     245.0306  0.028840702  0.029381944            3 
  709000   0.96786357   -7.1586635    246.63091  0.028988119  0.029363299            3 
  710000   0.94442224   -7.1297595    246.99147  0.028989609  0.029344946            2 
  711000   0.95763157   -7.1795681    246.61251  0.028904419  0.029326293            3 
  712000    0.9925949   -7.1841458    246.46766   0.02884687  0.029307557            4 
  713000   0.98002827   -7.1485925    247.83441  0.028966153  0.029289168            2 
  714000   0.96537766   -7.1553939    247.58336  0.028896284  0.029271082            2 
  715000   0.93456743   -7.1587053    248.67707  0.028983341  0.029253054            2 
  716000   0.95761287   -7.1826183    247.66024  0.028824516  0.029235004            4 
  717000   0.95402221   -7.1655435    248.84337  0.028921823  0.029216751            3 
  718000   0.97542416   -7.1524024    248.83274  0.028880309  0.029198826            4 
  719000   0.96759667   -7.1989841    248.35995  0.028785344  0.029180803            2 
  720000   0.97819842   -7.1703178    248.88177   0.02880576  0.029162828            2 
  721000   0.97028509    -7.171945    249.12827  0.028794298  0.029144936            6 
  722000   0.98486336   -7.1559294    250.45448  0.028907489  0.029127192            3 
  723000   0.94783513   -7.1578413    250.38456  0.028859446  0.029109395            3 
  724000   0.96796856   -7.1946685    249.45802   0.02871294   0.02909143            2 
  725000    0.9570993      -7.2012     249.1823  0.028641644  0.029073229            3 
  726000    0.9673315   -7.1668803     250.0534  0.028702181  0.029054821            3 
  727000   0.96523554   -7.1818238    249.04043  0.028546587  0.029036711            2 
  728000   0.98588192    -7.203336    250.73411  0.028701249  0.029018434            2 
  729000   0.96902018   -7.1783139    251.02839  0.028695518  0.029000339            3 
  730000   0.96364732   -7.1631924    250.73325  0.028622517  0.028982063            3 
  731000   0.96290652   -7.1709047    250.78044  0.028588742  0.028963722            3 
  732000   0.97713918   -7.1863493    250.85382  0.028558039  0.028945142            2 
  733000   0.95204656   -7.1278844    251.43775  0.028585465  0.028926618            2 
  734000   0.96910353   -7.1653506    251.75243  0.028582247  0.028908232            2 
  735000   0.96745121   -7.1787664    251.78238  0.028546755   0.02888944            2 
  736000   0.96793621   -7.1981121    250.66123  0.028381026  0.028870316            3 
  737000   0.92861949   -7.1929179    250.84382  0.028363164  0.028850847            1 
  738000   0.96629593   -7.2401848    250.93394  0.028334908  0.028831079            4 
  739000   0.96603528   -7.1982673     251.2877  0.028336457  0.028811626            3 
  740000   0.93927948   -7.1950154    251.27068  0.028296248  0.028792359            3 
  741000    0.9649605   -7.2091513    252.01542  0.028341815  0.028772803            7 
  742000   0.96103693   -7.1895219    250.77828  0.028164677  0.028753522            1 
  743000   0.95857212   -7.2143085    251.61934  0.028221102  0.028733868            4 
  744000   0.96604433   -7.1714576    252.80323  0.028315774  0.028714234            1 
  745000   0.96326933   -7.1725818    252.32167    0.0282239  0.028694982            3 
  746000   0.96576809   -7.2054748    251.93796  0.028143204  0.028675647            2 
  747000   0.94757504   -7.2292647    252.33855  0.028150218  0.028655778            1 
  748000   0.92989773    -7.195211    252.83944  0.028168387  0.028635876            2 
  749000   0.97094099   -7.1528468    252.83774  0.028130589  0.028615977            3 
  750000   0.94773739   -7.1941529     252.0349  0.028003878  0.028595777            2 
  751000   0.96106908   -7.1834546    253.26153    0.0281027  0.028575616            1 
  752000   0.96405082    -7.191503    252.89116  0.028024287  0.028555567            2 
  753000   0.94788096   -7.1753872    253.31379  0.028033841  0.028535629            2 
  754000   0.94603336   -7.1878819    252.47738  0.027904219  0.028515629            3 
  755000   0.96432934   -7.1735253    253.03985  0.027929343  0.028495588            2 
  756000   0.95352208   -7.1477435    254.24922  0.028025708  0.028475946            8 
  757000   0.93913383   -7.1805968    253.82911  0.027942438  0.028456286            1 
  758000   0.96273507   -7.1731973    253.89264   0.02791256  0.028436407            1 
  759000   0.94353405   -7.1909444    254.02419  0.027890228  0.028416579            2 
  760000   0.94837599   -7.2099439    254.71522    0.0279293  0.028396932            1 
  761000   0.93812469   -7.2169837    254.17661   0.02783362  0.028376804            3 
  762000   0.95039174   -7.1942008    254.53084  0.027835831  0.028356707            3 
  763000   0.95226584    -7.206401    254.59935  0.027806831  0.028336661            3 
  764000   0.93412267   -7.2221995    254.41483  0.027750309  0.028316704            5 
  765000   0.94563229   -7.1825868    254.52645  0.027726193  0.028296716            3 
  766000   0.94674738   -7.2004196    254.54307  0.027691805  0.028276381            2 
  767000   0.94775054   -7.1853941    254.86277  0.027690436  0.028256182            3 
  768000   0.95591408   -7.1943732    255.29544  0.027701328  0.028236122            2 
  769000   0.94785091   -7.2168956    254.67039  0.027597571  0.028215919            2 
  770000   0.93373463   -7.1782499    256.39822  0.027748725   0.02819564            1 
  771000   0.93856504   -7.2223114    256.10231  0.027680751  0.028175449            2 
  772000   0.95355465   -7.2104676    255.74525  0.027606353  0.028155348            5 
  773000   0.93992092   -7.2101787    255.78494  0.027574918  0.028135271            2 
  774000   0.93445089   -7.1811741    256.19719  0.027583676  0.028115188            3 
  775000   0.94847351   -7.2027387    256.45963  0.027576304  0.028095486            2 
  776000   0.92928922   -7.1885081    257.29603  0.027630587    0.0280759            2 
  777000   0.94047925   -7.1617873    256.79021  0.027540778   0.02805626            4 
  778000   0.94663074    -7.232168    255.98595  0.027419232  0.028036401            2 
  779000   0.95519337   -7.1908671    257.75994  0.027573806  0.028016494            2 
  780000    0.9394684   -7.2446609    257.88849  0.027552189  0.027996703            4 
  781000   0.93222491   -7.2238402    258.23338  0.027553711  0.027977009            5 
  782000   0.93935283   -7.1981202    258.18864  0.027513709  0.027957275            3 
  783000   0.94401373   -7.1978129    258.45468  0.027506884  0.027937717            2 
  784000   0.94145942   -7.1964244    258.30188  0.027455557  0.027918196            3 
  785000   0.94767514     -7.22949     258.6557  0.027458143  0.027898871            2 
  786000   0.91705454   -7.2044867    259.44947  0.027507366  0.027879459            3 
  787000   0.93459904   -7.2396267    258.82163  0.027405933  0.027859855            3 
  788000   0.95716854   -7.1976076    260.08162  0.027504402  0.027840468            2 
  789000   0.96446259   -7.2149656    258.83552   0.02733793  0.027820969            6 
  790000   0.95059244   -7.2327056    259.72616  0.027397274  0.027801349            5 
  791000   0.94094472    -7.246048    259.94363  0.027385549  0.027781891            6 
  792000   0.92206792   -7.2066264    260.71069  0.027431681  0.027762438            4 
  793000    0.9229004   -7.2184308    260.47936  0.027372778  0.027743077            2 
  794000   0.95469964   -7.2155548    260.80706  0.027372697   0.02772388            1 
  795000   0.94455282    -7.233969    260.26403  0.027281345  0.027704699            3 
  796000   0.92289696   -7.2341564    260.42765  0.027264202  0.027685436            2 
  797000   0.93186434   -7.2424294    260.59599  0.027247594  0.027666221            2 
  798000   0.94794041    -7.225289    261.34659  0.027291833  0.027647044            2 
  799000   0.92281556   -7.2140564    261.79999  0.027304963   0.02762793            2 
  800000   0.94944421   -7.2434295    261.47675  0.027237161  0.027608616            4 
  801000   0.91640044   -7.2206092    261.83657  0.027240592  0.027589497            2 
  802000   0.92858894   -7.2336312    261.92824  0.027216151  0.027570365            2 
  803000   0.94096436   -7.2283417    262.51113  0.027242749  0.027551183            2 
  804000   0.92260464   -7.2123854    262.16024  0.027172495  0.027532218            2 
  805000   0.94835805   -7.2143565    262.41213  0.027164817  0.027513544            1 
  806000   0.92223797    -7.259315    262.82345   0.02717364  0.027494732            6 
  807000   0.93633808   -7.2467463    263.04519  0.027162865  0.027475775            2 
  808000   0.92026127   -7.2112744    262.89786  0.027114053   0.02745705            4 
  809000   0.91730112   -7.2237681    263.52787  0.027145434   0.02743831            2 
  810000   0.94000879   -7.2336082    263.66301  0.027125824  0.027419647            2 
  811000   0.90554114   -7.2523172    264.30986  0.027158843  0.027401061            2 
  812000   0.94129609   -7.2532196    263.55531  0.027047959  0.027382515            2 
  813000   0.93966378   -7.2459778    264.71446  0.027133504  0.027364196            2 
  814000   0.92876679   -7.2552871    264.57923  0.027086326  0.027345744            3 
  815000   0.92933683   -7.2380425    265.16378  0.027112861  0.027327474            6 
  816000   0.93351147   -7.2418322    264.86567   0.02704919   0.02730929            2 
  817000   0.93523442   -7.2567179    265.32284  0.027062713  0.027290868            2 
  818000   0.93102155   -7.2670794     264.9984  0.026996577   0.02727222            5 
  819000   0.92833648   -7.2253366    265.07507  0.026971415  0.027253671            2 
  820000   0.92883084   -7.1971029    266.10454  0.027043144   0.02723534            3 
  821000   0.93213266   -7.2602863    265.25158  0.026923628  0.027216865            4 
  822000   0.91581249   -7.2318283    265.03841  0.026869263  0.027198482            2 
  823000    0.9094528   -7.2535015    265.98522  0.026932485  0.027180285            2 
  824000   0.90874614   -7.2349028    265.70968  0.026871933   0.02716191            3 
  825000   0.90974798   -7.2738917    265.80309  0.026848797  0.027143358            5 
  826000   0.93491648     -7.25865    266.21801  0.026858153  0.027124885            2 
  827000   0.91524645   -7.2358873    267.12634  0.026917205  0.027106612            2 
  828000   0.92917171   -7.2450694    267.79262  0.026951753  0.027088364            4 
  829000    0.9392253   -7.2789653    266.92008  0.026831532  0.027070313            2 
  830000   0.94043371   -7.2413825    267.03051  0.026810292  0.027052095            2 
  831000   0.91181417   -7.2816173    266.27612  0.026702379  0.027033826            4 
  832000   0.91423243   -7.2741413    268.31609  0.026874608   0.02701552            4 
  833000   0.92068462   -7.2818011    267.39356  0.026750056   0.02699749            2 
  834000   0.92690886   -7.2533804    266.91501  0.026670165  0.026979197            4 
  835000   0.92119163   -7.2527081    267.90731  0.026737256  0.026960976            5 
  836000    0.9335229    -7.298871    267.76234  0.026690824  0.026942776            3 
  837000   0.91552788   -7.2354707    268.01529  0.026684119  0.026924449            1 
  838000   0.93444615    -7.242303    267.63524  0.026614483  0.026906189            2 
  839000   0.92101339   -7.2638896    268.51512  0.026670155  0.026887789            3 
  840000   0.90857422   -7.2920115    268.12047  0.026599253  0.026869476            2 
  841000   0.90639704   -7.2522207     268.4693   0.02660219  0.026851208            7 
  842000   0.92952213   -7.2528862    268.84773  0.026608049  0.026832862            3 
  843000   0.91838762   -7.2704569    268.77561  0.026569357   0.02681455            6 
  844000   0.89819643   -7.2650609    269.05138  0.026565105  0.026795964            2 
  845000   0.92504479   -7.2835985    269.16453  0.026544825  0.026777706            4 
  846000   0.93731732   -7.3091436    268.95719  0.026493025  0.026759157            3 
  847000    0.9082267   -7.2995986    269.00442  0.026466394  0.026740629            2 
  848000   0.91058704   -7.3043292    269.74122  0.026507588  0.026722209            1 
  849000   0.91753949   -7.2792561    270.26206  0.026527489  0.026703749            4 
  850000    0.9060481   -7.2863566    269.44953   0.02641662  0.026685469            2 
  851000   0.90636893   -7.3126223    270.56743  0.026495048  0.026667156            2 
  852000   0.90430297   -7.2995965    269.99763  0.026408219  0.026648984            3 
  853000   0.89593695   -7.3206928    269.93111  0.026370761  0.026630926            5 
  854000   0.91340044   -7.2804859    270.61842   0.02640695  0.026612545            3 
  855000   0.92173623   -7.2779609    270.57215  0.026371555   0.02659426            2 
  856000    0.9153494    -7.289691    270.73766  0.026356859  0.026576093            3 
  857000   0.91778341   -7.2818961    270.73667  0.026326009  0.026558042            3 
  858000   0.91224691   -7.2885245    271.90667  0.026408962   0.02654013            2 
  859000   0.90665646   -7.3234269    272.23471  0.026410041  0.026522182            4 
  860000   0.91272354   -7.2832158    271.69465  0.026327001  0.026504333            2 
  861000    0.9207084   -7.3113163    271.94598   0.02632075  0.026486507            3 
  862000   0.90207508   -7.2945093    272.33566  0.026327886  0.026468735            4 
  863000    0.8987553   -7.3202883    272.76155  0.026338505   0.02645107            5 
  864000   0.90025977    -7.267642    272.74267  0.026306199   0.02643364            5 
  865000   0.91276012   -7.2842577    272.89322  0.026290291  0.026416198            2 
  866000   0.91806532   -7.3092666    272.59389  0.026231128  0.026398655            2 
  867000   0.92030065   -7.3076243    272.82482   0.02622307  0.026381246            2 
  868000   0.92449316   -7.2906105    272.58485  0.026169821  0.026363687            1 
  869000   0.89996673   -7.3043403    273.14963  0.026193865  0.026346242            3 
  870000   0.90299768   -7.3163461    274.44282  0.026287627  0.026328823            2 
  871000   0.90903645   -7.2861849    274.17799  0.026232108  0.026311428            2 
  872000   0.91284375   -7.3087889    274.35035  0.026218497  0.026294124            4 
  873000   0.89652409   -7.3064082    273.57591  0.026114539  0.026276648            3 
  874000   0.87794002   -7.3080543    274.18283  0.026142527  0.026259264            2 
  875000   0.90798418    -7.294083    274.95903  0.026186574  0.026242118            4 
  876000   0.91444662   -7.3066842    274.75506  0.026137277  0.026225021            1 
  877000   0.91084352   -7.3044115    274.96274  0.026127209  0.026208029            2 
  878000   0.90452523   -7.3030913    275.03936  0.026104723  0.026190753            5 
  879000   0.90644841   -7.2852777     275.8053   0.02614764  0.026173648            4 
  880000   0.90918214   -7.3106929    276.14241  0.026149849  0.026156547            4 
  881000   0.91300864    -7.290343     275.1734  0.026028509  0.026139412            8 
  882000   0.89113377   -7.2872839    276.08639   0.02608526  0.026122132            1 
  883000   0.89592093   -7.3135992    276.00923  0.026048436  0.026104701            3 
  884000    0.9026808   -7.3043223    275.59732   0.02598014  0.026087194            3 
  885000   0.92255853   -7.3057759    275.65918  0.025956608  0.026069801            3 
  886000   0.95155334   -7.2870991      276.192  0.025977426  0.026052507            2 
  887000   0.90083435   -7.2805907    275.78165  0.025909588  0.026035323            3 
  888000   0.92213411   -7.3260683    275.88545  0.025890151  0.026018095            3 
  889000   0.90340231   -7.3168749    275.67267  0.025841083  0.026000652            3 
  890000   0.90601825   -7.3341543    276.26228  0.025867254  0.025983057            3 
  891000   0.89505573   -7.3224585    276.00565  0.025814221  0.025965578            2 
  892000   0.89745087   -7.3282366    276.35289  0.025817722  0.025947992            3 
  893000   0.92279647    -7.295418    276.80886  0.025831361  0.025930549            2 
  894000   0.90642925   -7.3283641    276.92514  0.025813305  0.025913154            3 
  895000   0.90719831   -7.2935212    277.01021  0.025792385  0.025895861            5 
  896000   0.87637293   -7.3210428    276.71108  0.025735778  0.025878446            4 
  897000    0.9056466   -7.3202566    277.26515  0.025758561  0.025861041            5 
  898000   0.89115863   -7.3273151    276.64896  0.025672695    0.0258437            3 
  899000   0.90795388     -7.33984    277.13061  0.025688785  0.025826374            2 
  900000   0.87800085    -7.371789    277.74999  0.025717592  0.025808974            2 
  901000   0.89500218   -7.3424631    277.64476  0.025679315  0.025791562            4 
  902000   0.88644328    -7.367106    277.48846  0.025636406  0.025774103            4 
  903000   0.88920238   -7.3380383    278.66005  0.025716136  0.025756947            4 
  904000   0.89469009   -7.3164226     278.9433    0.0257138  0.025739892            3 
  905000    0.8996611   -7.3637394    278.70226  0.025663192  0.025722583            3 
  906000   0.87957999   -7.3523807    278.78566  0.025642537  0.025705424            4 
  907000   0.89117458   -7.3520595    279.46767  0.025676926  0.025688403            3 
  908000   0.88987889   -7.3110341    279.47199  0.025649044  0.025671728            5 
  909000   0.91665313   -7.3268455    280.06506  0.025675198  0.025654938            4 
  910000   0.90263782    -7.331391    279.90397  0.025632232  0.025638204            3 
  911000   0.90289014   -7.3355963    279.92314  0.025605849  0.025621282            2 
  912000   0.90017758   -7.3269092    280.03629  0.025588112  0.025604328            2 
  913000   0.89127815   -7.3507452    280.30121  0.025584265  0.025587397            2 
  914000   0.89486542   -7.3481916    280.57598  0.025581326  0.025570605            2 
  915000   0.89274145   -7.3152167    280.90047   0.02558292  0.025553838            4 
  916000   0.88172562   -7.3543429    280.94913  0.025559419  0.025536891            3 
  917000   0.89524893   -7.3352968    279.55812  0.025405136  0.025519892            2 
  918000   0.87122674    -7.325913    280.15156  0.025431332  0.025502824            6 
  919000   0.89032884   -7.3315915    280.59832  0.025444171    0.0254858            3 
  920000   0.88498762   -7.3400164    280.91592  0.025445283  0.025468729            2 
  921000   0.87889051    -7.338258    280.89331  0.025415609  0.025451774            2 
  922000   0.86690098   -7.3413157    281.01334  0.025398892  0.025434721            3 
  923000   0.90662934   -7.3354766    280.95199  0.025365835  0.025417516            3 
  924000   0.88164477   -7.3351609     281.3687  0.025375965  0.025400328            5 
  925000   0.87774461   -7.3510047     281.6773  0.025376334  0.025383212            4 
  926000   0.88195293   -7.3229512    282.36693  0.025410991   0.02536628            3 
  927000   0.87447302   -7.3257379    281.34024  0.025291283  0.025349297            3 
  928000   0.87549564   -7.3193767    282.29201  0.025349498  0.025332213            4 
  929000   0.88534161   -7.3683436    282.00396  0.025296372  0.025315252            4 
  930000   0.88666035   -7.3726967    281.92353  0.025261965  0.025298329            5 
  931000   0.86471539    -7.314833    282.32796  0.025271031  0.025281505            4 
  932000   0.87761972   -7.3584549    282.30524  0.025241885  0.025264629            2 
  933000   0.87279903   -7.3293716    283.06379  0.025282582   0.02524768            3 
  934000   0.86971868   -7.3560946    283.33549  0.025279755  0.025230821            3 
  935000   0.87237098   -7.3736162    282.40953   0.02517019  0.025213926            2 
  936000   0.88601693   -7.3590892    283.17197  0.025211179  0.025196994            3 
  937000   0.87110182   -7.3534437    282.56672  0.025130445   0.02518013            2 
  938000   0.89015271   -7.3660508    283.59071  0.025194626  0.025163229            2 
  939000   0.88322078   -7.3593798    282.95195  0.025111106  0.025146218            2 
  940000   0.87432956   -7.3580032      283.392  0.025123404    0.0251292            3 
  941000   0.86599827   -7.3608568    283.15526   0.02507574   0.02511222            6 
  942000   0.87841321   -7.3576333    282.96748  0.025032509  0.025095107            3 
  943000   0.85729825   -7.3521564    283.46474  0.025049906  0.025078068            4 
  944000   0.88053842   -7.3618139    282.78478  0.024963346  0.025061024            3 
  945000   0.88062628   -7.3774827    283.86255  0.025031971  0.025043955            3 
  946000     0.871266   -7.3431259    285.04664  0.025109817  0.025026999            2 
  947000   0.89504307    -7.376969     284.6846  0.025051443  0.025010276            4 
  948000   0.88134888   -7.3653806    284.43219   0.02500283  0.024993629            3 
  949000   0.87736975   -7.3426098    285.06169  0.025031761   0.02497688            2 
  950000    0.8558716   -7.3830995    284.41552   0.02494873  0.024960143            4 
  951000   0.85429744   -7.3822384    284.93588  0.024968093  0.024943414            3 
  952000   0.85484427   -7.3776881    285.50867  0.024992006  0.024926767            3 
  953000   0.89592698   -7.3675373    285.79679  0.024990975  0.024910142            4 
  954000   0.86025959   -7.3893775    285.34979  0.024925733  0.024893378            2 
  955000   0.88523574   -7.3609927    285.99269  0.024955732  0.024876685            4 
  956000   0.86352568   -7.3668736    285.18549  0.024859266      0.02486            8 
  957000   0.85781837   -7.3614755    285.91993  0.024897243   0.02484333            5 
  958000   0.86533862     -7.35566    284.96453  0.024788146  0.024826547            2 
  959000   0.87673048   -7.3542501    286.00901   0.02485306  0.024809838            3 
  960000   0.88818797    -7.378725    286.03584    0.0248295  0.024793151            2 
  961000    0.8913951   -7.4147459    285.19275  0.024730554  0.024776309            5 
  962000   0.87538709   -7.3696056     285.8733    0.0247638  0.024759457            2 
  963000   0.86886494    -7.362962    285.63258  0.024717253  0.024742531            3 
  964000   0.86429052   -7.3835502     286.0533  0.024727983  0.024725655            3 
  965000   0.85540649    -7.414048    285.44082  0.024649466  0.024708821            1 
  966000   0.86848039   -7.3916066    286.32197  0.024699963  0.024692199            5 
  967000    0.8770519   -7.3675297    286.94487    0.0247281  0.024675537            5 
  968000   0.87865455   -7.4045198    286.00015  0.024621225  0.024658985            3 
  969000   0.86089061   -7.3778833    287.10449  0.024690788  0.024642245            3 
  970000   0.85116644   -7.3811753     286.5202  0.024615138  0.024625496            1 
  971000   0.85790643   -7.3776787    287.69487    0.0246906  0.024608777            2 
  972000   0.85769178   -7.4027794    286.91559  0.024598388  0.024592043            3 
  973000   0.85982402   -7.3749228    287.00986   0.02458118  0.024575175            3 
  974000   0.85617214   -7.3930078     287.2958  0.024580407  0.024558464            5 
  975000   0.88323487   -7.3843278    287.48695  0.024571535  0.024541759            3 
  976000   0.88577076   -7.4159159     287.1494  0.024517538  0.024525019            3 
  977000   0.87503173    -7.405305    287.15822  0.024493195  0.024508314            3 
  978000   0.84811825   -7.3885124    287.51273  0.024498358  0.024491558            2 
  979000   0.85223436   -7.3920815    288.29499  0.024539921  0.024474923            3 
  980000    0.8576245   -7.3782645    287.89479  0.024480849  0.024458227            2 
  981000   0.85592484   -7.4162938    288.17569  0.024479757  0.024441605            3 
  982000   0.87663643   -7.3514221    288.47071  0.024479864  0.024425154            2 
  983000   0.85425426   -7.3768451     288.5098  0.024458274  0.024408822            4 
  984000   0.85958793   -7.4119656    288.28503  0.024414383  0.024392457            2 
  985000   0.84694787   -7.3977142    288.44961  0.024403521  0.024376004            8 
  986000   0.87664138   -7.3506921      289.363  0.024455967  0.024359583            2 
  987000     0.858497   -7.4116286    288.29558  0.024341066  0.024342974            2 
  988000   0.85517628   -7.4045246    288.91057  0.024368301  0.024326081            3 
  989000   0.86688985    -7.401954    288.11072  0.024276266  0.024309382            2 
  990000   0.85749746   -7.3910363     289.4161  0.024361624  0.024292657            1 
  991000   0.86486364   -7.4221538    289.09692  0.024310201  0.024275942            5 
  992000   0.85470975   -7.3997106    289.68255  0.024334891  0.024259226            3 
  993000   0.85355337   -7.4129385    289.58374  0.024302093  0.024242597            6 
  994000   0.86400111    -7.413956    289.65641  0.024283737  0.024226024            4 
  995000   0.84711031   -7.4033176    289.93998   0.02428308  0.024209415            3 
  996000   0.84480325   -7.4090124    289.78065  0.024245369  0.024192718            4 
  997000   0.86840244   -7.4098878    290.26794   0.02426178  0.024176182            5 
  998000   0.86965792   -7.4211055    289.72762  0.024192353    0.0241596            4 
  999000   0.83806287   -7.4333261    290.41829  0.024225749  0.024143038            7 
 1000000   0.86159647   -7.4408142    289.27631  0.024106359  0.024126402            3 
 1001000   0.83970926    -7.426409    289.47083  0.024098471  0.024109716            2 
 1002000    0.8776681   -7.4257976    290.24264  0.024138609  0.024093187            4 
 1003000   0.86079921   -7.4353005    290.03621  0.024097392  0.024076546            3 
 1004000   0.86981849   -7.4097695    290.17327  0.024084767  0.024059918            5 
 1005000   0.85029878   -7.4142448    290.54925  0.024091978  0.024043273            5 
 1006000   0.85217207   -7.4522675    290.47891  0.024062203  0.024026551            7 
 1007000    0.8415551   -7.4259682    290.03942  0.024001938   0.02400968            5 
 1008000   0.85720854   -7.4323702     289.7763  0.023956374  0.023992623            3 
 1009000    0.8456517   -7.3566459       290.05  0.023955237  0.023975649            1 
 1010000   0.84023673   -7.4395035    290.19185  0.023943222  0.023958694            3 
 1011000   0.84802959   -7.4337151    290.14355  0.023915558  0.023941783            3 
 1012000   0.84877369   -7.4403947    289.93494  0.023874748  0.023924893            5 
 1013000   0.86039831    -7.458002    289.87435  0.023846196   0.02390788            2 
 1014000   0.84616476   -7.4227783    290.19552  0.023849073  0.023890921            2 
 1015000    0.8533802   -7.4190304    291.24375  0.023911638  0.023874059           12 
 1016000   0.84232004   -7.4565314    290.39466  0.023818459  0.023857105            4 
 1017000   0.86192147   -7.3835037    290.51484  0.023804887   0.02384011            3 
 1018000   0.86998233   -7.4473341    290.34306  0.023767441  0.023823068            1 
 1019000   0.82755182   -7.4226074    291.27592  0.023820406  0.023806082            5 
 1020000   0.86515292    -7.425417     291.1197  0.023784289  0.023789212            3 
 1021000   0.84449739   -7.4404303    291.46454   0.02378914  0.023772194            5 
 1022000   0.84831915   -7.4387608    290.25208  0.023666999  0.023755149            2 
 1023000   0.84821679   -7.4490406    291.00042  0.023704824   0.02373811            2 
 1024000   0.84492729   -7.4155346    291.75516  0.023743096  0.023721149            3 
 1025000    0.8530018   -7.4207539    291.81745  0.023724996  0.023704263            8 
 1026000   0.85117761   -7.4519271    290.21839  0.023571994  0.023687179            2 
 1027000   0.84967636   -7.4517862    291.34416   0.02364039  0.023670112            4 
 1028000   0.85735555   -7.4381107    292.39012  0.023702182  0.023653138            4 
 1029000   0.83606696   -7.4154658    291.51424  0.023608215  0.023636217            3 
 1030000    0.8478943   -7.4431424    292.32548  0.023650929  0.023619205            4 
 1031000     0.851648   -7.4563036    291.63217  0.023571951  0.023602161            4 
 1032000    0.8598258   -7.4297041    291.14456  0.023509735  0.023585152            5 
 1033000   0.84853824   -7.4261099    291.98782  0.023555003  0.023568142            2 
 1034000   0.84256365   -7.4417978    292.32581  0.023559463   0.02355121            7 
 1035000    0.8266752   -7.4702096    292.28516  0.023533427  0.023534264            5 
 1036000   0.85756853   -7.4542631    292.53544  0.023530843  0.023517358            3 
 1037000   0.84646073   -7.4542816    292.55324  0.023509582  0.023500351            3 
 1038000   0.83734124   -7.4679908    292.81502  0.023507949  0.023483528            6 
 1039000   0.83713069   -7.4544237    293.19101   0.02351548  0.023466781            2 
 1040000   0.85426455   -7.4548728    293.28067  0.023500054  0.023450093            2 
 1041000   0.82601945   -7.4665688    293.12555  0.023465061  0.023433393            4 
 1042000   0.83157527    -7.464766    293.70901  0.023489204   0.02341676            6 
 1043000   0.83508111   -7.4415962    294.06391  0.023495039  0.023400152            8 
 1044000   0.85204768   -7.4419915    294.33398  0.023494092  0.023383563            1 
 1045000   0.85421678   -7.4359121    293.22804  0.023383416  0.023366984            2 
 1046000   0.84040845   -7.4690769    293.28778  0.023365821  0.023350256            5 
 1047000    0.8297838   -7.4465376    294.12299   0.02340998  0.023333541            2 
 1048000   0.85266468   -7.4675074    293.67101  0.023351702  0.023316842            5 
 1049000   0.83876363   -7.4640839    293.80129  0.023339791  0.023300084            2 
 1050000   0.83394599   -7.4447939    294.13045  0.023343686  0.023283424            4 
 1051000   0.83374491   -7.4745907     293.8805  0.023301657  0.023266712            5 
 1052000   0.81898542    -7.458191    294.80592  0.023352813  0.023250053            1 
 1053000   0.82379904   -7.4425074     294.3079  0.023291224  0.023233319            6 
 1054000   0.83409137   -7.4553158    294.19301  0.023260042  0.023216686            2 
 1055000   0.82171328   -7.4612811    294.97897  0.023300077  0.023200147            9 
 1056000   0.82806777   -7.4412549    294.64677  0.023251797  0.023183645            3 
 1057000   0.81815583   -7.4260818    294.24073  0.023197787  0.023167124            3 
 1058000    0.8226686   -7.4369897    294.84713  0.023223624  0.023150516            3 
 1059000   0.82712938   -7.4831872    295.14804  0.023225373   0.02313378            4 
 1060000   0.82912254   -7.4619438    294.28075  0.023135279   0.02311711            2 
 1061000   0.82622358   -7.4908695    294.70517  0.023146809  0.023100441            2 
 1062000   0.84621692   -7.4650042    295.33915   0.02317476  0.023083794            3 
 1063000   0.84132986   -7.4602708    294.78047  0.023109162  0.023067166            1 
 1064000   0.82362079   -7.4921008    295.41541  0.023137171   0.02305061            2 
 1065000   0.82427075   -7.4966086    294.67897  0.023057823  0.023034089            6 
 1066000   0.82095145   -7.4707286    295.37164  0.023090341  0.023017435            3 
 1067000   0.83333242   -7.4619763    295.22679  0.023057388  0.023000934            3 
 1068000   0.83414715   -7.4773831    295.07033   0.02302359  0.022984361            2 
 1069000   0.83186921   -7.4825918    294.80082  0.022981043  0.022967674            3 
 1070000   0.81664276   -7.5035833    295.04904  0.022978897  0.022951054            5 
 1071000   0.80900237   -7.4975307    295.32289   0.02297875  0.022934375            4 
 1072000    0.8404176   -7.4910491    295.90127  0.023002275   0.02291782            1 
 1073000   0.84611892   -7.4823958    295.92386  0.022982593  0.022901386            3 
 1074000   0.83566652   -7.4924774    296.52456  0.023007803  0.022884972            4 
 1075000   0.82239978   -7.4689903    296.44408  0.022980161  0.022868603            2 
 1076000   0.83844644   -7.5050596    296.50747  0.022963714   0.02285234            3 
 1077000   0.81264294   -7.4910855    296.45365  0.022938227   0.02283593            3 
 1078000   0.83448112   -7.4835047     297.1344  0.022969573   0.02281959            3 
 1079000   0.80640173   -7.4960341    296.26462  0.022881111  0.022803216            2 
 1080000    0.8112133   -7.5002939      296.457  0.022874769  0.022786873            4 
 1081000   0.84181851   -7.4765722    296.83867   0.02288303  0.022770574            2 
 1082000   0.82001464   -7.4890589    296.39847  0.022827978  0.022754308            3 
 1083000   0.82636959   -7.4785462    297.58065  0.022897865  0.022738055            5 
 1084000   0.82080816   -7.4827683    297.69032  0.022885172  0.022721895            4 
 1085000   0.81567586   -7.4908463    297.48631  0.022848411  0.022705768            7 
 1086000   0.83653957   -7.5008289    297.88569  0.022858018  0.022689463            4 
 1087000    0.8142945    -7.488683    297.32041  0.022793653  0.022673138            3 
 1088000   0.81442747    -7.479881    297.45651  0.022783127  0.022656863            2 
 1089000   0.79902016   -7.4889043    297.63433  0.022775813  0.022640609            2 
 1090000   0.81319344   -7.5023634    297.14771  0.022717715   0.02262436            5 
 1091000   0.80742905    -7.523229    297.44227  0.022719391  0.022608091            3 
 1092000   0.79436307   -7.5105978    297.66503  0.022715585  0.022591725            3 
 1093000   0.82031196   -7.5096859    297.59782  0.022689679  0.022575397            2 
 1094000   0.82293146   -7.4803531    297.79194  0.022683725   0.02255918            4 
 1095000   0.80899521   -7.5148698    298.26811  0.022699247  0.022542981            3 
 1096000   0.82367263   -7.5213575    298.33669  0.022683751  0.022526698            4 
 1097000   0.81014049   -7.5094855      297.703  0.022614934   0.02251044            3 
 1098000   0.81448692   -7.4797714    298.41417  0.022648313  0.022494148            1 
 1099000   0.79344624   -7.4908433    298.68384  0.022648153  0.022478028            6 
 1100000   0.81109131   -7.4956884    298.62048  0.022622764  0.022461935            5 
 1101000   0.82198867   -7.4903177    298.90672  0.022623881  0.022445835            4 
 1102000   0.82336291   -7.4914369    298.75086  0.022591565  0.022429623            4 
 1103000   0.82486141   -7.5068243     298.4254  0.022546495  0.022413377            4 
 1104000   0.80810742   -7.5267915    298.43618  0.022526885  0.022397198            2 
 1105000   0.81796254    -7.506862    298.73595  0.022529106  0.022380937            5 
 1106000   0.79746524   -7.5155779    298.66378  0.022503298    0.0223647            6 
 1107000   0.82200939   -7.5057527    298.65911  0.022482619   0.02234837            4 
 1108000   0.79660063   -7.5139067    297.68582  0.022389126  0.022331943            2 
 1109000   0.81081511   -7.4837078     299.0693  0.022472896   0.02231561            3 
 1110000   0.80171251   -7.4976665     298.8253  0.022434332   0.02229933            5 
 1111000   0.82793954   -7.4935462    299.54096  0.022467819  0.022283019           10 
 1112000   0.79144495   -7.5191155    298.50615  0.022370065  0.022266717            3 
 1113000   0.80189165   -7.5230241    298.76056  0.022369015  0.022250262            5 
 1114000   0.78946607   -7.4739733    298.95015  0.022363117  0.022233995            3 
 1115000   0.79491697   -7.4759556    299.24144  0.022364831  0.022217638            4 
 1116000   0.80094584    -7.530055    299.07014  0.022331999  0.022201229            3 
 1117000   0.81433139   -7.5267142    299.58675  0.022350548  0.022184757            2 
 1118000   0.82138317   -7.5067168    298.03585  0.022214956  0.022168413            4 
 1119000   0.80833864    -7.520302    299.56391    0.0223089  0.022152199            3 
 1120000    0.8067204   -7.5379247    299.41691  0.022278044  0.022135966            4 
 1121000   0.81004965   -7.5321232    298.82126  0.022213891  0.022119628            5 
 1122000   0.80072142   -7.5101413    300.04324  0.022284852  0.022103271            4 
 1123000   0.81534769   -7.5201727    299.42435  0.022219082   0.02208703            3 
 1124000   0.81639625   -7.5085332    299.84876   0.02223078  0.022070816            4 
 1125000   0.80629818   -7.5299832    300.29594  0.022244143    0.0220547            5 
 1126000   0.80084682   -7.5174645    299.91945  0.022196525  0.022038614            6 
 1127000   0.81261326   -7.5399076    299.53604   0.02214848  0.022022628            3 
 1128000   0.81091687    -7.531485    300.26602  0.022182774  0.022006551            4 
 1129000   0.80526124   -7.5420893    299.92782  0.022138162  0.021990501            2 
 1130000   0.81943903   -7.5422683    300.79672  0.022182649   0.02197442            5 
 1131000   0.80863512    -7.546043    300.98356  0.022176802   0.02195837            3 
 1132000   0.80335426   -7.5297856    300.23158  0.022101853  0.021942485            6 
 1133000   0.79415208   -7.5109709    301.03215  0.022141229  0.021926659            4 
 1134000   0.81445336   -7.5182723    301.19597  0.022133743  0.021910831            2 
 1135000   0.80314922   -7.5114872    301.32161  0.022123466  0.021894933            4 
 1136000   0.77647102   -7.5038591    300.62828  0.022053131  0.021879096            5 
 1137000   0.80579838    -7.554823    300.19652   0.02200209  0.021863183            2 
 1138000   0.79696347   -7.5143018     301.1078  0.022049487  0.021847263            3 
 1139000   0.80525939   -7.5412823    302.05616  0.022099514  0.021831429            5 
 1140000   0.79511401   -7.5463608    300.97626  0.022001189  0.021815501            2 
 1141000   0.79023256   -7.5333542    300.91221  0.021977229  0.021799636            4 
 1142000   0.78983175   -7.5547977    301.39548  0.021993248  0.021783822            2 
 1143000    0.7873318   -7.5380266    301.64638    0.0219923   0.02176807            4 
 1144000   0.80385977   -7.5326251    301.73177  0.021979295  0.021752157            3 
 1145000   0.80055491   -7.5571602    300.90024  0.021899581  0.021736217            7 
 1146000   0.80462261   -7.5438072    301.45799  0.021921029  0.021720201            7 
 1147000   0.82313491   -7.5540064    301.65844   0.02191648  0.021704259            4 
 1148000   0.78583555   -7.5730582    300.90245  0.021842513  0.021688334            5 
 1149000   0.78679022   -7.5897622    301.20433  0.021845396  0.021672333            2 
 1150000   0.80031082   -7.5377858     301.6762  0.021860594  0.021656458            5 
 1151000   0.78426032   -7.5493338     302.8961  0.021929923  0.021640641            4 
 1152000   0.79245489   -7.5345736    302.04086   0.02184902  0.021624835            5 
 1153000   0.77494379   -7.5615768    301.35675  0.021780626  0.021608944            4 
 1154000   0.79349606   -7.5488479    302.07598   0.02181369  0.021593066            3 
 1155000   0.79810961   -7.5400911    301.99384  0.021788877  0.021577269            6 
 1156000   0.80116654   -7.5277452    302.02253  0.021772097  0.021561537            2 
 1157000   0.79707009   -7.5584917    301.46691  0.021713261   0.02154583            2 
 1158000    0.7892766   -7.5744421    302.16043  0.021744418   0.02153008            3 
 1159000   0.77971129   -7.5444087    302.47051  0.021747951  0.021514388            3 
 1160000   0.77966129   -7.5697207     302.6719  0.021743671  0.021498834            4 
 1161000   0.80200707   -7.5668951    303.15893    0.0217599   0.02148334            3 
 1162000   0.79467062   -7.5665797      303.054  0.021733649  0.021467857            2 
 1163000   0.78979523   -7.5661777    303.13511  0.021720773  0.021452343            4 
 1164000   0.77819387    -7.559227    303.27327  0.021712004  0.021436908            5 
 1165000    0.7786364   -7.5476689    303.68858  0.021723075  0.021421545            7 
 1166000    0.8032404   -7.5684699    304.06312  0.021731212  0.021406189            3 
 1167000   0.77091806   -7.5853928     303.7644  0.021691259   0.02139081            5 
 1168000   0.79858716   -7.5686802    303.52673  0.021655732  0.021375347            3 
 1169000    0.7914481   -7.5736328    303.23398  0.021616338  0.021359928            4 
 1170000   0.77066629   -7.5766566    303.50028  0.021616829  0.021344584            3 
 1171000   0.78015553   -7.5511505    303.78833  0.021618868  0.021329289            5 
 1172000   0.78070935   -7.5609057    304.45054  0.021647507  0.021313945            3 
 1173000   0.78255429   -7.5870863    303.78642  0.021581871  0.021298576            5 
 1174000   0.78492608   -7.5804694    304.38269  0.021605813  0.021283094            4 
 1175000   0.78551296   -7.5839616    303.80733  0.021546619  0.021267701            3 
 1176000   0.79496279   -7.6117314    304.10158  0.021549148  0.021252185            3 
 1177000   0.77615296   -7.6280433     303.8082  0.021510068  0.021236647            3 
 1178000   0.77617024   -7.5823043    304.42967  0.021535772  0.021221149            3 
 1179000   0.78102132   -7.5928501    304.13821  0.021496905  0.021205763            4 
 1180000   0.77394512   -7.5901343    304.00087  0.021468988  0.021190395            7 
 1181000   0.80023386   -7.5708506    304.99068  0.021520652   0.02117512            6 
 1182000    0.7944705   -7.5640194    303.77822  0.021416964  0.021159878            3 
 1183000   0.77831113   -7.5764698    304.92717  0.021479795  0.021144614            5 
 1184000    0.7706121   -7.5834575    304.95382  0.021463529  0.021129298            2 
 1185000   0.78748072   -7.6033026    304.82876  0.021436622  0.021113971            3 
 1186000   0.77344747   -7.5943952    304.80407  0.021416812  0.021098702            3 
 1187000   0.79534404   -7.5786765    304.52555  0.021379216   0.02108346            4 
 1188000   0.77320926    -7.561648    305.55453  0.021433399  0.021068359            3 
 1189000   0.80105393   -7.5751177    305.51129  0.021412341  0.021053285            4 
 1190000    0.7657607   -7.5781356    305.12623  0.021367383  0.021038234            8 
 1191000   0.76491267   -7.5405268    305.57685  0.021380972  0.021023173            8 
 1192000    0.7942176   -7.6039812    304.80295  0.021308931  0.021008069            5 
 1193000    0.7825058   -7.5741094    305.87985  0.021366293  0.020992933            5 
 1194000   0.76600038   -7.5995391    305.09123  0.021293358  0.020977696            2 
 1195000   0.77923949   -7.6087546    304.70322  0.021248481  0.020962509            6 
 1196000   0.77224056   -7.5946057     305.8786  0.021312611   0.02094734            3 
 1197000   0.77536128   -7.6107989    305.94852  0.021299674  0.020932145            3 
 1198000   0.77424192   -7.6276021    305.10928  0.021223517  0.020916962            2 
 1199000   0.77858789   -7.6143578    305.33121  0.021221241  0.020901714            3 
 1200000   0.78358691   -7.6148412    304.92863  0.021175599  0.020886352            4 
 1201000   0.77921956   -7.6098132    305.02638  0.021164751  0.020871073            4 
 1202000     0.761042   -7.6106477    305.50095  0.021180044  0.020855771            2 
 1203000   0.79462387   -7.5920395    305.72615  0.021178038  0.020840515            3 
 1204000   0.75749427    -7.594579    305.67141  0.021156659  0.020825332            2 
 1205000   0.76331694   -7.5737976    305.94365  0.021157928  0.020810194            2 
 1206000   0.76881158   -7.5864176    306.37862  0.021170441  0.020795056            2 
 1207000   0.76726134   -7.6210017    305.35482  0.021082216  0.020779987            3 
 1208000   0.77763151   -7.6036609    305.67219  0.021086658  0.020764855            3 
 1209000   0.78090614   -7.6111785    305.86803  0.021082715  0.020749774            4 
 1210000   0.77323208   -7.6082024    305.83771  0.021063203  0.020734745            5 
 1211000   0.77685702   -7.5788839    306.44729  0.021087758  0.020719635            3 
 1212000   0.76863027   -7.6146494    305.70396  0.021019249  0.020704672            5 
 1213000   0.76888512   -7.5904904    306.32411  0.021044525  0.020689685            1 
 1214000    0.7586186   -7.6019578    306.39303  0.021031921  0.020674685            7 
 1215000   0.76932418   -7.5847235    306.84805   0.02104582  0.020659672            4 
 1216000   0.76934192   -7.6110465    306.14137  0.020980083  0.020644634            2 
 1217000   0.76984625   -7.5980871    307.05841  0.021025637  0.020629526            6 
 1218000   0.75363384   -7.6248586     306.1935  0.020949199  0.020614371            4 
 1219000   0.76746752   -7.6106587    306.02568  0.020920541   0.02059926            3 
 1220000   0.77371508   -7.6485444    306.51672  0.020936935  0.020584187            4 
 1221000   0.76852783   -7.6232664    306.49653  0.020918409  0.020569159            2 
 1222000   0.76923434   -7.6183993    306.93032  0.020930873  0.020554161            2 
 1223000   0.74246812   -7.6284209    306.61539  0.020892299  0.020539148            2 
 1224000   0.76805353   -7.6223309    306.88068  0.020893293  0.020524175            2 
 1225000   0.76615978   -7.6394408    306.85201  0.020874287  0.020509173            2 
 1226000   0.75949829   -7.6092613    306.58372  0.020839024  0.020494164            3 
 1227000   0.76499971     -7.60321    307.15786  0.020861034  0.020479206            3 
 1228000   0.76907642   -7.6192482     307.7417  0.020883666  0.020464318            3 
 1229000   0.76069636   -7.6018095    307.35285  0.020840307  0.020449509            2 
 1230000   0.76393114   -7.6291044    306.57515  0.020770674   0.02043465            3 
 1231000   0.77415021   -7.6526981    307.33241  0.020805065  0.020419815            5 
 1232000   0.74850538   -7.6031412    307.61358  0.020807196  0.020404967            6 
 1233000    0.7645753    -7.618924    307.93338  0.020811934  0.020390146            3 
 1234000   0.76060123   -7.6476857    306.60653  0.020705465  0.020375343            7 
 1235000   0.76678062   -7.6326588    307.08564  0.020721028  0.020360465            4 
 1236000   0.76248365   -7.6457809    307.62192  0.020740421  0.020345658            4 
 1237000    0.7653381   -7.6327484    307.62259  0.020723699   0.02033079            3 
 1238000   0.77405877   -7.6470669    307.11219  0.020672603  0.020315947            7 
 1239000   0.75477016   -7.6444545    307.46965   0.02067996  0.020301048            5 
 1240000   0.74790172    -7.629176    307.72306  0.020680313  0.020286315            6 
 1241000   0.75738141   -7.5923252    308.75067  0.020732653  0.020271558            3 
 1242000   0.77121364   -7.6377647    308.07943  0.020670923  0.020256915            6 
 1243000   0.75028332   -7.6449418    307.90138  0.020642356  0.020242228            6 
 1244000   0.77587251   -7.6182938    307.99228  0.020631852  0.020227525            4 
 1245000   0.75376818   -7.6546744     307.7166  0.020596828  0.020212816            3 
 1246000   0.77439269   -7.6375954    308.64446  0.020642353  0.020198059            3 
 1247000   0.75428289   -7.6555587    307.74537  0.020565715  0.020183278            2 
 1248000   0.76977886   -7.6576016    308.24105  0.020582335  0.020168437            4 
 1249000   0.74759678   -7.6522397    308.19085  0.020562507  0.020153642            5 
 1250000   0.76225354   -7.6418756    308.29169  0.020552779  0.020138843            3 
 1251000   0.76907402   -7.6657961    307.35385  0.020473877  0.020124055           12 
 1252000   0.75186332   -7.6770984    308.73963  0.020549763  0.020109322            3 
 1253000   0.75244478   -7.6634086    308.83285  0.020539562  0.020094587            3 
 1254000   0.76033274   -7.6439788    308.11948  0.020475776  0.020079821            5 
 1255000   0.74621639   -7.6387358    308.57937  0.020489998  0.020065081            5 
 1256000   0.74284868    -7.686583    309.05091   0.02050497  0.020050363            2 
 1257000   0.75853745   -7.6545166    308.57488  0.020457099  0.020035678            3 
 1258000   0.75007537   -7.6711677    308.46151  0.020433327  0.020020937            3 
 1259000   0.74084706   -7.6584068    308.43501  0.020415344   0.02000624            5 
 1260000   0.74514632   -7.6571434    308.22864  0.020385492  0.019991476            4 
 1261000   0.76120367   -7.6775563    307.73367  0.020336616  0.019976732            2 
 1262000   0.74702999   -7.6700406    308.46348  0.020368693  0.019961974            2 
 1263000    0.7620036   -7.6747729    308.28725  0.020340938  0.019947273            3 
 1264000   0.74165805   -7.6411876    308.99818  0.020371715   0.01993262            3 
 1265000   0.72926231   -7.6431187    308.70033   0.02033599  0.019918059           13 
 1266000   0.74324404   -7.6400187    309.13123   0.02034829  0.019903509            4 
 1267000   0.75206324   -7.6526931    309.24453  0.020339682  0.019888885            4 
 1268000   0.74577803    -7.682746    309.24117  0.020323421  0.019874295            3 
 1269000   0.74871187   -7.6335438    308.77518  0.020276804  0.019859679            2 
 1270000    0.7468983   -7.6443315    309.29354  0.020294852  0.019845069            5 
 1271000   0.75619269   -7.6633248    309.25785  0.020276544  0.019830555            8 
 1272000   0.74242474   -7.6397534    309.12144  0.020251667  0.019816063            2 
 1273000   0.74933261   -7.6361925    309.47639  0.020258994   0.01980155            2 
 1274000   0.74357891   -7.7019849    309.18767  0.020224207   0.01978706            2 
 1275000    0.7440145   -7.6530627    309.37901  0.020220851  0.019772478            3 
 1276000   0.72055485   -7.6480743     309.4767  0.020211383  0.019757908            6 
 1277000   0.74218386    -7.657303    309.61538  0.020204606  0.019743324            2 
 1278000   0.74652083     -7.68219    308.96223  0.020146207  0.019728746            3 
 1279000   0.74417232   -7.6820148    309.50524  0.020165835  0.019714183            5 
 1280000   0.75346801   -7.6498859    309.36762  0.020141121  0.019699675            5 
 1281000    0.7300735   -7.6252757    309.85249  0.020156941  0.019685115            3 
 1282000    0.7467336   -7.6847476    309.26774  0.020103207  0.019670558            3 
 1283000   0.74067001   -7.6539331    308.74742  0.020053743  0.019656014            4 
 1284000   0.72870126   -7.6649972    308.84096  0.020044195  0.019641488            6 
 1285000    0.7406715   -7.6700073    309.61073  0.020078517  0.019626958            2 
 1286000   0.75294243   -7.6620388    309.62998  0.020064151   0.01961242            2 
 1287000   0.73571939   -7.6933527      309.832  0.020061642  0.019597853            3 
 1288000   0.73006553   -7.6723497    309.64053  0.020033678  0.019583359            3 
 1289000   0.74096961   -7.7003564    308.38116  0.019936718  0.019568797            5 
 1290000    0.7392757   -7.7035082    309.20165  0.019974267  0.019554157            3 
 1291000   0.72975769   -7.6754328    308.38065    0.0199058  0.019539523            3 
 1292000    0.7482538   -7.6695688    309.10813  0.019937315  0.019524925            4 
 1293000   0.74658612   -7.6910564    309.06917  0.019919385  0.019510315            3 
 1294000   0.72649042   -7.6888912    309.87344  0.019955786  0.019495727            8 
 1295000   0.74387371   -7.6948742    309.24928  0.019900211  0.019481132            9 
 1296000   0.72374604   -7.7054834    309.37692  0.019893063  0.019466572            6 
 1297000   0.73954054    -7.682902    309.98968  0.019917096  0.019451998            4 
 1298000   0.73326119   -7.6972366    308.95775    0.0198355  0.019437498            7 
 1299000   0.73990371   -7.6959588    309.12869  0.019831197  0.019422967            5 
 1300000   0.73904454   -7.6979033    309.69141  0.019852014  0.019408448            3 
 1301000   0.73560751   -7.6763851    310.01689  0.019857603  0.019394008            2 
 1302000   0.74755747   -7.6921028    309.28791  0.019795693  0.019379498            5 
 1303000    0.7242614   -7.7058964     309.1434  0.019771259  0.019365004            4 
 1304000   0.72300878   -7.6705315    310.21694  0.019824702  0.019350568            2 
 1305000   0.73282981   -7.6982923    310.02214  0.019797072  0.019336169            6 
 1306000   0.71577091   -7.6699338    309.89992  0.019774114  0.019321762            2 
 1307000   0.72615217   -7.6913588     310.7175  0.019811113  0.019307433            2 
 1308000    0.7326543   -7.7148829    309.96401  0.019747962  0.019293125            3 
 1309000   0.74135682   -7.6993323    310.69346  0.019779314  0.019278765            5 
 1310000   0.72233508   -7.6676573    310.17546  0.019731263  0.019264485            5 
 1311000   0.73165203   -7.6692532    310.67653  0.019748063  0.019250238            5 
 1312000   0.73018139   -7.6939068    310.12255  0.019697825  0.019236029            5 
 1313000   0.73287216    -7.703971    310.91835   0.01973333  0.019221822            7 
 1314000   0.74375491   -7.6847531    310.35398   0.01968252  0.019207619            3 
 1315000   0.74683566   -7.6991493    310.44929  0.019673592  0.019193342            7 
 1316000   0.74060062   -7.6885837    311.36058  0.019716349  0.019179095            5 
 1317000   0.73303945   -7.6955448    310.97562   0.01967702  0.019164869            3 
 1318000   0.72606952   -7.7021833    310.48035  0.019630776  0.019150551            3 
 1319000   0.74051533   -7.7014631    310.99865  0.019648639  0.019136349            5 
 1320000   0.72275682   -7.7184976    310.19234   0.01958285  0.019122102            4 
 1321000   0.72432706   -7.6927824    310.58499  0.019592795  0.019107819            3 
 1322000   0.71405005   -7.6994352    310.43521  0.019568533  0.019093547            3 
 1323000    0.7284575    -7.717653     310.9403  0.019585557  0.019079291            3 
 1324000   0.72680754   -7.7125958    310.32254  0.019531882  0.019065054            2 
 1325000   0.71961706   -7.7433548    310.83309  0.019549251   0.01905082            7 
 1326000   0.70762683   -7.7059901    311.12602  0.019552917   0.01903657            3 
 1327000   0.73132915   -7.7073708    311.03746  0.019532621  0.019022276            2 
 1328000   0.70797753   -7.7076178    310.77074  0.019501176  0.019007968            5 
 1329000    0.7197759   -7.7551645    310.60181   0.01947591  0.018993639            5 
 1330000   0.74645652   -7.7297319    311.02975   0.01948808  0.018979342            2 
 1331000   0.73581148   -7.7327414    311.15946  0.019481559  0.018965131            5 
 1332000   0.72173623   -7.7260463    310.52152  0.019427022  0.018950873            4 
 1333000   0.70729468   -7.7211462    310.62051  0.019418636  0.018936608            4 
 1334000   0.72486119   -7.7116808    310.78533  0.019414376   0.01892233            3 
 1335000   0.71637634   -7.7679952    310.86177  0.019404605  0.018908092            3 
 1336000   0.71746116    -7.708479    310.63561  0.019375974  0.018893854            2 
 1337000   0.71079446   -7.7136947    311.28893  0.019402202  0.018879693            6 
 1338000   0.71006118   -7.7300631    310.88373  0.019362464  0.018865521            6 
 1339000    0.7174242    -7.719319    311.78331   0.01940399  0.018851353            3 
 1340000   0.72094283   -7.7205223    311.02195  0.019342161  0.018837135            8 
 1341000     0.715282   -7.7185244    310.76671  0.019311876  0.018822941            2 
 1342000   0.71557841   -7.7452304    310.93802  0.019308124  0.018808755            6 
 1343000   0.70773066   -7.7499428    310.66307  0.019276686  0.018794555            3 
 1344000   0.70845674   -7.7277237    311.37898  0.019306732  0.018780342            9 
 1345000    0.7213437   -7.7133262    311.21529  0.019282236  0.018766171           11 
 1346000   0.72448695   -7.7431137    310.70978  0.019236613  0.018752007            4 
 1347000   0.71021866   -7.7399866    310.81991  0.019229145  0.018737822            2 
 1348000   0.71196569   -7.7373555    310.72228  0.019208845  0.018723624            3 
 1349000   0.74419626   -7.7470442    310.93107  0.019207504   0.01870946            5 
 1350000   0.70919119     -7.75117    311.29091  0.019215488   0.01869529            3 
 1351000   0.69950786   -7.7384422    310.96763  0.019181324  0.018681157            5 
 1352000   0.72023341   -7.7334676    311.56366  0.019203875   0.01866705            5 
 1353000   0.72235484   -7.7449053    311.26546  0.019171315  0.018652869            8 
 1354000   0.70454394   -7.7586788    311.35256  0.019162516  0.018638735            4 
 1355000   0.69496058    -7.728885    311.57981   0.01916235   0.01862463            4 
 1356000   0.70109855    -7.734394    311.28526  0.019130117  0.018610577            3 
 1357000   0.70651899   -7.7632045    311.05996  0.019102184  0.018596497            7 
 1358000   0.71125706   -7.7404789    311.22379  0.019098171  0.018582492            6 
 1359000   0.70721052    -7.757478    311.71416  0.019114187  0.018568567            3 
 1360000   0.71327502   -7.7410444    311.23426  0.019070727  0.018554583            7 
 1361000   0.70514623   -7.7672051    311.72414  0.019086709  0.018540634            4 
 1362000   0.70837355   -7.7325809    311.89182  0.019082955  0.018526648            2 
 1363000   0.72182076   -7.7403159    312.00178  0.019075677  0.018512677            6 
 1364000   0.69938503   -7.7502986    312.07858  0.019066385  0.018498664            3 
 1365000   0.70634629   -7.7295892    312.33543  0.019068097  0.018484729            6 
 1366000   0.70800725   -7.7566416    312.53266   0.01906617  0.018470815            5 
 1367000   0.69697187   -7.7652417    312.23094  0.019033829  0.018456917            3 
 1368000   0.69864349   -7.7595511      311.838  0.018995979  0.018443028            4 
 1369000   0.69051482   -7.7593055    312.41398  0.019017165   0.01842913            5 
 1370000   0.73460821   -7.7851371     312.1066  0.018984586  0.018415221            7 
 1371000   0.69753879   -7.7878428    311.61849   0.01894107  0.018401258            5 
 1372000    0.7060782   -7.7686493    311.59621  0.018925912  0.018387274            3 
 1373000   0.71266267   -7.7950023    311.28711  0.018893367  0.018373243            4 
 1374000   0.70027381   -7.7831731    311.90967  0.018917374  0.018359232            5 
 1375000   0.69337783   -7.7754806    311.03471  0.018850588  0.018345261            4 
 1376000   0.69892078   -7.7706696    312.19851  0.018907371  0.018331268            4 
 1377000   0.70935681   -7.7785767     311.3625  0.018843047  0.018317326            4 
 1378000   0.70828211   -7.7853379    312.39069  0.018891551  0.018303415            3 
 1379000   0.71070713    -7.764536     311.7873  0.018841389  0.018289506            4 
 1380000   0.70732949    -7.779779    311.88352  0.018833546  0.018275659            4 
 1381000   0.69980482   -7.7785555    311.61806   0.01880389  0.018261746            4 
 1382000   0.69834217   -7.7717802    311.53249  0.018785124   0.01824786            4 
 1383000   0.69952723   -7.7586674    311.90707  0.018794111   0.01823397            1 
 1384000   0.68634202   -7.7730421    312.04137  0.018788618  0.018220088            6 
 1385000   0.70579761   -7.7777603    311.58569  0.018747635  0.018206212            3 
 1386000   0.69495929   -7.7712682    311.61642  0.018735956   0.01819233            6 
 1387000   0.70335474   -7.7849331    311.43827  0.018711744  0.018178433            8 
 1388000   0.67862154    -7.768826    312.28733  0.018749239  0.018164515            4 
 1389000   0.71073219   -7.7556336    311.93657  0.018714697  0.018150639            4 
 1390000   0.70002697      -7.8023    311.27887  0.018661803  0.018136734            4 
 1391000   0.68710774   -7.7852925    312.00511  0.018691895  0.018122746            6 
 1392000   0.70361543   -7.7873222    311.88566  0.018671316  0.018108798            7 
 1393000   0.70580865   -7.7944927     311.1864   0.01861608  0.018094855            3 
 1394000   0.68813866   -7.8036396    311.45844  0.018618988  0.018080911            4 
 1395000   0.71150019   -7.7773128    311.63373  0.018616113  0.018067006            4 
 1396000   0.69140501   -7.7651558    312.05828  0.018628121  0.018053154            7 
 1397000    0.7170647   -7.7971368    311.88998  0.018604747  0.018039295            6 
 1398000   0.70642604   -7.7771054     311.5421  0.018570702  0.018025422            6 
 1399000   0.69208182   -7.7949989    312.03546  0.018586816  0.018011565            4 
 1400000   0.68942878   -7.7788491    312.17822  0.018582037  0.017997714            5 
 1401000   0.69003846   -7.8045945    311.85427  0.018549504  0.017983824            4 
 1402000    0.7104097   -7.8102516    311.60306  0.018521342  0.017969957            2 
 1403000   0.68608076   -7.7978814    311.84032  0.018522233  0.017956056            3 
 1404000   0.69857159   -7.8096469    311.81496  0.018507536  0.017942132            2 
 1405000   0.69046101   -7.7867703    311.49607  0.018475449  0.017928264            3 
 1406000   0.69090352   -7.7954181    311.98897  0.018491522  0.017914393            4 
 1407000   0.69095247   -7.7853719    311.58624  0.018454527  0.017900576            4 
 1408000    0.6848528   -7.8158632     311.9617  0.018463642  0.017886757            5 
 1409000   0.69509494    -7.803036    312.63643  0.018490444  0.017872962            6 
 1410000   0.68438029   -7.8153741    311.84794  0.018430729  0.017859143            4 
 1411000   0.66930637   -7.8059756    312.19603  0.018438225   0.01784535            4 
 1412000   0.69113499   -7.7841531    312.11255   0.01842024  0.017831625            4 
 1413000    0.6963247   -7.8071597    311.70419   0.01838312  0.017817902            5 
 1414000   0.68168461    -7.784492    312.50709  0.018417438  0.017804197            6 
 1415000   0.68269535   -7.8102801    311.78442  0.018361862  0.017790498            4 
 1416000   0.68725405   -7.7813385    312.44028  0.018387493  0.017776797            4 
 1417000   0.69574792   -7.8234491    311.71619  0.018331933  0.017763089            2 
 1418000    0.6884113   -7.8048226    312.35069  0.018356293  0.017749408            6 
 1419000   0.69416995   -7.7924929    312.49687  0.018351942  0.017735766            4 
 1420000   0.69349821   -7.7961319    312.60536  0.018345385   0.01772213            3 
 1421000   0.66614237   -7.8144283    313.20681  0.018367747  0.017708483            7 
 1422000   0.67747465   -7.8304832    311.32494  0.018244546  0.017694746            2 
 1423000   0.67971074    -7.830505    312.20563    0.0182833  0.017681026            4 
 1424000   0.67876081   -7.8058301    311.76204  0.018244502  0.017667313            6 
 1425000   0.69217999   -7.8117493    311.80807   0.01823439  0.017653645            6 
 1426000   0.68933468   -7.7928943    312.36104  0.018253918  0.017640021            8 
 1427000   0.69169978   -7.8295154    311.96862  0.018218209  0.017626398            8 
 1428000   0.67209136   -7.8165512    312.07351  0.018211573  0.017612745            5 
 1429000   0.69484897   -7.8123191    312.14498  0.018202996  0.017599089            3 
 1430000   0.68545342   -7.8202592    312.04898  0.018184672  0.017585417            6 
 1431000   0.68610685   -7.7960495    312.54003  0.018200561  0.017571782            5 
 1432000   0.68343044   -7.8181083    312.97136  0.018212952  0.017558151            4 
 1433000   0.67180338   -7.8203689    312.97796  0.018200626  0.017544583            5 
 1434000   0.68883019   -7.8076266    312.49972  0.018160142   0.01753101            5 
 1435000   0.68781729   -7.8133977    312.17705  0.018128749  0.017517416            9 
 1436000   0.69118532   -7.8171383    312.39549  0.018128801  0.017503862            5 
 1437000   0.68134136   -7.8143873    312.26382  0.018108549  0.017490301            4 
 1438000   0.67843278   -7.8268599    312.01638  0.018081617  0.017476705            4 
 1439000   0.68197002   -7.8210036    312.02716  0.018069675  0.017463078            7 
 1440000   0.66170126   -7.8229752     312.2108  0.018067755  0.017449491            4 
 1441000   0.67968663   -7.8507683    311.61667  0.018020858  0.017435863            3 
 1442000   0.67585388   -7.8411765    311.73233  0.018015045  0.017422265            6 
 1443000   0.67594218    -7.824873    312.29472  0.018035038  0.017408689            4 
 1444000   0.68628591     -7.83917    312.65393  0.018043279  0.017395129            5 
 1445000   0.69730331   -7.8148257    311.71506  0.017976647  0.017381552            5 
 1446000   0.67204146   -7.8464968    311.79213  0.017968657   0.01736802            4 
 1447000   0.68187791    -7.826059    311.35414  0.017931014  0.017354468           10 
 1448000   0.66835615   -7.8212657    311.52935  0.017928715   0.01734092            8 
 1449000   0.67323055   -7.8378488    312.17518  0.017953484  0.017327395            4 
 1450000    0.6573922   -7.8325234    312.60283   0.01796568  0.017313862            8 
 1451000   0.67943074   -7.8524361    312.40138  0.017941728  0.017300356            5 
 1452000   0.67513216   -7.8370865    311.82738  0.017896429  0.017286876            3 
 1453000   0.67116117   -7.8333785    312.83615  0.017941968  0.017273432            4 
 1454000   0.68093148   -7.8123663    312.66515  0.017919828  0.017260014            5 
 1455000   0.69163116   -7.8329813    312.51157  0.017898716  0.017246566            9 
 1456000   0.68229292    -7.847325     312.2957  0.017874067  0.017233079            5 
 1457000   0.66642033   -7.8531078    312.18136   0.01785526  0.017219586            8 
 1458000   0.66204309   -7.8471069    311.36584  0.017796402  0.017206054            9 
 1459000   0.67724939   -7.8523491    311.39927  0.017786113    0.0171925            4 
 1460000    0.6699674    -7.866199    311.44817  0.017776722  0.017178966            6 
 1461000   0.65495627   -7.8474075    311.90309  0.017790502  0.017165444            4 
 1462000   0.68549102   -7.8358812    312.14935   0.01779237  0.017151942            3 
 1463000   0.67075317   -7.8641539    312.06012  0.017775126  0.017138447            5 
 1464000   0.67300006   -7.8542824    311.41435  0.017726226  0.017124937            6 
 1465000   0.67365365   -7.8815958     311.3086  0.017708111  0.017111407            4 
 1466000   0.66289959   -7.8532122    311.26696  0.017693666  0.017097857            6 
 1467000   0.65778632   -7.8421118    312.11032  0.017729512  0.017084367            4 
 1468000   0.66255601   -7.8359076    311.92243  0.017706768  0.017070886            4 
 1469000     0.666198   -7.8813794    311.80602  0.017688111  0.017057448            6 
 1470000   0.66941023   -7.8641019    311.82718  0.017677278  0.017044023            3 
 1471000   0.67233089   -7.8444352    312.37475  0.017696281  0.017030598            5 
 1472000   0.65589764   -7.8677824    311.80455  0.017651979  0.017017195            5 
 1473000   0.66903303   -7.8459604    311.78354  0.017638806  0.017003758            4 
 1474000   0.66547656   -7.8663654    311.64872  0.017619217  0.016990336            5 
 1475000   0.66666017   -7.8781449    312.01853  0.017628166  0.016976892            5 
 1476000   0.66360774   -7.8618218    312.00354  0.017615376   0.01696345            4 
 1477000   0.66585805   -7.8661964    310.92594  0.017542651  0.016950041            5 
 1478000   0.65744864    -7.867711     312.2765  0.017606929  0.016936654            8 
 1479000   0.66902289   -7.8617806    311.90235  0.017573944  0.016923269            6 
 1480000   0.65289009   -7.8713673    311.83607  0.017558337  0.016909919            5 
 1481000   0.64898799    -7.836705    311.97061  0.017554052  0.016896595            5 
 1482000   0.66811359   -7.8493186    311.44335  0.017512559  0.016883289            8 
 1483000    0.6626783   -7.8602971    312.02866   0.01753364  0.016869949            4 
 1484000   0.66572524   -7.8901445    312.15106  0.017528698  0.016856637            5 
 1485000   0.65003428   -7.8708412    312.25293  0.017522611  0.016843307            5 
 1486000   0.66112162   -7.8808313    312.26024  0.017511229  0.016830016            5 
 1487000   0.65488813   -7.8777143    312.05573  0.017487992  0.016816723            5 
 1488000   0.66360852   -7.8879601    311.73256  0.017458141  0.016803424           16 
 1489000   0.65403513   -7.8836736    311.30526  0.017422501   0.01679016            6 
 1490000   0.64995481   -7.8592224    311.86075  0.017441876  0.016776865            9 
 1491000   0.65562218   -7.9059919    311.89783  0.017432251  0.016763573            4 
 1492000    0.6533461   -7.8965573     311.4342  0.017394672  0.016750294            8 
 1493000   0.67577381    -7.886141    311.65109  0.017395127  0.016737026            6 
 1494000   0.66458246   -7.8638918    312.59276  0.017436009  0.016723812            5 
 1495000   0.67271824   -7.8956647     311.6914  0.017374103  0.016710606            6 
 1496000   0.64066987   -7.8898506    311.66533  0.017361036  0.016697362            6 
 1497000   0.66428517   -7.8839229    311.90859  0.017362981   0.01668415            7 
 1498000   0.65605748   -7.8904611    312.16976  0.017365919   0.01667095            5 
 1499000   0.65544819   -7.8798858    312.50087  0.017372741  0.016657772            4 
 1500000   0.66226471   -7.9038863    311.80486  0.017322492  0.016644565            3 
 1501000   0.64639718   -7.8788125    311.93945  0.017318424  0.016631433            3 
 1502000   0.66828589   -7.8891147      311.894  0.017304372  0.016618315           12 
 1503000   0.66607771    -7.879286    311.70397  0.017282322  0.016605146            3 
 1504000   0.66177419   -7.8959485    312.47988  0.017313823  0.016591998            7 
 1505000   0.64768061   -7.8929961    311.97906  0.017274588  0.016578815            4 
 1506000   0.64952882   -7.9067161    312.48608  0.017291173  0.016565647            8 
 1507000   0.63583325   -7.8854772    312.17002  0.017262222    0.0165525            6 
 1508000   0.64590894   -7.8723831    312.44255  0.017265835  0.016539383            5 
 1509000   0.65357198   -7.8977454    311.96149  0.017227827  0.016526296            6 
 1510000   0.65381476    -7.920294    311.61157  0.017197106  0.016513171            4 
 1511000   0.65672996   -7.9058502    312.11676  0.017213587  0.016500044            2 
 1512000   0.65766278   -7.9243677     312.1482  0.017203935  0.016486925            6 
 1513000   0.64276163   -7.9076625    311.71744  0.017168839  0.016473813            3 
 1514000   0.64747802   -7.8719944    312.06159  0.017176441  0.016460713            3 
 1515000   0.62894603   -7.9071181    312.00194  0.017161823  0.016447619            6 
 1516000   0.63468268   -7.9010681    312.13962  0.017158071   0.01643457            5 
 1517000   0.63944935    -7.908815    312.46662  0.017164723  0.016421526            6 
 1518000   0.65759954    -7.897251    312.54815  0.017157892  0.016408521            3 
 1519000   0.62843415   -7.8767553    311.99741  0.017116382  0.016395509            6 
 1520000   0.65355133    -7.893385    312.45724  0.017130331  0.016382505            6 
 1521000   0.65515219   -7.9182518    311.23574  0.017052144  0.016369508            3 
 1522000   0.64688913   -7.9183262    311.50358  0.017055606  0.016356539            8 
 1523000   0.64687323    -7.917243    311.82673  0.017062089  0.016343529            3 
 1524000   0.66045783   -7.9289552    312.02734  0.017061862  0.016330533            3 
 1525000   0.63434853    -7.901058    312.13492  0.017056553  0.016317558            4 
 1526000    0.6418798    -7.919141    312.00588  0.017038329  0.016304611            6 
 1527000   0.63769064   -7.9067264    312.04835  0.017029489  0.016291653            5 
 1528000   0.64764088   -7.8882825    312.58147  0.017047419  0.016278719            3 
 1529000   0.64317755   -7.9130723    311.64042   0.01698498  0.016265806            5 
 1530000   0.64584482   -7.9465754    312.03012  0.016995104   0.01625287            3 
 1531000   0.64234378   -7.8928678    311.83302  0.016973276  0.016239969            5 
 1532000   0.64957107   -7.9044508    312.79201  0.017014361  0.016227102            5 
 1533000   0.63280945   -7.8986785     311.8788   0.01695362  0.016214244            5 
 1534000   0.66001866    -7.906058    312.09103  0.016954098  0.016201399            4 
 1535000   0.63441543   -7.9041261    311.95652   0.01693575  0.016188522            3 
 1536000   0.64305237   -7.9375287    312.13498  0.016934407  0.016175656            7 
 1537000   0.65007307   -7.8932671    311.79047   0.01690471  0.016162817            5 
 1538000   0.63986612   -7.9161716    311.91493  0.016900462  0.016149995            4 
 1539000   0.64332328   -7.9046024    312.37806  0.016914558   0.01613716            9 
 1540000   0.62001699   -7.9241183     312.0245  0.016884443   0.01612431            3 
 1541000   0.64909242   -7.9113582    311.99273  0.016871768  0.016111475            5 
 1542000   0.64134387   -7.9390938    311.30871   0.01682386  0.016098613            9 
 1543000   0.63626471   -7.9352818    311.85616  0.016842523  0.016085767            4 
 1544000    0.6315622   -7.9080831    312.08839  0.016844149  0.016072937            6 
 1545000   0.63895763   -7.9158588    312.54066  0.016857641  0.016060121            9 
 1546000   0.64630786   -7.9454749    311.99754  0.016817461  0.016047311            5 
 1547000   0.63936719     -7.95249    312.13123  0.016813792  0.016034484            6 
 1548000   0.63782217   -7.9242514     312.2763   0.01681074  0.016021694            6 
 1549000   0.64676858   -7.9337942    311.59844   0.01676342  0.016008921            8 
 1550000   0.62177507   -7.9185477      311.988  0.016773548  0.015996158            6 
 1551000   0.64516831   -7.9277294    311.34647  0.016728265  0.015983386            5 
 1552000   0.62157114   -7.9295326    311.82998  0.016743448  0.015970613            9 
 1553000   0.63123097   -7.9086235    311.97927  0.016740678  0.015957867            3 
 1554000   0.64234215    -7.919193    312.74764  0.016771109  0.015945168            3 
 1555000   0.63115896   -7.9349965     311.7643  0.016707626  0.015932504            2 
 1556000   0.64651391   -7.9085794    312.71593  0.016747854  0.015919811            4 
 1557000   0.62776236   -7.9149777    312.47869    0.0167244  0.015907159            4 
 1558000   0.62797687    -7.930942    311.29089  0.016650133  0.015894501            6 
 1559000   0.64740047   -7.9388041    311.82975  0.016668257  0.015881847            3 
 1560000   0.64003817   -7.9475922     312.2021  0.016677463  0.015869245            4 
 1561000    0.6317726   -7.9037266    313.07832  0.016713556  0.015856644            5 
 1562000   0.64058706   -7.9191093    312.31097  0.016661917  0.015844065            7 
 1563000   0.61683067    -7.926864    311.99599  0.016634463  0.015831488            4 
 1564000   0.62860379    -7.937486    312.59934  0.016655975  0.015818939           12 
 1565000    0.6524386   -7.9375418    312.70158  0.016650776  0.015806414            6 
 1566000   0.63142938   -7.9329064    312.04608  0.016605262  0.015793904           11 
 1567000     0.623028   -7.9355093    312.90092  0.016640126  0.015781418            3 
 1568000   0.62493086   -7.9373871    313.20434  0.016645639  0.015768958            2 
 1569000   0.63584871   -7.9375422      312.487   0.01659693  0.015756495            6 
 1570000   0.62367787   -7.9394554    313.08096  0.016617885   0.01574402            3 
 1571000   0.62259495   -7.9388808    312.96602   0.01660121  0.015731568            5 
 1572000    0.6249589   -7.9268554    312.58565  0.016570486  0.015719133            2 
 1573000   0.63969217   -7.9326008    313.04999  0.016584551  0.015706749            2 
 1574000   0.63158925    -7.936481    312.96196  0.016569354   0.01569434            4 
 1575000   0.62311561   -7.9348687     312.7189  0.016545973  0.015681959            8 
 1576000   0.61805373   -7.8906365    312.77634  0.016538512  0.015669576            3 
 1577000   0.61844265   -7.9567247    311.91129  0.016482313  0.015657193           14 
 1578000   0.61231509   -7.9444703    311.90373  0.016471469  0.015644786            8 
 1579000   0.61602776   -7.9507698    312.40996  0.016487754  0.015632403           12 
 1580000   0.62824767   -7.9589064    312.17038  0.016464682  0.015619991            5 
 1581000   0.61295389   -7.9232819    313.23694  0.016510486  0.015607567            4 
 1582000   0.62299749   -7.9454845    312.63745  0.016468471  0.015595176            5 
 1583000   0.62927332   -7.9417285     312.2255  0.016436381  0.015582803            7 
 1584000   0.60918889   -7.9438302    311.69901  0.016398307  0.015570432            4 
 1585000   0.62672206    -7.920981    312.50636  0.016430408  0.015558105            5 
 1586000   0.62434591   -7.9331958    312.55736  0.016422728  0.015545768            4 
 1587000   0.61539032    -7.957537    312.82046  0.016426195  0.015533442            5 
 1588000   0.62231912   -7.9468682    313.03065  0.016426881  0.015521109            3 
 1589000   0.60750167   -7.9302263    312.76464  0.016402593  0.015508814            6 
 1590000   0.61276095   -7.9344617    312.20353  0.016362868  0.015496511            6 
 1591000   0.63005712   -7.9468255    311.86202  0.016334696  0.015484242            4 
 1592000    0.6169941   -7.9521464    312.13803  0.016338883   0.01547193            3 
 1593000   0.63076005   -7.9388765    312.35474  0.016339964   0.01545966            4 
 1594000   0.61125261   -7.9474479    312.77345  0.016351602  0.015447388            4 
 1595000   0.60556398    -7.985679    311.86698   0.01629399  0.015435135            4 
 1596000   0.60200007   -7.9691343     312.0087  0.016291181  0.015422871            5 
 1597000   0.61224275   -7.9514621    312.18913  0.016290395  0.015410595            9 
 1598000   0.61343108   -7.9568706    312.44774  0.016293687  0.015398361            5 
 1599000   0.63045983   -7.9508301    312.12756   0.01626681  0.015386128            4 
 1600000   0.62451477   -7.9724381    312.17105  0.016258909  0.015373912            4 
 1601000   0.60186447   -7.9827548      311.922   0.01623579  0.015361705            5 
 1602000   0.62176314   -7.9729531    312.47982  0.016254672    0.0153495            5 
 1603000   0.61314214   -7.9661053    312.33912  0.016237218   0.01533732            5 
 1604000   0.61688108   -7.9681938    312.73482  0.016247653  0.015325149            5 
 1605000    0.6153027   -7.9597518    313.04096  0.016253425  0.015312987            6 
 1606000   0.61222561    -7.972892    312.51742  0.016216138  0.015300805            5 
 1607000   0.59206869   -7.9685336    312.78661  0.016220007  0.015288644            4 
 1608000   0.61556171   -7.9847111    312.16274  0.016177588  0.015276487            5 
 1609000   0.61175477   -7.9869375    312.26012  0.016172577  0.015264331            5 
 1610000   0.61491416   -7.9775003    312.21998  0.016160454  0.015252164            5 
 1611000   0.62657137   -7.9561251    312.40287  0.016159884  0.015240005            5 
 1612000   0.60395281   -7.9726144    312.43687  0.016151617  0.015227864            7 
 1613000   0.60212017   -7.9842564    311.90116  0.016113927  0.015215712            4 
 1614000   0.60310389   -7.9807627    312.12068  0.016115277  0.015203595            5 
 1615000   0.60579852   -7.9596709    312.86779  0.016143849  0.015191492            6 
 1616000   0.60665774   -7.9621549    312.18604  0.016098703  0.015179409            6 
 1617000   0.59914596   -7.9826561    312.71463  0.016115988  0.015167347            5 
 1618000    0.6149825   -7.9867685    312.28319  0.016083807  0.015155274            7 
 1619000   0.60540524   -7.9678925    312.34207  0.016076903    0.0151432            4 
 1620000   0.60648421   -7.9808957        311.8  0.016039094  0.015131143            7 
 1621000   0.61448869   -7.9872912    311.98454  0.016038687  0.015119086            3 
 1622000   0.60959823   -8.0014725    312.16224  0.016037929  0.015107041            5 
 1623000   0.59852544   -7.9657672     312.4526  0.016042956  0.015095003            4 
 1624000   0.61889005   -7.9961889    312.09218  0.016014582  0.015082968            3 
 1625000   0.60501211   -8.0218248     312.0034  0.016000175   0.01507093            5 
 1626000   0.59261026   -7.9978049    311.80542  0.015980188  0.015058898            8 
 1627000   0.60627718   -8.0040274    312.10296  0.015985605  0.015046896            5 
 1628000   0.59567064   -8.0067981    311.03653  0.015921198  0.015034888            6 
 1629000    0.6089129   -7.9837889    311.86946  0.015954034  0.015022895            6 
 1630000   0.59466063    -7.989428    311.57678  0.015929283  0.015010938            3 
 1631000   0.58410767   -7.9858615    312.25056  0.015953943  0.014999008            4 
 1632000   0.61274489   -8.0007344    311.81804  0.015922081  0.014987088            4 
 1633000   0.59200969   -8.0177753    312.28887  0.015936358  0.014975154           13 
 1634000   0.60911816   -7.9679345    312.41785  0.015933183  0.014963251           14 
 1635000   0.60192622   -8.0094304    312.16851  0.015910729  0.014951346            7 
 1636000   0.59463696     -7.98374     312.9947  0.015943088  0.014939474            9 
 1637000   0.59743428   -8.0068839     312.2881  0.015897378  0.014927588            5 
 1638000   0.59538403   -8.0125755    312.20453  0.015883421  0.014915679            6 
 1639000    0.5869725   -8.0079175    311.78468  0.015852383  0.014903781            7 
 1640000   0.60201949   -8.0026561    312.34817   0.01587135  0.014891875            7 
 1641000   0.59582981   -7.9856918    312.79055  0.015884143   0.01487999            5 
 1642000   0.60825108   -7.9855595    312.43104  0.015856224  0.014868115            4 
 1643000   0.59902828   -8.0030185    312.36997  0.015843476  0.014856231            8 
 1644000   0.60722347   -7.9995185    312.00945  0.015815564  0.014844369            6 
 1645000   0.60279954   -7.9831893    312.00882  0.015805918  0.014832526            4 
 1646000   0.61312595   -7.9977833    312.00552  0.015796148  0.014820666           10 
 1647000   0.59997524    -8.013113    311.17718  0.015744646  0.014808815            8 
 1648000    0.5968677   -8.0014557     312.2046  0.015787045  0.014796971           10 
 1649000   0.58878293   -7.9844231    312.63437   0.01579919  0.014785157            5 
 1650000   0.59069771   -7.9823303    311.84211  0.015749601  0.014773347            6 
 1651000   0.58240917   -8.0021181    311.71678  0.015733736  0.014761532           10 
 1652000   0.58330909   -8.0205068    312.02731  0.015739876  0.014749725            8 
 1653000   0.59167797   -8.0183942     311.7901  0.015718396  0.014737928            7 
 1654000   0.60024942   -8.0107186     311.9833  0.015718626  0.014726142           15 
 1655000   0.58131234   -8.0268169    311.68115  0.015693915  0.014714346            6 
 1656000   0.58374674    -8.019238    311.99309  0.015700135  0.014702566            6 
 1657000   0.59468535   -8.0148735    312.09321  0.015695696  0.014690802           15 
 1658000   0.58417646   -8.0142288    311.82125   0.01567256  0.014679028           11 
 1659000   0.59321264   -8.0150964    312.31117  0.015687722  0.014667267            7 
 1660000   0.58325632   -8.0228547    311.77789  0.015651501  0.014655517            6 
 1661000   0.58436018   -8.0169815    311.36958  0.015621593  0.014643779            5 
 1662000   0.58233299   -8.0197298    311.32092  0.015609753  0.014632035            8 
 1663000   0.59098047   -8.0311667    311.75857  0.015622298  0.014620314            9 
 1664000   0.58856642   -8.0243723    311.36254  0.015593076  0.014608611            6 
 1665000   0.59375519   -8.0262968    311.13069  0.015572106  0.014596923           14 
 1666000   0.60514538   -8.0315007     311.6649  0.015589481  0.014585236           11 
 1667000   0.58523912    -8.007594    312.27127  0.015610442  0.014573574            9 
 1668000   0.59562573    -8.001954    311.53111  0.015564104  0.014561911           13 
 1669000    0.5880466    -8.019685      311.827  0.015569553  0.014550251           14 
 1670000   0.57955617   -8.0196568    311.53609  0.015545713   0.01453861           15 
 1671000   0.58151859   -7.9899838    311.67484  0.015543329  0.014526984            6 
 1672000   0.59355866   -8.0301824    311.90589  0.015545549  0.014515358           13 
 1673000   0.58514974   -8.0207126    311.80661  0.015531312  0.014503721            7 
 1674000   0.57411593   -8.0210375    312.27239  0.015545221  0.014492089           10 
 1675000   0.59035155   -8.0362565    311.64668   0.01550481  0.014480493           11 
 1676000   0.58919231   -8.0398757    311.27838  0.015477246  0.014468885            9 
 1677000   0.57984415   -8.0290743    311.02571  0.015455462  0.014457286           12 
 1678000    0.5885796   -8.0365029     311.5106  0.015470332   0.01444569           10 
 1679000   0.58375572   -8.0337975    311.23471  0.015447425  0.014434094           12 
 1680000   0.57819316   -8.0304131    311.17475  0.015435256  0.014422507            6 
 1681000   0.58076204   -8.0485452     311.3271  0.015433626  0.014410935            8 
 1682000   0.57602573   -8.0266592    311.43571  0.015429831  0.014399379            9 
 1683000   0.58433428   -8.0443997    311.94956  0.015446106  0.014387847            7 
 1684000   0.57590526    -8.025126    311.50974  0.015415169  0.014376315           17 
 1685000   0.56021269   -8.0320866     311.5349  0.015407265  0.014364779           14 
 1686000   0.57809031   -8.0392416    311.82014  0.015412225  0.014353246            8 
 1687000   0.58924965   -8.0447947    311.33151  0.015378952  0.014341728           10 
 1688000   0.57858997   -8.0443951    311.05701   0.01535629  0.014330217            7 
 1689000   0.57883072   -8.0641436    310.94977  0.015341907  0.014318709            7 
 1690000   0.57596765   -8.0588272    310.77504  0.015324213   0.01430719           12 
 1691000   0.58058535   -8.0522258    310.88471  0.015320555   0.01429567           15 
 1692000   0.57612901   -8.0545401    311.53604   0.01534358  0.014284173           13 
 1693000   0.58311307   -8.0537712    311.36854  0.015326272  0.014272689           11 
 1694000   0.57672122   -8.0695458     311.2937  0.015313543  0.014261217           12 
 1695000   0.57411836   -8.0654428    311.62938  0.015321012  0.014249748           14 
 1696000   0.57493505   -8.0405713    311.37306  0.015299384  0.014238278           12 
 1697000   0.57160662   -8.0704938    310.91222  0.015267738  0.014226837           17 
 1698000   0.57849648   -8.0467025    310.81188  0.015253822  0.014215392            6 
 1699000   0.57636975   -8.0502399    311.10411  0.015259178   0.01420393           14 
 1700000   0.58677061   -8.0677271    311.02657  0.015246401  0.014192479           16 
 1701000   0.58063523   -8.0606872     310.4235  0.015207893  0.014181044           15 
 1702000   0.57227978   -8.0743022    311.16514  0.015235269  0.014169592           13 
 1703000   0.57661631   -8.0584026    310.85687  0.015211239  0.014158163            6 
 1704000   0.57325175   -8.0630693    310.86997  0.015202953  0.014146757           14 
 1705000   0.57161858   -8.0631153      311.341  0.015217058  0.014135365           17 
 1706000   0.55351413   -8.0753854    310.85177  0.015184241   0.01412398            7 
 1707000   0.55847617   -8.0623505    310.74221  0.015169997  0.014112609            6 
 1708000    0.5706448    -8.071917    311.07917  0.015177555  0.014101239            8 
 1709000   0.58693704   -8.0440669    310.82076  0.015156074  0.014089871           13 
 1710000   0.56814735   -8.0594827    310.96027  0.015154009  0.014078527           14 
 1711000   0.55672295   -8.0489807    310.41647  0.015118667  0.014067198            8 
 1712000   0.57145997   -8.0824421    310.65414  0.015121405  0.014055851           19 
 1713000   0.56616694   -8.0532698    310.44504  0.015102405  0.014044509           12 
 1714000   0.56895703   -8.0906621     310.9541  0.015118344  0.014033188           10 
 1715000   0.57399517   -8.0893141    310.70765  0.015097553  0.014021872            8 
 1716000   0.56657964   -8.0708295    310.50382  0.015078857  0.014010548            8 
 1717000   0.56302262   -8.0573519    310.84188  0.015086482  0.013999233            8 
 1718000   0.56942942   -8.0650179    311.21781  0.015095936  0.013987937            9 
 1719000    0.5638558   -8.0832176    310.66468  0.015060339  0.013976649            6 
 1720000   0.56085226   -8.0699022    310.94635   0.01506523  0.013965356           12 
 1721000   0.57012581   -8.0652177    310.73955  0.015046463  0.013954093           15 
 1722000   0.57581692   -8.0714258    310.38673  0.015020651   0.01394283           17 
 1723000   0.56608578   -8.0784866    310.80358  0.015032094  0.013931583            9 
 1724000   0.57615397   -8.0705747    310.76485  0.015021503  0.013920351            6 
 1725000   0.58238112   -8.0915928    310.73621  0.015011411  0.013909139            5 
 1726000   0.56765102   -8.0752958    311.00999  0.015015932  0.013897934           14 
 1727000   0.56989318   -8.0874111    310.86198  0.015000096  0.013886747            5 
 1728000   0.55895126   -8.0780556    310.72102  0.014984617  0.013875561            9 
 1729000   0.56631748   -8.0907205    310.79011   0.01497928  0.013864375            5 
 1730000   0.55817272   -8.0806986    311.10529  0.014985804  0.013853212           10 
 1731000   0.55016711    -8.078932     310.9133  0.014967904  0.013842065            4 
 1732000   0.56850819   -8.0883629    311.16354  0.014971302  0.013830927            6 
 1733000   0.56106466   -8.0913307     310.1327  0.014913094  0.013819791            7 
 1734000   0.54648208   -8.0844907    310.42875  0.014918721  0.013808668            4 
 1735000   0.55539323   -8.0877265    310.37394   0.01490749  0.013797552            7 
 1736000   0.54619031   -8.0988363    310.74695  0.014916808  0.013786439            3 
 1737000   0.56502926   -8.0754295    310.58452  0.014900428  0.013775347            8 
 1738000   0.55857428   -8.0872042    310.49597  0.014887609   0.01376425            8 
 1739000   0.54840606   -8.0889047    310.86919  0.014896932   0.01375316            4 
 1740000   0.56035972   -8.1071418    310.37849   0.01486487  0.013742102            7 
 1741000   0.54819707   -8.0991964    310.65637  0.014869633   0.01373104            5 
 1742000   0.54138351     -8.07733    310.18997  0.014838786  0.013719997            6 
 1743000    0.5706445   -8.0760207    311.02407   0.01487015   0.01370897           15 
 1744000   0.55975373   -8.0803723    310.81506  0.014851637  0.013697947            4 
 1745000   0.56770882   -8.1158509     310.4052  0.014823553  0.013686928            5 
 1746000   0.55255489   -8.0977099     310.2885  0.014809493  0.013675932            6 
 1747000   0.54789326   -8.0991589    310.19531  0.014796571  0.013664936            9 
 1748000   0.55299106   -8.0841802    310.43407  0.014799488  0.013653963            8 
 1749000    0.5518387    -8.084136    311.22356  0.014828643  0.013643003           11 
 1750000   0.56485884   -8.0893195    310.29438  0.014775923  0.013632067            6 
 1751000   0.54665422   -8.0925747    310.57684  0.014780927  0.013621113           15 
 1752000   0.54577662    -8.095637    310.46434   0.01476714  0.013610178            7 
 1753000   0.57199735   -8.0942947    310.66634  0.014768318  0.013599265            3 
 1754000   0.55657734   -8.0819795    311.22447  0.014786415  0.013588347           15 
 1755000   0.54533335   -8.0914709    310.65217  0.014750816  0.013577448           10 
 1756000   0.55308215   -8.0924695     310.5471  0.014737429  0.013566541            7 
 1757000   0.55410416   -8.1028736    311.20451  0.014760222  0.013555644           14 
 1758000   0.55861791    -8.101473    310.44661  0.014715899  0.013544757            7 
 1759000   0.55022647   -8.1165086    310.60736  0.014715149  0.013533875           10 
 1760000   0.55055743   -8.0800689    310.98674  0.014724751  0.013522998           14 
 1761000   0.55848726   -8.1091953    310.50822  0.014693745  0.013512132           13 
 1762000    0.5440711   -8.1031335    311.08383  0.014712629  0.013501278            8 
 1763000   0.54519793   -8.1109509    310.58591  0.014680748  0.013490441            8 
 1764000   0.55927899   -8.0982052     310.5553   0.01467098  0.013479617           11 
 1765000   0.55200153   -8.1186603    310.56297   0.01466303   0.01346879           10 
 1766000   0.54378025   -8.1013559     310.3667  0.014645465  0.013457976            8 
 1767000   0.55165044   -8.1098075    310.83939  0.014659469  0.013447159            6 
 1768000   0.54977541   -8.1215296     310.5389  0.014637014  0.013436357            7 
 1769000   0.56533048    -8.125064    310.64313   0.01463365  0.013425554           15 
 1770000   0.54900519   -8.1260785    310.96104   0.01464035  0.013414767           14 
 1771000   0.54269556   -8.1037564    310.22004  0.014597216  0.013403998           10 
 1772000   0.53357472   -8.1313323    310.52321  0.014603236   0.01339323            7 
 1773000   0.54510796    -8.129881    309.58121  0.014550724  0.013382463           12 
 1774000   0.54970519   -8.1085733     310.6388  0.014592202  0.013371713           11 
 1775000   0.53224515   -8.1106378    310.56764   0.01458064  0.013360971            5 
 1776000   0.54910356    -8.124347    310.39679  0.014564414  0.013350256            5 
 1777000   0.53523143   -8.1110917    310.53023  0.014562476   0.01333956            6 
 1778000   0.54390055   -8.1015126    311.10898  0.014581411  0.013328868            7 
 1779000   0.54483398   -8.1281691    310.51109  0.014545208  0.013318178            7 
 1780000   0.55780364   -8.1134176    310.24015  0.014524351  0.013307492            8 
 1781000   0.55153091   -8.1271265    310.17532  0.014513163  0.013296804            9 
 1782000   0.53819825   -8.1061215    310.22128  0.014507168  0.013286134            7 
 1783000   0.55638813   -8.0993021    310.87919  0.014529781  0.013275475           18 
 1784000   0.54174349   -8.1289269    310.38524  0.014498563  0.013264816           10 
 1785000   0.54420808   -8.1161357    310.13067  0.014478556  0.013254177            9 
 1786000   0.53306003   -8.1057652    310.22621  0.014474907   0.01324353           11 
 1787000   0.53532186   -8.1135152    310.83957   0.01449541  0.013232899            7 
 1788000    0.5416439   -8.1305961     310.5002  0.014471486  0.013222287            9 
 1789000   0.54999528   -8.1263094    310.22071  0.014450378  0.013211682            9 
 1790000   0.53805117   -8.1296765    310.44685  0.014452833   0.01320108           17 
 1791000   0.53153291   -8.1220764    310.11914  0.014429515  0.013190483           16 
 1792000   0.52416096   -8.1165388    310.02368  0.014417024  0.013179888           10 
 1793000   0.53813524   -8.1004196    310.27702  0.014420757  0.013169307           10 
 1794000   0.53182944   -8.1155837    309.98089  0.014398964  0.013158737            4 
 1795000   0.53209687   -8.1316942    310.29193  0.014405382  0.013148151            7 
 1796000   0.54884671   -8.1332375    310.22905  0.014394444  0.013137577            9 
 1797000   0.53909339   -8.1247323    310.29969  0.014389709  0.013127017            7 
 1798000   0.54193957   -8.1250343    310.21057  0.014377576  0.013116472            5 
 1799000   0.54189746   -8.1398882    310.12602  0.014365667   0.01310594           11 
 1800000   0.52904775   -8.1343676     309.9776  0.014350815  0.013095415           10 
 1801000   0.53453515   -8.1306421    309.86264  0.014337527  0.013084906            6 
 1802000   0.53077102   -8.1184199    309.92793   0.01433259  0.013074386            8 
 1803000   0.52871166   -8.1326233    310.26694   0.01434031  0.013063881            7 
 1804000   0.52918083   -8.1077764    309.82102  0.014311762  0.013053394           14 
 1805000    0.5394502   -8.1513006    309.85149   0.01430524  0.013042898            7 
 1806000   0.52999686   -8.1276633    309.79262  0.014294602  0.013032407            7 
 1807000   0.52369333   -8.1426064    309.93446  0.014293233   0.01302193            7 
 1808000   0.53726371   -8.1355958    310.00456  0.014288558  0.013011463            8 
 1809000   0.53968745   -8.1239151    310.10719  0.014285387  0.013001025           15 
 1810000   0.52785519   -8.1428026     309.9294  0.014269309  0.012990597            8 
 1811000   0.52562705   -8.1384892    309.84767  0.014257669  0.012980185           10 
 1812000   0.52259357    -8.109331    310.00282  0.014256936  0.012969773           17 
 1813000   0.53671108   -8.1523213    310.12995  0.014254916  0.012959372            5 
 1814000   0.51868006   -8.1464683    310.02959  0.014242447  0.012948969           10 
 1815000   0.53204691   -8.1464233    309.94694  0.014230805  0.012938587            8 
 1816000   0.52888479   -8.1478483    309.85516  0.014218757  0.012928209           15 
 1817000   0.53356087   -8.1330427    309.65536  0.014201768  0.012917835           10 
 1818000   0.52664264   -8.1259133    309.87606  0.014204073  0.012907475            8 
 1819000   0.54032142   -8.1304722    309.58165  0.014182777  0.012897115           11 
 1820000   0.52972511   -8.1480188    309.54111  0.014173128   0.01288677            8 
 1821000   0.53026528   -8.1434194    310.05957   0.01418907  0.012876427           12 
 1822000   0.52852385   -8.1555671    309.50844  0.014156076  0.012866099           16 
 1823000   0.52499244   -8.1502488    309.59887  0.014152444  0.012855772            9 
 1824000   0.51965573   -8.1330489    309.77514  0.014152739  0.012845475            9 
 1825000   0.53076322   -8.1498749     309.4612  0.014130648  0.012835163           14 
 1826000   0.52508199    -8.149078    309.80219  0.014138472  0.012824868           13 
 1827000   0.53433655   -8.1567383    309.98446  0.014139047  0.012814585           13 
 1828000   0.51875414   -8.1527813    309.44344  0.014106648  0.012804312           18 
 1829000   0.53130391   -8.1495711    310.13956  0.014130652  0.012794053            8 
 1830000   0.52103224   -8.1486433    309.33804  0.014086432  0.012783803           12 
 1831000   0.53380917    -8.149153    309.85896  0.014102447  0.012773563           21 
 1832000   0.52563991    -8.156123    309.36579  0.014072316  0.012763328           10 
 1833000   0.51707486   -8.1567812    309.31914  0.014062518  0.012753113           11 
 1834000   0.53031255   -8.1465107    309.89012  0.014080794  0.012742895           10 
 1835000    0.5192992   -8.1519694    309.90818  0.014073941  0.012732698            9 
 1836000   0.53302164   -8.1565497    309.91247   0.01406647  0.012722515           12 
 1837000   0.52289759   -8.1615426    310.03601  0.014064417  0.012712338           11 
 1838000   0.52470448   -8.1571041    309.83056   0.01404745  0.012702186           13 
 1839000   0.52021697   -8.1457657    309.60362  0.014029528  0.012692038           10 
 1840000   0.51888343   -8.1445056    309.79182  0.014030427  0.012681897            8 
 1841000   0.50866868   -8.1435323    309.66666   0.01401714  0.012671757            9 
 1842000   0.51878575   -8.1177582    309.71572   0.01401175   0.01266164           14 
 1843000   0.51921462   -8.1581459    309.94363  0.014014453  0.012651523           14 
 1844000   0.52549082   -8.1537352    309.77662  0.013999305   0.01264141           12 
 1845000   0.51193586   -8.1442285    309.69825  0.013988178  0.012631315           10 
 1846000   0.51907437   -8.1504646    309.70669  0.013980981  0.012621221            7 
 1847000   0.50639155   -8.1789829    309.69483  0.013972876  0.012611135           15 
 1848000   0.51435709   -8.1572759    309.60538  0.013961282  0.012601063            4 
 1849000   0.52208352   -8.1589716    309.27206  0.013938708   0.01259099            9 
 1850000   0.51661503   -8.1638163    310.05563   0.01396647   0.01258093           10 
 1851000   0.51068692   -8.1581512    309.75318  0.013945308  0.012570879            9 
 1852000   0.51642637   -8.1667266    309.38563   0.01392124  0.012560832            9 
 1853000   0.50905394   -8.1674809    309.55333  0.013921269  0.012550808           10 
 1854000   0.51353499   -8.1766052    309.82185  0.013925829  0.012540792           10 
 1855000   0.51660112   -8.1719217    309.86759  0.013920377   0.01253079           12 
 1856000    0.5078389   -8.1650072    309.32851  0.013888673  0.012520788            9 
 1857000   0.51938464   -8.1641052    309.38953  0.013883931  0.012510792           11 
 1858000   0.50347955   -8.1462798    309.48943   0.01388094  0.012500816            5 
 1859000   0.50766741   -8.1727657    309.90573  0.013892134  0.012490839            7 
 1860000   0.51395529   -8.1575406    310.02213   0.01388988  0.012480874            4 
 1861000   0.51539905   -8.1517367    309.36784  0.013853119  0.012470926           12 
 1862000   0.51976862   -8.1749907    309.05171   0.01383153  0.012460965           11 
 1863000   0.51022856   -8.1511012    309.54917  0.013846357  0.012451035            9 
 1864000   0.50800966   -8.1631147    309.61993  0.013842093  0.012441111            9 
 1865000   0.51976158   -8.1669726    309.21342  0.013816507  0.012431192            8 
 1866000   0.51169407   -8.1776655    309.43382  0.013818945  0.012421273            7 
 1867000   0.51000214   -8.1729819    309.42319  0.013811069  0.012411367           15 
 1868000   0.51562174   -8.1757047    309.92988   0.01382628  0.012401472           13 
 1869000   0.49384799   -8.1600766    309.42041  0.013796166  0.012391594           16 
 1870000   0.50007711   -8.1528876    309.26779  0.013781987  0.012381729           11 
 1871000   0.50413402   -8.1805775    309.59508  0.013789198  0.012371871           10 
 1872000   0.51665415   -8.1856521    309.59829  0.013781975  0.012362019           12 
 1873000   0.50355754   -8.1780681    309.62692  0.013775891  0.012352174            9 
 1874000   0.50681111   -8.1724103    309.41819  0.013759258  0.012342329           10 
 1875000   0.50932638   -8.1621285    309.64455   0.01376198  0.012332499           14 
 1876000   0.50234849   -8.1717544    309.58556  0.013752024  0.012322673           10 
 1877000   0.51679059   -8.1704234    309.63372  0.013746835  0.012312863           18 
 1878000   0.50502608   -8.1903311    309.57005   0.01373669  0.012303064           10 
 1879000    0.5018587   -8.1794511    309.14665  0.013710602  0.012293262           12 
 1880000   0.50140161   -8.1721438    309.51712  0.013719731  0.012283465            6 
 1881000   0.50555581   -8.1909885    309.04378  0.013691466  0.012273684           10 
 1882000   0.51813048    -8.197742    309.02279  0.013683262  0.012263906            9 
 1883000   0.50128989   -8.1973555    309.42649  0.013693861  0.012254142            9 
 1884000      0.51218   -8.1776747    309.76735   0.01370167  0.012244392            6 
 1885000   0.49620808   -8.1874285    309.73406  0.013692929  0.012234636            6 
 1886000   0.50375857    -8.196241    308.93285  0.013650267  0.012224885            7 
 1887000   0.50257085   -8.2013943    309.33187  0.013660655  0.012215148            8 
 1888000    0.5017197   -8.1794209    309.14959  0.013645374  0.012205413            8 
 1889000   0.49201173   -8.1775791    309.71294  0.013663003  0.012195697            8 
 1890000   0.49684709   -8.2083669    308.66643  0.013609631  0.012185988            9 
 1891000   0.50965297   -8.2035487    309.42529  0.013635876  0.012176283            7 
 1892000   0.49453313   -8.1951374     309.3152   0.01362382  0.012166594           11 
 1893000   0.49887881   -8.1984102    309.41214   0.01362089  0.012156922           14 
 1894000   0.49735081   -8.1869438    308.90868  0.013591547  0.012147246           20 
 1895000    0.4856127   -8.1918679    309.09466  0.013592553  0.012137582           10 
 1896000   0.49638272    -8.197383    309.38884  0.013598314  0.012127925            8 
 1897000   0.48204283   -8.1936556    308.93031  0.013571003  0.012118267            9 
 1898000   0.48391736   -8.1841226    309.08636  0.013570704  0.012108626           12 
 1899000   0.48577703   -8.1965817    309.36291  0.013575694  0.012098989            8 
 1900000     0.494062   -8.1992978    309.10153  0.013557084  0.012089367           11 
 1901000   0.50285925   -8.1968636    309.83648  0.013582171   0.01207975            7 
 1902000   0.49965721   -8.2107622    308.92458  0.013535076  0.012070145           15 
 1903000   0.50941012   -8.2031647    308.67109  0.013516863  0.012060545            7 
 1904000   0.48148963   -8.2135073    308.92474  0.013520866  0.012050951           12 
 1905000   0.48939961   -8.2069412    309.14386  0.013523354  0.012041374           13 
 1906000   0.49502662   -8.2091762    309.39458   0.01352722  0.012031806            5 
 1907000     0.482002   -8.2231475    308.75008  0.013491963   0.01202224           12 
 1908000   0.48846303   -8.2094126    308.63521  0.013479874  0.012012688           14 
 1909000   0.49199322   -8.2030548    309.13533  0.013494645  0.012003145            6 
 1910000   0.48400534   -8.2007763     308.9141  0.013477928  0.011993608            9 
 1911000   0.49902182   -8.2110358    308.57242  0.013455975  0.011984076           11 
 1912000   0.48588915   -8.1946872    309.26225  0.013479003   0.01197456            7 
 1913000   0.49522189   -8.2048794    309.12397  0.013465934   0.01196507            7 
 1914000    0.4881606   -8.2149916    309.08223  0.013457081  0.011955575           10 
 1915000   0.49682812   -8.2013678    308.79384  0.013437504  0.011946082           12 
 1916000   0.48767152   -8.1948671    308.91076  0.013435576  0.011936604           12 
 1917000   0.48885564   -8.2175643    308.88726  0.013427546  0.011927136            9 
 1918000   0.49492873   -8.2036622    308.89667  0.013420954  0.011917683            5 
 1919000   0.47923254   -8.2073718    309.02723   0.01341963  0.011908234            5 
 1920000    0.4738363   -8.2071362     309.0243  0.013412513  0.011898798            9 
 1921000   0.49637431   -8.2005393    308.99538  0.013404277  0.011889364           14 
 1922000   0.48954457   -8.2094316    308.87574  0.013392115  0.011879943            9 
 1923000   0.47907966    -8.226781    308.44322  0.013366407  0.011870524           10 
 1924000   0.48598624   -8.2225936    309.40725  0.013401215  0.011861118            8 
 1925000   0.49103779   -8.2090757    309.18722  0.013384728  0.011851728           11 
 1926000   0.47887922   -8.2175555    309.12215  0.013374963  0.011842345            5 
 1927000   0.49147264   -8.2152346    308.87535   0.01335735  0.011832966            5 
 1928000   0.49358303   -8.2354621    308.74805  0.013344919  0.011823579            7 
 1929000   0.49440398   -8.2065382    308.99965   0.01334887  0.011814222            6 
 1930000   0.49563672   -8.2238935    308.80479   0.01333354   0.01180486           15 
 1931000   0.48209627   -8.2183001    308.72643  0.013323253  0.011795504            6 
 1932000   0.48016117   -8.2051611    308.56314  0.013309314  0.011786147           14 
 1933000    0.4801996   -8.2269962    308.95342  0.013319254   0.01177682           11 
 1934000   0.48357325   -8.2148326    308.91701  0.013310798    0.0117675            5 
 1935000    0.4805748   -8.2416721    308.96525  0.013305997  0.011758182           12 
 1936000   0.47516116   -8.2140758    308.89654  0.013296166  0.011748879            7 
 1937000   0.47424246   -8.2254317    308.69835  0.013280776  0.011739586           10 
 1938000   0.47356147   -8.2253839    308.66231  0.013272373  0.011730299           10 
 1939000   0.48513205   -8.2085025    308.58141  0.013262051  0.011721023            9 
 1940000   0.47783358   -8.2194737    308.94208  0.013270708  0.011711748           11 
 1941000   0.47916312   -8.2200271    308.82784  0.013258966  0.011702476            8 
 1942000    0.4752571   -8.2532925    308.62139   0.01324328  0.011693217            6 
 1943000   0.48469842   -8.2259793    308.76323  0.013242547  0.011683962           10 
 1944000   0.48128935   -8.2289878    308.24882  0.013213684  0.011674724           13 
 1945000    0.4824143   -8.2336983    308.89773  0.013234693  0.011665501            9 
 1946000   0.47884552   -8.2330102    308.65299  0.013217411  0.011656271            9 
 1947000   0.47113306   -8.2212167    308.32495  0.013196582  0.011647056           10 
 1948000   0.47687528   -8.2409896    308.79463    0.0132099  0.011637845            6 
 1949000   0.47273569   -8.2264075    308.02157  0.013170069   0.01162865            5 
 1950000   0.47315143   -8.2381379    308.88314  0.013200134  0.011619458            7 
 1951000   0.47540874   -8.2295503    308.70905  0.013185932  0.011610274           13 
 1952000   0.46944086   -8.2180043     308.3859  0.013165381  0.011601099            6 
 1953000   0.47152489   -8.2352478    308.72195  0.013172979  0.011591937            6 
 1954000   0.46885721   -8.2448852    308.22619  0.013145095  0.011582779            6 
 1955000   0.47852523   -8.2500702     309.0468  0.013173351  0.011573643           10 
 1956000    0.4664678   -8.2232964    308.51419  0.013143924   0.01156451            4 
 1957000   0.47465526   -8.2444699    308.31158   0.01312858  0.011555383            7 
 1958000   0.47258744     -8.23704    308.77542  0.013141616  0.011546264           12 
 1959000   0.47106438   -8.2431398    308.80346  0.013136101  0.011537155            7 
 1960000   0.47612105   -8.2395937    308.35817  0.013110466  0.011528055            8 
 1961000   0.47564143   -8.2458121    308.69315  0.013118016  0.011518964            9 
 1962000   0.46635971   -8.2488562    308.24665  0.013092365  0.011509881           13 
 1963000   0.47239548   -8.2494811    308.48414  0.013095778   0.01150081            6 
 1964000    0.4732832   -8.2428609    308.61201  0.013094535  0.011491751           10 
 1965000   0.46388337   -8.2303266     308.1978  0.013070305    0.0114827           11 
 1966000   0.46540821   -8.2285595    308.54694  0.013078456  0.011473648           16 
 1967000   0.47121541   -8.2341331    308.58388  0.013073372  0.011464604           13 
 1968000   0.47721067   -8.2313941    308.32702  0.013055853  0.011455581           13 
 1969000   0.46478689   -8.2499582    308.34344  0.013049917  0.011446554            8 
 1970000    0.4589998   -8.2384317    308.48695  0.013049364  0.011437538            9 
 1971000   0.46539757   -8.2372899    308.52826  0.013044489  0.011428533           13 
 1972000    0.4658769   -8.2462289    308.52704  0.013037823  0.011419535           11 
 1973000   0.47069136   -8.2533055    308.23821  0.013019015  0.011410543           10 
 1974000   0.46551918   -8.2374709    308.16777  0.013009447  0.011401569            9 
 1975000   0.47780766   -8.2506171    308.23221  0.013005578  0.011392604           11 
 1976000   0.45931282   -8.2482672    308.10183  0.012993498  0.011383632           14 
 1977000   0.46875081   -8.2612936    308.32526  0.012996344  0.011374669           11 
 1978000   0.46020018   -8.2473786    308.54825  0.012999168   0.01136571            5 
 1979000   0.46702686   -8.2577026    308.03684  0.012971064  0.011356765            8 
 1980000   0.46940563   -8.2462532    308.35018  0.012977701  0.011347834           14 
 1981000   0.45430872   -8.2462146    308.10064  0.012960653  0.011338911           12 
 1982000   0.46636331   -8.2342746    308.43352   0.01296811  0.011330002           17 
 1983000   0.45661108   -8.2578226    309.19674  0.012993643  0.011321097            9 
 1984000   0.45510463   -8.2525523    308.32617  0.012950528  0.011312196           10 
 1985000   0.45770315    -8.248439    308.31191  0.012943405  0.011303313            8 
 1986000   0.46098795   -8.2637856    307.95313  0.012921833  0.011294422           21 
 1987000   0.46186635   -8.2459669    308.02869  0.012918499  0.011285541            8 
 1988000   0.46224433   -8.2538055    308.14442  0.012916852  0.011276682            5 
 1989000   0.44891827   -8.2443739    307.63614  0.012889062  0.011267828           14 
 1990000   0.45799258   -8.2493922    308.37366   0.01291347  0.011258978           11 
 1991000   0.45232317   -8.2553829    308.28126  0.012903116  0.011250142            7 
 1992000   0.46362305   -8.2474832    307.75351  0.012874561  0.011241307           13 
 1993000    0.4641272   -8.2594226    308.32306  0.012891916  0.011232488           13 
 1994000   0.45544519   -8.2556827    307.96071  0.012870307  0.011223675           14 
 1995000   0.45706862   -8.2447062    308.17979  0.012873007  0.011214866           13 
 1996000   0.45556202   -8.2562093      308.275  0.012870533  0.011206062            9 
 1997000   0.45428692   -8.2577592    308.22476  0.012861991  0.011197268           10 
 1998000   0.46042602   -8.2610232    308.19135   0.01285416  0.011188488           10 
 1999000     0.457495   -8.2554427      308.108  0.012844256  0.011179707           13 
 2000000   0.46289539   -8.2596407    308.12552  0.012838564  0.011170934            8 
 2001000   0.45720942   -8.2730802    308.29855  0.012839353  0.011162175           12 
 2002000   0.44441695   -8.2626035    307.78324   0.01281149  0.011153421            9 
 2003000   0.45608372   -8.2615343    308.18712  0.012821897  0.011144675           12 
 2004000    0.4527467   -8.2530529    308.05903  0.012810172  0.011135941           10 
 2005000   0.45608768   -8.2662213    308.39755  0.012817853  0.011127206           10 
 2006000   0.45101507     -8.25484    308.28837  0.012806928  0.011118482            9 
 2007000   0.44844003    -8.267001    307.75807  0.012778528  0.011109769           12 
 2008000   0.44535728   -8.2612197    307.85676   0.01277626  0.011101061           14 
 2009000   0.45126943    -8.254048    307.73568  0.012764878  0.011092357           14 
 2010000   0.45188588   -8.2710946    307.80913  0.012761572  0.011083663           16 
 2011000   0.44854618   -8.2640075    308.02568    0.0127642  0.011074979           15 
 2012000   0.44746956   -8.2703241     308.0631  0.012759406  0.011066303           14 
Loop time of 4592.33 on 48 procs for 2000000 steps with 4000 atoms

Performance: 75255.904 tau/day, 435.509 timesteps/s
99.4% CPU use with 48 MPI tasks x no OpenMP threads

MPI task timing breakdown:
Section |  min time  |  avg time  |  max time  |%varavg| %total
---------------------------------------------------------------
Pair    | 280.97     | 301.86     | 319.57     |  52.2 |  6.57
Neigh   | 29.537     | 30.879     | 31.997     |  10.5 |  0.67
Comm    | 277.88     | 299.02     | 321.38     |  63.3 |  6.51
Output  | 4.1493     | 4.1514     | 4.1867     |   0.3 |  0.09
Modify  | 3905.3     | 3913.5     | 3926.4     |   7.4 | 85.22
Other   |            | 42.93      |            |       |  0.93

Nlocal:        83.3333 ave          92 max          76 min
Histogram: 2 2 5 9 10 9 5 3 1 2
Nghost:        1933.44 ave        1963 max        1905 min
Histogram: 1 3 3 10 6 12 8 2 1 2
Neighs:        12305.5 ave       13832 max       10870 min
Histogram: 5 4 3 4 8 8 9 1 3 3
FullNghs:      24611.1 ave       27559 max       22039 min
Histogram: 2 2 3 11 12 6 7 1 3 1

Total # of neighbors = 1181333
Ave neighs/atom = 295.33325
Neighbor list builds = 107435
Dangerous builds = 0

#clear
#
#next RN
#
#jump SELF
Total wall time: 1:16:36
