
units lj                  # Use reduced LJ style units
atom_style atomic         # Uncharged point particles
atom_modify map hash      # Needed for indexing of clusters etc
                          # Used to be able to find where atoms are in relation to each other.

lattice fcc 1.0 spacing 1 1 1
Lattice spacing in x,y,z = 1.5874011 1.5874011 1.5874011
region box block 0 10 0 10 0 10 units lattice
create_box 2 box
Created orthogonal box = (0.0000000 0.0000000 0.0000000) to (15.874011 15.874011 15.874011)
  3 by 4 by 4 MPI processor grid
create_atoms 1 box
Created 4000 atoms
  using lattice units in orthogonal box = (0.0000000 0.0000000 0.0000000) to (15.874011 15.874011 15.874011)
  create_atoms CPU = 0.002 seconds
set type 1 type/fraction 2 0.09 78393
Setting atom values ...
  390 settings made for type/fraction
mass 1 1.0
mass 2 1.0
pair_style lj/cut  3.5
pair_modify tail  yes
pair_coeff 1  1  1.0  1.0   # Intearaction between 1 and 1 set with epsilon = 1 and sigma = 1
pair_coeff 1  2  1.5  0.8
pair_coeff 2  2  0.5  0.88

write_data data.0
System init for write_data ...
Neighbor list info ...
  update every 1 steps, delay 10 steps, check yes
  max neighbors/atom: 2000, page size: 100000
  master list distance cutoff = 3.8
  ghost atom cutoff = 3.8
  binsize = 1.9, bins = 9 9 9
  1 neighbor lists, perpetual/occasional/extra = 1 0 0
  (1) pair lj/cut, perpetual
      attributes: half, newton on
      pair build: half/bin/atomonly/newton
      stencil: half/bin/3d
      bin: standard
WARNING: Not all mixed pair coeffs generated from mixing. Use write_data with 'pair ij' option to store all pair coeffs. (../write_data.cpp:312)


#############################
#   M E L T   S Y S T E M   #
#############################

velocity all create 2.4 6583654 mom yes dist gaussian # Assign velocities
                                                    # Temperature 2.4, random number seed, zero linear momentum
                                                                                # Gaussian distribution

timestep 0.002   # simulation timestep
thermo 1000       # output thermodynamic data every 1000 steps bf 100

# Define a fix  in this case with index 1 applied to all
# particles in the simulation. This fix is for simulations
# in the anisotropic NPT ensemble. Note that we use the MTK
# correction.
fix 1 all npt temp 2.4 2.4 0.1 iso 5.68 5.68 0.5 mtk yes tchain 5 pchain 5 # Use NPT ensemble
                                                                         # Set temperature and pressure and damping
                                                                         # Numbers of thermostats in chain and in barostat
run 10000          # run for 10000 steps
Per MPI rank memory allocation (min/avg/max) = 3.642 | 3.644 | 3.648 Mbytes
Step Temp E_pair E_mol TotEng Press Volume 
       0          2.4   -7.7460071            0   -4.1469071   -2.9736732         4000 
    1000    2.4147926   -4.5672507            0  -0.94596732    5.7809085    4867.7923 
    2000    2.3771032   -4.6066487            0   -1.0418853    5.6951977    4860.8772 
    3000    2.3857372    -4.571197            0  -0.99348583    5.6652092     4884.589 
    4000    2.3486177    -4.600649            0   -1.0786032    5.6864208    4851.9894 
    5000    2.4211854   -4.5954614            0  -0.96459114    5.6807911    4867.9704 
    6000    2.4211004   -4.5880658            0  -0.95732312    5.6299987    4872.4548 
    7000    2.3694362   -4.6037216            0   -1.0504559    5.3546572    4904.1747 
    8000    2.4151741   -4.6580398            0   -1.0361843    5.7150683    4824.7075 
    9000     2.397895   -4.5954177            0   -0.9994744    5.8781007    4842.8976 
   10000    2.4130862   -4.5879484            0    -0.969224    5.7823623    4861.0537 
Loop time of 2.1413 on 48 procs for 10000 steps with 4000 atoms

Performance: 806984.666 tau/day, 4670.050 timesteps/s
99.6% CPU use with 48 MPI tasks x no OpenMP threads

MPI task timing breakdown:
Section |  min time  |  avg time  |  max time  |%varavg| %total
---------------------------------------------------------------
Pair    | 0.90556    | 0.95524    | 1.0325     |   2.9 | 44.61
Neigh   | 0.18985    | 0.19759    | 0.20612    |   0.9 |  9.23
Comm    | 0.66419    | 0.74465    | 0.82202    |   3.7 | 34.78
Output  | 0.00024407 | 0.00025024 | 0.00030792 |   0.0 |  0.01
Modify  | 0.20887    | 0.22936    | 0.24647    |   2.5 | 10.71
Other   |            | 0.01421    |            |       |  0.66

Nlocal:        83.3333 ave          92 max          73 min
Histogram: 1 3 5 3 6 8 9 10 1 2
Nghost:        1443.44 ave        1466 max        1424 min
Histogram: 3 5 2 8 11 6 4 6 2 1
Neighs:        7839.19 ave        9158 max        6614 min
Histogram: 2 3 4 6 8 11 6 5 2 1

Total # of neighbors = 376281
Ave neighs/atom = 94.070250
Neighbor list builds = 908
Dangerous builds = 216

# Equilibrate just above the melting temperature to avoid step fn in T

fix 1 all npt temp 1.25 1.25 0.1 iso 5.68 5.68 0.5 mtk yes tchain 5 pchain 5
run 2000
Per MPI rank memory allocation (min/avg/max) = 3.642 | 3.644 | 3.648 Mbytes
Step Temp E_pair E_mol TotEng Press Volume 
   10000    2.4130862   -4.5879484            0    -0.969224    5.7823623    4861.0537 
   11000    1.2499928   -6.1661145            0   -4.2915941     5.747245    4008.7526 
   12000    1.2544202   -6.1510156            0   -4.2698556    5.6621458    4024.9893 
Loop time of 0.471199 on 48 procs for 2000 steps with 4000 atoms

Performance: 733448.329 tau/day, 4244.493 timesteps/s
99.7% CPU use with 48 MPI tasks x no OpenMP threads

MPI task timing breakdown:
Section |  min time  |  avg time  |  max time  |%varavg| %total
---------------------------------------------------------------
Pair    | 0.19917    | 0.22414    | 0.25474    |   2.3 | 47.57
Neigh   | 0.030693   | 0.03325    | 0.037837   |   0.7 |  7.06
Comm    | 0.12971    | 0.16193    | 0.18891    |   2.9 | 34.37
Output  | 4.9536e-05 | 5.095e-05  | 6.5036e-05 |   0.0 |  0.01
Modify  | 0.038791   | 0.047313   | 0.056619   |   2.1 | 10.04
Other   |            | 0.004519   |            |       |  0.96

Nlocal:        83.3333 ave          90 max          77 min
Histogram: 4 1 4 10 5 8 9 4 1 2
Nghost:        1633.77 ave        1658 max        1607 min
Histogram: 1 3 5 7 4 12 3 8 1 4
Neighs:        9477.19 ave       10287 max        8550 min
Histogram: 2 4 2 6 8 7 7 4 4 4

Total # of neighbors = 454905
Ave neighs/atom = 113.72625
Neighbor list builds = 143
Dangerous builds = 12

#############################
# L I N E A R  Q U E N C H  #
#############################

# Define solid atoms. This closely follows ten Wolde  Ruiz-Montero and Frenkel  Faraday Discuss  1996  104  93-110
# Compute components of the per-atom q6 vector
compute q6 all orientorder/atom degrees 1 6 components 6 nnn NULL cutoff 1.3 # compute the Q6 parameter.
                                                                             # Use all neighbours within 1.3 unit cell.

# get number of connections
compute coord_number all coord/atom orientorder q6 0.5

# An atom is solid if it has 8 or more connections (of a possible 14)
variable is_solid atom c_coord_number>=8
group solid dynamic all var is_solid    # Must be dynamic to update
dynamic group solid defined

# do clustering
compute cluster solid cluster/atom 1.3 # Create a cluster where all atoms within are solid and max 1.3 units from another member

# define chunks one chunk per cluster
compute clus_chunks solid chunk/atom c_cluster nchunk every compress yes  # Says which atoms are in which chunk

# count the size of each chunk
compute size_chunks solid property/chunk clus_chunks count


# Find the maximum entry in the vector of chunk sizes
variable max_n equal max(c_size_chunks)


# Thermo style which includes this variable
# thermo_style custom step temp pe vol v_max_n

thermo ${N}  # Print the thermo information every 100 steps
thermo 1000  

# Reset the npt fix at a lower temperature (below freezing)
fix 1  all npt temp  ${temp} ${temp}  0.1  iso  5.68  5.68  0.5  mtk yes tchain  5  pchain  5
fix 1  all npt temp  0.45 ${temp}  0.1  iso  5.68  5.68  0.5  mtk yes tchain  5  pchain  5
fix 1  all npt temp  0.45 0.45  0.1  iso  5.68  5.68  0.5  mtk yes tchain  5  pchain  5

dump dmp2 all dcd ${N} traj.dcd
dump dmp2 all dcd 1000 traj.dcd


compute msd all msd com yes
variable twopoint equal c_msd[4]/6/(step*dt+1.0e-6)
fix 9 all vector 10 c_msd[4]
variable fit equal slope(f_9)/6/(10*dt)
thermo_style custom step temp pe c_msd[4] v_twopoint v_fit v_max_n

fix 1 all npt temp 1.25 ${temp} 0.1 iso 5.68 5.68 0.5 mtk yes tchain 5 pchain 5
fix 1 all npt temp 1.25 0.45 0.1 iso 5.68 5.68 0.5 mtk yes tchain 5 pchain 5
run 2000000 # 5000000  # Run for this many steps
Neighbor list info ...
  update every 1 steps, delay 10 steps, check yes
  max neighbors/atom: 2000, page size: 100000
  master list distance cutoff = 3.8
  ghost atom cutoff = 3.8
  binsize = 1.9, bins = 9 9 9
  4 neighbor lists, perpetual/occasional/extra = 1 3 0
  (1) pair lj/cut, perpetual
      attributes: half, newton on
      pair build: half/bin/atomonly/newton
      stencil: half/bin/3d
      bin: standard
  (2) compute orientorder/atom, occasional
      attributes: full, newton on
      pair build: full/bin/atomonly
      stencil: full/bin/3d
      bin: standard
  (3) compute coord/atom, occasional
      attributes: full, newton on
      pair build: full/bin/atomonly
      stencil: full/bin/3d
      bin: standard
  (4) compute cluster/atom, occasional
      attributes: full, newton on
      pair build: full/bin/atomonly
      stencil: full/bin/3d
      bin: standard
Per MPI rank memory allocation (min/avg/max) = 9.745 | 9.752 | 9.760 Mbytes
Step Temp PotEng c_msd[4] v_twopoint v_fit v_max_n 
   12000    1.2544202   -6.1510156 1.9037186e-30 1.3220267e-32 8.3333333e+20            5 
   13000    1.2814769   -6.1738031   0.57385249 0.0036785414  0.046846074            3 
   14000    1.2592184   -6.1680972    1.1186015 0.0066583421  0.046424077            2 
   15000    1.2664125   -6.1701915    1.6919718 0.0093998429  0.046739729            3 
   16000    1.2371066   -6.1738548    2.2781094  0.011865153  0.047009381            5 
   17000    1.2664999   -6.1178716    2.8178067  0.013812778  0.047168063            2 
   18000      1.22966   -6.1552945    3.3139661  0.015342435    0.0466936            2 
   19000    1.2346036   -6.1856447    3.8112295  0.016715919  0.045894382            3 
   20000    1.2657746   -6.1682066    4.2858444  0.017857685  0.045081043            3 
   21000     1.250088    -6.170036    4.8065648  0.019073669  0.044427409            1 
   22000    1.2313961     -6.24283    5.3091137  0.020110279  0.044070618            3 
   23000    1.2512843   -6.1535723    5.8566678  0.021219811  0.043844329            1 
   24000    1.2538319   -6.2222496    6.3838694  0.022166213  0.043729455            2 
   25000    1.2567022   -6.2285239    6.8998158  0.022999385  0.043693733            3 
   26000    1.2517197   -6.2031491     7.333903  0.023506099  0.043545929            5 
   27000    1.2655401   -6.1855355      7.92245  0.024452006  0.043393479            1 
   28000     1.241982   -6.1622986    8.4051997  0.025015475  0.043317244            5 
   29000    1.2605501   -6.1622712    8.9148496  0.025617384  0.043224878            2 
   30000    1.2624226   -6.2323071    9.4176627  0.026160174  0.043151231            2 
   31000    1.2465908   -6.1756238     9.953784  0.026757483  0.043093361            3 
   32000    1.2386142   -6.2186966    10.552961   0.02748167  0.043089667            3 
   33000    1.2319987   -6.2165535    11.018577   0.02782469   0.04315756            3 
   34000    1.2378312   -6.2730186    11.458946  0.028085651  0.043133842            3 
   35000    1.2250094   -6.1894064    11.942976  0.028435656  0.043076951            2 
   36000    1.2461868   -6.2165797    12.450551   0.02882072  0.043006562            3 
   37000    1.2312249   -6.2357711     12.91928  0.029097477  0.042941976            3 
   38000    1.2524144   -6.1528024    13.491071  0.029585682  0.042855041            5 
   39000    1.2266674   -6.2113537    13.882092   0.02966259  0.042742491            3 
   40000    1.2313862   -6.2248819    14.514147  0.030237805  0.042656924            4 
   41000     1.251435   -6.1821978    15.055807  0.030601234  0.042653165            3 
   42000    1.2194055   -6.2169284    15.663726  0.031078822  0.042692233            4 
   43000     1.258137    -6.196968    16.070137  0.031143675  0.042733736            6 
   44000    1.2387555   -6.2002036     16.66749  0.031567215  0.042754306            1 
   45000    1.2351865   -6.2393068    17.005692  0.031492022  0.042751463            3 
   46000    1.2592481   -6.2187139    17.649267   0.03197331  0.042748369            2 
   47000    1.2519775   -6.2052124    18.097014  0.032086904  0.042749753            2 
   48000    1.2233805   -6.2219089    18.586209  0.032267724  0.042738839            3 
   49000    1.2428444   -6.1961068     19.05976  0.032414558  0.042723561            1 
   50000    1.2197978   -6.1885895    19.615587  0.032692645  0.042694042            2 
   51000    1.2562299   -6.2259196    20.122151  0.032879331  0.042666607            2 
   52000    1.2508009   -6.2157442    20.579604  0.032980134  0.042656482            2 
   53000    1.2331416   -6.1993593    21.161012  0.033272032     0.042632            2 
   54000    1.2380602   -6.2243489    21.750552  0.033565666  0.042630309            3 
   55000    1.2346989    -6.206252    22.476797  0.034055753  0.042672469            1 
   56000    1.2578679   -6.2154182    22.967315  0.034177552  0.042736464            1 
   57000    1.2575533    -6.227592    23.361387  0.034154075   0.04277816            4 
   58000    1.2373681   -6.2287477    23.837146  0.034248773  0.042790732            4 
   59000    1.2209517   -6.2306957    24.434898  0.034512568  0.042809192            4 
   60000    1.2361297   -6.2027153    24.855154  0.034521047   0.04283588            3 
   61000    1.1994942   -6.1941468    25.338836  0.034615896  0.042830436            2 
   62000    1.2056498    -6.223775    25.686403  0.034524735  0.042807073            9 
   63000    1.2455727   -6.1971343    26.211457  0.034671239  0.042784369            3 
   64000    1.2579042   -6.2225876    26.820494  0.034922517  0.042772432            2 
   65000    1.2231851   -6.1749143    27.316407  0.035021035   0.04277043            3 
   66000    1.2548552   -6.2246878    27.789085  0.035087229  0.042756804            4 
   67000    1.2488638   -6.2028754    28.402123  0.035326023  0.042748425            4 
   68000    1.2280988   -6.2101706    29.057814  0.035610066  0.042767737            2 
   69000    1.2450693   -6.2082073    29.647685  0.035806383  0.042797806            3 
   70000    1.2230557   -6.2174216     30.26312  0.036027523  0.042845851            3 
   71000    1.2183647   -6.2472471    30.936152  0.036310037  0.042902005            3 
   72000     1.243912   -6.1906145    31.524895  0.036487147  0.042962751            4 
   73000     1.227713   -6.2217318    31.834239  0.036340455  0.043014655            2 
   74000     1.203124   -6.1843863    32.409764  0.036497481  0.043055456            3 
   75000    1.2212889   -6.2035359    32.965179  0.036627976  0.043085242            5 
   76000    1.2072544   -6.1957677    33.464638  0.036693682   0.04310566            3 
   77000     1.233017   -6.2239348    33.951201  0.036743723  0.043130414            2 
   78000     1.228164   -6.2704859     34.45509  0.036810993  0.043163913            5 
   79000    1.2475164   -6.1999853    35.263545  0.037197832  0.043205362            2 
   80000    1.2434283   -6.2593731    35.427452  0.036903596  0.043242542            3 
   81000    1.2174308   -6.2355071    36.129212  0.037169971  0.043260788            4 
   82000     1.223105   -6.2326064    36.708955  0.037305848  0.043281628            1 
   83000    1.2198459   -6.2184641    37.136091  0.037285232  0.043309617            2 
   84000    1.2090776    -6.228939    37.674012  0.037375012  0.043331432            2 
   85000    1.2302288   -6.1963801    38.212629  0.037463361  0.043353086            2 
   86000    1.2238263    -6.225102    38.720181  0.037519555  0.043365376            4 
   87000    1.2094697    -6.216071      39.2057  0.037553352  0.043379514            3 
   88000    1.2194658    -6.245453     39.66958   0.03756589  0.043392375            3 
   89000    1.2304137   -6.2402197    40.072595  0.037521156  0.043402665            4 
   90000    1.2107411    -6.261264    40.710984  0.037695355  0.043403436            2 
   91000    1.2296707   -6.2389081    41.415611  0.037926383  0.043409307            4 
   92000    1.2216077   -6.2257792    41.812149  0.037873324  0.043422501            3 
   93000    1.2051716   -6.2633905    42.412913  0.038004402  0.043433863            1 
   94000    1.2162927   -6.2057772    43.060841  0.038174504  0.043454304            3 
   95000    1.2305441   -6.2758285    43.447462  0.038111808  0.043470894            1 
   96000    1.2216068   -6.2641243    43.924875  0.038129231  0.043481453            1 
   97000    1.2288565   -6.2541439    44.520481  0.038247836   0.04349757            3 
   98000    1.2220494    -6.249509    45.059293  0.038315725  0.043516195            2 
   99000    1.2103043    -6.238458    45.451606  0.038258927   0.04352676            4 
  100000    1.2114917   -6.2204804    46.102715  0.038418929  0.043536302            3 
  101000    1.2238276   -6.1901296    46.671948  0.038508208  0.043548884            1 
  102000    1.2119403   -6.2527995    47.074244  0.038459349  0.043557769            3 
  103000    1.2089916   -6.2231977    47.561014  0.038479785  0.043561839            3 
  104000    1.2297171   -6.2719266    48.187871  0.038612076   0.04356408            2 
  105000    1.2124894   -6.2409542    48.393909  0.038407864  0.043564156            3 
  106000    1.2015177   -6.2543631    48.933952  0.038470088  0.043562333            3 
  107000    1.2233719   -6.2655929    49.366168  0.038447171  0.043553474            2 
  108000    1.2002925   -6.2798709    49.726184  0.038368969   0.04353112            5 
  109000    1.2179003   -6.2655791     50.19793  0.038377622   0.04350331            5 
  110000    1.2318206   -6.2577244     50.53736  0.038285879  0.043470083            2 
  111000    1.2115239   -6.2423339    50.958241  0.038256938  0.043429912            2 
  112000    1.1983908    -6.268874    51.219364  0.038109646  0.043392756            4 
  113000    1.2100056    -6.227532    51.928555  0.038295395  0.043357753            3 
  114000    1.1849339   -6.2699598      52.4889  0.038369079  0.043321849            3 
  115000    1.1837522   -6.2698945    53.061124   0.03845009  0.043297215            4 
  116000     1.186092   -6.2589002    53.450308   0.03839821  0.043271453            2 
  117000    1.1943224   -6.2618504    54.037628  0.038488339  0.043241835            2 
  118000    1.2250988   -6.2384132    54.362242  0.038391414  0.043210587            4 
  119000    1.2029488   -6.2408671    54.960594  0.038487811  0.043181257            5 
  120000    1.2037899   -6.2397881    55.480126  0.038527865   0.04315134            4 
  121000    1.2057432   -6.2450466    55.745784  0.038392413  0.043122173            5 
  122000    1.2184529   -6.2305897    56.315942  0.038467173  0.043093995            2 
  123000    1.2128627   -6.3008718    56.615047  0.038357078  0.043061344            3 
  124000    1.1780751   -6.2413283    56.933344  0.038261656  0.043019151            3 
  125000    1.2111738   -6.2835905    57.181307  0.038120871  0.042975343            2 
  126000    1.2105966    -6.238622    57.978081  0.038345292  0.042933307            3 
  127000    1.1953108   -6.2562629    58.386167  0.038311133  0.042892076            1 
  128000    1.1976125   -6.2304157    58.925727  0.038363103  0.042849764            3 
  129000    1.2198121   -6.2682278     59.20523  0.038246272  0.042812932            2 
  130000     1.197778   -6.2454928    60.164587  0.038567043  0.042778911            2 
  131000    1.2079416   -6.2741971    60.255621  0.038330548  0.042745724            4 
  132000     1.195857   -6.2546306    61.006419  0.038514154  0.042708959            2 
  133000    1.1779907   -6.3245603    61.142413  0.038309783  0.042670827            2 
  134000    1.2027157   -6.2962107    61.442191  0.038210318  0.042629253            3 
  135000     1.178934   -6.2367203     61.90656  0.038213926  0.042588637            2 
  136000      1.19373   -6.2719999    62.436702  0.038257783  0.042548417            3 
  137000     1.183244   -6.2644193    62.938547  0.038283787  0.042507009            4 
  138000     1.195655   -6.2584258    63.246936  0.038192594  0.042469839            3 
  139000    1.1916214   -6.2483371    63.786963  0.038241584   0.04242857            1 
  140000     1.210433   -6.2536313     64.47447   0.03837766  0.042387811            2 
  141000    1.1953438    -6.244698    64.796257   0.03829566  0.042349809            4 
  142000    1.1861259   -6.2909861    65.031425  0.038163982  0.042306846            3 
  143000    1.2038664   -6.2687469    65.479866   0.03815843  0.042263048            4 
  144000    1.1535726   -6.2691856    65.992311  0.038189995  0.042223823            3 
  145000    1.2018593   -6.2353182    66.695494  0.038330744  0.042185723            6 
  146000    1.1863346   -6.2333325    67.227776  0.038372018  0.042150446            7 
  147000    1.1804611   -6.2696018    67.612678  0.038329182  0.042119369            3 
  148000    1.1910091   -6.2536732    68.212524  0.038407953  0.042089602            4 
  149000    1.2107499   -6.2832794     68.63731  0.038387757  0.042058628            2 
  150000    1.1868575   -6.2977572    68.926657  0.038292587  0.042028725            5 
  151000    1.1883185   -6.2542731    69.617855   0.03842045  0.041997426            4 
  152000    1.2053686   -6.2573581    70.073375   0.03841742  0.041966952            5 
  153000    1.1916068   -6.3024169     70.39929   0.03834384  0.041934427            2 
  154000    1.1809726   -6.2837153    70.779987  0.038300858  0.041899095            2 
  155000    1.1839856   -6.2658486     71.25473  0.038308994  0.041867015            2 
  156000    1.2117124    -6.279119    71.745935   0.03832582  0.041837868            5 
  157000    1.2235744   -6.2637774    72.364359  0.038409957  0.041805997            3 
  158000    1.1955269   -6.2784708    72.745177  0.038367709  0.041775244            4 
  159000    1.1962621   -6.2651335    72.971885  0.038245223  0.041742102            4 
  160000    1.1714542   -6.3001863     73.34034  0.038198094  0.041708046            2 
  161000     1.196798   -6.3087863    73.812133  0.038205038  0.041674903            4 
  162000    1.1984273   -6.2789813    74.406821  0.038275114  0.041640733            2 
  163000    1.1851456   -6.3125086    74.456896  0.038065898  0.041605692            3 
  164000    1.1646486   -6.2843035    75.240983  0.038232207  0.041571208            4 
  165000    1.1818869   -6.2637587    75.667821  0.038216071  0.041536206            3 
  166000    1.1922889     -6.26512    76.155906  0.038230876   0.04150515            3 
  167000    1.1590344   -6.2992462    76.695426   0.03827117  0.041473937            2 
  168000    1.1997985   -6.3210296    77.335298  0.038360763  0.041446355            2 
  169000    1.1813688   -6.2969529    78.057868  0.038490073   0.04142041            4 
  170000    1.2039288   -6.3186908    77.902258  0.038187381  0.041392667            2 
  171000    1.2038428   -6.2738338     78.46204  0.038236862  0.041364422            4 
  172000     1.170093    -6.306473    78.637343  0.038099488  0.041334039            2 
  173000    1.1816392   -6.2642487     79.21291  0.038156508  0.041299828            4 
  174000    1.1863312   -6.3125986    79.557301  0.038102155  0.041264029            2 
  175000    1.1812127   -6.2754207    80.111055  0.038148121    0.0412308            5 
  176000    1.1659998   -6.3144248    80.688531  0.038204797  0.041201077            7 
  177000     1.203783   -6.3308974     81.27757  0.038266276  0.041172388            2 
  178000    1.1825094    -6.286435    81.924006  0.038353935  0.041146912            5 
  179000    1.1882996   -6.3001704    82.306987  0.038317964  0.041119952            1 
  180000    1.1804575   -6.2761691    82.401597  0.038148888  0.041095625            2 
  181000    1.1692595   -6.2872632    82.758026  0.038102222  0.041066808            3 
  182000    1.1950986   -6.2697475     83.31674   0.03814869  0.041036677            5 
  183000    1.1805657   -6.2899182    83.627988  0.038081962   0.04100538            2 
  184000     1.176791   -6.3151129    84.481478  0.038261539  0.040975196            4 
  185000    1.1801851   -6.3147222     84.60313  0.038109518   0.04094855            1 
  186000    1.1676121    -6.282357    84.985117  0.038075769  0.040919579            3 
  187000    1.1669775   -6.3013137    85.616319   0.03815344  0.040890653            3 
  188000    1.1548787   -6.2921957    86.053069  0.038144091  0.040862957            2 
  189000    1.1485279   -6.2881829    86.966916  0.038345201   0.04083872            3 
  190000     1.144977   -6.2817247    86.980898  0.038149517  0.040817364            3 
  191000    1.1839636   -6.3234955     87.62112   0.03822911  0.040796177            3 
  192000    1.1869882   -6.3132011    88.090014  0.038233513   0.04077306            2 
  193000    1.1762639   -6.3366586    88.142107  0.038057905  0.040749684            4 
  194000    1.1770625   -6.3517079    88.899331  0.038186998   0.04072818            2 
  195000     1.191509   -6.3372564    89.277772  0.038152894  0.040705988            3 
  196000    1.1918235   -6.2900043    89.715112   0.03814418  0.040684503            3 
  197000    1.2066986   -6.3567424    90.275933  0.038187789  0.040661748            4 
  198000    1.1561711   -6.3079887    91.266752  0.038411933  0.040638991            2 
  199000    1.1853492    -6.305872    91.414354  0.038280718   0.04061947            1 
  200000    1.1685996   -6.3185744    91.816917  0.038257049  0.040599319            3 
  201000    1.1905989   -6.3676581    92.021662  0.038151601  0.040577654            1 
  202000    1.1899121   -6.3327284    92.571886  0.038189722  0.040557363            6 
  203000    1.1941049   -6.3373631    93.621425   0.03843244  0.040537347            3 
  204000    1.1356633   -6.2936716    93.098593  0.038030471  0.040516713            3 
  205000    1.1682144   -6.2893677    93.929786   0.03818284   0.04049304            4 
  206000    1.1873828   -6.2757596    94.676717  0.038299643   0.04047283            2 
  207000    1.1972277    -6.329514    94.472205  0.038032289  0.040451941            3 
  208000    1.1840682   -6.3687097    94.648455  0.037920054  0.040426771            7 
  209000    1.2062702   -6.3195663    95.304048  0.038000019  0.040400864            2 
  210000    1.1656984   -6.2982847    95.575169  0.037926654  0.040376329            2 
  211000    1.1562583    -6.323072    96.507193  0.038115005  0.040352058            2 
  212000    1.1625854   -6.3116666    97.176158  0.038198175  0.040330343            3 
  213000    1.1726829   -6.3492171    97.405976  0.038108754  0.040310212            3 
  214000    1.1906419   -6.3079092    97.727633  0.038055932  0.040289504            2 
  215000    1.1764717   -6.3340127    98.400338  0.038139666  0.040268642            4 
  216000    1.1736372   -6.3637737    98.041632  0.037824704  0.040244216            2 
  217000    1.1784468   -6.3307941    98.623506   0.03787385  0.040219638            1 
  218000    1.1520238    -6.341125    99.189984   0.03791666  0.040195051            2 
  219000    1.1647507   -6.3537754    99.269923  0.037773943  0.040171828            3 
  220000      1.17864   -6.3403875    100.29755  0.037991497  0.040149381            2 
  221000    1.1780788   -6.2821934    101.03713  0.038098466  0.040129348            1 
  222000    1.1680132   -6.3242932    101.32154  0.038033609  0.040108556            2 
  223000    1.1560245   -6.3276126     101.4915   0.03792657  0.040086138            2 
  224000    1.1640888   -6.3215282    101.48824   0.03775604  0.040062307            2 
  225000    1.1682583   -6.3101442    102.01095  0.037781835  0.040036981            3 
  226000    1.1566392   -6.3274897    103.05619  0.038000068  0.040013444            4 
  227000    1.1590803   -6.3423045    103.23657  0.037898889  0.039990916            2 
  228000    1.1396405   -6.3117758    103.69425  0.037899943  0.039970958            2 
  229000    1.1589703   -6.3196826    104.08665  0.037877239  0.039948754            5 
  230000    1.1473319   -6.3162943    104.50663  0.037864722   0.03992649            4 
  231000    1.1509846    -6.280402    105.03161  0.037890191   0.03990494            2 
  232000    1.1374604   -6.3157054    105.58498  0.037925639  0.039884689            3 
  233000    1.1662161   -6.3797595    105.32368  0.037669412  0.039863525            3 
  234000    1.1406389   -6.3407188    106.42651  0.037901179  0.039843015            3 
  235000    1.2009261   -6.2738203    107.54765  0.038137464  0.039824952            5 
  236000    1.1629883   -6.3548058    107.29971  0.037888315  0.039807893            3 
  237000    1.1661539   -6.3382447    107.75825  0.037889681  0.039789465            1 
  238000    1.1432779   -6.3747153    107.97779  0.037807348  0.039770558            2 
  239000    1.1657608   -6.3830694    108.02579  0.037665895  0.039750962            2 
  240000    1.1523409   -6.3283355     109.1436  0.037897084  0.039730947            4 
  241000    1.1275502   -6.3004493    109.32656  0.037803099  0.039711847            3 
  242000    1.1399621   -6.3455651     109.5603  0.037727375   0.03969098            5 
  243000    1.1655603   -6.3327617    110.09236  0.037754583  0.039669638            3 
  244000    1.1485157   -6.3473663    110.52239  0.037746717  0.039648386            2 
  245000    1.1506119   -6.3420348    111.10832  0.037791944  0.039627386            5 
  246000    1.1813606   -6.3550809    111.55345   0.03778911  0.039605794            3 
  247000    1.1441873    -6.299318    112.15286  0.037838347  0.039585566            3 
  248000     1.160307   -6.3391522    112.30201  0.037735892  0.039566575            3 
  249000    1.1560335   -6.3558488    112.62997  0.037694101  0.039547021            2 
  250000    1.1614204   -6.3587566    112.99908  0.037666358   0.03952806            5 
  251000    1.1255419   -6.3532482    113.61711  0.037721485  0.039508177            3 
  252000    1.1647951   -6.3619058    113.92854  0.037674783  0.039487991            2 
  253000    1.1446729   -6.3454872    114.30016  0.037648273  0.039469064            4 
  254000    1.1538863   -6.3545923    115.02049   0.03773638  0.039448258            1 
  255000    1.1388747   -6.3762203    115.15008  0.037630746  0.039429656            2 
  256000    1.1379012   -6.4032525    115.64689  0.037645473  0.039411283            2 
  257000     1.172787    -6.373609    116.12389  0.037653662  0.039392384            1 
  258000    1.1583527   -6.3322089     116.8846  0.037753425  0.039373573            6 
  259000    1.1630341   -6.3201942    116.99046  0.037641719   0.03935506            2 
  260000    1.1461437   -6.3041311    117.73314  0.037734981  0.039335432            2 
  261000    1.1774927   -6.3295251    117.90968  0.037646769  0.039315792            2 
  262000    1.1600674    -6.357403    118.39166  0.037656381  0.039297357            3 
  263000    1.1318683   -6.3402824    118.80976  0.037645679    0.0392804            5 
  264000    1.1185057   -6.3539748     119.1972   0.03762538  0.039262605            4 
  265000    1.1384085   -6.3211574    119.89404   0.03770253  0.039245076            4 
  266000    1.1411513   -6.3789478    120.24281  0.037670052  0.039227984            3 
  267000    1.1455071    -6.340094    121.04188  0.037778363  0.039211695            3 
  268000    1.1410503   -6.3455187    121.03316  0.037634689  0.039194736            3 
  269000    1.1570365   -6.3777626    121.32716  0.037585862  0.039176747            5 
  270000    1.1577064   -6.3805355    121.43632  0.037480345  0.039158097            2 
  271000    1.1467128   -6.3631018    121.75473  0.037439954  0.039138167            3 
  272000    1.1581788   -6.3764568    122.00937  0.037380322  0.039117355            2 
  273000    1.1588737   -6.3367183    122.83879  0.037496578  0.039096882            2 
  274000     1.126111   -6.4123182    123.01729  0.037414018  0.039077315            4 
  275000    1.1266202   -6.3593129     123.7238  0.037492061  0.039058773            2 
  276000      1.10782   -6.3740621     124.0745  0.037462108  0.039040139            3 
  277000    1.1451912   -6.3912494    124.76743  0.037535327  0.039021886            3 
  278000    1.1447986   -6.3596214    125.30466  0.037561349  0.039004857            2 
  279000    1.1333518   -6.3615385    125.36109  0.037443576  0.038987821            2 
  280000    1.1135239   -6.3609036    125.89672  0.037469263  0.038971283            5 
  281000    1.1148018   -6.3328067    126.28781    0.0374519   0.03895446            2 
  282000    1.1575854   -6.3438108    126.85914  0.037487924   0.03893741            4 
  283000    1.1708908   -6.3888444     126.8852  0.037363132  0.038918248            3 
  284000    1.1342978   -6.3563152    126.96596   0.03725527  0.038898443            4 
  285000     1.133093   -6.4102393     127.3498  0.037236783  0.038879577            2 
  286000    1.1412747   -6.4053833    127.82957   0.03724638  0.038860861            2 
  287000    1.1435442   -6.4193777    128.55584  0.037327481  0.038843353            4 
  288000    1.1296853   -6.3743536    130.04186  0.037627854  0.038827571            2 
  289000    1.1296707    -6.381475    129.87851  0.037450551  0.038813372            3 
  290000    1.1243243   -6.3418048    131.22132  0.037707275  0.038800083            4 
  291000    1.1285371    -6.332579    131.39793  0.037628273  0.038788111            2 
  292000    1.1406949   -6.3682377    131.29422  0.037469812  0.038775155            2 
  293000    1.1431735   -6.4116394    131.37441  0.037364735  0.038762594            3 
  294000    1.1514587   -6.3857111     132.1669  0.037462272  0.038750199            3 
  295000    1.1432332   -6.4134918    132.82061  0.037519946  0.038737688            4 
  296000    1.1560314   -6.3769957    133.23142  0.037508847  0.038723392            3 
  297000    1.1397892   -6.3796984    133.80149  0.037542505  0.038709769            1 
  298000    1.1206111   -6.4130823    133.77708  0.037409697  0.038695926            6 
  299000    1.1476794   -6.3588476    134.03168   0.03735554  0.038681598            2 
  300000    1.1403558   -6.3863447    134.16656  0.037268488  0.038665613            1 
  301000    1.1312129   -6.4129203    134.50311  0.037237848  0.038650461            7 
  302000    1.1528606   -6.3905784    135.43164  0.037370761  0.038635986            4 
  303000    1.1258701   -6.4331839    135.61416  0.037297624  0.038620305            3 
  304000     1.129636   -6.3821306     135.8378  0.037236238  0.038602383            3 
  305000    1.1277876   -6.4043501    136.50109   0.03729538  0.038586953            2 
  306000    1.1495917   -6.3978401     136.5728  0.037193029  0.038570749            3 
  307000    1.1386524   -6.3503222    137.39506  0.037295076  0.038554935            3 
  308000    1.1174858    -6.355993    137.83021  0.037291724  0.038538837            8 
  309000    1.1066317   -6.3990572    137.13574   0.03698375  0.038521766            3 
  310000    1.1480422   -6.3744276    138.01849  0.037101745  0.038503479            1 
  311000    1.1252549   -6.3947673     138.5548  0.037126152  0.038484505            1 
  312000    1.1158345   -6.3832441    138.46624  0.036983505  0.038466278            2 
  313000    1.1441995   -6.3948584    139.36755  0.037105311  0.038447889            6 
  314000    1.0992614   -6.3875134    139.07756   0.03691018   0.03842751            4 
  315000      1.15619   -6.4175939    139.56478  0.036921899  0.038407089            6 
  316000    1.1307303   -6.4250657    139.76083  0.036856759  0.038386972            2 
  317000    1.1157899   -6.4096598    140.55753  0.036949928  0.038365679            3 
  318000     1.134226   -6.3552845     141.3242  0.037034645   0.03834551            3 
  319000    1.1161344   -6.4103813    141.04747  0.036846256  0.038325147            3 
  320000    1.1287564   -6.3666958    141.96785  0.036970794  0.038305673            4 
  321000    1.1389107   -6.3820364    142.21804   0.03692057  0.038286809            5 
  322000    1.1148247   -6.3941107    142.57084  0.036897215  0.038267146            3 
  323000     1.119431   -6.3989048    142.63535  0.036799625  0.038247633            2 
  324000    1.1560489   -6.4261465    143.04301  0.036790897  0.038228339            3 
  325000     1.145881   -6.3974597    143.42775  0.036776347  0.038208327            4 
  326000    1.1163821   -6.4092182    143.43029  0.036664184  0.038187608            3 
  327000    1.1155969   -6.4387826    144.06998  0.036715082  0.038167242            3 
  328000    1.1157991   -6.3687876    145.48418  0.036962445  0.038148971            3 
  329000    1.1231355   -6.4124965    145.49669  0.036853265  0.038131344            3 
  330000    1.1043632   -6.3656148     146.1395  0.036903913  0.038114184            5 
  331000    1.1281639   -6.4082073    146.58549  0.036904706  0.038097859            1 
  332000    1.1254861   -6.4386092    147.07919  0.036917466  0.038082091            3 
  333000    1.1206694   -6.4394681    147.54108  0.036922192  0.038066855            4 
  334000    1.1426345   -6.3996785    148.23241  0.036984134  0.038051997            3 
  335000    1.1161206   -6.3819851    148.64303  0.036975878  0.038037168            5 
  336000    1.1045167   -6.3866796    148.99126  0.036952197  0.038022665            3 
  337000    1.0970156   -6.3961431    149.67703  0.037012125  0.038008154            3 
  338000    1.1225087   -6.4149995    149.45179  0.036847089  0.037993091            4 
  339000    1.1258479   -6.4157614    149.34704  0.036712645  0.037977883            2 
  340000    1.1181843   -6.4011532    150.15233  0.036802043  0.037963085            3 
  341000    1.1248265   -6.4076982     150.6022  0.036804056  0.037945843            7 
  342000    1.1075917   -6.4005292    150.89947  0.036768876   0.03792857            4 
  343000    1.1058582   -6.4045378    151.22763  0.036741407  0.037911442            4 
  344000    1.1192376   -6.3995193    151.38705   0.03667322  0.037894353            2 
  345000    1.1012844   -6.3964811    151.92636  0.036697188  0.037877816            3 
  346000    1.1103699   -6.4174978    152.40388  0.036706136  0.037861636            3 
  347000    1.1132143   -6.4077447     153.2762  0.036809847  0.037845115            5 
  348000    1.1374463   -6.3759634    153.80191  0.036829959  0.037830399            4 
  349000     1.108897   -6.4002071    154.45702  0.036880855  0.037816574            4 
  350000    1.1338245   -6.4042665    154.14395   0.03670094  0.037801218            7 
  351000    1.1262094   -6.4057308    154.20814   0.03661162  0.037785947            4 
  352000    1.0904792    -6.450508    155.22516  0.036748381  0.037770193            3 
  353000    1.1226434   -6.4182911    155.67129  0.036749597  0.037755816            3 
  354000    1.1053117   -6.4355915    156.58146  0.036860043  0.037741227            1 
  355000    1.1338388   -6.4263608    156.25499  0.036679575  0.037725943            4 
  356000    1.1095874   -6.4236799    156.60448  0.036658352  0.037710417            3 
  357000    1.1501381   -6.4318197    157.49073  0.036762543  0.037695272            4 
  358000      1.11949    -6.367345    158.16353  0.036816464  0.037680051            3 
  359000    1.1005545   -6.4203178    157.61837  0.036587365  0.037664674            2 
  360000    1.1263142    -6.413073    158.60995  0.036715266  0.037649731            2 
  361000    1.1338466   -6.4200264    158.33564  0.036550239  0.037635045            2 
  362000    1.1005154   -6.4000911    159.54267  0.036727134  0.037620419            6 
  363000    1.1113689   -6.4290161    159.35521  0.036582923  0.037604703            3 
  364000    1.0861405   -6.4249288     160.1098  0.036655173  0.037588769            8 
  365000    1.1041005   -6.4433401    159.94236   0.03651652    0.0375733            5 
  366000    1.1086893   -6.4494168    160.70585  0.036590585  0.037557804            3 
  367000    1.1198378   -6.4230021    161.21646  0.036606826  0.037543111            3 
  368000     1.096194   -6.4433152    161.75722  0.036629804  0.037529628            3 
  369000    1.1062711   -6.4554351    161.50926  0.036474539  0.037515425            2 
  370000    1.1010723   -6.4610999    162.05187   0.03649817  0.037501126            5 
  371000     1.114025   -6.4022103    162.80238   0.03656837  0.037486641            3 
  372000    1.1177073   -6.4297504    163.12271  0.036541825  0.037472602            2 
  373000    1.0748846   -6.4272841    163.34305  0.036493085  0.037457788            2 
  374000    1.0977333    -6.445409    163.72725  0.036481115  0.037442551            3 
  375000    1.0879256   -6.4408137    164.62081  0.036582402  0.037428678            5 
  376000    1.1028611   -6.4294608     164.9444  0.036556825  0.037413893            8 
  377000    1.0825928   -6.4454554    164.77655  0.036422757  0.037399799            3 
  378000     1.124256   -6.4085312    165.48703  0.036483032   0.03738493            2 
  379000    1.0923494    -6.458906    165.67158  0.036427348  0.037369779            4 
  380000     1.093293   -6.4341187    166.22983  0.036453911  0.037354959            5 
  381000    1.1171037   -6.4301236    165.96298  0.036299864  0.037340249            4 
  382000    1.1091478   -6.4644517     166.7734  0.036381631  0.037326841            2 
  383000    1.0997274   -6.4220435    167.96986  0.036546967  0.037312717            3 
  384000    1.1018179   -6.3931317    168.35981  0.036536417  0.037298955            2 
  385000    1.1156184   -6.4226879    168.11882  0.036389354  0.037285135            2 
  386000    1.0978506   -6.4428133    168.25072  0.036323557   0.03727098            4 
  387000    1.0923717   -6.4123887     168.5945  0.036303725  0.037256152            4 
  388000    1.1132041   -6.4426964    169.19459  0.036339044  0.037241102            4 
  389000    1.1077858   -6.4595661    169.24338  0.036256079  0.037224916            7 
  390000     1.110827    -6.448293    169.64133  0.036248148  0.037208588            3 
  391000    1.0975521   -6.4623749    169.72291  0.036172829   0.03719193            4 
  392000    1.0914274   -6.4576108    169.85248  0.036108096  0.037174933            2 
  393000     1.088558   -6.5029199    170.22206  0.036094585  0.037157712            5 
  394000    1.1092563   -6.4407474    170.57525  0.036077675  0.037140499            4 
  395000    1.1178728   -6.4438571    170.98749   0.03607331   0.03712342            4 
  396000     1.074448   -6.5023517    170.96362  0.035977193  0.037106124            5 
  397000    1.0833899   -6.4145937    171.84433  0.036071439  0.037088804            5 
  398000    1.1133543   -6.4411966    172.48515   0.03611498  0.037071568            4 
  399000    1.0863538   -6.4582313    172.40797  0.036008348  0.037054284            3 
  400000    1.1059165   -6.4348897    172.88658  0.036018038  0.037037617            3 
  401000    1.1174156   -6.4698942    172.96161  0.035943809  0.037019849            1 
  402000    1.0987249   -6.4399271    172.66871  0.035793679  0.037000987            2 
  403000     1.130744   -6.4334383    173.46612  0.035869753  0.036981941            2 
  404000    1.0738245   -6.4572475     173.4414  0.035775867  0.036962228            1 
  405000    1.0763057   -6.4540265    173.81547    0.0357645  0.036941789            3 
  406000    1.0906254   -6.4450342    174.18953  0.035753188  0.036921464            3 
  407000    1.1038609   -6.4785859    174.42669  0.035713901  0.036900018            3 
  408000    1.0961622   -6.4853891    174.64373  0.035670697  0.036879042            2 
  409000    1.0902996     -6.46815    174.99989   0.03565605  0.036858716            3 
  410000    1.0978682    -6.492056    175.21293  0.035612385  0.036838694            6 
  411000    1.0925386   -6.4561525    175.76696   0.03563807  0.036818882            2 
  412000    1.0919303   -6.4531479    175.60874  0.035519568   0.03679855            5 
  413000    1.0990822   -6.4570833     176.7036  0.035654479  0.036778031            3 
  414000    1.1054779   -6.5028294    176.75267  0.035578236  0.036758422            2 
  415000    1.0767625   -6.4834077    176.96441  0.035535022  0.036737275           11 
  416000    1.0548791    -6.435476    177.18939  0.035494669  0.036716335            4 
  417000    1.0697337   -6.4840793     177.5491  0.035481434    0.0366966            3 
  418000    1.0924638   -6.4484319     178.2768  0.035541627  0.036675905            2 
  419000     1.080005    -6.449057    178.86221  0.035573232  0.036655281            6 
  420000    1.0753916   -6.4900293    178.77914  0.035472051  0.036634525            3 
  421000    1.1120971   -6.4526682    179.55752  0.035541869  0.036613535            5 
  422000    1.0953325    -6.470198    179.40849  0.035428217  0.036592798            3 
  423000      1.07078   -6.4440965    179.76797  0.035415281  0.036572347            2 
  424000    1.0823221   -6.4536255    179.38062  0.035255624  0.036550252            4 
  425000     1.058424    -6.445657    180.36867  0.035366405  0.036528317            2 
  426000    1.1065993   -6.4910803    180.66786  0.035341913  0.036506834            3 
  427000    1.0822144   -6.4831948    180.86503  0.035297624  0.036485048            1 
  428000    1.0946831    -6.466823    181.13573   0.03526786  0.036463283            2 
  429000    1.0897642   -6.5223811    181.02685  0.035164501  0.036441184            2 
  430000    1.1117868   -6.4945287     181.5998  0.035193759  0.036418799            5 
  431000    1.0915007   -6.4818505    182.18568  0.035225382  0.036396889            3 
  432000    1.0959469   -6.4702127    182.81784  0.035265788  0.036376105            3 
  433000    1.0844625   -6.4635685    183.18922  0.035255816  0.036355336            3 
  434000    1.1133916   -6.4810177     183.3017  0.035196178  0.036334869            2 
  435000    1.0891435   -6.4940372     184.0347  0.035255689  0.036314439            2 
  436000    1.0828738   -6.5303019    184.45447  0.035255059  0.036293601            3 
  437000    1.0707928   -6.5056588    184.35103  0.035154659  0.036273536            2 
  438000    1.0966366   -6.4615226    185.29952  0.035254855  0.036252844            5 
  439000    1.0812196   -6.5240729    184.60572  0.035042847  0.036231832            6 
  440000    1.0831384   -6.4684845    185.63797  0.035158707  0.036211111            3 
  441000    1.0748736    -6.506087    186.16855  0.035179243  0.036191368            2 
  442000    1.0778772   -6.4998398    186.02256  0.035072128  0.036171399            4 
  443000    1.0741351   -6.4626494    186.37353  0.035058979  0.036150734            3 
  444000    1.0969111   -6.4802497    186.49027  0.035001927  0.036130348            2 
  445000    1.0487313   -6.4972342    186.83111  0.034987099  0.036109366            5 
  446000    1.0967069   -6.5120641    186.92093  0.034925435  0.036088091            6 
  447000    1.0845805   -6.4924064    187.14919  0.034889856  0.036066353            1 
  448000    1.0731311   -6.4417832    187.43101  0.034864399   0.03604457            3 
  449000    1.0743172   -6.5156939    187.71581  0.034839609  0.036022364            3 
  450000    1.0831975   -6.5043401    187.87423  0.034791524  0.035999589            4 
  451000    1.0737737   -6.5200534    188.19338  0.034773352   0.03597744            3 
  452000    1.0973986   -6.4920232    188.46116  0.034745789  0.035955127            2 
  453000    1.0745485   -6.4368584     188.8348  0.034737821  0.035932965            3 
  454000    1.0779606    -6.480315     188.8236  0.034659251  0.035910404            3 
  455000    1.0904363   -6.4778994    189.51534  0.034709769  0.035887879            4 
  456000    1.0834702   -6.4804896    190.17963  0.034755049  0.035865111            4 
  457000     1.089004   -6.4933864    189.71782  0.034594788  0.035842802            4 
  458000    1.1009208   -6.5130649    190.11613  0.034591726  0.035819579            8 
  459000    1.0547937   -6.4860786    190.40267  0.034568386  0.035796708            4 
  460000    1.0906926    -6.488886    190.94154  0.034590859  0.035774178            3 
  461000    1.0729005   -6.5192026    191.02438  0.034530799   0.03575104            9 
  462000     1.070791   -6.5161489    191.79772  0.034595548  0.035728063            4 
  463000    1.0667032   -6.4911504    192.33502  0.034617534  0.035704959            7 
  464000    1.0904096   -6.4928923    191.87269  0.034459893   0.03568149            2 
  465000    1.0749148   -6.5142252    192.06702  0.034420614  0.035658418            5 
  466000    1.0532495   -6.4839259    192.99211   0.03451218  0.035635377            5 
  467000    1.0616109   -6.5162699    192.62397  0.034372586   0.03561225            3 
  468000    1.0564014   -6.4920395    192.96221  0.034359368  0.035588534            4 
  469000    1.0656271   -6.4810687    194.17737   0.03450202  0.035565841            5 
  470000    1.0672753   -6.4918112    194.16167  0.034425828  0.035543447            3 
  471000    1.0696687   -6.4992893    194.62327  0.034434408   0.03552086            2 
  472000    1.0529144   -6.5157716    194.14815  0.034277569  0.035498074            3 
  473000     1.078689   -6.5277393    193.80431  0.034144523  0.035474439            5 
  474000    1.0757172    -6.522955    194.56905  0.034206936  0.035450161            4 
  475000    1.0576216   -6.5092834    194.90392   0.03419367   0.03542664            4 
  476000    1.0365838   -6.5058145    195.38583  0.034206203  0.035402684            2 
  477000    1.0626385   -6.5163931    195.49342  0.034153289  0.035378928            5 
  478000    1.0437279   -6.5091238    195.52982  0.034088183  0.035355048            3 
  479000    1.0670258   -6.5128787    196.36433  0.034162201   0.03533029            4 
  480000    1.0698196   -6.4887485    195.86071  0.034003596  0.035305801            2 
  481000    1.0649923   -6.5337111    196.70528  0.034079225  0.035280909            1 
  482000    1.0465664   -6.4936326    196.79806  0.034024561  0.035256491            2 
  483000    1.0562027    -6.515278     197.0121  0.033991045  0.035232125            2 
  484000     1.069042   -6.5075705    196.99867  0.033918504  0.035207483            4 
  485000    1.0452708   -6.4751206    198.00919  0.034022197    0.0351831            4 
  486000    1.0392673   -6.5305693    196.86843   0.03375659  0.035158733            3 
  487000    1.0451345   -6.4954929     197.5105  0.033797142  0.035133721            2 
  488000    1.0729965   -6.4666744    198.58024   0.03391056  0.035109037            4 
  489000    1.0654175   -6.5176128    198.74808  0.033869816  0.035083915            3 
  490000    1.0582689   -6.5262484    199.12602  0.033864969  0.035059588            4 
  491000    1.0446241   -6.5319835    199.19519  0.033807737  0.035035016            4 
  492000    1.0598526   -6.4949906      199.652  0.033816395  0.035010745            2 
  493000    1.0675965   -6.5617407    199.30306   0.03368882  0.034986832            3 
  494000    1.0845041   -6.5694084    200.33453  0.033794623  0.034962276            5 
  495000    1.0663019   -6.5204748    200.57091  0.033766146   0.03493849            6 
  496000    1.0534263   -6.4998005    200.89598  0.033752685  0.034914741            5 
  497000    1.0444366   -6.5214107    200.56853  0.033629868  0.034890886            5 
  498000    1.0719512   -6.5416245    201.07314  0.033646777  0.034866979            3 
  499000    1.0825363   -6.5421816    201.83021   0.03370578  0.034843355            2 
  500000    1.0529924   -6.5385931    201.44282  0.033573803  0.034819593            1 
  501000    1.0627253   -6.5555983    201.93118  0.033588021  0.034795897            4 
  502000    1.0499894   -6.5372959     201.8077  0.033500614  0.034771336            4 
  503000    1.0368256   -6.5306579    202.96894  0.033626398  0.034746807            2 
  504000     1.074063   -6.5582496    202.49959  0.033482075  0.034722543            4 
  505000    1.0544706   -6.5229039    203.36635  0.033558804  0.034698283            3 
  506000    1.0890542   -6.4948566    203.69896   0.03354726  0.034673746            2 
  507000    1.0502178   -6.5809982    203.32527   0.03341967   0.03464964            5 
  508000    1.0556765   -6.5247162    204.28478  0.033511283  0.034625123            3 
  509000     1.059467   -6.5477581    204.51214  0.033482669  0.034601114            2 
  510000    1.0475393    -6.516523    205.01474   0.03349914  0.034577137            4 
  511000    1.0635479   -6.5577308    204.83156  0.033403712  0.034553156            3 
  512000     1.053426    -6.567168    205.39784  0.033430637  0.034528818            2 
  513000     1.071428   -6.5406345    206.15784  0.033488928  0.034505144            4 
  514000    1.0201214   -6.5437742    205.92844  0.033386582  0.034481701            3 
  515000    1.0454919   -6.5679335    206.02902   0.03333803  0.034457623            7 
  516000    1.0539684   -6.5463294    207.25398   0.03347125  0.034433811            3 
  517000    1.0643875    -6.546183    207.05635  0.033374654  0.034409725            5 
  518000    1.0403016   -6.5432364     206.6937  0.033251883  0.034386001            4 
  519000    1.0493179   -6.5378679    206.93531  0.033226607  0.034362022            6 
  520000    1.0696832   -6.5421635    207.61037  0.033270892  0.034338251            3 
  521000    1.0277806    -6.542956     207.3679  0.033168251  0.034314219            3 
  522000    1.0726141   -6.5550094    207.47409  0.033121661   0.03429009            6 
  523000     1.029695   -6.5520935    207.74694  0.033101806  0.034265751            3 
  524000     1.025214   -6.5620234    208.30957  0.033128113   0.03424092            3 
  525000    1.0407109   -6.5503543    207.83742  0.032990067   0.03421601            2 
  526000    1.0476878   -6.5347445    208.51884  0.033035305  0.034191683            2 
  527000    1.0306284   -6.5224523    208.77638  0.033013342  0.034167545            7 
  528000    1.0308619   -6.5409802    209.78098  0.033109372  0.034143164            5 
  529000    1.0179029   -6.5736871    209.79674  0.033049266   0.03411881            3 
  530000    1.0466711   -6.5386527    210.36383  0.033076074  0.034094582            6 
  531000    1.0366952   -6.5592293    210.36839    0.0330145  0.034070918            3 
  532000    1.0148689   -6.5412967    211.71786  0.033163825  0.034047728            2 
  533000    1.0524738   -6.5540474    210.59756  0.032926447  0.034025068            3 
  534000    1.0516331   -6.5600388    211.91493   0.03307037  0.034002159            2 
  535000    1.0353601   -6.5759856    212.01149  0.033023597  0.033979127            3 
  536000    1.0384584   -6.5815788    212.67415  0.033065011  0.033956444            6 
  537000    1.0398629   -6.5858805    213.11307   0.03307155   0.03393389            3 
  538000    1.0334706   -6.5684242    212.38529   0.03289735  0.033910949            5 
  539000    1.0531797   -6.5383495    212.93515  0.032921328  0.033888912            4 
  540000    1.0313277   -6.5253061     213.6414  0.032969352  0.033866152            3 
  541000    1.0596535   -6.5841825    212.94063  0.032800467  0.033843712            2 
  542000    1.0489014   -6.5223498    215.02047  0.033059728  0.033821301            3 
  543000    1.0534085   -6.5733478    214.29317  0.032887226  0.033799157            3 
  544000    1.0310805   -6.5665958    214.99437  0.032934186  0.033777059            3 
  545000    1.0542794   -6.5489492    215.00704  0.032875695  0.033754694            3 
  546000    1.0377015   -6.5526695    215.98434  0.032964642  0.033732809            3 
  547000    1.0382368    -6.569575    215.42905  0.032819782  0.033710625            5 
  548000    1.0266288   -6.5792999    215.52699  0.032774786  0.033688161            3 
  549000    1.0387656   -6.5716302    215.44049  0.032701957  0.033665317            4 
  550000     1.020432   -6.5717319    215.70708  0.032682891  0.033642075            4 
  551000    1.0139802   -6.5738698    216.05989  0.032676934   0.03361955            4 
  552000    1.0561365   -6.5680735    216.39746  0.032668699  0.033597002            2 
  553000    1.0290371   -6.5764245    217.55923  0.032784694  0.033574587            4 
  554000    1.0232866   -6.5592495    217.51277  0.032718527  0.033552689            3 
  555000    1.0362553   -6.6081019    217.83463  0.032707902  0.033531033            4 
  556000    1.0358306   -6.5909267    217.89577   0.03265824  0.033509753            3 
  557000    1.0332169   -6.5586454    218.18496  0.032642873  0.033488782            3 
  558000    1.0658047   -6.5911862    219.00633  0.032707038  0.033467524            8 
  559000    1.0599349   -6.5450955    219.66664  0.032746965  0.033446263            3 
  560000    1.0498741   -6.5922757    219.13427  0.032609266  0.033424774            4 
  561000    1.0351101   -6.5682611    219.94951  0.032672239  0.033402891            2 
  562000    1.0346485   -6.5271948    220.39305  0.032679871  0.033381502            4 
  563000    1.0143447   -6.5766538    220.10814  0.032579654  0.033360067            4 
  564000    1.0568437   -6.5900283    221.00383   0.03265423  0.033338435            4 
  565000    1.0342818   -6.5637018    221.39576  0.032654242  0.033317519            4 
  566000     1.024644   -6.5910159    221.57088  0.032622333   0.03329659            5 
  567000    1.0184752   -6.5608477    222.15019  0.032649939  0.033276131            3 
  568000    1.0092603    -6.598573    221.67067  0.032522105  0.033255855            3 
  569000    1.0492333   -6.5471576    222.66048  0.032609912  0.033235779            3 
  570000    1.0275479   -6.5706978    222.24764  0.032492345  0.033215114            7 
  571000    1.0200234   -6.5714597    222.26393  0.032437818  0.033194485            4 
  572000    1.0213504   -6.6099232    222.16421  0.032366581  0.033173502            3 
  573000    1.0143202   -6.5948087    222.51646  0.032361323  0.033152324            2 
  574000    1.0059601   -6.5991066     223.3343  0.032423679  0.033131188            3 
  575000    1.0060893   -6.6000097     223.2719  0.032358247  0.033109994            5 
  576000    1.0267206   -6.6242119     223.6726   0.03236004   0.03308859            3 
  577000    1.0288005   -6.5784586      224.301  0.032394714  0.033067478            4 
  578000    1.0427971    -6.606761    224.96692  0.032434676  0.033046251            2 
  579000    1.0283923   -6.5667376    224.31182  0.032284372  0.033025187            6 
  580000     1.024044   -6.6096117    224.74872  0.032291483  0.033003861            6 
  581000    1.0211513   -6.5813702    225.39646  0.032328809  0.032982407            3 
  582000    1.0278981   -6.5953499     224.9227  0.032205427  0.032961252           12 
  583000    1.0038555   -6.6049904    225.19615  0.032189272  0.032939879            4 
  584000    1.0193129    -6.599975    225.84467  0.032226693  0.032918931            9 
  585000    1.0354838   -6.6011295     225.6852  0.032148889   0.03289806            3 
  586000    1.0414297   -6.5894303    226.16846   0.03216275  0.032876974            5 
  587000    1.0320648   -6.6043119    225.94183  0.032075785  0.032855798            2 
  588000    1.0071289   -6.5882393    227.01105  0.032172768  0.032834661            1 
  589000    1.0359357    -6.591855    226.95834  0.032110687  0.032812977            5 
  590000    1.0097568   -6.6173418    226.71669  0.032022131  0.032791063            6 
  591000    1.0256247    -6.605401    227.32223  0.032053332  0.032769017            4 
  592000     1.018724   -6.6161426    227.18138  0.031979361  0.032747274            4 
  593000    1.0117051   -6.5710913    228.31885   0.03208528  0.032725685            5 
  594000    1.0266519   -6.5907321    228.27096  0.032024545  0.032703994            2 
  595000    1.0110984    -6.598228    227.36743  0.031844178  0.032682379            3 
  596000    1.0121636    -6.637185    227.80064   0.03185132  0.032660704            8 
  597000    1.0125148   -6.5916241    228.26595  0.031862918  0.032639092            3 
  598000    1.0182675   -6.6291149     228.1074  0.031787542  0.032617677            4 
  599000    1.0309241   -6.5789044    229.52132   0.03193118  0.032596384            3 
  600000     1.011294   -6.6429293    228.97198  0.031801664  0.032575027            2 
  601000     1.023185   -6.6287864    229.86625  0.031872747   0.03255381            3 
  602000    1.0297119   -6.5771063    230.44773  0.031900296  0.032532782            5 
  603000    1.0212126    -6.620257    229.96144  0.031780188  0.032511953            3 
  604000    1.0270782   -6.5994437    231.03921  0.031876271  0.032491036            3 
  605000    1.0187707   -6.6053661    231.74135  0.031920296  0.032470808            5 
  606000   0.99841173   -6.5862363      231.645  0.031854373  0.032450424            8 
  607000    1.0144831   -6.5903918    231.60472  0.031796365  0.032429944            4 
  608000   0.98010984   -6.6265805    232.36314  0.031848019  0.032409619            5 
  609000    1.0097146   -6.6240585    231.49899  0.031677475  0.032388991            9 
  610000    1.0009966   -6.6313344    232.75884  0.031797656  0.032368336            7 
  611000    1.0141072   -6.6163009    232.96979  0.031774385  0.032348645            5 
  612000    1.0120331   -6.6029997    232.61663  0.031674377  0.032328501            4 
  613000     1.007967   -6.6236874    233.41613  0.031731393  0.032308375            5 
  614000    1.0226972   -6.6359695     233.1559  0.031644395  0.032287959            5 
  615000     1.023578     -6.64513    233.57128  0.031649226   0.03226798            7 
  616000    1.0216705   -6.6384683    234.09071  0.031668115  0.032248222            3 
  617000    1.0249872    -6.614377    234.72766  0.031702817  0.032228199            1 
  618000   0.98540811   -6.6300091    234.85458  0.031668633  0.032208013            6 
  619000    1.0143878   -6.6483136    235.96026  0.031766325  0.032188203            4 
  620000    1.0017638   -6.5975343     236.0529  0.031727541  0.032168882            2 
  621000   0.99440324   -6.6075868    235.57497  0.031612315  0.032148947            5 
  622000    1.0094742   -6.6426288    235.55474   0.03155878  0.032128726            3 
  623000    1.0213461   -6.5991393    236.22341  0.031597567  0.032108303            2 
  624000    1.0009893    -6.648939    236.01175  0.031518663  0.032087924            8 
  625000   0.98932093    -6.625924    235.94167   0.03145889  0.032067536            4 
  626000   0.99711502   -6.6468876    236.35669  0.031463883  0.032047351            3 
  627000   0.98585974   -6.6057133    236.73331  0.031463757  0.032026816            3 
  628000   0.98981909   -6.6428071    237.11181  0.031463882  0.032006521            3 
  629000    1.0019603   -6.6442984    237.65092  0.031485284  0.031986625           11 
  630000   0.99955047   -6.6501149    237.97017  0.031477535  0.031967005            4 
  631000   0.99030687   -6.6134956     238.4758  0.031494427  0.031947484            5 
  632000   0.98856292   -6.6368603    238.45152  0.031441393  0.031927905            4 
  633000    1.0286952   -6.6169138    238.59587  0.031410726  0.031908015            6 
  634000       1.0223   -6.6037917    239.03996  0.031419553  0.031888321            5 
  635000   0.99972597   -6.6341617    238.45286  0.031293026  0.031868455            5 
  636000    1.0078826   -6.6261786    239.24828  0.031348045  0.031848707            2 
  637000   0.99016547   -6.6780167    239.57734  0.031341881  0.031828995            5 
  638000    0.9811908   -6.6441112     239.6292   0.03129953  0.031809289            3 
  639000    1.0317784   -6.6592843    239.31595  0.031209696  0.031789127            7 
  640000     1.002422   -6.6318241    240.31289  0.031290741  0.031769206            5 
  641000     1.005948   -6.6589962    240.70079  0.031292354  0.031748948            4 
  642000   0.99577148   -6.6572166     239.9811  0.031150195  0.031729024            4 
  643000    1.0038389   -6.6390613    240.61817  0.031184315  0.031709244            9 
  644000   0.99184648   -6.6628195    241.05304  0.031192163  0.031689565            3 
  645000   0.99097561   -6.6237266    241.91745  0.031255484  0.031670089            8 
  646000   0.99371122   -6.6231074    241.99104  0.031216594  0.031650484            4 
  647000    1.0104823     -6.61899    241.61478  0.031119884  0.031631221            4 
  648000   0.97050467    -6.687034    242.29999  0.031159979  0.031611779            3 
  649000   0.98540832   -6.6495254    242.09649  0.031085836  0.031592265            5 
  650000    1.0070573   -6.6304899    243.33233  0.031196452  0.031572903            5 
  651000   0.99751448   -6.6513752    243.33056  0.031148305  0.031553792            7 
  652000   0.99887621   -6.6695389    243.76253  0.031155742  0.031534732            6 
  653000    1.0042058    -6.662632    243.51512  0.031076457  0.031515327            6 
  654000    1.0004856    -6.626189    243.62244  0.031042614  0.031495868            5 
  655000    1.0012351    -6.632153    243.74006  0.031010185  0.031476331            2 
  656000    1.0007539    -6.659392    244.04136  0.031001189  0.031456911            3 
  657000   0.99998646   -6.6933626    244.35597  0.030993908  0.031437469            9 
  658000   0.99639284   -6.6334636    244.94331  0.031021189   0.03141781            4 
  659000    1.0309415   -6.6977516    244.32696  0.030896176  0.031398143            3 
  660000   0.98618845    -6.628994    245.35901  0.030979673  0.031378342            4 
  661000    1.0034759   -6.6459909     244.9006  0.030875013  0.031358747            3 
  662000   0.99641278    -6.622976     244.6464  0.030796374  0.031339304            5 
  663000   0.98936481   -6.6339943    245.60781  0.030870766  0.031319397            3 
  664000    1.0025204   -6.6855961    245.03164  0.030751963  0.031299233            5 
  665000   0.99472414   -6.6709841    245.38345  0.030749806  0.031279271            4 
  666000    0.9977903    -6.644483    246.01193  0.030782273  0.031259682            5 
  667000   0.99244467   -6.6620768    245.79562  0.030709097  0.031239856            3 
  668000   0.99162158   -6.6746133    246.03826  0.030693395    0.0312199            3 
  669000   0.97827081   -6.6422005    246.82187  0.030745126  0.031200143            7 
  670000    1.0102327   -6.6631679    246.99293  0.030720514  0.031180444            3 
  671000   0.98614814   -6.6628429    247.33458   0.03071716  0.031160976           14 
  672000   0.99315537   -6.6660355     247.1328  0.030646429  0.031141277            4 
  673000   0.99178753    -6.658224    248.07185  0.030717168  0.031121562            4 
  674000    1.0042409   -6.6479656    248.17826   0.03068475  0.031102037            4 
  675000   0.96523891   -6.6457498    248.05049  0.030623517  0.031082564            5 
  676000   0.98332678   -6.6822298    248.41654   0.03062334  0.031062933            2 
  677000   0.97877063   -6.6909306    248.00059  0.030526907  0.031043006            3 
  678000   0.99982148    -6.677136    248.00078  0.030481905  0.031023069            8 
  679000    1.0015894   -6.6389853    249.62901  0.030636844  0.031003626            6 
  680000   0.98605474   -6.6887975     249.3259  0.030554645  0.030984061            5 
  681000   0.95504705   -6.6699152    249.78085  0.030565449    0.0309645            4 
  682000   0.97198867   -6.6622633    250.09863  0.030559461  0.030945126            5 
  683000   0.98385272   -6.6483588    250.01962  0.030505078  0.030925753            3 
  684000     1.000885   -6.6520301    251.06905  0.030588335  0.030906756            7 
  685000   0.97369067   -6.7011196    250.51617  0.030476419  0.030887465            8 
  686000   0.98112134   -6.6787549    250.98417  0.030488845   0.03086819            3 
  687000   0.98925922   -6.6748774    251.28005  0.030480355  0.030849176            5 
  688000   0.97914559   -6.7052821    250.66942   0.03036209  0.030830001           12 
  689000   0.98360062   -6.6885771    251.30835  0.030395302  0.030810566            5 
  690000   0.97522136   -6.6875431    252.29817  0.030470793  0.030791215            3 
  691000   0.99313935   -6.6829548    252.63054   0.03046678  0.030772119            5 
  692000   0.97220042    -6.665347    252.35567  0.030389652  0.030753192            8 
  693000   0.97007881   -6.6932816     253.5225  0.030486111  0.030734548            8 
  694000   0.97818491   -6.6892437    253.13541  0.030395703  0.030715961            2 
  695000     0.979497   -6.6510072    252.90211  0.030323994   0.03069693            3 
  696000   0.96172956   -6.6986584    252.78109  0.030265935  0.030677911            4 
  697000   0.99760868   -6.6451612    253.04249  0.030253765   0.03065864            7 
  698000   0.96553909   -6.6551763     253.8458  0.030306328  0.030639578            4 
  699000   0.98625119   -6.7143988    253.61727  0.030235726  0.030620502            7 
  700000   0.98235994   -6.7112824    253.83231  0.030218132  0.030601442            7 
  701000    0.9815454    -6.679118    254.77065  0.030286573  0.030582579            4 
  702000   0.98646707   -6.6714356    254.67981  0.030232646  0.030563811            3 
  703000    0.9769015   -6.6653918     254.4861  0.030166679   0.03054525            3 
  704000   0.98042105    -6.698251    255.74936  0.030273362  0.030526744            5 
  705000   0.97474493   -6.6949476    255.26154  0.030172759   0.03050845            5 
  706000   0.97747986   -6.6875988    255.54631  0.030163634  0.030490245            3 
  707000   0.98926034   -6.7135904    255.63531   0.03013146  0.030471835            2 
  708000    0.9742327   -6.6915261    255.66075  0.030091896  0.030453584            4 
  709000    0.9641884   -6.6800842     256.5214  0.030150612  0.030435107            4 
  710000   0.95772972   -6.6692568    256.38936  0.030092648  0.030417038            4 
  711000   0.95662958   -6.6842638    257.56193  0.030187755   0.03039897            6 
  712000   0.95332336   -6.7283674     256.5843  0.030030934   0.03038057            7 
  713000     0.969854    -6.707067    256.75449  0.030008707  0.030361645            3 
  714000   0.98599717   -6.7120272    256.43079  0.029928898  0.030342626            6 
  715000   0.97017483   -6.7082885    256.70748  0.029919287  0.030323338            5 
  716000   0.99030933   -6.6707507    257.45283  0.029964249  0.030304123            2 
  717000    0.9600629   -6.6841174    257.65082   0.02994547  0.030285509           16 
  718000   0.96564585   -6.6564073    258.23196  0.029971211  0.030266738            3 
  719000   0.99130717   -6.7203902    258.47476  0.029957668  0.030247918            4 
  720000   0.95599034   -6.7071479    258.10607  0.029873388   0.03022879            5 
  721000   0.98332763   -6.6744695    258.70248  0.029900888  0.030210184           10 
  722000   0.96821509   -6.7126641    259.10052  0.029905416  0.030191702            2 
  723000    1.0078654   -6.7188574    259.31662   0.02988896  0.030172889            3 
  724000   0.94338093    -6.719461    259.07634  0.029820021  0.030154167            2 
  725000   0.94385393   -6.7047861    259.61415  0.029840707   0.03013536            4 
  726000   0.96585505   -6.7174965    259.61519  0.029799724  0.030116509            7 
  727000   0.98957403   -6.6986863    260.53674  0.029864368  0.030097725            4 
  728000   0.96339472   -6.7044888    260.13074   0.02977687  0.030078866           11 
  729000   0.95926371   -6.6840939    260.95799  0.029830589  0.030060099            5 
  730000   0.96571602   -6.7072835    260.96552  0.029790584  0.030041424            5 
  731000   0.95331896   -6.7333969    260.67997  0.029717279  0.030022717            5 
  732000    0.9533879    -6.716304    260.87017  0.029698335  0.030004086            3 
  733000   0.96010021   -6.7079108     260.5652  0.029623146  0.029985805            8 
  734000     0.973131    -6.731985    261.67682  0.029708994  0.029967145            9 
  735000    0.9623905   -6.7078291    262.12368  0.029719238  0.029948801            6 
  736000   0.94962334   -6.7109577    261.79456  0.029641594  0.029930753            6 
  737000   0.96031246   -6.7210318    262.49143   0.02968017  0.029912752            6 
  738000   0.96291135   -6.6907233    262.81376   0.02967635   0.02989478            3 
  739000   0.96144958   -6.6862899     263.9974  0.029769666  0.029876943            7 
  740000   0.96733578   -6.7349789    262.93332  0.029609608  0.029859202            3 
  741000   0.97967683   -6.7109374    262.89662  0.029565522  0.029841407           10 
  742000   0.96456297   -6.7500066    262.77647  0.029512182  0.029823448            4 
  743000   0.95588685   -6.7142841    264.34453  0.029648332  0.029805437            5 
  744000   0.95933427   -6.7272319    264.07546  0.029578344  0.029787639            5 
  745000   0.97369426   -6.7226229    263.87473  0.029516189  0.029769721            3 
  746000   0.95804124   -6.7070348    265.28663  0.029634343  0.029751927            4 
  747000   0.96158378   -6.7201683    263.81642  0.029430658  0.029734079            8 
  748000   0.95925256    -6.737275    263.77923  0.029387169  0.029716036            5 
  749000   0.95624066   -6.7197629    264.78198  0.029459499  0.029697716            4 
  750000   0.95463185   -6.7108046     265.6497  0.029516633  0.029679543            4 
  751000   0.94586716   -6.7515741    266.66377  0.029589855  0.029661819            5 
  752000   0.94574113   -6.7376232    265.41641  0.029412279  0.029644014            8 
  753000   0.95185334   -6.7233263     266.4279  0.029485159  0.029626159            4 
  754000   0.93858073   -6.7608599    265.42311  0.029335004  0.029608212            7 
  755000   0.94168797   -6.7378697    265.89412  0.029348137  0.029590192            2 
  756000   0.94755929   -6.7199956    266.50614  0.029376779  0.029572478            6 
  757000   0.94019795   -6.7175828    267.05328  0.029398204  0.029554504           12 
  758000   0.93847593   -6.7262119    265.93141  0.029236083  0.029536273           10 
  759000    0.9509453   -6.7401184    266.61246  0.029272338  0.029518135            7 
  760000   0.95771628   -6.7419455    267.30504  0.029309763   0.02949986            8 
  761000   0.94144432   -6.7342138    266.60186  0.029194247  0.029481418            5 
  762000   0.95334865    -6.737806    267.07543  0.029207725  0.029462894            6 
  763000   0.95762136    -6.736627    267.35535  0.029200016  0.029444579            4 
  764000   0.96652672   -6.7309204    267.99512  0.029231579  0.029426108            8 
  765000   0.94112986   -6.7463879    267.89662  0.029182638  0.029407635            5 
  766000    0.9121629   -6.7651658     267.7581  0.029129472   0.02938931            5 
  767000   0.93525255   -6.7278396    268.14144  0.029133142   0.02937084            3 
  768000   0.96769402   -6.7477255    267.52776   0.02902862  0.029352313           13 
  769000   0.95984849   -6.7092505    267.86472  0.029027387  0.029333683            3 
  770000   0.96869721   -6.7659191    268.35302  0.029042534   0.02931496            5 
  771000   0.95777629    -6.742813    268.99858  0.029074641  0.029296559            9 
  772000   0.94628503   -6.7076372    268.72675  0.029007637  0.029278019            4 
  773000   0.91162073   -6.7536095     269.6921  0.029074181  0.029259478            5 
  774000   0.94682295   -6.7601438    268.93226  0.028954808  0.029240659            7 
  775000   0.93770197   -6.7473092    269.44416   0.02897249  0.029221861            5 
  776000   0.93567156   -6.7527868    269.78915  0.028972203  0.029203148            4 
  777000   0.93784396   -6.7467861    269.93171  0.028950205  0.029184252            8 
  778000   0.94384335   -6.7383103     269.3044  0.028845801  0.029165509            4 
  779000   0.95112887   -6.7360915     269.2837  0.028806557  0.029146631            5 
  780000   0.94936544   -6.7440427    270.30539  0.028878781  0.029127876            7 
  781000   0.95958672   -6.7407169    270.11951  0.028821971  0.029109228            5 
  782000   0.96443911   -6.7445807    270.05447  0.028778183  0.029090649            6 
  783000    0.9410366   -6.7512459    270.48735    0.0287875  0.029072098            3 
  784000   0.93398002   -6.7544117    271.25678  0.028832566  0.029053547            4 
  785000   0.92225136    -6.729246    271.75371  0.028848589  0.029035238            3 
  786000   0.93548805   -6.7461131    271.37771  0.028772022  0.029017085            4 
  787000   0.94783211   -6.7550183    271.44367  0.028742447  0.028999046           10 
  788000   0.95400729   -6.7671123    271.95316  0.028759852  0.028980886            3 
  789000   0.93622826   -6.7510301    272.91412  0.028824897  0.028962938            3 
  790000   0.95235167   -6.7287812    272.68387  0.028764122  0.028944984           11 
  791000   0.94780444   -6.7733591    273.24656  0.028787038  0.028927159            4 
  792000    0.9272001   -6.7845071    272.95156  0.028719651  0.028909277            4 
  793000   0.96120684   -6.7711051    273.09266  0.028698262   0.02889101            7 
  794000   0.91997499   -6.7774396    273.45999  0.028700671  0.028872879            6 
  795000   0.92455194   -6.7680989    273.52939  0.028671843  0.028854951            3 
  796000   0.95513264   -6.7626349    274.08862   0.02869437  0.028837089            5 
  797000   0.94397293   -6.7689358    273.89036  0.028637637  0.028819263            6 
  798000   0.92677718   -6.7593276    274.81258  0.028698055  0.028801466            4 
  799000   0.94089228   -6.7959577    274.23166   0.02860155  0.028783565            3 
  800000   0.91571652   -6.7934009    274.62575  0.028606849  0.028765654            5 
  801000   0.93321854   -6.7804658    274.14359  0.028520972   0.02874763            6 
  802000   0.94593005    -6.752113    274.50889  0.028523368  0.028729583            4 
  803000   0.95002706   -6.7794629    275.13384  0.028552702  0.028711688            5 
  804000    0.9308452   -6.7455437    275.38509  0.028543231  0.028693792            5 
  805000   0.93501979   -6.7733929    275.57457  0.028527388  0.028675932            5 
  806000   0.95081292   -6.7618451    275.04686  0.028437434  0.028657826            8 
  807000   0.92787664   -6.7874783    274.57987  0.028353973  0.028639528            4 
  808000   0.95528362   -6.7486182    274.36347  0.028296562  0.028621102            7 
  809000    0.9326108   -6.8050992    274.51518  0.028277213  0.028602533            5 
  810000   0.91776762   -6.7754716    275.41683  0.028335065  0.028583978            6 
  811000   0.93038436   -6.7776666    275.47353  0.028305953  0.028565464            4 
  812000   0.92057364   -6.7593418    275.86494  0.028311263  0.028547035            4 
  813000   0.89014288   -6.7816794    276.40153   0.02833144  0.028528718            6 
  814000   0.93713708   -6.7949194    276.33675  0.028290003  0.028510428            3 
  815000   0.94368555   -6.7732521    276.72752  0.028295248  0.028492387            3 
  816000   0.93857795   -6.7765757    277.01217  0.028289642  0.028474283            7 
  817000   0.92730096   -6.7755665     276.9603  0.028249725  0.028456154            5 
  818000   0.92696543   -6.7780689    276.53405  0.028171766  0.028437951            3 
  819000   0.91990696   -6.7867984    277.06629  0.028191523  0.028419698            4 
  820000   0.92338491   -6.7856828    277.23737   0.02817453  0.028401397            5 
  821000   0.92714618   -6.7347922    277.29094  0.028145649  0.028383189            6 
  822000   0.92748111   -6.7676476    278.53971  0.028238008  0.028364995            9 
  823000   0.91495468   -6.8052581    278.29323   0.02817874  0.028347003            7 
  824000   0.92778223   -6.7627155    277.75316  0.028089923  0.028328969            5 
  825000   0.92966317   -6.7920408    278.37022  0.028118204  0.028310987            8 
  826000   0.92134253   -6.7982358    278.61943  0.028109305  0.028292935            3 
  827000   0.92164927   -6.7813799    279.30137  0.028144031  0.028274677            9 
  828000   0.92754879   -6.8086753    279.00906  0.028080622  0.028256546            3 
  829000   0.92667588    -6.790223     279.0015  0.028045989  0.028238192            7 
  830000   0.92764413   -6.7870571    280.36953  0.028149551  0.028220073            3 
  831000   0.93511076   -6.7815969    279.61241  0.028039752  0.028202117            6 
  832000   0.92883521   -6.7803694    279.94998  0.028039862   0.02818394           10 
  833000   0.92164575   -6.7598698    280.12493  0.028023703  0.028166008            6 
  834000    0.9068774   -6.7948098    280.28411  0.028006006  0.028148048           10 
  835000   0.91746637   -6.7931868    280.04898     0.027949  0.028130064            7 
  836000   0.93576187   -6.7885143     280.2366   0.02793427   0.02811184            5 
  837000   0.91174134   -6.7819248    280.86078   0.02796304  0.028093857            8 
  838000   0.92470324   -6.7894333    279.74827  0.027819041  0.028075452            6 
  839000   0.93335997    -6.818262    280.06792  0.027817632  0.028057129            3 
  840000   0.92133574   -6.7899496    280.37502  0.027814982  0.028038748            4 
  841000   0.92353598    -6.810677    281.21299  0.027864942  0.028020381            4 
  842000   0.91668432   -6.7986679    281.26112  0.027836611  0.028002167            4 
  843000   0.94433073   -6.7960797    281.40547   0.02781786  0.027983985            3 
  844000   0.91158215    -6.857506    281.29899  0.027774387  0.027965943            2 
  845000   0.89576743   -6.8024457    281.12955  0.027724808  0.027947695            4 
  846000   0.92387022   -6.7877748    281.31564  0.027710367  0.027929518            5 
  847000   0.93048061   -6.7728928    282.06482  0.027751359  0.027911525            4 
  848000   0.91629381   -6.8335399    281.88566  0.027701028   0.02789334            8 
  849000   0.92701052    -6.795171     282.6479  0.027743217   0.02787512           11 
  850000   0.92405917   -6.8284615    282.61718  0.027707566  0.027856974            4 
  851000   0.91556107   -6.8124886    283.35907  0.027747656   0.02783911            3 
  852000   0.91118229   -6.7982154    283.24419  0.027703853  0.027821484            1 
  853000   0.91375946   -6.8104311    282.85688  0.027633536    0.0278037            6 
  854000   0.91445681   -6.8050785    282.85301  0.027600801  0.027785898            4 
  855000   0.90178685   -6.7946921    284.49093  0.027728161  0.027768284            7 
  856000   0.91744537    -6.792729    284.32667  0.027679777  0.027750771            4 
  857000    0.9147306   -6.8388916    284.97303   0.02771033  0.027733291           10 
  858000   0.89454802   -6.8061393    284.17949  0.027600961  0.027715795            6 
  859000   0.90146526    -6.808885    284.38225  0.027588499  0.027698179            9 
  860000   0.91420666   -6.8197377    284.03385  0.027522659  0.027680446            5 
  861000   0.92800168   -6.8253922    284.63182  0.027548569  0.027662694            6 
  862000   0.91709756   -6.8119981    284.94093  0.027546494  0.027644985            7 
  863000   0.90085537   -6.8297307    285.03118  0.027523289  0.027627122            5 
  864000   0.88414158   -6.8116473    284.61287  0.027451087  0.027609127            6 
  865000   0.91003635   -6.8279574    284.74143  0.027431737  0.027591143            4 
  866000   0.90485256   -6.8059039    285.30458  0.027454251  0.027573244            7 
  867000   0.91647453   -6.7952849    285.39058  0.027430851  0.027555354            4 
  868000   0.90151782   -6.8030651    285.34949  0.027395304  0.027537313            6 
  869000   0.90633506   -6.8278508    285.22735  0.027352067   0.02751939           10 
  870000   0.89589079   -6.8149008    286.75652    0.0274671  0.027501636            5 
  871000   0.90994954   -6.7918248     285.9768  0.027360965  0.027483936            7 
  872000   0.89771954    -6.780501    286.76992  0.027405382  0.027466279            6 
  873000   0.90474151   -6.8130285    287.09234  0.027404767  0.027448739            6 
  874000   0.89339547   -6.8273838    286.09516  0.027278333  0.027430958            4 
  875000   0.93597585   -6.8308734    286.52245  0.027287853  0.027413306            7 
  876000   0.88824955   -6.8246391    287.83796  0.027381846  0.027395598            3 
  877000   0.89587966   -6.7950873    287.04777  0.027275539  0.027378139            3 
  878000   0.91506066   -6.8217521    287.43907  0.027281613  0.027360519            5 
  879000   0.88400555   -6.7994664    287.63064  0.027268737  0.027343042            5 
  880000   0.91736662   -6.8149836    288.03744  0.027276273   0.02732571            6 
  881000   0.89269794   -6.8462943    287.85711  0.027228255  0.027308473            8 
  882000   0.88596161   -6.8325328    288.16292  0.027226277   0.02729092            5 
  883000   0.90269842   -6.8582934    288.00043  0.027180109  0.027273565            6 
  884000   0.90057179   -6.8280071    288.54312   0.02720052  0.027256046            8 
  885000    0.9116948   -6.8570662    288.81084  0.027194995  0.027238376            7 
  886000   0.90039103   -6.8358607    288.84815  0.027167809  0.027220872            8 
  887000   0.90927272   -6.8123286    289.55679  0.027203757  0.027203371            2 
  888000   0.89231515   -6.8316269    289.09763  0.027130033   0.02718605            6 
  889000   0.90812692   -6.8599169    289.08968   0.02709877  0.027168771            9 
  890000   0.90968183   -6.8426339    289.77583  0.027132569  0.027151469            9 
  891000   0.91387529   -6.8077156    289.49206  0.027075576  0.027134244            6 
  892000   0.88512679   -6.8114545    289.88876  0.027082283  0.027117149            6 
  893000   0.90070915   -6.8580976    289.65317  0.027029971  0.027099986            4 
  894000   0.90934312    -6.843134    289.87253  0.027020183  0.027082602            6 
  895000   0.89304433   -6.8389596    290.47236  0.027045843  0.027065187            6 
  896000   0.91236194   -6.8654096      290.587  0.027026321   0.02704769            9 
  897000   0.91314465   -6.8331226    290.91507   0.02702667   0.02703036            5 
  898000   0.87851218   -6.8226204    291.08116  0.027011986  0.027013079            4 
  899000   0.90832076   -6.8363272    291.17456  0.026990597  0.026995766            8 
  900000    0.8981619   -6.8751966    290.94372  0.026939234  0.026978555            7 
  901000   0.87748554   -6.8556303    290.66024  0.026883115  0.026961309           11 
  902000   0.88950453   -6.8396561    291.15442  0.026898967  0.026944207            6 
  903000   0.89125968   -6.8371478    292.63099  0.027005444  0.026927339           10 
  904000   0.89695275   -6.8755445    292.19516  0.026935395  0.026910464            6 
  905000   0.89488283   -6.8505575    292.41667  0.026926028  0.026893737            9 
  906000   0.90190443   -6.8640223      292.452  0.026899558  0.026876948            4 
  907000   0.88479137   -6.8285633    293.45958  0.026962475  0.026860427            7 
  908000   0.88930676   -6.8489329    293.34319  0.026922099  0.026843888            4 
  909000   0.89047637   -6.8508984    293.70659  0.026925797  0.026827402            6 
  910000    0.8981705    -6.851331    294.17356  0.026938971  0.026810769            5 
  911000   0.90473114   -6.8528795    292.99369  0.026801472  0.026793923            8 
  912000   0.88615658   -6.8411313    294.51026   0.02691066  0.026777166            3 
  913000   0.89359036   -6.8448979    293.85767   0.02682162  0.026760557           11 
  914000    0.8937013   -6.8477767    294.26727   0.02682962  0.026743836           11 
  915000   0.90257658   -6.8727378    293.86828   0.02676396  0.026726916            3 
  916000   0.88938633   -6.8499629    294.54739  0.026796524  0.026709969            7 
  917000    0.8919646   -6.8874657    294.29486  0.026744353  0.026693106            7 
  918000   0.89200135   -6.8595779    294.60644  0.026743504  0.026676433            5 
  919000   0.90013556   -6.8474909    294.67596  0.026720707  0.026659581            5 
  920000   0.89140051    -6.888548    294.74388  0.026697815  0.026642817            4 
  921000   0.90079405   -6.8683427    294.55954  0.026652148  0.026626055            6 
  922000   0.89801501   -6.8410461    294.88248  0.026652429  0.026609262            4 
  923000   0.89922814   -6.8426314    294.55185  0.026593703   0.02659254            7 
  924000   0.89257881   -6.8707587    294.69028  0.026577406  0.026575694           13 
  925000   0.85251788   -6.8744972     294.7889  0.026557558  0.026558759            8 
  926000   0.86380699   -6.8571375    296.02244  0.026639888  0.026541869           12 
  927000    0.8942581   -6.8513592    296.06228  0.026614732  0.026525253            5 
  928000   0.87391453   -6.8559766    295.74192  0.026557284  0.026508491           12 
  929000   0.87230788   -6.8675629    295.60886  0.026516762  0.026491853            5 
  930000   0.88847795   -6.8630088    295.78384  0.026503929  0.026475249           15 
  931000   0.86877407   -6.8645694    296.38936   0.02652966  0.026458664            7 
  932000   0.88368147   -6.8443157    297.47124  0.026597929  0.026442222            9 
  933000   0.86970037   -6.8481515    297.31005  0.026555025  0.026425598            5 
  934000   0.85666447   -6.8858437    297.02642  0.026501287  0.026409097           11 
  935000   0.86859704   -6.8813407    297.33522  0.026500465  0.026392621            7 
  936000   0.88577757   -6.8699374    297.88972   0.02652152  0.026376114            6 
  937000   0.88197294   -6.8570584    297.44684  0.026453828  0.026359792            9 
  938000   0.85626271   -6.8558142    297.86934  0.026463161  0.026343507            6 
  939000   0.87561541   -6.8228918    298.36519  0.026478984  0.026327487            8 
  940000   0.86491585    -6.836007    297.90474  0.026409995  0.026311363            7 
  941000   0.87530554   -6.8383126    298.27515  0.026414732  0.026295101            6 
  942000   0.87166599    -6.883341    299.13282  0.026462564  0.026278768            7 
  943000   0.87808172   -6.8845064    298.15956  0.026348494  0.026262374            5 
  944000   0.86306179   -6.8781316    298.25398  0.026328918  0.026246041            6 
  945000    0.8647681   -6.8733219    298.79037  0.026348357   0.02622967            5 
  946000   0.87560539   -6.8845208    298.54286  0.026298701  0.026213174           10 
  947000   0.86236857   -6.8881348    299.77206  0.026379097  0.026196856           10 
  948000   0.86693674   -6.8866225    299.31487  0.026311082  0.026180432            7 
  949000   0.87644403   -6.8948748    299.42899  0.026293378  0.026163998            5 
  950000   0.87664641   -6.8507065    299.16479  0.026242525  0.026147764            6 
  951000   0.88935492   -6.8918691    298.73989  0.026177698  0.026131248            5 
  952000   0.85042376   -6.8926211    298.72442  0.026148846  0.026114737            5 
  953000   0.88019797   -6.9146946    299.09972  0.026154225   0.02609822            5 
  954000   0.88409355   -6.8986018    299.19638  0.026135254   0.02608162            8 
  955000   0.87733152   -6.8743434    299.05188  0.026095277  0.026064963            4 
  956000   0.86815053   -6.8834254    299.52275  0.026109027  0.026048332            4 
  957000   0.88897151   -6.8777973    299.65276  0.026093065  0.026031641            7 
  958000   0.84566458   -6.8734151     299.7493  0.026074226  0.026014959            7 
  959000   0.86292697   -6.9196947    299.78594   0.02605022  0.025998114            2 
  960000   0.86433426   -6.8900654    299.58421  0.026005573  0.025981232            3 
  961000   0.87790713   -6.8950784    299.76496  0.025994187  0.025964458            7 
  962000   0.84187257   -6.8879625     300.5509  0.026035248  0.025947764           10 
  963000   0.86698712   -6.8730958    300.66636  0.026018204  0.025931211            5 
  964000   0.86815616   -6.8902801    300.14629  0.025946256  0.025914621            7 
  965000   0.87183715   -6.8931819    300.09816  0.025915212  0.025897931            6 
  966000   0.88087327   -6.9137604     300.8206  0.025950708  0.025881228            9 
  967000   0.87433972   -6.8914249    301.34507  0.025969069  0.025864573            8 
  968000   0.88519952   -6.8839561    300.85823   0.02590033  0.025847928            6 
  969000   0.85956541   -6.8781857    301.01128  0.025886763  0.025831342            7 
  970000   0.84914052   -6.8989146     301.6201   0.02591238  0.025814746           20 
  971000   0.85603762   -6.8897048     301.5944  0.025883488   0.02579825            6 
  972000   0.88678564   -6.8768377     301.8222  0.025876389  0.025781794           10 
  973000   0.86887189   -6.8892123    301.90868  0.025857201  0.025765268            4 
  974000   0.87284593    -6.883817    301.86316  0.025826759   0.02574863            5 
  975000   0.88352403   -6.8913573    302.79688  0.025880075  0.025732012            5 
  976000   0.87111522   -6.8904862     302.7832  0.025852391  0.025715306            4 
  977000   0.86748598    -6.912678    301.95394  0.025755198  0.025698614            2 
  978000   0.86818447   -6.9159797    302.44252  0.025770494   0.02568179            7 
  979000    0.8585768   -6.9251778    301.22426  0.025640472  0.025664985           24 
  980000   0.86304833   -6.9116696    301.02614  0.025597461  0.025648011            4 
  981000   0.88919201   -6.9232278    302.40613  0.025688594  0.025631102            7 
  982000    0.8600048   -6.8830619    303.02381  0.025714851  0.025614276            5 
  983000   0.88647234   -6.9157026    302.85925  0.025674741  0.025597564            4 
  984000   0.86373231    -6.873619    302.71175  0.025636158  0.025580928            7 
  985000   0.88652135   -6.8842588    304.20557  0.025736512  0.025564223            3 
  986000   0.86193411   -6.9040032    303.61306  0.025660333  0.025547777           18 
  987000   0.85794901   -6.8961682    303.15509  0.025595668  0.025531409            2 
  988000   0.85987186   -6.9017048     303.2185   0.02557511  0.025514822            6 
  989000   0.84319672    -6.918776    303.81533  0.025599539   0.02549832           18 
  990000   0.86395802   -6.8977348      303.959  0.025585774  0.025481723            8 
  991000   0.84910773   -6.9143859    304.06127  0.025568556  0.025465303            4 
  992000   0.86336057   -6.9167685    304.48037  0.025577988  0.025448841            6 
  993000   0.85827804   -6.9177072    303.83952  0.025498449  0.025432573            3 
  994000    0.8611865     -6.90262    303.95254  0.025482272  0.025416248           10 
  995000   0.86386208   -6.9012321    304.80983  0.025528462  0.025399826            9 
  996000   0.85727693   -6.9353188    304.70225  0.025493829  0.025383422            7 
  997000   0.84875149   -6.9248784    305.10095  0.025501584  0.025367037            9 
  998000   0.86909324     -6.92721    305.21959  0.025485938  0.025350649            8 
  999000   0.85393211   -6.9297018    305.08413  0.025449127  0.025334303            4 
 1000000   0.84461659   -6.9424155    304.69211  0.025391009  0.025317918            3 
 1001000   0.84909886   -6.9303291    305.33992  0.025419574  0.025301556            4 
 1002000   0.84006596   -6.9456663    305.68918  0.025423252  0.025285378            4 
 1003000   0.85288454   -6.9291431    306.19202  0.025439683  0.025269273            5 
 1004000   0.84081207   -6.9246823    305.77471  0.025379707  0.025253193           11 
 1005000   0.85857159   -6.9266094    306.73018   0.02543368  0.025237202            6 
 1006000   0.86796597   -6.9452644    307.21797  0.025448805  0.025221299            5 
 1007000   0.86570242   -6.9100242    307.42231  0.025440443  0.025205566            7 
 1008000   0.85446579   -6.9133865    307.85997  0.025451387  0.025189771           12 
 1009000   0.85040255   -6.9462603    306.47173  0.025311507  0.025173792            8 
 1010000   0.84511867   -6.9426616    307.68958  0.025386929  0.025157924            6 
 1011000   0.86235908   -6.8956853    308.05788  0.025392176  0.025142197            8 
 1012000   0.84698268   -6.9154874    308.27413  0.025384892   0.02512649            5 
 1013000    0.8367764    -6.941145    307.91515  0.025330302  0.025110772            6 
 1014000   0.84024695    -6.925057    307.95669  0.025308735  0.025095167            4 
 1015000    0.8476973   -6.9204866    308.94646  0.025365062  0.025079676           10 
 1016000    0.8640629   -6.9477921    308.84898  0.025332101  0.025064126            4 
 1017000   0.85204009   -6.9424225    308.79697  0.025302931  0.025048754            6 
 1018000   0.84612622   -6.9178046    309.83928  0.025363398  0.025033364            6 
 1019000   0.85058654   -6.9470705    309.76684  0.025332584  0.025018073            9 
 1020000   0.85196969   -6.9511318    309.58417  0.025292824  0.025002868            9 
 1021000   0.84499402   -6.9149831    310.37664  0.025332732  0.024987801            7 
 1022000    0.8433461   -6.9446404     309.6993  0.025252715  0.024972545            7 
 1023000   0.86753942    -6.958959     310.1467  0.025264475  0.024957161           17 
 1024000   0.84439529   -6.9215725     310.0007  0.025227921  0.024941741            5 
 1025000   0.85589404   -6.9529282    309.84501  0.025190651   0.02492642            7 
 1026000   0.84197941   -6.9562363    309.94297  0.025174055  0.024910995            7 
 1027000   0.86089221   -6.9482327    309.81827  0.025139425  0.024895549           15 
 1028000   0.84345512   -6.9486206    309.96326  0.025126723  0.024880192            4 
 1029000   0.84087267   -6.9326583    311.27241  0.025208326   0.02486487           31 
 1030000   0.83264055   -6.9526393    310.93095  0.025156226  0.024849587           10 
 1031000   0.85242727   -6.9619797    311.90922  0.025210897  0.024834489           11 
 1032000    0.8406585   -6.9291988    311.60622  0.025162001  0.024819415            9 
 1033000   0.81985556   -6.9478486    311.87614  0.025159418  0.024804395            7 
 1034000   0.83813498   -6.9366362    312.81714  0.025210924  0.024789468            9 
 1035000   0.84255326   -6.9572599    311.70812  0.025097272  0.024774357            5 
 1036000   0.82900978   -6.9482592    312.43575  0.025131576  0.024759249            6 
 1037000    0.8250986   -6.9793505     311.6413  0.025043499  0.024744183            5 
 1038000   0.81990868   -6.9652355     311.7475  0.025027899  0.024729154            8 
 1039000   0.83462564   -6.9713164    311.60802  0.024992623  0.024714017            5 
 1040000   0.83218767   -6.9717326    312.37172  0.025029785  0.024698788           10 
 1041000   0.83176567    -6.929151    312.86215  0.025045001   0.02468364            8 
 1042000   0.83513383   -6.9543044    312.54135  0.024995309  0.024668569            7 
 1043000    0.8432929   -6.9397869    312.52694  0.024970193  0.024653469            6 
 1044000   0.83005117   -6.9474088    312.42656  0.024938263  0.024638462           13 
 1045000   0.82960674    -6.978323    312.37406  0.024910212  0.024623341            7 
 1046000    0.8308493   -6.9941423     312.2725  0.024878306  0.024608133            5 
 1047000    0.8343132   -6.9748121    312.70279  0.024888793  0.024592964            4 
 1048000   0.82155851   -6.9928743    312.14497  0.024820688  0.024577668            6 
 1049000   0.82973579   -6.9518341    312.85286  0.024853262  0.024562386            3 
 1050000   0.83415583   -6.9825477    312.46922  0.024799144  0.024547089            6 
 1051000   0.83821558   -6.9352661    313.58541  0.024864051  0.024531941            8 
 1052000   0.82522244   -6.9655954    313.21054  0.024810721  0.024516709            4 
 1053000   0.84086188   -6.9799631    312.70627  0.024747252  0.024501443            6 
 1054000   0.84452243   -6.9800781    314.27003  0.024847409  0.024486256            7 
 1055000   0.84323866   -6.9843681    313.21704  0.024740682  0.024470906           11 
 1056000   0.83806349   -6.9840754    314.35112  0.024806748  0.024455654            5 
 1057000   0.84851447    -6.955099    313.68625  0.024730862  0.024440426           11 
 1058000   0.85360673   -6.9935889    313.33753   0.02468002  0.024425224           14 
 1059000   0.81608438   -6.9432138    314.52912  0.024750482  0.024409925           16 
 1060000   0.83213461   -6.9675315    313.92388   0.02467955   0.02439463            9 
 1061000   0.82322502   -6.9632371    315.09676   0.02474841  0.024379346            6 
 1062000   0.83291703   -6.9823034    314.62165  0.024687826  0.024364066           11 
 1063000   0.82492145    -6.974419    314.34082  0.024642585  0.024348801            5 
 1064000   0.83000198   -6.9596713    314.77451  0.024653392  0.024333618            5 
 1065000   0.82075005   -6.9537164    314.37186  0.024598737  0.024318467            7 
 1066000   0.80609434   -7.0106574    314.19893  0.024562143  0.024303191           11 
 1067000    0.8406349   -6.9928979    314.84505  0.024589586  0.024287882            5 
 1068000     0.837186   -7.0067335    314.56822  0.024544961  0.024272487            6 
 1069000   0.82767469   -6.9776361    314.16565  0.024490618   0.02425712            5 
 1070000   0.82242113   -7.0087851    314.79599  0.024516821  0.024241777            5 
 1071000   0.82763324   -6.9586018    315.21088  0.024526212  0.024226468           12 
 1072000   0.84782066   -7.0041268    315.23862   0.02450549  0.024211258           12 
 1073000   0.83985149   -6.9661897    315.49783  0.024502782  0.024196098            8 
 1074000   0.82767063   -6.9914176    315.06815  0.024446629  0.024180926            5 
 1075000   0.81780618    -6.966405    315.52933  0.024459638  0.024165735            8 
 1076000   0.83450864   -6.9859775    315.39311  0.024426356  0.024150562            5 
 1077000   0.82025024   -6.9721066    315.93789  0.024445829  0.024135349            9 
 1078000   0.83878652   -6.9806272     316.4419  0.024462114  0.024120273            7 
 1079000   0.83327695   -7.0046727    316.56616  0.024449039  0.024105306            4 
 1080000   0.81977931   -7.0078509    316.36897  0.024411186  0.024090137            5 
 1081000   0.81059006   -6.9853457    315.74508  0.024340509  0.024074936            7 
 1082000   0.81501201   -6.9830511    316.41977  0.024369976  0.024059673            4 
 1083000   0.81428959   -6.9810036    316.60265  0.024361546  0.024044523            7 
 1084000   0.81757764   -6.9900415    317.24805  0.024388688  0.024029459           15 
 1085000   0.81178805   -7.0266283    316.13472  0.024280701  0.024014327           14 
 1086000   0.83617013   -6.9771359    317.16942  0.024337739  0.023999275            4 
 1087000   0.82254404   -7.0029723    317.22638  0.024319716  0.023984267            8 
 1088000   0.80919411   -7.0176845    317.21332  0.024296363  0.023969128           13 
 1089000   0.81518851   -6.9817319    318.07024  0.024339627  0.023954216            5 
 1090000   0.82090922   -7.0022208    317.20221  0.024250933  0.023939229            6 
 1091000   0.80718218   -7.0027784    317.74087  0.024269849  0.023924205           10 
 1092000   0.81728241   -7.0342364     317.7006  0.024244551  0.023909211            8 
 1093000   0.81975206   -6.9730891    318.13092  0.024255179  0.023894308            6 
 1094000   0.81946903   -7.0169418    317.72339  0.024201964  0.023879429           11 
 1095000   0.81223864   -6.9646693    318.58694  0.024245582  0.023864514            7 
 1096000   0.81520956   -7.0007348    318.91837   0.02424866   0.02384972            7 
 1097000   0.82974636   -7.0238898    318.38042   0.02418569  0.023834913           12 
 1098000   0.81753749   -6.9596962     318.8793  0.024201525  0.023820095            9 
 1099000   0.81346223   -6.9704437     318.9223  0.024182765  0.023805367            6 
 1100000   0.82238728   -7.0124247    318.81583  0.024152715  0.023790658           10 
 1101000   0.81464105   -7.0171446    318.04631  0.024072533  0.023775888            5 
 1102000   0.80717343    -7.028583    318.27993  0.024068355  0.023761101            6 
 1103000   0.81979429   -7.0325998    317.85227  0.024014224  0.023746308            6 
 1104000   0.81536149   -6.9951093    319.57044  0.024122165  0.023731417            9 
 1105000   0.80204881   -7.0244003     319.3408  0.024083017  0.023716653           15 
 1106000   0.82755563   -7.0037071    319.17663  0.024048872  0.023701817           13 
 1107000   0.81484396   -6.9785718     319.5102  0.024052258  0.023686934           17 
 1108000   0.79871993   -7.0174934    318.68649  0.023968599   0.02367201            7 
 1109000   0.80743599   -6.9833367    318.87192   0.02396092  0.023657115            7 
 1110000   0.81374542   -7.0248959    319.54231  0.023989663  0.023642187           21 
 1111000   0.82564844   -7.0044012    320.25623   0.02402162  0.023627289            7 
 1112000   0.81163397   -7.0508535     320.3753  0.024008941  0.023612408           11 
 1113000   0.81255754   -7.0438102    319.92888  0.023953944  0.023597509           19 
 1114000     0.806495   -7.0474564    320.58695  0.023981669  0.023582623           13 
 1115000   0.82533489   -7.0162979    320.31086  0.023939526  0.023567848            6 
 1116000   0.80497266   -7.0591061    319.59291  0.023864464  0.023552983            6 
 1117000     0.805645   -7.0409152    320.27978  0.023894343   0.02353813            9 
 1118000    0.8000937   -7.0558577    319.51784  0.023816178  0.023523103           11 
 1119000   0.82213179   -7.0154047    319.96363  0.023828093   0.02350805           11 
 1120000   0.81788363   -7.0344143    319.98252  0.023808223  0.023493047            7 
 1121000   0.82096733   -7.0385342    320.14486  0.023799053  0.023478102           11 
 1122000    0.8066705    -7.003195    321.10759  0.023849346  0.023463163            9 
 1123000   0.80425702   -7.0184826    320.70875  0.023798512  0.023448256           12 
 1124000   0.80349313   -7.0343828    320.86432  0.023788873  0.023433379           10 
 1125000   0.79225157   -7.0371839    320.71794  0.023756885  0.023418333            5 
 1126000   0.80237156   -7.0541537    320.10197  0.023690199   0.02340317            7 
 1127000   0.80675553   -7.0233899    320.95257  0.023732074  0.023388006            4 
 1128000   0.79483345   -7.0284438    321.27796  0.023735074  0.023372984            6 
 1129000   0.80189556   -7.0216526    321.16502  0.023705714  0.023357919            8 
 1130000   0.81013288   -7.0816543    320.65979  0.023647477  0.023342876           17 
 1131000   0.80068015   -7.0361053    320.74258  0.023632669  0.023327738           10 
 1132000   0.79491256   -7.0264534    320.77317  0.023614044  0.023312747           10 
 1133000    0.7842367   -7.0241378    320.66842  0.023585497  0.023297725           19 
 1134000   0.80737411   -7.0208751    321.72149  0.023642085   0.02328276            8 
 1135000   0.79204569   -7.0510901    321.01655  0.023569497  0.023267722           15 
 1136000   0.79884894   -7.0098426    321.32169  0.023571133  0.023252649           17 
 1137000   0.80924985   -7.0031268    321.90119  0.023592875   0.02323766           10 
 1138000    0.8036082   -7.0258868    321.44011   0.02353838  0.023222559            6 
 1139000    0.8037148   -7.0570821    321.52079  0.023523617  0.023207489            7 
 1140000   0.79578411   -7.0524095    320.86642  0.023455148  0.023192243           11 
 1141000   0.79657342   -7.0469045    320.93882  0.023439879  0.023177111            6 
 1142000   0.79943903   -7.0552098    321.73216  0.023477245  0.023161917            6 
 1143000    0.7702128   -7.0785114    321.31904  0.023426585  0.023146775            7 
 1144000   0.80127379   -7.0686338    321.56341  0.023423908  0.023131678           13 
 1145000   0.78511154    -7.033581    321.07316   0.02336777   0.02311658           10 
 1146000   0.80509438   -7.0497794    321.81393  0.023401245  0.023101573           15 
 1147000   0.80206559   -7.0541696    321.78353  0.023378635  0.023086537            7 
 1148000   0.79378073   -7.0456808     321.4927  0.023337159  0.023071286           14 
 1149000    0.7835012   -7.0778675     321.6341  0.023327103  0.023055999            8 
 1150000   0.80576602   -7.0555211    321.73809  0.023314354    0.0230408            5 
 1151000    0.7890659   -7.0330068    322.35313  0.023338628  0.023025599            6 
 1152000   0.79651803   -7.0826777    322.26611  0.023312074  0.023010404           16 
 1153000   0.78175306   -7.0526452    322.91358  0.023338651  0.022995275            6 
 1154000   0.80080358   -7.0596028    322.73653  0.023305642  0.022980071           12 
 1155000   0.77118206   -7.0422677    321.83684  0.023220551   0.02296485           11 
 1156000   0.77501108   -7.0357264    321.34719  0.023165166   0.02294953            3 
 1157000   0.80397312   -7.0210571    322.28106  0.023212407  0.022934245            6 
 1158000   0.79376158    -7.073692    322.48032  0.023206701   0.02291902            8 
 1159000   0.79216521   -7.0691615    322.27648  0.023172022  0.022903782           11 
 1160000   0.77518874   -7.0384018    322.87862  0.023195303  0.022888639            3 
 1161000   0.77611685   -7.0523923    322.40773  0.023141526  0.022873466            3 
 1162000   0.77878008    -7.069742    323.39652  0.023192522  0.022858254            7 
 1163000   0.78967814    -7.047137    322.48476  0.023107249  0.022843051           12 
 1164000   0.78635226   -7.0406894    322.92091  0.023118622  0.022827967            6 
 1165000   0.78883647   -7.0549421    322.27804  0.023052793  0.022812824            9 
 1166000   0.76912003   -7.0535266    322.84346  0.023073432  0.022797557           14 
 1167000   0.77484357   -7.0516308    323.29915    0.0230862  0.022782369            9 
 1168000   0.78965678   -7.0763105     323.5567   0.02308481  0.022767203           12 
 1169000   0.79826258   -7.0441523    323.38704  0.023052968  0.022752018           12 
 1170000   0.79558625   -7.0610575    323.27581  0.023025343  0.022736905           12 
 1171000   0.77954744   -7.0455966    323.71967  0.023037267  0.022721869            6 
 1172000   0.78909939   -7.0750734    323.75406  0.023020056  0.022706808            9 
 1173000   0.79564843    -7.046318    324.07327  0.023023108  0.022691686           13 
 1174000   0.77558253   -7.0520981    323.84554  0.022987333  0.022676473            8 
 1175000   0.79414569   -7.0322706    324.55099  0.023017801  0.022661295            4 
 1176000   0.77905948   -7.0657047    323.82326   0.02294666  0.022646251            6 
 1177000    0.7796784   -7.0375871    324.36155  0.022965276  0.022631221           14 
 1178000   0.79183948   -7.0946597    324.25625  0.022938331  0.022616064           11 
 1179000   0.77131029   -7.0723077    323.24239  0.022847215  0.022600899            6 
 1180000   0.78232454   -7.0623804    323.83517  0.022869715  0.022585646           11 
 1181000   0.78203034   -7.0845669    323.86068  0.022852151  0.022570378           14 
 1182000   0.78699338   -7.0684581    323.33286  0.022795605  0.022555077           12 
 1183000   0.78110781   -7.0925405    323.80933  0.022809899  0.022539817           12 
 1184000   0.76956698   -7.0527192    324.09666  0.022810857  0.022524581            8 
 1185000   0.78437542   -7.0729355    324.30707  0.022806405  0.022509368           13 
 1186000   0.76697927   -7.0821935    325.04269  0.022838862  0.022494254            7 
 1187000   0.78167318    -7.077265    325.09968  0.022823623  0.022479145            7 
 1188000   0.78562975   -7.0658939    324.88195  0.022789138  0.022464086            5 
 1189000   0.79548252    -7.069722    325.34414  0.022802365  0.022449044            5 
 1190000   0.76201694   -7.0830023    325.46802  0.022791878  0.022434109           10 
 1191000   0.76991951   -7.0674735    325.08508  0.022745947  0.022419178           10 
 1192000   0.78222627   -7.0758252    325.46315  0.022753296  0.022404329            6 
 1193000   0.77406898   -7.0660653      324.689  0.022680148  0.022389332            7 
 1194000   0.78777631   -7.0755242    325.79929  0.022738644   0.02237434            8 
 1195000   0.75795521    -7.091172    325.71688  0.022713869  0.022359355            8 
 1196000   0.76896619   -7.0927678    325.38155  0.022671512  0.022344321            9 
 1197000    0.7874198   -7.0975744    325.50221  0.022660973  0.022329278            6 
 1198000   0.76812701   -7.0698705     325.1607  0.022618301  0.022314307            6 
 1199000    0.7718422   -7.0859807    325.65699   0.02263393  0.022299307            5 
 1200000   0.77232005   -7.0840606    325.17207  0.022581394   0.02228421            7 
 1201000   0.76563715    -7.099418    324.66731  0.022527568  0.022269107           13 
 1202000   0.77279312   -7.0982689    324.79874  0.022517938  0.022253945            8 
 1203000   0.77562209   -7.0711534    325.85764  0.022572571  0.022238761            7 
 1204000   0.77223446   -7.0655237     325.2932  0.022514756  0.022223652            9 
 1205000   0.77587004   -7.0826664    325.31896  0.022497853  0.022208473            7 
 1206000   0.78366297   -7.0866378    325.89267  0.022518841  0.022193247            7 
 1207000   0.79060294   -7.0941005    325.18918  0.022451614  0.022177967           14 
 1208000   0.76667725   -7.0809474    325.25899  0.022437844  0.022162729            9 
 1209000    0.7758076   -7.0994218     325.3749  0.022427275  0.022147566            9 
 1210000   0.77827905   -7.0881076    325.50612  0.022417777  0.022132402           15 
 1211000   0.76951063    -7.070587    325.69589  0.022412324  0.022117321           11 
 1212000   0.77809366   -7.1131563    325.57303  0.022385385  0.022102216            9 
 1213000   0.76970773   -7.0980221    325.53139  0.022364069  0.022087035            7 
 1214000   0.75951785   -7.1048834    325.70007  0.022357226  0.022071838           11 
 1215000   0.76156967   -7.1239946    325.01063  0.022291538   0.02205657            8 
 1216000   0.79020174   -7.0966057    325.42801   0.02230181  0.022041384           14 
 1217000   0.76907398   -7.0773763    326.13528  0.022331914  0.022026211           14 
 1218000   0.76897852   -7.1065957    325.88791  0.022296655  0.022011109            5 
 1219000    0.7671121   -7.1234197    326.92845  0.022349498  0.021996001           16 
 1220000   0.76793041   -7.1266606    326.33829  0.022290867   0.02198089           15 
 1221000   0.76456967   -7.0966805    326.83103   0.02230624  0.021965729            7 
 1222000   0.77067303   -7.1350343    325.56614  0.022201728  0.021950541           10 
 1223000   0.75221349   -7.0849961    326.50335  0.022247434  0.021935373            4 
 1224000   0.76400618   -7.0990088    325.74626  0.022177714  0.021920188            7 
 1225000   0.76536627   -7.1016892    326.08597  0.022182719  0.021904974            5 
 1226000   0.74949767   -7.1037973    326.36483   0.02218358  0.021889798           13 
 1227000   0.77400138   -7.1087771    325.30634  0.022093612  0.021874601            5 
 1228000   0.75818865   -7.0932009    326.18821  0.022135465  0.021859395            7 
 1229000   0.76506069   -7.1101362    326.08524  0.022110472  0.021844129           26 
 1230000   0.76633102   -7.1335193     326.6185  0.022128625  0.021828867           13 
 1231000   0.78527332   -7.1086331    326.37861  0.022094409  0.021813628           14 
 1232000   0.77444902   -7.1205249     327.1117  0.022126062  0.021798445            8 
 1233000   0.76362851   -7.1457556    326.56721  0.022071317  0.021783211           19 
 1234000   0.75393503    -7.127502    326.70546  0.022062767  0.021768007           35 
 1235000   0.76210653   -7.1167677    326.21343  0.022011703  0.021752743           15 
 1236000   0.76275811   -7.1331067    326.51607  0.022014298  0.021737519           10 
 1237000   0.74781357    -7.097376    326.67633  0.022007298    0.0217223           23 
 1238000   0.75680893   -7.1263391    326.37549  0.021969271  0.021707096           34 
 1239000   0.75159556   -7.1373465     326.9975  0.021993375  0.021691891           35 
 1240000   0.75677674   -7.1148278    326.19966   0.02192202  0.021676749           32 
 1241000   0.76355716   -7.1386436    327.35677  0.021982055  0.021661568           39 
 1242000   0.75082031   -7.1261765    326.99012  0.021939755  0.021646381           27 
 1243000   0.75117358   -7.1469409    326.80512  0.021909702  0.021631162           31 
 1244000   0.77288587   -7.1391817    325.98184   0.02183694  0.021615973           32 
 1245000    0.7594717   -7.1497194    327.07696  0.021892701  0.021600788           15 
 1246000   0.74976426   -7.1107615    327.45244  0.021900244   0.02158561           11 
 1247000   0.76537858   -7.1193591    326.87744  0.021844255  0.021570532           12 
 1248000   0.75663407   -7.1170111    326.58996  0.021807556  0.021555431           12 
 1249000   0.76723659   -7.1577437    327.22148  0.021832231  0.021540303           20 
 1250000   0.78045576   -7.1190703    326.63539  0.021775692  0.021525157           13 
 1251000   0.76673893   -7.1473479    327.19999  0.021795896  0.021510014           12 
 1252000   0.73644851   -7.1520369    327.37381  0.021790056  0.021494901           10 
 1253000   0.75066652   -7.1214605    328.22137  0.021829035  0.021479914            8 
 1254000   0.74398502   -7.1376617     327.2151  0.021744756  0.021464916            7 
 1255000   0.73046759   -7.1289931    327.89005  0.021772248  0.021449904           12 
 1256000   0.77014016   -7.1573452    327.82388  0.021750523  0.021434798           18 
 1257000   0.75405423   -7.1373748    328.73363  0.021793532  0.021419692           17 
 1258000   0.74627343   -7.1332163    327.58546   0.02170015  0.021404684           15 
 1259000   0.76032763   -7.1405965    327.14028  0.021653447  0.021389584           12 
 1260000   0.75058619   -7.1383592    327.88856  0.021685751  0.021374463            5 
 1261000   0.75386715   -7.1324634    327.17149  0.021621166  0.021359389           15 
 1262000   0.75727693   -7.1290173    327.99231  0.021658235  0.021344417            4 
 1263000   0.74839351    -7.098913    328.60349  0.021681413  0.021329459           18 
 1264000   0.76002413   -7.1003932    327.88078  0.021616612  0.021314484           15 
 1265000   0.75603406   -7.1351568    327.79372  0.021593789  0.021299474           20 
 1266000   0.74287909   -7.1118075    328.09369  0.021596478  0.021284457            9 
 1267000   0.72412795   -7.1738352     327.4673  0.021538234  0.021269427           18 
 1268000     0.761947   -7.1394607    327.63799  0.021532465   0.02125435           14 
 1269000   0.73276732   -7.1306954     328.6282  0.021580523  0.021239342           17 
 1270000   0.75463201   -7.1536436    328.74798   0.02157139  0.021224378            9 
 1271000   0.74028477   -7.1741981    328.35514  0.021528661  0.021209357           17 
 1272000    0.7381703   -7.1036795    328.62808  0.021529618  0.021194423            7 
 1273000   0.75125699   -7.1421037    328.99014  0.021536406  0.021179537           13 
 1274000   0.73562214   -7.1545804    328.20623  0.021468225   0.02116459           12 
 1275000   0.75387387   -7.1484852    329.05713  0.021507002  0.021149688           21 
 1276000    0.7573259   -7.1720613    329.67544  0.021530528   0.02113483           10 
 1277000   0.72580197   -7.1496111    328.56962  0.021441505  0.021119954           14 
 1278000   0.75034635   -7.1591555    328.61364  0.021427598  0.021105209            7 
 1279000   0.73649562   -7.1581093    329.15552  0.021446151  0.021090403           12 
 1280000   0.74003452   -7.1420283    329.69976  0.021464828  0.021075604            8 
 1281000   0.73776157   -7.1607404    328.85954  0.021393413   0.02106076           12 
 1282000   0.74699392   -7.1541979    329.44772  0.021414959   0.02104584            8 
 1283000   0.74872189   -7.1790383    329.41732  0.021396292  0.021030994            9 
 1284000   0.73082319   -7.1797608    329.88529      0.02141  0.021016173            9 
 1285000   0.74151866   -7.1324441    329.28248  0.021354246  0.021001341            9 
 1286000   0.74096081   -7.1670958    328.91167  0.021313612  0.020986539            7 
 1287000   0.72767962   -7.1767644    328.20551  0.021251328  0.020971676           13 
 1288000   0.74461114   -7.1543409    328.91885  0.021280982  0.020956787            9 
 1289000   0.73951281   -7.1584966    329.87228  0.021326111  0.020941861           14 
 1290000   0.71656121   -7.1741439    328.93041  0.021248734  0.020926924            6 
 1291000   0.74494371   -7.1642288    329.39248  0.021262102  0.020912022           11 
 1292000   0.74131206   -7.1804135    329.52431  0.021254148  0.020897142           22 
 1293000   0.75327356   -7.1518977     329.8194  0.021256729   0.02088232           11 
 1294000   0.73109068   -7.1790826    329.79683  0.021238848   0.02086752           17 
 1295000   0.72541777   -7.1781359    329.94099  0.021231724  0.020852771            7 
 1296000    0.7167773   -7.1786535    330.14022  0.021228152  0.020838051            6 
 1297000    0.7414682   -7.1814094     330.4083   0.02122901   0.02082339           28 
 1298000   0.73352383   -7.1549814    330.29322  0.021205266  0.020808724           15 
 1299000   0.74221207   -7.1578126    330.42413   0.02119734  0.020794045           12 
 1300000   0.73092385   -7.1655851    329.99504  0.021153528  0.020779344           11 
 1301000   0.74578865   -7.1819082    329.85349  0.021128202  0.020764651           15 
 1302000   0.73460185   -7.1784776     330.1225  0.021129193  0.020749918            7 
 1303000   0.73131849   -7.1814461    329.60206  0.021079692  0.020735189           15 
 1304000   0.75352001   -7.1772709    329.24413  0.021040652  0.020720431           15 
 1305000   0.72540662   -7.1765881    329.71544  0.021054626  0.020705618           11 
 1306000   0.73519448   -7.1816274    330.06664  0.021060913  0.020690847           10 
 1307000   0.73230153   -7.1662814    330.27247  0.021057924   0.02067603           12 
 1308000   0.72724762    -7.184694    330.16416  0.021034923  0.020661264           10 
 1309000   0.73907711   -7.1462965    330.21324  0.021021979  0.020646526           23 
 1310000   0.73293622   -7.1997484    330.18287     0.021004  0.020631843           20 
 1311000   0.73024912   -7.1813839    330.39676  0.021001574  0.020617067           21 
 1312000   0.73821287   -7.1773251    330.04816  0.020963425   0.02060232           13 
 1313000   0.73587048    -7.180658    330.25317   0.02096047  0.020587627            9 
 1314000   0.72963954   -7.1856109    330.05913  0.020932213  0.020572985           16 
 1315000   0.72376591   -7.2111719    330.17348  0.020923541  0.020558274           10 
 1316000   0.72510731   -7.1896234    329.88265  0.020889226  0.020543574           12 
 1317000     0.723646   -7.1863879    330.04142  0.020883411  0.020528822           11 
 1318000   0.72025805   -7.1628516    330.22148   0.02087895  0.020514154           21 
 1319000   0.72555915   -7.2168858    330.11967  0.020856689  0.020499465           16 
 1320000   0.72506148   -7.1730657     330.8786  0.020888801  0.020484785           13 
 1321000   0.72392196   -7.1931302    330.52327  0.020850572   0.02047014           13 
 1322000   0.71816142   -7.1820348    330.42831  0.020828814  0.020455479           14 
 1323000   0.72727721   -7.1822867    330.26138  0.020802556  0.020440792           14 
 1324000   0.72128577   -7.2095195    330.99743  0.020833172  0.020426076           21 
 1325000   0.72067713   -7.2023737    330.48213  0.020785039  0.020411355           15 
 1326000   0.72202889     -7.21936    330.47507  0.020768921  0.020396606           13 
 1327000   0.72502472   -7.2116521    329.77759   0.02070947  0.020381802           12 
 1328000    0.7239656   -7.2317221    329.22088  0.020658941   0.02036699            8 
 1329000   0.70843054   -7.1948229    330.80416  0.020742674  0.020352172           38 
 1330000   0.72473268   -7.2212194     329.9603  0.020674204  0.020337375           18 
 1331000   0.72300434   -7.2066372    330.74607  0.020707868    0.0203226           23 
 1332000   0.71273989   -7.2043724    330.75261  0.020692731  0.020307927           34 
 1333000   0.72573458   -7.2011372    330.80842  0.020680696  0.020293252           24 
 1334000   0.71973032   -7.2201566    330.92993  0.020672784  0.020278567           34 
 1335000   0.72580833   -7.2255292    330.81116  0.020649885  0.020263822           18 
 1336000   0.72047927   -7.2256427    330.50228  0.020615162  0.020249088           10 
 1337000   0.72146247   -7.1935497    330.05642  0.020571954  0.020234365           13 
 1338000    0.7167969   -7.2155738    330.36618  0.020575871  0.020219642           24 
 1339000   0.71540284   -7.2010833    330.57544  0.020573527  0.020204958           19 
 1340000   0.72905329   -7.2080458    330.31307  0.020541858   0.02019024           15 
 1341000   0.72261616   -7.2157688    331.11766  0.020576538  0.020175554           21 
 1342000   0.72416976   -7.2167738    331.18827  0.020565591  0.020160888           14 
 1343000   0.71226797   -7.2041649    330.18122   0.02048779  0.020146188            8 
 1344000    0.7262243   -7.2100108    330.14188  0.020470107  0.020131466            8 
 1345000    0.7120111   -7.2008917    330.50526  0.020477402  0.020116734           10 
 1346000   0.73793663   -7.1873431    330.22144  0.020444616  0.020102067            4 
 1347000   0.71204398   -7.1967854     330.2558  0.020431564  0.020087422           11 
 1348000   0.69848246   -7.2194205    330.41153  0.020426034  0.020072747            9 
 1349000   0.72454294   -7.2242655    329.99066  0.020384894  0.020058105           26 
 1350000   0.71225233   -7.2240935    330.84274  0.020422392  0.020043416            7 
 1351000    0.7020682   -7.2344319    331.38054  0.020440448  0.020028746            4 
 1352000   0.70908966    -7.253857    330.09785  0.020346268   0.02001412            8 
 1353000   0.71907472   -7.2368989    331.20947  0.020399696  0.019999471           13 
 1354000   0.71024198   -7.1893761    331.34908  0.020393223  0.019984904           13 
 1355000   0.70502497   -7.2249754    331.37522   0.02037978  0.019970313           12 
 1356000   0.70792629   -7.1828223    331.14248  0.020350447  0.019955748            9 
 1357000    0.7145245   -7.2183656    330.29963  0.020283691  0.019941126           15 
 1358000   0.68773005   -7.2085187    330.71123  0.020294013  0.019926518           29 
 1359000   0.71958531   -7.2157834    330.76332  0.020282274  0.019911843           22 
 1360000     0.713922   -7.1885924    331.02358  0.020283308  0.019897188           16 
 1361000   0.69707968   -7.2159605    330.04891  0.020208726  0.019882458           12 
 1362000   0.72400446   -7.2469407    330.70758  0.020234189  0.019867753           17 
 1363000   0.71296888   -7.2347541    331.34728  0.020258454  0.019853057           18 
 1364000    0.7021564   -7.2466216    330.99593  0.020222136   0.01983838           13 
 1365000   0.70105438   -7.2285393    330.63257  0.020185139   0.01982372            9 
 1366000   0.69747251   -7.2495169    330.60176  0.020168482  0.019809093           19 
 1367000   0.72337231   -7.2455026    330.97696  0.020176601  0.019794465            8 
 1368000   0.71952036   -7.2562643    330.68668  0.020144169   0.01977987           20 
 1369000   0.70009324   -7.2238875    331.11314  0.020155414  0.019765254           25 
 1370000   0.71224415   -7.2398611     330.7505  0.020118643  0.019750722           33 
 1371000    0.7105773   -7.2218149    331.97274   0.02017826  0.019736166           26 
 1372000    0.7012808   -7.2365564    331.88365  0.020158142  0.019721615           23 
 1373000   0.70418767   -7.2459405    331.38692  0.020113312  0.019707084           30 
 1374000   0.69943708   -7.2359276    331.76442  0.020121569  0.019692538            9 
 1375000   0.69425139   -7.2172585    330.94146  0.020057058  0.019678057           12 
 1376000   0.71317883   -7.2118185     330.8053  0.020034236  0.019663577           31 
 1377000   0.70500566   -7.2417132    330.78478  0.020018445  0.019649048           19 
 1378000   0.69211165   -7.2431785    330.86172   0.02000857  0.019634466           27 
 1379000   0.69693996   -7.2276382    331.23742  0.020016765  0.019619934           20 
 1380000   0.71955864   -7.2611053    331.44624   0.02001487  0.019605381           29 
 1381000   0.70778564   -7.2253267    331.03948  0.019975832  0.019590862            9 
 1382000   0.69799383   -7.2386962    332.25344  0.020034578  0.019576345           26 
 1383000   0.69957505   -7.2816738    331.57063  0.019978948  0.019561845           13 
 1384000   0.70733828   -7.2422595    332.00942  0.019990933  0.019547363           19 
 1385000   0.69665172   -7.2420269    332.00228   0.01997607  0.019532911           13 
 1386000   0.70305152   -7.2416049    331.47947  0.019930223   0.01951846           11 
 1387000   0.68447256    -7.240481    331.93543  0.019943249  0.019504005           21 
 1388000   0.70340915    -7.273304     331.3054  0.019891055  0.019489476           40 
 1389000   0.71170858   -7.2470046     331.7452   0.01990312  0.019474993           14 
 1390000   0.68381251   -7.2390302    331.80318  0.019892277   0.01946056           34 
 1391000   0.69363297   -7.2379743    331.61067  0.019866443  0.019446176           53 
 1392000   0.69421025   -7.2585505    331.50629  0.019845922  0.019431784           17 
 1393000   0.71553642    -7.256759     332.3709  0.019883399  0.019417374           26 
 1394000   0.70403602   -7.2583408    332.11045  0.019853566  0.019402969           31 
 1395000   0.70068885   -7.2701227    331.49562  0.019802606  0.019388567           32 
 1396000   0.70435672   -7.2440056    331.59424  0.019794307  0.019374155           10 
 1397000   0.70105082   -7.2345009    331.78828  0.019791713  0.019359805           12 
 1398000    0.6990215   -7.2595428    331.48787  0.019759649  0.019345426            9 
 1399000   0.69629067   -7.2460217    332.22801  0.019789612  0.019331021           13 
 1400000   0.67320043   -7.2409823    331.71364  0.019744859  0.019316641           21 
 1401000   0.67193811   -7.2641604    332.01479  0.019748679  0.019302265           11 
 1402000   0.69416623   -7.2279613    331.45693  0.019701434  0.019287933           17 
 1403000   0.70542323   -7.2567699    331.52034  0.019691158  0.019273627           24 
 1404000   0.68227973   -7.2518969    332.40713  0.019729768  0.019259327           14 
 1405000   0.70897167   -7.2273605    331.97154   0.01968989  0.019245066           15 
 1406000   0.68543307   -7.2544146    332.09591  0.019683257  0.019230784           30 
 1407000   0.69139873   -7.2621479    332.69962  0.019705024  0.019216485            8 
 1408000   0.68808147   -7.2473596    332.05303   0.01965276  0.019202197           39 
 1409000   0.68722194   -7.2408274    332.10736  0.019642025  0.019187933           61 
 1410000   0.68702733   -7.2664021    332.09467  0.019627345  0.019173652           50 
 1411000   0.68606049   -7.2482107    332.26231  0.019623335  0.019159385           44 
 1412000   0.69698683   -7.2816475    331.83629  0.019584295  0.019145083           16 
 1413000   0.67792136   -7.2663495    331.26179  0.019536553  0.019130697           19 
 1414000   0.68373887   -7.2649529    332.04309  0.019568782  0.019116333           11 
 1415000   0.69617632   -7.2919654    331.75359  0.019537903   0.01910201           14 
 1416000   0.69258641   -7.2593821    331.65706  0.019518424  0.019087669           13 
 1417000   0.68808547   -7.2492788    331.63929  0.019503604  0.019073399           26 
 1418000   0.68901693   -7.2664715    332.93385  0.019565929  0.019059164            8 
 1419000   0.68143906     -7.25564    332.24657  0.019511779  0.019044997           12 
 1420000   0.69015191   -7.2393719    332.67713  0.019523305  0.019030866           12 
 1421000    0.6893083   -7.2820088    332.60565  0.019505375  0.019016756           22 
 1422000   0.67532686   -7.3087143    332.46096  0.019483179  0.019002627           16 
 1423000   0.68224965   -7.2867022    332.15239  0.019451417  0.018988445           30 
 1424000   0.67816853   -7.2743164    332.51352  0.019458891  0.018974254           18 
 1425000   0.67652114   -7.3023961    331.93746  0.019411547  0.018960089           30 
 1426000   0.68429985   -7.2811342    332.62668  0.019438212  0.018945915           21 
 1427000   0.69605148   -7.2896915    332.72562  0.019430368  0.018931717           28 
 1428000   0.69219661   -7.2947882    332.15623  0.019383534  0.018917547           20 
 1429000   0.68982639   -7.2800107    332.46856  0.019388183  0.018903371           35 
 1430000   0.69194279   -7.3010633    332.19858  0.019358892  0.018889184           44 
 1431000   0.69321131   -7.3118681    332.13448   0.01934163   0.01887498           49 
 1432000   0.68422469   -7.2907137    331.70557  0.019303164  0.018860808           48 
 1433000   0.69427723   -7.3059068    332.31411  0.019325082  0.018846588           42 
 1434000   0.67879337   -7.3072142    332.42687  0.019318158  0.018832397           55 
 1435000   0.67661833   -7.3142068    332.09244  0.019285275  0.018818264           85 
 1436000   0.66885131   -7.3105168    332.04982  0.019269372  0.018804141           76 
 1437000   0.67979212   -7.3300184    332.88347  0.019304307  0.018790085           27 
 1438000   0.67584691   -7.3315866    332.66601  0.019278281   0.01877602           61 
 1439000   0.67699525   -7.2995337    332.19914  0.019237847  0.018761979           29 
 1440000   0.66606173   -7.2964864    333.41637  0.019294929  0.018747968           47 
 1441000   0.68274907   -7.2882099    332.76512  0.019243877  0.018734001           62 
 1442000   0.68105904   -7.2944256    333.02865  0.019245761  0.018720047           65 
 1443000   0.67588309   -7.2757838    332.78984  0.019218633  0.018706096           43 
 1444000   0.68047394   -7.2650775    333.91005  0.019269971  0.018692204           29 
 1445000    0.6765265   -7.2836652    333.10399  0.019210149  0.018678375           37 
 1446000    0.6727385   -7.2884415    333.52645  0.019221211  0.018664503           21 
 1447000   0.68209457    -7.279955      333.347  0.019197593  0.018650634           14 
 1448000   0.66714596   -7.2999862    333.46122  0.019190908  0.018636815           18 
 1449000   0.67344207   -7.3084126    333.24224   0.01916507  0.018622964           10 
 1450000   0.67362259   -7.2843674    332.82272  0.019127743  0.018609101            9 
 1451000   0.68833021   -7.2964835    333.22248  0.019137519  0.018595283           21 
 1452000   0.66562924   -7.2932015    332.95557   0.01910902  0.018581483           25 
 1453000   0.67737319   -7.3222595    332.58108  0.019074391  0.018567574           11 
 1454000   0.67275582   -7.3058603    333.29018  0.019101913  0.018553671           14 
 1455000   0.66847385   -7.3170216    333.37668  0.019093739  0.018539827           21 
 1456000   0.67625675   -7.2946988     334.4079  0.019139647  0.018526025           18 
 1457000   0.67088423   -7.3015202    333.23059  0.019059174   0.01851222           14 
 1458000   0.68002941    -7.328949    332.89735  0.019027055  0.018498431            9 
 1459000   0.67242002    -7.298819    333.64896  0.019056943  0.018484634           20 
 1460000   0.66773555   -7.3186933      333.686  0.019046005   0.01847082           21 
 1461000   0.68281686   -7.3045023    333.63262  0.019029924  0.018456978           15 
 1462000    0.6628759   -7.3337551     333.5607  0.019012808  0.018443151           19 
 1463000   0.66365924   -7.3268373    333.22604  0.018980749  0.018429341           16 
 1464000   0.66640419    -7.335698     333.6175  0.018990067  0.018415543           16 
 1465000   0.65757993   -7.3114183    334.12187  0.019005794  0.018401778           14 
 1466000   0.66960274   -7.3365147    332.88671  0.018922619  0.018387974           15 
 1467000   0.66691239   -7.3259797    333.30857  0.018933684  0.018374206           14 
 1468000   0.65540686    -7.337873    332.96061  0.018901034  0.018360409           20 
 1469000   0.65668599   -7.3329695    333.03846  0.018892583  0.018346626           64 
 1470000   0.69167613   -7.3090045    332.97978  0.018876405  0.018332854           17 
 1471000   0.68270311   -7.3325187    332.91024  0.018859633  0.018319078           22 
 1472000   0.66825959   -7.3372057    333.41366   0.01887532  0.018305323           27 
 1473000   0.66285998   -7.3165144    333.64432  0.018875555  0.018291549           24 
 1474000   0.65520492   -7.3294984    333.36098  0.018846731  0.018277827           11 
 1475000   0.66862637   -7.3095143     333.4629  0.018839712  0.018264179           12 
 1476000   0.67055666   -7.2931311    333.86641  0.018849729  0.018250561           13 
 1477000   0.67317271   -7.2820847    334.25504  0.018858894  0.018236963           16 
 1478000   0.66236024     -7.30977    333.77516  0.018819078  0.018223407           11 
 1479000     0.657067   -7.2869516     334.2243   0.01883166  0.018209857           23 
 1480000   0.65755359   -7.3266387    334.46326  0.018832391  0.018196297           19 
 1481000   0.65065388   -7.3256481    333.94256  0.018790376  0.018182711           46 
 1482000   0.65666181   -7.3140759    333.71381  0.018764834  0.018169129           10 
 1483000   0.65602284   -7.3409255    334.02507  0.018769671  0.018155553           16 
 1484000   0.66346701   -7.3071891    333.82935  0.018746033  0.018141989           19 
 1485000   0.66135857   -7.3179548    333.80392  0.018731982  0.018128451           11 
 1486000     0.658201   -7.3476395    334.14385  0.018738439  0.018114888           18 
 1487000   0.64315094   -7.3314022     333.4706  0.018688108  0.018101299           11 
 1488000   0.65082535   -7.2977606    333.66461  0.018686414  0.018087761           17 
 1489000    0.6633712   -7.3451453    334.28102  0.018708363  0.018074167            9 
 1490000   0.66630144   -7.3117207    333.92704  0.018676009  0.018060566           17 
 1491000   0.65375964   -7.3407032    333.77214  0.018654825  0.018046981           32 
 1492000   0.66148791   -7.3149969    333.09783   0.01860466  0.018033406           30 
 1493000   0.64378163   -7.3233818    333.67567  0.018624452  0.018019844           18 
 1494000   0.66134722   -7.3328207    334.14437  0.018638129  0.018006291           32 
 1495000   0.65436821   -7.3270474    333.49256  0.018589329  0.017992746           29 
 1496000   0.64350151   -7.3551093    333.84753  0.018596676  0.017979216           32 
 1497000   0.64890733   -7.3358126    332.78872  0.018525313  0.017965671           48 
 1498000   0.66111579   -7.3671601    332.96729   0.01852288  0.017952097           33 
 1499000   0.65550207    -7.361907    333.70091  0.018551307  0.017938498           49 
 1500000   0.65116705   -7.3660491    333.08057  0.018504476  0.017924917           34 
 1501000   0.65469869   -7.3655051    333.90466    0.0185379  0.017911334           23 
 1502000   0.65289653   -7.3609335    332.96952  0.018473675  0.017897783           37 
 1503000   0.66027758   -7.3365741    333.49655  0.018490605  0.017884273           28 
 1504000    0.6416777   -7.3546727    333.78875  0.018494501  0.017870794           50 
 1505000    0.6315919   -7.3528765    333.88642   0.01848762  0.017857275           36 
 1506000   0.64768787   -7.3632617    333.75581  0.018468117  0.017843771           47 
 1507000   0.63985861    -7.344234    333.54967  0.018444463  0.017830321           28 
 1508000   0.65843293   -7.3411091    333.20888  0.018413399  0.017816856           30 
 1509000   0.64712731   -7.3348306    333.85762  0.018437023  0.017803436           17 
 1510000   0.64287182   -7.3495429    333.56301  0.018408555  0.017789964           38 
 1511000   0.65285894   -7.3453075    333.53577  0.018394869  0.017776511           23 
 1512000    0.6546866   -7.3739186    333.46191  0.018378633  0.017763018            9 
 1513000   0.65807172   -7.3595568    333.68458   0.01837875  0.017749547           16 
 1514000   0.64196191   -7.3976628    333.48275  0.018355501  0.017736058           28 
 1515000   0.65524448   -7.3698014    333.19612  0.018327619  0.017722571           56 
 1516000   0.65447467   -7.3647926    333.33337  0.018323074  0.017709081           42 
 1517000   0.63990686    -7.366235    333.08532   0.01829737  0.017695601           39 
 1518000   0.64953418   -7.3782487    333.43162  0.018304327  0.017682156           26 
 1519000   0.65331482   -7.3561056    333.69834  0.018306909  0.017668767           53 
 1520000   0.64562319   -7.3512223    333.98421  0.018310538   0.01765537           51 
 1521000   0.64215702   -7.3856513    333.80183  0.018288507  0.017641948           23 
 1522000   0.64425011    -7.372615    334.16704  0.018296487  0.017628549           23 
 1523000    0.6497501   -7.3772765    333.59981  0.018253436  0.017615147           15 
 1524000   0.63906273   -7.3879806    334.16982  0.018272628  0.017601754           22 
 1525000   0.64957748    -7.353552    333.39715  0.018218423  0.017588348           12 
 1526000   0.64209156   -7.3841993    333.33634  0.018203164  0.017574962           24 
 1527000   0.62213427   -7.3505898    333.73931  0.018213234  0.017561592           28 
 1528000   0.63793778   -7.3442145     334.2185  0.018227449  0.017548264           15 
 1529000   0.64652859   -7.3550478    334.77376   0.01824579   0.01753494           20 
 1530000   0.62768703   -7.3678221    333.61739  0.018170882   0.01752165           19 
 1531000   0.65149918   -7.3855051    334.18975  0.018190167  0.017508334           20 
 1532000   0.64075763   -7.3919093    333.60734  0.018146613   0.01749502           28 
 1533000   0.63178609   -7.3721625    334.07281  0.018160079  0.017481756           10 
 1534000   0.64499815   -7.3600356    334.05743  0.018147405  0.017468528           20 
 1535000    0.6383397    -7.355885    334.12486  0.018139243  0.017455309           11 
 1536000   0.64888585   -7.3650576    334.40345  0.018142548  0.017442087           18 
 1537000   0.65485553   -7.3907362    333.55995  0.018085011  0.017428854           22 
 1538000   0.63454863   -7.3727147    333.46792  0.018068266  0.017415641           43 
 1539000   0.63323643   -7.3709195    333.56957   0.01806203  0.017402394           35 
 1540000   0.62989433     -7.38319    333.14266    0.0180272  0.017389147           25 
 1541000    0.6565302   -7.3957727    333.64103  0.018042452   0.01737586           36 
 1542000   0.63970961   -7.4012627    333.30431  0.018012555  0.017362601           65 
 1543000   0.64157981   -7.3853749    333.51769  0.018012405  0.017349328           34 
 1544000   0.63729938   -7.3928719    333.88189  0.018020396  0.017336072           23 
 1545000   0.62572086   -7.3667682    333.68005  0.017997845  0.017322818           35 
 1546000   0.64662663   -7.4091569    333.62339   0.01798315   0.01730959           59 
 1547000   0.62625868   -7.4013291    333.67193   0.01797414   0.01729635           34 
 1548000   0.63250365   -7.4186427    333.77552  0.017968105  0.017283115           59 
 1549000   0.62614748    -7.408806    333.13756  0.017922184  0.017269896           37 
 1550000   0.63783808   -7.3804946    333.70393  0.017941071  0.017256719           60 
 1551000   0.64648852   -7.4146903    333.07558  0.017895744  0.017243518           59 
 1552000   0.63751229   -7.3928279    333.86064  0.017926366  0.017230322           53 
 1553000   0.65016735   -7.4103781    333.21332  0.017880088  0.017217151           46 
 1554000   0.63289238   -7.4109623    333.35296   0.01787607  0.017203954           54 
 1555000   0.64528746   -7.4029003    333.44506   0.01786951  0.017190812           42 
 1556000   0.62637204   -7.3804802    333.85671  0.017880072  0.017177707           33 
 1557000   0.63853672   -7.4107977    333.91234  0.017871566  0.017164559           62 
 1558000   0.63818925   -7.4069517    333.88141  0.017858441  0.017151397           81 
 1559000   0.62338842   -7.3935695    334.24515  0.017866429  0.017138261           29 
 1560000   0.63477737   -7.3889292    333.58467  0.017819694  0.017125117           31 
 1561000   0.62447993   -7.4033208    333.42354  0.017799676  0.017112041           51 
 1562000   0.62712455   -7.3868244    334.20559  0.017830004   0.01709895           26 
 1563000    0.6238952   -7.4059141    333.50791  0.017781399  0.017085844           46 
 1564000   0.63497705   -7.3867673    333.91666  0.017791808  0.017072767           39 
 1565000   0.63483984   -7.3972814     333.3836  0.017752055  0.017059698           51 
 1566000   0.61720602   -7.4070864    333.72441  0.017758855  0.017046598           61 
 1567000   0.63402744   -7.4136831    333.31845  0.017725933  0.017033517           51 
 1568000   0.63420073   -7.3974657    333.41682  0.017719857  0.017020448           62 
 1569000   0.63143862   -7.4047573    333.41575  0.017708506  0.017007347           39 
 1570000   0.62588234   -7.4167685    333.04282  0.017677432  0.016994251           34 
 1571000   0.63719133   -7.4225202    333.12418  0.017670496  0.016981138           58 
 1572000   0.62012785   -7.4131081    333.34299  0.017670854  0.016968044           98 
 1573000   0.61909702   -7.4068223    333.23351   0.01765382  0.016954982           42 
 1574000   0.61860816   -7.4012393    333.67102  0.017665767  0.016941899           42 
 1575000   0.63315339   -7.4216977    333.21656  0.017630506  0.016928817           54 
 1576000   0.62864641   -7.4202714    333.27949  0.017622647  0.016915765           58 
 1577000   0.60973507   -7.4312931    333.03028  0.017598302  0.016902738           43 
 1578000   0.63902569   -7.4198196    333.60981  0.017617755  0.016889747           65 
 1579000   0.62821673   -7.4251456    333.36587  0.017593723  0.016876756           49 
 1580000   0.61495982     -7.40935    333.67286   0.01759878  0.016863776           56 
 1581000   0.62002158   -7.4190655    333.41205  0.017573901  0.016850765           81 
 1582000   0.61371117   -7.4246539    333.29976  0.017556877  0.016837803           73 
 1583000   0.62111988   -7.3980682    333.78273  0.017571211  0.016824877           43 
 1584000    0.6348192   -7.3950501    333.88734  0.017565622  0.016811969           67 
 1585000   0.63438303   -7.4256617    333.18614  0.017517673  0.016799069           65 
 1586000   0.64045775   -7.4019531    333.32331  0.017513835  0.016786147           80 
 1587000   0.62419156   -7.4075619    333.00376   0.01748602  0.016773221           78 
 1588000   0.63818759   -7.4014333    333.18222  0.017484373   0.01676033           79 
 1589000   0.61549557   -7.4133329    332.98377  0.017462963  0.016747433           73 
 1590000   0.62993834    -7.411589    333.05396  0.017455659  0.016734558           84 
 1591000   0.61065962   -7.4179109    333.05142  0.017444554  0.016721652           55 
 1592000   0.62430664   -7.3985165     333.5219  0.017458223  0.016708779           34 
 1593000   0.61509086   -7.4116497    333.62207  0.017452504   0.01669589           39 
 1594000   0.62110238   -7.4230717    333.50266  0.017435312  0.016683024           45 
 1595000   0.62870216   -7.4194111    333.98183  0.017449417  0.016670165           75 
 1596000   0.62305371    -7.412526    333.48235  0.017412403  0.016657301           36 
 1597000   0.62650908   -7.4218097    333.64018  0.017409736  0.016644478           36 
 1598000   0.61495063   -7.4137438    333.70482  0.017402212  0.016631671           42 
 1599000   0.60976494    -7.423489    333.26124  0.017368211  0.016618879           36 
 1600000   0.61672231   -7.4095618    334.01702   0.01739672  0.016606099           31 
 1601000   0.61267652   -7.4360711    333.81155  0.017375159  0.016593306           56 
 1602000   0.60535882   -7.4314396    333.21294  0.017333174  0.016580506           56 
 1603000   0.60469781    -7.419967    333.57773  0.017341325  0.016567698           49 
 1604000   0.60810778    -7.416956    333.81426  0.017342802  0.016554911           31 
 1605000   0.61211614   -7.4389808     334.3505  0.017359839  0.016542115           37 
 1606000   0.60953473    -7.420286    333.49647  0.017304715  0.016529325           39 
 1607000   0.60612947   -7.4279475    333.32943  0.017285285  0.016516567           31 
 1608000   0.61899655   -7.4109975    334.15932  0.017317544  0.016503816           51 
 1609000   0.60356338   -7.4372427    333.00743  0.017247122  0.016491067           33 
 1610000   0.61066592    -7.442518    333.31362  0.017252258   0.01647833           43 
 1611000   0.61662716   -7.4396989    333.52851  0.017252665   0.01646558           73 
 1612000   0.61339823   -7.4248113    333.20114  0.017225038  0.016452838           83 
 1613000   0.60467483   -7.4291266    333.01555  0.017204771  0.016440111           94 
 1614000   0.61613299    -7.437495    332.84091  0.017185095  0.016427402           89 
 1615000   0.59049168   -7.4381845     332.8331  0.017174051  0.016414709           86 
 1616000   0.61402639   -7.4299823    333.20834  0.017182773  0.016402033          110 
 1617000    0.6138291     -7.42589    333.48588   0.01718645  0.016389352           59 
 1618000   0.61479938   -7.4269808    333.21126  0.017161684  0.016376686           84 
 1619000   0.61739148   -7.4360539    333.36985  0.017159247  0.016364027           67 
 1620000   0.59533183   -7.4521603     333.9045  0.017176158  0.016351354           85 
 1621000     0.606353   -7.4406303    333.68443  0.017154248  0.016338718           46 
 1622000   0.61389621   -7.4507335    333.22752  0.017120197  0.016326102           57 
 1623000   0.60773527   -7.4309979    334.16056  0.017157556  0.016313503           55 
 1624000   0.61345574   -7.4259265    333.01312  0.017088112  0.016300902           51 
 1625000   0.60619988   -7.4399497    333.85917  0.017120983  0.016288318           35 
 1626000   0.60945869   -7.4454945    333.74255  0.017104477  0.016275747           44 
 1627000   0.60799407   -7.4430124    333.24337  0.017068397   0.01626316           42 
 1628000   0.59819201    -7.450532    333.18526  0.017054938  0.016250561           56 
 1629000   0.60417324   -7.4576722     332.9866  0.017034305  0.016237954           55 
 1630000   0.60600281   -7.4583156    332.77146  0.017012856  0.016225354           55 
 1631000   0.59728237   -7.4552218     333.0919  0.017018797  0.016212785           43 
 1632000   0.59717908   -7.4543472    332.77992  0.016992439  0.016200239           43 
 1633000   0.59583899   -7.4497706    332.29593  0.016957335  0.016187697           59 
 1634000   0.60470211   -7.4420148    333.04323  0.016985069  0.016175165           48 
 1635000   0.59876139   -7.4592832    333.04907  0.016974978  0.016162622           67 
 1636000   0.58983737   -7.4573807    333.39889  0.016982421  0.016150083           64 
 1637000   0.60641449   -7.4477648    332.99198  0.016951333  0.016137558           56 
 1638000   0.60305554   -7.4691725    333.14444   0.01694874   0.01612504           59 
 1639000   0.60852039   -7.4585219    333.35647   0.01694918  0.016112519           67 
 1640000   0.59842238   -7.4821027    332.84245  0.016912726  0.016100021           66 
 1641000   0.58017851   -7.4678934    333.27164  0.016924215  0.016087513           72 
 1642000   0.60455109   -7.4866179    333.58137  0.016929627  0.016075051           36 
 1643000   0.59531713   -7.4817059     332.9193  0.016885742   0.01606258           67 
 1644000   0.59903606   -7.4831197    332.62262  0.016860433  0.016050137           70 
 1645000   0.60005087   -7.4602488    333.51928  0.016895607  0.016037708           44 
 1646000   0.60004769   -7.4758092    332.57963   0.01683777  0.016025284           67 
 1647000    0.6079836   -7.4652174    332.99131  0.016848376  0.016012888           66 
 1648000   0.59653824   -7.4609496    333.20416  0.016848916  0.016000516           64 
 1649000   0.60158014   -7.4747661    333.92328  0.016875039  0.015988141           76 
 1650000   0.59106643   -7.4758797    333.39685  0.016838225  0.015975801           59 
 1651000   0.59850008   -7.4802211    333.54347  0.016835427  0.015963472           39 
 1652000   0.58865755   -7.4632477    332.95609  0.016795606  0.015951143           63 
 1653000   0.59115247   -7.4690059    333.36704  0.016806163  0.015938814           63 
 1654000   0.59058949   -7.4735421     333.4938  0.016802388  0.015926501           79 
 1655000   0.59533346   -7.4807834    333.42983  0.016789014  0.015914185          100 
 1656000   0.58554847   -7.4905004    333.20982  0.016767805  0.015901868           81 
 1657000   0.59369165    -7.466272     332.8821  0.016741204  0.015889537           46 
 1658000   0.60380146   -7.4847106    333.40444   0.01675736  0.015877225           76 
 1659000   0.58573148   -7.4779752    332.99202  0.016726543  0.015864953           45 
 1660000   0.58386644   -7.4996593    332.77708  0.016705677   0.01585267           48 
 1661000   0.59815468    -7.495355     333.4813   0.01673095  0.015840402           42 
 1662000   0.58503937   -7.4765833    332.99924  0.016696713  0.015828144          100 
 1663000   0.58843845   -7.4764989       333.11  0.016692223  0.015815887          101 
 1664000   0.58941815    -7.488538    333.31334  0.016692375  0.015803638          121 
 1665000   0.59486775   -7.4734912    333.38213  0.016685792  0.015791386           54 
 1666000   0.59729672   -7.4900135    333.38458  0.016675899  0.015779149          104 
 1667000   0.58475614    -7.496523    333.14266  0.016653802  0.015766936           69 
 1668000   0.58316642   -7.5021053    333.49849  0.016661595  0.015754726           67 
 1669000    0.5778086   -7.4797199    333.22231  0.016637823  0.015742505           83 
 1670000    0.5801077   -7.4546508    333.32966  0.016633217  0.015730306           80 
 1671000   0.58569861   -7.5085867    333.05744  0.016609687  0.015718104           80 
 1672000    0.5882014   -7.5078038    333.14905  0.016604319  0.015705931           59 
 1673000   0.57300775   -7.4737738    333.47354  0.016610557  0.015693747           53 
 1674000   0.56349145   -7.4852347    332.94283  0.016574215  0.015681596           48 
 1675000   0.57515885   -7.4879257     333.0668  0.016570488  0.015669435           47 
 1676000   0.58377941   -7.4772692    333.17478   0.01656597  0.015657299           40 
 1677000   0.57224537   -7.4854895    333.03146  0.016548969  0.015645152           82 
 1678000    0.5833632   -7.4964048    333.20547  0.016547749  0.015633009           78 
 1679000   0.58872477   -7.4892716    333.06258  0.016530801  0.015620895           91 
 1680000   0.58561633   -7.4774278    333.08095  0.016521873  0.015608777           69 
 1681000    0.5858609   -7.4875988    333.27177  0.016521504  0.015596681           89 
 1682000   0.58066303   -7.4987735    333.27179  0.016511682  0.015584573           99 
 1683000   0.58306322    -7.492426    333.19574  0.016498106  0.015572499           79 
 1684000   0.57984859   -7.5056554    332.73992  0.016465752  0.015560414           77 
 1685000   0.57194244   -7.4959778    333.57852  0.016497454  0.015548352           77 
 1686000   0.56711237   -7.4826834     332.6315  0.016440861  0.015536289          112 
 1687000   0.56927604   -7.4800032    333.19698  0.016459049  0.015524227           90 
 1688000    0.5696548   -7.5138742    333.20776   0.01644983  0.015512147           70 
 1689000   0.59692992   -7.4993013    332.79637  0.016419793  0.015500063           86 
 1690000   0.56886225   -7.5316298     332.9363  0.016416977   0.01548798          133 
 1691000   0.57184078   -7.4998237     332.4211   0.01638188  0.015475885           68 
 1692000   0.58274487   -7.5089986    332.91485  0.016396515  0.015463801          146 
 1693000   0.57858395   -7.5119628      332.168  0.016350069  0.015451716          134 
 1694000   0.57456126    -7.489439    333.22326  0.016392329  0.015439637           96 
 1695000   0.57019748   -7.5110395    332.26993  0.016335788  0.015427556           90 
 1696000   0.56941767     -7.51743    332.55563  0.016340194  0.015415498           56 
 1697000   0.57275954   -7.5177828       332.53  0.016329307  0.015403453           83 
 1698000   0.57247733   -7.5197011    332.60998  0.016323615  0.015391415          108 
 1699000   0.58171683   -7.5193198    331.93265  0.016280785  0.015379357           62 
 1700000   0.56414461   -7.5274967    332.41066   0.01629464  0.015367332           77 
 1701000    0.5831269   -7.5255029    332.98035  0.016312971  0.015355339          115 
 1702000    0.5752392   -7.5212593     332.9388  0.016301351  0.015343338           78 
 1703000   0.56713461   -7.5205193    332.70812  0.016280491  0.015331367           74 
 1704000   0.57043751   -7.5036442    333.04077  0.016287205  0.015319431          110 
 1705000   0.55960665   -7.5264092    332.96213  0.016273809  0.015307476          121 
 1706000   0.56789681   -7.5333692    332.56198  0.016244723  0.015295524          112 
 1707000    0.5726759   -7.5173725     332.5851  0.016236336  0.015283576           96 
 1708000   0.58194615   -7.5262788    333.07049  0.016250512  0.015271654          130 
 1709000   0.58134398   -7.5231867    332.57207  0.016216699  0.015259728          101 
 1710000    0.5874058   -7.5276751     333.1213  0.016233981  0.015247828           67 
 1711000   0.56807726   -7.5244615    332.57062  0.016197673  0.015235948           55 
 1712000   0.56593101   -7.5338326    332.65642  0.016192388   0.01522405           64 
 1713000   0.56225769   -7.5236014    332.74767  0.016187374  0.015212158           36 
 1714000   0.56138866   -7.5378852    332.75596  0.016178334  0.015200312           69 
 1715000   0.56896221   -7.5204793    332.04514  0.016134361  0.015188471          125 
 1716000   0.55861408    -7.541238    332.41759  0.016143046  0.015176628          108 
 1717000   0.55875987    -7.550064    332.97827  0.016160856  0.015164793           86 
 1718000   0.55759294   -7.5212504    332.34197  0.016120585   0.01515297          113 
 1719000   0.57984938   -7.5229318    331.83582   0.01608667  0.015141167           51 
 1720000   0.56971012   -7.5366437    332.67953  0.016118194  0.015129364           92 
 1721000   0.56484729   -7.5074057    332.13122  0.016082278  0.015117584           74 
 1722000   0.56952157   -7.5172556    332.53856  0.016092652  0.015105796           49 
 1723000   0.55625067   -7.5285309    333.01581  0.016106394  0.015094027          104 
 1724000   0.56180547   -7.5239882    333.01445  0.016096986  0.015082279           56 
 1725000   0.56713607   -7.5425909    332.78228  0.016076438  0.015070521           95 
 1726000   0.56591827   -7.5499779    332.23059  0.016040488  0.015058766           61 
 1727000   0.55905151   -7.5332814    332.24432  0.016031863  0.015047017           77 
 1728000   0.56718752   -7.5352601     332.5269  0.016036212  0.015035297           76 
 1729000   0.56225803   -7.5363269    332.47219  0.016024301  0.015023578           74 
 1730000   0.55507328   -7.5377496    333.34004  0.016056842  0.015011863           88 
 1731000    0.5698619   -7.5411432    332.15891  0.015990705  0.015000149           66 
 1732000   0.55674616   -7.5374912    332.83418  0.016013962  0.014988457           83 
 1733000   0.57109931     -7.53044    332.31635  0.015979821   0.01497678           81 
 1734000   0.55846122   -7.5398122    332.77316  0.015992559  0.014965083           72 
 1735000   0.55609718   -7.5501354    332.35011  0.015963021  0.014953414           83 
 1736000   0.56307871    -7.558427    332.56252  0.015964023  0.014941742           70 
 1737000   0.56872747   -7.5341083     332.2478  0.015939733  0.014930086          107 
 1738000   0.55757386   -7.5455927    331.76969  0.015907638   0.01491844           53 
 1739000   0.55247441    -7.541974    332.24839  0.015921429  0.014906803           83 
 1740000   0.56132496   -7.5472626    332.72869  0.015935282  0.014895167           78 
 1741000   0.54300008   -7.5495989    332.30754  0.015905971  0.014883525          100 
 1742000   0.55625014   -7.5569351    331.60319  0.015863145  0.014871888           83 
 1743000   0.55712504   -7.5615886    332.35137  0.015889815  0.014860255          101 
 1744000   0.55114108   -7.5584507    331.67034  0.015848162  0.014848628           73 
 1745000   0.55526506   -7.5657391    332.27882  0.015868138  0.014837023          102 
 1746000   0.56064427   -7.5747656    333.00005  0.015893473  0.014825411           80 
 1747000   0.56364841   -7.5482653    332.58306  0.015864485    0.0148138          122 
 1748000   0.55806076   -7.5508818    332.37854  0.015845659  0.014802205           81 
 1749000   0.55150457   -7.5650874    331.84766  0.015811304  0.014790624           87 
 1750000   0.55022483   -7.5568178    332.66265  0.015841078  0.014779059           82 
 1751000   0.56876055   -7.5481017    332.07322   0.01580398   0.01476751          117 
 1752000   0.55113071   -7.5677838    332.62191  0.015821057  0.014755956           95 
 1753000   0.55280787   -7.5706597      332.348  0.015799011  0.014744402          107 
 1754000   0.54756317   -7.5660879    332.01358  0.015774115  0.014732852          132 
 1755000   0.56116012   -7.5682055    331.83558  0.015756675  0.014721315           99 
 1756000   0.56157363   -7.5648485    331.94984  0.015753125  0.014709781           82 
 1757000   0.55326392   -7.5631265    331.85987  0.015739891  0.014698251           86 
 1758000   0.55805857   -7.5506816    331.94235  0.015734848   0.01468673          159 
 1759000   0.55896658   -7.5723548    331.79534  0.015718938  0.014675221          133 
 1760000   0.54710501   -7.5854233    332.19017  0.015728701   0.01466373          123 
 1761000   0.55280553   -7.5829791    331.73515  0.015698237  0.014652237          129 
 1762000   0.58096393   -7.5462193    331.36465  0.015671805  0.014640743          104 
 1763000   0.56013132      -7.5887    332.46306  0.015714836  0.014629268          110 
 1764000   0.55113163   -7.5482267    331.57948  0.015664186  0.014617796          143 
 1765000   0.54922121   -7.5918036    331.97882  0.015674165  0.014606333           97 
 1766000   0.55178472   -7.5695958    332.23489  0.015677373  0.014594886           82 
 1767000   0.54204119   -7.5638997    332.15882  0.015664913  0.014583444           67 
 1768000   0.54641784   -7.5687934    331.49514  0.015624771  0.014572016           84 
 1769000   0.55521079   -7.5661288    332.00737  0.015640068  0.014560596          123 
 1770000   0.54844013   -7.5731815    331.65186  0.015614494  0.014549181          124 
 1771000    0.5524729   -7.5755352    331.62373  0.015604354  0.014537777          112 
 1772000   0.55665439   -7.5760236    331.21232    0.0155762  0.014526356          134 
 1773000   0.54956833   -7.5783714     331.3913  0.015575827  0.014514962          141 
 1774000   0.55331386   -7.5794462    331.79446  0.015585985   0.01450359          128 
 1775000   0.54817781   -7.5561658    331.88706  0.015581552  0.014492236          120 
 1776000   0.53762203   -7.5795086    331.34163  0.015547186  0.014480882          125 
 1777000   0.54453539   -7.5629888    331.49183  0.015545481  0.014469554          108 
 1778000   0.53825003   -7.5831555    331.35546  0.015530346  0.014458214           95 
 1779000   0.53372798   -7.5741909    331.49858   0.01552832  0.014446905           94 
 1780000   0.54178482   -7.5915108    331.81249  0.015534293  0.014435594          133 
 1781000   0.54064676   -7.5898269    332.20343  0.015543863  0.014424287           97 
 1782000   0.54009139    -7.577134    331.72364  0.015512703  0.014412996          107 
 1783000   0.53999025   -7.5701605    331.55444  0.015496095  0.014401683          142 
 1784000   0.53945422   -7.5943731     331.5142  0.015485529  0.014390398          131 
 1785000   0.54572801   -7.5699239     331.5898  0.015480383  0.014379125          214 
 1786000   0.54640149   -7.5969196    331.44494  0.015464956  0.014367861          158 
 1787000   0.54431888   -7.5696185    331.48186  0.015458024  0.014356607          128 
 1788000    0.5312022   -7.5788413    331.65258  0.015457335  0.014345363          187 
 1789000   0.53786781   -7.5838405    331.74282  0.015452898  0.014334123          109 
 1790000   0.53035444   -7.6015993    331.75822  0.015444982   0.01432289          266 
 1791000   0.52425153   -7.5720276     331.0587  0.015403811  0.014311694          113 
 1792000   0.53665362   -7.5730062    331.35419  0.015408956  0.014300508          109 
 1793000   0.53285633   -7.5835057     331.1594  0.015391309  0.014289321           95 
 1794000   0.53506296   -7.5940732    331.78215  0.015411657  0.014278137          130 
 1795000   0.53375066   -7.6040651    331.53073  0.015391399  0.014266946          268 
 1796000   0.53772541   -7.5924255    330.94074  0.015355454  0.014255769          121 
 1797000   0.53390124   -7.5877791    331.41476  0.015368891  0.014244608           94 
 1798000   0.53253087   -7.5916741    332.14323  0.015394106  0.014233462          126 
 1799000   0.53410535    -7.605375    331.58521    0.0153597  0.014222338          138 
 1800000   0.53705841   -7.5947354    332.23694   0.01538134  0.014211219          255 
 1801000   0.53392436    -7.601617    331.47301  0.015337452  0.014200113          156 
 1802000   0.53238498   -7.5920002    331.81984   0.01534498  0.014189017          127 
 1803000   0.53527491    -7.614114     331.8562  0.015338149  0.014177927          134 
 1804000   0.53391196   -7.6127128    331.28219  0.015303132  0.014166835          190 
 1805000   0.53020425    -7.594741    331.39672  0.015299941  0.014155739          157 
 1806000    0.5347559   -7.6081237    331.38805  0.015291069  0.014144656           97 
 1807000   0.52351384   -7.6058968    330.97843  0.015263717  0.014133583          136 
 1808000   0.51353637    -7.592581    331.46342  0.015277628  0.014122545          130 
 1809000   0.53833295   -7.5974979    331.47744  0.015269829  0.014111492          155 
 1810000   0.52616208   -7.6020073    331.49461  0.015262183  0.014100448          202 
 1811000   0.52842213   -7.5945813    330.69467  0.015216946  0.014089425          170 
 1812000   0.53454835   -7.6062373    331.31865  0.015237245  0.014078406          187 
 1813000   0.53032334   -7.6044622    331.08116  0.015217924  0.014067382          190 
 1814000    0.5339426   -7.6121988     331.6166  0.015234133   0.01405638          252 
 1815000   0.53382004   -7.6218901    330.84187  0.015190169  0.014045369          209 
 1816000   0.52810924    -7.616451    331.30719  0.015203157  0.014034373          144 
 1817000   0.53307688   -7.6192669    330.89796  0.015176021  0.014023387          171 
 1818000    0.5208025   -7.6199098    331.09377  0.015176649  0.014012401          164 
 1819000   0.52961397   -7.6187187    331.80105  0.015200708  0.014001417          144 
 1820000   0.52906809   -7.6093249    331.37224  0.015172722  0.013990454          147 
 1821000    0.5261423   -7.6155554    331.34281  0.015163043    0.0139795          155 
 1822000    0.5267536   -7.6140019    330.89117  0.015134064  0.013968557          147 
 1823000   0.52690553   -7.6290137    331.14364  0.015137303   0.01395763          190 
 1824000   0.53613613   -7.6222716    330.64396  0.015106175  0.013946707          278 
 1825000   0.53783042   -7.6312922    331.33052  0.015129248  0.013935797          181 
 1826000   0.51651866   -7.6022456    331.58412  0.015132536  0.013924904          144 
 1827000   0.52355402   -7.6105539    331.25978  0.015109459  0.013914011          157 
 1828000   0.51869826   -7.6119054    331.05333  0.015091782  0.013903127          144 
 1829000   0.54029859   -7.6234098    331.18975  0.015089746  0.013892244          196 
 1830000   0.50240364   -7.6009937    331.36492  0.015089477  0.013881398          143 
 1831000   0.51946238   -7.6229336    330.48806  0.015041328  0.013870546          157 
 1832000    0.5306391   -7.6094265    331.09444    0.0150607  0.013859718          189 
 1833000   0.52135206   -7.6294065    330.81689  0.015039866  0.013848891          254 
 1834000   0.53193388   -7.6436277    330.93872  0.015037201  0.013838078          136 
 1835000   0.52509154   -7.6364541    331.25934  0.015043567  0.013827276          278 
 1836000   0.51954212   -7.6297147    331.34072  0.015039067  0.013816474          160 
 1837000   0.51078863   -7.6191852    330.92843  0.015012177  0.013805684          151 
 1838000   0.52578603   -7.6259859     331.8084  0.015043906  0.013794913          141 
 1839000   0.52063947   -7.6290506    331.70836  0.015031193  0.013784144          132 
 1840000   0.50598666   -7.6260591    330.77049  0.014980548   0.01377338          158 
 1841000   0.51326551   -7.6436195    331.47083  0.015004112  0.013762619          133 
 1842000   0.51627671    -7.608437    330.52851  0.014953334  0.013751878          142 
 1843000   0.50636812   -7.6193715    331.22826  0.014976861  0.013741134          125 
 1844000   0.51912512   -7.6212775    331.27421  0.014970816  0.013730398          114 
 1845000   0.51744821   -7.6217443    330.59325  0.014931945  0.013719661          154 
 1846000   0.51773506   -7.6179481    330.90497  0.014937928  0.013708935          282 
 1847000   0.51621984    -7.639702    331.06297  0.014936969  0.013698208          110 
 1848000   0.50457647    -7.625496    331.18079  0.014934199  0.013687493          104 
 1849000   0.51106846   -7.6377837    331.48989  0.014940053  0.013676794          124 
 1850000   0.51538455    -7.624991    330.70751  0.014896735  0.013666108          176 
 1851000   0.51759876   -7.6252983    330.73594  0.014889967  0.013655434          196 
 1852000    0.5169272   -7.6252349     331.0449  0.014895829   0.01364477          190 
 1853000   0.51072533   -7.6338413    330.73841  0.014874006  0.013634107          187 
 1854000   0.51932362   -7.6390995    330.94427  0.014875237  0.013623458          261 
 1855000   0.51370559   -7.6379001      330.767  0.014859254  0.013612821          124 
 1856000   0.51990464   -7.6441007    331.01845  0.014862538    0.0136022          252 
 1857000   0.50914536   -7.6366004    330.81611  0.014845455  0.013591577          192 
 1858000   0.51894902   -7.6441869    330.95503  0.014843695  0.013580964          222 
 1859000   0.51492886   -7.6218516    330.29755  0.014806238  0.013570347          104 
 1860000   0.50581559   -7.6177607    330.99202  0.014829391  0.013559746          128 
 1861000   0.51140229   -7.6453926    331.12914  0.014827563  0.013549162          171 
 1862000   0.50773681    -7.637887    330.89509  0.014809125  0.013538575          165 
 1863000   0.51330826   -7.6489872    330.50847  0.014783882  0.013527998          263 
 1864000   0.50603265   -7.6530124    330.97615  0.014796859  0.013517434          178 
 1865000   0.50825936   -7.6164722    330.90029  0.014785536  0.013506869          167 
 1866000   0.51843769   -7.6302864    330.53419  0.014761262  0.013496341          109 
 1867000   0.50303659   -7.6404392    331.08567  0.014777971  0.013485822          115 
 1868000   0.50749114    -7.628536    330.88187  0.014760968  0.013475302          147 
 1869000   0.50922766    -7.631876    330.41731  0.014732357  0.013464794          159 
 1870000   0.50538706    -7.639368    330.73689  0.014738721    0.0134543          183 
 1871000    0.5099599   -7.6676096    331.12142   0.01474797  0.013443819          125 
 1872000   0.49094635   -7.6393365    330.93685  0.014731875   0.01343333          126 
 1873000    0.5151869   -7.6275967    330.83111  0.014719306  0.013422858          142 
 1874000   0.50484068   -7.6237852    330.66885  0.014704236  0.013412405          144 
 1875000   0.49488972   -7.6486935    330.54521  0.014690898  0.013401968          178 
 1876000    0.5067089    -7.635205    330.32084  0.014673101  0.013391543          137 
 1877000    0.5169025   -7.6296323    330.93621  0.014692604  0.013381124          180 
 1878000   0.49640202   -7.6397648     330.1615  0.014650404  0.013370728          291 
 1879000   0.50058143   -7.6430025    331.08567  0.014683594  0.013360331          172 
 1880000   0.50360953   -7.6688585    330.71014  0.014659137  0.013349948          154 
 1881000   0.48978388   -7.6353991    331.27585  0.014676407  0.013339568          148 
 1882000   0.49182723   -7.6620242    331.01711  0.014657152  0.013329189          161 
 1883000   0.50485516   -7.6621882     330.4647   0.01462492   0.01331882          149 
 1884000   0.49465275   -7.6485042    330.60093  0.014623183  0.013308463          141 
 1885000    0.4946452    -7.651116    330.86552  0.014627123  0.013298116          117 
 1886000   0.50380663   -7.6603901    330.29907  0.014594338  0.013287773           99 
 1887000   0.49538642   -7.6502112    330.63696  0.014601526  0.013277426          116 
 1888000   0.49445322   -7.6498603    330.58945  0.014591695  0.013267078           95 
 1889000   0.50356206   -7.6531971    330.73474   0.01459038  0.013256756          114 
 1890000   0.49063756   -7.6598528    330.89493  0.014589724  0.013246444           52 
 1891000    0.5111417   -7.6543327    330.26754   0.01455436  0.013236148          115 
 1892000   0.49511454   -7.6456126    330.85953  0.014572742  0.013225867          288 
 1893000   0.50425604   -7.6579984    330.79789   0.01456233  0.013215588          112 
 1894000   0.49111621   -7.6550615    330.66868  0.014548957  0.013205321          127 
 1895000    0.5062092   -7.6887764    330.53981  0.014535612  0.013195049          156 
 1896000   0.49668689   -7.6692381    330.33517  0.014518951  0.013184792          109 
 1897000   0.50421823   -7.6633623    330.53477  0.014520066  0.013174545          127 
 1898000   0.48206014   -7.6595062    330.03162  0.014490324  0.013164313          102 
 1899000   0.49693673   -7.6697029    330.78392  0.014515707   0.01315408          120 
 1900000   0.50684307   -7.6540558    330.36136  0.014489533  0.013143862          127 
 1901000   0.49795961   -7.6571992    330.66932  0.014495411  0.013133647           92 
 1902000   0.48334891   -7.6555172    330.49416  0.014480116   0.01312344          161 
 1903000   0.48205321   -7.6694482    330.47673  0.014471743  0.013113238          102 
 1904000   0.49105128   -7.6615017    330.62395  0.014470586  0.013103055          105 
 1905000   0.48472491   -7.6614767    330.91533  0.014475736   0.01309287          109 
 1906000   0.49821189   -7.6542655    330.62893   0.01445562  0.013082704          122 
 1907000   0.48624802   -7.6615021    330.31376  0.014434267  0.013072547          123 
 1908000    0.4932853   -7.6714006     330.6078  0.014439544  0.013062402          131 
 1909000   0.49290927   -7.6595955    330.84612  0.014442384  0.013052261           91 
 1910000   0.48843848    -7.652158    330.43426  0.014416852  0.013042137          144 
 1911000   0.49225778   -7.6576192    330.05821   0.01439291  0.013032005          104 
 1912000   0.49508837   -7.6617394    330.19124   0.01439118  0.013021888          102 
 1913000    0.4914705   -7.6733782    330.24676  0.014386076  0.013011777          217 
 1914000   0.49118217   -7.6712091    330.34981  0.014383046  0.013001676          101 
 1915000   0.48356786   -7.6750856    329.68825  0.014346747  0.012991578          237 
 1916000   0.49628641   -7.6679589    330.77291  0.014386435  0.012981511           87 
 1917000   0.48507299    -7.684333    329.92897  0.014342244   0.01297144          136 
 1918000   0.49438591   -7.6595148    330.36959   0.01435391  0.012961387          156 
 1919000   0.49362404   -7.6720337    330.71676  0.014361506  0.012951348          112 
 1920000   0.48662585   -7.6812507    330.23852  0.014333269  0.012941315          127 
 1921000   0.49180021   -7.6866374    330.30298  0.014328604  0.012931289          124 
 1922000   0.47420434   -7.6643856    330.29957  0.014321001  0.012921271          105 
 1923000   0.48783395   -7.6642483    330.08051  0.014304061  0.012911257          111 
 1924000   0.47703964   -7.6751541    330.24355  0.014303688  0.012901265           93 
 1925000   0.47776581   -7.6776803    330.46807  0.014305977  0.012891269          136 
 1926000   0.48544444   -7.6566009    330.30031  0.014291291  0.012881275          176 
 1927000   0.48195119   -7.6655386    330.21681  0.014280263  0.012871301          150 
 1928000   0.48789433   -7.6725523    330.04105   0.01426526  0.012861325           98 
 1929000   0.48026167   -7.6741535    329.96117  0.014254414  0.012851371          116 
 1930000   0.48658625    -7.671491     330.3012   0.01426171  0.012841415          147 
 1931000   0.48699422   -7.6771335    330.33988  0.014255994  0.012831474          125 
 1932000   0.49786204   -7.6750699    329.82804  0.014226537   0.01282154          214 
 1933000   0.48379598   -7.6832534    329.94566  0.014224248   0.01281162          226 
 1934000   0.49777354     -7.68721    330.72482  0.014250466  0.012801706          184 
 1935000   0.47999183   -7.6583365    330.14675  0.014218206  0.012791802          105 
 1936000   0.47488457   -7.6689669    330.59327  0.014230082  0.012781908          139 
 1937000   0.46857937   -7.6946412    330.20552  0.014206054  0.012772015           86 
 1938000   0.47834983    -7.703344    330.08253  0.014193435  0.012762129          156 
 1939000   0.47555009    -7.663033    329.75934  0.014172225  0.012752254          147 
 1940000   0.48438428   -7.6826819    330.36479  0.014190927  0.012742394          226 
 1941000   0.48346352   -7.6924132    329.78683  0.014158802  0.012732535          123 
 1942000     0.470159   -7.6877169    330.10543  0.014165183  0.012722685          186 
 1943000   0.47644845   -7.7015321     330.4519  0.014172753  0.012712835          159 
 1944000    0.4683138   -7.6706579     330.3028  0.014159071  0.012703003          149 
 1945000   0.48099147   -7.6943861    329.99638  0.014138662  0.012693164          116 
 1946000   0.48625564   -7.6859451    330.19984   0.01414011  0.012683351          113 
 1947000   0.47672877   -7.6964007    330.30358  0.014137287  0.012673533          191 
 1948000   0.47885074   -7.6825149    329.52483  0.014096716  0.012663722          188 
 1949000   0.47489075   -7.6707648    330.30535  0.014122856  0.012653927          185 
 1950000   0.47442605   -7.6940697    330.01569  0.014103235  0.012644141          184 
 1951000   0.47572402   -7.7130118    329.83329  0.014088215  0.012634358          156 
 1952000   0.46877645   -7.6912109    330.26019  0.014099222  0.012624579          174 
 1953000    0.4801626   -7.7075345    329.97979  0.014080039  0.012614816          172 
 1954000   0.47855324   -7.6806717     330.0547  0.014076028  0.012605057          150 
 1955000   0.47768069   -7.7069595    330.41363  0.014084127  0.012595308          188 
 1956000    0.4748435   -7.6937744    329.95407  0.014057348   0.01258558          249 
 1957000   0.46715072   -7.7121107    329.52908  0.014032068  0.012575846          266 
 1958000   0.46865743   -7.6910414    329.65818  0.014030396  0.012566121          217 
 1959000    0.4765271   -7.6991787    329.83833  0.014030897  0.012556417          232 
 1960000   0.46522414   -7.7008913    329.38449  0.014004443  0.012546718          224 
 1961000    0.4716387   -7.6920358    329.70222  0.014010803   0.01253703          238 
 1962000   0.46390069   -7.7157273    330.01056  0.014016758  0.012527355          203 
 1963000   0.46801678   -7.6924748    329.82561  0.014001767  0.012517685          252 
 1964000   0.47234609   -7.6850225    329.68167   0.01398853  0.012508017          172 
 1965000   0.47777774   -7.7057674    329.93128  0.013991996   0.01249837          222 
 1966000   0.47781475    -7.713026    330.08894  0.013991562  0.012488726          281 
 1967000    0.4645764   -7.6952042    330.34907   0.01399547  0.012479088          170 
 1968000   0.47010521   -7.6986737    329.75949  0.013963393  0.012469466          125 
 1969000   0.47000842   -7.6907302    329.99924  0.013966448  0.012459839          186 
 1970000   0.46885822   -7.7141857    329.33777  0.013931378  0.012450217          220 
 1971000   0.46434155   -7.6934063    329.64023  0.013937097  0.012440616          151 
 1972000   0.46327373   -7.6940597    329.36474  0.013918388  0.012431013          243 
 1973000   0.46015448     -7.70274    329.40643  0.013913095  0.012421435          181 
 1974000   0.46993636   -7.7135275    329.25203  0.013899528  0.012411859          150 
 1975000   0.45996679    -7.714077    329.94922  0.013921908   0.01240229          238 
 1976000   0.46175744   -7.7330481    329.76903  0.013907263  0.012392731          297 
 1977000   0.46152295   -7.6963864    329.45174  0.013886855  0.012383167          250 
 1978000   0.46093577   -7.7090308    329.89835   0.01389865  0.012373628          165 
 1979000   0.46812894   -7.7027434    329.98615  0.013895324    0.0123641          264 
 1980000   0.47084943   -7.7087849    329.39391   0.01386338  0.012354572          212 
 1981000   0.46055017    -7.708546    329.89308   0.01387738  0.012345053          183 
 1982000   0.46854261   -7.7068868    329.57368  0.013856949  0.012335541          155 
 1983000   0.46247967   -7.7099346    329.34433  0.013840323  0.012326032          275 
 1984000   0.46720459   -7.7042787     329.7407  0.013849996  0.012316537          198 
 1985000   0.46948256   -7.7039845    329.24275  0.013822114  0.012307053          206 
 1986000   0.46470479   -7.7094167     329.7322  0.013835692   0.01229758          183 
 1987000   0.46461313   -7.7226105    329.56609  0.013821762  0.012288113          212 
 1988000   0.46105272   -7.7104853    329.50145    0.0138121  0.012278659          218 
 1989000   0.46559324   -7.7181361    329.94078  0.013823562  0.012269206          128 
 1990000    0.4553378   -7.7057832    329.51532  0.013798799  0.012259757          124 
 1991000   0.46197705   -7.7245394    329.37485  0.013785989  0.012250321          229 
 1992000   0.45267823    -7.719064    329.05751  0.013765793  0.012240898          195 
 1993000   0.46832434   -7.6954511    329.15584  0.013762997  0.012231481          203 
 1994000   0.45478191   -7.7259796    329.51972  0.013771302  0.012222073          153 
 1995000   0.46793423   -7.7265468    329.30041  0.013755239  0.012212669          239 
 1996000   0.46249154   -7.6932187    329.18537  0.013743544  0.012203284          245 
 1997000   0.45238179   -7.7189408    329.27364  0.013740345  0.012193901          230 
 1998000   0.46000636    -7.725517    329.31842  0.013735336  0.012184533          223 
 1999000   0.44801053   -7.7214899    329.61177  0.013740694  0.012175161          276 
 2000000   0.45120665   -7.7179461    329.87191  0.013744663  0.012165804          247 
 2001000   0.45466681   -7.7303957    329.21228  0.013710323  0.012156463          160 
 2002000   0.46688366      -7.7246     329.4852  0.013714835  0.012147122          205 
 2003000   0.44487536   -7.7042286    329.28222  0.013699543  0.012137792          221 
 2004000   0.46041326   -7.7168973    329.01596  0.013681635  0.012128471          127 
 2005000   0.45879997   -7.7210751    330.08366  0.013719188  0.012119163          245 
 2006000    0.4522989    -7.713027    329.38226  0.013683211  0.012109865          221 
 2007000     0.459423   -7.7263763    329.34688  0.013674924  0.012100569          218 
 2008000   0.43806331    -7.718718    329.26358  0.013664657  0.012091283          276 
 2009000    0.4430663   -7.7278685    329.08181  0.013650316  0.012081998          130 
 2010000   0.45215751   -7.7285296     329.2671  0.013651207   0.01207273          144 
 2011000   0.45522149   -7.7196867    329.34737  0.013647744  0.012063477          138 
 2012000   0.45600031    -7.711545    329.66806  0.013654244  0.012054235          133 
Loop time of 4328.4 on 48 procs for 2000000 steps with 4000 atoms

Performance: 79844.795 tau/day, 462.065 timesteps/s
99.4% CPU use with 48 MPI tasks x no OpenMP threads

MPI task timing breakdown:
Section |  min time  |  avg time  |  max time  |%varavg| %total
---------------------------------------------------------------
Pair    | 259.9      | 284.73     | 308.76     |  42.4 |  6.58
Neigh   | 26.948     | 27.649     | 28.235     |   5.4 |  0.64
Comm    | 232.97     | 252.9      | 280.87     |  57.4 |  5.84
Output  | 3.9793     | 3.9812     | 4.0157     |   0.3 |  0.09
Modify  | 3687.6     | 3709.8     | 3728.1     |  15.6 | 85.71
Other   |            | 49.35      |            |       |  1.14

Nlocal:        83.3333 ave          91 max          75 min
Histogram: 1 2 2 10 5 13 5 3 5 2
Nghost:        1806.17 ave        1826 max        1782 min
Histogram: 1 3 1 7 7 11 5 4 6 3
Neighs:        11063.2 ave       12459 max        9976 min
Histogram: 4 2 8 10 5 7 7 1 2 2
FullNghs:      22116.7 ave       24513 max       19222 min
Histogram: 1 0 3 7 8 11 5 9 2 2

Total # of neighbors = 1061603
Ave neighs/atom = 265.40075
Neighbor list builds = 107805
Dangerous builds = 0

#clear
#
#next RN
#
#jump SELF
Total wall time: 1:12:11
