
units lj                  # Use reduced LJ style units
atom_style atomic         # Uncharged point particles
atom_modify map hash      # Needed for indexing of clusters etc
                          # Used to be able to find where atoms are in relation to each other.

lattice fcc 1.0 spacing 1 1 1
Lattice spacing in x,y,z = 1.5874011 1.5874011 1.5874011
region box block 0 10 0 10 0 10 units lattice
create_box 2 box
Created orthogonal box = (0.0000000 0.0000000 0.0000000) to (15.874011 15.874011 15.874011)
  3 by 4 by 4 MPI processor grid
create_atoms 1 box
Created 4000 atoms
  using lattice units in orthogonal box = (0.0000000 0.0000000 0.0000000) to (15.874011 15.874011 15.874011)
  create_atoms CPU = 0.002 seconds
set type 1 type/fraction 2 0.0 78393
Setting atom values ...
  0 settings made for type/fraction
mass 1 1.0
mass 2 1.0
pair_style lj/cut  3.5
pair_modify tail  yes
pair_coeff 1  1  1.0  1.0   # Intearaction between 1 and 1 set with epsilon = 1 and sigma = 1
pair_coeff 1  2  1.5  0.8
pair_coeff 2  2  0.5  0.88

write_data data.0
System init for write_data ...
Neighbor list info ...
  update every 1 steps, delay 10 steps, check yes
  max neighbors/atom: 2000, page size: 100000
  master list distance cutoff = 3.8
  ghost atom cutoff = 3.8
  binsize = 1.9, bins = 9 9 9
  1 neighbor lists, perpetual/occasional/extra = 1 0 0
  (1) pair lj/cut, perpetual
      attributes: half, newton on
      pair build: half/bin/atomonly/newton
      stencil: half/bin/3d
      bin: standard
WARNING: Not all mixed pair coeffs generated from mixing. Use write_data with 'pair ij' option to store all pair coeffs. (../write_data.cpp:312)


#############################
#   M E L T   S Y S T E M   #
#############################

velocity all create 2.4 5833274 mom yes dist gaussian # Assign velocities
                                                    # Temperature 2.4, random number seed, zero linear momentum
                                                                                # Gaussian distribution

timestep 0.002   # simulation timestep
thermo 1000       # output thermodynamic data every 1000 steps bf 100

# Define a fix  in this case with index 1 applied to all
# particles in the simulation. This fix is for simulations
# in the anisotropic NPT ensemble. Note that we use the MTK
# correction.
fix 1 all npt temp 2.4 2.4 0.1 iso 5.68 5.68 0.5 mtk yes tchain 5 pchain 5 # Use NPT ensemble
                                                                         # Set temperature and pressure and damping
                                                                         # Numbers of thermostats in chain and in barostat
run 10000          # run for 10000 steps
Per MPI rank memory allocation (min/avg/max) = 3.642 | 3.644 | 3.648 Mbytes
Step Temp E_pair E_mol TotEng Press Volume 
       0          2.4   -8.3859253            0   -4.7868253   -2.2405722         4000 
    1000    2.3797751   -4.4966384            0  -0.92786813    5.4591985    5168.8144 
    2000    2.3714801   -4.3918768            0  -0.83554595    5.7238627     5204.738 
    3000    2.4155038   -4.4000591            0  -0.77770929    5.4831811    5239.8154 
    4000    2.4300486   -4.3627081            0  -0.71854641     5.727535    5224.6855 
    5000    2.3986817    -4.398764            0  -0.80164104    5.7810425    5189.1635 
    6000    2.3793059   -4.3268548            0   -0.7587882     5.737256    5237.1845 
    7000    2.4825501    -4.351259            0  -0.62836485    5.6210231    5261.2783 
    8000    2.4341285    -4.408343            0  -0.75806308    5.5552192    5220.6542 
    9000    2.3672116   -4.3497654            0  -0.79983571    5.5151842    5257.3999 
   10000    2.4362975   -4.3631699            0  -0.70963725    5.4184838    5274.9632 
Loop time of 2.22824 on 48 procs for 10000 steps with 4000 atoms

Performance: 775501.247 tau/day, 4487.854 timesteps/s
99.4% CPU use with 48 MPI tasks x no OpenMP threads

MPI task timing breakdown:
Section |  min time  |  avg time  |  max time  |%varavg| %total
---------------------------------------------------------------
Pair    | 0.83197    | 0.90586    | 0.97698    |   2.9 | 40.65
Neigh   | 0.16679    | 0.17116    | 0.18541    |   0.8 |  7.68
Comm    | 0.65056    | 0.77498    | 0.88307    |   6.1 | 34.78
Output  | 0.00027266 | 0.00027984 | 0.00049051 |   0.0 |  0.01
Modify  | 0.29155    | 0.36148    | 0.43675    |   7.1 | 16.22
Other   |            | 0.01447    |            |       |  0.65

Nlocal:        83.3333 ave          95 max          75 min
Histogram: 2 2 8 9 7 11 5 2 1 1
Nghost:        1368.17 ave        1406 max        1340 min
Histogram: 1 8 5 11 6 7 6 2 1 1
Neighs:        7209.69 ave        8916 max        6157 min
Histogram: 2 3 8 16 8 7 2 1 0 1

Total # of neighbors = 346065
Ave neighs/atom = 86.516250
Neighbor list builds = 898
Dangerous builds = 176

# Equilibrate just above the melting temperature to avoid step fn in T

fix 1 all npt temp 1.25 1.25 0.1 iso 5.68 5.68 0.5 mtk yes tchain 5 pchain 5
run 2000
Per MPI rank memory allocation (min/avg/max) = 3.642 | 3.644 | 3.648 Mbytes
Step Temp E_pair E_mol TotEng Press Volume 
   10000    2.4362975   -4.3631699            0  -0.70963725    5.4184838    5274.9632 
   11000    1.2558971   -5.8322855            0   -3.9489108    5.4355468    4366.7606 
   12000    1.2386823   -5.8968585            0   -4.0392995    5.6697845    4319.3036 
Loop time of 0.456147 on 48 procs for 2000 steps with 4000 atoms

Performance: 757650.946 tau/day, 4384.554 timesteps/s
99.7% CPU use with 48 MPI tasks x no OpenMP threads

MPI task timing breakdown:
Section |  min time  |  avg time  |  max time  |%varavg| %total
---------------------------------------------------------------
Pair    | 0.19843    | 0.20858    | 0.2366     |   1.8 | 45.73
Neigh   | 0.030986   | 0.032232   | 0.03691    |   0.5 |  7.07
Comm    | 0.1341     | 0.16111    | 0.17935    |   2.6 | 35.32
Output  | 5.0523e-05 | 5.1631e-05 | 6.4322e-05 |   0.0 |  0.01
Modify  | 0.040277   | 0.049849   | 0.061472   |   2.6 | 10.93
Other   |            | 0.004331   |            |       |  0.95

Nlocal:        83.3333 ave          90 max          77 min
Histogram: 5 3 4 7 4 7 7 4 3 4
Nghost:        1560.35 ave        1575 max        1541 min
Histogram: 1 1 3 6 4 11 8 9 3 2
Neighs:        8833.60 ave        9671 max        7969 min
Histogram: 3 3 2 6 7 10 7 7 1 2

Total # of neighbors = 424013
Ave neighs/atom = 106.00325
Neighbor list builds = 144
Dangerous builds = 12

#############################
# L I N E A R  Q U E N C H  #
#############################

# Define solid atoms. This closely follows ten Wolde  Ruiz-Montero and Frenkel  Faraday Discuss  1996  104  93-110
# Compute components of the per-atom q6 vector
compute q6 all orientorder/atom degrees 1 6 components 6 nnn NULL cutoff 1.3 # compute the Q6 parameter.
                                                                             # Use all neighbours within 1.3 unit cell.

# get number of connections
compute coord_number all coord/atom orientorder q6 0.5

# An atom is solid if it has 8 or more connections (of a possible 14)
variable is_solid atom c_coord_number>=8
group solid dynamic all var is_solid    # Must be dynamic to update
dynamic group solid defined

# do clustering
compute cluster solid cluster/atom 1.3 # Create a cluster where all atoms within are solid and max 1.3 units from another member

# define chunks one chunk per cluster
compute clus_chunks solid chunk/atom c_cluster nchunk every compress yes  # Says which atoms are in which chunk

# count the size of each chunk
compute size_chunks solid property/chunk clus_chunks count


# Find the maximum entry in the vector of chunk sizes
variable max_n equal max(c_size_chunks)


# Thermo style which includes this variable
# thermo_style custom step temp pe vol v_max_n

thermo ${N}  # Print the thermo information every 100 steps
thermo 1000  

# Reset the npt fix at a lower temperature (below freezing)
fix 1  all npt temp  ${temp} ${temp}  0.1  iso  5.68  5.68  0.5  mtk yes tchain  5  pchain  5
fix 1  all npt temp  0.45 ${temp}  0.1  iso  5.68  5.68  0.5  mtk yes tchain  5  pchain  5
fix 1  all npt temp  0.45 0.45  0.1  iso  5.68  5.68  0.5  mtk yes tchain  5  pchain  5

dump dmp2 all dcd ${N} traj.dcd
dump dmp2 all dcd 1000 traj.dcd


compute msd all msd com yes
variable twopoint equal c_msd[4]/6/(step*dt+1.0e-6)
fix 9 all vector 10 c_msd[4]
variable fit equal slope(f_9)/6/(10*dt)
thermo_style custom step temp pe c_msd[4] v_twopoint v_fit v_max_n

fix 1 all npt temp 1.25 ${temp} 0.1 iso 5.68 5.68 0.5 mtk yes tchain 5 pchain 5
fix 1 all npt temp 1.25 0.45 0.1 iso 5.68 5.68 0.5 mtk yes tchain 5 pchain 5
run 2000000 # 5000000  # Run for this many steps
Neighbor list info ...
  update every 1 steps, delay 10 steps, check yes
  max neighbors/atom: 2000, page size: 100000
  master list distance cutoff = 3.8
  ghost atom cutoff = 3.8
  binsize = 1.9, bins = 9 9 9
  4 neighbor lists, perpetual/occasional/extra = 1 3 0
  (1) pair lj/cut, perpetual
      attributes: half, newton on
      pair build: half/bin/atomonly/newton
      stencil: half/bin/3d
      bin: standard
  (2) compute orientorder/atom, occasional
      attributes: full, newton on
      pair build: full/bin/atomonly
      stencil: full/bin/3d
      bin: standard
  (3) compute coord/atom, occasional
      attributes: full, newton on
      pair build: full/bin/atomonly
      stencil: full/bin/3d
      bin: standard
  (4) compute cluster/atom, occasional
      attributes: full, newton on
      pair build: full/bin/atomonly
      stencil: full/bin/3d
      bin: standard
Per MPI rank memory allocation (min/avg/max) = 9.729 | 9.732 | 9.736 Mbytes
Step Temp PotEng c_msd[4] v_twopoint v_fit v_max_n 
   12000    1.2386823   -5.8968585 8.4092572e-31 5.8397617e-33 8.3333333e+20            5 
   13000    1.2633467   -5.8338794   0.56115814 0.0035971674  0.045505547            3 
   14000    1.2478171   -5.8511975      1.12695 0.0067080355  0.046384339            4 
   15000    1.2431045   -5.8215186    1.7295782 0.0096087676  0.047888593            3 
   16000    1.2697988   -5.8541442    2.3358559  0.012165916  0.048480029            4 
   17000    1.2320541   -5.8131978    2.9002661   0.01421699  0.048740832            7 
   18000    1.2322825    -5.836587    3.4362781  0.015908694   0.04824245            4 
   19000    1.2657267   -5.8121194    3.9746221  0.017432553  0.047784341            2 
   20000    1.2378966   -5.8466519    4.5332824  0.018888676  0.047463758            4 
   21000    1.2322146   -5.8031976    5.0021427  0.019849772  0.047039079            3 
   22000    1.2463816    -5.859018    5.5755645  0.021119562  0.046450557            2 
   23000    1.2365615   -5.8416803    6.0501602   0.02192087  0.046110951            3 
   24000    1.2302163   -5.8599603    6.5799601  0.022847083  0.045744554            2 
   25000    1.2572806   -5.8436641    7.1227955  0.023742651  0.045547746            4 
   26000    1.2459894   -5.7969603    7.7387086  0.024803553  0.045458277            4 
   27000    1.2580925   -5.8346762    8.2120041  0.025345691  0.045381806            3 
   28000    1.2228688   -5.8527791    8.8681302  0.026393244  0.045430524            2 
   29000    1.2450508   -5.8445124    9.3581013  0.026891095  0.045473844            3 
   30000    1.2635924    -5.831333    9.9777023  0.027715839  0.045555281            4 
   31000    1.2381043   -5.8620849     10.45691  0.028109974  0.045591801            3 
   32000    1.2404479   -5.8824251    10.950416  0.028516708  0.045506267            2 
   33000    1.2596744   -5.8435194    11.371683  0.028716372  0.045394343            3 
   34000    1.2459424   -5.8787213    11.735361  0.028763139   0.04515758            3 
   35000    1.2299211   -5.8717317    12.356343  0.029419865  0.044887076            4 
   36000    1.2362175   -5.8674023     12.81705  0.029669097  0.044718505            3 
   37000     1.259694   -5.8684402    13.405833  0.030193317  0.044583028            5 
   38000    1.2256523   -5.8607783    14.060482  0.030834391  0.044489614            6 
   39000    1.2212415    -5.858982    14.608841  0.031215471  0.044489062            4 
   40000    1.2419465   -5.8402623    15.223782  0.031716213  0.044514343            2 
   41000    1.2342939   -5.8338211    15.860131  0.032236038  0.044586534            2 
   42000    1.2296865   -5.8194266    16.451485  0.032641834  0.044678481            2 
   43000    1.2327907   -5.8571604    17.011448  0.032967922  0.044779468            5 
   44000    1.2499356   -5.8910262    17.433545  0.033018077  0.044845876            6 
   45000    1.2541084   -5.8234734    18.035839  0.033399701  0.044895966            3 
   46000    1.2165672   -5.8759447    18.549179  0.033603586  0.044954633            2 
   47000     1.212195   -5.8745866    19.142206  0.033940082  0.045008165            3 
   48000     1.211326   -5.8961525    19.754809  0.034296544  0.045053506            3 
   49000    1.2435524   -5.8725688    20.096074  0.034176997   0.04506164            3 
   50000     1.235952   -5.8632285     20.61246    0.0343541  0.045037535            2 
   51000    1.2352921   -5.8659266    21.189433  0.034623256  0.045017015            5 
   52000    1.2414921   -5.8966997    21.632228  0.034667031  0.045003855            7 
   53000    1.2765542   -5.8624792    22.189326  0.034888877  0.044995043            3 
   54000    1.2541504   -5.8796981     22.70372  0.035036605  0.044970222            2 
   55000    1.2394836   -5.8614691    23.296812    0.0352982  0.044948813            4 
   56000    1.2512847   -5.8724654    23.819595  0.035445825  0.044946629            3 
   57000    1.2343427   -5.8905932     24.45124  0.035747427   0.04495156            3 
   58000    1.2254845   -5.8492116    24.866669  0.035727973  0.044947398            3 
   59000    1.2107741   -5.8392186    25.282903  0.035710315  0.044927238            2 
   60000    1.2567786   -5.9052296     25.66483  0.035645597  0.044884735            2 
   61000    1.2269184   -5.8936056    26.178218  0.035762592  0.044811007            5 
   62000    1.1993905   -5.8752348    26.692364  0.035876834  0.044751539            5 
   63000     1.216988   -5.9010011    27.220555  0.036006025  0.044699959            3 
   64000    1.2450564   -5.8838695     27.80877  0.036209335  0.044639758            4 
   65000    1.2497682   -5.8796432    28.265716  0.036238097  0.044573697            3 
   66000    1.2335632   -5.8586368    28.778032  0.036335898  0.044517327            5 
   67000    1.2422758   -5.8364181    29.325947  0.036475059  0.044473174            3 
   68000    1.2419777   -5.8712688    30.046278  0.036821419  0.044443278            2 
   69000    1.2076377   -5.8915405    30.279206  0.036569089  0.044417063            2 
   70000     1.246068   -5.8728144    30.828472  0.036700561  0.044381537            8 
   71000     1.247021   -5.8819996    31.347085  0.036792353  0.044362145            4 
   72000    1.2390738   -5.8849605    32.110945  0.037165445  0.044347846            4 
   73000    1.1977597   -5.8676105    32.593296  0.037206958  0.044329233            4 
   74000    1.2366667   -5.8933349     33.13032  0.037308919  0.044321144            3 
   75000    1.1979735   -5.8789433    33.745355  0.037494839  0.044307271            5 
   76000    1.2116945   -5.8920583    34.059595  0.037346047  0.044288376            4 
   77000    1.2257457   -5.8901684    34.521608  0.037361047  0.044257448            4 
   78000    1.2441469   -5.8846582    34.890162  0.037275814  0.044220267            7 
   79000    1.2256699   -5.8797499    35.358681  0.037298187  0.044178165            4 
   80000    1.2182745   -5.8483891    36.130386  0.037635818  0.044134039            2 
   81000    1.1862755   -5.8798364     36.48125   0.03753215  0.044096167            2 
   82000    1.2243298   -5.8264964    37.074451  0.037677287  0.044055296            3 
   83000    1.2343479   -5.9118134    37.392838   0.03754301  0.044019732            1 
   84000    1.2207023   -5.8604341    37.818353  0.037518207  0.043970625            5 
   85000    1.2241649    -5.897866    38.209677  0.037460467   0.04391392            2 
   86000    1.2399663   -5.8794997    38.562968  0.037367217  0.043850601            4 
   87000    1.2054383   -5.8860195    39.219939  0.037566992  0.043777601            3 
   88000    1.2174087   -5.8761574    39.542059  0.037445131  0.043713929            2 
   89000      1.19795   -5.8755183     40.11165  0.037557724  0.043652556            5 
   90000    1.2416281   -5.8679883    40.585569   0.03757923  0.043592028            2 
   91000    1.2089374   -5.9101964     41.14262  0.037676392  0.043536736            4 
   92000    1.2379413    -5.929288    41.326673  0.037433581  0.043476437            3 
   93000    1.1938249   -5.9253091    41.671929  0.037340438   0.04340303            4 
   94000    1.1962309   -5.8877113    42.289323  0.037490535  0.043328759            2 
   95000     1.219153   -5.8723927    43.058933  0.037770993  0.043269655            3 
   96000    1.2017394   -5.9091803    43.210724  0.037509309  0.043203896           17 
   97000    1.2436872   -5.8564944    43.863908   0.03768377  0.043143884            5 
   98000    1.2082754   -5.8949759    44.434592  0.037784517  0.043093186            7 
   99000    1.2319989   -5.8683975    45.042528  0.037914585   0.04304844            4 
  100000    1.2253155   -5.8999396    45.572519  0.037977099  0.043017382           10 
  101000    1.2099407   -5.8755153    46.032569  0.037980667   0.04298122            4 
  102000    1.2215745   -5.9217622    46.595486  0.038068207   0.04295108            3 
  103000    1.2234237   -5.8682308    47.265134  0.038240399  0.042929766            3 
  104000    1.1957958   -5.8812678      47.8603  0.038349599  0.042918082            3 
  105000    1.2115242   -5.9415055    48.301523  0.038334542  0.042909876            5 
  106000    1.2191498   -5.8997508    48.837298  0.038394102  0.042893047            2 
  107000     1.202597   -5.9309169    49.427259   0.03849475  0.042881986            3 
  108000    1.2003984   -5.8938215    50.154293    0.0386993  0.042878713            6 
  109000    1.2233665   -5.8887278    50.737838  0.038790396   0.04287995            4 
  110000    1.2202645   -5.8915926    51.271983  0.038842412  0.042885077            5 
  111000     1.232293   -5.9044067    52.192919  0.039183873  0.042900225            5 
  112000    1.2072291   -5.8900347    52.754211  0.039251645  0.042925864            4 
  113000    1.2101452   -5.8822704    53.413839  0.039390737  0.042955777            6 
  114000     1.185757   -5.8650157    53.782167   0.03931445  0.042979606            2 
  115000    1.1855645   -5.8963609    54.308772  0.039354182  0.043002315            3 
  116000    1.2035732   -5.9390271    54.888746   0.03943157  0.043022346            6 
  117000    1.2272461   -5.8927333    55.560481  0.039572992  0.043050179            4 
  118000    1.2200606    -5.914612    56.007683  0.039553448  0.043082721            3 
  119000    1.2054828   -5.9008431    56.678856  0.039691075  0.043113208            4 
  120000      1.22559   -5.9066186     56.93905  0.039541007  0.043135847            2 
  121000    1.2122687   -5.9179985    57.545715  0.039632035  0.043159211            4 
  122000    1.1857132   -5.8937761    57.972696  0.039598836  0.043177872            5 
  123000    1.2076145   -5.9117488    58.750711  0.039804004  0.043195686            4 
  124000    1.1929904   -5.9333463    59.298236  0.039850965  0.043224013            2 
  125000    1.1929039   -5.8830661    59.566308  0.039710872  0.043245946            4 
  126000    1.2189027   -5.9331571    60.077133  0.039733553  0.043261123            4 
  127000    1.2068106   -5.9301578    60.826499  0.039912401  0.043272811            6 
  128000    1.2156126   -5.9293636    61.158278  0.039816587  0.043283495            5 
  129000    1.1934654   -5.8886436    61.565385  0.039770921  0.043301256            2 
  130000    1.1973465    -5.924464    62.570474  0.040109278   0.04332045            4 
  131000    1.1915412   -5.9088022     62.95281  0.040046317  0.043340943            3 
  132000    1.2013711   -5.9115425    63.308319  0.039967373  0.043357847            4 
  133000    1.1614091   -5.8850945    64.012625  0.040108161  0.043375616            6 
  134000    1.1890133   -5.9329967    64.194139  0.039921728  0.043388918            3 
  135000    1.2233333   -5.8591766    64.707746  0.039943053  0.043393871            4 
  136000    1.2067789   -5.9294015    64.933783  0.039787857  0.043397416            2 
  137000    1.2033638   -5.9079743     65.38881  0.039774215  0.043397708            2 
  138000    1.2123789    -5.963917    65.966188  0.039834655  0.043397727            6 
  139000    1.2006154   -5.9278977     66.42025  0.039820294  0.043395821            3 
  140000    1.1979469   -5.9268397    67.132925  0.039960074  0.043394862            3 
  141000    1.1889749   -5.9074395    67.612495  0.039960103  0.043395988            7 
  142000    1.2123664   -5.9343088    68.086605  0.039956927   0.04339346            2 
  143000    1.2108918    -5.964276    68.571219  0.039959918   0.04338772            2 
  144000    1.1958058   -5.9069745    69.073127  0.039972874  0.043383375            2 
  145000    1.1998773   -5.9509131    69.105751  0.039715949  0.043373709            4 
  146000    1.1733811   -5.9338498    69.347956  0.039582167  0.043355727            2 
  147000    1.1859139   -5.9154937    69.980555  0.039671516  0.043333777            2 
  148000    1.2199843   -5.9590488    70.115182  0.039479269  0.043307445            5 
  149000    1.1983604   -5.9100766    70.512925  0.039436759  0.043280457            5 
  150000    1.2012022   -5.9132188    71.078362  0.039487979  0.043252891            5 
  151000      1.16581   -5.9441451    71.860282  0.039657992  0.043224936            4 
  152000    1.2157088   -5.9546629    72.176844  0.039570638  0.043198068            2 
  153000    1.1771193   -5.9145357     72.86002  0.039684107  0.043170349            4 
  154000    1.1652128   -5.9762703    73.128403  0.039571647  0.043143397            2 
  155000    1.1859235   -5.9692779    73.772598  0.039662687  0.043116894            3 
  156000    1.2130915   -5.9240348    73.918539  0.039486399  0.043091696            4 
  157000    1.2079485   -5.9162909    74.826772   0.03971697  0.043070366            4 
  158000    1.1806715   -5.9078099    75.075481  0.039596773  0.043048965            2 
  159000     1.177484   -5.9537204    75.437022  0.039537223  0.043026641            3 
  160000    1.1716317   -5.9450869    76.245795  0.039711352  0.043003653            3 
  161000    1.2133462   -5.9389113    76.319527   0.03950286  0.042978274            5 
  162000    1.1673579    -5.939601    76.756606  0.039483851   0.04295133            4 
  163000    1.1893706   -5.9191147    77.413011  0.039577204  0.042925164            5 
  164000    1.1790438   -5.9917293    77.761645  0.039513031    0.0428978            4 
  165000    1.1870628    -5.942983    78.558256  0.039675887  0.042871828            2 
  166000    1.1905452   -5.8944952    78.829027  0.039572804  0.042847652            5 
  167000    1.1912028   -5.9090545    79.105557  0.039473831  0.042821742            3 
  168000    1.1860459   -5.9036726    79.766722  0.039566826  0.042797616            3 
  169000    1.1824074   -5.9507759    79.972796  0.039434318  0.042772627            4 
  170000    1.1707624   -5.9315786    80.972998  0.039692646  0.042745926            6 
  171000    1.2222929   -5.9692143    81.182994  0.039562863  0.042722061            3 
  172000    1.1975647   -5.9200443     81.86449  0.039663028  0.042703553            3 
  173000    1.2057009   -5.9381694    82.434764   0.03970846  0.042684429            2 
  174000    1.1985277   -5.9671716    82.818741  0.039664148  0.042665298            5 
  175000    1.1701834    -5.938561    83.432264  0.039729649  0.042649277            6 
  176000    1.2089157   -5.9285463    83.987545   0.03976683  0.042631456            3 
  177000    1.1801513   -5.9567825    84.106308  0.039598073  0.042613047            4 
  178000    1.1398544   -5.9581935    84.518607  0.039568636  0.042592485            5 
  179000    1.1989578   -5.9670319    85.264853  0.039694997  0.042571531            8 
  180000    1.2001397   -5.9344079     85.56381  0.039612875  0.042549865            3 
  181000    1.2080231   -5.9520751    86.003675  0.039596535  0.042524949            7 
  182000    1.1635506   -5.9644467    86.211105  0.039473949  0.042501381            5 
  183000    1.1918894   -5.9437008    87.103941  0.039664818  0.042479434            3 
  184000    1.2047783   -5.9639031     87.27935  0.039528691  0.042457169            4 
  185000    1.1620852   -5.9954694    87.825068  0.039560842  0.042434522            5 
  186000    1.1763276   -5.9545598    88.210665  0.039520907  0.042414359            4 
  187000     1.193724   -5.9725674    88.658556   0.03950916  0.042393808            5 
  188000    1.1965067   -5.9923873      88.9576   0.03943156  0.042371249            2 
  189000    1.1652727   -5.9171483    89.883044  0.039630972  0.042348508            7 
  190000    1.1830094   -5.9534796    90.157458  0.039542744  0.042327236            4 
  191000    1.1854692   -5.9651056    90.652203  0.039551572  0.042306258            3 
  192000     1.191086    -5.969407    91.175763  0.039572814   0.04228251            5 
  193000    1.1883401   -5.9815416    91.552198   0.03953031  0.042260251            3 
  194000    1.1697198   -5.9257909    92.075222  0.039551212     0.042237            7 
  195000    1.1834445   -5.9449589    92.453911  0.039510218  0.042215515            3 
  196000    1.1762124   -5.9615226     93.15581  0.039607062  0.042196478            4 
  197000    1.1960137   -5.9611594    93.733726  0.039650476  0.042174997            5 
  198000    1.1838307   -5.9828966    93.910827  0.039524759  0.042154436            3 
  199000    1.1953259   -5.9417743    93.857923  0.039303988  0.042130601            5 
  200000    1.1483132   -5.9609696     94.33219  0.039305079  0.042104793            6 
  201000    1.1729454   -5.9614044    94.769135  0.039290686  0.042078133            4 
  202000    1.1628218   -5.9925603    95.529298  0.039409776  0.042053501            3 
  203000    1.2052668   -5.9582962    96.020434  0.039417255  0.042031507            4 
  204000    1.1925544   -5.9753952     96.54504  0.039438333  0.042009826            3 
  205000    1.1723982   -5.9713263    97.162681  0.039497025  0.041987469            4 
  206000    1.1666383   -5.9494988    97.352741  0.039382177  0.041965433            4 
  207000     1.183853   -5.9642859    97.927797  0.039423429  0.041941495            5 
  208000    1.1682316   -5.9599111    98.079763  0.039294777  0.041917635            4 
  209000    1.1453209   -5.9397581    98.721926  0.039362809  0.041892052            4 
  210000    1.1395521    -5.979718    98.680903  0.039159089  0.041866029            5 
  211000    1.1730136   -5.9838425    99.397973  0.039256703  0.041840409           14 
  212000    1.1464811   -5.9557689    99.923212  0.039277992  0.041814802            3 
  213000    1.1773983   -5.9640234    100.63639  0.039372611  0.041791195            2 
  214000    1.1767064   -5.9552575     101.3608  0.039470717  0.041768954            4 
  215000    1.1802063   -5.9778051     101.2119  0.039229419  0.041746651            2 
  216000    1.1841076   -5.9835257    101.69784  0.039235279  0.041724676            4 
  217000    1.1817882   -5.9601173    102.04965  0.039189575   0.04170024           14 
  218000    1.1555482   -5.9771242    102.43366  0.039156598  0.041676819            3 
  219000    1.1335226   -5.9823977    102.84599  0.039134698  0.041654504            4 
  220000    1.1801555   -5.9598319      103.679   0.03927235  0.041633892            5 
  221000    1.1566107   -5.9480374     104.0645  0.039240006  0.041612863            6 
  222000    1.1861702   -5.9819213    104.63499  0.039277397  0.041591057            4 
  223000    1.1678508   -5.9913222    104.99833  0.039237045  0.041569076            8 
  224000    1.1703489    -5.991424    105.94529  0.039414172  0.041549745            6 
  225000    1.1454727   -5.9881354    106.06702  0.039284083  0.041529837            3 
  226000    1.1507535   -5.9967072    106.48183  0.039263211  0.041509636            3 
  227000    1.1592736   -5.9553466     107.0448  0.039296915  0.041488309            2 
  228000    1.1897269   -5.9935737    107.15298    0.0391641  0.041466975            2 
  229000    1.1818012   -5.9416715    108.30003  0.039410491  0.041448414            7 
  230000     1.147466   -6.0113769    108.25966  0.039224515  0.041428879            4 
  231000    1.1753912    -5.976266     109.2452  0.039410246   0.04141243            4 
  232000    1.1497646   -5.9746805    109.99037  0.039508035  0.041398512            3 
  233000    1.1882683   -5.9954973    110.32315  0.039457492  0.041385546            5 
  234000     1.158323   -6.0221899    110.70814  0.039425974  0.041371507            3 
  235000     1.160884   -5.9909899    111.17349  0.039423225  0.041359232            2 
  236000     1.141446   -5.9668855    111.98376  0.039542288  0.041347552            9 
  237000    1.1502718   -5.9989485    112.30707  0.039489124  0.041337118            4 
  238000    1.1472803   -6.0062874    112.90285   0.03953181  0.041326502            5 
  239000    1.1658248   -5.9833247    113.32133  0.039512318  0.041316198            5 
  240000    1.1849011   -5.9829139    113.60955  0.039447761  0.041304676            4 
  241000    1.1443694   -5.9997712    114.28769  0.039518564  0.041293794            3 
  242000    1.1512481   -5.9786442     114.8763  0.039557955  0.041283052            8 
  243000    1.1510633   -5.9863059    115.56363  0.039630873  0.041272449            2 
  244000    1.1591077    -5.998772    115.74965  0.039531986  0.041262759            7 
  245000     1.179137   -6.0277028    116.30625  0.039559948  0.041251672            7 
  246000    1.1515943   -5.9698014    117.00883  0.039637136  0.041241271            8 
  247000     1.152338   -6.0277579    116.99154  0.039470831  0.041231583            9 
  248000    1.1646434   -5.9850263     117.7835   0.03957779  0.041220786            3 
  249000    1.1726884   -5.9873625    118.06786  0.039514009  0.041212073            3 
  250000    1.1490599   -6.0062921    118.73542  0.039578473  0.041202757            4 
  251000    1.1479325   -6.0024771    119.10934  0.039544934  0.041191777            3 
  252000    1.1380155   -6.0358397    119.34742  0.039466739  0.041179464            4 
  253000    1.1446097   -5.9980459      119.643  0.039408103  0.041166973            6 
  254000    1.1425929   -5.9940218    119.82702  0.039313328  0.041154017            5 
  255000    1.1406599   -5.9930593    120.94274   0.03952377  0.041140422            5 
  256000    1.1689646   -5.9825844    120.97155  0.039378761  0.041127779            4 
  257000    1.1346622    -6.044387    121.56411  0.039417674  0.041115988           13 
  258000    1.1355028    -6.002953    122.05487  0.039423406  0.041102321            5 
  259000     1.127844   -5.9993817    122.20824   0.03932054  0.041089229            3 
  260000    1.1376588   -6.0075642    122.63709  0.039306759   0.04107613            6 
  261000    1.1532868   -6.0076507    123.02611  0.039280367  0.041063405            4 
  262000    1.1450244   -6.0230341    123.73297  0.039355272  0.041050073            7 
  263000    1.1526942   -6.0126289    123.54936  0.039147453  0.041035224           11 
  264000    1.1466234   -5.9579533    124.64416  0.039344747   0.04101962            3 
  265000    1.1446919   -5.9915208    125.20084  0.039371334  0.041004993            3 
  266000    1.1504002   -6.0084564    124.83136  0.039107569  0.040988785            3 
  267000    1.1521424   -6.0453816    125.23633  0.039087494  0.040972312            3 
  268000    1.1578777   -6.0384741    125.75008  0.039101392  0.040956337            3 
  269000    1.1459336   -5.9938003    126.82025  0.039287562  0.040941064            3 
  270000    1.1400028   -6.0113651     127.3598  0.039308579   0.04092698            3 
  271000    1.1466562    -6.025291    127.76811  0.039289088  0.040913582            5 
  272000    1.1454772   -6.0122572    128.53906  0.039380838  0.040900817            2 
  273000    1.1412282   -6.0412595    129.12439   0.03941526  0.040888578            9 
  274000    1.1477566     -6.01344      129.334  0.039335157   0.04087503            5 
  275000    1.1583314   -5.9878328    129.61848  0.039278327  0.040862179            6 
  276000    1.1306165   -6.0459054    129.96454  0.039240501  0.040848224            3 
  277000    1.1673458   -6.0348525    130.22489  0.039177162  0.040833158            7 
  278000     1.133322    -6.027326    130.50229  0.039119392  0.040817303            8 
  279000    1.1362775   -6.0037893    131.02905  0.039136515  0.040800867           11 
  280000    1.1533893   -5.9878878    130.89349  0.038956397  0.040782776            2 
  281000    1.1349375   -6.0229858    131.39442  0.038966317  0.040763811            3 
  282000    1.1364308    -5.969141    131.86099  0.038966012  0.040745554           10 
  283000    1.1536306   -6.0320212    132.32951  0.038966286  0.040728613            6 
  284000    1.1617718   -6.0018335    132.80397  0.038968302  0.040710442            2 
  285000    1.1559609   -6.0582637    132.68076  0.038795542  0.040691054            5 
  286000     1.159182   -6.0337988    133.60686  0.038929737  0.040671921            4 
  287000    1.1558489   -5.9846063    134.27752  0.038988826  0.040653567            6 
  288000    1.1589106   -6.0333009     134.7548  0.038991552  0.040635286            2 
  289000    1.1415647   -6.0280585    135.07933  0.038950211  0.040617378            5 
  290000    1.1448262   -6.0315196    135.16289   0.03883991  0.040599288            5 
  291000    1.1449336    -6.009022    135.40939  0.038777032  0.040579582            6 
  292000    1.1525752   -6.0204872    135.68434    0.0387227  0.040559046            5 
  293000    1.1199865   -6.0233588    136.56707  0.038841602  0.040538261            4 
  294000    1.1490474   -6.0007177    136.33908  0.038644865  0.040517317            4 
  295000    1.1459649   -6.0287011    137.06954  0.038720208  0.040496543            3 
  296000    1.1565284   -6.0346902    137.69683  0.038766001   0.04047596            4 
  297000     1.130756   -6.0354433    138.21477  0.038780801  0.040455602            6 
  298000    1.1059671   -6.0356842    138.66561  0.038776737  0.040436601            4 
  299000     1.120177   -6.0603398     138.5753  0.038621879  0.040417307            4 
  300000    1.1570094   -6.0395288    139.16903  0.038658063  0.040397216            2 
  301000    1.1381854   -6.0608426    139.33865  0.038576593  0.040375321            3 
  302000    1.1231164   -6.0598361    139.59314  0.038519078  0.040353445            5 
  303000    1.1301437   -6.0643515    139.60704  0.038395777  0.040331633            5 
  304000    1.1145169   -6.0449243    141.20633  0.038707875  0.040310689            3 
  305000    1.1405105   -6.0394801    141.54712  0.038674077  0.040289701            6 
  306000    1.1638935   -6.0652175    141.39222  0.038505506  0.040268801            4 
  307000    1.1302404   -6.0390089    142.12613  0.038579296  0.040248186           12 
  308000    1.1309643   -6.0530749    142.04327  0.038431621  0.040226609            5 
  309000    1.1269639   -6.0458042    142.75762  0.038499898  0.040206353            5 
  310000    1.1425392   -6.0368019    143.18322  0.038490113   0.04018607            2 
  311000    1.1165191   -6.0624108    143.87445  0.038551568  0.040165847            3 
  312000    1.1392919   -6.0570357    144.29314  0.038539836  0.040144947            5 
  313000    1.1168617   -6.0344875    143.94984  0.038325305  0.040123097            5 
  314000    1.1105611   -6.0420199    144.29852  0.038295785  0.040101113            5 
  315000    1.1395847   -6.0839939    144.72677  0.038287506  0.040077914            3 
  316000    1.1546403   -6.0512522    145.22756  0.038298406  0.040055963            3 
  317000    1.1515865   -6.0679243    146.41736  0.038490367  0.040035243            6 
  318000    1.1349169   -6.0305488    146.30334   0.03833945  0.040015054            5 
  319000    1.1179001   -6.0258323    146.62787   0.03830404  0.039994326            3 
  320000    1.1087696    -6.067703     147.1199  0.038312475  0.039972665            7 
  321000    1.1453161   -6.0379414    147.15121  0.038201249  0.039950775            4 
  322000    1.1306475   -6.0838095    148.33547  0.038389097   0.03992908            3 
  323000    1.1372754   -6.0607278    148.29107  0.038258791  0.039907633            5 
  324000    1.1257461   -6.0596108    148.73813  0.038255692  0.039886107            3 
  325000    1.1458185   -6.0745037    148.75176  0.038141476  0.039865074            8 
  326000    1.1178157   -6.0636728    149.86281   0.03830849  0.039843019            4 
  327000    1.1552064   -6.0669008    149.88643  0.038197356   0.03982094            4 
  328000    1.1452134   -6.0575734     150.5523  0.038250075  0.039798647            4 
  329000     1.115519   -6.0237099    150.46403  0.038111457  0.039776421            3 
  330000     1.136527   -6.0529899    150.64616  0.038041959  0.039753121            4 
  331000    1.1126583   -6.0286783    151.32794  0.038098676   0.03973057            3 
  332000    1.0957135   -6.0525175    152.07357  0.038171077  0.039708778            6 
  333000    1.1362554    -6.016915    152.07607  0.038057075  0.039687605            3 
  334000    1.1136924   -6.0584554    152.35631   0.03801305  0.039665726            2 
  335000    1.1086872   -6.0637669     153.1654  0.038100845  0.039644006            6 
  336000    1.0983613   -6.0791463    153.33682  0.038029965  0.039622728            5 
  337000     1.109625   -6.0216409    153.71513  0.038010665  0.039602352            4 
  338000    1.1354886   -6.0717181    154.32186  0.038047796  0.039582291            9 
  339000    1.1341216   -6.0720914    154.40717  0.037956532  0.039562571            4 
  340000    1.0945932   -6.0433959    155.86612   0.03820248   0.03954328            3 
  341000    1.1356842   -6.0481033    155.46217  0.037991733  0.039523959            2 
  342000    1.0987112   -6.0779434    156.12297  0.038041658  0.039504485            4 
  343000    1.1016807   -6.0602563    156.13873  0.037934579  0.039484213            5 
  344000     1.092106   -6.0612503    157.14811  0.038068824    0.0394641            7 
  345000    1.1289966   -6.0880008    157.53242  0.038051309  0.039444891            6 
  346000    1.1205122   -6.0831965    158.46861  0.038166813  0.039427577            4 
  347000    1.1176954   -6.0738062    158.17765  0.037986947  0.039409454            3 
  348000    1.0795235    -6.078688    158.63209  0.037986611  0.039391161            8 
  349000    1.1353327    -6.060056    159.36463  0.038052681  0.039373632            4 
  350000    1.1035986   -6.0725648    159.98436  0.038091513  0.039355971            5 
  351000    1.0977866   -6.0636436    160.15783  0.038024176  0.039337399            3 
  352000    1.1063817   -6.0967728    159.31833  0.037717407  0.039318083            8 
  353000    1.1064549   -6.0564449     160.8943  0.037982602  0.039298975            2 
  354000    1.1016664   -6.1049548    160.80377  0.037853995  0.039280885           10 
  355000    1.1080073    -6.068806    161.55585  0.037923908  0.039262204            4 
  356000    1.1056464   -6.0786251    162.08077  0.037940256  0.039243953            7 
  357000    1.1174446   -6.0673884    162.29349  0.037883635  0.039225764            5 
  358000    1.1284279   -6.0800254    163.53892  0.038067719  0.039208401            3 
  359000     1.100992    -6.130545    163.30495   0.03790737   0.03919153            5 
  360000    1.1124933   -6.0150032    164.05936  0.037976704  0.039175117            5 
  361000    1.1140002   -6.0743285    163.99505  0.037856659  0.039157415            4 
  362000    1.0850879   -6.0120736    164.52352  0.037873738  0.039139152            3 
  363000    1.1161628   -6.0842192    164.93491  0.037863845  0.039120678            4 
  364000    1.1180211   -6.1150611    165.16951  0.037813532    0.0391027           15 
  365000    1.1091059   -6.0577869     166.1762  0.037939772  0.039084747            3 
  366000    1.1210223   -6.0662971    166.09093  0.037816696  0.039067415            7 
  367000    1.0835655   -6.0638087    165.91999  0.037674839   0.03904932            3 
  368000    1.1024952   -6.1163562    167.39909  0.037907404  0.039030664           10 
  369000    1.0914708   -6.0868439     167.1916  0.037757813  0.039012638            4 
  370000    1.0884119   -6.0928699    167.82452  0.037798314  0.038995565            7 
  371000    1.0867875   -6.0288725    168.34609  0.037813586   0.03897816            3 
  372000    1.1243242   -6.0803482    168.05088  0.037645807   0.03896095            3 
  373000    1.1119452   -6.1033166    168.88672  0.037731618  0.038943931            3 
  374000    1.1221478   -6.0997856    169.38384  0.037741498  0.038926636            2 
  375000    1.1187342   -6.1177015     169.5967  0.037688155  0.038908121            6 
  376000    1.1000832   -6.0952739    169.83849   0.03764151  0.038889342            5 
  377000    1.0926824   -6.1100356     169.6143   0.03749211  0.038870689            4 
  378000    1.1258069     -6.09573    169.94172  0.037465105  0.038850715            4 
  379000    1.0856584   -6.1037411    170.52103   0.03749363  0.038830559            7 
  380000    1.1083359   -6.1315392    171.19846  0.037543523  0.038810969            6 
  381000    1.1154066   -6.0904596    171.89214  0.037596706  0.038791691            4 
  382000     1.072366   -6.0888249    171.36524  0.037383342  0.038772829            6 
  383000    1.0844773   -6.0891057    172.77006  0.037591398   0.03875378           10 
  384000    1.1222436   -6.1193492    172.30894  0.037393433  0.038734664            5 
  385000    1.0981768   -6.0578642     173.3633  0.037524525  0.038716209            6 
  386000    1.1163093   -6.1173171    173.75425  0.037511713  0.038698181            4 
  387000    1.1067517    -6.052693    174.47118   0.03756916   0.03867997            7 
  388000    1.0433989   -6.1233759    174.51381  0.037481489  0.038661761            5 
  389000    1.0939496   -6.1139371     174.5515  0.037393209  0.038642767            7 
  390000    1.0945183   -6.1134039    175.05524  0.037404966  0.038624193           13 
  391000    1.1129657    -6.059611       175.22  0.037344415  0.038606266            6 
  392000     1.100065   -6.0878876    175.55863  0.037321136   0.03858675           10 
  393000    1.0740377    -6.090783     175.6901   0.03725405   0.03856708            5 
  394000    1.1027167    -6.095093     176.5781  0.037347313  0.038548305            5 
  395000    1.0961672   -6.1245382    176.69603  0.037277644  0.038529956            5 
  396000    1.0980039   -6.1098422    178.16293    0.0374922  0.038511925            7 
  397000    1.0992058   -6.1186383    177.70022  0.037300634  0.038494299            7 
  398000    1.0944748   -6.0802452    177.96999  0.037263399  0.038476601            4 
  399000    1.1140862   -6.1091314    179.41147  0.037471066  0.038459704            4 
  400000    1.0942849   -6.0910109    179.84205  0.037467094  0.038443389            4 
  401000    1.1110427   -6.0755333      179.543  0.037311512  0.038426643            7 
  402000    1.1075383   -6.0841472    179.99285   0.03731195  0.038409477            5 
  403000    1.0798472   -6.0941804    181.21544  0.037472176  0.038393143            5 
  404000    1.0776772   -6.0612425    181.37494  0.037412323  0.038377317            3 
  405000    1.1065445   -6.0747327    181.59593  0.037365418  0.038360634            3 
  406000    1.1028937   -6.1177452    181.12415   0.03717655  0.038343777            4 
  407000    1.0927317   -6.1162678    182.15645  0.037296571  0.038326468            3 
  408000    1.0883699   -6.1020744    181.86267  0.037145152  0.038308736            6 
  409000    1.0581526   -6.1112164    182.67697  0.037220247  0.038291382           11 
  410000    1.1016291   -6.1188741    182.35065  0.037063141  0.038274349            3 
  411000    1.0709279   -6.1172473    183.46298  0.037198495  0.038255805           11 
  412000    1.1066696   -6.0973607     183.5021  0.037116121  0.038237385            6 
  413000    1.0671277   -6.1080384    183.58512  0.037043003  0.038218629            3 
  414000    1.1019312   -6.1294423    184.58613  0.037155018  0.038200158            8 
  415000    1.0914704   -6.0929824    184.86666  0.037121819  0.038181264            5 
  416000    1.0825609   -6.1121025    185.24753   0.03710888  0.038162508            4 
  417000    1.0963832   -6.1277226    185.37142  0.037044649  0.038144347            5 
  418000    1.0712398     -6.11445    185.31755  0.036945286   0.03812584            5 
  419000    1.0695857   -6.1588903    185.51212  0.036895808  0.038106343            4 
  420000    1.0745271   -6.1407481     186.0853  0.036921687   0.03808607            4 
  421000     1.077867   -6.1157696     186.3247  0.036881374  0.038066114           10 
  422000    1.1066261   -6.1030746    186.55054  0.036838574  0.038046481            7 
  423000    1.0999979   -6.1142389    186.91694  0.036823668  0.038027161            5 
  424000    1.0676596   -6.0990405    187.65582  0.036882041  0.038007878            5 
  425000    1.0439504   -6.0847394    188.03924  0.036870439  0.037988249            3 
  426000    1.0957638   -6.0993682    188.12071  0.036799826  0.037968827            5 
  427000    1.0334493   -6.0956402    188.57395  0.036802098   0.03794886            5 
  428000    1.0776091    -6.118099    188.95591  0.036790481  0.037928694            8 
  429000    1.1007814   -6.1402773    189.18811  0.036749826   0.03790808            6 
  430000    1.0868669   -6.0844996    189.28619   0.03668337  0.037887984            4 
  431000    1.0568028    -6.128668    189.72706  0.036683499   0.03786793            7 
  432000    1.0647882   -6.1030105    190.64291  0.036775253  0.037847771            6 
  433000    1.1042532   -6.1529066    190.96016  0.036751378  0.037827919            5 
  434000    1.0850254   -6.1389872    190.87321  0.036650002  0.037807863            3 
  435000    1.1194109   -6.0975977    190.97848  0.036585916   0.03778846            4 
  436000    1.0954095   -6.1400338    192.12219  0.036720603   0.03776909           10 
  437000    1.0857259   -6.1398973    192.16642  0.036645008  0.037749169            8 
  438000    1.0706727   -6.0968089    192.66839  0.036656848  0.037729252            3 
  439000    1.0726132    -6.144902    192.60918  0.036562107  0.037710579            5 
  440000    1.0628242   -6.1315383      192.787  0.036512689  0.037690778            6 
  441000    1.0837334   -6.1156806    193.30881  0.036528497  0.037671191            3 
  442000    1.0782865   -6.0930949    194.24815  0.036622955   0.03765138            7 
  443000    1.0796085   -6.1333565    193.35084   0.03637149  0.037631358            5 
  444000    1.0586441   -6.1490337    193.43753  0.036305843  0.037610611            6 
  445000    1.0682568   -6.1380391    194.62473  0.036446579  0.037589933            6 
  446000     1.090905   -6.1192994     195.1095  0.036455437  0.037570373            5 
  447000    1.0773544   -6.1459441    194.97804  0.036349373  0.037550054            4 
  448000    1.0767883   -6.1550135    195.46459  0.036358741  0.037530174            3 
  449000    1.1072868   -6.1462926    195.94628  0.036367165  0.037510093            6 
  450000    1.0489675   -6.1413434    196.28806  0.036349641   0.03749029            2 
  451000    1.0709222   -6.1521883     196.9119  0.036384312  0.037469707            4 
  452000    1.0665627    -6.145077    196.90037   0.03630169   0.03744962            4 
  453000    1.0674785   -6.1397634    198.27268  0.036474003  0.037430291            3 
  454000    1.0613288   -6.1375141    197.68466   0.03628573  0.037410613            6 
  455000    1.0958503   -6.1530683    198.50461  0.036356156  0.037391031            7 
  456000    1.0953797   -6.1417806    198.96176  0.036359972  0.037371596            5 
  457000    1.0637121   -6.1281865    199.35469  0.036352058  0.037352597            5 
  458000    1.0741838   -6.1364916    199.60204  0.036317692  0.037333875            4 
  459000    1.0787123   -6.1568334    199.81866  0.036277898  0.037314145            5 
  460000    1.0843788   -6.1397986    199.88191  0.036210491  0.037295227            5 
  461000    1.0707611   -6.1506292    200.62622   0.03626649  0.037275785            3 
  462000    1.1024855    -6.136843    201.23242  0.036297334  0.037257018            4 
  463000    1.0413144   -6.1821143    200.62947  0.036110416   0.03723753            4 
  464000    1.0790216   -6.1360965     201.4364  0.036177514  0.037217446            6 
  465000    1.0668321   -6.1663264    200.99978  0.036021467  0.037196349            6 
  466000    1.0747273   -6.1348197    201.74856  0.036078069  0.037175367            8 
  467000     1.052676   -6.1338546    201.71542  0.035994901  0.037154352            4 
  468000     1.067861   -6.1681271    202.43925  0.036046876  0.037132882            4 
  469000    1.0719749   -6.1765257    202.47743  0.035976799  0.037111548            9 
  470000    1.0678315    -6.169199    203.01062  0.035994791  0.037090401            5 
  471000    1.0588439   -6.1711899    203.12166  0.035938015  0.037069468            4 
  472000    1.0708117   -6.1318168    203.40563  0.035912012  0.037048096            5 
  473000    1.0821789   -6.1899382    203.72564  0.035892466  0.037026577            4 
  474000    1.0674783   -6.1386967    204.08101   0.03587922     0.037005            4 
  475000    1.0584577   -6.1747543     203.8871  0.035769667  0.036983239            5 
  476000    1.0794097   -6.1580738    204.37927  0.035780684   0.03696174            5 
  477000    1.0459973   -6.1456334    205.33558  0.035872742  0.036939791            4 
  478000    1.0805703   -6.1417436    204.87843  0.035717997   0.03691718           10 
  479000    1.0857785   -6.1336744    205.02748   0.03566936  0.036893921            3 
  480000    1.0830988   -6.1319958    205.47877  0.035673398  0.036870563            6 
  481000    1.0434742   -6.1759476    205.65943  0.035630532  0.036846944            4 
  482000    1.0804166   -6.1780708    206.16331  0.035643727  0.036823824            6 
  483000    1.0504504   -6.1558766    205.95496  0.035533983  0.036800425            5 
  484000    1.0607322   -6.1409528    205.62377  0.035403542  0.036776524            5 
  485000    1.0870456   -6.1747091    205.75988  0.035353932  0.036751347            6 
  486000    1.0641122   -6.1622193    206.42996  0.035396083  0.036726966           10 
  487000    1.0868006   -6.1411375    206.21849  0.035287216  0.036701774            6 
  488000    1.0433307   -6.1998849    206.05309  0.035186662  0.036676686            5 
  489000    1.0383752   -6.1549568    206.98898  0.035274196   0.03665141            7 
  490000    1.0605613   -6.1758426    206.95023  0.035195618  0.036626558            5 
  491000    1.0570506   -6.1483064    207.56474  0.035228232  0.036601711            3 
  492000    1.0746253   -6.1613831    208.64567  0.035339714  0.036577515            6 
  493000     1.049949   -6.1242687    208.77397  0.035289717  0.036553763            3 
  494000    1.0746792   -6.1510387    209.62275  0.035361463  0.036530937            3 
  495000    1.0358455   -6.1330302    209.88013  0.035333356  0.036508438            4 
  496000    1.0681551   -6.1585294    209.92548  0.035269738  0.036485598            6 
  497000    1.0647646   -6.1977483    210.33747  0.035267852  0.036462688            4 
  498000    1.0764196    -6.168851    211.63982  0.035414963  0.036440223            3 
  499000    1.0344441   -6.2156593    211.57277  0.035332794   0.03641831            5 
  500000     1.062544   -6.1756177    211.91836  0.035319726   0.03639701            4 
  501000    1.0576669    -6.154221    212.62231  0.035366318  0.036376317            4 
  502000    1.0633322   -6.1674048    212.84996  0.035333659  0.036355009            6 
  503000    1.0400419   -6.1927556    213.02021  0.035291618  0.036333663            7 
  504000    1.0554372   -6.1717415    213.44891  0.035292479  0.036312446            4 
  505000    1.0323893    -6.208585    213.79046  0.035278953  0.036290904            4 
  506000    1.0305637   -6.1666258    214.17702  0.035272896   0.03626977            5 
  507000    1.0583565   -6.1474759    214.65282  0.035281528  0.036248436            6 
  508000     1.038104   -6.1907846    214.26937  0.035149175  0.036226772            7 
  509000    1.0487719   -6.1817437    214.73785  0.035156818  0.036204826            6 
  510000    1.0516091   -6.1830447    215.17264  0.035158929  0.036183408            4 
  511000    1.0420742   -6.1694365    215.45449  0.035136088  0.036161323            6 
  512000    1.0528776     -6.16481    215.70631  0.035108448  0.036139247           10 
  513000    1.0388371   -6.1390151    215.70567  0.035039907  0.036116843            4 
  514000    1.0622518   -6.2300136    215.53623  0.034944265  0.036093777            6 
  515000    1.0488284   -6.1867162    215.60387  0.034887358   0.03606977           12 
  516000    1.0554724   -6.1879071    215.52315   0.03480671  0.036045325            5 
  517000    1.0523558   -6.2128722     216.2371  0.034854465  0.036021216            5 
  518000    1.0220564   -6.2060481    214.96251  0.034582128  0.035996344            5 
  519000    1.0520182   -6.1572759    216.71139  0.034796305  0.035972035            5 
  520000    1.0576205   -6.2001687    216.72346  0.034731323  0.035947835            6 
  521000    1.0406879   -6.1962229    217.15192  0.034733192  0.035923855            4 
  522000    1.0238332   -6.2040446    217.20102  0.034674492  0.035899676            7 
  523000    1.0357364   -6.2040167    217.52887  0.034660432  0.035875626            6 
  524000    1.0629282     -6.20502    217.59227  0.034604369  0.035851707            4 
  525000    1.0475502   -6.2038837    218.09281  0.034617906  0.035827451            7 
  526000    1.0817583   -6.2053153    218.28771  0.034582971  0.035803653           20 
  527000     1.027831   -6.1902439    218.22832  0.034507958  0.035779633            3 
  528000    1.0476614   -6.1872759    219.50116  0.034643492  0.035755882            7 
  529000    1.0287923   -6.1983494    218.86928  0.034478463  0.035731586            6 
  530000    1.0433865   -6.2074765    220.00023  0.034591232  0.035707991           14 
  531000    1.0551819   -6.2529273      219.504  0.034448211  0.035684163           10 
  532000    1.0411062   -6.1925821     220.1546  0.034485369  0.035660415            9 
  533000    1.0492006   -6.2266736    220.94489  0.034544229  0.035636787            4 
  534000    1.0544132   -6.2013769    220.74905  0.034448978  0.035612915            4 
  535000    1.0463858    -6.192096    220.97876  0.034420367  0.035588759            9 
  536000     1.053209   -6.2262271     221.0693  0.034370227  0.035564165            6 
  537000     1.030326   -6.2093141    221.16125  0.034320492   0.03553953            7 
  538000    1.0342958   -6.2005568    222.21464  0.034419863   0.03551544            4 
  539000    1.0458798   -6.1737303    222.88837  0.034460169   0.03549163            6 
  540000    1.0544861   -6.2506149    222.15359  0.034282961  0.035467586            7 
  541000    1.0636482   -6.2060389    223.04118  0.034356312  0.035443741            7 
  542000    1.0571977   -6.2222393      223.055   0.03429505  0.035420585           25 
  543000    1.0504466    -6.190504    223.22132  0.034257415  0.035397453           11 
  544000    1.0460585   -6.2361502    223.81592  0.034285527   0.03537401            9 
  545000    1.0287386   -6.1881797    223.80955  0.034221644  0.035350486            5 
  546000    1.0377199   -6.1914881    224.66243  0.034289138  0.035327066            7 
  547000    1.0751116   -6.2298018    223.38013  0.034031098  0.035303083            8 
  548000    1.0475878   -6.2248217    223.87429  0.034044144  0.035278345            9 
  549000    1.0492424   -6.2205611    224.52758  0.034081297   0.03525417            5 
  550000    1.0263162    -6.210526    224.84985  0.034068159   0.03522991            3 
  551000    1.0429855   -6.2258273    225.02682  0.034033095  0.035206072            4 
  552000    1.0361951   -6.2062639     225.9909  0.034116983  0.035182119            6 
  553000    1.0471163   -6.2074982      226.338  0.034107595  0.035158412            5 
  554000    1.0257332   -6.2023127    226.30078   0.03404043   0.03513492            6 
  555000    1.0315374   -6.2384496    226.35028  0.033986529  0.035111005            4 
  556000    1.0456785   -6.1812931    227.39747  0.034082354  0.035087094            9 
  557000    1.0529967   -6.2195335    227.33122  0.034011254  0.035063324            5 
  558000     1.012243   -6.2070172    227.61265  0.033992331  0.035039533            2 
  559000    1.0497173   -6.2159632    227.93201  0.033979131  0.035016224            5 
  560000    1.0610365   -6.2085021    227.45392  0.033847309  0.034992918            9 
  561000    1.0547469   -6.2012183    228.38055  0.033924622  0.034969599            6 
  562000    1.0180673   -6.2286538    228.50155  0.033882199  0.034946344            8 
  563000    1.0015028   -6.2088982    229.08939  0.033909028  0.034922977            6 
  564000    1.0225509   -6.2026165    229.94865  0.033975864  0.034900364            8 
  565000    1.0344368   -6.2139743    230.36748  0.033977505  0.034877608            3 
  566000    1.0242904   -6.2208902    230.27561  0.033903948  0.034855106            5 
  567000    1.0378322   -6.2444229    230.78542  0.033919079  0.034832743            6 
  568000    1.0451277   -6.2377275    230.25954  0.033782209  0.034810161            3 
  569000    1.0312269   -6.2247477    231.38329  0.033887418  0.034788261            8 
  570000    1.0192497   -6.2349996    231.90214  0.033903822  0.034766636            6 
  571000    1.0261104   -6.2129857    232.43609  0.033922371  0.034745101            4 
  572000    1.0284492   -6.2207785     232.1475  0.033821022  0.034723507            7 
  573000     1.039289   -6.2528762    232.58425  0.033825517  0.034701871            4 
  574000    1.0273802   -6.2550266    232.56822  0.033764259   0.03468003            7 
  575000    1.0321398   -6.2291524    232.78499  0.033736954  0.034657854            3 
  576000    1.0161283   -6.1999454    232.47328  0.033633286  0.034635572            3 
  577000    1.0073285   -6.2545927    232.94435  0.033643031   0.03461315            9 
  578000    1.0476703   -6.2397041    233.56119  0.033673758  0.034590639            3 
  579000    1.0173586    -6.243494    233.30657  0.033578954  0.034567842            7 
  580000    1.0169342    -6.231325    234.50425  0.033693139  0.034545461            8 
  581000    1.0414847   -6.2121829    234.80878  0.033678827  0.034523363            6 
  582000    1.0321087   -6.2232796    234.98721  0.033646507  0.034501527            6 
  583000    1.0012091   -6.2283939     235.2244  0.033622699  0.034479739           12 
  584000    1.0143851   -6.2572419    236.75368  0.033783344  0.034458293           14 
  585000     1.008603   -6.2146985    236.83393  0.033737027  0.034437228            6 
  586000    1.0083213   -6.2031924    236.88996  0.033687423  0.034416288            7 
  587000    1.0372915   -6.2003221    236.79858  0.033617062  0.034395442            3 
  588000    1.0267304   -6.2279066    236.33179  0.033493734  0.034374599           10 
  589000    1.0173728   -6.2846631    236.98678  0.033529538  0.034353733            5 
  590000    1.0407416   -6.2170519    237.94558  0.033608132   0.03433316            4 
  591000    1.0060213   -6.2232147    238.15062  0.033580178   0.03431261           10 
  592000    0.9981039   -6.2406904    238.48517  0.033570548  0.034291584            4 
  593000    1.0019072   -6.2372796    238.37593  0.033498584  0.034270272            5 
  594000     1.008673   -6.2267646    238.66812  0.033483182  0.034249296           11 
  595000    1.0143995   -6.2300146    238.79926  0.033445275   0.03422848            4 
  596000    1.0187694   -6.2320096    239.75642   0.03352299  0.034207937            4 
  597000    1.0147005   -6.2408461    240.43709  0.033561849  0.034188029            5 
  598000    1.0039702   -6.2743333    240.37719  0.033497378   0.03416826            4 
  599000    1.0190889   -6.2576055    240.81579  0.033502476  0.034148776            3 
  600000    1.0130842   -6.2194302    240.99322  0.033471281  0.034129197            3 
  601000    1.0096883   -6.2527697    241.92534  0.033544833  0.034109678           12 
  602000    1.0245401   -6.2357682    241.95753  0.033493567  0.034090362            5 
  603000    1.0122056   -6.2522778    242.59422  0.033526011  0.034071008            8 
  604000    1.0327328    -6.257537    242.48934  0.033456035  0.034051136           11 
  605000    1.0070669   -6.2687034    242.42048   0.03339125  0.034031512           11 
  606000    1.0167431   -6.2545364    242.58189  0.033358346   0.03401169            3 
  607000    1.0033008   -6.2661185     242.6957  0.033319014  0.033991452            7 
  608000    1.0187744   -6.2300275    243.75188  0.033408975  0.033971795            4 
  609000    1.0098354   -6.2355448    243.51772  0.033322075  0.033952073            9 
  610000   0.97927862   -6.2703697    243.08329  0.033208099  0.033932029            5 
  611000    1.0347825   -6.2505073      244.442  0.033339062  0.033911773            4 
  612000   0.99266109   -6.2610452    243.38933  0.033141249  0.033891421            3 
  613000    0.9975584   -6.2554686    244.21409  0.033199305  0.033871041            8 
  614000    1.0227141   -6.2638449    244.91723  0.033240666  0.033850767           10 
  615000     1.008099   -6.2764354    244.87774  0.033181265  0.033830688            8 
  616000   0.99731115   -6.2524326    245.71827  0.033241107  0.033811172            7 
  617000   0.99057624   -6.2402806     245.1948  0.033116531   0.03379159            5 
  618000    1.0064682    -6.222517    245.38072  0.033088015  0.033771834            6 
  619000    0.9782107   -6.2776722    245.42027  0.033039886  0.033751168            5 
  620000    1.0168684   -6.2317979    246.22512  0.033094774  0.033730755            7 
  621000    1.0249281   -6.2528358    245.88122  0.032995333  0.033710163            6 
  622000    0.9954021   -6.2578183    246.66096  0.033046752  0.033690033            6 
  623000    1.0115202   -6.2565317    246.47892  0.032969358  0.033670367            9 
  624000    1.0350847   -6.2773525    247.47974  0.033050179  0.033650254            8 
  625000   0.99686946   -6.2669523    248.28167  0.033104223   0.03363056            8 
  626000    1.0197852   -6.2655683    247.95772  0.033008216  0.033611266            9 
  627000    1.0150648   -6.2602286    248.91036  0.033082185  0.033592031           10 
  628000    1.0042216   -6.2585836    249.78535  0.033145615  0.033573241           11 
  629000    1.0086055   -6.2791429     249.4163  0.033044026  0.033554141            7 
  630000    1.0016579   -6.2585208    250.59611  0.033147633  0.033535354            6 
  631000    1.0030693   -6.2723351    250.38794   0.03306761  0.033516636            7 
  632000   0.98775053    -6.281662    249.88446  0.032948901  0.033497843            6 
  633000    1.0013741    -6.270084     250.1257  0.032928607   0.03347911           11 
  634000    0.9982909    -6.298994    250.95008  0.032985026  0.033460233            7 
  635000    1.0049287   -6.2571564    251.20037  0.032965928  0.033441115            6 
  636000    1.0170599   -6.2700217    251.42382  0.032943373  0.033422087            2 
  637000   0.99460752   -6.2613887    251.01754  0.032838506  0.033403274            6 
  638000    0.9930036   -6.3079284    252.13331  0.032932773  0.033384415            8 
  639000    1.0003488   -6.2673386    252.64822  0.032948386  0.033365866            4 
  640000    1.0083653   -6.2637694    252.75897  0.032911324  0.033347447           10 
  641000   0.98431245   -6.2859682     252.7456  0.032858243  0.033329004            7 
  642000    1.0032895   -6.3059364    252.42909  0.032765977  0.033310547            8 
  643000    1.0113131   -6.3110652    252.74221    0.0327556  0.033291982            7 
  644000    1.0048053   -6.2720251    253.35317  0.032783796  0.033273136            5 
  645000   0.99470606   -6.2912611    253.64459  0.032770619   0.03325407            7 
  646000   0.99344615    -6.256455    254.69775  0.032855746  0.033235782            5 
  647000    0.9852002   -6.2777815    255.01487   0.03284581  0.033217661            5 
  648000   0.97532921   -6.2878265    254.51939  0.032731403  0.033199451            8 
  649000   0.99943132   -6.2426596    254.83714  0.032721769  0.033180474            7 
  650000   0.97690597   -6.2830958     255.1379  0.032709988  0.033161818           16 
  651000    0.9675593   -6.2698026    255.63295  0.032723111  0.033143151            5 
  652000    0.9805994    -6.309302    254.96531  0.032587591  0.033123947            7 
  653000   0.99967302   -6.2804887    255.19922  0.032567537  0.033104798            5 
  654000   0.98486167   -6.2748658    255.79656  0.032593853  0.033085524            7 
  655000   0.97578473   -6.2754235     255.9693  0.032566069  0.033066409            4 
  656000   0.97146502   -6.2521248    256.45796    0.0325785  0.033047315           12 
  657000    0.9984708   -6.3046903    256.25555  0.032503241  0.033027877            3 
  658000    1.0088294   -6.2761855    256.33872  0.032464377  0.033008486            4 
  659000   0.98618492   -6.2877078    256.42266  0.032425728  0.032988536            6 
  660000   0.98769252   -6.2881189     256.8621  0.032432084  0.032968598            8 
  661000    1.0065899   -6.3049094    256.53788  0.032342144   0.03294915            5 
  662000   0.98222678   -6.2954288     256.6159  0.032303109  0.032929408            6 
  663000   0.98884352   -6.2641745    257.85994  0.032410752  0.032909864            8 
  664000    1.0071118   -6.2881587    257.68124  0.032339513  0.032890877            7 
  665000   0.99605612    -6.262615    258.60599  0.032406765  0.032871722            5 
  666000    1.0054181   -6.2911294    258.25127  0.032313723  0.032852376           10 
  667000   0.97717441   -6.2545955    258.08839  0.032244927  0.032832803            6 
  668000    1.0176075   -6.3036232    258.81149  0.032286863    0.0328131            9 
  669000    1.0076236   -6.2852012    258.14666  0.032155787  0.032792998            6 
  670000    1.0042117   -6.2909387    258.50086  0.032151848  0.032772814           10 
  671000   0.97796881    -6.305069    259.29801  0.032202933  0.032752638           16 
  672000   0.97010581   -6.2718382     259.1228  0.032133283  0.032732592            6 
  673000   0.99292527   -6.2830205    259.08549  0.032080918  0.032712484           21 
  674000   0.98475935   -6.3025962    259.71113  0.032110674  0.032692364            4 
  675000   0.98602473   -6.3057719    259.57624   0.03204645  0.032672302            3 
  676000   0.99866717   -6.3209065    260.41726   0.03210272  0.032652299            5 
  677000   0.98963852   -6.3372548    261.10359  0.032139782  0.032632425            5 
  678000   0.95839623   -6.2646022    261.02987  0.032083318  0.032612749            5 
  679000    1.0224689   -6.3033089    259.74724   0.03187865  0.032592755            7 
  680000    1.0014263   -6.3154869    261.44653  0.032040016  0.032572473            4 
  681000   0.97143058   -6.3209886    260.49673  0.031876741  0.032551797           12 
  682000   0.99326187   -6.3535688    260.89578  0.031878761  0.032531049            3 
  683000   0.97676286    -6.289789    260.82848  0.031823875  0.032510018           10 
  684000    1.0004251   -6.2848265    261.88645  0.031906244  0.032489439            5 
  685000   0.97045805   -6.3096329    262.45024  0.031928253  0.032469155            4 
  686000   0.98452203   -6.3015005    262.46551  0.031883565  0.032449049            5 
  687000   0.96251302   -6.3107128    263.08519  0.031912322  0.032429175           12 
  688000    1.0070556   -6.2993853    262.89899  0.031843385  0.032409233           11 
  689000   0.99716751    -6.302072    263.15054  0.031827593  0.032389266            6 
  690000   0.98715724   -6.2863599    263.74672  0.031853469  0.032369531            7 
  691000   0.97783247   -6.3339947     263.4098  0.031766739  0.032349772            8 
  692000    0.9839858   -6.3011382    264.60101  0.031864283  0.032330087            7 
  693000   0.99227215    -6.318316    264.40306  0.031794499  0.032310416            8 
  694000   0.94562231   -6.3169149    265.09381  0.031831629  0.032290802            8 
  695000    0.9680829   -6.2826314    265.94665  0.031888088  0.032271565            4 
  696000    1.0006181   -6.3099436    265.32303  0.031767604  0.032252437           11 
  697000   0.99291139   -6.3424419     265.4792  0.031740698  0.032233137            8 
  698000   0.98593737    -6.327688    265.69208   0.03172064  0.032213685            5 
  699000   0.96347468   -6.3205801    265.99136   0.03171094  0.032194175            4 
  700000   0.99169904   -6.2887769    266.43243  0.031718147  0.032175179            5 
  701000   0.95183673   -6.3256134     266.5881  0.031691405  0.032156352            6 
  702000   0.96879651   -6.3077908    267.95525  0.031808553  0.032137554           11 
  703000    0.9713578   -6.3307607    267.83209  0.031748706  0.032118442            7 
  704000   0.96832181   -6.3768022    267.37496  0.031649498   0.03209937           27 
  705000   0.97576018   -6.3236737    268.45007  0.031731687  0.032080404            5 
  706000   0.96672317   -6.3370702    267.89313  0.031621002  0.032061825            8 
  707000   0.98990543   -6.3452977    268.62115  0.031662088  0.032043022            7 
  708000   0.95518691     -6.35023    268.96737  0.031658118  0.032024483           12 
  709000   0.96640983   -6.3246613    269.90469  0.031723636  0.032006357            8 
  710000   0.95516492    -6.314431    269.44504  0.031625005  0.031987967            4 
  711000   0.96280359   -6.3306958    269.07624    0.0315373  0.031969564            6 
  712000   0.98109271   -6.3461827    270.43452  0.031651981  0.031951361           13 
  713000   0.97528978   -6.3622236    270.59981  0.031626906   0.03193292           12 
  714000   0.97433534   -6.3436932    270.45623  0.031565853  0.031914578            7 
  715000   0.96198675   -6.3006345    271.18674  0.031606846  0.031896282            6 
  716000   0.98607371   -6.3249846    270.37887  0.031468677  0.031877893            4 
  717000   0.95952831   -6.3332174    271.34657  0.031537258  0.031859368            4 
  718000   0.97297293   -6.3541448    271.11008  0.031465886  0.031840859           14 
  719000   0.95343018   -6.3111716    271.27125  0.031440803  0.031822641            6 
  720000   0.96213797   -6.2934985    271.83712   0.03146263  0.031804281           11 
  721000   0.94336783   -6.3131994     271.9268  0.031429357  0.031786142           12 
  722000   0.98114797   -6.3426806     271.5862  0.031346514  0.031767878            5 
  723000    0.9653043   -6.3625681    272.27059  0.031382042  0.031749499            9 
  724000   0.96184178   -6.2978321    273.55482  0.031486512  0.031731191           12 
  725000   0.95977664   -6.3585932    272.91013  0.031368981   0.03171301           10 
  726000   0.94168619   -6.3265843    272.45283  0.031273281  0.031694931            7 
  727000   0.95061976   -6.3370166    273.82129  0.031387126  0.031676769            7 
  728000   0.98138511   -6.3399277     273.6152  0.031320422  0.031658509            6 
  729000   0.94933228   -6.3435639    274.56445  0.031385969  0.031640408            4 
  730000   0.95861826   -6.3403584    273.65962  0.031239682  0.031622217            6 
  731000   0.94964087    -6.313493    275.54522  0.031411904  0.031604372            3 
  732000   0.94824177   -6.3462948    274.91661  0.031297428  0.031586665           10 
  733000    0.9886274   -6.3534733     274.5679  0.031215087  0.031568753            8 
  734000    0.9587137    -6.350751    275.32779  0.031258832  0.031550851            7 
  735000   0.94479612   -6.3721693    275.76994  0.031266433  0.031532943           14 
  736000   0.95213127   -6.3589349    276.06884  0.031257794    0.0315152           11 
  737000    0.9633337   -6.3461404    276.04203   0.03121235  0.031497631            6 
  738000   0.95983476   -6.3545329    276.36898  0.031206976  0.031479863           11 
  739000   0.93883368   -6.3213594    276.92797  0.031227782  0.031461928            4 
  740000   0.94693615   -6.3520027    276.42345  0.031128767  0.031443913            7 
  741000   0.94780438   -6.3503441    275.39903   0.03097155  0.031425536            4 
  742000   0.95705133   -6.3606084    277.55282  0.031171701  0.031407096           12 
  743000   0.94193909   -6.3477102    277.03887  0.031072103  0.031389182            6 
  744000   0.96392598    -6.359289    277.62863  0.031096396  0.031371317            6 
  745000   0.95411139   -6.3386088    277.75333  0.031068605  0.031353596            7 
  746000   0.97132645   -6.3786912     278.5483  0.031115762  0.031335773           22 
  747000   0.95357595   -6.3392725    278.24441  0.031040207  0.031317955           23 
  748000   0.94914911   -6.3569073    278.95122  0.031077453  0.031299989            7 
  749000    0.9480085   -6.3512151    277.92909   0.03092224  0.031281956            7 
  750000   0.94896647   -6.3148885    279.06284  0.031006982  0.031263934           16 
  751000    0.9595751   -6.3522328    278.73262  0.030929053  0.031245923            6 
  752000   0.95546433   -6.3638148    278.60095  0.030873332  0.031227862            5 
  753000   0.95754151   -6.3786206    279.07208   0.03088447  0.031209703            6 
  754000   0.97269174   -6.3728105    279.29875  0.030868562  0.031191259           17 
  755000   0.95309647     -6.37754    280.03931  0.030909416  0.031172905            5 
  756000   0.94744774   -6.3565644    279.71187  0.030832437  0.031154698            7 
  757000   0.94897806   -6.3770243    280.46643  0.030874772  0.031136654            4 
  758000   0.95025812   -6.3595903    280.22774  0.030807799  0.031118902            8 
  759000   0.94563184   -6.3879109    282.02609  0.030964656  0.031101194            6 
  760000   0.95451273     -6.37939    280.66303  0.030774455  0.031083388           10 
  761000   0.94738223   -6.3569715    281.65898  0.030843077   0.03106554           15 
  762000   0.95074792   -6.3668439    282.40102  0.030883751  0.031047577            9 
  763000   0.94015975   -6.3955765    282.01033  0.030800604  0.031029698            5 
  764000   0.93738138   -6.3766044    282.15488  0.030776056  0.031011422            7 
  765000   0.95569583     -6.37046    281.51366  0.030665976  0.030993344            7 
  766000   0.93032798   -6.3580775    281.78302  0.030655246  0.030975062            5 
  767000   0.95372799   -6.3426445    282.45618  0.030688416  0.030956643           13 
  768000   0.94630344    -6.380282     281.9189  0.030590158  0.030938226           17 
  769000   0.97525831   -6.3533066    281.91509  0.030549966   0.03092004            6 
  770000   0.95596121   -6.3589478    282.87292  0.030613952  0.030901762           10 
  771000   0.95183386   -6.3792383    283.14605  0.030603767  0.030883479            5 
  772000   0.93578979   -6.3609006    283.99965  0.030656266  0.030865643           11 
  773000   0.96349638   -6.3566568    284.54265  0.030675145  0.030847871            7 
  774000   0.94157998   -6.3587159    283.88526  0.030564736  0.030830084            4 
  775000   0.92675317   -6.3759823    284.73628  0.030616805  0.030812306            6 
  776000   0.96062291   -6.3716554    284.80461  0.030584688  0.030794445           14 
  777000   0.96078146   -6.3732427     284.6671  0.030530576  0.030776557            4 
  778000    0.9358751    -6.387638    284.47098  0.030470328  0.030758365           31 
  779000   0.94174247   -6.3794318    285.38874  0.030529391  0.030740113           12 
  780000   0.96229505    -6.372843    285.45942  0.030497801  0.030722127           10 
  781000   0.94268371   -6.3568829    284.59732  0.030366764  0.030704119            8 
  782000   0.93043674   -6.3952682    285.00143  0.030370996  0.030685993            6 
  783000   0.94891396   -6.3905366    285.19519  0.030352829  0.030667809            6 
  784000   0.94825852   -6.4045766    286.09894  0.030410176  0.030649759           13 
  785000   0.94670102   -6.3670754     285.3637  0.030293386  0.030631566            6 
  786000   0.92516891   -6.3901155    286.22713  0.030346387  0.030613494            6 
  787000   0.91087337   -6.3729835    286.28799  0.030314273  0.030595115            9 
  788000     0.951272   -6.3909992    286.29162  0.030276186  0.030576744            7 
  789000   0.96015187   -6.3698597    286.18567  0.030226624   0.03055854            6 
  790000   0.97340365   -6.3776153    286.65625  0.030238001  0.030540337            8 
  791000   0.93311905   -6.4126132    286.98957   0.03023489  0.030522227            9 
  792000   0.90926228   -6.3838467    286.52454  0.030147784  0.030503965            9 
  793000   0.91791658   -6.4021286    287.38385  0.030200068  0.030485875            8 
  794000   0.93602393   -6.3864591    289.04589   0.03033647  0.030467753            7 
  795000   0.93498508   -6.3902271    288.44883  0.030235727  0.030449689            6 
  796000   0.94409351   -6.4198469    287.71926  0.030121363  0.030431603            6 
  797000   0.94436717   -6.3850467    288.43679  0.030158594  0.030413514            7 
  798000   0.93816217   -6.4183507    287.89746   0.03006448  0.030395506           10 
  799000   0.94321195   -6.4144194    288.45177  0.030084665  0.030377427            7 
  800000    0.9244486   -6.4003605     289.1106  0.030115687  0.030359415            3 
  801000   0.92192738   -6.3980234    289.47325  0.030115819   0.03034144           12 
  802000   0.94854827   -6.4068234    289.55063  0.030086308  0.030323353            8 
  803000    0.9306975   -6.3974809    290.53124  0.030150606  0.030305276            7 
  804000   0.94743623    -6.406958    289.94617  0.030052463   0.03028738            5 
  805000   0.95174549   -6.3821181    289.12385  0.029930005   0.03026908           10 
  806000   0.90680675   -6.3761981    290.40645  0.030025481  0.030250861            4 
  807000   0.95204909   -6.4060074    289.96148  0.029942325  0.030232581           19 
  808000   0.95463302   -6.3953892    289.94425  0.029903491  0.030214147           10 
  809000   0.94247365    -6.407233    289.71911  0.029843336  0.030195624            6 
  810000   0.93549254   -6.3982235    290.71423  0.029908871  0.030177089           10 
  811000   0.93140893   -6.4204953    290.93252  0.029894422  0.030158578            5 
  812000   0.93971698    -6.439529    291.00481  0.029865026  0.030140141            8 
  813000   0.94580305   -6.4003174    291.03431  0.029831316  0.030121467            8 
  814000   0.94581728   -6.4269006    290.37173  0.029726835   0.03010282           14 
  815000   0.94095846   -6.4023634    290.75595  0.029729647  0.030084024            6 
  816000   0.91618573   -6.4126768    291.37301  0.029756231  0.030065177           11 
  817000   0.92342461   -6.4219547    291.28757  0.029711095  0.030046487           16 
  818000   0.94723969   -6.4333793    291.88376  0.029735509  0.030027835            7 
  819000   0.93557811   -6.3825599    291.57352  0.029667635  0.030009028            5 
  820000   0.90917554   -6.4071739    291.82137  0.029656643  0.029990539            5 
  821000   0.92949211   -6.4133918    292.47437  0.029686802  0.029972038           18 
  822000   0.92302998   -6.4167256    292.39654  0.029642796  0.029953477            8 
  823000    0.9168917   -6.3741053    293.06375  0.029674337  0.029935022            9 
  824000   0.93227538   -6.3725027    292.70569  0.029602113  0.029916367            8 
  825000   0.92627221   -6.3968863    292.05199  0.029500201  0.029897741            4 
  826000   0.92479107   -6.4181484    292.63078  0.029522879  0.029878844            6 
  827000   0.92679462   -6.3974098    293.16786    0.0295413  0.029859726            7 
  828000   0.92051751   -6.3856946    293.25978  0.029514873    0.0298408            7 
  829000   0.94118774    -6.461021    292.61432  0.029414386  0.029821641            8 
  830000   0.93139385    -6.403106    293.16607  0.029434344  0.029802317            9 
  831000   0.91400476   -6.4222933    292.85136  0.029367365  0.029782818           12 
  832000   0.92832148   -6.4039683    293.05591  0.029352555  0.029763358            7 
  833000   0.92090442   -6.4200402    292.52767  0.029264472   0.02974389           12 
  834000   0.91293977   -6.4304512    293.33611  0.029310163  0.029724654            4 
  835000   0.93688532   -6.4130543    293.87257    0.0293286  0.029705421            3 
  836000   0.93279332   -6.3965637    294.28366  0.029334496  0.029686424            9 
  837000   0.92218974   -6.4237779    294.25316  0.029296412  0.029667537            6 
  838000    0.9192174   -6.4030333    294.79357  0.029315192  0.029648427            8 
  839000   0.93658909   -6.4545738    294.21982  0.029223263  0.029629415           17 
  840000   0.92349264    -6.397053    294.23962  0.029190439  0.029610178            7 
  841000    0.9305384   -6.4240098    295.59682  0.029290212  0.029590837            7 
  842000   0.91940684   -6.4113816    294.76229  0.029172831   0.02957136           11 
  843000   0.89381192   -6.4339681    294.68927  0.029131008  0.029551951           13 
  844000   0.92926288   -6.3973512    294.95293  0.029122525  0.029532364            7 
  845000   0.92576228    -6.433317    295.69891  0.029161628  0.029512757            8 
  846000   0.89980852   -6.3913987    295.19316   0.02907734    0.0294932           14 
  847000   0.91214185   -6.4042505    295.26924  0.029050496   0.02947367            9 
  848000   0.91311588   -6.4163548    296.24877  0.029112497  0.029454295            8 
  849000   0.90876026   -6.4240076    296.93735  0.029145794  0.029434979           28 
  850000   0.89115275   -6.4127562    296.38663  0.029057513  0.029415652            9 
  851000   0.89331338   -6.4349579    296.92801  0.029076381  0.029396336            4 
  852000   0.90429678   -6.4478301    296.23401  0.028974375  0.029377067            7 
  853000   0.90442635   -6.4350462    296.83055  0.028998686  0.029357827            5 
  854000   0.92055701   -6.4366152    296.96077  0.028977437  0.029338733           13 
  855000   0.90546644   -6.3983366    296.34959  0.028883976  0.029319512           12 
  856000   0.89877942   -6.4367619    297.16202  0.028929324  0.029300301            8 
  857000    0.9052441   -6.4676232    297.18707  0.028898004  0.029280892           14 
  858000   0.92436359   -6.4686489     296.9536  0.028841647  0.029261419            5 
  859000   0.87830109   -6.4460281       297.59   0.02886981  0.029241916            8 
  860000   0.90317464   -6.4358776    297.35832  0.028813791  0.029222436           11 
  861000    0.9065957     -6.44939    297.04277  0.028749784  0.029202921           12 
  862000   0.89902227   -6.4218026     297.7197  0.028781874  0.029183432            5 
  863000   0.91577953   -6.4444925    297.97754   0.02877342  0.029164034            7 
  864000   0.89934645   -6.4591728    298.25737  0.028767108   0.02914461            7 
  865000   0.91207424   -6.4313934      297.991  0.028708189  0.029125173           17 
  866000   0.92238083   -6.4258284    299.05986  0.028777893  0.029105771           10 
  867000   0.90933338   -6.4141755    299.04448  0.028743222  0.029086446            5 
  868000   0.89642234   -6.4053385    298.32442  0.028640977  0.029067239           15 
  869000   0.92723774    -6.450831    298.74143  0.028648008  0.029047873            8 
  870000   0.90616429   -6.4409922    299.17696  0.028656797  0.029028635            8 
  871000   0.90593392   -6.4502264    298.43022  0.028552452  0.029009338           12 
  872000   0.92337118    -6.441514    300.03506  0.028673075  0.028990049            3 
  873000   0.90220657   -6.4056798    299.88525   0.02862593  0.028970812            5 
  874000   0.88748778   -6.4677738    299.32804   0.02854005  0.028951275            4 
  875000    0.9114792   -6.4638086    299.14426  0.028489929   0.02893172            7 
  876000   0.90517632    -6.452475    299.80813   0.02852056  0.028911827            9 
  877000   0.92246254   -6.4484338    299.27109   0.02843701  0.028892355           13 
  878000   0.90647507   -6.4398644     299.9826  0.028472152  0.028872847            7 
  879000    0.9105044   -6.4272797    299.78526  0.028421052  0.028853059            8 
  880000   0.91632409   -6.4378752    300.27651  0.028435276  0.028833391           12 
  881000   0.89239146   -6.4672074    300.38105  0.028412888   0.02881378           22 
  882000   0.91392162    -6.471125     300.6249  0.028403713  0.028794145            8 
  883000   0.90369021   -6.4774425    299.72741  0.028286845  0.028774567            7 
  884000   0.90452361   -6.4423471    300.82669  0.028358473  0.028754883            5 
  885000   0.88471125   -6.4858301     300.0129  0.028249803  0.028735148           11 
  886000   0.90176523   -6.4846774    300.48277  0.028262112   0.02871533           11 
  887000   0.91517744   -6.4465387    300.94069   0.02827327  0.028695641            7 
  888000   0.89207934   -6.4584118    300.69445  0.028218323  0.028675994            6 
  889000   0.89300648   -6.4440234    301.05429  0.028220312  0.028656497           16 
  890000   0.89717524   -6.4444919    301.48377  0.028228817  0.028637074            6 
  891000   0.89304642   -6.4345472    302.45822  0.028288274  0.028617584            5 
  892000   0.89314239   -6.4553268    302.26382  0.028238399  0.028598047           12 
  893000   0.88347833   -6.4595978    302.06681  0.028188392  0.028578535            6 
  894000    0.8743324   -6.4682766     302.4314  0.028190846  0.028558984            9 
  895000   0.88967262   -6.4649558    302.89765  0.028202761  0.028539347            9 
  896000    0.8929397   -6.4894675    302.54951  0.028138905  0.028519771           17 
  897000   0.88202185   -6.4484244    302.81321  0.028132034  0.028500444           19 
  898000   0.90643157   -6.4819403     302.3827  0.028060756  0.028481075            6 
  899000   0.89870815   -6.4630136    304.24648  0.028202306  0.028461951            9 
  900000   0.89555838   -6.4596165     303.9425  0.028142824  0.028442994           19 
  901000   0.92601821   -6.4878731    303.86668  0.028104576  0.028424002           29 
  902000   0.89418776    -6.467673     304.5977  0.028140955  0.028404927           24 
  903000   0.90134114   -6.4639953    304.29485  0.028081843  0.028385818            6 
  904000    0.8894189   -6.4638396    304.84906  0.028101868  0.028366914           10 
  905000   0.89909326   -6.4674403    304.46482  0.028035435  0.028347836           16 
  906000   0.88061918   -6.4736445    304.13977  0.027974593  0.028328671           19 
  907000   0.88397933   -6.4820793    304.27483  0.027956159  0.028309457           13 
  908000   0.90143252   -6.4400665    304.36409  0.027933562  0.028290318           24 
  909000   0.90882532   -6.4636651    304.72248  0.027935688  0.028271195            6 
  910000   0.89010579   -6.4713266    305.51357  0.027977433  0.028252313            8 
  911000   0.90856372   -6.4554708     306.2046  0.028009934  0.028233646            4 
  912000   0.86851722   -6.4778083    306.73924  0.028028074  0.028215014            9 
  913000   0.90102035   -6.4417654    306.63067  0.027987465  0.028196482           12 
  914000   0.90622807   -6.4851129    306.86821  0.027978502  0.028177982           15 
  915000   0.89110378   -6.4720745    306.87917  0.027948922   0.02815951           17 
  916000   0.87878219   -6.4371745    307.15073  0.027943116  0.028141051            7 
  917000   0.91289438   -6.4674945    306.84075  0.027884474  0.028122603           12 
  918000   0.89473271    -6.487013    306.83567  0.027853638  0.028104196           15 
  919000   0.88626278   -6.4792074    308.04123  0.027932646  0.028085869            8 
  920000   0.89780188   -6.4758475    306.64527   0.02777584  0.028067243            7 
  921000   0.85988931   -6.5129252    306.42267   0.02772554  0.028048527           12 
  922000   0.88793539   -6.4900026    307.80573  0.027820474  0.028029991           15 
  923000   0.88087169   -6.4806908    308.44888    0.0278484  0.028011654            9 
  924000   0.87915675   -6.4853879    308.78051   0.02784817  0.027993392            8 
  925000   0.90108162   -6.4949377    308.35723  0.027779931  0.027975221           11 
  926000   0.89267288   -6.4836697    308.40364  0.027754107    0.0279569           15 
  927000   0.89255562   -6.4948069    308.88454  0.027767399  0.027938684           14 
  928000   0.88690649   -6.4763907    308.20881  0.027676796  0.027920471            8 
  929000   0.86814148   -6.4625346    309.04444  0.027721962  0.027902216            7 
  930000   0.85771241   -6.5206587    308.48122  0.027641686  0.027883898           19 
  931000   0.87606562   -6.5067418    309.17807  0.027674371  0.027865685           11 
  932000   0.88554538   -6.4643653      310.093  0.027726484  0.027847748           15 
  933000   0.88634408     -6.48881    310.41457  0.027725489  0.027829917            5 
  934000   0.88738775   -6.4454844    310.41774  0.027696087  0.027812179            5 
  935000   0.86824212   -6.5191672    309.92445    0.0276225  0.027794101            8 
  936000   0.87624034   -6.4549126    309.75333  0.027577754  0.027775835           15 
  937000   0.86706828   -6.4921165    310.12529  0.027581403  0.027757606            7 
  938000   0.88462579   -6.5004958     310.3946  0.027575924  0.027739301           12 
  939000   0.87908991   -6.5000163    310.58632  0.027563571  0.027721088           11 
  940000   0.86806664   -6.4726733    311.31712  0.027599036  0.027702923            6 
  941000   0.88031231   -6.5029218    311.30719  0.027568827  0.027684675            6 
  942000    0.9070121   -6.4760007    310.86507  0.027500448  0.027666545            9 
  943000   0.87564005   -6.4727233    311.41121  0.027519549  0.027648452           15 
  944000   0.87463599   -6.4626421    311.46237  0.027494912  0.027630513            9 
  945000   0.87154056   -6.4970001    311.49147  0.027468383  0.027612499           14 
  946000   0.87129577   -6.5031123    311.17748  0.027411688  0.027594381            9 
  947000   0.86101016    -6.496704    311.91789  0.027447896  0.027576256            9 
  948000    0.8938366   -6.4922363    312.16708  0.027440847  0.027558152            7 
  949000   0.88138389   -6.4934523    311.70509  0.027371364  0.027539983            6 
  950000   0.86756357   -6.4948272    311.78427  0.027349498  0.027521784            8 
  951000   0.86613724   -6.5295594    312.73994  0.027404481  0.027503505            5 
  952000    0.8704285   -6.5173901    311.77737  0.027291437   0.02748522            7 
  953000   0.87230377   -6.5185158    312.57323  0.027332392  0.027467012           11 
  954000   0.87836952   -6.5267075    312.83546  0.027326647  0.027448888           12 
  955000   0.87213287   -6.5188318    312.73961  0.027289669  0.027430786           42 
  956000    0.8596165   -6.5387342    312.83984   0.02726986  0.027412729           15 
  957000   0.90236259   -6.4711717    312.82807   0.02724034  0.027394808           20 
  958000   0.89221361   -6.5055967    313.85905  0.027301588  0.027377017           13 
  959000   0.85793157   -6.4965328      312.907  0.027190389  0.027359156            9 
  960000   0.89092199   -6.4986627    313.76815  0.027236818  0.027341286            8 
  961000   0.87000271   -6.5155528    313.58994  0.027193022  0.027323532           18 
  962000   0.84888048   -6.5283803    314.29446  0.027225785  0.027305808           16 
  963000    0.8667719   -6.5338803    313.92871  0.027165863   0.02728812           12 
  964000   0.87172632   -6.5354545    314.60232  0.027195912  0.027270662            8 
  965000   0.87361681   -6.5162213    315.65405  0.027258554  0.027253069            9 
  966000   0.86290617   -6.5267201    316.10065  0.027268862  0.027235462           21 
  967000   0.86861763   -6.5032966    315.01979  0.027147517  0.027217804           18 
  968000   0.86588725   -6.5315223    314.69701  0.027091685  0.027200149           18 
  969000   0.85380632   -6.5272476    315.72757  0.027152354  0.027182743            7 
  970000   0.87545664   -6.5062914    315.73758  0.027125221  0.027165424           15 
  971000    0.8591604   -6.5305071    315.99614  0.027119477  0.027147887           12 
  972000   0.85111038   -6.5085147    316.21956  0.027110731  0.027130357            6 
  973000   0.86146415   -6.5569002    316.01633  0.027065462  0.027112866            8 
  974000   0.85217441   -6.4908242    316.35127   0.02706633  0.027095493            6 
  975000   0.85016365   -6.5325102    316.71776  0.027069894   0.02707811           12 
  976000   0.84467556   -6.5224167    317.29535  0.027091474  0.027060696            7 
  977000   0.86281694   -6.5025491    317.62713  0.027092044  0.027043575            8 
  978000   0.86316785   -6.4970884    316.37683  0.026957807  0.027026411            8 
  979000   0.85278338    -6.533973    317.30853  0.027009578  0.027009291           15 
  980000   0.86851249   -6.5270101    317.23097  0.026975423  0.026992155            8 
  981000    0.8703925   -6.5252123    317.40248  0.026962494  0.026975126           10 
  982000   0.84155836   -6.5255428     317.6664  0.026957434   0.02695808           22 
  983000   0.87240234    -6.519386    318.30305  0.026983982  0.026940925            7 
  984000   0.87473805   -6.5585864    317.93935  0.026925758  0.026923847            7 
  985000   0.86480214   -6.5280039    318.43944  0.026940731  0.026906714           20 
  986000   0.84944687   -6.5331267    318.28446  0.026900309  0.026889693           13 
  987000   0.87887233   -6.5320726    319.20081  0.026950423  0.026872824           29 
  988000   0.86587003   -6.5527051    319.37498  0.026937835  0.026855863            9 
  989000   0.83375523   -6.5218641    319.09722  0.026887194  0.026838972           16 
  990000   0.85256026   -6.5319207     320.0696  0.026941885  0.026822006           15 
  991000   0.86726888   -6.5730668    318.31989  0.026767565  0.026805124           12 
  992000   0.85669357   -6.5476168    319.31594  0.026824256  0.026788182           21 
  993000   0.86132954   -6.5295888    320.15263  0.026867458  0.026771415           10 
  994000   0.87283958   -6.5361025     319.5858  0.026792907  0.026754578           19 
  995000   0.86808566   -6.5010706    319.30808   0.02674272  0.026737707           11 
  996000   0.86581502   -6.5879641    320.11217  0.026783147  0.026720819           14 
  997000   0.85648874   -6.5865813    320.04178  0.026750399  0.026703797           12 
  998000    0.8675556    -6.565219     320.0499  0.026724273  0.026686888           34 
  999000   0.86019367   -6.5541449     321.3971  0.026809901  0.026670113           22 
 1000000   0.84418081   -6.5404194    320.91148  0.026742624  0.026653421           27 
 1001000   0.85972026   -6.5484347    320.41676  0.026674722  0.026636706           22 
 1002000   0.85189426   -6.5699333    321.74345  0.026758437  0.026619959           12 
 1003000   0.85656312   -6.5606993     321.1334  0.026681073  0.026603279           12 
 1004000   0.84370557   -6.5359601    320.61058  0.026611104  0.026586338            9 
 1005000   0.86975914   -6.5242944    321.52898  0.026660778  0.026569491            9 
 1006000   0.84608301   -6.5440102    321.91035  0.026665868   0.02655253           15 
 1007000   0.86295288   -6.5429395    321.63556  0.026616646  0.026535734           11 
 1008000   0.85712611   -6.5367931    322.19531  0.026636517  0.026519052           12 
 1009000   0.85713943   -6.5565346    322.11475  0.026603465  0.026502235           23 
 1010000   0.84429804   -6.5635016    321.94358  0.026563001  0.026485277           17 
 1011000   0.84289046    -6.536052    322.03667  0.026544401  0.026468284           22 
 1012000   0.83815704   -6.5323312    322.45154  0.026552333  0.026451411           10 
 1013000   0.83649389   -6.5709053    321.84154  0.026475941  0.026434648           16 
 1014000    0.8316174   -6.5642933    322.59904  0.026512084  0.026417862           17 
 1015000   0.83822951   -6.5358405    322.76073  0.026499239  0.026401138           14 
 1016000   0.84786496   -6.5462016    322.41297  0.026444633  0.026384368           18 
 1017000   0.84289571   -6.5664633    323.62441  0.026517896  0.026367693           21 
 1018000   0.83307626   -6.5631442     322.5626  0.026404928  0.026350952           25 
 1019000   0.86242232   -6.5551885    322.04414  0.026336616  0.026334215           10 
 1020000   0.83680523   -6.5747907    323.34271  0.026416888  0.026317437           35 
 1021000   0.84703483   -6.5693064    323.73662  0.026423165  0.026300597           15 
 1022000   0.84579063   -6.5436086    323.66517  0.026391485  0.026283695           11 
 1023000   0.84556438   -6.5520247    323.53603  0.026355167  0.026266938           11 
 1024000   0.84394741    -6.536044    323.44533  0.026322049  0.026250248            9 
 1025000   0.84125297   -6.5476631    323.39154  0.026291995  0.026233372           16 
 1026000   0.84696505   -6.5341899    324.55934   0.02636122  0.026216754           10 
 1027000   0.83357968   -6.5409752    324.19319  0.026305842  0.026200123            9 
 1028000   0.84375658    -6.540303     324.3696  0.026294553  0.026183612           11 
 1029000   0.83940495   -6.5055658    324.83586  0.026306759  0.026167117           14 
 1030000   0.84141466   -6.5523694     323.6395  0.026184425  0.026150452           11 
 1031000    0.8348197   -6.5791813    324.55071  0.026232679  0.026133697           29 
 1032000     0.839934   -6.5522695     324.9642  0.026240649  0.026116931           17 
 1033000   0.83379268    -6.575249    324.83306  0.026204668  0.026100064           27 
 1034000   0.84427081   -6.5644327    324.39499  0.026144019  0.026083199           13 
 1035000   0.84101103   -6.5645064    323.95338  0.026083203  0.026066447           30 
 1036000   0.84869101   -6.5604333     324.4281  0.026096211  0.026049606            6 
 1037000   0.83957108   -6.5697497    323.26105  0.025977262  0.026032782            9 
 1038000   0.82512167   -6.5483684    324.98367  0.026090533  0.026016001           10 
 1039000   0.83483462   -6.5623419    325.32343  0.026092671  0.025999218           10 
 1040000   0.82575451   -6.5668509    324.62181  0.026011363  0.025982507           13 
 1041000    0.8416559   -6.5817474    325.05985  0.026021441   0.02596559           12 
 1042000   0.84877949   -6.5895784    325.30797  0.026016313  0.025948547           18 
 1043000   0.83658962   -6.6097068    325.14926  0.025978688  0.025931544           13 
 1044000   0.84489946    -6.555925    325.48249  0.025980403  0.025914692           14 
 1045000   0.81133671   -6.6059797    325.73516   0.02597569  0.025897717           19 
 1046000   0.83537014   -6.6018193    324.71385  0.025869491  0.025880618           19 
 1047000   0.84347705    -6.560584    325.87393  0.025937117  0.025863571           24 
 1048000   0.86263433   -6.5819393    325.37198  0.025872454  0.025846581           25 
 1049000   0.84034784   -6.5766903    325.45204   0.02585415   0.02582971           13 
 1050000   0.83262498   -6.5881329     325.6408  0.025844508  0.025812863           17 
 1051000   0.83466618   -6.5791312    325.84328  0.025835972  0.025795855            9 
 1052000   0.81931393   -6.5865814    326.17756  0.025837893   0.02577888           12 
 1053000    0.8168316   -6.5557632      326.247  0.025818851  0.025762021           36 
 1054000   0.80984612   -6.5483526    326.11442  0.025783872   0.02574531            7 
 1055000   0.82197727   -6.5910983    327.08536  0.025836126  0.025728546           35 
 1056000   0.81564422   -6.5699294    326.43278  0.025760163  0.025711702           11 
 1057000   0.83497767   -6.5776425    326.95457   0.02577693  0.025694747           39 
 1058000   0.83120169   -6.5791071    326.86902  0.025745827  0.025677919           24 
 1059000   0.80913915   -6.6005259     327.4002  0.025763315  0.025661072            7 
 1060000   0.82037707   -6.5885145    327.22818  0.025725486  0.025644212            8 
 1061000   0.82949792   -6.5720715    327.26878  0.025704428  0.025627497           11 
 1062000   0.82296035   -6.5824654    326.80624   0.02564393  0.025610802           28 
 1063000   0.82708918   -6.5702088    327.59366  0.025681535   0.02559408           17 
 1064000   0.82673099   -6.5887258    327.36458  0.025639457  0.025577157           27 
 1065000   0.83644857     -6.57578    327.91156  0.025658182  0.025560288           20 
 1066000   0.83468773   -6.5822143     328.1975  0.025656465   0.02554352           24 
 1067000    0.8285367   -6.6357695    327.41873  0.025571597  0.025526632           19 
 1068000    0.8358324   -6.5941422    328.51238  0.025632988  0.025509708           18 
 1069000   0.82114905   -6.6010058    328.52403  0.025609918  0.025493095           11 
 1070000   0.83060566   -6.6098764    328.59065  0.025591172  0.025476314           14 
 1071000   0.83644824     -6.59151     328.4548  0.025556707   0.02545958            8 
 1072000   0.83352738   -6.5646982    328.91235  0.025568435  0.025442884           12 
 1073000   0.82877819   -6.6163798    328.96405  0.025548622  0.025426284           12 
 1074000   0.83388393   -6.5787346    328.99161  0.025526971  0.025409661           11 
 1075000   0.82569722   -6.5792383    328.97812  0.025502179  0.025393068           12 
 1076000   0.81741515   -6.6033103    329.62678  0.025528716  0.025376499           13 
 1077000   0.82536061   -6.5767666    329.91673  0.025527447  0.025360036           12 
 1078000   0.83065261   -6.6356385    329.96253  0.025507307  0.025343541           11 
 1079000   0.81375829   -6.6101011    329.85202  0.025475133  0.025327001           38 
 1080000    0.8179121   -6.5777069    330.61797  0.025510646  0.025310615           12 
 1081000   0.82721456   -6.5918818     330.0683  0.025444673   0.02529428           15 
 1082000   0.83163276   -6.5872336    329.51637  0.025378648  0.025277878           15 
 1083000   0.82184494   -6.5980322    330.24742  0.025411467  0.025261412           21 
 1084000   0.81978881   -6.6199931    330.11376  0.025377749  0.025244961           19 
 1085000   0.81247664   -6.6265488    330.32446  0.025370542  0.025228509           13 
 1086000   0.82000255   -6.6241807    330.60462  0.025368678  0.025212005           19 
 1087000   0.82275003   -6.6128882    330.48692  0.025336317   0.02519546           19 
 1088000   0.82145182   -6.6011003    330.70025   0.02532937  0.025178965           20 
 1089000   0.82549317   -6.6208306    330.67477   0.02530416  0.025162392           22 
 1090000   0.80512154   -6.6267923    330.17471  0.025242715  0.025145693            8 
 1091000   0.81651653   -6.6254711    330.06693  0.025211345  0.025129027           10 
 1092000   0.80594783   -6.6201397    331.52558  0.025299571  0.025112368           19 
 1093000   0.80381962   -6.6084205    331.37894  0.025265244  0.025095709           16 
 1094000   0.83784816   -6.6268072    331.69288  0.025266064  0.025079221           15 
 1095000   0.80962898   -6.6095891    330.91789   0.02518401  0.025062602            8 
 1096000   0.82181722   -6.5775468    330.95604  0.025163932  0.025046145            6 
 1097000   0.80540334   -6.6346862    331.49262  0.025181755   0.02502957           15 
 1098000   0.81290829   -6.6120609    330.90834  0.025114476   0.02501298           29 
 1099000   0.81652689   -6.6327185    330.52214   0.02506234   0.02499639           24 
 1100000   0.80165653   -6.6264511     331.5484  0.025117303  0.024979784           13 
 1101000   0.78914836   -6.6214037    331.93928  0.025124075   0.02496329            9 
 1102000   0.80930527   -6.6160699    331.97466  0.025103952  0.024946819           11 
 1103000   0.81677532   -6.6409576    332.09004  0.025089909  0.024930303           15 
 1104000   0.81236183   -6.6323742    332.06393  0.025065212  0.024913726           30 
 1105000    0.8240901   -6.6593799    332.52989  0.025077669  0.024897255           17 
 1106000   0.80700842   -6.6374624    332.37084   0.02504301  0.024880819           20 
 1107000   0.80359586    -6.621667    331.73937  0.024972852  0.024864307           28 
 1108000   0.79429262   -6.6067672    333.43571  0.025077896  0.024847823           17 
 1109000   0.80336801   -6.6476529    332.04492  0.024950776  0.024831268           17 
 1110000   0.80367088   -6.6146225    331.99156  0.024924291  0.024814693           21 
 1111000   0.79738905   -6.6561995    332.36588  0.024929934  0.024798143           10 
 1112000   0.82577647   -6.6324206    332.00465  0.024880444   0.02478158           18 
 1113000   0.82087053   -6.6326444    333.35848  0.024959455  0.024765045           36 
 1114000   0.81574017   -6.6259857     333.5144  0.024948713   0.02474872           45 
 1115000   0.80360498   -6.6424298    333.51016  0.024926021  0.024732349           72 
 1116000   0.80364316   -6.6412747     332.9871  0.024864628  0.024715854           49 
 1117000   0.79768637   -6.6374703    332.51291  0.024806991  0.024699431           52 
 1118000   0.82277675   -6.6226871    333.26976  0.024841216  0.024683025           48 
 1119000    0.7992224   -6.6406139    333.61726  0.024844896  0.024666589           31 
 1120000   0.80902644   -6.6502661    333.38911  0.024805738  0.024650147           20 
 1121000   0.78857319   -6.6584049    333.57608  0.024797508  0.024633769            9 
 1122000   0.79940937   -6.6687181    332.94123  0.024728256  0.024617334            8 
 1123000   0.81031077   -6.6368505    334.08899  0.024791406  0.024600956           20 
 1124000   0.81041936   -6.6345103    333.66379  0.024737826  0.024584642           11 
 1125000   0.80220615   -6.6152097     333.0828    0.0246728  0.024568215           18 
 1126000   0.79673841    -6.645867    333.91296  0.024712327   0.02455192           39 
 1127000   0.81406745   -6.6369549    334.43796  0.024729219   0.02453568           13 
 1128000   0.81686138   -6.6514723    334.45247  0.024708368  0.024519524           17 
 1129000   0.81619974    -6.640095    334.80175  0.024712264  0.024503363           14 
 1130000   0.78320583   -6.6337233    334.95421  0.024701638  0.024487194           14 
 1131000   0.80563027   -6.6619995    334.32693  0.024633579  0.024470977           26 
 1132000   0.79910773   -6.6514818    334.29997  0.024609833  0.024454765           20 
 1133000   0.79596417   -6.6669454    335.44866  0.024672599  0.024438582           15 
 1134000   0.78763924   -6.6272674    335.20534  0.024632962  0.024422426           13 
 1135000   0.78941936   -6.6571511    335.03698  0.024598898  0.024406217           45 
 1136000   0.79398645   -6.6443354    334.70669  0.024553014  0.024389996           30 
 1137000   0.80518099   -6.6536186    335.50086  0.024589626  0.024373879           46 
 1138000   0.81448443   -6.6583337    335.47812  0.024566353  0.024357677           32 
 1139000   0.80237434   -6.6461796    336.41213   0.02461312  0.024341717           29 
 1140000    0.8047904   -6.6644172    335.64125  0.024535179  0.024325601           40 
 1141000   0.79216141   -6.6447569    335.21173  0.024482306  0.024309545           12 
 1142000   0.78826541   -6.6264398    336.40654  0.024548055  0.024293479           13 
 1143000   0.79848243    -6.652666    336.15338  0.024508121  0.024277441           17 
 1144000    0.8065137   -6.6680903     336.3662    0.0245022  0.024261423           22 
 1145000   0.79522583   -6.6557442    336.15921  0.024465736  0.024245438           23 
 1146000   0.80587468   -6.6395099    336.81768  0.024492269  0.024229415           21 
 1147000   0.81441843   -6.6279009    336.60281  0.024455305  0.024213397           18 
 1148000   0.80213647   -6.6476071    336.11226  0.024398393  0.024197434           15 
 1149000   0.81107779   -6.6437634    336.65089  0.024416223  0.024181393           15 
 1150000   0.79229497   -6.6170272    336.24768  0.024365774  0.024165405           19 
 1151000   0.80252204     -6.63813    337.67848  0.024448196  0.024149414           27 
 1152000   0.77987181   -6.6541173    337.29969  0.024399572  0.024133464           19 
 1153000   0.78782562   -6.6654389    337.26327  0.024375779  0.024117528           19 
 1154000   0.80383886   -6.6763181    337.57814  0.024377393  0.024101625           18 
 1155000   0.79601773   -6.6874907    337.34979  0.024339811  0.024085565           12 
 1156000   0.79408771   -6.6789886     337.4302  0.024324553  0.024069564           14 
 1157000   0.80514149   -6.6863023    338.27473  0.024364357  0.024053709           15 
 1158000   0.78754468   -6.6699092    338.10657  0.024331215  0.024037762           13 
 1159000   0.76988226   -6.6414807    338.34713  0.024327519  0.024021879           18 
 1160000   0.79042021   -6.6656354    337.75204  0.024263796  0.024006117           13 
 1161000   0.79320515   -6.6323955     338.3527  0.024286011  0.023990357           17 
 1162000   0.80726825   -6.6637073    338.40388  0.024268781  0.023974717           48 
 1163000   0.78825907    -6.692472    337.73921  0.024200287  0.023958901           56 
 1164000   0.80294162   -6.6593412    338.63147  0.024243376  0.023943073           31 
 1165000   0.78674141   -6.7024618    338.26315  0.024196219   0.02392726           44 
 1166000   0.78384471   -6.6778359    338.52958  0.024194509  0.023911411           65 
 1167000   0.79854245    -6.681581    337.72307  0.024116186  0.023895594          100 
 1168000   0.79973072   -6.6728818     337.7719  0.024099022  0.023879825           29 
 1169000   0.79662415   -6.7001528    338.32414  0.024117774  0.023864142           36 
 1170000   0.78564801   -6.6482048    338.87653  0.024136505  0.023848542           21 
 1171000   0.77298451    -6.665254    339.37552  0.024151403  0.023833027           29 
 1172000   0.75730339   -6.6888375    339.50767  0.024140193  0.023817488           50 
 1173000   0.77700444   -6.6819264    339.31003  0.024105572  0.023802037           15 
 1174000   0.78927894   -6.6995351     339.6543  0.024109476  0.023786609           29 
 1175000   0.79718963    -6.676354    340.01772  0.024114732  0.023771145           30 
 1176000   0.78311815   -6.6624128    339.84558  0.024082028  0.023755814            9 
 1177000   0.79744342   -6.6583855    339.86953  0.024063263  0.023740518           16 
 1178000   0.79438181   -6.6852993    340.77596  0.024106958  0.023725273           12 
 1179000   0.78983103   -6.6799639     340.6648  0.024078655  0.023710008           18 
 1180000   0.78529689   -6.6627666    340.37033  0.024037452  0.023694767           13 
 1181000   0.78704881   -6.6727726    341.07352  0.024066717  0.023679536           42 
 1182000   0.79715639   -6.6979788    340.39104   0.02399824   0.02366434           57 
 1183000   0.79234364   -6.7044133    341.31549  0.024043075  0.023649092           26 
 1184000   0.80882051   -6.6907235    340.90607  0.023993952  0.023633777           36 
 1185000   0.78007224    -6.683116    341.56035  0.024019715   0.02361858           34 
 1186000   0.78906725   -6.6875592    342.08406  0.024036261  0.023603467           46 
 1187000   0.77084304   -6.7006529    341.27605  0.023959284  0.023588377           19 
 1188000   0.77764832   -6.6708383    342.72285  0.024040604  0.023573273           22 
 1189000   0.76421489   -6.6955329    342.17313  0.023981856  0.023558159           11 
 1190000   0.78344873   -6.6778752    342.05369  0.023953339  0.023543071           26 
 1191000   0.77717075   -6.6582227    341.91079  0.023923229  0.023528013           55 
 1192000   0.77968188   -6.6712883    342.54803  0.023947709  0.023512951           18 
 1193000   0.78150523    -6.677663    341.95515  0.023886222  0.023498031           26 
 1194000   0.77717506   -6.6864752    342.08403  0.023875212  0.023483045           16 
 1195000   0.79010265   -6.6979313    342.92398  0.023913806  0.023468099           21 
 1196000   0.77277287   -6.6859985    341.72815   0.02381049  0.023453041           12 
 1197000   0.76356813   -6.6732252    343.18023   0.02389169  0.023438073           24 
 1198000   0.78059335   -6.6717806    343.32019  0.023881482  0.023423106           22 
 1199000   0.76523837   -6.7060508    343.01362  0.023840257   0.02340819           35 
 1200000   0.77710257   -6.7218309    342.69525  0.023798281  0.023393202           34 
 1201000   0.75375203   -6.6857433    343.41707  0.023828551  0.023378204           17 
 1202000   0.77646437   -6.7088164    343.25993  0.023797832  0.023363274           17 
 1203000   0.76768262   -6.6883773    342.73716  0.023741837  0.023348304           13 
 1204000   0.76894491   -6.6970366     343.4504  0.023771484  0.023333316           25 
 1205000    0.7709353   -6.6970561    343.70429  0.023769314  0.023318252           22 
 1206000   0.78359393   -6.6810932    342.40773  0.023660015  0.023303028           22 
 1207000   0.78199198   -6.6802011    342.77043  0.023665453  0.023287879           46 
 1208000   0.76514115   -6.7142359    342.43025  0.023622396  0.023272674           41 
 1209000   0.76407546   -6.7389382    342.70821  0.023622016  0.023257412           61 
 1210000   0.75142985   -6.6888914    342.72485   0.02360364  0.023242099           68 
 1211000   0.77145594   -6.7062602    343.14723  0.023613214  0.023226805           19 
 1212000    0.7753672   -6.6845291    342.80653  0.023570306  0.023211687           21 
 1213000   0.75764138   -6.7175934    343.17116  0.023575924  0.023196421           19 
 1214000   0.76056535    -6.712574    343.28238  0.023564139   0.02318123           22 
 1215000   0.77306847   -6.7108206    343.12681  0.023534075  0.023166049           33 
 1216000   0.78091747   -6.7138848    343.24595  0.023522886  0.023150915           20 
 1217000   0.77546591   -6.7180459    343.55723  0.023524872  0.023135777           19 
 1218000   0.77348063    -6.698289    343.06773  0.023472067   0.02312063           14 
 1219000   0.77837164   -6.7135325    344.36484  0.023541485  0.023105461           14 
 1220000   0.75818128   -6.7296765    342.61537  0.023402689  0.023090264           36 
 1221000   0.77305673   -6.7064595    342.84584  0.023399252  0.023074988           21 
 1222000   0.76889404   -6.7402023    343.41582  0.023418973  0.023059643           28 
 1223000   0.77087517   -6.7493931    342.99503  0.023371152   0.02304437           60 
 1224000   0.76801692   -6.7339704    343.38745  0.023378775  0.023029073           42 
 1225000   0.76360735   -6.7151224     343.7812  0.023386476  0.023013822           17 
 1226000   0.74731729   -6.7185578    343.26482  0.023332302  0.022998651           49 
 1227000   0.77096912   -6.7060802    343.72348  0.023344437  0.022983511           36 
 1228000    0.7466036   -6.7186015    344.09367  0.023350547  0.022968408           39 
 1229000   0.78070702    -6.733768    344.08922  0.023331246  0.022953321           25 
 1230000   0.76786427   -6.6990598    345.05629  0.023377798  0.022938256           36 
 1231000   0.75566227   -6.7144357    345.68058  0.023401068  0.022923239           26 
 1232000   0.75185007   -6.7138481    345.05908  0.023340035  0.022908332           26 
 1233000   0.76615712   -6.6853469    344.79413  0.023303199  0.022893364           59 
 1234000    0.7507951   -6.7468834    345.03267  0.023300424  0.022878376           39 
 1235000    0.7533278   -6.7224409    344.75089  0.023262543  0.022863291           40 
 1236000   0.77302454   -6.7090098    345.11298  0.023268135   0.02284826           22 
 1237000   0.75488174   -6.7337815    344.86208  0.023232422  0.022833291           26 
 1238000   0.75085513   -6.6959757    344.57035  0.023194019  0.022818238           16 
 1239000   0.76027679   -6.7164953    345.02952  0.023206183  0.022803147           25 
 1240000   0.76681776   -6.7095826    346.06583  0.023257112  0.022788144           21 
 1241000   0.74944806   -6.7198369    344.45481  0.023130191  0.022773109           32 
 1242000   0.75410106    -6.731156    345.25035  0.023164946  0.022758017          105 
 1243000   0.74491798   -6.7475724    344.65071  0.023106108  0.022742934           81 
 1244000   0.75579107   -6.7434262    345.64041  0.023153832  0.022727942           36 
 1245000   0.72893976   -6.7586675    345.47155  0.023123932   0.02271298           62 
 1246000   0.75184294   -6.7401548    345.63354  0.023116208  0.022697938           53 
 1247000   0.77631148   -6.7449023    345.60084  0.023095485   0.02268288          149 
 1248000   0.74899509   -6.7496139    345.65052  0.023080296  0.022667742          129 
 1249000   0.75129789    -6.747844    345.03956  0.023021054  0.022652625          144 
 1250000   0.74312955    -6.745781    345.16601  0.023011067  0.022637498          173 
 1251000   0.74568655   -6.7177666    345.34919  0.023004876  0.022622383          164 
 1252000   0.76323559   -6.7636521    345.70726  0.023010334  0.022607288          105 
 1253000   0.74989012   -6.7721571    345.24568  0.022961272  0.022592173          239 
 1254000   0.75774542   -6.7440973    345.80903  0.022980398  0.022577031          196 
 1255000   0.73806839   -6.7718646    345.45451  0.022938546  0.022561963          231 
 1256000   0.75690174   -6.7806689    345.83012  0.022945204   0.02254691          294 
 1257000   0.73783727   -6.7771393    345.50806  0.022905599  0.022531793          269 
 1258000   0.74839328   -6.7621425    345.83558  0.022909087  0.022516687          318 
 1259000   0.76689302   -6.7464613    345.82047  0.022889891  0.022501522          278 
 1260000    0.7406521   -6.7593319    346.02616  0.022885328  0.022486425          325 
 1261000   0.72935639   -6.7814336    346.06192  0.022869543  0.022471256          223 
 1262000   0.74961023   -6.7957594    345.13496  0.022790211  0.022456042          251 
 1263000   0.73631359   -6.7729544    345.70806   0.02280998  0.022440855          307 
 1264000   0.73329187   -6.7716515    346.63227  0.022852866  0.022425738          331 
 1265000   0.74848896   -6.7945348    346.12398  0.022801316   0.02241063          338 
 1266000   0.76620497   -6.8011872    345.37742  0.022734164  0.022395459          458 
 1267000   0.74959114   -6.7932162    345.44755  0.022720833  0.022380203          367 
 1268000   0.73160544   -6.8106287    345.52904   0.02270827  0.022364919          417 
 1269000    0.7446244   -6.7875585    345.12687  0.022663966  0.022349604          516 
 1270000   0.76230824   -6.8058329    345.32966  0.022659427  0.022334253          633 
 1271000   0.74487215   -6.8256103    344.84744  0.022609981  0.022318764          698 
 1272000   0.74253299    -6.810461    345.76604  0.022652388  0.022303213          716 
 1273000   0.74115521   -6.8238335    345.82835  0.022638671  0.022287738          752 
 1274000   0.75597197   -6.8328833    344.88443  0.022559159  0.022272229          740 
 1275000   0.75490936   -6.8494447    344.38056  0.022508533  0.022256661          839 
 1276000    0.7480841   -6.8492043    344.95496  0.022528407   0.02224111          926 
 1277000   0.74752091   -6.8548015    345.80459  0.022566209  0.022225538          921 
 1278000   0.74701921   -6.8344544    345.33758    0.0225181  0.022210021         1079 
 1279000   0.75025257   -6.8511204    345.59531  0.022517286  0.022194476         1125 
 1280000   0.76239499    -6.833202    344.85841   0.02245172  0.022178878         1094 
 1281000   0.75788572   -6.8688713    344.55067  0.022414173  0.022163214         1329 
 1282000   0.72359203   -6.8728322    344.09013  0.022366753  0.022147478         1425 
 1283000   0.74220388   -6.8797907    344.23103  0.022358471  0.022131703         1404 
 1284000   0.74327746   -6.9205413    343.64042  0.022302727  0.022115824         1501 
 1285000    0.7437449   -6.9005076    344.72769  0.022355881  0.022099965         1676 
 1286000   0.72233651   -6.9252727    344.04854  0.022294488  0.022083997         1770 
 1287000   0.73171463    -6.955066    343.71346  0.022255469  0.022067963         1845 
 1288000   0.71115692   -6.9743703     343.4425  0.022220659  0.022051852         1969 
 1289000   0.73939712   -6.9759319    342.81012  0.022162537  0.022035609         2039 
 1290000    0.7160213   -6.9722438    342.52365  0.022126851  0.022019354         2181 
 1291000    0.7269351   -7.0131776    342.46569   0.02210597  0.022002984         2355 
 1292000   0.73314122    -7.000132        341.6  0.022033024  0.021986522         2366 
 1293000   0.74308626   -7.0219489    342.05464  0.022045285  0.021970023         2535 
 1294000   0.73553665   -7.0317719     340.8595  0.021951282  0.021953516         2592 
 1295000   0.73846107   -7.0537074    341.74363  0.021991224  0.021936895         2712 
 1296000   0.72752212   -7.0293018    341.75551   0.02197502  0.021920213         2781 
 1297000   0.71871977   -7.0288333    342.10964   0.02198083  0.021903575         2768 
 1298000   0.73704801    -7.035932    342.22414  0.021971247  0.021886949         2728 
 1299000   0.73583543   -7.0614627    341.36379   0.02189914  0.021870274         2781 
 1300000   0.72989007   -7.0492741    342.67962  0.021966642   0.02185356         2839 
 1301000   0.73949311   -7.0674002    340.84749  0.021832404  0.021836824         2878 
 1302000   0.72963777   -7.0850231    341.61245  0.021864596  0.021820091         2853 
 1303000   0.74227128    -7.078356    341.08345  0.021813984  0.021803291         2901 
 1304000   0.74217993    -7.094313    341.52902   0.02182573  0.021786471         2993 
 1305000   0.72358252   -7.0831805    341.07564  0.021780054  0.021769644         3029 
 1306000   0.73726572   -7.1066414    340.96953  0.021756606  0.021752774         3033 
 1307000   0.73659713   -7.0946099    340.67732  0.021721328  0.021735932         3083 
 1308000   0.73508978   -7.0911435    340.92358  0.021720411  0.021719007         3094 
 1309000   0.73407416   -7.1226194    340.78824  0.021695202  0.021702044         3162 
 1310000   0.72746478   -7.0861939    340.94606   0.02168868  0.021685084         3171 
 1311000   0.71902708   -7.1214426    340.23362  0.021626851  0.021668098         3244 
 1312000   0.73492355   -7.1321007    341.00529  0.021659381  0.021651113         3253 
 1313000   0.73551799   -7.1207219    340.41098  0.021605165  0.021634077         3216 
 1314000   0.72003179   -7.1181639    340.43678  0.021590359  0.021617047         3295 
 1315000   0.73729957   -7.1399018    339.70445  0.021527531  0.021599976         3438 
 1316000   0.72528337   -7.1168934     339.9298  0.021525443  0.021582848         3478 
 1317000   0.72024191     -7.16308    339.83667  0.021503206  0.021565664         3464 
 1318000    0.7372883   -7.1633899    340.28608  0.021515306  0.021548492         3450 
 1319000   0.72855891   -7.1770319    339.83981  0.021470799  0.021531261         3523 
 1320000   0.70985788   -7.1593745    340.05732  0.021468265   0.02151404         3437 
 1321000   0.74038125   -7.1577344    340.47415  0.021478309  0.021496807         3531 
 1322000   0.71401523   -7.1634622    339.48074  0.021399441  0.021479605         3529 
 1323000   0.74335503   -7.1700111    339.33821  0.021374289   0.02146238         3508 
 1324000   0.71762855    -7.173425    340.06518  0.021403901  0.021445134         3552 
 1325000   0.72162805   -7.1900708    339.63586  0.021360746  0.021427846         3570 
 1326000   0.72527551   -7.1814196     340.0507  0.021370708   0.02141055         3575 
 1327000   0.71524308   -7.1915269    339.14088  0.021297468  0.021393285         3556 
 1328000    0.7266078   -7.1684736    339.46025  0.021301471  0.021376058         3567 
 1329000    0.7289587   -7.1915974    340.33022  0.021339994  0.021358781         3554 
 1330000   0.72343822   -7.1865258    339.18876  0.021252428  0.021341516         3523 
 1331000   0.73311371   -7.1940581    340.17773   0.02129838   0.02132426         3565 
 1332000    0.7205189   -7.2259199    339.26597  0.021225348  0.021306955         3589 
 1333000   0.72941705   -7.1848586    339.03696  0.021195109  0.021289637         3603 
 1334000   0.72377911   -7.2200073    338.73196  0.021160167  0.021272282         3603 
 1335000   0.73346984   -7.2052761    338.37644  0.021122125  0.021254899         3614 
 1336000   0.71264309   -7.2063219    338.88688  0.021138154   0.02123755         3677 
 1337000   0.72456349   -7.2349343    339.28847  0.021147374  0.021220177         3647 
 1338000   0.72237654   -7.2459928    339.72285  0.021158623   0.02120283         3625 
 1339000   0.72756972   -7.2373406    339.12096  0.021105362  0.021185478         3681 
 1340000   0.72799311   -7.2308525    338.52686  0.021052665  0.021168116         3694 
 1341000   0.71178167   -7.2623925    339.06298  0.021070282  0.021150742         3716 
 1342000   0.71250408   -7.2432514    339.24707  0.021066013  0.021133369         3713 
 1343000   0.70496288   -7.2528501     338.2715  0.020989793  0.021115973         3729 
 1344000   0.72147603   -7.2338035    338.85551  0.021010386  0.021098587         3691 
 1345000   0.71691881   -7.2684477    339.05935  0.021007395  0.021081208         3727 
 1346000   0.72451075   -7.2205066    338.92664  0.020983571  0.021063825         3704 
 1347000   0.72911857   -7.2373507    338.57185  0.020946044  0.021046434         3688 
 1348000   0.71487006   -7.2262366    338.79437  0.020944261  0.021029085         3711 
 1349000   0.72345334   -7.2431675    338.92475   0.02093679  0.021011711         3687 
 1350000   0.71993343   -7.2298342    339.09406  0.020931732  0.020994379         3670 
 1351000   0.72013132   -7.2498034    338.38103  0.020872257  0.020977045         3686 
 1352000   0.70356351   -7.2531466    338.73249  0.020878482  0.020959701         3663 
 1353000   0.70868474   -7.2305288    339.20953  0.020892432  0.020942375         3699 
 1354000   0.72975225    -7.262152     338.8538  0.020855108  0.020925027         3710 
 1355000   0.72224615   -7.2432661    338.02645  0.020788835  0.020907624         3688 
 1356000   0.71513712   -7.2411005    338.16957  0.020782299  0.020890238         3724 
 1357000   0.71593635   -7.2515738    338.72684  0.020801206  0.020872856         3730 
 1358000   0.70715063   -7.2534518    338.59303  0.020777677  0.020855456         3734 
 1359000   0.73803417   -7.2540125     337.8884  0.020719181  0.020838062         3735 
 1360000   0.71391755    -7.242408     337.7555  0.020695802  0.020820685         3743 
 1361000   0.70130043   -7.2547748    338.16019  0.020705375  0.020803327         3713 
 1362000   0.70263838   -7.2626834    338.27413  0.020697144  0.020785974         3720 
 1363000   0.71465725     -7.25953    337.98305  0.020664163  0.020768614         3710 
 1364000    0.7084166   -7.2497269    338.10753  0.020656619  0.020751269         3725 
 1365000   0.71487159   -7.2522786    338.00212   0.02063505  0.020733911         3752 
 1366000   0.69960737   -7.2589628    338.22203   0.02063336  0.020716548         3746 
 1367000   0.70198542   -7.2476122     337.7132  0.020587247  0.020699189         3705 
 1368000   0.72008751   -7.2680866    338.17737  0.020600473  0.020681855         3730 
 1369000   0.70467701   -7.2591888     338.1486  0.020583674  0.020664502         3755 
 1370000   0.71898904   -7.2542537    337.71886   0.02054251  0.020647149         3739 
 1371000   0.69915635   -7.2650797    338.14962  0.020553709  0.020629822         3719 
 1372000   0.69538207   -7.2730729     338.2787  0.020546568   0.02061247         3693 
 1373000   0.69896009   -7.2616241    338.23289  0.020528823  0.020595144         3724 
 1374000   0.70083759   -7.2745947    338.15328  0.020509054  0.020577826         3685 
 1375000   0.70333749   -7.2906732    337.25038  0.020439417  0.020560511         3767 
 1376000   0.70159852   -7.2769092    338.60193  0.020506415  0.020543181         3720 
 1377000    0.6944057   -7.2721662    337.83439  0.020445073  0.020525876         3758 
 1378000   0.69373945   -7.2710034    337.73145  0.020424011  0.020508564         3785 
 1379000   0.71573952   -7.2824099    338.37999  0.020448392  0.020491276         3773 
 1380000   0.70200415   -7.2819829      338.336  0.020430918   0.02047398         3739 
 1381000   0.71133692   -7.2642339     338.5571  0.020429466  0.020456694         3748 
 1382000   0.71076249    -7.275827    337.42288  0.020346291  0.020439404         3761 
 1383000   0.69244655   -7.2668631    338.10656  0.020372774  0.020422105         3751 
 1384000   0.71024912   -7.2727675    337.69094  0.020333029  0.020404801         3778 
 1385000   0.70393648   -7.2652263    338.07944  0.020341723  0.020387515         3739 
 1386000   0.70615903   -7.2813474    337.83995  0.020312648   0.02037023         3756 
 1387000    0.7090706   -7.2968967    337.40182  0.020271679  0.020352967         3805 
 1388000   0.70972701   -7.2791009    337.67387  0.020273407  0.020335672         3791 
 1389000   0.70530049   -7.2714472    337.86001  0.020269979  0.020318431         3793 
 1390000   0.68996145   -7.2728137     337.8668  0.020255804  0.020301172         3799 
 1391000   0.69923845   -7.3009662    337.94623     0.020246  0.020283937         3792 
 1392000   0.68640393   -7.2860193    337.75973  0.020220291  0.020266674         3755 
 1393000   0.70452412   -7.2630717    338.23717  0.020234337  0.020249451         3790 
 1394000   0.69348497   -7.2663773    337.72773  0.020189367  0.020232228         3800 
 1395000   0.70009816   -7.2753527    337.54307  0.020163863  0.020215018         3781 
 1396000   0.69750606   -7.3054765    337.55982  0.020150419    0.0201978         3801 
 1397000   0.68605118   -7.2893611    337.41614  0.020127424  0.020180618         3782 
 1398000   0.68767669   -7.2873613    337.85731  0.020139325   0.02016343         3791 
 1399000   0.68169125   -7.2961737    337.24064  0.020088196  0.020146223         3747 
 1400000   0.69332639   -7.2858342    337.99033  0.020118472  0.020129059         3754 
 1401000   0.68725319   -7.2671557    337.30677  0.020063453  0.020111911         3754 
 1402000   0.66809018   -7.2826054    337.84591  0.020081188  0.020094749         3743 
 1403000   0.69475985   -7.2963037    338.03133  0.020077889  0.020077613         3768 
 1404000   0.68274851   -7.2873053    337.39661  0.020025914  0.020060491         3779 
 1405000    0.6972386     -7.27695    337.10426  0.019994322  0.020043347         3721 
 1406000   0.69922902   -7.2783975    337.22415  0.019987206  0.020026251         3733 
 1407000   0.69151394   -7.2908521    337.39786  0.019983289  0.020009134         3761 
 1408000   0.69010969   -7.2841035    338.21578  0.020017506  0.019992021         3760 
 1409000   0.70785563   -7.3353067    337.92738  0.019986242  0.019974927         3791 
 1410000   0.69887993   -7.3004767    337.34053  0.019937383  0.019957845         3771 
 1411000   0.70188994   -7.2796361     336.9394  0.019899563  0.019940763         3761 
 1412000   0.68844567   -7.2847738    337.94406  0.019944763   0.01992369         3742 
 1413000   0.68390997   -7.2972675    337.65512  0.019913607  0.019906616         3795 
 1414000   0.69095147   -7.3037135    337.21701  0.019873704  0.019889555         3754 
 1415000   0.68451439    -7.304415    337.27748   0.01986322  0.019872498         3758 
 1416000   0.69124228   -7.3041764    337.55214  0.019865357  0.019855451         3753 
 1417000    0.6853042   -7.3104842    337.23032  0.019832411  0.019838409         3782 
 1418000    0.6875946   -7.3117697    336.93606  0.019801132  0.019821371         3786 
 1419000   0.69063566   -7.3098467    338.01497  0.019850538  0.019804346         3799 
 1420000   0.69430959   -7.3106392    337.04773  0.019779796  0.019787336         3806 
 1421000   0.68339085   -7.2887988    337.32134  0.019781922  0.019770338         3772 
 1422000   0.69400314   -7.3239861     337.1395  0.019757354  0.019753343         3812 
 1423000   0.68698779   -7.3251262    337.59838  0.019770343  0.019736348         3807 
 1424000   0.67731915   -7.3082016     337.5308  0.019752505  0.019719373         3773 
 1425000   0.68184762   -7.3057376    337.48997  0.019736255  0.019702413         3789 
 1426000   0.67829648   -7.3410675    337.27027  0.019709576  0.019685451         3796 
 1427000    0.6664455   -7.2982239    337.64888  0.019717874  0.019668501         3778 
 1428000   0.69487556   -7.3226688    337.71992  0.019708212  0.019651544         3818 
 1429000    0.6662335   -7.3019211     337.6283  0.019689078  0.019634608         3824 
 1430000   0.68333315   -7.3101239    337.36994  0.019660253  0.019617671         3793 
 1431000   0.69029741   -7.3099077    337.06351  0.019628669  0.019600767         3765 
 1432000   0.69303897   -7.3109615    336.42646   0.01957789  0.019583866         3795 
 1433000   0.69408376   -7.3179193     336.1515  0.019548238  0.019566973         3822 
 1434000   0.69230723   -7.3210267    336.96213  0.019581714  0.019550082         3753 
 1435000   0.68296773   -7.3298406    336.86655  0.019562518    0.0195332         3800 
 1436000    0.6707404   -7.3213285    337.08737  0.019561709  0.019516349         3771 
 1437000   0.67496094   -7.3186663    336.91038  0.019537832  0.019499501         3789 
 1438000   0.67877789   -7.3145853    337.22811  0.019542658  0.019482677         3805 
 1439000   0.67790617   -7.3180934    337.04688  0.019518582  0.019465833         3789 
 1440000   0.67221847   -7.3165118    337.41943  0.019526588  0.019449017         3774 
 1441000   0.66208746      -7.3391    337.65375  0.019526587  0.019432211         3800 
 1442000   0.67291849   -7.3067947    336.80417  0.019463949    0.0194154         3780 
 1443000   0.68283579   -7.3319797    336.59161  0.019438185   0.01939862         3772 
 1444000   0.67652344   -7.3221739    337.55795  0.019480491  0.019381846         3753 
 1445000   0.69713776   -7.3429031    337.48994  0.019463088   0.01936509         3774 
 1446000   0.67991985   -7.3530196    337.05917  0.019424802  0.019348321         3766 
 1447000   0.68226861   -7.3313386    337.21509  0.019420357  0.019331571         3755 
 1448000   0.66425999   -7.3374884    337.30864   0.01941233  0.019314848         3784 
 1449000   0.66936488   -7.3347939     337.0442  0.019383724  0.019298124         3793 
 1450000   0.67360594   -7.3151001    336.18791  0.019321144  0.019281398         3776 
 1451000    0.6676125   -7.3300854    337.09067  0.019359676  0.019264683         3764 
 1452000   0.67415315   -7.3455668    336.92766  0.019336987  0.019248001         3777 
 1453000   0.67854347   -7.3365575    336.84714  0.019319061  0.019231303         3773 
 1454000   0.67223023    -7.334037    336.96928  0.019312774  0.019214616         3764 
 1455000   0.68696575   -7.3410638    336.66229  0.019281918  0.019197979         3757 
 1456000   0.66270092   -7.3323286    336.05437  0.019233881  0.019181326         3789 
 1457000   0.67494229   -7.3113643    337.34539   0.01929452  0.019164714         3740 
 1458000   0.67067154   -7.3479448    336.93239  0.019257681  0.019148094         3794 
 1459000   0.66927759   -7.3398792    336.17481  0.019201212  0.019131479         3797 
 1460000   0.67877995    -7.335043    336.85581   0.01922693   0.01911488         3788 
 1461000   0.67513097   -7.3548853    336.87824  0.019215049  0.019098285         3760 
 1462000   0.67204152   -7.3560222    336.51807  0.019181376  0.019081693         3762 
 1463000   0.66473307   -7.3470176    336.75025  0.019181491  0.019065122         3773 
 1464000   0.66107147   -7.3301867    337.43781  0.019207526  0.019048568         3785 
 1465000   0.66311163   -7.3522181    336.62516  0.019148189  0.019032005         3813 
 1466000   0.67540987   -7.3534896    336.52117  0.019129216  0.019015456         3804 
 1467000   0.67934122   -7.3363447    336.83889  0.019134225  0.018998922         3773 
 1468000   0.66626304   -7.3548742    336.61356  0.019108399  0.018982407         3767 
 1469000   0.66565206   -7.3557029    337.09218  0.019122543  0.018965881         3738 
 1470000   0.65641134   -7.3414617    336.86092  0.019096424  0.018949401         3756 
 1471000    0.6748467   -7.3699511    336.53186    0.0190648  0.018932903         3721 
 1472000   0.66897734    -7.346599    336.74998  0.019064197  0.018916412         3751 
 1473000   0.67692384    -7.361337    336.60477   0.01904304  0.018899953         3752 
 1474000   0.66875214   -7.3667374    336.11698  0.019002543  0.018883501         3734 
 1475000   0.65199341   -7.3346457    336.91076  0.019034506  0.018867051         3742 
 1476000    0.6513756   -7.3439259    335.91109   0.01896517  0.018850602         3748 
 1477000   0.65998654   -7.3351238    336.68136  0.018995789  0.018834182         3741 
 1478000   0.67048338   -7.3508705    336.29401  0.018961097  0.018817762         3732 
 1479000   0.65873232   -7.3724684    336.73266  0.018972992  0.018801353         3752 
 1480000   0.66291133   -7.3744354    336.36376  0.018939401  0.018784956         3774 
 1481000   0.66271488   -7.3693362    336.47048  0.018932617  0.018768584         3746 
 1482000   0.66657879   -7.3757307    336.33053  0.018911973  0.018752209         3772 
 1483000   0.64582916   -7.3565515    336.30132  0.018897579  0.018735854         3763 
 1484000   0.67029056   -7.3599737     336.3837  0.018889471  0.018719504         3745 
 1485000   0.65382849   -7.3121324    336.15342  0.018863828  0.018703178         3734 
 1486000   0.65705027   -7.3519608    336.55741   0.01887379  0.018686869         3778 
 1487000   0.64615884   -7.3762079     336.6541  0.018866515  0.018670553         3775 
 1488000   0.65464475   -7.3734137    336.00448  0.018817455  0.018654261         3761 
 1489000   0.66154368   -7.3876607    336.44764  0.018829619  0.018637966         3820 
 1490000   0.66221859   -7.3597507    336.08414  0.018796652  0.018621691         3764 
 1491000   0.65937226   -7.3494891    336.66035   0.01881625  0.018605453         3756 
 1492000   0.66331008   -7.3921817    336.10962  0.018772878  0.018589232         3744 
 1493000   0.64952028   -7.3579364    336.97894  0.018808826  0.018572995         3740 
 1494000   0.65897608   -7.3511506    335.93707  0.018738123  0.018556778         3746 
 1495000   0.65310668   -7.3736864    335.72609  0.018713829  0.018540568         3757 
 1496000   0.64484526   -7.3697696    335.62035   0.01869543  0.018524368         3781 
 1497000   0.65884344   -7.3774877    336.45555  0.018729434  0.018508184         3785 
 1498000   0.66742908   -7.3794309    336.07964  0.018696019  0.018492008         3781 
 1499000   0.65946383   -7.3683208    336.20787  0.018690675  0.018475835         3798 
 1500000    0.6588736   -7.4005447    335.86052  0.018658917  0.018459669         3749 
 1501000   0.67597612   -7.3777903    336.35073  0.018673703  0.018443513         3774 
 1502000   0.67915334   -7.3920931    336.00559  0.018642121  0.018427384         3747 
 1503000   0.65416304   -7.3780726    336.18913  0.018639894  0.018411261         3796 
 1504000   0.65372218   -7.3634557    336.13941  0.018624746  0.018395158         3738 
 1505000   0.65901048   -7.3800246     336.5236  0.018633643  0.018379052         3775 
 1506000   0.65841603   -7.3809788    335.44389  0.018561525  0.018362931         3776 
 1507000   0.65859615    -7.380608    336.46452  0.018605647  0.018346844         3753 
 1508000   0.65513798   -7.3724966    335.70168  0.018551154  0.018330788         3778 
 1509000   0.65505789   -7.3796041    336.53569  0.018584918  0.018314737         3736 
 1510000   0.64827018   -7.3674383    335.76094  0.018529853  0.018298688         3732 
 1511000   0.63721448   -7.3856739    335.66556   0.01851233  0.018282661         3738 
 1512000   0.65188313   -7.4118269    335.66071  0.018499819  0.018266637         3785 
 1513000   0.65191453   -7.4074524    335.62237   0.01848548  0.018250616         3738 
 1514000   0.64811407   -7.4024371    336.33971  0.018512754  0.018234624         3772 
 1515000   0.63958322   -7.3934158    336.46694  0.018507533  0.018218637         3775 
 1516000   0.65775245   -7.3813287    335.83174  0.018460408  0.018202671         3743 
 1517000   0.65704613   -7.3834933    335.85445  0.018449486  0.018186725         3768 
 1518000    0.6575298   -7.3966928    336.36142  0.018465164  0.018170784         3763 
 1519000   0.64991644   -7.3843442    335.51152  0.018406382  0.018154843         3772 
 1520000   0.64668004    -7.400947    335.95777  0.018418737  0.018138919         3768 
 1521000   0.64943317   -7.3920955    335.86475  0.018401531  0.018123011         3771 
 1522000   0.63508356    -7.406429    336.37648   0.01841746  0.018107119         3749 
 1523000   0.63984051   -7.3986307    336.11248  0.018390922  0.018091245         3788 
 1524000   0.64099457    -7.397008    335.65399  0.018353783  0.018075377         3813 
 1525000    0.6542459   -7.4108991    335.96962  0.018358996  0.018059488         3771 
 1526000   0.64780232   -7.4225654     335.7566  0.018335332  0.018043634         3819 
 1527000   0.64451305   -7.4074148    335.35704  0.018301519  0.018027785         3775 
 1528000   0.63868502   -7.4104497    336.03124  0.018326311  0.018011928         3786 
 1529000   0.63911086   -7.3973274    335.34994  0.018277193  0.017996109         3817 
 1530000   0.64483477   -7.3897751     335.6168  0.018279782  0.017980282         3810 
 1531000   0.64272215   -7.4089624    334.97059  0.018232668  0.017964475         3805 
 1532000   0.65493346   -7.4161737    335.37968   0.01824302  0.017948671         3793 
 1533000   0.63538375   -7.4261322     335.3149  0.018227598  0.017932864         3841 
 1534000   0.63588266    -7.418431    335.77981  0.018240972  0.017917079         3784 
 1535000   0.63143861   -7.4172424    335.36148  0.018206378   0.01790129         3794 
 1536000   0.63696577   -7.4228958    335.51297  0.018202744  0.017885542         3802 
 1537000   0.65031259   -7.4272726    335.11375  0.018169255  0.017869797         3833 
 1538000   0.64457199   -7.4014194    334.66288  0.018133012  0.017854058         3828 
 1539000    0.6533973   -7.4272153    335.23744  0.018152342  0.017838339         3836 
 1540000   0.63733204   -7.4155779    335.76632  0.018169173   0.01782265         3801 
 1541000   0.64204838   -7.4240367    335.88736  0.018163928  0.017806977         3782 
 1542000   0.62898915   -7.4098887    335.75872  0.018145197  0.017791317         3794 
 1543000   0.63377067   -7.4285366    335.01762  0.018093412  0.017775639         3784 
 1544000    0.6450918   -7.4278203    335.67074  0.018116944  0.017759997         3802 
 1545000   0.63258006   -7.4360823    335.22911  0.018081397  0.017744345         3778 
 1546000   0.63055894   -7.4384955    335.40078  0.018078955  0.017728685         3791 
 1547000   0.62722317   -7.4353209    334.97986  0.018044595  0.017713033         3769 
 1548000   0.64351747   -7.4498617    334.93395  0.018030467  0.017697377         3764 
 1549000   0.61421641   -7.4774838    335.61747  0.018055599  0.017681725         3816 
 1550000   0.64290554   -7.4497869    335.15612  0.018019146  0.017666104         3765 
 1551000   0.63378197   -7.4795476    334.76893  0.017986725   0.01765046         3761 
 1552000   0.61755172   -7.4686958    334.89725  0.017982026  0.017634818         3805 
 1553000   0.63662432   -7.4854212    334.52617  0.017950535  0.017619173         3807 
 1554000   0.64992171   -7.4988042    334.70638  0.017948648  0.017603563         3837 
 1555000   0.62357848   -7.4866616    334.58398  0.017930546  0.017587967         3822 
 1556000    0.6234048   -7.4711241    334.07983  0.017892022  0.017572361         3834 
 1557000   0.63009208   -7.4937744    334.82779  0.017920562  0.017556789         3828 
 1558000   0.63518833   -7.4851979    334.87497  0.017911584  0.017541214         3824 
 1559000   0.62878877   -7.4854403    334.99052  0.017906271  0.017525655         3867 
 1560000   0.63577562   -7.4866365    334.61552  0.017874761  0.017510088         3814 
 1561000    0.6294003   -7.4821456    334.87087  0.017876942  0.017494557         3836 
 1562000   0.63626394   -7.4751721    334.51282  0.017846394  0.017479031         3846 
 1563000   0.62908892   -7.5040826    334.51376  0.017835027  0.017463536         3798 
 1564000   0.62088606   -7.4955863    335.08469  0.017854044  0.017448058         3810 
 1565000   0.62700189   -7.4946733    334.91724  0.017833719  0.017432574         3851 
 1566000   0.62135253    -7.491976    334.40573  0.017795111  0.017417121         3827 
 1567000    0.6353366   -7.4869975    334.33421  0.017779952  0.017401662         3807 
 1568000   0.62292878   -7.4974341    334.92393  0.017799954  0.017386222         3823 
 1569000   0.61610433   -7.4895674    334.15252  0.017747637  0.017370787         3818 
 1570000    0.6191158   -7.5169433    334.17185  0.017737359  0.017355364         3832 
 1571000   0.62447632   -7.5005879    334.75802  0.017757162  0.017339966         3821 
 1572000   0.63709986    -7.502078    334.86797  0.017751695  0.017324593         3828 
 1573000   0.64072065   -7.5020066    334.62632  0.017727608  0.017309238         3833 
 1574000    0.6264968   -7.5055177      334.969  0.017734488  0.017293909         3845 
 1575000    0.6246526    -7.493088    334.37565  0.017691833  0.017278584         3841 
 1576000   0.61016444   -7.4943264     334.0286  0.017662257  0.017263268         3834 
 1577000   0.62788902   -7.5274225    334.14495  0.017657205  0.017247964         3836 
 1578000   0.60370999   -7.4927528    334.98738  0.017690504  0.017232681         3852 
 1579000   0.63364557   -7.4992038    334.57385  0.017657476  0.017217389         3853 
 1580000    0.6335843    -7.518224    334.17504  0.017625266  0.017202138         3857 
 1581000   0.62794232   -7.4932358    334.39301  0.017625607  0.017186893         3865 
 1582000   0.61498563   -7.5009786    334.62625  0.017626751  0.017171643         3848 
 1583000   0.62288676    -7.507867    334.45829  0.017606775  0.017156419         3838 
 1584000   0.61984291   -7.5257128    334.28666   0.01758663  0.017141213         3850 
 1585000   0.61768943   -7.4983852    334.96056  0.017610965  0.017126004         3849 
 1586000   0.63671896   -7.5172932    334.39529   0.01757016  0.017110809         3857 
 1587000   0.62540095   -7.5135229    333.95176  0.017535799  0.017095641         3869 
 1588000   0.62098188    -7.506518    334.27537  0.017541738  0.017080464         3892 
 1589000   0.62444407   -7.5184301    334.25156   0.01752945  0.017065298         3836 
 1590000   0.62015921   -7.5082544    334.20778  0.017516131   0.01705017         3832 
 1591000   0.62453291   -7.5059536    334.19323  0.017504359  0.017035049         3869 
 1592000   0.61698344     -7.52752    333.67297  0.017466131  0.017019931         3871 
 1593000    0.6292004   -7.5044576    333.97114  0.017470765  0.017004829         3866 
 1594000   0.62134077    -7.528218    334.20413  0.017471985   0.01698975         3857 
 1595000   0.60920455   -7.5020427    334.18459   0.01746001   0.01697467         3851 
 1596000   0.61798489   -7.5442949    334.32103  0.017456194  0.016959606         3875 
 1597000   0.60888428    -7.504979    334.09007  0.017433212  0.016944544         3872 
 1598000   0.62418174   -7.5115908     334.4281   0.01743993  0.016929504         3887 
 1599000   0.62752892   -7.5175288    333.99531  0.017406468   0.01691448         3899 
 1600000    0.6147553   -7.5507253    334.20444  0.017406481  0.016899469         3883 
 1601000   0.61599223    -7.514728    333.97942  0.017383897  0.016884474         3889 
 1602000   0.61688396   -7.5236048     333.4007  0.017342941  0.016869484         3898 
 1603000   0.61186034    -7.537983    334.58313  0.017393592   0.01685452         3858 
 1604000   0.60848803   -7.5208237    334.17346  0.017361464  0.016839565         3865 
 1605000   0.60663909   -7.5159837    334.07793  0.017345687  0.016824612         3876 
 1606000   0.61212877   -7.5292713    334.39999  0.017351598  0.016809684         3894 
 1607000   0.60977428   -7.5371833    333.94186  0.017317043  0.016794777         3900 
 1608000   0.61571628   -7.5530313    334.28819  0.017324222  0.016779885         3873 
 1609000   0.60309039   -7.5277154    333.56447  0.017275972  0.016765002         3890 
 1610000   0.61696696   -7.5321895    334.09972  0.017292946  0.016750144         3905 
 1611000   0.61175179   -7.5275562     334.3813  0.017296777  0.016735277         3905 
 1612000   0.60167152   -7.5247776    334.03076  0.017267926  0.016720446         3898 
 1613000   0.61487562   -7.5182936    333.93339   0.01725219  0.016705615         3888 
 1614000   0.61563994   -7.5367757    334.16256  0.017253334  0.016690792         3916 
 1615000   0.60815027   -7.5283188    333.40998  0.017203817   0.01667598         3892 
 1616000   0.62184632   -7.5196275    333.54163   0.01719996    0.0166612         3898 
 1617000   0.60694965   -7.5312269    334.20865  0.017223699  0.016646448         3879 
 1618000   0.61339385    -7.546722    334.33105  0.017219358  0.016631702         3874 
 1619000   0.59707842   -7.5180493    333.87986  0.017185498  0.016616959         3889 
 1620000   0.60197469   -7.5447403    333.46807  0.017153707  0.016602224         3891 
 1621000   0.60441973   -7.5556667    333.71191  0.017155661  0.016587504         3899 
 1622000   0.60316915    -7.548694    333.97946   0.01715883  0.016572794         3894 
 1623000   0.61330797   -7.5402436    333.68994  0.017133392  0.016558103         3915 
 1624000   0.60071204   -7.5585521    333.73488  0.017125148  0.016543433         3890 
 1625000   0.60050217   -7.5439438    333.58732  0.017107042   0.01652878         3911 
 1626000   0.60002522   -7.5452854    333.86271  0.017110635  0.016514139         3873 
 1627000   0.59169124   -7.5424635    333.98375  0.017106318  0.016499525         3893 
 1628000   0.58763461   -7.5511548    334.03675  0.017098523  0.016484919         3905 
 1629000   0.60061839   -7.5330293    333.26344  0.017048467  0.016470303         3903 
 1630000   0.59718435   -7.5424952    333.82224  0.017066577   0.01645573         3879 
 1631000   0.59858368   -7.5662328    333.82698  0.017056355  0.016441162         3884 
 1632000    0.6015377   -7.5543077    333.53017  0.017030748    0.0164266         3898 
 1633000      0.61016   -7.5395406    333.40706  0.017014037   0.01641205         3884 
 1634000   0.60148304   -7.5281881    333.21598  0.016993879  0.016397513         3907 
 1635000    0.5931322   -7.5404436    333.49899   0.01699791  0.016383005         3902 
 1636000   0.59962801   -7.5489796    333.50245  0.016987696  0.016368487         3913 
 1637000   0.59936222   -7.5501867    333.41911  0.016973076  0.016354003         3890 
 1638000   0.59509021   -7.5512207    333.67152  0.016975555  0.016339527         3918 
 1639000   0.60642704   -7.5442174    333.65222  0.016964217  0.016325074         3910 
 1640000   0.57720792   -7.5571344    333.09914  0.016925769  0.016310627         3904 
 1641000   0.60814478   -7.5554582    334.01369  0.016961897  0.016296191         3908 
 1642000   0.59331735   -7.5386178    333.51457  0.016926237  0.016281777         3901 
 1643000   0.58678876   -7.5494329     332.7731  0.016878327  0.016267376         3910 
 1644000   0.59519426   -7.5522129     333.4734  0.016903558  0.016252987         3887 
 1645000   0.60548445   -7.5588467    333.35609   0.01688734   0.01623862         3868 
 1646000   0.59167602   -7.5576217    333.64702  0.016891809  0.016224266         3900 
 1647000   0.59068657   -7.5510593    333.86215  0.016892438  0.016209917         3903 
 1648000   0.59566858   -7.5534691    333.14046  0.016845695   0.01619559         3907 
 1649000   0.60504524    -7.557466    333.53996  0.016855668  0.016181277         3879 
 1650000   0.59509855   -7.5607651    333.54109   0.01684551  0.016166987         3914 
 1651000   0.59655267    -7.543158    333.33292  0.016824799   0.01615271         3904 
 1652000   0.59833797   -7.5773664    333.43663  0.016819846  0.016138437         3888 
 1653000   0.59162044   -7.5473875    333.18578  0.016797025  0.016124191         3916 
 1654000   0.59928192   -7.5678248    333.26909  0.016791067  0.016109955         3888 
 1655000   0.59386565   -7.5602958    333.40914  0.016787973  0.016095724         3901 
 1656000    0.5966811   -7.5368235    333.31419  0.016773057  0.016081511         3899 
 1657000   0.59348918   -7.5515532    333.41464  0.016767986  0.016067316         3900 
 1658000   0.58791369    -7.551627     333.8196  0.016778227  0.016053131         3881 
 1659000   0.58807121   -7.5603073    333.10251  0.016732093  0.016038956         3893 
 1660000   0.58853972   -7.5766033    333.79974  0.016757015  0.016024806         3894 
 1661000   0.59803294   -7.5785607    333.69248  0.016741545  0.016010646         3893 
 1662000    0.5909603    -7.563286    333.40393  0.016717004  0.015996535         3894 
 1663000   0.58544264   -7.5838821    334.30614  0.016752162  0.015982414         3915 
 1664000   0.59137986   -7.5539533     333.0903  0.016681205  0.015968321         3914 
 1665000   0.57719766   -7.5588009    333.30517  0.016681941  0.015954234         3892 
 1666000   0.58609466   -7.5682504    333.57925  0.016685637  0.015940162         3890 
 1667000   0.60211749   -7.5550959    333.41799  0.016667566  0.015926109         3900 
 1668000   0.57924016   -7.5508521    333.72247  0.016672785  0.015912079         3906 
 1669000   0.58685441   -7.5655749    332.91744    0.0166226  0.015898054         3911 
 1670000   0.58889412   -7.5837728    333.62785  0.016648097  0.015884047         3912 
 1671000   0.58177795   -7.5820387     333.0967  0.016611645  0.015870049         3897 
 1672000   0.57312754   -7.5941146    333.34289   0.01661398  0.015856061         3907 
 1673000   0.57980981    -7.583515    333.31514  0.016602667  0.015842078         3912 
 1674000   0.59759884   -7.5792771    332.82577  0.016568387  0.015828134         3902 
 1675000   0.59089018   -7.5855169    333.59434  0.016596734  0.015814203         3899 
 1676000     0.589691   -7.5410874     333.1931   0.01656688  0.015800285         3895 
 1677000   0.59391825   -7.5527691    333.12511  0.016553623  0.015786375         3881 
 1678000   0.58677611   -7.5610786    333.34353  0.016554605  0.015772485         3893 
 1679000   0.56972052   -7.5768664    333.02314  0.016528844    0.0157586         3880 
 1680000   0.58664393   -7.5641708     333.0843  0.016522039  0.015744723         3899 
 1681000   0.58971594   -7.5748473    332.36827  0.016476714  0.015730866         3882 
 1682000   0.57823875   -7.5770653    333.55898  0.016525911  0.015717042         3883 
 1683000   0.58577386   -7.5629808    332.92833  0.016484865  0.015703213         3874 
 1684000   0.59064181     -7.56016    332.88504  0.016472934  0.015689402         3910 
 1685000   0.57276769   -7.5768643    333.18777  0.016478129  0.015675614         3873 
 1686000   0.58530023   -7.5607369    333.47463  0.016482534  0.015661839         3894 
 1687000   0.56163435   -7.5782773    332.99703  0.016449172  0.015648073         3873 
 1688000    0.5809696   -7.5630077    332.70268  0.016424896   0.01563432         3851 
 1689000   0.56859155   -7.5585065    333.66228  0.016462516   0.01562058         3893 
 1690000   0.57788508   -7.5727677     333.6427   0.01645181  0.015606856         3892 
 1691000   0.57997391   -7.5797475    332.88944   0.01640496  0.015593147         3904 
 1692000   0.56361266   -7.5792364     332.9027  0.016395917  0.015579447         3876 
 1693000   0.56643146   -7.5704059    333.29604  0.016405594  0.015565762         3900 
 1694000   0.57445002   -7.5929474    333.32874  0.016397517  0.015552075         3869 
 1695000   0.57968996   -7.5909618    333.23631  0.016383299  0.015538416         3886 
 1696000   0.57455877   -7.5867706    333.01785  0.016362905  0.015524776         3899 
 1697000   0.57751375   -7.6066847    332.96933   0.01635088  0.015511146         3879 
 1698000   0.56373581   -7.5857881    332.92681  0.016339164  0.015497521         3875 
 1699000   0.57541708   -7.5647928    332.76973  0.016321843  0.015483921         3899 
 1700000   0.56929402   -7.5617188    332.40738  0.016294479  0.015470338         3897 
 1701000   0.58211831   -7.5932932    333.22482  0.016324947  0.015456768         3876 
 1702000   0.57411867   -7.6023954    333.15135  0.016311758  0.015443209         3883 
 1703000   0.56697809   -7.5744556    332.81529  0.016285735  0.015429669         3904 
 1704000   0.56740096   -7.5839306     333.0918  0.016289701  0.015416141         3889 
 1705000   0.58875924   -7.6012041    333.33331  0.016291951  0.015402627         3903 
 1706000   0.56531074   -7.5810897    332.49452  0.016241428  0.015389121         3883 
 1707000   0.56081393   -7.5814761    333.00957  0.016257057  0.015375636         3877 
 1708000   0.56555606   -7.5845233    332.52044  0.016223675  0.015362155         3892 
 1709000   0.57425948   -7.5951264    332.86693  0.016231077  0.015348695         3905 
 1710000   0.58143647   -7.5987489    333.04556   0.01623029   0.01533526         3900 
 1711000   0.57485601   -7.5887747    332.84898  0.016211231  0.015321829         3902 
 1712000   0.58636593   -7.5994972    333.06876  0.016212459  0.015308401         3918 
 1713000   0.57593127   -7.5927345    333.22807  0.016210745  0.015295006         3904 
 1714000    0.5643296    -7.591157    333.12775  0.016196409  0.015281614         3913 
 1715000   0.57425536   -7.6022124    332.68521  0.016165462  0.015268231         3910 
 1716000   0.56642144   -7.5745735     332.8084  0.016162024  0.015254878         3897 
 1717000   0.56051805   -7.5791921    333.16136  0.016169742  0.015241522         3894 
 1718000   0.56549375   -7.5976393    332.91333  0.016148299  0.015228181         3898 
 1719000   0.55569276   -7.6015166    332.89341  0.016137939  0.015214861         3913 
 1720000    0.5617824   -7.6045613    332.45093  0.016107119  0.015201552         3911 
 1721000   0.55583477   -7.5731122    332.46733  0.016098554   0.01518824         3891 
 1722000   0.56186139   -7.5937675    332.63431  0.016097286  0.015174949         3880 
 1723000   0.55455429   -7.5885296     333.0525  0.016108169  0.015161686         3886 
 1724000   0.55306462   -7.5836168    332.92168  0.016092502  0.015148427         3891 
 1725000   0.56343817   -7.6010426    333.15005  0.016094205  0.015135187         3883 
 1726000   0.55659187   -7.6083958    333.22793  0.016088641  0.015121961         3897 
 1727000   0.56945516   -7.5899692    332.88467  0.016062761  0.015108739         3909 
 1728000    0.5557083   -7.5908309    333.23063   0.01607015  0.015095536         3905 
 1729000   0.56380171   -7.5954842     333.2598  0.016062262  0.015082348         3913 
 1730000   0.56355511   -7.5866822     332.6921  0.016025631  0.015069175         3906 
 1731000   0.55642282   -7.6189711    332.62874  0.016013323  0.015056005         3908 
 1732000   0.54630034   -7.5997759    332.31434   0.01598895  0.015042853         3912 
 1733000   0.56579084   -7.5968859    332.95002  0.016010292  0.015029716         3919 
 1734000   0.56754225   -7.5932158    332.61487  0.015984951  0.015016586         3910 
 1735000   0.58073165   -7.6215329    332.69832  0.015979746  0.015003477         3909 
 1736000   0.56269294   -7.6106542    332.52792  0.015962362  0.014990377         3925 
 1737000   0.55873114   -7.6326718    332.76856  0.015964717  0.014977275         3925 
 1738000   0.56403107   -7.6102704    332.26002  0.015931148  0.014964196         3946 
 1739000   0.55938412   -7.6300495    332.45312   0.01593124  0.014951113         3937 
 1740000   0.55008958   -7.6270969     332.5287  0.015925704  0.014938049         3931 
 1741000   0.56046595   -7.6191181    332.67479  0.015923549     0.014925         3918 
 1742000   0.55122847   -7.6320227    332.37548   0.01590009  0.014911942         3926 
 1743000   0.56032442   -7.6220956    332.00509  0.015873259  0.014898881         3939 
 1744000   0.55662654   -7.6442418    332.65075  0.015895009  0.014885839         3941 
 1745000   0.56470068   -7.6482393    331.91076  0.015850561  0.014872791         3927 
 1746000   0.54768044   -7.6437028    331.85856  0.015838992  0.014859749         3941 
 1747000     0.548765   -7.6404816    331.74962  0.015824729  0.014846733         3956 
 1748000   0.56006923   -7.6544606    332.04865  0.015829932    0.0148337         3955 
 1749000   0.55351997   -7.6667065    332.02495  0.015819752  0.014820688         3962 
 1750000   0.55880528   -7.6516113    332.35888  0.015826613  0.014807696         3950 
 1751000   0.55888873   -7.6435559    331.72437  0.015787377  0.014794707         3960 
 1752000   0.54951782   -7.6694366    332.42884  0.015811874  0.014781748         3959 
 1753000   0.56994132   -7.6614318    332.82681  0.015821773  0.014768791         3964 
 1754000   0.55576139   -7.6446814    331.99632  0.015773295   0.01475585         3964 
 1755000   0.54148098    -7.673968    332.11339  0.015769866  0.014742925         3943 
 1756000    0.5573188    -7.673093    331.79785  0.015745912  0.014730024         3959 
 1757000   0.55186948   -7.6510404    332.03106  0.015748011  0.014717131         3971 
 1758000   0.56162629   -7.6649692    332.20184  0.015747148  0.014704243         3967 
 1759000   0.54939997   -7.6610083    332.12105  0.015734368  0.014691373         3955 
 1760000   0.53379109   -7.6564222    332.04322  0.015721743  0.014678518         3961 
 1761000   0.54246317   -7.6705789    331.89087  0.015705606   0.01466568         3957 
 1762000   0.54608169   -7.6557973    331.38016  0.015672539  0.014652841         3956 
 1763000   0.55921006   -7.6619196    331.88744  0.015687627  0.014640024         3944 
 1764000   0.54636548   -7.6770921    331.47024  0.015659025  0.014627204         3955 
 1765000   0.54674767   -7.6821533    331.79316  0.015665399  0.014614395         3948 
 1766000   0.53796446   -7.6740475    331.99145  0.015665886  0.014601589         3955 
 1767000   0.54550903   -7.6748337    331.48671  0.015633216  0.014588793         3960 
 1768000   0.55384855    -7.671331    331.67567   0.01563328   0.01457602         3958 
 1769000   0.54515652   -7.6811332    331.93179  0.015636508   0.01456326         3956 
 1770000   0.55318797   -7.6608074    331.98354   0.01563011  0.014550514         3963 
 1771000   0.54403912   -7.6932738    331.63069  0.015604681  0.014537788         3956 
 1772000   0.53307922    -7.673442    331.65676  0.015597101  0.014525069         3972 
 1773000   0.53794096    -7.682731    331.32353  0.015572642  0.014512359         3966 
 1774000   0.54599686   -7.6951466    331.48673   0.01557153  0.014499666         3956 
 1775000   0.53782824   -7.6851927    331.12684  0.015545861  0.014486978         3974 
 1776000   0.54676213   -7.6829987    332.04971  0.015580411  0.014474315         3967 
 1777000   0.55555335   -7.6843607     331.2056  0.015532058  0.014461665         3968 
 1778000   0.55526223   -7.6899685     331.6009  0.015541849  0.014449023         3954 
 1779000   0.53049972    -7.705247    332.36072  0.015568705  0.014436398         3970 
 1780000   0.54931342   -7.6900425    331.23792  0.015507393  0.014423783         3978 
 1781000   0.53571901   -7.6749426     331.1434  0.015494264  0.014411185         3987 
 1782000    0.5437374   -7.6893976    331.21945  0.015489125  0.014398614         3975 
 1783000    0.5508914   -7.6886962    331.65944  0.015501002  0.014386048         3976 
 1784000   0.53928577   -7.6925888    330.87647   0.01545574  0.014373483         3977 
 1785000   0.54521384   -7.7022845    331.76548  0.015488585  0.014360933         3982 
 1786000   0.54260595    -7.678546    331.98777  0.015490284  0.014348401         3972 
 1787000   0.54663931   -7.6857782    331.61611  0.015464284  0.014335891         3972 
 1788000   0.53191966   -7.6913556    331.66308  0.015457824  0.014323383         3969 
 1789000   0.53989299   -7.6762834    331.44828  0.015439178   0.01431089         3977 
 1790000   0.54242312    -7.701547    331.49328  0.015432648  0.014298412         3976 
 1791000   0.54232867   -7.6869912    331.47746  0.015423295  0.014285944         3974 
 1792000   0.54212549   -7.6952144    331.64159  0.015422321  0.014273491         3982 
 1793000   0.53659245   -7.6795383    331.25895  0.015395935   0.01426106         3976 
 1794000   0.54218092   -7.6803597    331.14047   0.01538185  0.014248636         3974 
 1795000   0.53604416   -7.7129344    331.83842  0.015405683  0.014236221         3973 
 1796000   0.53588827    -7.701824    331.73012   0.01539208   0.01422383         3972 
 1797000   0.53506969    -7.687567     331.3252  0.015364738  0.014211441         3979 
 1798000   0.53520086   -7.6958254     331.5638  0.015367251   0.01419908         3961 
 1799000   0.53227086   -7.7069567    331.62306  0.015361454  0.014186727         3955 
 1800000    0.5422228   -7.7124805    331.35558  0.015340536  0.014174373         3977 
 1801000   0.52799105    -7.706224    331.42383  0.015335176  0.014162035         3982 
 1802000   0.53837122   -7.6906001    331.60706  0.015335139  0.014149715         3974 
 1803000   0.53706002   -7.7013894     331.3644  0.015315419  0.014137408         3972 
 1804000   0.54047846   -7.7031669    331.47817  0.015312185  0.014125108         3973 
 1805000   0.53969414   -7.6866089    331.03542   0.01528326  0.014112827         3971 
 1806000   0.53399767    -7.718309     331.5346  0.015297831  0.014100567         3976 
 1807000    0.5361613   -7.7070019    331.10034  0.015269338  0.014088306         3975 
 1808000   0.52687426   -7.7060397    331.14778   0.01526308  0.014076063         3977 
 1809000   0.53222391   -7.7148603    331.66321  0.015278386  0.014063833         3983 
 1810000   0.52669749    -7.705986    331.07153  0.015242704  0.014051621         3975 
 1811000   0.51725101   -7.7108125    331.25008  0.015242503  0.014039425         3975 
 1812000    0.5299252   -7.6945839    330.98038  0.015221688  0.014027229         3975 
 1813000   0.52681274   -7.7165542    331.80854  0.015251358  0.014015043         3975 
 1814000   0.53112194   -7.7181287    331.11957  0.015211299  0.014002871         3965 
 1815000   0.51363537    -7.709984    330.72614  0.015184855   0.01399072         3974 
 1816000   0.52106032   -7.7097228    331.08964  0.015193174  0.013978576         3972 
 1817000   0.52887552   -7.7216824    331.53013  0.015205014  0.013966454         3982 
 1818000   0.52023646   -7.6893677    331.45799  0.015193344  0.013954353         3971 
 1819000   0.52192367   -7.7148754    331.19953   0.01517315  0.013942254         3988 
 1820000   0.52670206   -7.6993151    330.95923  0.015153811  0.013930161         3972 
 1821000   0.52262162   -7.7220539    330.94247  0.015144722  0.013918087         3976 
 1822000   0.51811269   -7.7136183    330.80064  0.015129923  0.013906035         3969 
 1823000   0.51636368   -7.7167853    330.85023  0.015123891  0.013893992         3976 
 1824000   0.52119603   -7.7243491    331.72526  0.015155577  0.013881957         3976 
 1825000   0.52189057   -7.7281139    331.12838  0.015120017  0.013869937         3979 
 1826000    0.5308259   -7.7299307    330.94121  0.015103195  0.013857932         3978 
 1827000   0.51270476   -7.7155334      330.443  0.015072204  0.013845939         3972 
 1828000   0.51856762   -7.7022632     331.2881  0.015102485  0.013833954         3980 
 1829000   0.53258064   -7.7165957    330.52958  0.015059667  0.013821984         3974 
 1830000    0.5279004   -7.7268963    331.01064  0.015073344  0.013810038         3963 
 1831000   0.53043239   -7.7118419    330.99614  0.015064452  0.013798098         3972 
 1832000   0.52553074   -7.7247004     331.4842   0.01507843  0.013786178         3969 
 1833000   0.52823833    -7.718982    331.10881  0.015053137  0.013774266         3963 
 1834000   0.52273423   -7.7128937    331.03347  0.015041506   0.01376237         3974 
 1835000   0.51342706   -7.7129202    330.69751  0.015018052  0.013750491         3978 
 1836000   0.51252257   -7.7144784    331.23242  0.015034151  0.013738622         3978 
 1837000   0.52104064   -7.7331738    330.95153  0.015013225  0.013726763         3974 
 1838000   0.52339156   -7.7249308    330.86606  0.015001181  0.013714913         3977 
 1839000   0.52136526   -7.7262207    330.38273  0.014971123  0.013703083         3969 
 1840000   0.51449262   -7.7183224    330.87687  0.014985365  0.013691259         3972 
 1841000   0.51663848   -7.7315415    331.06548  0.014985763  0.013679449         3976 
 1842000   0.51472092   -7.7252284    331.40517  0.014992995  0.013667651         3971 
 1843000   0.51446954   -7.7314105    330.54525  0.014945978  0.013655864         3979 
 1844000    0.5227341   -7.7262642    330.61825  0.014941172  0.013644101         3968 
 1845000   0.51390325   -7.7367955    331.31239  0.014964426  0.013632348         3975 
 1846000    0.5095088   -7.7167133     331.2797  0.014954844  0.013620596         3974 
 1847000   0.51214734   -7.7229202    330.70728   0.01492092  0.013608858         3983 
 1848000   0.51434453   -7.7254919    330.92651  0.014922732  0.013597137         3975 
 1849000   0.50823203   -7.7198349    330.35205  0.014888771  0.013585435         3982 
 1850000   0.51858139   -7.7179706     330.8722  0.014904153  0.013573744         3969 
 1851000   0.51197587   -7.7441932    330.89173  0.014896981  0.013562057         3978 
 1852000   0.51166439   -7.7290184     330.7245  0.014881412  0.013550384         3983 
 1853000   0.50630878     -7.74176    331.46034  0.014906473   0.01353873         3984 
 1854000   0.51926152    -7.723057    330.81917  0.014869614  0.013527085         3964 
 1855000   0.51849915   -7.7230896    330.74965  0.014858475  0.013515446         3978 
 1856000   0.51242573     -7.73931    331.31912  0.014876038  0.013503823         3969 
 1857000   0.51394543   -7.7272036    330.77228  0.014843488  0.013492217         3972 
 1858000   0.50646844   -7.7251893    330.59876  0.014827716  0.013480616         3972 
 1859000   0.50710316   -7.7328045    330.66583  0.014822746  0.013469036         3968 
 1860000   0.50337909   -7.7066831    330.88503  0.014824598  0.013457459         3978 
 1861000   0.50370551   -7.7245959    330.67581  0.014807263  0.013445899         3970 
 1862000   0.50812695   -7.7370327    330.81356  0.014805476  0.013434354         3974 
 1863000    0.5068575   -7.7412421    330.76888   0.01479553  0.013422827         3969 
 1864000   0.50342081   -7.7413975     331.3202  0.014812241  0.013411312         3974 
 1865000   0.51719013   -7.7277987    330.73395  0.014778103  0.013399802         3972 
 1866000   0.51169849   -7.7375979    330.44161  0.014757128  0.013388321         3977 
 1867000   0.51835899    -7.740209    330.50215  0.014751926  0.013376842         3980 
 1868000   0.51819566   -7.7352219    330.73066  0.014754223  0.013365379         3973 
 1869000   0.50361465   -7.7484664    330.42591  0.014732741  0.013353919         3980 
 1870000   0.51389949   -7.7340153    330.49222  0.014727817  0.013342479         3974 
 1871000   0.50924199   -7.7546799    330.97897  0.014741625  0.013331044         3959 
 1872000   0.49651315    -7.745842    331.54713  0.014759042  0.013319623         3975 
 1873000   0.51183363   -7.7398069      330.468   0.01470315  0.013308216         3980 
 1874000   0.50177198   -7.7335258    330.65871  0.014703785  0.013296823         3985 
 1875000   0.50461221   -7.7363816    330.97684  0.014710082  0.013285441         3986 
 1876000     0.496589   -7.7484993    330.62411  0.014686572   0.01327407         3984 
 1877000    0.5019791   -7.7439925    330.73339  0.014683599  0.013262715         3977 
 1878000   0.50462663   -7.7499607     330.8146  0.014679384  0.013251377         3977 
 1879000   0.50365154   -7.7401383    330.67858  0.014665539  0.013240041         3979 
 1880000   0.50605849   -7.7385151    330.61687  0.014655003  0.013228723         3982 
 1881000   0.49868418   -7.7279088    329.87861  0.014614505  0.013217412         3975 
 1882000   0.49757615    -7.747588    330.02327  0.014613145  0.013206117         3978 
 1883000   0.50221247   -7.7447918    330.58655  0.014630313  0.013194836         3971 
 1884000   0.49081033   -7.7474988    330.09217   0.01460068  0.013183561         3968 
 1885000   0.48703026   -7.7549297    331.08626  0.014636882  0.013172301         3980 
 1886000    0.5003859   -7.7298285    330.19933  0.014589932  0.013161056         3977 
 1887000   0.50337124   -7.7456761    330.22438  0.014583306   0.01314982         3980 
 1888000   0.50443026   -7.7431928    330.25326  0.014576856    0.0131386         3981 
 1889000   0.49893291   -7.7376875    330.20308  0.014566926  0.013127388         3982 
 1890000   0.49236151   -7.7362488    330.60376  0.014576886  0.013116186         3974 
 1891000    0.4949551   -7.7495942    330.77026  0.014576514  0.013105007         3968 
 1892000   0.49749235   -7.7545235    330.17745    0.0145427   0.01309384         3980 
 1893000   0.48895646   -7.7482255    330.57923  0.014552704  0.013082684         3968 
 1894000   0.49725203   -7.7492179    330.50274  0.014541655   0.01307154         3972 
 1895000   0.49825485    -7.740963    330.53587  0.014535438  0.013060405         3972 
 1896000    0.4931365   -7.7407323      330.829  0.014540656  0.013049282         3975 
 1897000   0.48660889   -7.7556021     329.8027  0.014487907  0.013038171         3976 
 1898000   0.50170524   -7.7628548    330.48896  0.014510404  0.013027064         3978 
 1899000   0.49799605   -7.7645674    330.65472  0.014510037  0.013015967         3980 
 1900000   0.49162533   -7.7590676    330.25674  0.014484945   0.01300489         3974 
 1901000   0.49024104   -7.7640175     330.4234  0.014484631  0.012993826         3972 
 1902000   0.49417202    -7.748708    329.87845  0.014453139  0.012982773         3970 
 1903000   0.50285465    -7.743035    330.27455   0.01446289   0.01297173         3972 
 1904000   0.48534362   -7.7526157    330.47388  0.014464018  0.012960693         3985 
 1905000   0.49660539   -7.7655492    330.40512  0.014453418  0.012949676         3964 
 1906000   0.50121474   -7.7334518    329.49538  0.014406059  0.012938668         3973 
 1907000   0.48788139   -7.7521956      329.794  0.014411554  0.012927672         3980 
 1908000   0.50306447   -7.7652425    330.81704  0.014448683  0.012916685         3974 
 1909000   0.49109022   -7.7665003    330.54006  0.014429023  0.012905709         3979 
 1910000   0.49599417   -7.7606701    329.98111  0.014397081  0.012894741         3980 
 1911000   0.49481023   -7.7650472     330.1747   0.01439799   0.01288378         3974 
 1912000   0.49840857   -7.7680418    330.39865   0.01440022  0.012872844         3976 
 1913000   0.49158086   -7.7656043    330.32999  0.014389701  0.012861913         3973 
 1914000   0.48900156   -7.7506871    329.70963  0.014355174  0.012850996         3981 
 1915000   0.49029333    -7.778695    330.61585  0.014387113  0.012840093         3978 
 1916000   0.50178556   -7.7490983    330.54641  0.014376584    0.0128292         3966 
 1917000   0.49218276   -7.7419214    330.06834  0.014348302  0.012818325         3979 
 1918000   0.48450785    -7.760384    329.99073  0.014337449  0.012807455         3979 
 1919000   0.49657629   -7.7654596     330.1755  0.014338002  0.012796597         3973 
 1920000   0.48235043   -7.7802189    330.28667  0.014335359  0.012785746         3979 
 1921000   0.49052344   -7.7570284    329.84934  0.014308925  0.012774909         3980 
 1922000   0.48993177   -7.7779316    330.44482  0.014327299  0.012764085         3976 
 1923000   0.48108559   -7.7657638    330.33054  0.014314896  0.012753279         3967 
 1924000   0.48502871   -7.7556593    329.82825  0.014285701  0.012742482         3975 
 1925000   0.48821102   -7.7899934    330.31794  0.014299478  0.012731697         3979 
 1926000   0.48915973   -7.7610572    329.88592  0.014273361  0.012720925         3978 
 1927000   0.48384026   -7.7815753    329.98436  0.014270211  0.012710165         3976 
 1928000   0.47657247   -7.7708078    330.37459  0.014279676  0.012699412         3983 
 1929000   0.49046432   -7.7811502    330.01102  0.014256568  0.012688671         3981 
 1930000   0.48636777   -7.7556015    329.79234  0.014239739  0.012677941         3983 
 1931000   0.47990743   -7.7774887    330.16853  0.014248599  0.012667221         3983 
 1932000   0.46845447   -7.7707147    329.91066  0.014230101   0.01265651         3983 
 1933000   0.46640581   -7.7798479    330.09666  0.014230758  0.012645815         3982 
 1934000   0.48380202   -7.7716615    329.94682  0.014216943  0.012635129         3979 
 1935000   0.49008034    -7.768092    330.00437  0.014212075  0.012624465         3980 
 1936000   0.48084635   -7.7485223     330.2706  0.014216193    0.0126138         3980 
 1937000   0.47621359   -7.7717668    330.32109  0.014211026  0.012603154         3973 
 1938000   0.48952028   -7.7833314     329.9067  0.014185874  0.012592517         3977 
 1939000   0.47277447    -7.776238    329.99965  0.014182553    0.0125819         3979 
 1940000   0.49221634   -7.7737328    329.40932  0.014149885  0.012571289         3975 
 1941000    0.4791187   -7.7771913      330.036    0.0141695  0.012560681         3977 
 1942000   0.48800703   -7.7829429    330.05616  0.014163069  0.012550086         3977 
 1943000    0.4784985   -7.7831029     329.7987  0.014144738  0.012539512         3976 
 1944000   0.47449992   -7.7707102    330.03708   0.01414768  0.012528942         3977 
 1945000   0.47032076   -7.7795675    329.42472  0.014114169  0.012518387         3983 
 1946000   0.47518906   -7.7756191    329.77665  0.014121987  0.012507837         3984 
 1947000   0.48270381   -7.7658024    330.18291  0.014132122  0.012497308         3975 
 1948000    0.4760407   -7.7798506    329.73341  0.014105639  0.012486786         3975 
 1949000   0.47322607   -7.7833723    329.63157  0.014094047  0.012476274         3967 
 1950000   0.47624522   -7.7711889    330.10477  0.014107042  0.012465772         3979 
 1951000   0.47827888   -7.7706638     329.8073  0.014087105  0.012455284         3982 
 1952000   0.48066899   -7.7726271    329.55892  0.014069284  0.012444807         3979 
 1953000   0.46942195    -7.796138    329.96673  0.014079481  0.012434338         3974 
 1954000   0.46476766   -7.7702027    329.68207  0.014060136  0.012423882         3972 
 1955000   0.47032083   -7.7806379    330.15129  0.014072945  0.012413441         3977 
 1956000   0.45528605   -7.8069455    329.82213  0.014051727  0.012403002         3981 
 1957000   0.46742793   -7.7734039     329.8158  0.014044277  0.012392581         3975 
 1958000   0.47328269   -7.7679417    329.33774  0.014016758  0.012382174         3976 
 1959000   0.46533207   -7.7818703    329.42961  0.014013511   0.01237178         3981 
 1960000   0.47086784    -7.789339    330.08436  0.014034199  0.012361396         3973 
 1961000   0.47356326   -7.7889082    329.38921  0.013997502   0.01235102         3978 
 1962000   0.46515194   -7.7860071    329.63339  0.014000739  0.012340654         3979 
 1963000   0.46884567   -7.7901003     329.6356    0.0139937  0.012330304         3972 
 1964000    0.4697114   -7.8012812     329.7454  0.013991234  0.012319957         3978 
 1965000    0.4671656   -7.7878137      330.108  0.013999491  0.012309624         3982 
 1966000   0.46410945   -7.7759637    330.11959  0.013992861  0.012299305         3976 
 1967000   0.47191457   -7.7751306    329.73244  0.013969346  0.012288995         3976 
 1968000   0.47521094   -7.7790746    330.20123  0.013982098  0.012278703         3973 
 1969000   0.45991976   -7.7941939    329.74777  0.013955806  0.012268415         3974 
 1970000   0.46206841   -7.7893527    329.67391  0.013945597  0.012258146         3975 
 1971000   0.46909325   -7.7957864    329.58927  0.013934943  0.012247875         3969 
 1972000   0.46164024   -7.7697067    329.58886  0.013927859  0.012237623         3980 
 1973000   0.46234765   -7.7930099     329.9326  0.013935319  0.012227378         3982 
 1974000   0.45650547   -7.7963139    329.54459  0.013911879  0.012217146         3975 
 1975000   0.46569889   -7.8139864    329.92216  0.013920766  0.012206927         3983 
 1976000   0.45347982   -7.7888934    329.54397  0.013897772  0.012196713         3975 
 1977000   0.45668415   -7.7906642    329.85425  0.013903821  0.012186515         3976 
 1978000   0.46021997   -7.7981491    329.98526  0.013902311  0.012176337         3980 
 1979000      0.46517   -7.7778645    329.38415  0.013869974  0.012166162         3972 
 1980000   0.47657992   -7.7897987    329.98778  0.013888375  0.012156001         3973 
 1981000   0.46652133    -7.792604    329.15798  0.013846457  0.012145851         3969 
 1982000   0.44708216   -7.7940617    329.80369   0.01386662  0.012135708         3974 
 1983000   0.47184579   -7.7941879    329.60383  0.013851228  0.012125574         3977 
 1984000   0.46705562   -7.8015201    329.51698  0.013840599  0.012115453         3971 
 1985000   0.45703746   -7.7972213    329.41521  0.013829354  0.012105343         3985 
 1986000   0.46022281   -7.8028935    329.30457  0.013817748  0.012095245         3976 
 1987000   0.47381809   -7.7906336    329.59107  0.013822809  0.012085158         3975 
 1988000   0.45390459   -7.7967243    329.15241  0.013797469  0.012075085         3977 
 1989000   0.46161032   -7.8138731     329.9866  0.013825482  0.012065016         3974 
 1990000   0.46143661   -7.8020829    329.63369  0.013803756  0.012054958         3977 
 1991000   0.44984432   -7.7917852    329.71588  0.013800263  0.012044913         3972 
 1992000    0.4527043   -7.7925648    329.55854  0.013786753  0.012034879         3974 
 1993000   0.44329438   -7.7879748    329.27663  0.013768048  0.012024852         3975 
 1994000   0.45005379   -7.8076751    329.39276  0.013765997  0.012014842         3971 
 1995000   0.46315989    -7.794801    329.40807  0.013759736  0.012004841         3971 
 1996000    0.4642445   -7.7921824    330.02894  0.013778763  0.011994854         3975 
 1997000   0.45186394   -7.8074923    329.32795  0.013742612   0.01198488         3968 
 1998000   0.45781588   -7.8154426    329.93877   0.01376121  0.011974908         3979 
 1999000   0.45824082   -7.8104365    329.31943  0.013728507  0.011964954         3976 
 2000000   0.44647915    -7.794602    329.64029  0.013735012  0.011955003         3971 
 2001000   0.45248114   -7.8167381    329.84768  0.013736785  0.011945067         3970 
 2002000   0.45245133   -7.8149965     329.2786  0.013706236  0.011935139         3978 
 2003000   0.45787291    -7.808984    329.76335   0.01371956  0.011925228         3975 
 2004000   0.45946996   -7.8241426    329.36664  0.013696218  0.011915324         3976 
 2005000   0.46240207   -7.8048247    329.43743  0.013692329  0.011905432         3978 
 2006000   0.45637392   -7.8138959    329.33711  0.013681336  0.011895546         3980 
 2007000   0.45393345   -7.8040228     329.4298  0.013678367  0.011885677         3973 
 2008000   0.45136214   -7.8043674    329.91705  0.013691777  0.011875813         3969 
 2009000   0.44976308   -7.8121908    329.16405  0.013653727  0.011865959         3980 
 2010000   0.44192339   -7.7939221    329.44641  0.013658641  0.011856123         3980 
 2011000   0.44759596   -7.8158706    329.56372   0.01365671  0.011846293         3972 
 2012000   0.45487731   -7.8001257    328.97873  0.013625693  0.011836471         3982 
Loop time of 4232.87 on 48 procs for 2000000 steps with 4000 atoms

Performance: 81646.802 tau/day, 472.493 timesteps/s
99.4% CPU use with 48 MPI tasks x no OpenMP threads

MPI task timing breakdown:
Section |  min time  |  avg time  |  max time  |%varavg| %total
---------------------------------------------------------------
Pair    | 261.12     | 270.41     | 286.51     |  37.2 |  6.39
Neigh   | 26.47      | 27.02      | 28.118     |   5.4 |  0.64
Comm    | 221.12     | 238.92     | 252.98     |  42.2 |  5.64
Output  | 4.5259     | 4.5279     | 4.5609     |   0.2 |  0.11
Modify  | 3624.4     | 3645.8     | 3664.7     |  15.1 | 86.13
Other   |            | 46.16      |            |       |  1.09

Nlocal:        83.3333 ave          89 max          77 min
Histogram: 2 0 3 8 3 16 7 4 3 2
Nghost:        1750.62 ave        1763 max        1729 min
Histogram: 1 0 7 1 4 6 6 9 5 9
Neighs:        10381.5 ave       11222 max        9545 min
Histogram: 2 2 3 12 6 9 6 3 3 2
FullNghs:      20761.3 ave       22146 max       18948 min
Histogram: 2 0 2 7 5 12 8 5 5 2

Total # of neighbors = 996544
Ave neighs/atom = 249.13600
Neighbor list builds = 108053
Dangerous builds = 0

#clear
#
#next RN
#
#jump SELF
Total wall time: 1:10:35
