
units lj                  # Use reduced LJ style units
atom_style atomic         # Uncharged point particles
atom_modify map hash      # Needed for indexing of clusters etc
                          # Used to be able to find where atoms are in relation to each other.

lattice fcc 1.0 spacing 1 1 1
Lattice spacing in x,y,z = 1.5874011 1.5874011 1.5874011
region box block 0 10 0 10 0 10 units lattice
create_box 2 box
Created orthogonal box = (0.0000000 0.0000000 0.0000000) to (15.874011 15.874011 15.874011)
  3 by 4 by 4 MPI processor grid
create_atoms 1 box
Created 4000 atoms
  using lattice units in orthogonal box = (0.0000000 0.0000000 0.0000000) to (15.874011 15.874011 15.874011)
  create_atoms CPU = 0.002 seconds
set type 1 type/fraction 2 0.32 78393
Setting atom values ...
  1310 settings made for type/fraction
mass 1 1.0
mass 2 1.0
pair_style lj/cut  3.5
pair_modify tail  yes
pair_coeff 1  1  1.0  1.0   # Intearaction between 1 and 1 set with epsilon = 1 and sigma = 1
pair_coeff 1  2  1.5  0.8
pair_coeff 2  2  0.5  0.88

write_data data.0
System init for write_data ...
Neighbor list info ...
  update every 1 steps, delay 10 steps, check yes
  max neighbors/atom: 2000, page size: 100000
  master list distance cutoff = 3.8
  ghost atom cutoff = 3.8
  binsize = 1.9, bins = 9 9 9
  1 neighbor lists, perpetual/occasional/extra = 1 0 0
  (1) pair lj/cut, perpetual
      attributes: half, newton on
      pair build: half/bin/atomonly/newton
      stencil: half/bin/3d
      bin: standard
WARNING: Not all mixed pair coeffs generated from mixing. Use write_data with 'pair ij' option to store all pair coeffs. (../write_data.cpp:312)


#############################
#   M E L T   S Y S T E M   #
#############################

velocity all create 2.4 5300450 mom yes dist gaussian # Assign velocities
                                                    # Temperature 2.4, random number seed, zero linear momentum
                                                                                # Gaussian distribution

timestep 0.002   # simulation timestep
thermo 1000       # output thermodynamic data every 1000 steps bf 100

# Define a fix  in this case with index 1 applied to all
# particles in the simulation. This fix is for simulations
# in the anisotropic NPT ensemble. Note that we use the MTK
# correction.
fix 1 all npt temp 2.4 2.4 0.1 iso 5.68 5.68 0.5 mtk yes tchain 5 pchain 5 # Use NPT ensemble
                                                                         # Set temperature and pressure and damping
                                                                         # Numbers of thermostats in chain and in barostat
run 10000          # run for 10000 steps
Per MPI rank memory allocation (min/avg/max) = 3.642 | 3.644 | 3.648 Mbytes
Step Temp E_pair E_mol TotEng Press Volume 
       0          2.4   -6.3097323            0   -2.7106323   -4.0355096         4000 
    1000    2.4060333   -4.9374044            0   -1.3292567    5.8670068    4108.4669 
    2000    2.3598016   -4.9844118            0   -1.4455944    5.5180273    4110.3217 
    3000    2.4225099    -5.045045            0   -1.4121886    5.7059025    4072.7873 
    4000    2.4112596   -4.9476937            0   -1.3317084    5.4884397    4140.8841 
    5000    2.4240772    -4.952259            0   -1.3170523    5.5213128    4132.5317 
    6000    2.3983086   -4.9915368            0   -1.3949733    5.5691129    4097.8173 
    7000    2.3702936   -5.0226706            0    -1.468119    5.7364788    4080.5066 
    8000    2.3413073   -5.0285175            0   -1.5174346    5.5525624    4084.9358 
    9000    2.3953591   -4.9887741            0   -1.3966338    5.6631606    4103.7958 
   10000    2.3392468   -4.9890118            0   -1.4810189    5.6162616    4097.6168 
Loop time of 2.5904 on 48 procs for 10000 steps with 4000 atoms

Performance: 667078.612 tau/day, 3860.409 timesteps/s
99.5% CPU use with 48 MPI tasks x no OpenMP threads

MPI task timing breakdown:
Section |  min time  |  avg time  |  max time  |%varavg| %total
---------------------------------------------------------------
Pair    | 1.0846     | 1.139      | 1.2327     |   2.8 | 43.97
Neigh   | 0.2061     | 0.21218    | 0.21914    |   0.6 |  8.19
Comm    | 0.78246    | 0.88054    | 0.94103    |   3.7 | 33.99
Output  | 0.0002676  | 0.00027492 | 0.00042689 |   0.0 |  0.01
Modify  | 0.28753    | 0.34264    | 0.38706    |   4.3 | 13.23
Other   |            | 0.01581    |            |       |  0.61

Nlocal:        83.3333 ave          94 max          72 min
Histogram: 2 1 4 5 9 12 9 0 3 3
Nghost:        1610.52 ave        1640 max        1575 min
Histogram: 1 0 7 4 6 10 9 5 4 2
Neighs:        9306.62 ave       10689 max        8132 min
Histogram: 5 3 5 8 6 9 5 2 1 4

Total # of neighbors = 446718
Ave neighs/atom = 111.67950
Neighbor list builds = 898
Dangerous builds = 154

# Equilibrate just above the melting temperature to avoid step fn in T

fix 1 all npt temp 1.25 1.25 0.1 iso 5.68 5.68 0.5 mtk yes tchain 5 pchain 5
run 2000
Per MPI rank memory allocation (min/avg/max) = 3.643 | 3.645 | 3.649 Mbytes
Step Temp E_pair E_mol TotEng Press Volume 
   10000    2.3392468   -4.9890118            0   -1.4810189    5.6162616    4097.6168 
   11000    1.2522598   -6.9023711            0    -5.024451    5.6082826    3287.3432 
   12000    1.2383485   -6.9400941            0   -5.0830357    5.4400193    3285.5621 
Loop time of 0.605586 on 48 procs for 2000 steps with 4000 atoms

Performance: 570687.089 tau/day, 3302.587 timesteps/s
99.6% CPU use with 48 MPI tasks x no OpenMP threads

MPI task timing breakdown:
Section |  min time  |  avg time  |  max time  |%varavg| %total
---------------------------------------------------------------
Pair    | 0.25439    | 0.28235    | 0.34126    |   2.8 | 46.62
Neigh   | 0.037938   | 0.040855   | 0.048764   |   0.9 |  6.75
Comm    | 0.1672     | 0.22975    | 0.25979    |   3.5 | 37.94
Output  | 5.3627e-05 | 5.4737e-05 | 6.9342e-05 |   0.0 |  0.01
Modify  | 0.042011   | 0.047631   | 0.051988   |   1.2 |  7.87
Other   |            | 0.004938   |            |       |  0.82

Nlocal:        83.3333 ave          91 max          71 min
Histogram: 1 0 0 2 8 4 18 7 4 4
Nghost:        1871.21 ave        1907 max        1850 min
Histogram: 2 9 6 13 6 6 2 3 0 1
Neighs:        11635.9 ave       13345 max        9805 min
Histogram: 1 0 5 5 12 10 9 2 3 1

Total # of neighbors = 558521
Ave neighs/atom = 139.63025
Neighbor list builds = 143
Dangerous builds = 8

#############################
# L I N E A R  Q U E N C H  #
#############################

# Define solid atoms. This closely follows ten Wolde  Ruiz-Montero and Frenkel  Faraday Discuss  1996  104  93-110
# Compute components of the per-atom q6 vector
compute q6 all orientorder/atom degrees 1 6 components 6 nnn NULL cutoff 1.3 # compute the Q6 parameter.
                                                                             # Use all neighbours within 1.3 unit cell.

# get number of connections
compute coord_number all coord/atom orientorder q6 0.5

# An atom is solid if it has 8 or more connections (of a possible 14)
variable is_solid atom c_coord_number>=8
group solid dynamic all var is_solid    # Must be dynamic to update
dynamic group solid defined

# do clustering
compute cluster solid cluster/atom 1.3 # Create a cluster where all atoms within are solid and max 1.3 units from another member

# define chunks one chunk per cluster
compute clus_chunks solid chunk/atom c_cluster nchunk every compress yes  # Says which atoms are in which chunk

# count the size of each chunk
compute size_chunks solid property/chunk clus_chunks count


# Find the maximum entry in the vector of chunk sizes
variable max_n equal max(c_size_chunks)


# Thermo style which includes this variable
# thermo_style custom step temp pe vol v_max_n

thermo ${N}  # Print the thermo information every 100 steps
thermo 1000  

# Reset the npt fix at a lower temperature (below freezing)
fix 1  all npt temp  ${temp} ${temp}  0.1  iso  5.68  5.68  0.5  mtk yes tchain  5  pchain  5
fix 1  all npt temp  0.45 ${temp}  0.1  iso  5.68  5.68  0.5  mtk yes tchain  5  pchain  5
fix 1  all npt temp  0.45 0.45  0.1  iso  5.68  5.68  0.5  mtk yes tchain  5  pchain  5

dump dmp2 all dcd ${N} traj.dcd
dump dmp2 all dcd 1000 traj.dcd


compute msd all msd com yes
variable twopoint equal c_msd[4]/6/(step*dt+1.0e-6)
fix 9 all vector 10 c_msd[4]
variable fit equal slope(f_9)/6/(10*dt)
thermo_style custom step temp pe c_msd[4] v_twopoint v_fit v_max_n

fix 1 all npt temp 1.25 ${temp} 0.1 iso 5.68 5.68 0.5 mtk yes tchain 5 pchain 5
fix 1 all npt temp 1.25 0.45 0.1 iso 5.68 5.68 0.5 mtk yes tchain 5 pchain 5
run 2000000 # 5000000  # Run for this many steps
Neighbor list info ...
  update every 1 steps, delay 10 steps, check yes
  max neighbors/atom: 2000, page size: 100000
  master list distance cutoff = 3.8
  ghost atom cutoff = 3.8
  binsize = 1.9, bins = 8 8 8
  4 neighbor lists, perpetual/occasional/extra = 1 3 0
  (1) pair lj/cut, perpetual
      attributes: half, newton on
      pair build: half/bin/atomonly/newton
      stencil: half/bin/3d
      bin: standard
  (2) compute orientorder/atom, occasional
      attributes: full, newton on
      pair build: full/bin/atomonly
      stencil: full/bin/3d
      bin: standard
  (3) compute coord/atom, occasional
      attributes: full, newton on
      pair build: full/bin/atomonly
      stencil: full/bin/3d
      bin: standard
  (4) compute cluster/atom, occasional
      attributes: full, newton on
      pair build: full/bin/atomonly
      stencil: full/bin/3d
      bin: standard
Per MPI rank memory allocation (min/avg/max) = 9.813 | 9.818 | 9.823 Mbytes
Step Temp PotEng c_msd[4] v_twopoint v_fit v_max_n 
   12000    1.2383485   -6.9400941 1.8297629e-30 1.2706686e-32 8.3333333e+20            2 
   13000    1.2695562   -6.9735709   0.52311511 0.0033533018  0.043234378            2 
   14000    1.2283725   -6.9918812   0.99301602 0.0059108094  0.040966123            1 
   15000    1.2571139   -6.9770273    1.4204768 0.0078915373  0.038892121            2 
   16000    1.2438928   -6.9610137    1.8659516 0.0097184977  0.037711849            1 
   17000    1.2399857   -6.9246466     2.279253  0.011172808  0.037346305            1 
   18000    1.2647457   -6.9409277    2.7867004   0.01290139  0.037464014            2 
   19000    1.2821454   -6.9167336    3.2183829  0.014115714  0.037627569            3 
   20000    1.2642926    -6.993116    3.6525456  0.015218939   0.03757582            1 
   21000    1.2743332   -6.9306781    4.0685234  0.016144934  0.037404064            3 
   22000    1.2347383   -6.9305308    4.6353735  0.017558232  0.037508283            2 
   23000    1.2373314    -6.945567    5.0798808  0.018405365  0.037801681            2 
   24000    1.2402291   -6.9316785    5.5453839  0.019254805  0.037892976            2 
   25000    1.2489993   -6.9042928    5.9593303  0.019864434  0.037908658            1 
   26000    1.2271274   -6.9464374    6.4083365   0.02053954  0.037876522            3 
   27000    1.2288794   -6.9589687    6.8633389  0.021183144  0.037811085            1 
   28000    1.2561329   -6.9488323    7.3635001  0.021915179  0.037838944            2 
   29000    1.2576524   -6.9885784    7.7778221  0.022350063  0.037866805            1 
   30000    1.2299181   -6.9233085    8.3062545  0.023072929  0.037924515            4 
   31000    1.2453608   -6.9271747    8.7720409  0.023580755   0.03800942            2 
   32000    1.2402343   -6.9617434    9.1612885  0.023857522  0.038019409            1 
   33000    1.2369341   -6.9462028    9.6175705  0.024286794  0.037975953            3 
   34000    1.2377073   -6.9376769    10.048799   0.02462941  0.037957173            1 
   35000    1.2500661   -6.9422616    10.514142  0.025033671  0.037963989            2 
   36000    1.2274156    -6.931457    10.974202  0.025403246  0.037944718            2 
   37000    1.2479382    -6.909196    11.421041  0.025723065  0.037922246            1 
   38000    1.2532883   -6.9431683       11.942  0.026188596  0.037946816            2 
   39000    1.2481436   -6.9362148    12.422555  0.026543921  0.038000405            1 
   40000    1.2373179   -6.9348342     12.84837  0.026767438  0.038030231            2 
   41000    1.2494345   -6.9733996    13.243425  0.026917531  0.038019556            1 
   42000    1.2162345   -6.9626706    13.680455  0.027143759  0.038009802            1 
   43000    1.2352085   -6.9633008    14.157556  0.027437124  0.037984825            1 
   44000    1.2324559   -7.0218396    14.727897  0.027893744  0.038012454            2 
   45000     1.227815   -6.9719319    15.172435  0.028097102  0.038043006            2 
   46000    1.2371741   -7.0064358    15.584891  0.028233498  0.038089792            1 
   47000    1.2389344   -6.9330342    16.172123  0.028673977  0.038141474            1 
   48000    1.2039995   -7.0026902    16.677971  0.028954811  0.038210778            1 
   49000    1.2652877   -6.9819966    17.182452  0.029221857  0.038275193            1 
   50000    1.2364525   -6.9763632    17.715547  0.029525912  0.038350508            1 
   51000     1.245894   -6.9794393    18.231087  0.029789357  0.038429719            1 
   52000    1.2399826   -6.9780823    18.824443  0.030167376  0.038513777       -1e+20 
   53000    1.2463048   -6.9019519    19.333773  0.030399014  0.038618692            1 
   54000    1.2035245   -7.0107344    19.854496  0.030639653  0.038726876            2 
   55000    1.2396656   -6.9776407    20.249088  0.030680437   0.03883036            2 
   56000    1.2330206   -6.9575602    20.684169  0.030780013  0.038907921            2 
   57000    1.2286627   -6.9680231    21.185166  0.030972464  0.038977701            1 
   58000    1.2721145   -6.9821937    21.528492  0.030931742  0.039019481            1 
   59000    1.2486523   -6.9700839    21.990618  0.031060194  0.039036431            2 
   60000    1.2438369   -6.9602994    22.342666   0.03103148  0.039026194            1 
   61000    1.2280302   -6.9656682    22.912423  0.031301124  0.039030158            1 
   62000    1.2480654   -6.9933106      23.5394  0.031638978  0.039067708            1 
   63000    1.1984327   -6.9637563    23.974686  0.031712548  0.039103138            2 
   64000    1.2587767   -6.9770159    24.396433  0.031766188  0.039115414            2 
   65000    1.2323427    -6.978899     25.02533  0.032083757  0.039147303            1 
   66000    1.2653125    -6.974993    25.483384   0.03217599  0.039201253            2 
   67000    1.2700147   -6.9495397    25.921831  0.032241083  0.039236993            1 
   68000    1.2156466   -6.9748881    26.442313  0.032404796  0.039278801            1 
   69000    1.2377622   -6.9815364    26.775398  0.032337437  0.039304647            1 
   70000    1.2414656   -7.0243936    26.991907  0.032133223  0.039309073            3 
   71000    1.2117336   -6.9601538    27.408659  0.032169788  0.039292128            1 
   72000    1.2328168   -6.9459034    27.929949  0.032326329  0.039269914            2 
   73000    1.1938285   -6.9608779    28.449558  0.032476664  0.039251064            1 
   74000    1.2387385    -6.985102    28.853539  0.032492723  0.039228276            1 
   75000     1.206098    -6.986583    29.292089  0.032546765  0.039208151            1 
   76000    1.2291934   -6.9711806    29.526855  0.032375937   0.03917307            2 
   77000    1.2455618    -6.994976     29.98573  0.032452088   0.03912521            4 
   78000    1.2311269   -7.0041611    30.669186  0.032766224  0.039094318            1 
   79000    1.2259061    -6.979616    31.197029  0.032908259  0.039074858            3 
   80000    1.2171888   -7.0099648    31.446745  0.032757025  0.039049905            1 
   81000    1.2010774   -7.0011431    31.724908  0.032638795   0.03900966            1 
   82000    1.2230023   -6.9898205    32.175346  0.032698523   0.03895921            2 
   83000    1.2279562   -6.9809394    32.700437  0.032831764  0.038916661            2 
   84000    1.2022579   -7.0284164    32.941463  0.032680022  0.038867975            2 
   85000    1.1950695   -6.9779253    33.633666  0.032974182  0.038822123            4 
   86000    1.2401044    -7.015644    34.066352  0.033010031  0.038791884            1 
   87000    1.2508199   -6.9934529    34.363187  0.032914929  0.038754485            2 
   88000    1.2068461   -7.0124389    34.786282  0.032941555  0.038711498            1 
   89000     1.227462   -6.9927264    35.103182  0.032868148  0.038658801            2 
   90000    1.2202167   -7.0506495    35.457294  0.032830828  0.038604462            2 
   91000    1.2089902   -6.9687551    36.143312  0.033098271  0.038560206            1 
   92000    1.2217086   -6.9888137    36.396201  0.032967574  0.038520483            1 
   93000    1.2074428   -7.0185307    36.822385  0.032994969  0.038476461            2 
   94000    1.2500789   -7.0140199     37.01486  0.032814592  0.038423722            1 
   95000     1.217903   -6.9829773    37.605844  0.032987582  0.038367862            2 
   96000    1.2478778    -7.013463    37.972021  0.032961823  0.038315695            1 
   97000    1.1897389    -7.035695     38.23146  0.032844897  0.038261529            3 
   98000    1.1833429   -6.9921639    38.626377  0.032845558  0.038194522            1 
   99000    1.2108596   -7.0427032    38.947819   0.03278436  0.038124338            2 
  100000    1.2005223   -7.0315158    39.250192  0.032708493  0.038061157            2 
  101000    1.1982878   -7.0145118    39.948328  0.032960667  0.037997062            1 
  102000    1.2157941   -6.9766692    40.339679  0.032957254  0.037941329            2 
  103000    1.2127383   -7.0077443    40.890907  0.033083258  0.037897782            2 
  104000    1.2023075   -6.9896633    41.220759  0.033029454  0.037851165            1 
  105000    1.2186644    -6.984737    41.727309  0.033116911   0.03780269            1 
  106000    1.1946859   -7.0028883    42.092017  0.033091208  0.037758234            1 
  107000    1.2460055   -7.0293263    42.432686  0.033047263  0.037706575            2 
  108000    1.2092088   -6.9813426    43.030335  0.033202419  0.037663642            4 
  109000    1.1979661   -7.0433343    43.570134    0.0333105   0.03762592            1 
  110000    1.2200913   -7.0216396    44.117419  0.033422287  0.037598836            1 
  111000    1.2111341    -7.045102    44.540948   0.03343915  0.037576637            1 
  112000    1.2119056   -6.9868085    45.000454  0.033482481  0.037555638            1 
  113000    1.2050681   -7.0227977    45.306828  0.033412115  0.037527135            1 
  114000    1.2120409   -7.0538855    45.431656  0.033210275  0.037491322            1 
  115000    1.2007019   -7.0078768     46.12703  0.033425384  0.037460525            3 
  116000    1.2224878   -7.0132196    46.760074  0.033592007  0.037437232            2 
  117000    1.2090697   -7.0333206    47.198156   0.03361692  0.037417565            1 
  118000    1.2166886   -7.0325237    47.525473  0.033563187  0.037397148            2 
  119000    1.2397322   -7.0162775    48.086304  0.033673882  0.037378168            1 
  120000    1.2112153   -7.0531253    48.469324  0.033659253  0.037360425            1 
  121000    1.2105449   -7.0149393    48.895485  0.033674577   0.03734383            1 
  122000    1.1918146   -7.0586158     49.35278  0.033710915  0.037329952            1 
  123000    1.2006818   -6.9911743    49.664817   0.03364825  0.037310063            1 
  124000    1.2011105   -7.0320753    50.229059  0.033756088  0.037289689            1 
  125000    1.2191505   -7.0626458     50.21173  0.033474487   0.03726303            3 
  126000    1.1846627   -7.0428372    50.594852  0.033462203  0.037233065            2 
  127000    1.2241296   -7.0529571    51.037692  0.033489299  0.037202332            1 
  128000    1.1769507   -7.0448726    51.584148  0.033583429  0.037176951            3 
  129000    1.2062475   -7.0256167    51.880255  0.033514376  0.037149336            1 
  130000    1.1991638   -6.9994443    52.538599  0.033678589  0.037125249            3 
  131000    1.2405976     -7.02569    52.900094  0.033651459  0.037100787            2 
  132000    1.2091476   -7.0730802    53.295152  0.033645929  0.037077925            2 
  133000    1.2009323   -6.9972989    53.821516  0.033722754  0.037052901            1 
  134000    1.2194838   -7.0275597    54.287243  0.033760723  0.037028699            1 
  135000     1.174555   -7.0567054    54.673241  0.033748914  0.037013011            3 
  136000    1.2164685   -7.0708823    54.969324  0.033682184  0.036993058            2 
  137000    1.2157856    -7.020989    55.298395  0.033636493  0.036970632            1 
  138000    1.1936704     -7.05558    55.823797  0.033710022  0.036948809            2 
  139000    1.2200681   -7.0216269    56.455375  0.033846148  0.036931042            2 
  140000    1.1819391   -7.0980344    56.628111  0.033707209  0.036914982            2 
  141000    1.2074186   -7.0587873    57.182752  0.033795953  0.036899876            3 
  142000    1.1997896   -7.0891092    57.554796  0.033776288  0.036882466            1 
  143000    1.2226992   -7.0562286     58.03747  0.033821369  0.036866961            3 
  144000    1.2117424   -7.0671756    58.466931  0.033835029  0.036850949            2 
  145000    1.2049133   -7.0179089    58.756324  0.033768002  0.036830632            3 
  146000    1.1883593   -7.0451192    58.853083  0.033591942   0.03680391            3 
  147000    1.1743667   -7.0572291    59.444001  0.033698413  0.036777044            2 
  148000    1.2000945   -7.0604234    59.846438  0.033697318  0.036754401            1 
  149000    1.1968544    -7.047606    60.358954  0.033757804  0.036734732            2 
  150000    1.2039825   -7.0592408    60.945284  0.033858491  0.036715224            1 
  151000    1.1810118   -7.0802283    60.786737  0.033546764  0.036691999            1 
  152000    1.2057318   -7.0759347    61.031057  0.033460009  0.036662216            1 
  153000    1.1542184   -7.0359359    61.674416   0.03359173  0.036631958            1 
  154000          1.2   -7.0087097    62.047161  0.033575303  0.036600248            1 
  155000    1.1921552   -7.0408025    61.912102  0.033286076  0.036564959            1 
  156000     1.193172   -7.0368729    62.626908  0.033454545  0.036525895            1 
  157000    1.1736435    -7.090188    62.678924  0.033269068  0.036489068            2 
  158000    1.2176028   -7.0264361    63.618751  0.033554194  0.036456237            1 
  159000    1.1673332   -7.0692961    64.143518  0.033618196  0.036425836            1 
  160000    1.1895876   -7.0511575    64.288654  0.033483674  0.036396145       -1e+20 
  161000     1.201769   -7.0631616    64.797628  0.033539145  0.036366789            1 
  162000    1.1919644   -7.0708149    65.362631  0.033622752  0.036338673            1 
  163000    1.1838231   -7.0373565    65.544235  0.033509322   0.03630924            2 
  164000    1.1828282   -7.0324503    65.836804  0.033453661  0.036279314            1 
  165000    1.1975253   -7.1145806    66.243139  0.033456131  0.036249946            2 
  166000    1.1727562   -7.0967473    66.696887  0.033482373  0.036221364            1 
  167000    1.1751516     -7.07497    67.182927  0.033524414  0.036195684            1 
  168000    1.1767853    -7.083192     67.35613  0.033410779  0.036166995            3 
  169000    1.2088657   -7.0560519    67.764772  0.033414582  0.036136913            1 
  170000    1.1947486    -7.040434    67.959191  0.033313329  0.036104729            1 
  171000    1.2075832   -7.0467689    68.167493  0.033220026  0.036070801            2 
  172000     1.190967   -7.0614611    68.564336  0.033219155  0.036033481            1 
  173000     1.190492   -6.9943489    69.087232  0.033279014  0.035998408            3 
  174000    1.1950654   -7.0567953    69.258777  0.033169912  0.035963049            3 
  175000    1.1829335     -7.06409    69.672506  0.033177384  0.035925157            2 
  176000     1.168436    -7.087138    69.787415  0.033043284  0.035889749            2 
  177000     1.184651   -7.0703955    70.570884  0.033225463  0.035854973            1 
  178000    1.1710123    -7.092577    70.613436  0.033058725  0.035818225            2 
  179000    1.1813055   -7.0771916    71.115471  0.033107761  0.035783796            1 
  180000    1.1648982    -7.025699    71.961864  0.033315678  0.035752012            2 
  181000    1.1718831    -7.040353    72.471733  0.033366359  0.035725539            1 
  182000    1.1965875   -7.0690344    72.527531  0.033208576   0.03569969            1 
  183000    1.1726347   -7.1001619    72.933831  0.033212127  0.035672322            1 
  184000    1.1786054   -7.0829398    73.060471  0.033088982   0.03564215            1 
  185000    1.1835943   -7.0867532    73.896825  0.033286858  0.035613567            1 
  186000    1.1782085    -7.062748    74.109844  0.033203335  0.035586062            1 
  187000    1.2115709   -7.0820657    74.600528  0.033244442  0.035557856            2 
  188000    1.1806242   -7.1175189    74.670859  0.033098785   0.03552958            1 
  189000    1.2009515   -7.0741891    75.404121  0.033246967  0.035502063            3 
  190000    1.1852647   -7.0587726    75.865506  0.033274345  0.035475092            2 
  191000    1.1742972   -7.0548682    76.230113  0.033259212  0.035449698            4 
  192000    1.1764604    -7.090572    76.173022  0.033061207  0.035422236            2 
  193000     1.172422   -7.1054429     76.58534  0.033067936  0.035394854            2 
  194000    1.1740965   -7.0910394    76.656152    0.0329279  0.035365935            1 
  195000    1.1634939    -7.056411    77.314338  0.033040315  0.035335932            1 
  196000    1.1966007   -7.1015995    77.529757  0.032963332  0.035306387            1 
  197000    1.1751067   -7.1009814    77.737742  0.032883985  0.035277487            3 
  198000    1.1811082   -7.0985625    78.712965  0.033128352  0.035249466            2 
  199000    1.1925014   -7.1321817    78.657151  0.032938505  0.035222381            3 
  200000    1.1940528   -7.0725058     79.39668   0.03308195  0.035194897            1 
  201000    1.1844816    -7.074446    79.627105  0.033012896  0.035168258            1 
  202000    1.1640504   -7.0849946    80.188635   0.03308112   0.03514154            1 
  203000    1.1705831   -7.0946283    80.460206  0.033029641  0.035115741            1 
  204000     1.166943   -7.0958635    80.863576  0.033032507  0.035090111            2 
  205000    1.1733595   -7.1199451    80.994731  0.032924687  0.035062717            2 
  206000    1.1743172   -7.0938433    81.172863  0.032836918  0.035033536            1 
  207000    1.1880514   -7.1003896    81.513372  0.032815367  0.035004664            2 
  208000    1.1545607    -7.122395    82.033467  0.032865972  0.034976281            3 
  209000    1.1831954   -7.0738661    82.659249  0.032958233  0.034950425            1 
  210000    1.1729397   -7.1074402    83.146429  0.032994615  0.034925308            1 
  211000    1.1662798   -7.0712288    83.642087  0.033033999  0.034901223            1 
  212000     1.172001   -7.1094296    83.944612  0.032997096  0.034879627            2 
  213000    1.1328481   -7.0624011     84.89518  0.033214077  0.034859516            1 
  214000    1.1721462   -7.0673466    84.817705  0.033028701  0.034838945            1 
  215000    1.1600984   -7.0794098    85.141642  0.033000636  0.034817227            2 
  216000    1.1574752   -7.1414244    85.377791  0.032938963  0.034794096            2 
  217000    1.1611576   -7.1108819    86.031474    0.0330382  0.034771505            1 
  218000    1.1845939   -7.1339314    86.125802  0.032922707  0.034748308            1 
  219000    1.1669096   -7.0945484     86.54268  0.032931005  0.034727063            2 
  220000     1.176137   -7.1291266     86.85611  0.032900041  0.034705213            2 
  221000    1.1804124   -7.1187402    87.225153  0.032890329  0.034682378            3 
  222000     1.180846   -7.1489404    87.584128  0.032876925   0.03466091            2 
  223000    1.1604345   -7.0746827    88.147842   0.03294015  0.034637948            2 
  224000    1.1837978   -7.1575005    88.411668  0.032891245  0.034617186            2 
  225000    1.1767839   -7.1140796    89.511641   0.03315246  0.034598754            2 
  226000    1.1647869   -7.1074891      89.6971  0.033074152  0.034583419            1 
  227000    1.1713352   -7.1386314     89.99715  0.033038601  0.034568054            3 
  228000    1.1629707   -7.1219493    90.228599  0.032978289  0.034553129            1 
  229000    1.1681482   -7.1333309    90.793007  0.033039668  0.034539156            1 
  230000    1.1533216    -7.128898    91.119704  0.033014386  0.034524177            1 
  231000    1.1770792   -7.0925871    91.607542  0.033047454  0.034509491            3 
  232000     1.185595   -7.0899584     91.96059  0.033031821  0.034492674            1 
  233000    1.1508975   -7.1311716    92.179737  0.032968432  0.034475876            3 
  234000    1.1620892   -7.1153128    92.476513  0.032933231  0.034459159            2 
  235000    1.1143932   -7.2043314    92.583607  0.032831066  0.034441147            2 
  236000     1.145032   -7.1075638    93.169448  0.032898816   0.03442396            1 
  237000    1.1810479   -7.1365521    93.438529  0.032854616   0.03440672            2 
  238000    1.1808304     -7.12745    94.198268  0.032982587  0.034390246            1 
  239000    1.1633453   -7.1131172    94.584504  0.032979255  0.034374305            2 
  240000    1.1263275   -7.1221976    94.625677  0.032856138  0.034357856            2 
  241000    1.1610377   -7.1069769    95.087431  0.032879471  0.034341619            3 
  242000    1.1406781   -7.1745698    95.544618  0.032901039  0.034326876            1 
  243000    1.1656967   -7.1350609    96.194831  0.032988625   0.03431358            1 
  244000    1.1883089   -7.1308032     96.59192  0.032989044  0.034301682            2 
  245000    1.1485213   -7.1518539    97.038342  0.033006239  0.034290348            1 
  246000    1.1525331   -7.1230279    98.002302  0.033198612  0.034280918       -1e+20 
  247000    1.1571714   -7.1042584    98.249206  0.033147505  0.034272235            1 
  248000     1.153506   -7.1648396    98.374859  0.033056068  0.034262838            1 
  249000    1.1362801   -7.1382772    98.486428  0.032960652  0.034251166            3 
  250000    1.1537302   -7.1899678    98.728822  0.032909607  0.034238875            1 
  251000    1.1605539   -7.1585682    99.371171  0.032991756  0.034225822            1 
  252000    1.1299561    -7.140341    99.796757  0.033001573  0.034213698            2 
  253000    1.1664875   -7.1320736    100.06436  0.032959274   0.03420063            5 
  254000    1.1454745   -7.1356935    100.38046  0.032933223  0.034187095            1 
  255000    1.1379346    -7.110659    100.83179  0.032951566  0.034171723            2 
  256000    1.1362462    -7.172611    100.69195  0.032777326  0.034157053            1 
  257000    1.1619993   -7.1315361    101.20634  0.032816582  0.034140566            2 
  258000    1.1464854   -7.1231171    101.63561  0.032828039  0.034125836            1 
  259000    1.1345528   -7.1274215    101.82888  0.032763476  0.034109983            2 
  260000    1.1558081   -7.1632385    102.01734  0.032697865  0.034093853            2 
  261000    1.1569661   -7.1538037     102.2361  0.032642432  0.034077279            2 
  262000    1.1554863   -7.1180684    102.87476  0.032720978  0.034060916            1 
  263000    1.1594729    -7.130489    102.88706  0.032600461  0.034043831            2 
  264000    1.1443581   -7.1459389    103.04514  0.032526875  0.034024722            1 
  265000    1.1516231   -7.1302862     103.6564  0.032596352  0.034006348            1 
  266000    1.1420596   -7.1192103    104.16051  0.032631737  0.033986024            2 
  267000    1.1682041   -7.1452109    103.94634  0.032442679  0.033966152            1 
  268000    1.1591805   -7.1373025    104.67966  0.032549647  0.033946489       -1e+20 
  269000    1.1729679   -7.1415123     104.5854  0.032399443  0.033924838            1 
  270000    1.1450982   -7.1757622     104.9161  0.032381511  0.033903036            4 
  271000    1.1358761   -7.1836153    105.21372  0.032353541  0.033879721            1 
  272000    1.1566378   -7.1586765    105.58136  0.032347231  0.033857652            1 
  273000    1.1568488   -7.1457295    105.67505  0.032257341  0.033834963            2 
  274000    1.1438398   -7.1335501    106.27233  0.032321268  0.033811538            2 
  275000    1.1507195   -7.1620795    106.34157  0.032224719  0.033789301            1 
  276000    1.1409705   -7.1939345    106.98304  0.032301643  0.033766792            1 
  277000    1.1473821    -7.170913    107.16219  0.032238926  0.033744245            1 
  278000    1.1634589   -7.1998452    107.64882  0.032268832  0.033722992            1 
  279000    1.1454315   -7.1780814    107.71558  0.032173111  0.033700703            2 
  280000    1.1372011   -7.1855495    108.15456  0.032188856  0.033677429            2 
  281000    1.1484903   -7.1709009    108.03203  0.032037967  0.033652355            1 
  282000    1.1500437   -7.1500716    108.35234  0.032019012  0.033627204            2 
  283000    1.1608946   -7.1693348     109.0054  0.032098174  0.033602721            2 
  284000    1.1381811   -7.2054416    109.00806  0.031985932  0.033578398            1 
  285000    1.1636632     -7.17429    109.65009  0.032061428  0.033554782            1 
  286000    1.1348318   -7.1401446    110.18579  0.032105416   0.03353231            1 
  287000    1.1239502   -7.1712363     110.4452  0.032068873  0.033507964            1 
  288000    1.1228492   -7.1499175    110.68563  0.032027092  0.033484483            2 
  289000    1.1293359   -7.1618333    111.12013  0.032041561  0.033460089            2 
  290000    1.1188306   -7.1668669    111.41773  0.032016589  0.033437173            2 
  291000    1.1283344   -7.1604168     111.5806  0.031953208  0.033414282            2 
  292000    1.1177843   -7.1524284    112.09495  0.031990568  0.033389999            2 
  293000    1.1463418   -7.1625641    112.53582  0.032006776  0.033367916            1 
  294000    1.1227463   -7.1992647    112.69897  0.031944151  0.033346321            1 
  295000    1.1463591   -7.1648051    113.35337  0.032020726  0.033323704            1 
  296000    1.1097906    -7.178767    113.60303  0.031982835  0.033301264            3 
  297000    1.1285718   -7.1744318       114.36  0.032087542  0.033280288            3 
  298000    1.1505336   -7.1723332    115.02925  0.032167016  0.033260635            3 
  299000    1.1363857   -7.1879245    114.75598  0.031983272  0.033240916            2 
  300000    1.1347289   -7.1868543    115.33133   0.03203648   0.03322223            2 
  301000    1.1281234   -7.2184115    115.07387  0.031858768   0.03320275            2 
  302000    1.1436208   -7.2099726    115.69601  0.031924948  0.033182454            2 
  303000    1.1272845   -7.1900599    116.04029  0.031914272  0.033162442            2 
  304000     1.131252   -7.1564663    116.24962  0.031866671  0.033143425            1 
  305000    1.1206954   -7.2169787    117.04679  0.031979998  0.033123464            1 
  306000    1.1157455   -7.2077089    116.87257  0.031828041  0.033103315            1 
  307000    1.1241734   -7.1887889    117.38482  0.031863415  0.033082352            1 
  308000    1.1250085    -7.205385    117.12403  0.031689401  0.033060579            3 
  309000    1.1396099   -7.2044799    117.34871  0.031647441   0.03303877            2 
  310000    1.1340385   -7.1956274    118.21207  0.031777438  0.033015685            1 
  311000    1.1228037   -7.1877695    118.28376  0.031694471    0.0329926            2 
  312000    1.1024584   -7.1794056    118.06509   0.03153448   0.03296986            2 
  313000    1.1558013   -7.2271528    118.96096  0.031672247   0.03294758            2 
  314000     1.120536   -7.1473201    119.51976  0.031719682  0.032926493            4 
  315000    1.1500135   -7.1783243    120.05902  0.031761646  0.032905757            1 
  316000    1.1499718   -7.1954498    120.02272  0.031651561  0.032884035            1 
  317000    1.1260593   -7.2276399    120.29036  0.031622072  0.032863139            2 
  318000    1.1350398   -7.2105362    120.77289   0.03164908  0.032841447            2 
  319000    1.1058864   -7.1879002    121.35419  0.031701721  0.032820953            3 
  320000     1.129097   -7.1852388    121.77869  0.031713201  0.032800771            2 
  321000    1.1327827   -7.1885838    121.84262  0.031631003  0.032780127            2 
  322000    1.1144482   -7.2035869    121.63291  0.031478497  0.032757419            2 
  323000    1.1262248   -7.2045862    121.97694    0.0314698  0.032733635            1 
  324000    1.1154983   -7.2287274    122.15547  0.031418588  0.032710338            2 
  325000    1.1209918   -7.2399318    121.89459  0.031255023  0.032686152            1 
  326000    1.1221096   -7.2376758    122.74453  0.031376414  0.032661265            2 
  327000    1.1322162   -7.2012932     122.8728  0.031313151  0.032636071            1 
  328000    1.1221307   -7.2210722    123.21216  0.031303903   0.03261142            1 
  329000    1.1156919    -7.204459    123.45894  0.031271262  0.032586028            1 
  330000    1.1189966   -7.2007801    123.64992  0.031224728  0.032561015            4 
  331000    1.1294231   -7.1821146    123.86423  0.031184348   0.03253609            2 
  332000    1.1119815    -7.254725    123.92983  0.031106885  0.032511723            1 
  333000    1.1131547   -7.2273289    124.41143  0.031133991  0.032486669            2 
  334000    1.1259281   -7.1900308    125.26843  0.031254597  0.032461917            2 
  335000    1.1277176    -7.217127    125.45729   0.03120828  0.032438063            4 
  336000    1.1332078   -7.2429257    125.49347  0.031124373  0.032414017            1 
  337000    1.0976475   -7.2207949     126.2245  0.031212785  0.032391473            2 
  338000    1.1090324    -7.209329    126.53683  0.031197443   0.03237029            3 
  339000    1.0865672   -7.2223433    127.03949  0.031228979  0.032348407            1 
  340000     1.133476   -7.2578842    126.33028  0.030963303  0.032324379            1 
  341000    1.1094433   -7.2240313    126.74631  0.030974172  0.032300382            2 
  342000    1.1379878   -7.2100623    127.12967  0.030977014  0.032277169            1 
  343000    1.1050529   -7.2131116    127.78852  0.031046773   0.03225327            1 
  344000    1.1198804   -7.2238635    127.98209  0.031003414  0.032228993            2 
  345000    1.1327332   -7.2075837    129.11819  0.031187969  0.032205659            2 
  346000    1.0869488   -7.2463352    128.95969  0.031059655  0.032183539            1 
  347000    1.0858624   -7.2187346    129.56737  0.031116082  0.032160867            3 
  348000    1.1137178   -7.1851164    130.55653  0.031263538  0.032141446            1 
  349000     1.118261   -7.2184038    130.27427  0.031106559   0.03212113            3 
  350000    1.1009779   -7.2428119    130.70009  0.031119068  0.032101188            3 
  351000    1.1054212   -7.2219489    131.01479  0.031105126  0.032081502            2 
  352000    1.1211221   -7.2553489    131.49845  0.031131261   0.03206167            4 
  353000    1.1144805    -7.234816    131.25618  0.030985878  0.032042532            6 
  354000    1.1127102    -7.240176    132.22814  0.031127153  0.032023038            1 
  355000    1.1001809   -7.2479333    132.44041  0.031089299  0.032004521            1 
  356000    1.1091299   -7.2261871    133.00475  0.031134071  0.031985648            1 
  357000    1.1237672   -7.2217046    133.13472  0.031077198   0.03196694            2 
  358000    1.1065371   -7.2725835    133.36308  0.031043548    0.0319486            5 
  359000    1.1281337   -7.2191438    134.29354  0.031173058  0.031930823            1 
  360000    1.1051597   -7.2463255    134.24366  0.031074921  0.031912533            2 
  361000    1.0952073   -7.2494315    133.91352  0.030912633  0.031893549            1 
  362000    1.1069324   -7.2430986     134.3604   0.03093011  0.031873984            1 
  363000    1.1318581    -7.226437    134.24044  0.030817364  0.031852479            1 
  364000    1.1231615   -7.2502877    134.10663  0.030702067  0.031830569            2 
  365000    1.0880192   -7.2305599    134.61611  0.030734271  0.031808304            1 
  366000    1.1082534   -7.2236966    135.31634   0.03080973  0.031786616            3 
  367000    1.0913681     -7.22654    135.81953  0.030840038  0.031766317            1 
  368000    1.1223002    -7.237623    135.97989  0.030792548  0.031745096            1 
  369000    1.1076657   -7.2455934    136.10636   0.03073766  0.031723648            2 
  370000    1.0985926   -7.2584142    136.50748  0.030744927  0.031702598            2 
  371000    1.1005773   -7.2449504    136.52248  0.030665427  0.031681407            2 
  372000    1.0935911   -7.2680674     136.9999  0.030689943  0.031660508            3 
  373000    1.1003353    -7.240576    137.60272  0.030742341  0.031639453            3 
  374000    1.0807961   -7.2468444    137.82252  0.030709118  0.031618956            1 
  375000    1.0968525   -7.2600645    138.08991  0.030686647  0.031598206            1 
  376000    1.1093925   -7.2950554    137.86548  0.030555292  0.031576352            1 
  377000    1.0948633   -7.2278659    138.37088  0.030585959  0.031555495            1 
  378000    1.1319299   -7.2574711    138.52193  0.030538345   0.03153429            1 
  379000    1.0925957   -7.2670161    138.95874  0.030553813  0.031512863            2 
  380000    1.0938769   -7.2265624    138.99848  0.030482124  0.031490678            2 
  381000    1.1341229    -7.321911    138.81886  0.030362831  0.031468709            1 
  382000    1.0983593   -7.2706752    139.49525  0.030430902  0.031446206            2 
  383000    1.1400915    -7.274852    139.53381  0.030359837  0.031423885            3 
  384000    1.1145213   -7.2687554     139.9972  0.030381337  0.031400513            2 
  385000      1.15297   -7.2411666    140.59824   0.03043252  0.031377854            2 
  386000    1.0946028   -7.2407555    140.52137  0.030337083  0.031355654            1 
  387000    1.0993467   -7.2750429    140.59147  0.030273787   0.03133336            1 
  388000    1.1048379   -7.2888166    140.95615  0.030274086  0.031311061            1 
  389000    1.0931923    -7.224014    141.86516  0.030390994  0.031289698            1 
  390000    1.0902146   -7.2569204    142.01698  0.030345508  0.031267572            1 
  391000    1.1363905    -7.282149    142.07305  0.030279848  0.031246341            2 
  392000    1.0734648   -7.2436009    142.36627  0.030264937  0.031224821            1 
  393000    1.0772348   -7.2897592    142.40427  0.030195985  0.031203575            1 
  394000    1.0971133   -7.2830881     142.9651  0.030237964  0.031181376            1 
  395000    1.0815425   -7.2558173    142.91457  0.030150752  0.031159144            1 
  396000    1.0843038   -7.2477768    143.55514  0.030209415  0.031138109            1 
  397000    1.1119664   -7.2511367    143.55166   0.03013259  0.031116744            2 
  398000    1.0915131   -7.2599571     144.0241    0.0301558  0.031095265            1 
  399000    1.1088471   -7.2618877    144.18733  0.030114313  0.031073658            1 
  400000    1.0802842   -7.2780216    144.78504  0.030163549  0.031052666            2 
  401000    1.0959028   -7.2621761    145.11213  0.030156303  0.031031942            1 
  402000    1.0827659   -7.2376855    145.32019  0.030124418  0.031011063            2 
  403000    1.1034576   -7.2793717    145.64231  0.030116276  0.030990243            3 
  404000    1.1087751   -7.2569426    145.76079  0.030066169  0.030969748            1 
  405000    1.0854571   -7.2873085    145.96917  0.030034809  0.030948622            1 
  406000    1.1140448   -7.2122558    146.25811  0.030020137  0.030926653            1 
  407000    1.0978024   -7.2947771    146.27531  0.029949899  0.030904094            3 
  408000    1.0929144   -7.2685873    146.32566  0.029886776  0.030881296            2 
  409000    1.0998622    -7.291144    146.90931  0.029932621  0.030858359            2 
  410000    1.0896381   -7.2921181    146.81638  0.029840727  0.030836031            2 
  411000     1.081397   -7.3211279     146.9304  0.029791242   0.03081307            1 
  412000    1.0957227   -7.2677762    147.48428  0.029830964  0.030790803            3 
  413000    1.0764349   -7.3379751    147.64732  0.029791631  0.030767618            1 
  414000    1.0858014   -7.3130247    147.86635  0.029763758  0.030744926            2 
  415000    1.0914423   -7.2504984     148.2972  0.029778555  0.030721938            1 
  416000    1.0964721   -7.2908212    147.94641  0.029636702  0.030698858            1 
  417000    1.0820264   -7.2978195    148.31323  0.029638934  0.030675598            3 
  418000    1.0951397   -7.2563968    149.14523  0.029733898  0.030652021            2 
  419000     1.072622    -7.269429    149.32388  0.029698466  0.030628709            2 
  420000    1.0926389   -7.2579974    149.68787  0.029699975  0.030606049            2 
  421000    1.0959626   -7.3266863    149.74015  0.029639776  0.030583714            2 
  422000     1.076769   -7.3030984    150.15931  0.029652312  0.030560815            1 
  423000    1.1079116   -7.2879675    150.51049  0.029651396  0.030538427            4 
  424000    1.0829087   -7.3152459    150.67448  0.029613694  0.030516419            2 
  425000    1.0725003   -7.2943489    150.75967  0.029560719  0.030493518            2 
  426000    1.1106848   -7.3202817    150.28832  0.029399123  0.030470768            2 
  427000    1.0677594    -7.285146     151.5641  0.029579254  0.030448204            1 
  428000    1.0797466   -7.2889406    151.97614  0.029590371  0.030426375            1 
  429000    1.1140308   -7.3088085      151.663  0.029460566  0.030403705            2 
  430000    1.0907284   -7.3078844    152.01606  0.029460476  0.030380788            3 
  431000     1.063321   -7.2920738    152.41717  0.029469676  0.030358097            3 
  432000    1.0915154   -7.3041406    152.99386  0.029512705  0.030336316            2 
  433000    1.0872584   -7.3089124    152.94174  0.029434514  0.030313861            2 
  434000    1.0931356   -7.2693818    153.34848  0.029444794  0.030291253            3 
  435000    1.0894923   -7.3111636     153.3489  0.029377184  0.030268722            2 
  436000    1.0799789   -7.2826609       153.36  0.029311926  0.030245966            1 
  437000     1.083659   -7.3209459    153.34895  0.029242744  0.030222508            1 
  438000    1.0671384   -7.2802851    154.09781  0.029318457  0.030199766            2 
  439000    1.0757476   -7.3436035    154.34596  0.029298778  0.030177406            2 
  440000    1.0814591   -7.3114529    154.66362  0.029292352  0.030155267            3 
  441000    1.0869469   -7.3272744    154.89856  0.029270325  0.030132375            1 
  442000    1.0764197   -7.2932965    154.82397   0.02919004  0.030109215            2 
  443000    1.0750793   -7.3192015    155.03714  0.029164248  0.030086077            1 
  444000     1.072334   -7.3387215    155.40115  0.029166883     0.030063            1 
  445000    1.0945507   -7.3451028    155.61588   0.02914155  0.030039724            2 
  446000    1.0642852   -7.2815922    155.95296  0.029139193  0.030017335            2 
  447000    1.0779178   -7.2978997    156.75627  0.029223763  0.029994383            2 
  448000    1.0640695   -7.3596121    155.80577  0.028981728  0.029970919            1 
  449000    1.1000502   -7.3070272    157.00052  0.029138924  0.029947572            2 
  450000    1.0768756   -7.2835897    156.48878  0.028979403  0.029924385            2 
  451000    1.0737154   -7.3119383    157.29859  0.029064779  0.029901286            2 
  452000    1.0575641   -7.2987164    157.06515   0.02895744     0.029878            2 
  453000    1.0683569   -7.3210357    157.83951  0.029035965  0.029855163            2 
  454000    1.0893787   -7.3331599    157.61721  0.028931206  0.029832585            2 
  455000    1.0795726    -7.306146    158.24513  0.028982624  0.029810124            2 
  456000    1.0894621   -7.2922907    158.58513    0.0289812    0.0297873            2 
  457000    1.0769451   -7.3285975    159.10386  0.029012375  0.029764471            1 
  458000    1.0722459   -7.3102243    159.07404  0.028943603  0.029742303            1 
  459000    1.0515538   -7.3405107    159.17434  0.028898754  0.029719509            1 
  460000    1.0695937   -7.3502872    158.80173  0.028768429  0.029695958            1 
  461000    1.0663466   -7.3277476    159.25617  0.028788172    0.0296726            2 
  462000    1.0885118   -7.3351249    159.44206   0.02875939  0.029649122            1 
  463000    1.0740985   -7.3286186    160.00038  0.028797764  0.029625865            2 
  464000    1.0602805   -7.3499829    160.16064  0.028764484  0.029602486            2 
  465000    1.0777059   -7.3267913    160.28787  0.028725424  0.029579145            1 
  466000    1.0831818   -7.3500093    160.44339  0.028691593  0.029556144            1 
  467000    1.0635631   -7.3324342     160.7615  0.028686919  0.029533262            1 
  468000    1.0727532   -7.3518703    160.89697  0.028649746  0.029509909            2 
  469000    1.0583276   -7.3384271    160.77251  0.028566544  0.029486601            3 
  470000     1.085021   -7.3441247    161.85317   0.02869737  0.029463034            1 
  471000    1.0725273   -7.3182093    161.85913  0.028637496  0.029440051            1 
  472000    1.0616954   -7.3488954    162.19757  0.028636577  0.029417629            2 
  473000    1.0625749   -7.3407572    162.52131  0.028633071  0.029395025            3 
  474000    1.0681136   -7.3114041    162.84092  0.028628854  0.029372848            1 
  475000    1.0826374   -7.3233645    163.02949  0.028601665  0.029350657       -1e+20 
  476000    1.0354007   -7.3430187    163.13368  0.028559817  0.029328266            1 
  477000    1.0676643   -7.3296927    163.33291  0.028534751  0.029305499            2 
  478000    1.0602411   -7.3364904    163.57741   0.02851768  0.029282807            1 
  479000     1.068609   -7.3601453    163.44507  0.028435119  0.029259972            1 
  480000    1.0629318   -7.3671759    163.94626  0.028462893  0.029237583            2 
  481000    1.0754184   -7.3504815    164.44134  0.028489491  0.029214657            2 
  482000    1.0752941   -7.3547288    164.51854  0.028443731  0.029192441            1 
  483000    1.0417449    -7.330043    164.65058  0.028407622  0.029169829            1 
  484000    1.0760516   -7.3508156    165.34761   0.02846894  0.029147728            1 
  485000    1.0726679   -7.3194009    165.55333  0.028445589  0.029125834            1 
  486000    1.0817246   -7.3522551    165.73846  0.028418802  0.029104265            2 
  487000    1.0461178   -7.3763196    165.18634  0.028265973  0.029082065            1 
  488000    1.0586705   -7.3265658    165.80659  0.028313967  0.029059628            3 
  489000     1.069477   -7.3695039    165.60806  0.028222232  0.029037154            2 
  490000    1.0450906   -7.4042653    166.55606   0.02832586  0.029014644            3 
  491000    1.0825988   -7.3857885    166.58246  0.028272651   0.02899211            2 
  492000    1.0598549   -7.3962497    166.53011   0.02820632  0.028969988            1 
  493000    1.0505098   -7.3396378    167.28395   0.02827653  0.028948222            3 
  494000    1.0669157   -7.3255652    167.22183  0.028208811  0.028926352            3 
  495000    1.0288593      -7.3692    167.59162  0.028214078  0.028904914            1 
  496000    1.0499897   -7.3686882    168.05977  0.028235849  0.028883443            2 
  497000    1.0228545   -7.4029329    167.79753  0.028135066  0.028861769            2 
  498000    1.0364263   -7.3608692    167.98404  0.028109778  0.028839424            2 
  499000    1.0772474   -7.3741283     168.0972  0.028072345  0.028816766            1 
  500000    1.0412529   -7.3903044    167.87708  0.027979513  0.028793908            1 
  501000    1.0644633   -7.3764413    168.84328  0.028084378  0.028771233            2 
  502000    1.0440028   -7.3453382    169.67344  0.028166242  0.028748982            2 
  503000    1.0467308   -7.3191941    169.71126  0.028116511  0.028727627            1 
  504000    1.0504689   -7.3825074     168.9472  0.027934392  0.028705582            1 
  505000    1.0665306   -7.3346638    169.83176  0.028025043  0.028683962            1 
  506000    1.0819009   -7.3570498    169.92117  0.027984382  0.028662352            1 
  507000    1.0866956   -7.3821749    169.99616  0.027941513  0.028640697            2 
  508000     1.050861   -7.3531286    171.00657  0.028052258   0.02861918            1 
  509000    1.0602186    -7.378481    170.64619  0.027938145  0.028597278            1 
  510000    1.0403987   -7.3464068    170.93555  0.027930645  0.028575343            1 
  511000    1.0748736   -7.3438359    171.37518   0.02794768  0.028553429            2 
  512000    1.0624846   -7.3973149    171.18907  0.027862804  0.028531442            2 
  513000    1.0643391   -7.3718804    171.32923  0.027831259  0.028509131            1 
  514000    1.0736599   -7.3528702    171.19363  0.027755129  0.028486685            2 
  515000    1.0441066    -7.371305    171.76945   0.02779441  0.028464103            1 
  516000    1.0724463   -7.3830121    171.82668  0.027749786   0.02844199            1 
  517000    1.0738273   -7.3786526    172.15305  0.027748719  0.028419937            1 
  518000    1.0644079   -7.3709926    173.06885  0.027842479  0.028398591            3 
  519000    1.0380418   -7.3544345     172.9749  0.027773748  0.028377335            5 
  520000    1.0322315   -7.4140504    173.56992  0.027815692  0.028356609            2 
  521000    1.0697686   -7.3975925    173.35775  0.027728367  0.028335497            3 
  522000     1.050413   -7.3649044    174.11193  0.027795646    0.0283144            2 
  523000    1.0307828   -7.3749571    173.58652  0.027658782  0.028293242            1 
  524000     1.061921   -7.3517994    174.64786  0.027774787  0.028272538            3 
  525000    1.0351505    -7.378231    174.53148  0.027703409  0.028251631            2 
  526000    1.0561904   -7.4099775    174.38369  0.027627328   0.02823051            1 
  527000    1.0315615   -7.3692741    175.13681  0.027693993  0.028209861            1 
  528000    1.0191603   -7.3544861    175.91512  0.027764382  0.028189482            3 
  529000    1.0406885   -7.3398521    175.41696  0.027633421  0.028169121            1 
  530000    1.0538355   -7.4152905    175.26903  0.027558023  0.028148524            2 
  531000    1.0514296   -7.3940704     176.0141  0.027623053  0.028127462            1 
  532000    1.0652019   -7.4066165    175.12744  0.027432242  0.028106395            1 
  533000     1.031985   -7.3654703    175.88921  0.027499876  0.028085293            3 
  534000    1.0295149   -7.3696196    176.77277  0.027586263  0.028063988            1 
  535000    1.0311267   -7.4443761    176.10611  0.027430859  0.028042638            1 
  536000    1.0379973   -7.4361071     176.6678  0.027467009  0.028021218            2 
  537000    1.0393037   -7.3792002    177.04016  0.027473644  0.028000049            2 
  538000     1.036115   -7.3768279     177.0014  0.027416573  0.027978728            2 
  539000    1.0696718   -7.4094398    176.97101  0.027361009  0.027957539            2 
  540000    1.0295572   -7.4081196    177.24873  0.027353199  0.027936259            2 
  541000    1.0212106   -7.3866464    178.10248  0.027434146  0.027915412            1 
  542000    1.0476071   -7.3805173    178.29122  0.027412549  0.027894179            2 
  543000    1.0149475   -7.4102252    178.40333  0.027379271  0.027873166            3 
  544000    1.0358524   -7.3972258    177.79544  0.027235821   0.02785174            2 
  545000    1.0206166   -7.4357986    178.09073  0.027230999  0.027830317            2 
  546000    1.0532365   -7.4124839    178.45407   0.02723658  0.027808886            3 
  547000    1.0389075   -7.4206248    178.89621  0.027254145  0.027787151            3 
  548000    1.0184051   -7.4625671     178.5369  0.027149772  0.027765425            1 
  549000     1.014492    -7.420014    179.31077  0.027217785  0.027743829            4 
  550000    1.0258365   -7.3990912    179.87997  0.027254541  0.027722461            3 
  551000    1.0469619   -7.4398394    179.50395  0.027148208  0.027701004            2 
  552000    1.0435274   -7.3667835    179.81688  0.027146269  0.027679919            2 
  553000    1.0342977   -7.4012309    180.54224  0.027206486  0.027659068            2 
  554000    1.0414794   -7.3832907    181.06153  0.027235488  0.027638847            3 
  555000    1.0407384    -7.464843    180.73964  0.027138084  0.027618419            2 
  556000    1.0064394   -7.3961247    181.00591  0.027129183  0.027598143            2 
  557000    1.0158576   -7.4097217    181.20399  0.027110113  0.027577509            2 
  558000     1.004484   -7.4216598    181.73896  0.027141422  0.027557102            2 
  559000    1.0376817   -7.4656892     181.6445  0.027078787  0.027536614            1 
  560000    1.0262749   -7.4525655    181.73741  0.027044258  0.027516088            2 
  561000    1.0278323   -7.3885908    182.62195  0.027127444  0.027496082            2 
  562000    1.0438174   -7.4509895    182.67524  0.027087077  0.027476142            2 
  563000    1.0595018   -7.4037807    182.95589  0.027080505  0.027456065            3 
  564000    1.0233424   -7.4466682    182.81495  0.027011666  0.027436028            1 
  565000    1.0329123   -7.4036048    182.58539  0.026929998  0.027415817            1 
  566000    1.0450245   -7.4323774    183.46753  0.027012299  0.027395431            3 
  567000    1.0276677   -7.4361112    182.97958  0.026892942  0.027374838            4 
  568000     1.016964   -7.4300937    183.38073   0.02690445   0.02735458            3 
  569000    1.0366907   -7.4644577    183.69299  0.026902898  0.027334343            1 
  570000    1.0401435   -7.4061606    184.49177  0.026972482  0.027314291            3 
  571000     1.019362   -7.4283716    183.98631  0.026851475  0.027294059            1 
  572000    1.0050697   -7.4304618    183.68987  0.026761344   0.02727351            1 
  573000    1.0131252   -7.4109427    184.72005  0.026864464  0.027253122            1 
  574000    1.0262983   -7.4196896    184.34958  0.026763876  0.027232713            4 
  575000    1.0241869   -7.4306364    184.80568  0.026783431  0.027212472            1 
  576000     1.025751   -7.4368033     184.7596  0.026730267  0.027192079            1 
  577000    1.0294535   -7.4001728    185.80798  0.026835352  0.027171622            1 
  578000     1.024954   -7.4563957    185.76094  0.026782143  0.027151727            3 
  579000    1.0121144   -7.4286947    185.88339  0.026753511  0.027131355            2 
  580000    1.0094711   -7.4596132    185.92923   0.02671397  0.027110689            2 
  581000    1.0305113   -7.4434288    186.05471  0.026685989  0.027090569            1 
  582000    1.0155714   -7.4536564    186.22674  0.026664768  0.027070425            5 
  583000    1.0295659   -7.4361695    186.37258  0.026639877  0.027050271            2 
  584000    1.0439183   -7.4194248    186.47876  0.026609412  0.027030123            2 
  585000     1.011571   -7.4260013    186.87766  0.026620749  0.027009841            1 
  586000    1.0383699   -7.4313381    186.54591  0.026528144  0.026989218            3 
  587000    1.0014868   -7.4140753    187.01832  0.026550018  0.026968822            3 
  588000    1.0078885   -7.4268685    186.49644  0.026430902  0.026948267            4 
  589000    1.0213705   -7.4564076    186.99745  0.026456912  0.026927239            6 
  590000    1.0439314   -7.4302491    187.26394  0.026449709  0.026905948            1 
  591000     1.024789   -7.4483065    186.94208  0.026359571  0.026884574            3 
  592000    1.0035012   -7.4249042    187.91692  0.026452269  0.026863716            2 
  593000    1.0199927   -7.4345714    188.03646   0.02642446  0.026842529            3 
  594000     1.018242   -7.4560275    187.80151  0.026347013  0.026821425            1 
  595000    1.0207284   -7.4617672    187.93431  0.026321332   0.02680026            2 
  596000    1.0423456    -7.464105     188.2999  0.026328286  0.026779496            2 
  597000   0.99549156   -7.4410686    188.43808  0.026303473  0.026758503            1 
  598000    1.0122185   -7.4222832    189.14521  0.026358028  0.026737801            1 
  599000    1.0259598   -7.4722376    189.07441  0.026304175  0.026717131            1 
  600000   0.99630084   -7.4877526    189.31364  0.026293561  0.026696558            2 
  601000    1.0467113   -7.4322195    189.88732  0.026329357  0.026676697            3 
  602000    1.0226739   -7.4426958     190.0188  0.026303821  0.026656864            2 
  603000    1.0047733   -7.4689185    189.85466  0.026237515  0.026636698            2 
  604000   0.99526321   -7.4398299    190.28015   0.02625278  0.026616604            3 
  605000    1.0306463   -7.4422902     190.7428  0.026273112  0.026596762            2 
  606000    1.0242322   -7.4534548    190.47852  0.026193416   0.02657673            3 
  607000    1.0073748   -7.4624623     190.6931  0.026179722  0.026556922            5 
  608000    1.0150502    -7.485855    191.12368  0.026195679     0.026537            1 
  609000   0.99503772   -7.4393925    191.68127  0.026228964  0.026517285            1 
  610000    1.0030487   -7.4640137    191.40173  0.026147778  0.026497605            1 
  611000    1.0087851   -7.4665578    192.13207  0.026204592  0.026478429            3 
  612000    1.0144018   -7.4414645    192.04108  0.026149384  0.026458842            1 
  613000    1.0154088   -7.4630439    192.28405  0.026139756  0.026439094            5 
  614000    1.0181665   -7.4709622    192.06071  0.026066872  0.026418962            1 
  615000    1.0228699   -7.4746663    192.24998  0.026050133  0.026399024            2 
  616000     1.027628   -7.4960194    191.91359  0.025962336  0.026378619            1 
  617000    1.0132338   -7.4859765    191.65081  0.025884766  0.026357988            2 
  618000    1.0053611   -7.4515211    192.49246  0.025956373  0.026337193            1 
  619000    1.0229137   -7.4919831    192.29024  0.025887216  0.026316206            2 
  620000    1.0159018   -7.4965496    192.43018  0.025864272   0.02629536            1 
  621000    1.0162246   -7.4794866    192.78866  0.025870728  0.026274762            4 
  622000    1.0052952   -7.4661231    192.89513  0.025843399  0.026254523            1 
  623000      1.03303   -7.4043678    193.66498  0.025904893  0.026234002            4 
  624000     1.007097   -7.4554032    193.54607  0.025847498  0.026213723            1 
  625000   0.99954964   -7.4693912    193.74436  0.025832581   0.02619313            2 
  626000    1.0144825   -7.4878416    193.43351  0.025749935  0.026172808            1 
  627000   0.99276268   -7.5186688    193.53297  0.025722086  0.026152126            3 
  628000     1.007706   -7.5158652    193.85755  0.025724197  0.026131213            2 
  629000    1.0110753   -7.4943145    193.87799  0.025686009  0.026110314            3 
  630000   0.99938609    -7.490708    194.57166  0.025736992  0.026089582            1 
  631000   0.98927678   -7.4770866     194.2413  0.025652575  0.026068709            1 
  632000    1.0032272   -7.5095879    194.38033  0.025630317  0.026047682            1 
  633000   0.99799031   -7.4732983    194.79868  0.025644902  0.026026745            1 
  634000    1.0027337   -7.4836157    194.98808  0.025629348  0.026006352            1 
  635000    1.0090977   -7.4798882    194.85561  0.025571602  0.025985788            3 
  636000   0.99490536   -7.4700642    195.32743  0.025593217    0.0259652            2 
  637000   0.98986649   -7.5246804    195.27225   0.02554582  0.025944882            2 
  638000    1.0010996   -7.4856731    195.88207  0.025585433  0.025924388            1 
  639000   0.99813643   -7.4567986    196.29984  0.025599875  0.025903972            1 
  640000   0.99935201   -7.4928701    196.00181  0.025521069    0.0258835            2 
  641000   0.99794048    -7.480821    195.94255   0.02547355  0.025863031            2 
  642000    1.0097444   -7.4976642     195.7613  0.025410345  0.025842459            2 
  643000   0.97632459   -7.5040357    196.67465  0.025489198  0.025822015            2 
  644000   0.98643692   -7.5176915    196.73464   0.02545738  0.025801923            4 
  645000    0.9924026   -7.4904358    196.92972  0.025443117  0.025781754            3 
  646000   0.99152173   -7.4986793    196.98301  0.025410605  0.025761685            1 
  647000   0.97579998   -7.4642211    197.76171  0.025471627  0.025741777            1 
  648000   0.99668212   -7.5030196    197.47319  0.025395214  0.025722045            2 
  649000   0.99089445    -7.540091    197.63796  0.025377242  0.025702291            2 
  650000   0.99818457   -7.5156217    197.96727  0.025380419  0.025682601            2 
  651000    0.9899669   -7.5148088    198.27903   0.02538134    0.0256629            3 
  652000   0.99542304   -7.4965327    198.96174   0.02542967  0.025643466            1 
  653000    1.0217576   -7.4852626    199.53222   0.02546353  0.025623881            2 
  654000    1.0004161   -7.5088714    198.49893  0.025292932  0.025604564            2 
  655000   0.98992347   -7.4662388    200.14864  0.025464203  0.025585587            1 
  656000    1.0096385   -7.4998841    199.84133  0.025386348  0.025566877            2 
  657000   0.99595619   -7.5141379     199.7373  0.025334513  0.025547895            1 
  658000   0.98822938    -7.523175    199.80191  0.025304194  0.025528744            1 
  659000   0.98996042   -7.5499827    199.80138  0.025265728  0.025509496            2 
  660000   0.99174544   -7.5025302     200.3895  0.025301705  0.025490334            1 
  661000    1.0107552   -7.5001442    200.95382  0.025334571  0.025471225            1 
  662000   0.95822964   -7.5001055     199.9833  0.025174131  0.025452148            2 
  663000   0.99276686   -7.5221797    200.71429  0.025228041  0.025433131            1 
  664000   0.99605125   -7.5104638    200.74936  0.025194448  0.025413994            2 
  665000   0.97880604   -7.4786637     201.4353  0.025242519  0.025394951            1 
  666000   0.99537866   -7.4989946    201.06186  0.025157891  0.025375953            3 
  667000     1.015471   -7.5157408    201.21398  0.025139177   0.02535686            3 
  668000    1.0140042   -7.5303594    201.03367  0.025079051  0.025337396            3 
  669000   0.97417818   -7.5493179    201.50878  0.025100745  0.025318219            2 
  670000   0.98401863   -7.5178344    201.99775  0.025124098  0.025299208            1 
  671000    1.0005021   -7.5548079    201.53361  0.025029013  0.025280068            1 
  672000   0.99270776   -7.5049083     202.2542  0.025081126    0.0252612            1 
  673000   0.98682094    -7.521985    202.08326  0.025022691  0.025242249            2 
  674000   0.96572442   -7.5473062    202.30893  0.025013467  0.025223277            2 
  675000   0.97588504   -7.5522999    202.64705  0.025018154  0.025204039            3 
  676000   0.98012956   -7.5526817    202.95118  0.025018637  0.025185063            1 
  677000   0.98532227   -7.5221881    202.61096  0.024939803  0.025165862            1 
  678000   0.97066877    -7.530876    203.33778  0.024992352  0.025146871            1 
  679000    1.0026575   -7.5235848    203.41557  0.024965092  0.025128083            3 
  680000    0.9749141   -7.4905424    204.31004  0.025037995  0.025109665            2 
  681000   0.97285785   -7.5334146    204.06682  0.024971466  0.025091299            3 
  682000   0.98323482   -7.5072221    204.55735  0.024994788  0.025073204            3 
  683000   0.98652504   -7.5415414    204.52318  0.024954024  0.025055361            2 
  684000   0.97412588   -7.5419454    204.67154  0.024935617  0.025037214            2 
  685000   0.97384994   -7.5779841    204.44708  0.024871907  0.025018979            2 
  686000   0.95986878   -7.5672176    205.16726  0.024923136  0.025000703            2 
  687000   0.97247555    -7.545114    205.20055  0.024890896  0.024982778            2 
  688000   0.98744404   -7.5386882    205.10108  0.024842669  0.024964857            1 
  689000   0.97692961    -7.529928    205.23807  0.024823182  0.024946624            1 
  690000   0.98499055   -7.5596392    205.66435   0.02483869  0.024928389            4 
  691000   0.99988466   -7.5427295    205.25381  0.024753233   0.02490985            3 
  692000   0.97060306   -7.5371008    206.20495  0.024832003  0.024891533            2 
  693000   0.97883156   -7.5500492    205.83537  0.024751729  0.024873229            1 
  694000    1.0005194   -7.5617472    206.31177  0.024773267  0.024854754            1 
  695000   0.98213329   -7.5498307    206.61991   0.02477457  0.024836368            1 
  696000   0.97390353   -7.5312549     206.5513  0.024730759  0.024818246            1 
  697000   0.96216121    -7.526917     206.5074  0.024690029  0.024800006            1 
  698000   0.98650841    -7.565738    206.47523  0.024650815  0.024781933            2 
  699000   0.97955414   -7.5641918    206.62797  0.024633759  0.024763384            2 
  700000   0.97053495   -7.5646312     207.2526  0.024672929  0.024744927            1 
  701000   0.97793726   -7.5616549    206.69781   0.02457178  0.024726711            3 
  702000    0.9808517   -7.5691361    207.08322  0.024582528  0.024708341            3 
  703000   0.97736907   -7.5252495    207.38188  0.024582963  0.024690132            2 
  704000    1.0104372   -7.5390655    207.70977  0.024586858  0.024671973            2 
  705000   0.96633514   -7.5492506    207.68883  0.024549507  0.024653672            2 
  706000    0.9598552   -7.5699884    207.34175  0.024473767   0.02463517            4 
  707000    0.9785744   -7.5496306    207.85625  0.024499794  0.024616734            1 
  708000   0.97245608   -7.5751069    207.94516  0.024475655  0.024598156            2 
  709000   0.95471391    -7.570374    208.05387  0.024453911  0.024579527            1 
  710000   0.96182362   -7.5597796    208.16688  0.024432733  0.024560809            1 
  711000   0.96760691    -7.567284    208.32523  0.024416928  0.024542262            2 
  712000   0.96725013   -7.5221466    208.76742   0.02443439  0.024523825            3 
  713000   0.97711707   -7.5808313    208.10662  0.024322887  0.024505526            1 
  714000   0.97883153   -7.5638936    208.70427  0.024358575  0.024487111            2 
  715000   0.96276416   -7.5859586     208.8633  0.024343042  0.024468694            1 
  716000   0.95306218   -7.5757595    209.12547  0.024339556  0.024450377            2 
  717000   0.96238015   -7.5191455    210.33626  0.024446335   0.02443237            2 
  718000   0.96927032     -7.55801    209.21712  0.024282395  0.024414247            1 
  719000   0.96584662   -7.5677192    209.72884  0.024307932  0.024395789            1 
  720000   0.97687356   -7.5596006    209.83472  0.024286425  0.024377033            2 
  721000   0.96315911   -7.5184556    209.95905  0.024267112  0.024358564            2 
  722000   0.97300932   -7.5809123     209.0523  0.024128843  0.024339764            1 
  723000    0.9659159   -7.5520611    209.25742  0.024119112   0.02432101            1 
  724000   0.94540426   -7.6013269     209.3496  0.024096409  0.024302297            1 
  725000   0.95852238   -7.5451217    210.13612  0.024153577  0.024283748            1 
  726000    0.9716719   -7.5755413      210.776  0.024193756  0.024265271            3 
  727000   0.95971217   -7.5832843    210.63034   0.02414378  0.024246841            1 
  728000   0.97052051   -7.6063286    209.72176  0.024006611  0.024227936            2 
  729000   0.95046268   -7.6099352    210.56855  0.024070479  0.024208828            3 
  730000   0.96018477   -7.5533412    210.76194  0.024059582  0.024189906            3 
  731000   0.94952228    -7.604992    210.73384  0.024023466  0.024171061            4 
  732000   0.95890108   -7.6124488    211.13607  0.024036438  0.024152182            2 
  733000   0.97178262   -7.5739508    210.18153  0.023895126   0.02413322            2 
  734000   0.95065063   -7.5745052    211.05565  0.023961813  0.024114474            3 
  735000   0.95947987   -7.5772282     211.6629  0.023998061  0.024095549            2 
  736000   0.98948549   -7.5365395    211.87913  0.023989937  0.024076874            2 
  737000   0.96873588   -7.6059911    211.49761  0.023914248  0.024058198            3 
  738000   0.96513233   -7.5575936    211.78797   0.02391463  0.024039667            1 
  739000    0.9607306   -7.5603399    212.17047  0.023925402  0.024021113            1 
  740000   0.97340545   -7.6018228     211.8503  0.023857016  0.024002398            2 
  741000   0.95780168   -7.5573161    211.82255    0.0238217  0.023983491            2 
  742000   0.96657727   -7.6386655    211.87226  0.023795178  0.023964575            2 
  743000   0.95691882   -7.5883863    212.58955  0.023843601   0.02394596            4 
  744000   0.96740547   -7.5683136    213.04727  0.023862821  0.023927519            6 
  745000   0.94928068   -7.5789327    212.78341  0.023801276  0.023909086            2 
  746000   0.93599342   -7.5755217    213.75903  0.023878354  0.023890719            4 
  747000    0.9433925   -7.6087389    213.13093   0.02377632  0.023872222            2 
  748000    0.9768682   -7.6310478    212.86351   0.02371474  0.023853533            1 
  749000   0.96703146   -7.6326468    212.92655  0.023690092  0.023834882            2 
  750000   0.96683542   -7.6337228    213.03963   0.02367107  0.023816117            2 
  751000   0.95621725   -7.5985558    213.28126  0.023666362  0.023797563            3 
  752000   0.97751916   -7.6141202    213.45543  0.023654192  0.023778954            3 
  753000   0.93326112   -7.6193666    213.66963  0.023646484  0.023760286            1 
  754000   0.96588657   -7.5773937    213.59237  0.023606584  0.023741644            1 
  755000   0.95805512   -7.6345716     213.7667  0.023594558  0.023722892            2 
  756000   0.93066126    -7.586246    214.39404    0.0236325  0.023704131            2 
  757000   0.94084615   -7.5812271    213.93586  0.023550843  0.023685429            3 
  758000   0.94714984    -7.592166    213.69899  0.023493733  0.023666673            3 
  759000   0.95836326   -7.6205939    214.21627  0.023519572  0.023647592            1 
  760000   0.94734981   -7.5982689    214.58298  0.023528836   0.02362864            2 
  761000   0.94902977   -7.6524616     213.6728  0.023398247  0.023609765            1 
  762000    0.9440891   -7.5782055    214.81213  0.023492141  0.023590751            2 
  763000   0.93537617   -7.6161586    214.28313  0.023403574  0.023571775            4 
  764000   0.93280687   -7.6588018    214.63199  0.023410994  0.023552752            2 
  765000   0.95394631   -7.6179641    214.77485  0.023395953  0.023533889            2 
  766000   0.97041272   -7.6235498    215.04641  0.023394953  0.023515172            2 
  767000   0.93557246   -7.6247655    214.68363  0.023325036  0.023496439            1 
  768000   0.94654636   -7.6612658    214.53234  0.023278248  0.023477569            1 
  769000   0.94754029   -7.6287204     215.5416  0.023357347  0.023458738            4 
  770000   0.92585021   -7.6059288    215.80639   0.02335567  0.023440118            4 
  771000   0.94491639   -7.6061976    216.12693  0.023360023  0.023421585            1 
  772000   0.95059298   -7.5928854    216.11016  0.023327953  0.023403183            3 
  773000   0.96209635   -7.6167157    216.11078  0.023297841  0.023384832            1 
  774000   0.94189846   -7.6046399    216.21787  0.023279271  0.023366467            2 
  775000    0.9501842   -7.6390084    216.35204  0.023263661  0.023348247            1 
  776000   0.92243223   -7.5956735    216.16548  0.023213647  0.023329964            2 
  777000   0.94479168   -7.6243105    216.92767  0.023265516  0.023311839            2 
  778000   0.95090692   -7.6008825    217.27003  0.023272283  0.023293772            2 
  779000   0.95809944   -7.6120511    217.56222  0.023273665  0.023275819            3 
  780000   0.92571161   -7.6171493    218.38376  0.023331598  0.023257976            2 
  781000     0.951019   -7.5867565    217.59638   0.02321771      0.02324            1 
  782000    0.9318662   -7.6678705    217.01705  0.023126284   0.02322188            2 
  783000   0.94623186   -7.6748937    217.87446  0.023188001   0.02320389            3 
  784000   0.94086256   -7.6180377    217.36834  0.023104628  0.023185908            5 
  785000   0.93913944    -7.625198    218.04379  0.023146899  0.023168093            1 
  786000   0.91940744   -7.6274483    217.93423  0.023105835  0.023150204            2 
  787000   0.92174108   -7.6489269    217.93382  0.023076432  0.023132221            1 
  788000   0.91868614   -7.5880961    218.48846  0.023105801  0.023114269            2 
  789000   0.94244726   -7.6389373    218.90793  0.023120821  0.023096441            2 
  790000   0.95204499   -7.6268618    218.66086  0.023065492  0.023078492            1 
  791000   0.94577162   -7.6069347     218.9629  0.023068153  0.023060416            2 
  792000   0.97456193   -7.6529021    218.23319  0.022962246  0.023042381            2 
  793000   0.93331912    -7.630545    218.83386  0.022996413  0.023024163            2 
  794000   0.92521473   -7.6374497    218.50294  0.022932719  0.023005992            2 
  795000   0.94105902    -7.636088    218.86441  0.022941762  0.022987735            2 
  796000   0.95156708   -7.6437147    218.74235  0.022900162  0.022969545            4 
  797000   0.93223533   -7.6411358     218.9518  0.022893329  0.022951454            2 
  798000   0.93700939   -7.6779713    218.18314  0.022784371  0.022932972            2 
  799000   0.92748009   -7.6844546     218.9021  0.022830841  0.022914606            1 
  800000    0.9433981   -7.6929667    219.38192  0.022852284  0.022896478            2 
  801000     0.912516   -7.6467184    219.72932  0.022859896  0.022878508            2 
  802000   0.93034273   -7.6440557     220.0176  0.022861346  0.022860601            1 
  803000   0.92959712   -7.6700181    220.12077  0.022843583  0.022843002            2 
  804000   0.94785075   -7.6469014    220.55767  0.022860455   0.02282532            1 
  805000   0.94071565   -7.6373783    220.40304   0.02281605  0.022807708            1 
  806000   0.92866697    -7.655286    220.86321   0.02283532  0.022790259            1 
  807000    0.9407803   -7.6444854    221.30766  0.022852918  0.022772764            2 
  808000   0.92901129   -7.6551039    220.80843  0.022773146  0.022755405            2 
  809000   0.93610239    -7.652526     221.6577  0.022832479  0.022737929            2 
  810000   0.94317092   -7.6196554    221.75467  0.022814267   0.02272054            1 
  811000   0.93259457   -7.6798924    221.31093  0.022740539  0.022703141            2 
  812000   0.94923036   -7.6651065    221.73589  0.022756147  0.022685982            3 
  813000   0.94209831   -7.6335513    222.45021  0.022801375  0.022668844            2 
  814000   0.92584949   -7.6480213    222.92077  0.022821537  0.022651716            1 
  815000   0.91867583    -7.670852    222.45001    0.0227454  0.022634396            3 
  816000   0.93503988   -7.6519065    222.93305  0.022766855  0.022617083            1 
  817000   0.93763999   -7.7000687    222.12432  0.022656499  0.022600127            3 
  818000     0.904795    -7.668435    222.57233  0.022674443  0.022583285            1 
  819000   0.91417509   -7.6549109    222.35359    0.0226245  0.022566277            2 
  820000    0.9255411   -7.6742349    223.44738  0.022708067  0.022549359            5 
  821000   0.93449628   -7.6941063     223.4736  0.022683069  0.022532473            1 
  822000   0.93496192   -7.6420162    223.92914  0.022701657  0.022515588            2 
  823000   0.92250132   -7.6896215    223.65292  0.022646104   0.02249873            3 
  824000   0.93214442   -7.6670501    224.35891  0.022690019  0.022481884            2 
  825000    0.9073945   -7.6817372    223.53884  0.022579681  0.022465176            2 
  826000     0.927617   -7.6597296    224.07529  0.022606466  0.022448598            2 
  827000   0.91086701   -7.6468546     224.7907  0.022651219  0.022432077            1 
  828000    0.9088826   -7.6419998     225.3337  0.022678512  0.022415766            1 
  829000   0.91174291   -7.6739289    224.46943  0.022564277  0.022399416            3 
  830000   0.91283683   -7.6551379    225.06536  0.022596924  0.022383201            2 
  831000   0.92577961   -7.6745862    224.97885  0.022561056  0.022366998            2 
  832000   0.92316072   -7.7003114    225.36891  0.022573008  0.022350827            1 
  833000   0.90474882   -7.6913074    225.86652   0.02259569  0.022334764            2 
  834000   0.90732797   -7.6757505    225.81357  0.022563307  0.022318899            1 
  835000   0.91640993   -7.6847329     226.1413  0.022568992  0.022302969            1 
  836000   0.89841711   -7.6887567    225.87074  0.022515026  0.022287017            2 
  837000   0.92536374   -7.7052146    226.72239  0.022572918  0.022271046            2 
  838000   0.92465142   -7.6625263    227.18607  0.022592091  0.022255076            1 
  839000   0.90955775   -7.6585797    226.28806   0.02247597  0.022239277            2 
  840000   0.89754681   -7.7140696    226.55746  0.022475939   0.02222334            2 
  841000   0.91811197    -7.708633     226.9182  0.022484958  0.022207473            1 
  842000    0.9232929   -7.7225992    226.52037   0.02241888   0.02219149            2 
  843000   0.92055063    -7.663981    227.06967  0.022446586  0.022175346            2 
  844000   0.90917726   -7.6953232    226.93826  0.022407017  0.022159361            3 
  845000   0.89851976   -7.7154176    227.48763  0.022434677  0.022143358            2 
  846000   0.90095198   -7.7022893    227.47635  0.022407048  0.022127613            1 
  847000   0.91855654   -7.6907634    227.57234  0.022390037  0.022111815            3 
  848000   0.91836258   -7.6972249    227.72762  0.022378894  0.022096214            1 
  849000   0.92822253   -7.7123867    228.32623   0.02241129  0.022080777            2 
  850000   0.88490966   -7.7212304    227.71415  0.022324916  0.022064862            2 
  851000   0.92606459    -7.719913    227.66772  0.022294136  0.022048897            2 
  852000   0.89467196   -7.7271412     228.4016   0.02233975  0.022033081            2 
  853000   0.92031731   -7.6961682    228.15554  0.022289521   0.02201724            2 
  854000   0.92391916   -7.7330052     228.3198   0.02227945   0.02200145            3 
  855000   0.90940197   -7.6838178    228.95346  0.022315152  0.021985774            1 
  856000   0.91105625   -7.7240368     228.5676  0.022251519  0.021970081            1 
  857000   0.91254186   -7.6592547    228.75419  0.022243697  0.021954231            2 
  858000    0.9337602   -7.6838805    228.74933  0.022217301  0.021938495            3 
  859000   0.91263602   -7.6977861    228.75279  0.022191772  0.021922818            1 
  860000   0.91884136   -7.7308917    228.91912  0.022182085  0.021907177            2 
  861000   0.91771858   -7.6930567    229.56327  0.022218668  0.021891566            2 
  862000     0.902955   -7.7360439    228.92791  0.022131469  0.021875796            1 
  863000   0.90655779   -7.6869829    229.43356  0.022154651  0.021860058            2 
  864000   0.91709345   -7.6974974    229.52218  0.022137556   0.02184451            3 
  865000   0.90938116   -7.7280055    230.29006  0.022185941  0.021828855            1 
  866000   0.90951022   -7.7259599    229.60119  0.022094032  0.021813153            4 
  867000   0.90146928   -7.7169507    229.69905  0.022077955   0.02179737            2 
  868000   0.90530964   -7.7242911    229.77163  0.022059488  0.021781474            1 
  869000   0.91579775   -7.7289271    229.63676   0.02202117  0.021765673            2 
  870000    0.8919445   -7.7249475    230.25944  0.022055502   0.02175003            2 
  871000   0.90211537   -7.7107163    230.23286  0.022027636  0.021734305            1 
  872000   0.89842384   -7.7262272    229.54929  0.021937049  0.021718511            1 
  873000   0.89224758   -7.7423406    230.25386  0.021979177  0.021702611            4 
  874000   0.90324206   -7.7696431    229.89031  0.021919366  0.021686682            5 
  875000   0.91846879   -7.7191909    229.48516   0.02185573  0.021670894            1 
  876000   0.88893791   -7.7316878    230.41482  0.021919218  0.021655043            2 
  877000   0.91741413   -7.7139815    231.12925   0.02196211  0.021639371            2 
  878000   0.91783589   -7.7190822     230.9121  0.021916486  0.021623829            2 
  879000   0.91038501   -7.7027643     231.1086  0.021910182  0.021608319            3 
  880000   0.89698021   -7.7384478    231.41309  0.021914119  0.021592661            2 
  881000   0.89476481   -7.7229668    231.72717  0.021918953  0.021577169            3 
  882000    0.9014582   -7.7145401    231.31366  0.021855032  0.021561691            1 
  883000   0.88648953   -7.7267519    231.26562  0.021825747  0.021546447            2 
  884000   0.89459425   -7.7174676    231.78338  0.021849866  0.021531214            3 
  885000   0.88887413   -7.7307983    232.49181  0.021891884  0.021515927            1 
  886000    0.8977934   -7.7178493    232.69884  0.021886647  0.021500604            1 
  887000   0.87587626   -7.7269968    232.71757  0.021863732  0.021485291            1 
  888000   0.90392331    -7.755395    232.45956  0.021814898  0.021469949            4 
  889000   0.87348352   -7.7218224    232.32182  0.021777449  0.021454484            2 
  890000   0.88747659   -7.7538073    231.88569  0.021712144  0.021438929            3 
  891000    0.8755489   -7.7700334    231.97368  0.021696004  0.021423311            2 
  892000   0.90305674   -7.7419708    232.33182   0.02170514  0.021407686            1 
  893000   0.89422331   -7.7431714    232.83113  0.021727429  0.021392241            1 
  894000   0.88515318   -7.7394784    233.37021  0.021753375  0.021376728            3 
  895000   0.86724134   -7.7337231     233.3531  0.021727477  0.021361337            2 
  896000   0.89104853   -7.7229868    233.51638  0.021718413  0.021346007            2 
  897000   0.89697412   -7.7416843    233.31136  0.021675154   0.02133074            2 
  898000    0.8977661   -7.7603644    232.83514  0.021606825  0.021315326            3 
  899000   0.88829136   -7.7418489    233.47941  0.021642511  0.021299996            2 
  900000   0.89223377   -7.7138907    234.02803  0.021669262  0.021284915            2 
  901000   0.89642386   -7.7297664    233.55907  0.021601838  0.021269735            2 
  902000   0.87882503   -7.7723901    234.60047  0.021674102  0.021254654            1 
  903000   0.91057244   -7.7112283    234.58907  0.021649047  0.021239635            2 
  904000   0.88856822   -7.7025434    234.76317  0.021641148  0.021224574            1 
  905000   0.90072906   -7.7369427    234.95614  0.021635004  0.021209571            3 
  906000    0.8808773   -7.7083529    234.68997  0.021586642  0.021194663            2 
  907000   0.91028311   -7.7652448    234.42452  0.021538452  0.021179658            2 
  908000   0.88568126   -7.7395887    234.48314  0.021520112  0.021164449            3 
  909000   0.89530036   -7.7681825    233.97413  0.021449774  0.021149215            2 
  910000    0.8914767   -7.7251723    235.16904  0.021535626  0.021134104            3 
  911000   0.89915089   -7.7410996    234.97718  0.021494437   0.02111894            2 
  912000   0.88450539   -7.7570993    235.12057  0.021483971  0.021103908            4 
  913000   0.89591253    -7.776711    234.79011  0.021430277  0.021088776            2 
  914000   0.88325224   -7.7607485    234.47644  0.021378231  0.021073726            2 
  915000   0.88734935    -7.776079    235.35136   0.02143455  0.021058569            3 
  916000   0.88883621   -7.7374736     235.8724  0.021458552  0.021043699            3 
  917000   0.89296493   -7.7507264    235.29832  0.021382981  0.021028715            2 
  918000   0.87906404   -7.7716702    235.16777  0.021347837  0.021013723            2 
  919000   0.89290129   -7.7852735    234.96923  0.021306604  0.020998673            2 
  920000   0.86698965   -7.7489622    235.96198  0.021373368  0.020983599            4 
  921000   0.89012565   -7.7628879    236.02838  0.021356169  0.020968562            1 
  922000   0.89059607   -7.7368541    235.68738  0.021302186  0.020953526            2 
  923000   0.87108506   -7.7286388    236.01504  0.021308689  0.020938589            6 
  924000   0.88822208   -7.7250958    236.35744  0.021316508  0.020923529            5 
  925000   0.87871651   -7.7818099    236.09659  0.021269963  0.020908428            7 
  926000   0.89441056   -7.7393523    236.71943  0.021303044  0.020893397            3 
  927000   0.87011164   -7.7550059    237.00445  0.021305686  0.020878374            2 
  928000   0.87978207   -7.7914736    236.30851  0.021220233  0.020863366            4 
  929000   0.89452769   -7.7477873    237.10325  0.021268681  0.020848454            1 
  930000   0.88654644   -7.7863278    237.13437    0.0212486  0.020833555            2 
  931000   0.87292789   -7.7960818    236.69134  0.021186121   0.02081855            4 
  932000   0.87941669   -7.7946452    237.14953  0.021204358  0.020803688            1 
  933000   0.88822325   -7.7731675    236.90198   0.02115952  0.020788971            3 
  934000   0.89530021   -7.7734356    237.08538  0.021153228  0.020774117            2 
  935000   0.86747826    -7.786828    237.44351  0.021162523  0.020759139            3 
  936000   0.86802994   -7.8174731    237.32495  0.021129358  0.020744198            2 
  937000   0.89824995   -7.8171406    237.80329  0.021149349   0.02072939            1 
  938000   0.86710802   -7.8100061    237.87627  0.021133286  0.020714677            1 
  939000   0.87230526   -7.7812616    237.89228  0.021112201  0.020700034            2 
  940000   0.88252278   -7.7996017    237.64276   0.02106762  0.020685205            2 
  941000   0.88971672   -7.8068181    238.29829  0.021103285  0.020670526            1 
  942000   0.87296993   -7.7869711    238.68409  0.021115011  0.020655835            2 
  943000   0.88750938   -7.7979837     238.3258  0.021060958  0.020641212            4 
  944000   0.87087772   -7.8059684    238.60959  0.021063699  0.020626569            2 
  945000   0.85990841   -7.8076839     238.5058  0.021032258  0.020611849            2 
  946000   0.86879975    -7.779357    238.39157  0.020999962  0.020597093            2 
  947000   0.88087738   -7.8133161    238.68199  0.021003343  0.020582343            4 
  948000   0.89790827   -7.8025108    238.85613  0.020996495  0.020567667            3 
  949000   0.86072539   -7.7993046    239.10466  0.020996194  0.020553037            1 
  950000   0.87374749   -7.7639454    239.40306  0.021000269  0.020538542            2 
  951000   0.86105455   -7.8215478    239.20952  0.020961227   0.02052384            3 
  952000   0.89126499   -7.8275968    239.30964  0.020947973  0.020509122            1 
  953000   0.86305414   -7.8221685    238.78039  0.020879713  0.020494436            1 
  954000   0.87316454   -7.8277501    239.26114   0.02089982  0.020479632            5 
  955000   0.89408646   -7.8135539    239.09478  0.020863419  0.020464836            2 
  956000   0.88549935   -7.7519721    239.43016  0.020870829  0.020450104            1 
  957000   0.87737934   -7.7768417    239.96667   0.02089574  0.020435416            2 
  958000   0.86909562   -7.7889186     239.3444  0.020819798  0.020420675            2 
  959000   0.87520321   -7.8178723    239.48438  0.020810252  0.020405804            4 
  960000   0.88036147   -7.7944703    239.58904   0.02079766  0.020391005            2 
  961000   0.84681028    -7.777255    239.62212  0.020778887  0.020376021            1 
  962000   0.86817758   -7.8161483    239.29087  0.020728592  0.020361099            1 
  963000   0.86005213   -7.8206922    239.27966  0.020706098  0.020346187            4 
  964000   0.86512117   -7.8641976    239.04592  0.020664412  0.020331452            1 
  965000   0.86797857   -7.8181355    239.53289  0.020685051  0.020316521            1 
  966000   0.87448272   -7.8048543    240.05258   0.02070847  0.020301564            3 
  967000   0.85905505   -7.7750084    239.56128  0.020644716  0.020286699            1 
  968000   0.86016699   -7.8017602    240.10154  0.020669899   0.02027186            3 
  969000   0.87746608   -7.8058543    240.41626  0.020675633  0.020256912            3 
  970000   0.86351948   -7.8447844    239.65957   0.02058931  0.020242166            3 
  971000   0.86084025   -7.8424051    239.95682  0.020593617  0.020227279            2 
  972000   0.85358898    -7.835812    240.53012  0.020621581   0.02021244            3 
  973000   0.85503219   -7.8130706    239.68462  0.020527973  0.020197652            2 
  974000   0.85733535   -7.8150442    240.94059  0.020614356  0.020182919            3 
  975000   0.84903816   -7.8301652    240.44481  0.020550839   0.02016811            1 
  976000   0.85187059   -7.8215915    240.59135  0.020542294  0.020153409            3 
  977000   0.86101811   -7.8429862    240.53515  0.020516475  0.020138771            1 
  978000   0.87017291   -7.8684726    240.29746  0.020475243   0.02012415            3 
  979000   0.86501118   -7.8407965    241.21454  0.020532391  0.020109505            1 
  980000   0.86898711   -7.8230542    241.78092  0.020559602  0.020095016            3 
  981000     0.862613   -7.8339608     241.2686  0.020495124  0.020080445            1 
  982000   0.86847461   -7.8403501    241.29237  0.020476271  0.020065642            4 
  983000   0.87825685   -7.8202943    241.62768  0.020483866  0.020050893            3 
  984000   0.85029151   -7.8211725    241.81838  0.020479199   0.02003617            1 
  985000   0.87511328   -7.8589437     240.9279  0.020383071  0.020021411            1 
  986000   0.85507752   -7.8248951    241.79991  0.020436097  0.020006685            1 
  987000   0.86583396    -7.826201    241.55451  0.020394673   0.01999204            1 
  988000   0.84729289   -7.8292124    241.37101  0.020358553  0.019977369            1 
  989000   0.84384226   -7.8086485    241.73664  0.020368776  0.019962785            2 
  990000   0.87375117   -7.8330213    242.14498  0.020382574  0.019948202            3 
  991000    0.8565965   -7.8054429    242.68463  0.020407385  0.019933602            2 
  992000   0.86615952    -7.818689    242.12767  0.020340026  0.019918986            5 
  993000   0.87141533   -7.8328624    242.15187  0.020321574   0.01990436            3 
  994000   0.85148291   -7.8241898    242.15257  0.020301188  0.019889676            2 
  995000   0.83421243    -7.798699    242.24017  0.020288121  0.019875045            5 
  996000   0.84796634   -7.8265993     242.5559  0.020294169  0.019860391            3 
  997000   0.83611228   -7.8331344    242.15161  0.020240021  0.019845658            2 
  998000   0.84469368   -7.8679166    242.60169  0.020257323   0.01983074            1 
  999000   0.83216094   -7.8058247    242.77959  0.020251884  0.019816062            1 
 1000000   0.84818722   -7.8202302    242.57377  0.020214481  0.019801387            2 
 1001000   0.84757673    -7.864945    241.97983  0.020144841  0.019786664            1 
 1002000   0.85697704   -7.8161866    242.78814  0.020191961  0.019771964            1 
 1003000   0.85546393   -7.8641836    242.75961   0.02016946  0.019757273            2 
 1004000    0.8353357   -7.8904137    242.72481  0.020146482   0.01974256            2 
 1005000   0.84849608   -7.8325219    243.71922   0.02020889  0.019727856            2 
 1006000   0.84463184   -7.8312354    242.82949  0.020115101  0.019713309            1 
 1007000   0.86111415   -7.8461576    242.95981  0.020105909  0.019698756            1 
 1008000   0.85805633   -7.8918789    242.94209  0.020084498  0.019684021            2 
 1009000   0.85325045   -7.8831059    242.80013  0.020052868  0.019669354            1 
 1010000   0.84114756   -7.8618586    243.24749  0.020069925  0.019654673            3 
 1011000   0.86825504   -7.8879535    243.46153  0.020067716  0.019640124            2 
 1012000   0.84375769    -7.844221     243.3049  0.020034989  0.019625566            1 
 1013000   0.85473764   -7.8926954     243.4274  0.020025288  0.019611047            2 
 1014000   0.84373761     -7.87095    243.63898  0.020022927  0.019596545            1 
 1015000   0.83218919   -7.8502186     243.7559    0.0200128  0.019581994            3 
 1016000   0.83726242   -7.8990791    243.54981  0.019976198  0.019567471            2 
 1017000   0.83988432   -7.8801868     243.2965    0.0199358  0.019552889            3 
 1018000   0.85418252   -7.8732969    244.42344  0.020008468  0.019538332            2 
 1019000   0.87555847   -7.8566731    244.13105  0.019964921  0.019523936            1 
 1020000   0.85616915   -7.8582345    243.99524  0.019934251  0.019509492            3 
 1021000   0.84992056   -7.8698616    244.05049  0.019919237  0.019494946            1 
 1022000   0.84776911   -7.8667641    244.01355  0.019896734  0.019480351            1 
 1023000   0.85364381   -7.8785181    243.24182   0.01981442  0.019465703            1 
 1024000   0.83890852   -7.8739446    243.64556  0.019827926  0.019451024            2 
 1025000   0.85337984     -7.87002    244.29785  0.019861614  0.019436467            5 
 1026000    0.8599392   -7.9012881    244.19576  0.019833964  0.019421891            2 
 1027000   0.83472543   -7.8609467    244.56885  0.019844924   0.01940731            2 
 1028000   0.82570447   -7.8877132    244.41015  0.019812755   0.01939285            1 
 1029000   0.82077769   -7.8816537    243.99837  0.019760153  0.019378325            2 
 1030000   0.83540007    -7.865819    244.86939  0.019811439   0.01936387            2 
 1031000   0.84974112   -7.8629812    245.10938  0.019811621  0.019349367            2 
 1032000   0.85006509   -7.9082716    244.81331  0.019768516   0.01933493            2 
 1033000   0.83092851    -7.889634    244.69538  0.019739866  0.019320429            2 
 1034000   0.84187563   -7.8606348    244.30195  0.019689068  0.019305864            1 
 1035000   0.85104444   -7.8601851    245.36947  0.019755996  0.019291337            1 
 1036000   0.84706336   -7.8841995    244.78123   0.01968961  0.019276925            3 
 1037000   0.85716992   -7.8516998     245.2308   0.01970675  0.019262467            3 
 1038000    0.8384266   -7.8898978       244.56  0.019633912  0.019247981            1 
 1039000   0.84868628   -7.8761261    245.00878  0.019651009   0.01923337            2 
 1040000     0.811703   -7.9036843    245.18093  0.019645908  0.019218807            3 
 1041000   0.82416831   -7.8763869    245.17979  0.019626944   0.01920422            1 
 1042000   0.82932979   -7.8894553    244.69325  0.019569197  0.019189662            2 
 1043000   0.83501709   -7.9125337    244.65565  0.019547432  0.019175129            2 
 1044000    0.8503842   -7.8808127    245.06033  0.019561009  0.019160525            3 
 1045000   0.81671799   -7.9099382    244.81871  0.019523023  0.019145951            2 
 1046000   0.83328297   -7.8980085    245.63462  0.019569361  0.019131494            5 
 1047000   0.82433708   -7.8804957    246.14372  0.019591191    0.0191171            1 
 1048000   0.83028638   -7.8897573    245.61988  0.019530843  0.019102701            2 
 1049000   0.84571616   -7.8867688    246.26734  0.019563659  0.019088331            1 
 1050000   0.82131386   -7.8640411    246.74705  0.019583099  0.019074062            5 
 1051000   0.83462494   -7.8974148    246.35655  0.019533503  0.019059724            1 
 1052000   0.82587173   -7.8797819    247.23841  0.019584792  0.019045486            2 
 1053000   0.84033775   -7.8978164    245.95825  0.019464882   0.01903125            3 
 1054000   0.82195267   -7.8745759     246.7584  0.019509677   0.01901691            2 
 1055000   0.84478646   -7.8580605    246.86143  0.019499323  0.019002671            3 
 1056000   0.81727208   -7.8897906    246.75536  0.019472488  0.018988491            3 
 1057000   0.82111621   -7.8862601    247.04534  0.019476927  0.018974336            1 
 1058000   0.81382326   -7.8976868     246.8672  0.019444486  0.018960122            1 
 1059000   0.81540575   -7.8829755    246.80259  0.019421041  0.018945893            4 
 1060000   0.83112487   -7.9028061    247.35119  0.019445848  0.018931795            4 
 1061000    0.8356963     -7.90396    246.45519  0.019357147  0.018917618            2 
 1062000    0.8260368   -7.9128629     247.0167   0.01938298  0.018903376            2 
 1063000   0.81811578   -7.9060974    247.37579  0.019392897  0.018889095            1 
 1064000   0.80341497   -7.8812057     247.2238  0.019362767  0.018874919            5 
 1065000   0.82292402   -7.9444664    246.59845  0.019295653  0.018860617            3 
 1066000   0.82925093   -7.9445215     246.8099  0.019294082  0.018846314            4 
 1067000   0.81796753   -7.9257132    247.65041  0.019341644  0.018832088            2 
 1068000   0.79712351   -7.8872846    247.87371  0.019340958  0.018817879            2 
 1069000   0.83275649   -7.9214643    246.86721  0.019244404  0.018803569            5 
 1070000   0.81969726   -7.9205136    246.61688  0.019206922  0.018789222            3 
 1071000   0.83025002   -7.9086265    247.73267  0.019275807   0.01877499            2 
 1072000    0.8144564   -7.9271872    247.99824   0.01927847  0.018760773            6 
 1073000    0.8156715   -7.9051766    247.91147  0.019253765  0.018746615            3 
 1074000   0.81737983     -7.90999    248.01317  0.019243729  0.018732559            2 
 1075000    0.8460102   -7.9249107    248.26958  0.019245704  0.018718568            1 
 1076000   0.82298583   -7.9197756     247.7542  0.019187903  0.018704552            2 
 1077000   0.82418909   -7.9490158    248.39822  0.019219918  0.018690632            2 
 1078000      0.80355   -7.9505947    248.28364  0.019193231  0.018676712            1 
 1079000     0.826226   -7.9282517    247.80958  0.019138831  0.018662758            1 
 1080000   0.83271788   -7.9441919    248.76968  0.019195192  0.018648875            1 
 1081000   0.80867963    -7.881219    248.95964  0.019192078  0.018635053            2 
 1082000   0.81239427   -7.9115326    248.84099  0.019165202  0.018621346            2 
 1083000   0.82749045   -7.9108863    248.44473  0.019117016  0.018607588            2 
 1084000     0.818797   -7.9378477    248.86219  0.019131472  0.018593772            2 
 1085000   0.82721226   -7.9287832    248.44206  0.019081571      0.01858            3 
 1086000   0.81255487   -7.8624522    249.63114  0.019155244  0.018566253            1 
 1087000    0.8011558   -7.9317151    249.02642  0.019091262  0.018552579            3 
 1088000   0.84891521   -7.9088435    249.37366  0.019100311   0.01853894            5 
 1089000   0.84827285   -7.9465494    249.40821  0.019085416  0.018525333            3 
 1090000   0.81782811   -7.9328696     249.2203  0.019053539  0.018511549            3 
 1091000     0.818714   -7.9511338    249.63009  0.019067376  0.018497833            1 
 1092000   0.82186459   -7.9371291    249.21694  0.019018386  0.018484116            2 
 1093000   0.80546301   -7.9769944    249.17793  0.018998012  0.018470295            2 
 1094000   0.82822428   -7.9406447    249.85073  0.019031896  0.018456591            1 
 1095000    0.8315984     -7.96851     248.9414  0.018945312  0.018442877            2 
 1096000   0.81469831   -7.9670771     249.3829  0.018961595  0.018429089            5 
 1097000   0.80330689   -7.9305739    250.13209  0.019001223  0.018415406            1 
 1098000    0.8159785   -7.9499443    249.59744  0.018943339  0.018401707            2 
 1099000   0.81161352   -7.9872879    249.35809  0.018907953  0.018387951            1 
 1100000   0.82513489   -7.9958287    249.34246  0.018889581  0.018374195            1 
 1101000     0.821434   -7.9753337    249.83972  0.018910061  0.018360432            2 
 1102000   0.81065684   -7.9762165    249.46245  0.018864372  0.018346656            1 
 1103000   0.79528712   -7.9628923    249.84414  0.018876106  0.018333004            1 
 1104000   0.81508486   -7.9599282    250.21447  0.018886962  0.018319336            1 
 1105000   0.82499182   -7.9500838    250.18945  0.018867982  0.018305785            2 
 1106000   0.80552715   -7.9604415     249.4929   0.01879844  0.018292186            2 
 1107000   0.82320171   -7.9871898    249.97126  0.018817469  0.018278561            4 
 1108000   0.81192969   -7.9976491    251.03942  0.018880823  0.018264997            2 
 1109000   0.81281314   -7.9595485    251.01381  0.018861873   0.01825146            2 
 1110000   0.82113921   -7.9998102    250.48617  0.018805268  0.018237932            2 
 1111000    0.8113322   -7.9584589    250.66875  0.018802036  0.018224406            1 
 1112000   0.79770997   -7.9548145    250.39504  0.018764616  0.018210928            2 
 1113000     0.799316   -7.9440791    251.01552  0.018794214  0.018197559            1 
 1114000   0.79581649   -7.9530808    250.72255  0.018755427  0.018184078            2 
 1115000   0.80828948   -7.9727362     251.1337  0.018769335  0.018170638            2 
 1116000   0.79411671   -7.9560745    251.44492  0.018775756  0.018157149            1 
 1117000   0.81972474   -7.9620135    251.37339   0.01875361  0.018143697            2 
 1118000   0.78553736   -7.9903992    250.53266   0.01867417  0.018130182            5 
 1119000   0.77507147   -7.9370021    251.47031  0.018727309  0.018116678            4 
 1120000   0.80603562   -7.9595692    251.81093  0.018735932  0.018103221            2 
 1121000   0.80719085   -7.9560739    251.12293  0.018668074  0.018089822            2 
 1122000    0.7842512   -7.9823526    250.87202    0.0186328  0.018076391            2 
 1123000   0.80430536   -7.9641828     251.1762   0.01863878  0.018062986            1 
 1124000   0.80591248   -7.9921061    251.52214  0.018647845  0.018049632            2 
 1125000   0.80135902   -7.9794081    251.59211  0.018636453   0.01803624            2 
 1126000    0.8035627   -7.9846414    252.04281  0.018653257  0.018022853            3 
 1127000   0.80495201   -7.9883148    251.39184  0.018588571   0.01800942            2 
 1128000    0.8097459   -7.9944547    251.64422  0.018590737  0.017996027            2 
 1129000   0.81222288   -7.9791443    251.85502   0.01858983  0.017982663            2 
 1130000   0.81793656   -7.9705313    252.07074  0.018589288  0.017969361            2 
 1131000   0.80608775   -7.9670594    251.44123  0.018526468   0.01795598            1 
 1132000   0.81531709   -7.9822253    252.56102  0.018592537  0.017942632            2 
 1133000   0.78818299   -7.9659576    251.93053  0.018529754  0.017929207            1 
 1134000    0.8147253   -7.9980668    251.63578  0.018491753  0.017915812            3 
 1135000   0.79718146   -8.0211178    251.09693  0.018435898   0.01790233            2 
 1136000   0.79270563    -7.997152    252.30946  0.018508617  0.017888936            3 
 1137000    0.8004198    -8.001502     252.0424  0.018472765  0.017875657            2 
 1138000   0.79148291   -7.9834375    252.12879  0.018462858  0.017862435            1 
 1139000   0.79497508   -7.9653489    252.33152  0.018461481  0.017849169            3 
 1140000   0.79469437   -7.9562991    252.37024  0.018448117  0.017835891            2 
 1141000    0.7925909   -7.9442588    252.39907  0.018434054  0.017822586            2 
 1142000   0.79019579   -7.9712203    252.48666  0.018424304  0.017809355            4 
 1143000   0.78585532   -7.9790633    252.38401  0.018400701  0.017796082            4 
 1144000   0.79974793   -7.9761098     252.4812  0.018391696  0.017782831            3 
 1145000   0.81492664   -7.9941029    252.28691  0.018361492  0.017769598            2 
 1146000   0.80087108   -7.9672275    253.36589  0.018423931  0.017756437            1 
 1147000   0.80090149   -7.9861857    252.95058  0.018377694  0.017743268            1 
 1148000   0.78418826   -8.0103821    252.50633  0.018329437  0.017729989            6 
 1149000   0.79838814    -8.014153    252.66538   0.01832502  0.017716656            1 
 1150000    0.7992098   -8.0019531    253.05625   0.01833741  0.017703369            2 
 1151000   0.80443949   -8.0064053    252.65685   0.01829256  0.017690023            1 
 1152000   0.79236243   -7.9986721    252.95173  0.018298013  0.017676713            1 
 1153000   0.80268521   -8.0368712    252.45596  0.018246311  0.017663396            2 
 1154000   0.78444738   -7.9918286    252.60628  0.018241355  0.017650066            1 
 1155000   0.78904859   -8.0285588    252.71602  0.018233479   0.01763677            2 
 1156000   0.80077935   -8.0511911    252.84639  0.018227104  0.017623452            3 
 1157000   0.79500427   -8.0176673    252.77038  0.018205876  0.017610111            3 
 1158000   0.79791193   -7.9839005    252.99736  0.018206488  0.017596797            2 
 1159000    0.7808541   -8.0187685    252.73958  0.018172245  0.017583467            2 
 1160000   0.79277298   -8.0179316    252.97208  0.018173282  0.017570101            4 
 1161000   0.78592517   -7.9873629    252.93303  0.018154826  0.017556716            3 
 1162000   0.78484308   -8.0465413    252.97449  0.018142175  0.017543366            2 
 1163000   0.79763182   -8.0099254    252.99141  0.018127788  0.017530012            2 
 1164000   0.78017527   -8.0383673    252.99622  0.018112559  0.017516657            1 
 1165000   0.78424493   -8.0377937     253.0336  0.018099686  0.017503292            3 
 1166000   0.79785759   -8.0281965    252.51018  0.018046754  0.017489918            1 
 1167000    0.7672902   -8.0264564    253.44326  0.018097919  0.017476617            3 
 1168000   0.78454032   -8.0210857      253.352  0.018075913  0.017463272            2 
 1169000   0.80803786   -8.0484815     252.7208  0.018015455  0.017450002            2 
 1170000    0.7813488   -8.0184251    253.13647  0.018029663  0.017436746            1 
 1171000   0.77708952   -8.0195806    253.77812  0.018059928  0.017423418            3 
 1172000   0.80942399   -8.0401369    253.20668  0.018003888  0.017410176            2 
 1173000   0.78141626    -8.037979    253.80072  0.018030741  0.017396942            1 
 1174000   0.79593653   -8.0294144    252.78673  0.017943408   0.01738367            3 
 1175000   0.79595584   -8.0164565    253.97188   0.01801219  0.017370472            3 
 1176000    0.7812205     -8.00435    254.09121  0.018005329  0.017357283            2 
 1177000   0.79256615   -8.0056867     254.1285  0.017992672  0.017344144            1 
 1178000   0.78843625   -8.0403435    253.23108  0.017913914  0.017331027            2 
 1179000   0.78188146   -8.0539869    253.90028  0.017946019  0.017317835            2 
 1180000    0.7979882   -8.0887758    253.76721  0.017921413  0.017304649            4 
 1181000   0.78674776   -8.0552104    253.14162  0.017862096  0.017291411            2 
 1182000   0.75927914   -8.0274628    253.74382   0.01788944  0.017278164            2 
 1183000   0.76173163   -8.0479396    253.87872  0.017883821  0.017264909            2 
 1184000   0.77737693   -8.0362012    253.69345  0.017855677  0.017251652            1 
 1185000   0.77215425   -8.0080046    253.98399   0.01786104  0.017238489            2 
 1186000   0.79519169   -8.0354816     253.8116  0.017833867  0.017225262            1 
 1187000   0.79024091   -8.0283707    253.91964  0.017826428   0.01721205            3 
 1188000   0.79108993   -8.0635485    253.27545  0.017766235  0.017198805            3 
 1189000   0.77750312   -8.0440173     254.2136  0.017817045  0.017185593            1 
 1190000   0.79362673   -8.0468568     253.2968  0.017737871  0.017172337            4 
 1191000   0.78993483   -8.0724769    253.52876  0.017739208  0.017159009            2 
 1192000   0.78435031   -8.0819224    253.78407  0.017742175  0.017145641            3 
 1193000   0.76712241   -8.0865762    253.70727  0.017721938  0.017132292            2 
 1194000   0.76340502   -8.0455892    253.53728  0.017695231  0.017118932            3 
 1195000   0.76897797   -8.0328984    253.93993  0.017708502  0.017105664            1 
 1196000   0.76401071   -8.0339332    254.04179  0.017700793  0.017092374            2 
 1197000   0.76226571   -8.0534857    253.34177  0.017637272  0.017079039            2 
 1198000   0.77743203   -8.0818031    253.63664  0.017643061  0.017065676            1 
 1199000   0.77341704   -8.0935245    253.28795  0.017604111  0.017052306            2 
 1200000   0.77114303   -8.0520783    254.09472  0.017645466  0.017038976            2 
 1201000   0.79952319    -8.047538    253.82586  0.017612119   0.01702567            2 
 1202000   0.76427332   -8.0710649    253.94245   0.01760555  0.017012398            3 
 1203000   0.78392026   -8.0793205     253.8531  0.017584726    0.0169991            1 
 1204000   0.78234107   -8.0803382    253.56129  0.017549923  0.016985796            1 
 1205000   0.76717573   -8.0710422    254.21413  0.017580507  0.016972543            1 
 1206000   0.75630013   -8.0887482     254.3119  0.017572685  0.016959319            1 
 1207000   0.75680994   -8.0753693    253.89906  0.017529623  0.016946102            1 
 1208000   0.77952947   -8.0649213    253.74082  0.017504195  0.016932917            4 
 1209000   0.77663575   -8.0820867    254.36081  0.017532452  0.016919773            2 
 1210000    0.7897298   -8.0561487    254.52894  0.017529542  0.016906669            2 
 1211000    0.7723248   -8.0852437    254.72916  0.017528844  0.016893503            1 
 1212000    0.7905799   -8.0621766    254.16246  0.017475417  0.016880382            1 
 1213000   0.77381305   -8.0686494    254.09272  0.017456219  0.016867223            3 
 1214000   0.77051912   -8.0836839    254.82662  0.017492217  0.016854062            1 
 1215000   0.77201334   -8.0645818    254.93395  0.017485182  0.016840978            2 
 1216000   0.75359654   -8.1038859    255.01177  0.017476136  0.016827967            1 
 1217000   0.76701517   -8.0746182    254.54837  0.017430045  0.016814936            2 
 1218000   0.77436867   -8.0916644    254.45111   0.01740908  0.016801913            3 
 1219000   0.76938703   -8.0857696     254.4943  0.017397751  0.016788896            3 
 1220000   0.78240052   -8.0806657    254.28459  0.017369166  0.016775889            3 
 1221000    0.7563362   -8.0817034     254.4003  0.017362838    0.0167628            2 
 1222000   0.78011343   -8.0784924     254.6576  0.017366176   0.01674972            1 
 1223000   0.76999406   -8.0500649    254.99705  0.017375106   0.01673669            2 
 1224000   0.77514715   -8.1028873    255.24001  0.017377451  0.016723661            2 
 1225000   0.76612182   -8.0985433    254.81071  0.017334062  0.016710529            1 
 1226000   0.74791934   -8.0918313    255.35365  0.017356828  0.016697412            1 
 1227000   0.78149463   -8.0589072      254.762    0.0173025  0.016684259            2 
 1228000   0.76152757   -8.0926085    255.07343  0.017309543  0.016671165            2 
 1229000   0.75993652   -8.0879125    254.83073  0.017279002  0.016658033            3 
 1230000   0.77063551   -8.0743607      254.749  0.017259417  0.016644913            2 
 1231000   0.75777346   -8.0928954    254.77873  0.017247409  0.016631817            2 
 1232000   0.77376897   -8.0918025     255.1035  0.017255378  0.016618713            2 
 1233000   0.76407444   -8.0867063    254.80226  0.017221023   0.01660561            1 
 1234000    0.7761646   -8.0910419    254.38495  0.017178887  0.016592531            4 
 1235000   0.74955374   -8.0894298    254.79536  0.017192669  0.016579417            3 
 1236000   0.75540066   -8.0798522    254.70621  0.017172749  0.016566288            2 
 1237000   0.75425004    -8.069109    255.16517  0.017189785  0.016553239            1 
 1238000   0.75970417   -8.0829934    254.93235  0.017160228   0.01654015            5 
 1239000   0.75399465   -8.0723509    255.43904  0.017180457  0.016527153            3 
 1240000   0.72494635   -8.0780735    255.29772  0.017157105   0.01651417            3 
 1241000   0.74829487   -8.0668322    255.25791  0.017140607   0.01650118            3 
 1242000    0.7696484   -8.0700768    255.33714  0.017132122  0.016488152            2 
 1243000   0.74989461   -8.1086142    254.90853  0.017089604  0.016475157            2 
 1244000   0.75420401   -8.1119829    255.28429  0.017101038  0.016462127            4 
 1245000   0.74582378   -8.1099433    255.96706  0.017133003  0.016449164            3 
 1246000   0.74966301   -8.0812708    255.71126  0.017102144  0.016436219            3 
 1247000   0.76308226   -8.1100768    255.40891  0.017068224  0.016423254            2 
 1248000   0.76118697   -8.1077884    254.67686  0.017005667  0.016410293            2 
 1249000   0.76081026   -8.0954342    255.48317  0.017045848  0.016397365            3 
 1250000   0.76296923   -8.0726572    255.80098  0.017053398  0.016384451            2 
 1251000   0.73873925   -8.1194487    255.85001  0.017043033   0.01637155            2 
 1252000   0.74780783   -8.1296556    255.40457  0.016999772  0.016358654            2 
 1253000   0.76983539   -8.1275692    255.61469  0.017000179  0.016345786            5 
 1254000   0.75753172    -8.087542    256.17027  0.017023543  0.016332955            1 
 1255000   0.75459133   -8.1089366    255.68102  0.016977491   0.01632011            2 
 1256000   0.74932212    -8.111834    255.56196  0.016956075  0.016307228            4 
 1257000   0.74088745    -8.130114    254.68796  0.016884643  0.016294288            5 
 1258000   0.76222024    -8.119808    255.70635  0.016938682  0.016281326            3 
 1259000   0.75318312   -8.1249139    255.97466  0.016942988  0.016268358            2 
 1260000   0.73942207   -8.1248808    254.97877  0.016863675  0.016255405            2 
 1261000   0.74639979   -8.1231158    255.48748   0.01688392  0.016242423            2 
 1262000   0.73350484   -8.1274444    255.34952  0.016861431  0.016229435            3 
 1263000   0.76052539   -8.1027487    255.55198   0.01686144  0.016216539            2 
 1264000   0.75276341   -8.0966057    255.24514  0.016827871  0.016203668            2 
 1265000   0.75097272   -8.1127711    255.25454  0.016815187   0.01619079            1 
 1266000   0.75490858   -8.1214788    255.71885  0.016832468  0.016177928            4 
 1267000   0.74717378   -8.1220316    255.44517  0.016801182  0.016165066            1 
 1268000   0.75414539   -8.1127662    255.97658  0.016822856  0.016152264            3 
 1269000   0.74988787   -8.0922346    255.65576  0.016788532  0.016139506            2 
 1270000   0.76491319   -8.0912319    256.15111  0.016807815  0.016126774            2 
 1271000   0.73759633   -8.1065969    255.61916  0.016759714  0.016114057            2 
 1272000   0.73395686    -8.134931    255.43968   0.01673478  0.016101267            4 
 1273000   0.72580117   -8.1259168    255.13366  0.016701601   0.01608841            3 
 1274000   0.76448924   -8.1073232    255.02772  0.016681562  0.016075551            3 
 1275000   0.72206474   -8.0829513    255.92958  0.016727423  0.016062788            2 
 1276000   0.75544444    -8.133465    255.79985  0.016705842  0.016050029            2 
 1277000   0.75521944   -8.1208121    256.22546  0.016720534  0.016037243            4 
 1278000   0.74577827   -8.1424522    256.02583  0.016694434  0.016024414            1 
 1279000   0.76015618   -8.1427513    255.30516  0.016634425   0.01601158            3 
 1280000   0.75669031   -8.1570732    255.54036  0.016636742  0.015998735            2 
 1281000   0.74418343   -8.1286785    256.34832  0.016676315  0.015985926            1 
 1282000   0.73189049   -8.1439901    255.48865  0.016607426  0.015973143            4 
 1283000   0.73240848   -8.1503276    255.80003  0.016614707  0.015960324            2 
 1284000   0.74049179   -8.1227337    255.42956  0.016577723  0.015947538            1 
 1285000    0.7426098   -8.1478861    255.96216  0.016599362  0.015934775            2 
 1286000   0.73478703   -8.1216579    256.32241  0.016609799  0.015922115            2 
 1287000   0.74866107   -8.1517721    256.18626  0.016588077  0.015909481            3 
 1288000   0.75398975   -8.1375036    256.36679  0.016586878  0.015896826            1 
 1289000   0.73785998    -8.112045     256.1164  0.016557823  0.015884148            3 
 1290000   0.73154002   -8.1596618    255.66526  0.016515843  0.015871451            1 
 1291000    0.7359707   -8.1442628    256.28634  0.016543141  0.015858826            3 
 1292000    0.7363595   -8.1531532    256.00165  0.016511974   0.01584616            3 
 1293000   0.72280152   -8.1538059    256.07443  0.016503894  0.015833504            3 
 1294000   0.73310146   -8.1491369    256.39572  0.016511832  0.015820861            2 
 1295000   0.72597416   -8.1469334    255.96685  0.016471483  0.015808229            4 
 1296000   0.71754609   -8.1665043    256.04947  0.016464086  0.015795562            2 
 1297000   0.74439088   -8.1694506    256.01062  0.016448896  0.015782895            3 
 1298000   0.73719651   -8.1747693    256.29553  0.016454515  0.015770218            3 
 1299000     0.722788   -8.1463561    256.29753  0.016441977  0.015757532            3 
 1300000   0.73262384   -8.1668461    256.08159  0.016415487  0.015744912            1 
 1301000   0.74180456   -8.1590261    256.86113  0.016452801  0.015732259            3 
 1302000   0.74515758   -8.1491102    256.53984  0.016419601  0.015719649            1 
 1303000   0.72243321   -8.1615209    255.77497  0.016358082  0.015707039            2 
 1304000   0.74330471   -8.1556482    255.93004  0.016355447  0.015694395            2 
 1305000   0.72785196    -8.157786     255.6419  0.016324515  0.015681788            4 
 1306000   0.73570899   -8.1737918    255.87905  0.016327147   0.01566917            1 
 1307000   0.71783083   -8.1448505    255.99235  0.016321879   0.01565655            2 
 1308000   0.72106641   -8.1625854     256.4764   0.01634024   0.01564393            4 
 1309000   0.73506295   -8.1761773    256.49029  0.016328641  0.015631342            4 
 1310000   0.72851179   -8.1896479    256.28792  0.016303302  0.015618736            2 
 1311000   0.72697367   -8.1677334    256.65175  0.016313994  0.015606132            3 
 1312000    0.7243378   -8.1522518    256.60145  0.016298364  0.015593518            2 
 1313000   0.72529554    -8.160751    256.38352   0.01627212  0.015580958            3 
 1314000   0.72045085   -8.1477987    256.60322   0.01627367  0.015568389            2 
 1315000   0.73250037    -8.170562    255.99112  0.016222505  0.015555821            1 
 1316000   0.73078513   -8.1451935    256.80473  0.016261698  0.015543226            3 
 1317000   0.72926947    -8.184642    256.40093  0.016223799  0.015530635            3 
 1318000   0.72194833   -8.1539154    256.27134  0.016203296   0.01551807            2 
 1319000   0.71444396   -8.1612934    256.72803  0.016219865  0.015505516            3 
 1320000   0.74006391   -8.1755426    256.61925   0.01620071  0.015492947            2 
 1321000   0.73555096   -8.1666783    256.41144  0.016175337  0.015480448            3 
 1322000   0.71433939   -8.1769442    256.54008   0.01617121  0.015467937            1 
 1323000   0.73894843   -8.1781515    256.00419  0.016125232  0.015455409            2 
 1324000    0.7251817     -8.16805    256.48918  0.016143579  0.015442886            1 
 1325000   0.71481893   -8.1759425    256.46751  0.016130032  0.015430367            2 
 1326000   0.72666443   -8.2034315    256.33731  0.016109685  0.015417872            1 
 1327000   0.72884189   -8.1872708     256.1629  0.016086593  0.015405327            2 
 1328000   0.73203648   -8.1974947    256.47409  0.016094007  0.015392851            3 
 1329000     0.718329   -8.2039736    256.89635  0.016108374  0.015380354            2 
 1330000   0.72500797   -8.1878721    256.65049  0.016080858  0.015367835            2 
 1331000   0.73146688   -8.2050397    256.19677  0.016040369  0.015355334            4 
 1332000   0.72429732   -8.1943323    256.54948  0.016050393  0.015342849            2 
 1333000   0.71683742   -8.2070467    256.11225  0.016011018  0.015330315            2 
 1334000   0.71487672   -8.1943163    256.35801  0.016014368  0.015317776            2 
 1335000   0.70595516   -8.2228823    256.08823  0.015985533  0.015305221            1 
 1336000   0.72919568   -8.2131868    256.12948   0.01597614  0.015292706            3 
 1337000   0.70938629   -8.2086492     256.6643  0.015997526  0.015280178            2 
 1338000   0.70413559   -8.2458768    255.97217  0.015942462  0.015267662            1 
 1339000    0.7164155   -8.2310582    256.44732  0.015960127  0.015255194            2 
 1340000    0.7075901   -8.2023585    256.57614  0.015956227   0.01524268            1 
 1341000   0.71531895   -8.2067434    256.42823  0.015935137  0.015230234            3 
 1342000   0.71409071   -8.2143528    256.61017  0.015934561  0.015217799            2 
 1343000   0.71338694   -8.2145181    256.47232  0.015914143  0.015205336            1 
 1344000   0.72535645   -8.2281988    255.80183  0.015860729  0.015192871            1 
 1345000   0.71389566   -8.2166705    255.91425  0.015855902  0.015180378            2 
 1346000   0.70603677   -8.2119584    256.32168  0.015869346   0.01516791            3 
 1347000   0.71661661   -8.2235646    256.19358   0.01584964  0.015155446            2 
 1348000   0.70569354   -8.2309616    256.44072  0.015853161  0.015143008            2 
 1349000    0.7118284   -8.2207029    255.45959    0.0157808  0.015130544            3 
 1350000   0.72000698   -8.2346036    256.22934  0.015816626  0.015118081            2 
 1351000   0.71528137   -8.2370497    256.37051  0.015813626  0.015105611            1 
 1352000   0.72698651   -8.2556788    256.14637  0.015788114  0.015093161            2 
 1353000   0.71739455   -8.2515334    256.34563  0.015788718  0.015080717            5 
 1354000   0.71850745   -8.2303701    256.32835  0.015775994  0.015068261            2 
 1355000    0.7043969   -8.2090172     256.1515  0.015753475  0.015055838            3 
 1356000   0.70076666   -8.2137804    256.50315  0.015763468  0.015043458            3 
 1357000   0.70016202   -8.2020786     257.2195  0.015795843  0.015031087            3 
 1358000    0.7184289   -8.2179319    256.49589  0.015739807  0.015018793            1 
 1359000   0.71282022   -8.2111963    256.79797  0.015746748  0.015006523            1 
 1360000   0.71864262   -8.2247694    257.24771  0.015762728  0.014994251            2 
 1361000   0.70703799   -8.2090357     256.7697  0.015721878  0.014981984            2 
 1362000   0.72045721   -8.2286577    256.68237  0.015704991  0.014969688            1 
 1363000   0.70324844   -8.2109465    256.03181  0.015653694  0.014957408            2 
 1364000   0.70497964   -8.2355813    256.31228  0.015659352  0.014945128            1 
 1365000   0.71179549   -8.2302746        256.7  0.015671551  0.014932832            4 
 1366000   0.71829752   -8.2605203     256.5284   0.01564961  0.014920544            1 
 1367000   0.70097082   -8.2040612    256.96635  0.015664859  0.014908282            1 
 1368000   0.69719153   -8.2196691    256.44782  0.015621821  0.014895999            2 
 1369000   0.71209625   -8.2475829    256.72333  0.015627181  0.014883719            1 
 1370000   0.72002726   -8.2318979    256.47886  0.015600904  0.014871463            2 
 1371000   0.71017448   -8.2357443    256.85658  0.015612483  0.014859234            4 
 1372000   0.71625679   -8.2237995    257.03387  0.015611873  0.014846995            2 
 1373000   0.71076684   -8.2307403    256.62812  0.015575875  0.014834749            3 
 1374000   0.70682561   -8.2375418    256.44689  0.015553547  0.014822517            2 
 1375000   0.70795545    -8.236401    256.86938  0.015567841  0.014810305            2 
 1376000   0.72033351   -8.2248808    257.14565  0.015573259  0.014798129            1 
 1377000   0.71299741   -8.2276891    256.24357  0.015507357  0.014785959            2 
 1378000    0.6938647   -8.2356029    256.72869  0.015525441  0.014773813            2 
 1379000   0.68694757   -8.2571162    256.90273    0.0155247    0.0147617            1 
 1380000   0.70903765   -8.2498111    257.12038  0.015526593  0.014749584            1 
 1381000   0.70449311   -8.2434119     256.8908  0.015501497  0.014737502            5 
 1382000   0.71075348   -8.2409104    257.01259  0.015497624   0.01472538            1 
 1383000   0.72521318    -8.243475    256.85585  0.015476973  0.014713287            2 
 1384000    0.7064964   -8.2559079    256.46564  0.015442295  0.014701169            1 
 1385000   0.68699782   -8.2520044      257.024  0.015464741  0.014689061            2 
 1386000   0.70902413   -8.2578957    256.69804  0.015433985  0.014676972            1 
 1387000   0.69271458   -8.2612923    256.85636   0.01543237  0.014664862            2 
 1388000   0.69985898   -8.2666954    256.81538  0.015418791  0.014652766            2 
 1389000   0.69416633   -8.2534394    256.89567  0.015412507    0.0146407            1 
 1390000   0.68778447   -8.2502198    256.89274  0.015401244  0.014628666            1 
 1391000   0.69567172   -8.2722395    256.67386  0.015377058  0.014616589            3 
 1392000   0.70074168   -8.2464535    257.05394  0.015388765   0.01460454            5 
 1393000   0.69953316   -8.2609628    256.75522  0.015359848  0.014592482            2 
 1394000   0.68221634   -8.2605986    257.17187  0.015373737  0.014580449            2 
 1395000   0.69865389   -8.2673117    257.15799  0.015361887   0.01456843            6 
 1396000   0.68866699   -8.2826658    256.86986  0.015333683  0.014556402            3 
 1397000   0.69681039   -8.2628528      256.559  0.015304164  0.014544335            1 
 1398000   0.70446222    -8.257756    256.83293  0.015309545  0.014532271            4 
 1399000   0.69055221   -8.2644092    256.69616  0.015290455  0.014520263            2 
 1400000   0.70173192   -8.2460484    256.59838  0.015273713  0.014508264            1 
 1401000   0.68483015   -8.2861201    256.73226  0.015270774  0.014496286            2 
 1402000   0.69241685   -8.2704958     256.6709  0.015256235  0.014484346            2 
 1403000   0.69555817   -8.2772294     257.3262  0.015284284   0.01447243            1 
 1404000   0.69567161   -8.2611645    257.07926  0.015258741  0.014460519            3 
 1405000   0.70205928   -8.2818341     256.9602  0.015240818  0.014448601            2 
 1406000   0.70144792   -8.2819297    257.02112  0.015233589  0.014436674            4 
 1407000   0.68653131   -8.2779319    257.22229  0.015234677  0.014424736            3 
 1408000   0.69497849   -8.2742511    256.75506  0.015196204  0.014412817            1 
 1409000   0.68553623   -8.3158424    257.24067  0.015214139  0.014400902            2 
 1410000   0.69711952    -8.301766    256.86606  0.015181209  0.014388972            1 
 1411000   0.71117973   -8.2835243    256.74873  0.015163521  0.014377056            3 
 1412000   0.69483861   -8.2856263     256.3805   0.01513105  0.014365133            2 
 1413000   0.69212621   -8.3009344    256.72762  0.015140813  0.014353202            1 
 1414000   0.69339504   -8.2990175    256.62688  0.015124168  0.014341274            1 
 1415000   0.69622919    -8.299306    256.81541  0.015124582  0.014329344            1 
 1416000   0.68418666   -8.2812871    257.22286   0.01513788  0.014317438            5 
 1417000   0.69048534   -8.3129185     256.8304  0.015104117  0.014305572            2 
 1418000   0.68926657   -8.3047043    256.72902  0.015087507  0.014293739            2 
 1419000   0.66945543   -8.2766149    257.05267  0.015095882  0.014281877            1 
 1420000   0.67535138    -8.308727    256.97644  0.015080777  0.014270055            3 
 1421000   0.68586723   -8.2866855    257.06422  0.015075312  0.014258246            2 
 1422000   0.68892989   -8.2869995    256.64558  0.015040177  0.014246425            1 
 1423000   0.68377538   -8.2913387    257.05089  0.015053343  0.014234631            3 
 1424000   0.68650336   -8.2917403    257.33903  0.015059634  0.014222842            3 
 1425000   0.69864616   -8.3015224    256.85579  0.015020806  0.014211048            3 
 1426000   0.68113699   -8.2957057    257.34797  0.015039035  0.014199244            2 
 1427000   0.67696583   -8.3171353    256.93677  0.015004483  0.014187468            2 
 1428000   0.68828661   -8.3109498    256.97888  0.014996433  0.014175683            3 
 1429000   0.68557115   -8.3143404    256.90718  0.014981758  0.014163928            1 
 1430000   0.66965841   -8.2724224    256.58371  0.014952431  0.014152146            2 
 1431000   0.67680473   -8.2784181    256.63705  0.014945088  0.014140406            2 
 1432000   0.69121165   -8.2866722    256.73376  0.014940279  0.014128641            1 
 1433000   0.68534585   -8.2963924    256.92609  0.014941038  0.014116911            1 
 1434000   0.69779914   -8.2604386    257.04573  0.014937572  0.014105204            2 
 1435000   0.68367114   -8.3018031      256.531  0.014897271  0.014093503            3 
 1436000    0.6797032   -8.3168064    256.70992   0.01489728  0.014081779            2 
 1437000   0.67723189   -8.3071138    257.25403  0.014918466  0.014070036            2 
 1438000   0.66234821   -8.3118724    256.82738  0.014883367  0.014058306            1 
 1439000    0.6796686    -8.321191    256.34768  0.014845244  0.014046603            3 
 1440000   0.66804584    -8.297703    257.39134  0.014895332  0.014034899            1 
 1441000   0.68339856   -8.3242337    256.82144  0.014852038  0.014023223            2 
 1442000     0.678302   -8.2946931    256.94506  0.014848882  0.014011539            3 
 1443000   0.67427731   -8.3028005    257.08445  0.014846642   0.01399983            1 
 1444000   0.66540446   -8.3076578    256.54025  0.014804954  0.013988137            2 
 1445000   0.68303657   -8.3181092    256.63121  0.014799954  0.013976429            2 
 1446000   0.67114502   -8.3230014    256.77052  0.014797748  0.013964721            2 
 1447000   0.67986767   -8.3109328    257.14121  0.014808869  0.013952992            4 
 1448000   0.66394996   -8.3221514    257.23273  0.014803909  0.013941302            1 
 1449000   0.68352117   -8.3252526    256.67022  0.014761342  0.013929624            2 
 1450000   0.66598697   -8.2996282    256.23206   0.01472598  0.013917951            3 
 1451000   0.66496081   -8.3293905    256.70092  0.014742759  0.013906307            3 
 1452000   0.68136586   -8.3347225    257.10807  0.014755973  0.013894675            2 
 1453000   0.66594953   -8.3094096    256.72063  0.014723597  0.013883074            1 
 1454000   0.66912694   -8.3216983     256.5661  0.014704614  0.013871521            2 
 1455000   0.68086511   -8.3250967    256.83393  0.014709847  0.013859956            5 
 1456000   0.67783515   -8.3251675    256.70739  0.014692502  0.013848384            2 
 1457000   0.66848079   -8.3261898    257.35385  0.014719392  0.013836782            1 
 1458000   0.68199368   -8.3244167    257.26874  0.014704432  0.013825217            1 
 1459000   0.67160646   -8.2994113    256.90391  0.014673515  0.013813657            2 
 1460000   0.67790212   -8.3140091    257.09096  0.014674142  0.013802109            2 
 1461000   0.66400288   -8.3260983    256.38617  0.014623897  0.013790565            3 
 1462000   0.66200924   -8.3456892    256.14661   0.01460024  0.013779006            1 
 1463000   0.67579034   -8.3373712    256.56372  0.014614019  0.013767444            2 
 1464000   0.66696776   -8.3176142    256.64641  0.014608744  0.013755883            2 
 1465000   0.67501491   -8.3196755     256.5482  0.014593185  0.013744357            2 
 1466000   0.67057366   -8.3297683      256.288   0.01456844  0.013732857            2 
 1467000   0.68456405   -8.3149836    257.45301  0.014624688  0.013721375            2 
 1468000   0.67302726   -8.3292336    256.41295  0.014555685  0.013709918            1 
 1469000   0.65135167   -8.3196781    257.10341  0.014584945   0.01369842            2 
 1470000   0.65447982    -8.320226    256.72661  0.014553663  0.013686943            2 
 1471000   0.67107282   -8.3540419    256.62608  0.014538074   0.01367546            2 
 1472000   0.64895819   -8.3457975    256.99767  0.014549234  0.013663982            4 
 1473000   0.66496995   -8.3254401    257.39038  0.014561574  0.013652538            2 
 1474000   0.64604812     -8.30896    257.02145  0.014530837   0.01364109            2 
 1475000   0.66817733    -8.333189    257.45543  0.014545505  0.013629658            2 
 1476000   0.66222337   -8.3263396    256.88445  0.014503413  0.013618199            1 
 1477000   0.67221522   -8.3614293    255.90811  0.014438507  0.013606744            1 
 1478000    0.6578301   -8.3524694    256.82352  0.014480352  0.013595292            7 
 1479000   0.66998223   -8.3628343     256.4787  0.014451132  0.013583831            4 
 1480000    0.6797483   -8.3428827    256.69062  0.014453301  0.013572397            2 
 1481000   0.66966005   -8.3572736    256.88036  0.014454218  0.013560974            3 
 1482000   0.66276505   -8.3511675    256.94914  0.014448332  0.013549544            1 
 1483000   0.66324387   -8.3690698    256.61502  0.014419815  0.013538145            2 
 1484000   0.66006317   -8.3540544    257.12643  0.014438816  0.013526756            2 
 1485000   0.65316674   -8.3578255    256.33632  0.014384754  0.013515369            4 
 1486000   0.65094121   -8.3646096    256.49105  0.014383751  0.013503985            3 
 1487000   0.65155243   -8.3419911      256.626  0.014381641  0.013492592            2 
 1488000   0.65623203   -8.3560297    256.39209  0.014358876  0.013481185            3 
 1489000   0.66718098   -8.3536264    256.28688  0.014343344    0.0134698            2 
 1490000   0.64489529   -8.3426592    256.84343  0.014364845  0.013458446            3 
 1491000   0.65293933   -8.3530313    257.12414    0.0143709  0.013447098            1 
 1492000   0.65805131    -8.353256    255.74607  0.014284298  0.013435758            2 
 1493000   0.65621649   -8.3480986    256.50566  0.014317128  0.013424404            2 
 1494000   0.64808731   -8.3595764    256.39384  0.014301307  0.013413046            2 
 1495000   0.66166766   -8.3912365    256.26021  0.014284292  0.013401688            2 
 1496000   0.64590382   -8.3766013    256.29951  0.014276933  0.013390348            1 
 1497000    0.6513164   -8.3630715    255.85592  0.014242703  0.013378987            5 
 1498000   0.65768883   -8.3612163    256.16782  0.014250546  0.013367656            4 
 1499000   0.64329278    -8.345949    256.04799  0.014234378  0.013356341            3 
 1500000   0.66138834   -8.3745894    256.89415  0.014271897  0.013345055            3 
 1501000   0.64429274   -8.3888301    256.48036  0.014239416  0.013333761            4 
 1502000   0.64461115   -8.3929574    256.49152  0.014230555  0.013322463            2 
 1503000    0.6538125   -8.3767265    256.67156  0.014231069  0.013311191            2 
 1504000   0.65295425   -8.3842883    256.65593  0.014220741  0.013299932            2 
 1505000   0.64674366   -8.3829653    256.58201  0.014207199  0.013288714            2 
 1506000   0.64910396   -8.3563432    256.38609  0.014186924  0.013277498            1 
 1507000    0.6471621   -8.3816383    256.46513   0.01418188  0.013266273            1 
 1508000   0.65297538   -8.3825362    256.54484  0.014176881  0.013255049            1 
 1509000   0.65007823   -8.3971014    256.59449  0.014170228  0.013243852            2 
 1510000   0.65493016   -8.3885456    256.30263  0.014144737  0.013232662            4 
 1511000   0.64336092   -8.3864781    256.29148  0.014134761  0.013221467            2 
 1512000   0.65564192   -8.3800687     256.5877  0.014141738  0.013210277            2 
 1513000   0.63916942   -8.4053332    256.20785   0.01411147  0.013199101            4 
 1514000   0.65187495   -8.3924197    256.13374   0.01409807   0.01318795            2 
 1515000   0.64783119   -8.3775474    256.24147   0.01409469  0.013176804            2 
 1516000   0.63793116   -8.3821337    256.47127  0.014098025  0.013165656            3 
 1517000   0.64385295   -8.3902891    256.07015  0.014066697  0.013154508            1 
 1518000   0.66028315    -8.384944    256.24624  0.014067097  0.013143353            1 
 1519000   0.65802305    -8.372336    256.41472  0.014067079   0.01313221            2 
 1520000   0.63430067   -8.3838175    256.45822   0.01406021  0.013121111            2 
 1521000   0.66314414   -8.4114877    256.13644  0.014033336  0.013109989            3 
 1522000   0.64628323   -8.4183314    256.43904  0.014040683  0.013098902            1 
 1523000   0.63763588   -8.4161791    256.24647  0.014020927   0.01308781            4 
 1524000   0.64080312   -8.3768601    256.42638  0.014021565  0.013076747            3 
 1525000   0.65276546    -8.407712     256.3168  0.014006383   0.01306569            1 
 1526000   0.64518615    -8.425063    255.92292  0.013975695  0.013054618            1 
 1527000   0.65155446   -8.4311972    256.95087  0.014022641  0.013043536            2 
 1528000   0.64841206   -8.4131965    256.53836  0.013990966  0.013032475            2 
 1529000   0.62922103   -8.4032304    255.73295   0.01393792  0.013021439            4 
 1530000   0.65483708   -8.4211013    256.04539  0.013945827  0.013010389            2 
 1531000   0.64316858   -8.4270604    256.06462  0.013937765  0.012999351            2 
 1532000   0.65788919   -8.4260266    256.33425  0.013943334  0.012988328            1 
 1533000   0.64398442   -8.4204733    256.57263  0.013947197  0.012977308            1 
 1534000   0.64085199   -8.4121327    256.03614   0.01390896  0.012966272            2 
 1535000   0.65584655   -8.4154584    256.22086  0.013909927  0.012955222            4 
 1536000   0.63260591   -8.4058422    256.27773  0.013903957  0.012944204            4 
 1537000   0.64147931   -8.4087895    256.06065  0.013883141  0.012933198            2 
 1538000   0.63979383   -8.4419225    255.97856  0.013869666  0.012922197            2 
 1539000    0.6339675   -8.4251247    256.12582  0.013868628  0.012911231            2 
 1540000   0.63410425    -8.423777    255.98633  0.013852074  0.012900266            1 
 1541000   0.62595867   -8.4346875    256.01502  0.013844636  0.012889299            1 
 1542000   0.63909137   -8.4148705    256.20373  0.013845857  0.012878353            3 
 1543000   0.62808963   -8.4061788    256.49452  0.013852588  0.012867423            2 
 1544000   0.62630549   -8.4141805    256.46102  0.013841808  0.012856503            2 
 1545000   0.62763601   -8.4170827    256.25814  0.013821906  0.012845605            1 
 1546000   0.62888148   -8.4160969     255.8323  0.013790012  0.012834733            1 
 1547000   0.64689427   -8.4372132     256.2086  0.013801368  0.012823842            3 
 1548000   0.63316246   -8.4066858    256.39758  0.013802626  0.012812943            2 
 1549000   0.64571212   -8.4331599    256.51159  0.013799849  0.012802073            3 
 1550000   0.63352486   -8.4396532    256.43153  0.013786642  0.012791219            1 
 1551000   0.63199123   -8.4310481    256.01541  0.013755395  0.012780369            2 
 1552000   0.63899556   -8.4387137    255.81362  0.013735697  0.012769555            2 
 1553000   0.62657106   -8.4354765    256.04357  0.013739191  0.012758739            2 
 1554000   0.64174277   -8.4173705    256.47218  0.013753334  0.012747937            3 
 1555000    0.6368977   -8.4257137    256.30659  0.013735616  0.012737181            2 
 1556000   0.62508963   -8.4546974    255.97454  0.013709005  0.012726382            3 
 1557000   0.64050178   -8.4489895    256.59007  0.013733144  0.012715619            3 
 1558000   0.62674894   -8.4149485    256.79937  0.013735525   0.01270486            2 
 1559000   0.64502424   -8.4088747    255.95456  0.013681556  0.012694094            1 
 1560000   0.62338762   -8.4536283    256.41162  0.013697202  0.012683332            4 
 1561000   0.63040468   -8.4329964    256.29744  0.013682332  0.012672584            1 
 1562000   0.62290154   -8.4644582     255.9083  0.013652812  0.012661815            3 
 1563000   0.62683831     -8.45904     255.8886  0.013643026  0.012651051            2 
 1564000   0.62746724   -8.4588606    255.96993  0.013638637    0.0126403            2 
 1565000   0.62950378    -8.460695     255.9724  0.013630054  0.012629575            5 
 1566000   0.63898165   -8.4474124    256.12339  0.013629384   0.01261884            1 
 1567000   0.61824537    -8.435561    256.43265  0.013637133  0.012608134            2 
 1568000   0.63637946   -8.4264368     256.4927  0.013631627  0.012597436            2 
 1569000   0.62890411   -8.4336761    255.95926  0.013594607   0.01258671            3 
 1570000   0.62767288   -8.4288476    256.25728  0.013601766  0.012576019            4 
 1571000   0.62739591   -8.4589196    256.35372  0.013598224  0.012565346            7 
 1572000   0.62476954    -8.444576    256.37497    0.0135907  0.012554684            1 
 1573000   0.63752343   -8.4587863     255.9547  0.013559795  0.012544028            2 
 1574000   0.63973078   -8.4457947    255.59307  0.013532035  0.012533391            1 
 1575000   0.61927837   -8.4665654    256.27135   0.01355933  0.012522742            3 
 1576000   0.60879203   -8.4601607    256.00796    0.0135368  0.012512101            2 
 1577000   0.62699855   -8.4749861     255.7026   0.01351208  0.012501455            3 
 1578000   0.62014638   -8.4468045    255.47326  0.013491406  0.012490817            1 
 1579000   0.61734872   -8.4540663    255.71998  0.013495882  0.012480186            1 
 1580000   0.61567235   -8.4393418    255.88006  0.013495784  0.012469559            3 
 1581000   0.63356873   -8.4680374    255.84339  0.013485315  0.012458942            5 
 1582000   0.61285611    -8.460491    255.38879  0.013452844  0.012448316            3 
 1583000    0.6297712   -8.4510631    255.79157  0.013465549  0.012437711            2 
 1584000   0.61756207    -8.462658    255.58531  0.013446197  0.012427131            4 
 1585000   0.62361935   -8.4817357    255.94315  0.013456527  0.012416562            4 
 1586000   0.62913029   -8.4529235    255.88064  0.013444759  0.012405993            2 
 1587000   0.61282461   -8.4720256    255.66476   0.01342495  0.012395438            2 
 1588000   0.61725667   -8.4560376    255.94159  0.013431024    0.0123849            2 
 1589000    0.6183463   -8.4724224    256.26309  0.013439432  0.012374383            2 
 1590000   0.62526631   -8.4731546    256.22163  0.013428807  0.012363876            3 
 1591000   0.61828561   -8.4570882    255.99784  0.013408644  0.012353374            2 
 1592000   0.62287635   -8.4598437    255.64851  0.013381936   0.01234287            2 
 1593000   0.60901157   -8.4760934    255.78066  0.013380449  0.012332391            2 
 1594000   0.61743761   -8.4680962    256.09453  0.013388464  0.012321913            3 
 1595000    0.6188573   -8.4765869    255.73492  0.013361281  0.012311427            3 
 1596000   0.60882695    -8.464271    255.90652  0.013361869  0.012300954            3 
 1597000   0.63642649   -8.4498807     256.1646  0.013366969  0.012290497            1 
 1598000   0.62437948   -8.4707897    255.53607  0.013325828  0.012280048            3 
 1599000    0.6111282    -8.460814    255.50537  0.013315894  0.012269606            2 
 1600000   0.62531439   -8.4732767    255.85029  0.013325536  0.012259174            4 
 1601000   0.60601386   -8.4937424    255.71534  0.013310189  0.012248762            5 
 1602000   0.61433779   -8.4789413    255.99363  0.013316356  0.012238354            5 
 1603000   0.61263678   -8.4878626    255.95906  0.013306252  0.012227944            2 
 1604000   0.61481434   -8.4736574    256.07374  0.013303914  0.012217529            3 
 1605000   0.60213358   -8.4719089    255.89393  0.013286289   0.01220715            3 
 1606000   0.61610826   -8.4647656    255.49408  0.013257269  0.012196766            3 
 1607000   0.61425073   -8.4861414    255.47194  0.013247871    0.0121864            2 
 1608000   0.60190338   -8.4684003    255.77555  0.013255367  0.012176037            4 
 1609000   0.60473721    -8.478396    255.96077  0.013256721  0.012165705            3 
 1610000   0.60492691   -8.4995158    255.60852  0.013230255  0.012155361            3 
 1611000   0.59949842   -8.4886714    255.84849  0.013234455  0.012145023            1 
 1612000    0.6035439   -8.4631185     255.3889  0.013202486  0.012134701            1 
 1613000   0.62045883   -8.4897054    255.84368  0.013217797  0.012124385            1 
 1614000   0.60730475   -8.4668456    255.59655  0.013196848  0.012114073            3 
 1615000   0.60129012   -8.4761052     255.8539  0.013201956  0.012103772            4 
 1616000   0.60612564   -8.5044859    255.70077   0.01318589  0.012093484            6 
 1617000   0.59182492   -8.4955862    255.73699  0.013179602  0.012083199            6 
 1618000    0.5975039   -8.4957673     255.2443   0.01314608  0.012072906            2 
 1619000   0.60603442   -8.4965426    256.10508  0.013182267  0.012062645            2 
 1620000   0.61011974   -8.4733639    255.82355  0.013159648  0.012052417            4 
 1621000   0.60223822   -8.4663256    256.03303  0.013162299  0.012042182            2 
 1622000   0.60823723   -8.4883472    256.12601   0.01315896  0.012031947            1 
 1623000   0.61034826    -8.489138    255.47276  0.013117312  0.012021726            1 
 1624000   0.59812789   -8.5022032    255.18334  0.013094383  0.012011498            3 
 1625000   0.60902038   -8.5021774    255.50709  0.013102928  0.012001271            2 
 1626000   0.60762415   -8.5120478    255.30184   0.01308435  0.011991054            5 
 1627000   0.60630451   -8.4742169    255.60622  0.013091898  0.011980848            3 
 1628000   0.60910086   -8.4926723     255.4786  0.013077324   0.01197065            5 
 1629000   0.60402929   -8.5122482    255.08884  0.013049357  0.011960464            3 
 1630000   0.59950357   -8.4936863     255.8989  0.013082766  0.011950291            4 
 1631000   0.61257623   -8.4713791     255.5172  0.013055242  0.011940125            1 
 1632000   0.60789583   -8.5272053    255.27888  0.013035074  0.011929962            2 
 1633000   0.60496814   -8.5081774     255.0397  0.013014886  0.011919805            2 
 1634000   0.60159206   -8.5116693    255.24497  0.013017389  0.011909653            2 
 1635000   0.59870098   -8.5168163    255.41464  0.013018076  0.011899508            3 
 1636000   0.60019623    -8.518348    255.65815  0.013022522  0.011889376            2 
 1637000   0.59818178   -8.5113127    254.73883  0.012967768  0.011879232            2 
 1638000   0.59096073   -8.4949084    255.81331  0.013014515  0.011869104            2 
 1639000   0.59373801    -8.523278    255.29478  0.012980211  0.011858991            2 
 1640000   0.60728492   -8.4924596    255.32682  0.012973924  0.011848885            3 
 1641000   0.59590814   -8.5085546     255.5036  0.012974995  0.011838789            3 
 1642000   0.61769993   -8.5113072    255.21884  0.012952641  0.011828712            3 
 1643000   0.58656244    -8.508942    255.55623   0.01296187  0.011818641            2 
 1644000   0.59849992   -8.5335342    255.03262  0.012927444  0.011808575            6 
 1645000   0.59424896   -8.5050305    255.37243    0.0129368  0.011798516            2 
 1646000    0.6028623   -8.5206029    255.66905  0.012943957   0.01178845            2 
 1647000   0.58459286   -8.5108422    254.95588  0.012900014   0.01177839            4 
 1648000   0.59105117   -8.5255902    255.15134   0.01290207  0.011768336            3 
 1649000   0.59308208   -8.5389154    254.76715  0.012874831  0.011758284            2 
 1650000   0.59058869   -8.5156482    255.02376  0.012879988  0.011748245            1 
 1651000   0.59529358   -8.5293858    254.61723  0.012851667  0.011738222            2 
 1652000   0.59918893   -8.4937722    255.28727  0.012877687  0.011728207            3 
 1653000   0.60020369   -8.5110106    255.34681  0.012872898  0.011718206            1 
 1654000    0.5803572   -8.5517075    255.54911  0.012875308  0.011708191            1 
 1655000   0.59958785   -8.5386418    255.08706  0.012844263  0.011698182            3 
 1656000   0.59610561   -8.5449619    255.09591  0.012836952  0.011688185            7 
 1657000   0.59904537   -8.5217054    255.05601  0.012827198  0.011678205            1 
 1658000   0.60423674   -8.5325905    255.01336  0.012817318   0.01166823            4 
 1659000   0.59487666   -8.5315102    255.03088  0.012810472  0.011658266            3 
 1660000   0.59828287   -8.5072883    255.16515  0.012809496  0.011648315            4 
 1661000   0.60300338   -8.5456369    254.92522  0.012789746  0.011638364            8 
 1662000   0.58843827   -8.5394084     255.1905  0.012795352  0.011628418            1 
 1663000   0.58940506   -8.5232609     255.5681  0.012806579  0.011618498            3 
 1664000   0.59810361   -8.5305036    255.02575  0.012771722   0.01160858            3 
 1665000   0.58972014   -8.5452671     255.3611  0.012780836  0.011598666            3 
 1666000   0.59374044   -8.5448775    254.84294  0.012747246  0.011588751            5 
 1667000   0.58978655   -8.5537802    254.75052  0.012734979  0.011578863            4 
 1668000   0.57828675    -8.532629    255.42695  0.012761138  0.011568986            3 
 1669000   0.59270516   -8.5379924    255.19793  0.012742058  0.011559108            1 
 1670000   0.57980768   -8.5184313    254.96508  0.012722808  0.011549242            2 
 1671000   0.58485838   -8.5371109    255.27842  0.012730821  0.011539392            1 
 1672000   0.58414696   -8.5426861    254.95628  0.012707151  0.011529553            2 
 1673000   0.57465663   -8.5456937    254.97308  0.012700392  0.011519705            3 
 1674000   0.58019187   -8.5514771    255.02083  0.012695183  0.011509864            2 
 1675000    0.6020686    -8.543932    254.64813  0.012669061  0.011500027            2 
 1676000   0.58121627   -8.5217544    254.58445  0.012658336  0.011490194            2 
 1677000   0.58455827   -8.5428702    254.61869  0.012652489  0.011480373            2 
 1678000   0.58959902   -8.5139245    255.02556  0.012665155  0.011470562            1 
 1679000   0.57792733   -8.5502747    254.36175  0.012624665  0.011460755            2 
 1680000   0.58543375   -8.5389749    254.95557  0.012646606  0.011450965            2 
 1681000   0.58252896   -8.5496669    254.50489   0.01261674  0.011441183            3 
 1682000   0.57912994   -8.5593651    254.59097  0.012613504  0.011431403            2 
 1683000   0.59070622   -8.5361767    254.46986  0.012600013  0.011421645            2 
 1684000   0.58186365   -8.5313105    254.85137   0.01261141  0.011411885            4 
 1685000   0.57592633   -8.5685555    254.39513  0.012581362  0.011402121            3 
 1686000   0.58185104   -8.5339041    254.93234  0.012600452  0.011392383            1 
 1687000   0.57564343   -8.5540598    254.47843   0.01257056  0.011382647            2 
 1688000   0.57310025   -8.5578623    254.56224  0.012567251  0.011372922            1 
 1689000   0.57977547   -8.5344101    254.81007  0.012572038  0.011363194            1 
 1690000   0.57676249    -8.556167     254.4847  0.012548555   0.01135348            2 
 1691000   0.57706842   -8.5229381    254.40018  0.012536969  0.011343769            3 
 1692000   0.56789527   -8.5686476    254.25185  0.012522254  0.011334077            1 
 1693000   0.59133607   -8.5475559    254.62444  0.012533198  0.011324401            1 
 1694000   0.58215358   -8.5513185    254.60588  0.012524886   0.01131474            4 
 1695000   0.57380732   -8.5480912    254.35591  0.012505207   0.01130508            4 
 1696000   0.58501563    -8.553507    254.27964  0.012494086  0.011295435            1 
 1697000    0.5680904   -8.5507922    254.53069  0.012499052  0.011285786            2 
 1698000   0.56659953   -8.5377671    254.34933   0.01248279   0.01127615            2 
 1699000   0.58538963   -8.5479587    255.00912  0.012507805  0.011266541            2 
 1700000   0.56343685   -8.5586816    254.57918  0.012479372  0.011256944            2 
 1701000    0.5802289   -8.5706583    254.64401  0.012475211  0.011247349            2 
 1702000   0.57098597   -8.5556185    254.43193  0.012457498   0.01123775            3 
 1703000   0.57374986   -8.5590432     254.3577   0.01244655   0.01122818            2 
 1704000   0.57450473   -8.5564521    254.51161  0.012446773  0.011218616            1 
 1705000   0.57454847   -8.5611116    254.84272  0.012455656  0.011209063            3 
 1706000   0.57399124   -8.5468428    254.52483  0.012432827  0.011199508            2 
 1707000   0.58872846   -8.5626138    254.76649  0.012437341  0.011189967            5 
 1708000   0.57063389   -8.5497422    254.62154  0.012422987  0.011180433            1 
 1709000    0.5791312   -8.5604383    254.57714  0.012413553  0.011170905            3 
 1710000   0.56595426   -8.5654734    254.62159  0.012408459  0.011161384            4 
 1711000   0.57688912   -8.5532003    254.74514  0.012407225  0.011151874            5 
 1712000   0.57458098   -8.5735597     254.7317  0.012399323  0.011142367            2 
 1713000   0.56813062   -8.5682787    254.65427  0.012388318  0.011132875            2 
 1714000   0.57366331   -8.5647666    254.77555  0.012386987  0.011123394            3 
 1715000   0.57120391   -8.5659282    254.27048  0.012355223  0.011113921            2 
 1716000   0.56355136   -8.5513778    254.57847  0.012362979  0.011104456            2 
 1717000   0.57894885   -8.5553196    254.66309  0.012359886  0.011095001            2 
 1718000       0.5745    -8.565348    254.78769  0.012358735  0.011085559            2 
 1719000   0.56579896   -8.5667675    254.41867  0.012333657  0.011076128            1 
 1720000   0.57381288   -8.5720699    254.38153  0.012324686   0.01106671            2 
 1721000   0.57546403   -8.5850114    254.76198  0.012335947  0.011057321            3 
 1722000   0.56363165   -8.5608352    254.44464  0.012313426  0.011047914            5 
 1723000   0.57423104   -8.5440467    254.20682  0.012294777  0.011038525            1 
 1724000    0.5688632   -8.5714281    254.69987  0.012311479  0.011029149            1 
 1725000   0.55188849   -8.5518776    254.40478  0.012290086  0.011019776            1 
 1726000    0.5643809   -8.5880851    254.93121  0.012308382  0.011010405            1 
 1727000   0.57524525   -8.5853344      254.049  0.012258686  0.011001052            2 
 1728000   0.57619724   -8.5797335    254.12441  0.012255228  0.010991707            2 
 1729000   0.57048794   -8.5715781    254.88566  0.012284831  0.010982358            1 
 1730000   0.55805854    -8.576031     254.0738  0.012238622  0.010973033            2 
 1731000   0.56883732    -8.583595    254.54592  0.012254281   0.01096371            2 
 1732000   0.56297012   -8.5805176    254.32651  0.012236649  0.010954393            2 
 1733000   0.57816992   -8.5927738    254.34668  0.012230558  0.010945092            3 
 1734000   0.56707019   -8.5472146    254.37993  0.012225102    0.0109358            3 
 1735000   0.56406964   -8.5728342    254.31714   0.01221504  0.010926517            1 
 1736000   0.54727482   -8.6008743    254.52695  0.012218076  0.010917228            2 
 1737000   0.56429795   -8.5711067    254.00636  0.012186066  0.010907957            2 
 1738000   0.56073895   -8.5945952    254.64965  0.012209899  0.010898704            2 
 1739000   0.55591371   -8.5835491    254.05185  0.012174231  0.010889442            2 
 1740000   0.55081282   -8.6117455    254.25157  0.012176799  0.010880192            2 
 1741000   0.56390519   -8.5847144    254.17021  0.012165911   0.01087094            2 
 1742000   0.56383492   -8.6031614    254.28442  0.012164391   0.01086171            1 
 1743000   0.57050955   -8.5919928    254.49558  0.012167507  0.010852474            1 
 1744000   0.54609526   -8.5807715    254.10097  0.012141675  0.010843253            2 
 1745000   0.56953172   -8.5879193    254.55303  0.012156305  0.010834047            2 
 1746000   0.57031087   -8.5653928    254.98609  0.012170012   0.01082485            2 
 1747000   0.56990504   -8.5849731    253.90042  0.012111258  0.010815661            2 
 1748000   0.56417233   -8.6048454    254.47296  0.012131625  0.010806469            2 
 1749000   0.55214953   -8.5909376    253.79969   0.01209261  0.010797287            2 
 1750000   0.54920185   -8.6221052    254.10911  0.012100434  0.010788113            1 
 1751000   0.55543532   -8.5927378    254.09499  0.012092851  0.010778961            2 
 1752000   0.55293767   -8.5958452     254.3956  0.012100247  0.010769815            2 
 1753000   0.56139611   -8.5855442    254.28498  0.012088086  0.010760684            2 
 1754000   0.55615816   -8.5845674    254.07536  0.012071235  0.010751549            2 
 1755000   0.55872637   -8.5917234    254.37491  0.012078581   0.01074242            1 
 1756000   0.55449313   -8.6042752    253.82638  0.012045671  0.010733305            3 
 1757000   0.55126357   -8.6117216    254.11541  0.012052524  0.010724194            2 
 1758000   0.55954188   -8.5948271    254.47017  0.012062484  0.010715105            2 
 1759000   0.56549481   -8.5971564    254.27955  0.012046596  0.010706023            2 
 1760000   0.54613633   -8.5871408    254.59023  0.012054462  0.010696939            5 
 1761000   0.56557729    -8.614848    254.37735  0.012037542  0.010687871            3 
 1762000   0.56303103   -8.6218003    254.38499  0.012031072  0.010678808            2 
 1763000   0.54784965   -8.5909088    254.33018  0.012021657  0.010669755            2 
 1764000   0.56060742   -8.5916074    253.87699  0.011993433  0.010660716            3 
 1765000   0.55099039   -8.5855105    254.43899  0.012013172  0.010651684            2 
 1766000    0.5484201   -8.6057759     254.1229  0.011991454  0.010642661            2 
 1767000   0.54607876   -8.6013769    254.04099  0.011980805  0.010633651            1 
 1768000   0.55649471   -8.5957871    253.89483   0.01196714  0.010624647            1 
 1769000   0.55014446   -8.6095783    254.13136  0.011971517  0.010615651            2 
 1770000   0.53238205   -8.6187547    254.36719  0.011975856  0.010606646            1 
 1771000   0.55847994   -8.5942701    254.29818  0.011965847  0.010597657            3 
 1772000   0.54380705   -8.6109661    253.72366  0.011932076  0.010588671            2 
 1773000   0.54823419   -8.6004974     254.1746  0.011946541  0.010579703            4 
 1774000   0.54241581   -8.6055977     254.0389  0.011933432  0.010570744            1 
 1775000   0.55185429   -8.5979361    254.36951  0.011942231  0.010561809            2 
 1776000   0.54251308   -8.6243921    253.87628  0.011912363  0.010552874            1 
 1777000   0.54920729   -8.6221565    254.14381  0.011918205  0.010543955            2 
 1778000   0.53924039   -8.6227646    254.01666  0.011905543  0.010535034            2 
 1779000   0.53802129   -8.6128668    253.95552  0.011895986   0.01052612            2 
 1780000   0.54834331   -8.6146408    253.83597  0.011883707  0.010517223            2 
 1781000   0.55572906   -8.5865823    254.47739  0.011907046  0.010508341            2 
 1782000   0.55296057    -8.605914    253.86899  0.011871913  0.010499455            1 
 1783000   0.54467747   -8.6087526    254.36203  0.011888298  0.010490573            1 
 1784000   0.54273066    -8.628042    253.67458  0.011849522  0.010481701            1 
 1785000   0.54700084    -8.611779    254.06114  0.011860931  0.010472844            4 
 1786000   0.54501451   -8.6202097    253.90532  0.011847019  0.010463996            3 
 1787000   0.52996027   -8.6007694    254.23313  0.011855676  0.010455156            3 
 1788000    0.5300875   -8.6104837    253.78643  0.011828227  0.010446323            2 
 1789000   0.53656215   -8.6342093    253.60891  0.011813346  0.010437498            3 
 1790000   0.54507814   -8.6163772    253.61141  0.011806863  0.010428694            1 
 1791000   0.54644127   -8.6080645    253.83362  0.011810609  0.010419889            3 
 1792000   0.53953776   -8.6375564    254.06578  0.011814815  0.010411101            3 
 1793000   0.53407957   -8.6071467    253.94058  0.011802407  0.010402311            3 
 1794000   0.53551569   -8.6052553    253.75489  0.011787202  0.010393522            4 
 1795000   0.53502942   -8.6207448    253.67151  0.011776764  0.010384755            1 
 1796000    0.5247988   -8.6190497    253.93829  0.011782586  0.010375995            2 
 1797000   0.54118382   -8.6355657    254.03257  0.011780401  0.010367242            2 
 1798000   0.53434753   -8.6262188    254.13975  0.011778817  0.010358497            1 
 1799000   0.52934729   -8.6210297    253.61117  0.011747785  0.010349752            2 
 1800000   0.53578476   -8.6342073    253.83521   0.01175163  0.010341025            2 
 1801000   0.53183779   -8.6165381    253.69495  0.011738615  0.010332313            2 
 1802000   0.53215669   -8.6300628    253.92012  0.011742514  0.010323615            2 
 1803000   0.52855952   -8.6271411    253.85832  0.011733145  0.010314917            2 
 1804000   0.52539713   -8.6228114    253.87247  0.011727294   0.01030623            1 
 1805000    0.5314364   -8.6151563    254.13387  0.011732866  0.010297549            3 
 1806000    0.5267713   -8.6519741    253.49998   0.01169712  0.010288869            1 
 1807000    0.5287272   -8.6413235    253.74134  0.011701777  0.010280197            2 
 1808000   0.52915854   -8.6240121    253.89892  0.011702568  0.010271535            1 
 1809000   0.53873632   -8.6346752    253.62629   0.01168354  0.010262878            2 
 1810000   0.53642667   -8.6425792    254.00376  0.011694464  0.010254236            2 
 1811000   0.53070876   -8.6359108    253.94378  0.011685246  0.010245595            4 
 1812000   0.51863816   -8.6333518    253.48586  0.011657738  0.010236974            4 
 1813000   0.53703673   -8.6455109    253.22664  0.011639393  0.010228349            4 
 1814000   0.52705852   -8.6376737     253.6703  0.011653358  0.010219727            4 
 1815000   0.53553898   -8.6595985    253.57703  0.011642655  0.010211115            4 
 1816000    0.5247288   -8.6421989    253.62349  0.011638376  0.010202502            3 
 1817000   0.52822304   -8.6336441    253.97104   0.01164791   0.01019391            7 
 1818000   0.52074527   -8.6345891    253.29006  0.011610289  0.010185334            3 
 1819000   0.52457929   -8.6650912    253.51547  0.011614232  0.010176763            3 
 1820000   0.51286863    -8.653709    253.69293  0.011615977  0.010168195            2 
 1821000   0.52920195   -8.6469489    253.62761  0.011606608  0.010159636            2 
 1822000    0.5366314    -8.648684     253.5823  0.011598166  0.010151095            3 
 1823000    0.5290791   -8.6394904    253.81156  0.011602284  0.010142558            1 
 1824000   0.53861945    -8.657779    254.08879  0.011608589  0.010134037            2 
 1825000   0.52037136   -8.6443932    253.86072  0.011591814  0.010125516            2 
 1826000   0.53532057   -8.6280254    253.57162  0.011572272  0.010117008            3 
 1827000   0.54073744   -8.6444371    254.00608  0.011585755  0.010108505            1 
 1828000    0.5270282   -8.6448787    253.97621  0.011578055  0.010100015            2 
 1829000   0.53264368   -8.6431459    253.65852   0.01155725  0.010091533            3 
 1830000   0.53690349   -8.6533719    253.61297   0.01154886  0.010083058            2 
 1831000   0.51836548   -8.6387825    253.63681  0.011543638  0.010074583            1 
 1832000   0.52869715   -8.6544108    253.41986  0.011527468  0.010066117            3 
 1833000   0.51694069   -8.6437279    253.57812  0.011528374  0.010057656            1 
 1834000   0.51681807   -8.6321075    253.13807  0.011502093  0.010049215            1 
 1835000   0.51886058    -8.646704    253.29361  0.011502889  0.010040774            1 
 1836000   0.51963015   -8.6493401      253.771  0.011518291  0.010032345            4 
 1837000   0.52030188   -8.6432747    253.61851  0.011505104  0.010023928            3 
 1838000   0.52993643   -8.6677363    253.68271  0.011501755  0.010015529            3 
 1839000   0.52523066   -8.6485136    253.68053  0.011495402  0.010007134            3 
 1840000    0.5174652    -8.650368    253.36206  0.011474731 0.0099987482            2 
 1841000   0.52022873   -8.6618439    253.40046  0.011470236 0.0099903699            1 
 1842000   0.52380676   -8.6760547    253.54056  0.011470347 0.0099820007            2 
 1843000   0.52487004    -8.664812    253.24331  0.011450683  0.009973628            3 
 1844000   0.50913255   -8.6698873    252.53106  0.011412286 0.0099652681            2 
 1845000   0.50502448   -8.6563354    253.35971  0.011443528 0.0099569092            2 
 1846000     0.525434   -8.6766711    253.17819  0.011429135 0.0099485639            1 
 1847000   0.52077098   -8.6400726    253.26155  0.011426708 0.0099402276            3 
 1848000   0.52447101   -8.6533322    253.09523  0.011413024 0.0099319068            4 
 1849000   0.51759766   -8.6713653    253.21651  0.011412318 0.0099235909            4 
 1850000   0.51189107   -8.6789179    253.17065  0.011404083 0.0099152747            2 
 1851000   0.52063446   -8.6612965    253.56845  0.011415831 0.0099069815            2 
 1852000   0.52297043   -8.6643353    253.48831  0.011406062 0.0098986887            4 
 1853000   0.52535292   -8.6680725    253.33589  0.011393052 0.0098904004            7 
 1854000   0.51077461   -8.6678945    253.38951  0.011389316 0.0098821242            2 
 1855000   0.51194443   -8.6760853     252.9324  0.011362642 0.0098738471            2 
 1856000   0.50876667   -8.6850077    253.33785  0.011374724 0.0098655845            2 
 1857000   0.51102828   -8.6598156    253.29226  0.011366553 0.0098573322            2 
 1858000   0.49792527   -8.6852365    253.37704  0.011364238 0.0098490747            2 
 1859000   0.51133775   -8.6828289    253.39506  0.011358932 0.0098408246            3 
 1860000    0.5112406   -8.6747832    253.24866  0.011346266 0.0098325875            3 
 1861000   0.50393883   -8.6732239     252.9974  0.011328918  0.009824361            3 
 1862000   0.50938547   -8.6656184     253.3048  0.011336592  0.009816146            2 
 1863000   0.52324977   -8.6907173    253.33394   0.01133181 0.0098079277            2 
 1864000   0.49762411   -8.6739609    253.16856  0.011318337 0.0097997207            3 
 1865000   0.51515852   -8.6676686    253.16614   0.01131216 0.0097915231            3 
 1866000   0.50807681   -8.6797087    253.20531  0.011307847 0.0097833382            2 
 1867000   0.50543366   -8.6871864    253.01997  0.011293518  0.009775157            1 
 1868000   0.51264514   -8.6882958    253.44331  0.011306357 0.0097669871            2 
 1869000   0.50867255   -8.6856299     253.2003  0.011289473 0.0097588295            1 
 1870000   0.49969499   -8.6658725    253.13545  0.011280546 0.0097506805            3 
 1871000   0.51024675   -8.6735443    253.40729  0.011286624 0.0097425315            3 
 1872000   0.50098212    -8.685287    253.58404  0.011288463 0.0097343985            1 
 1873000   0.51185828    -8.685867     252.9723  0.011255219 0.0097262785            2 
 1874000   0.49904988   -8.6755321     252.9669  0.011248973  0.009718154            3 
 1875000   0.50441455   -8.6886783    253.33046  0.011259132 0.0097100417            2 
 1876000   0.49502941   -8.6766914     253.0823  0.011242106 0.0097019368            3 
 1877000   0.50895608   -8.6751782    252.88816  0.011227498 0.0096938499            2 
 1878000   0.49712432   -8.6942989    252.92987   0.01122337 0.0096857551            2 
 1879000   0.49571631    -8.663855    253.12981  0.011226264 0.0096776659            3 
 1880000   0.50120684   -8.6945274    252.96628  0.011213045 0.0096695863            3 
 1881000   0.50366328   -8.6728909    253.07376  0.011211845 0.0096615176            2 
 1882000   0.49581891   -8.6927569    253.07695  0.011206029 0.0096534502            3 
 1883000   0.50776612   -8.6946408    253.53772  0.011220469 0.0096454094            1 
 1884000   0.50717712   -8.6941701    253.03061  0.011192083 0.0096373665            3 
 1885000   0.50431977   -8.6961991    252.96745  0.011183353 0.0096293319            2 
 1886000   0.49254876   -8.6734414    253.00818  0.011179223 0.0096213041            1 
 1887000   0.49845215   -8.6880998    253.15483  0.011179775 0.0096132831            2 
 1888000   0.49832309   -8.6994802    253.47137  0.011187825  0.009605276            2 
 1889000   0.50596623    -8.686315    253.05299  0.011163446 0.0095972683            4 
 1890000   0.49795452   -8.6897632    252.87727  0.011149791   0.00958928            3 
 1891000   0.50733441   -8.6953131    252.65486  0.011134094 0.0095812907            4 
 1892000   0.50770002   -8.6828024    252.96621  0.011141922 0.0095733286            3 
 1893000   0.48707641   -8.6905144    252.67705  0.011123307 0.0095653563            2 
 1894000    0.5075461   -8.6897967    253.37717  0.011148239 0.0095574006            2 
 1895000   0.49478275   -8.6891179    252.63447  0.011109695 0.0095494494            4 
 1896000   0.48920066   -8.6885949    252.93632  0.011117103 0.0095415023            1 
 1897000    0.4903376    -8.685514     252.6641  0.011099284 0.0095335603            1 
 1898000   0.48982171   -8.6928881    252.96128  0.011106484 0.0095256363            2 
 1899000   0.50236318   -8.6736611     253.2622  0.011113841 0.0095177216            5 
 1900000    0.4893936   -8.6859932    252.84552  0.011089716 0.0095098109            2 
 1901000    0.4823304   -8.7143715    253.07904  0.011094119 0.0095019072            2 
 1902000   0.49677904    -8.694265    253.10444  0.011089399 0.0094940122            2 
 1903000   0.50570816   -8.6907043    252.62137  0.011062418 0.0094861268            4 
 1904000   0.49517468   -8.6688266    252.69164  0.011059683  0.009478253            2 
 1905000   0.49160762   -8.6984141    252.60748  0.011050196 0.0094703807            2 
 1906000   0.48522822   -8.7170561    252.65702  0.011046564 0.0094625236            3 
 1907000   0.49867542   -8.7091558    253.04636  0.011057785 0.0094546624            3 
 1908000   0.48662078   -8.7020972    252.43116  0.011025121 0.0094468114            4 
 1909000   0.47920872   -8.7092372    252.95254  0.011042105 0.0094389735            3 
 1910000   0.49218449   -8.6982527    253.45395    0.0110582 0.0094311347            2 
 1911000   0.49281015   -8.7003319    252.90893  0.011028647 0.0094233087            2 
 1912000   0.47928338   -8.7231384    252.79622  0.011017966 0.0094154888            1 
 1913000   0.50004664   -8.7040709    252.84454  0.011014312 0.0094076795            2 
 1914000   0.49277058   -8.7033069    253.04448  0.011017262 0.0093998863            2 
 1915000   0.49803497   -8.6987171    253.02956   0.01101086 0.0093920974            2 
 1916000   0.47554217   -8.6938968    253.13459  0.011009681  0.009384316            1 
 1917000   0.49247023   -8.7220924    252.91376  0.010994339 0.0093765422            2 
 1918000   0.48457951   -8.7015962     252.5836  0.010974261 0.0093687819            2 
 1919000   0.48569005   -8.7065761    252.51512  0.010965569 0.0093610219            1 
 1920000    0.4936103   -8.7038294     252.6547  0.010965916 0.0093532669            2 
 1921000   0.47259054   -8.7005619    253.01758  0.010975949 0.0093455199            2 
 1922000   0.47487009   -8.7072972    252.87363  0.010963997 0.0093377946            2 
 1923000   0.48298877   -8.7107019    252.68861  0.010950278 0.0093300692            2 
 1924000   0.48574993   -8.7018656    252.99334  0.010957785 0.0093223506            1 
 1925000   0.48373407   -8.7189156    252.64304  0.010936928 0.0093146409            2 
 1926000   0.49667479   -8.7007065    252.52599  0.010926185 0.0093069383            3 
 1927000   0.48398006   -8.7126984     252.7649  0.010930847 0.0092992433            3 
 1928000   0.47963023   -8.7031368     252.7866  0.010926115 0.0092915507            2 
 1929000   0.49494422   -8.7135868    252.54786  0.010910138 0.0092838747            4 
 1930000   0.47607918   -8.7254413    252.94336  0.010921561 0.0092762056            1 
 1931000   0.47926137   -8.7227692    252.72813  0.010906617 0.0092685474            4 
 1932000   0.48904963   -8.7216996    252.87022    0.0109071 0.0092608968            2 
 1933000   0.46947477   -8.7117942    252.98632  0.010906463 0.0092532573            2 
 1934000   0.47020563   -8.7223049    253.14143  0.010907507 0.0092456249            2 
 1935000   0.48632491    -8.703773    252.75429  0.010885197 0.0092379854            2 
 1936000   0.47185646   -8.7073047    252.41022  0.010864765 0.0092303706            2 
 1937000   0.47624608   -8.7114767    252.96305   0.01088294 0.0092227593            2 
 1938000   0.48346007   -8.7204577    252.62752  0.010862896 0.0092151489            2 
 1939000   0.47995958   -8.7243434    252.68327   0.01085969 0.0092075495            2 
 1940000   0.48524048   -8.7115321    252.24932  0.010835452 0.0091999562            2 
 1941000   0.47560038   -8.7210628    252.50365  0.010840789 0.0091923708            2 
 1942000    0.4741423    -8.720854    252.75316  0.010845913 0.0091848029            2 
 1943000   0.47317417   -8.7439735    252.62083  0.010834655 0.0091772349            1 
 1944000   0.47978178   -8.7172543    252.68753  0.010831941 0.0091696782            2 
 1945000   0.47907014   -8.7179645     252.7323   0.01082829 0.0091621302            1 
 1946000   0.48465537   -8.7025166    252.85886  0.010828146 0.0091545917            2 
 1947000   0.47737531   -8.7106185    252.55499  0.010809579 0.0091470691            1 
 1948000   0.47588302   -8.7024997    252.53504  0.010803176 0.0091395466            2 
 1949000   0.46538704   -8.7191269    252.43552  0.010793378 0.0091320406            1 
 1950000   0.47196371   -8.7395361    252.57461  0.010793787 0.0091245294            2 
 1951000   0.47998638   -8.7211268    252.43443  0.010782267 0.0091170198            2 
 1952000   0.46737106   -8.7319332    252.78811  0.010791842 0.0091095234            2 
 1953000   0.47216669   -8.7291744    252.45699  0.010772188 0.0091020304            1 
 1954000   0.47939559    -8.725548    252.25099  0.010757889 0.0090945495            2 
 1955000   0.46414633   -8.7423805    252.10723  0.010746259 0.0090870722            1 
 1956000   0.46642911   -8.7454096    252.70908  0.010766406 0.0090795966            2 
 1957000   0.48376104    -8.727072    252.47282  0.010750844 0.0090721321            1 
 1958000   0.47055662   -8.7208995    252.70096  0.010755063 0.0090646909            2 
 1959000   0.46328629   -8.7342929    252.45947    0.0107393 0.0090572493            1 
 1960000   0.47040729   -8.7484936    252.47636  0.010734539 0.0090498129            1 
 1961000   0.47153637   -8.7427622    252.38501  0.010725183 0.0090423885            2 
 1962000   0.46626546    -8.733953    252.70741   0.01073341 0.0090349662            1 
 1963000   0.46427389   -8.7379386    252.34317   0.01071248  0.009027546            2 
 1964000    0.4721608   -8.7319708    252.62092   0.01071881 0.0090201392            2 
 1965000   0.46625253   -8.7455845    252.35956  0.010702271  0.009012741            3 
 1966000   0.46687553   -8.7338903    252.35705  0.010696722 0.0090053521            2 
 1967000   0.47564614   -8.7384718    252.93499  0.010715768 0.0089979684            1 
 1968000   0.46593164   -8.7409289    252.56436  0.010694629 0.0089905927            2 
 1969000   0.47386094    -8.735114    252.10509   0.01066976 0.0089832241            1 
 1970000   0.46426009   -8.7442799    252.75241  0.010691726  0.008975861            1 
 1971000   0.46771827   -8.7362173    252.07549  0.010657682 0.0089685071            2 
 1972000     0.466904   -8.7492177    252.61481  0.010675068 0.0089611647            2 
 1973000   0.47373912   -8.7341135    252.28222   0.01065561 0.0089538315            1 
 1974000   0.46083654    -8.731356    252.69085  0.010667463 0.0089465052            1 
 1975000   0.46138211   -8.7379964    252.34346  0.010647403 0.0089391847            1 
 1976000    0.4675536   -8.7374547    253.01006  0.010670128 0.0089318706            2 
 1977000   0.46570305    -8.732124    252.43311  0.010640411 0.0089245686            1 
 1978000   0.45096619   -8.7389377    252.04474   0.01061867 0.0089172711            1 
 1979000   0.46610807   -8.7487222    252.29375  0.010623789 0.0089099803            2 
 1980000   0.47375191   -8.7441808    252.41923  0.010623705 0.0089026911            2 
 1981000   0.46621497    -8.742721     252.1349  0.010606381 0.0088954124            3 
 1982000   0.46321992   -8.7446472    252.31126  0.010608445 0.0088881353            2 
 1983000   0.45896643   -8.7577374    252.64223  0.010617004 0.0088808648            2 
 1984000   0.45642985    -8.747419    251.87015  0.010579223 0.0088736036            3 
 1985000   0.45656059   -8.7491741    252.16778  0.010586389 0.0088663491            3 
 1986000   0.45017928   -8.7400105    252.38805  0.010590301 0.0088590983            2 
 1987000   0.45581812   -8.7452283    252.32151   0.01058218 0.0088518618            2 
 1988000   0.46873342   -8.7584996    252.26846  0.010574634 0.0088446285            2 
 1989000   0.46066271   -8.7433268    251.94959  0.010555957 0.0088374051            2 
 1990000   0.45724284    -8.747697    252.51307  0.010574249 0.0088301916            1 
 1991000   0.45410199   -8.7525679    252.45964  0.010566702 0.0088229831            2 
 1992000   0.45675785   -8.7468595    252.03232  0.010543521 0.0088157823            1 
 1993000   0.45658487   -8.7441881    252.31453   0.01055003 0.0088085961            2 
 1994000   0.45632556    -8.753812    252.44881  0.010550351 0.0088014191            1 
 1995000   0.44639377   -8.7458483    252.29086  0.010538465 0.0087942457            2 
 1996000   0.45999137   -8.7584538    252.52081  0.010542786 0.0087870784            1 
 1997000   0.44533826   -8.7403439    252.49171  0.010536292  0.008779912            4 
 1998000   0.45553294   -8.7590635     252.3044  0.010523206  0.008772754            1 
 1999000   0.45742554   -8.7536312    252.40491  0.010522132 0.0087656032            2 
 2000000   0.45484543   -8.7502497    252.30609  0.010512754 0.0087584675            2 
 2001000   0.45402643   -8.7442446    251.99891  0.010494707 0.0087513358            2 
 2002000   0.45512571   -8.7646465    252.50981  0.010510731 0.0087442156            1 
 2003000   0.44404992   -8.7602434    252.14939  0.010490489  0.008737103            2 
 2004000   0.45258386   -8.7603713    251.67141  0.010465378 0.0087299943            2 
 2005000   0.45240222   -8.7677652    252.26068   0.01048465 0.0087228898            3 
 2006000   0.44256997    -8.752172    252.32591  0.010482133 0.0087157916            2 
 2007000   0.45130723   -8.7591332    251.99072  0.010462993 0.0087087048            2 
 2008000   0.45531146   -8.7559175    252.12025  0.010463158 0.0087016271            3 
 2009000   0.45895719   -8.7546577    251.88547  0.010448211 0.0086945511            2 
 2010000   0.45080537   -8.7646216    252.30449  0.010460385 0.0086874853            2 
 2011000   0.44563541   -8.7765017    251.62514  0.010427032 0.0086804284            2 
 2012000   0.44063216   -8.7578515      251.984  0.010436713 0.0086733697            2 
Loop time of 4862.87 on 48 procs for 2000000 steps with 4000 atoms

Performance: 71069.195 tau/day, 411.280 timesteps/s
99.4% CPU use with 48 MPI tasks x no OpenMP threads

MPI task timing breakdown:
Section |  min time  |  avg time  |  max time  |%varavg| %total
---------------------------------------------------------------
Pair    | 314.71     | 328.54     | 344.37     |  44.7 |  6.76
Neigh   | 32.059     | 33.066     | 34.28      |  10.2 |  0.68
Comm    | 314.33     | 332.21     | 347.04     |  50.3 |  6.83
Output  | 4.148      | 4.15       | 4.1871     |   0.3 |  0.09
Modify  | 4110.3     | 4118.1     | 4127.6     |   5.9 | 84.68
Other   |            | 46.79      |            |       |  0.96

Nlocal:        83.3333 ave          93 max          77 min
Histogram: 1 11 6 7 4 10 4 2 2 1
Nghost:        2088.12 ave        2107 max        2060 min
Histogram: 1 1 2 2 6 11 12 6 3 4
Neighs:        13647.7 ave       16025 max       12308 min
Histogram: 2 9 8 12 6 6 3 1 0 1
FullNghs:      27294.4 ave       30736 max       25220 min
Histogram: 3 10 8 5 12 2 2 4 1 1

Total # of neighbors = 1310130
Ave neighs/atom = 327.53250
Neighbor list builds = 107039
Dangerous builds = 0

#clear
#
#next RN
#
#jump SELF
Total wall time: 1:21:06
