
units lj                  # Use reduced LJ style units
atom_style atomic         # Uncharged point particles
atom_modify map hash      # Needed for indexing of clusters etc
                          # Used to be able to find where atoms are in relation to each other.

lattice fcc 1.0 spacing 1 1 1
Lattice spacing in x,y,z = 1.5874011 1.5874011 1.5874011
region box block 0 10 0 10 0 10 units lattice
create_box 2 box
Created orthogonal box = (0.0000000 0.0000000 0.0000000) to (15.874011 15.874011 15.874011)
  3 by 4 by 4 MPI processor grid
create_atoms 1 box
Created 4000 atoms
  using lattice units in orthogonal box = (0.0000000 0.0000000 0.0000000) to (15.874011 15.874011 15.874011)
  create_atoms CPU = 0.003 seconds
set type 1 type/fraction 2 0.02 78393
Setting atom values ...
  77 settings made for type/fraction
mass 1 1.0
mass 2 1.0
pair_style lj/cut  3.5
pair_modify tail  yes
pair_coeff 1  1  1.0  1.0   # Intearaction between 1 and 1 set with epsilon = 1 and sigma = 1
pair_coeff 1  2  1.5  0.8
pair_coeff 2  2  0.5  0.88

write_data data.0
System init for write_data ...
Neighbor list info ...
  update every 1 steps, delay 10 steps, check yes
  max neighbors/atom: 2000, page size: 100000
  master list distance cutoff = 3.8
  ghost atom cutoff = 3.8
  binsize = 1.9, bins = 9 9 9
  1 neighbor lists, perpetual/occasional/extra = 1 0 0
  (1) pair lj/cut, perpetual
      attributes: half, newton on
      pair build: half/bin/atomonly/newton
      stencil: half/bin/3d
      bin: standard
WARNING: Not all mixed pair coeffs generated from mixing. Use write_data with 'pair ij' option to store all pair coeffs. (../write_data.cpp:312)


#############################
#   M E L T   S Y S T E M   #
#############################

velocity all create 2.4 5300450 mom yes dist gaussian # Assign velocities
                                                    # Temperature 2.4, random number seed, zero linear momentum
                                                                                # Gaussian distribution

timestep 0.002   # simulation timestep
thermo 1000       # output thermodynamic data every 1000 steps bf 100

# Define a fix  in this case with index 1 applied to all
# particles in the simulation. This fix is for simulations
# in the anisotropic NPT ensemble. Note that we use the MTK
# correction.
fix 1 all npt temp 2.4 2.4 0.1 iso 5.68 5.68 0.5 mtk yes tchain 5 pchain 5 # Use NPT ensemble
                                                                         # Set temperature and pressure and damping
                                                                         # Numbers of thermostats in chain and in barostat
run 10000          # run for 10000 steps
Per MPI rank memory allocation (min/avg/max) = 3.642 | 3.644 | 3.648 Mbytes
Step Temp E_pair E_mol TotEng Press Volume 
       0          2.4   -8.2581388            0   -4.6590388   -2.3989133         4000 
    1000    2.4203393   -4.5334098            0  -0.90380847    5.5081049    5111.0873 
    2000    2.3595033   -4.3667723            0  -0.82840219    5.5503253    5205.8828 
    3000    2.3723738   -4.4427465            0  -0.88507539    5.5123874    5156.8917 
    4000    2.4015997   -4.4018746            0  -0.80037566    5.6624344    5172.9765 
    5000    2.3613134   -4.3969029            0  -0.85581837    5.8207448    5137.5447 
    6000    2.3982628   -4.4478981            0  -0.85140329    5.5065501    5148.8538 
    7000    2.3620988    -4.434982            0  -0.89271949    5.5016023    5168.3839 
    8000    2.3835918   -4.4778028            0  -0.90330896    5.8891505     5084.306 
    9000    2.4065335   -4.3923466            0  -0.78344888    5.7215818    5165.6961 
   10000    2.3939822    -4.466817            0  -0.87674136    5.2741465    5174.3164 
Loop time of 2.03649 on 48 procs for 10000 steps with 4000 atoms

Performance: 848518.616 tau/day, 4910.409 timesteps/s
99.6% CPU use with 48 MPI tasks x no OpenMP threads

MPI task timing breakdown:
Section |  min time  |  avg time  |  max time  |%varavg| %total
---------------------------------------------------------------
Pair    | 0.83066    | 0.91207    | 0.95975    |   2.5 | 44.79
Neigh   | 0.16827    | 0.17251    | 0.18387    |   0.6 |  8.47
Comm    | 0.66242    | 0.70865    | 0.79427    |   3.6 | 34.80
Output  | 0.00024052 | 0.00024391 | 0.00030079 |   0.0 |  0.01
Modify  | 0.20567    | 0.22866    | 0.25049    |   2.5 | 11.23
Other   |            | 0.01437    |            |       |  0.71

Nlocal:        83.3333 ave          90 max          75 min
Histogram: 2 2 1 4 10 6 11 3 4 5
Nghost:        1386.67 ave        1408 max        1365 min
Histogram: 3 0 5 9 9 4 8 6 3 1
Neighs:        7356.04 ave        8252 max        6059 min
Histogram: 1 1 1 4 8 10 10 6 3 4

Total # of neighbors = 353090
Ave neighs/atom = 88.272500
Neighbor list builds = 904
Dangerous builds = 203

# Equilibrate just above the melting temperature to avoid step fn in T

fix 1 all npt temp 1.25 1.25 0.1 iso 5.68 5.68 0.5 mtk yes tchain 5 pchain 5
run 2000
Per MPI rank memory allocation (min/avg/max) = 3.642 | 3.644 | 3.648 Mbytes
Step Temp E_pair E_mol TotEng Press Volume 
   10000    2.3939822    -4.466817            0  -0.87674136    5.2741465    5174.3164 
   11000    1.2796567   -5.8953072            0    -3.976302    5.6168688    4289.1436 
   12000    1.2499625   -5.9111599            0    -4.036685    5.6986767    4274.4395 
Loop time of 0.452994 on 48 procs for 2000 steps with 4000 atoms

Performance: 762923.769 tau/day, 4415.068 timesteps/s
99.6% CPU use with 48 MPI tasks x no OpenMP threads

MPI task timing breakdown:
Section |  min time  |  avg time  |  max time  |%varavg| %total
---------------------------------------------------------------
Pair    | 0.19711    | 0.21132    | 0.22686    |   1.3 | 46.65
Neigh   | 0.031126   | 0.032187   | 0.033546   |   0.3 |  7.11
Comm    | 0.1457     | 0.15668    | 0.17281    |   1.3 | 34.59
Output  | 5.0689e-05 | 5.2061e-05 | 6.355e-05  |   0.0 |  0.01
Modify  | 0.042318   | 0.048216   | 0.053278   |   1.3 | 10.64
Other   |            | 0.00454    |            |       |  1.00

Nlocal:        83.3333 ave          90 max          74 min
Histogram: 1 2 2 3 5 10 13 5 4 3
Nghost:        1573.67 ave        1593 max        1556 min
Histogram: 1 3 8 5 10 9 3 5 2 2
Neighs:        8925.98 ave        9744 max        7644 min
Histogram: 1 0 2 6 5 8 11 4 6 5

Total # of neighbors = 428447
Ave neighs/atom = 107.11175
Neighbor list builds = 142
Dangerous builds = 15

#############################
# L I N E A R  Q U E N C H  #
#############################

# Define solid atoms. This closely follows ten Wolde  Ruiz-Montero and Frenkel  Faraday Discuss  1996  104  93-110
# Compute components of the per-atom q6 vector
compute q6 all orientorder/atom degrees 1 6 components 6 nnn NULL cutoff 1.3 # compute the Q6 parameter.
                                                                             # Use all neighbours within 1.3 unit cell.

# get number of connections
compute coord_number all coord/atom orientorder q6 0.5

# An atom is solid if it has 8 or more connections (of a possible 14)
variable is_solid atom c_coord_number>=8
group solid dynamic all var is_solid    # Must be dynamic to update
dynamic group solid defined

# do clustering
compute cluster solid cluster/atom 1.3 # Create a cluster where all atoms within are solid and max 1.3 units from another member

# define chunks one chunk per cluster
compute clus_chunks solid chunk/atom c_cluster nchunk every compress yes  # Says which atoms are in which chunk

# count the size of each chunk
compute size_chunks solid property/chunk clus_chunks count


# Find the maximum entry in the vector of chunk sizes
variable max_n equal max(c_size_chunks)


# Thermo style which includes this variable
# thermo_style custom step temp pe vol v_max_n

thermo ${N}  # Print the thermo information every 100 steps
thermo 1000  

# Reset the npt fix at a lower temperature (below freezing)
fix 1  all npt temp  ${temp} ${temp}  0.1  iso  5.68  5.68  0.5  mtk yes tchain  5  pchain  5
fix 1  all npt temp  0.45 ${temp}  0.1  iso  5.68  5.68  0.5  mtk yes tchain  5  pchain  5
fix 1  all npt temp  0.45 0.45  0.1  iso  5.68  5.68  0.5  mtk yes tchain  5  pchain  5

dump dmp2 all dcd ${N} traj.dcd
dump dmp2 all dcd 1000 traj.dcd


compute msd all msd com yes
variable twopoint equal c_msd[4]/6/(step*dt+1.0e-6)
fix 9 all vector 10 c_msd[4]
variable fit equal slope(f_9)/6/(10*dt)
thermo_style custom step temp pe c_msd[4] v_twopoint v_fit v_max_n

fix 1 all npt temp 1.25 ${temp} 0.1 iso 5.68 5.68 0.5 mtk yes tchain 5 pchain 5
fix 1 all npt temp 1.25 0.45 0.1 iso 5.68 5.68 0.5 mtk yes tchain 5 pchain 5
run 5000000 # 5000000  # Run for this many steps
Neighbor list info ...
  update every 1 steps, delay 10 steps, check yes
  max neighbors/atom: 2000, page size: 100000
  master list distance cutoff = 3.8
  ghost atom cutoff = 3.8
  binsize = 1.9, bins = 9 9 9
  4 neighbor lists, perpetual/occasional/extra = 1 3 0
  (1) pair lj/cut, perpetual
      attributes: half, newton on
      pair build: half/bin/atomonly/newton
      stencil: half/bin/3d
      bin: standard
  (2) compute orientorder/atom, occasional
      attributes: full, newton on
      pair build: full/bin/atomonly
      stencil: full/bin/3d
      bin: standard
  (3) compute coord/atom, occasional
      attributes: full, newton on
      pair build: full/bin/atomonly
      stencil: full/bin/3d
      bin: standard
  (4) compute cluster/atom, occasional
      attributes: full, newton on
      pair build: full/bin/atomonly
      stencil: full/bin/3d
      bin: standard
Per MPI rank memory allocation (min/avg/max) = 9.733 | 9.736 | 9.739 Mbytes
Step Temp PotEng c_msd[4] v_twopoint v_fit v_max_n 
   12000    1.2499625   -5.9111599 8.4625054e-31 5.8767396e-33 8.3333333e+20            3 
   13000    1.2525745   -5.8776122   0.57368747 0.0036774836  0.047035442            3 
   14000    1.2468997   -5.9534818    1.0910428 0.0064943024  0.044148698            1 
   15000    1.2445045   -5.9534522    1.6374604  0.009097002  0.044585073            3 
   16000    1.2551845   -5.8964324    2.2127906  0.011524951  0.045196014            2 
   17000    1.2468403   -5.9415816    2.7722269  0.013589347  0.045789437            3 
   18000    1.2481379   -5.9002982    3.3001747  0.015278586  0.045832385            4 
   19000    1.2605638   -5.8933139    3.8251874  0.016777137  0.045780493            4 
   20000    1.2216742   -5.9700004    4.4105561  0.018377317  0.045796834            5 
   21000    1.2257041   -5.9211958    4.9436497  0.019617657  0.045731321            2 
   22000    1.2458937   -5.9174838    5.5072081  0.020860636   0.04573922            3 
   23000    1.2643871   -5.9183731    6.0704822    0.0219945  0.045801648            4 
   24000    1.2741702   -5.9367767    6.6709441     0.023163  0.045898462            2 
   25000    1.2234476   -5.9053297    7.3397982  0.024465993  0.046266713            3 
   26000    1.2600738   -5.9258902    7.7296973   0.02477467  0.046388299            3 
   27000    1.2543096   -5.8817642    8.2484291  0.025458114  0.046248187            4 
   28000    1.2759419    -5.896758    8.7888404  0.026157263  0.046212802            2 
   29000    1.2559904   -5.9270554    9.2682455  0.026632889  0.046067493            6 
   30000    1.2414484   -5.9165708    9.9278059  0.027577238  0.045939226            3 
   31000    1.2414304   -5.8768041    10.674339   0.02869446  0.046062108            2 
   32000    1.2577173   -5.9107841      11.3616  0.029587499  0.046338311            2 
   33000    1.2426178   -5.8754291    11.880818  0.030002064   0.04656848            2 
   34000    1.2937343   -5.9323325    12.414634  0.030428023  0.046718554            6 
   35000    1.2749041    -5.875434    13.014853  0.030987744  0.046894805            2 
   36000    1.2357539   -5.9176127    13.359762  0.030925375  0.046894089            4 
   37000    1.2488845   -5.9231666    14.090536  0.031735441  0.046891137            3 
   38000     1.224733    -5.945611    14.704908  0.032247605  0.046965683            8 
   39000    1.2548253   -5.8766582    15.336698  0.032770722  0.047038774            4 
   40000    1.2207594   -5.9095033    15.870458  0.033063454  0.047150986            4 
   41000    1.2320998   -5.9259263    16.352124  0.033236023  0.047195223            2 
   42000    1.2189977   -5.9288694    16.881508  0.033495055  0.047201519            4 
   43000    1.2507611   -5.9178671    17.454086  0.033825748   0.04721826            3 
   44000    1.2087748   -5.9105162    18.055093  0.034195251  0.047237131            1 
   45000    1.2278807   -5.9216525     18.55687  0.034364574  0.047218643            5 
   46000    1.2612431   -5.9501492    18.915863  0.034267867  0.047178123            3 
   47000      1.21641   -5.8941386    19.427608  0.034446113  0.047087892            2 
   48000    1.2402675   -5.8989063    19.935518  0.034610275  0.046971601            2 
   49000    1.2486345   -5.9051253    20.340027  0.034591882   0.04683138            2 
   50000    1.2447011   -5.9405376    20.732494  0.034554157  0.046657655            2 
   51000    1.2492399   -5.9009964    21.122272  0.034513515   0.04647595            5 
   52000    1.2260191   -5.8601695    21.653897  0.034701757  0.046293619            3 
   53000     1.248377   -5.9488288    22.018786  0.034620732  0.046083468            3 
   54000    1.2374958   -5.9419458    22.572975  0.034834837  0.045890061            1 
   55000    1.2404867   -5.9118213    23.053343  0.034929308  0.045709121            1 
   56000    1.2568248   -5.9380748    23.610091  0.035134064  0.045538003            3 
   57000    1.2491693   -5.9118707    24.242525  0.035442288  0.045400849            2 
   58000    1.2410734   -5.9128917    24.757816  0.035571575  0.045292082            3 
   59000    1.2624783   -5.9019186    25.198275  0.035590783    0.0451748            3 
   60000    1.2628709   -5.9237407    25.620795  0.035584437  0.045066041            2 
   61000    1.2231916   -5.9131961    26.266702  0.035883472  0.044954043            2 
   62000    1.2133311   -5.9533863    26.764429  0.035973695  0.044854521            2 
   63000    1.2417996   -5.9272359    27.390055  0.036230231  0.044777269            3 
   64000    1.2434904   -5.9056009    28.031968  0.036499958  0.044726935            3 
   65000    1.2487707   -5.9255632    28.747998  0.036856407  0.044716302            3 
   66000    1.2120684   -5.9164371    29.287713  0.036979435   0.04471869            3 
   67000    1.2500895    -5.939875    29.746067  0.036997596  0.044714372            5 
   68000    1.2483936   -5.9117692    30.270257  0.037095903  0.044711451            3 
   69000    1.2545721   -5.8588385    30.935456  0.037361662  0.044718483            4 
   70000    1.2209967   -5.9186433    31.584073  0.037600087    0.0447344            4 
   71000    1.2289602   -5.9123327    32.156866    0.0377428  0.044763676            3 
   72000    1.2243316   -5.9551462    32.714963   0.03786454  0.044788412            5 
   73000    1.2708602   -5.9340051    33.487594  0.038227847  0.044829281            8 
   74000    1.2725638   -5.9428377     33.98402  0.038270292  0.044880071            6 
   75000    1.2355321   -5.9643106    34.631312  0.038479235  0.044930561            3 
   76000    1.2414655   -5.9044102    35.302685  0.038709084   0.04498331            4 
   77000    1.2626952   -5.9018272    35.808902  0.038754222  0.045046334            4 
   78000    1.2524646   -5.8991489    36.050213  0.038515185  0.045084955            3 
   79000    1.2246169   -5.9139177    36.373314  0.038368474  0.045094166            2 
   80000    1.2185964   -5.9225436    36.900756  0.038438288  0.045089451            4 
   81000    1.2449592   -5.9065831    37.438656  0.038517136  0.045075819            3 
   82000    1.2566981   -5.9230927    37.941852  0.038558792  0.045062498            3 
   83000    1.2460256   -5.9257569    38.241441  0.038395021  0.045043739            4 
   84000    1.2337282   -5.9508615    38.807973  0.038499973  0.045012641            5 
   85000    1.2438005   -5.8846666    39.198291  0.038429697  0.044976312            4 
   86000    1.2247055   -5.9188204    39.743883  0.038511514  0.044935974            4 
   87000    1.2542425   -5.9293003    40.163314  0.038470607  0.044896301            2 
   88000    1.2221856   -5.9344432    40.822733  0.038657891  0.044858378            1 
   89000    1.2241332   -5.9233184    41.250987  0.038624519  0.044820487            2 
   90000    1.2559805     -5.98252    41.863817  0.038762794    0.0447914            2 
   91000    1.2117946   -5.9159608    42.351817  0.038783715  0.044769231            6 
   92000     1.212771   -5.9194122    43.069028    0.0390118  0.044746016            3 
   93000     1.231694   -5.9293527    43.587096  0.039056538  0.044725682            2 
   94000     1.236025   -5.8881155    44.272669   0.03924882  0.044707716            3 
   95000    1.2424856   -5.9448152    44.503005  0.039037724  0.044689747            3 
   96000    1.2613514   -5.9541567    44.929567   0.03900136  0.044665294            5 
   97000    1.2522395    -5.926625    45.542495  0.039125854  0.044641655            3 
   98000    1.2174995   -5.9651192    46.113233  0.039211933  0.044627713            2 
   99000    1.2536027   -5.9282734    46.784846  0.039381184  0.044609695            6 
  100000    1.2309807   -5.9130056    47.256668  0.039380557  0.044596822            3 
  101000    1.2497611   -5.9390212    47.870199  0.039496864  0.044588492            2 
  102000    1.2331773   -5.9122542    48.420363   0.03955912  0.044584058            2 
  103000    1.2281955   -5.9537711    48.998109  0.039642483  0.044582672            5 
  104000    1.2215676   -5.9240966    49.557999  0.039709935  0.044580281            3 
  105000    1.2374222   -5.9566884    50.197051  0.039838929  0.044583169            3 
  106000    1.2147533   -5.9481923    50.559477  0.039748017   0.04458465            3 
  107000    1.2314612   -5.9117036    51.426875  0.040052083  0.044587614            3 
  108000    1.2207742   -5.9358578    52.321568   0.04037158  0.044600672            2 
  109000    1.2294192   -5.9611045    52.817355  0.040380241  0.044624929            2 
  110000    1.2335553   -5.9036271    53.449908  0.040492354  0.044651268            3 
  111000    1.2595746   -5.9606175    54.063769  0.040588415  0.044676747            4 
  112000    1.2468411    -5.938404    54.267673  0.040377733  0.044699914            5 
  113000    1.2163677   -5.9272206    54.764499  0.040386798  0.044717656            2 
  114000    1.2137496   -5.8976197    55.726562  0.040735791  0.044740621            6 
  115000    1.2242931   -5.9119497    56.253479   0.04076339  0.044769392            2 
  116000    1.2418347   -5.9097726    56.718285  0.040745894  0.044792386            2 
  117000    1.2352748   -5.9217586    57.461097  0.040926707  0.044815087            5 
  118000    1.2289784   -5.9360832    57.648541  0.040712246   0.04483454            2 
  119000    1.2252426   -5.9369661    58.245799  0.040788375   0.04484689            2 
  120000    1.2332245   -5.9576294      58.6895  0.040756597  0.044857201            3 
  121000    1.2281284   -5.9439608     59.08011  0.040688781  0.044869733            1 
  122000    1.2365944   -5.9087761    59.775592  0.040830322  0.044879176            2 
  123000    1.2667276   -5.9057956    60.325926  0.040871224  0.044888692            2 
  124000    1.2411836   -5.9163531    60.659864  0.040766038  0.044893576            3 
  125000    1.2141625    -5.919728     60.89606  0.040597373  0.044892818            2 
  126000    1.2331899   -5.9314378    61.318448  0.040554529  0.044887588            2 
  127000    1.2251221   -5.9313179    62.070926  0.040728954  0.044880751            5 
  128000    1.2320462   -5.9514733    62.484507  0.040680018   0.04487801            2 
  129000    1.2082469   -5.9310321    63.235932  0.040850085  0.044875447            3 
  130000    1.2028785   -5.9499382    63.580259  0.040756576  0.044870465            3 
  131000    1.2357461   -5.9226479    64.158903  0.040813551  0.044863016            3 
  132000    1.2556446   -5.9547233    64.514174  0.040728645  0.044850353            2 
  133000    1.2267737   -5.9425438      65.0581   0.04076322  0.044839453            6 
  134000     1.223092   -5.9329751    65.276978  0.040595135   0.04482396            2 
  135000    1.1795143   -5.9685884    66.183112  0.040853772  0.044809803            2 
  136000     1.232117   -5.9332119    66.641036  0.040833968  0.044795299            3 
  137000    1.2213965   -5.9346828     67.42425  0.041012317  0.044788952            4 
  138000    1.2419603   -5.8905727    67.738689  0.040905005  0.044782847            2 
  139000    1.2430166   -5.9201019    68.273041   0.04093108  0.044775732            2 
  140000    1.2414183   -5.9748238    68.719703  0.040904585  0.044764788            3 
  141000    1.2122976   -5.9708253    69.293389   0.04095354   0.04475721            2 
  142000    1.1966755   -5.9159161     69.33532  0.040689742  0.044747184            4 
  143000    1.2232601   -5.9450817    70.106143  0.040854396  0.044730266            5 
  144000    1.2396612   -5.9754921    70.242585  0.040649644  0.044712214            2 
  145000    1.2049124   -5.9321621     70.85005   0.04071842  0.044689105            3 
  146000    1.2538961   -6.0005518    70.936588   0.04048892  0.044664288            2 
  147000     1.247123   -5.9380083    71.834722  0.040722631  0.044638203            2 
  148000    1.2452103   -5.9587277    72.354779  0.040740303  0.044612343            2 
  149000     1.211066    -5.922411    72.704297  0.040662359   0.04458917            2 
  150000      1.21584    -5.930953    73.371336  0.040761853  0.044563134            2 
  151000    1.2493708   -5.9618654     73.38219  0.040497897  0.044535313            3 
  152000    1.2004803   -5.9334077     74.12442  0.040638388  0.044503738            3 
  153000    1.2199528   -5.9277896    74.652484  0.040660394   0.04447139            5 
  154000    1.2144352   -5.9454032    75.337643  0.040767123  0.044442855            3 
  155000    1.1832017   -5.9706551    75.395904  0.040535432   0.04441658            7 
  156000    1.2323443    -5.929426    76.258083  0.040736155  0.044390409            6 
  157000    1.2478249   -5.9671684    76.420374  0.040562831   0.04436461            3 
  158000    1.2238726   -5.9708474    76.912406  0.040565615  0.044337479            5 
  159000    1.1931537    -5.958264    77.168674  0.040444798  0.044308198            2 
  160000    1.2547799   -5.9655892    77.573378  0.040402801  0.044275685            6 
  161000    1.2352598   -5.9551896    78.458679  0.040610082  0.044245309            3 
  162000    1.2195472   -5.9417403    78.852518  0.040561995  0.044213061            4 
  163000    1.2093279   -5.9593742    79.566524  0.040678182  0.044187178            3 
  164000     1.226978   -5.9178516    80.115114  0.040708899  0.044163604            4 
  165000    1.2129448    -5.959415    80.688571  0.040751803  0.044138016            5 
  166000    1.2444676   -5.9311446    80.914042  0.040619499  0.044116322            3 
  167000      1.24551   -5.9838058    81.808287  0.040822499   0.04409689            2 
  168000    1.2205825    -5.957031    82.561945  0.040953346  0.044082107            3 
  169000    1.2149928   -5.9590765    82.649859  0.040754368  0.044065698            3 
  170000    1.1980386   -5.9299909    83.371495   0.04086838  0.044049508            2 
  171000    1.2138329   -5.9381574    83.637328  0.040758932  0.044032643            3 
  172000    1.2537519   -5.9311482    85.059171  0.041210839  0.044019855            3 
  173000    1.2202167    -5.923549    85.465842  0.041168517  0.044010755            2 
  174000     1.232724   -5.8997648    86.069154  0.041220859  0.044002303            3 
  175000    1.2134283   -5.9500289    86.252748  0.041072737   0.04399497            4 
  176000    1.2542229   -5.9499796    87.034431  0.041209484  0.043985927            3 
  177000    1.2492413   -5.9389994    86.988256  0.040954923  0.043977553            3 
  178000    1.1868442   -5.9216509    88.168569   0.04127742  0.043969686            3 
  179000    1.2152036   -5.9887229    88.353912  0.041133106  0.043962419            3 
  180000    1.2100911   -5.9631629    89.291619  0.041338712  0.043957712            1 
  181000    1.2035399   -5.9767445    89.779072  0.041334748  0.043954709            4 
  182000    1.2366963   -5.9998581    90.218544  0.041308857  0.043950566            2 
  183000    1.2408055   -5.9665473    90.357279  0.041146302  0.043944543            4 
  184000    1.1984233   -5.9681684    90.851276  0.041146411  0.043937697            5 
  185000    1.2543503   -5.9607207     91.45348  0.041195261  0.043931804            3 
  186000    1.2132832   -5.9730208    92.065692   0.04124807   0.04392648            4 
  187000    1.2135855   -5.9669251    92.373649  0.041164728  0.043919089            3 
  188000    1.2282862   -5.9508849     92.99217  0.041219934  0.043911722            2 
  189000    1.2418608   -5.9974042    93.104576    0.0410514  0.043902061            3 
  190000     1.209124   -5.9570642    93.916077  0.041191262  0.043892299            4 
  191000    1.2181925   -5.9864716    94.248101  0.041120463  0.043879323            4 
  192000    1.2035515   -5.9759707    94.468484  0.041001946  0.043863754            6 
  193000    1.1895163   -5.9406852    95.244196  0.041124437  0.043847118            2 
  194000    1.2334279   -5.9148883    95.858652  0.041176397  0.043833005            4 
  195000    1.2152741    -5.942221    96.626157   0.04129323   0.04381913            2 
  196000     1.244467   -5.9743819    96.684905  0.041107528  0.043807515            2 
  197000    1.2281455   -5.9594468    97.332272  0.041172704  0.043797458            4 
  198000    1.2007216   -5.9541399    97.846468  0.041181173  0.043784714            2 
  199000    1.2098747   -5.9616416    98.342267  0.041181854  0.043775056            4 
  200000    1.2141991   -5.9594969    99.094441   0.04128935  0.043765479            3 
  201000    1.2393435   -5.9625439    99.740515  0.041351789  0.043756264            3 
  202000    1.1978287   -5.9620657    100.08225  0.041288057  0.043748527            4 
  203000     1.216044   -5.9335013    100.49529  0.041254224  0.043740089            1 
  204000    1.2075641   -5.9535373    101.32388  0.041390475  0.043733892            3 
  205000    1.2052244   -5.9336563    101.92219  0.041431786  0.043727579            3 
  206000      1.20636   -5.9614033    102.13011  0.041314768  0.043719788            3 
  207000    1.2154847   -6.0028956    102.50522  0.041266192  0.043711374            5 
  208000    1.1998639   -5.9461739    102.87689  0.041216702  0.043703182            4 
  209000    1.2112201   -5.9863784    103.68116  0.041340175    0.0436956            3 
  210000    1.2038195   -5.9508226    103.91078  0.041234437  0.043688027            1 
  211000    1.2134283   -5.9563133    104.80199  0.041390992  0.043680401            6 
  212000    1.2228871   -5.9461177    105.53654  0.041484487   0.04367585            4 
  213000    1.2352315    -6.020344    105.69889  0.041353245   0.04367363            4 
  214000    1.2331238   -5.9516875    106.82685   0.04159924  0.043672585            2 
  215000     1.212057   -5.9828473    107.15047  0.041531191  0.043672578            3 
  216000    1.2266593   -5.9559758    107.60121  0.041512813  0.043669419            5 
  217000    1.2267325   -5.9731415    107.97871  0.041466478  0.043665325            3 
  218000    1.2250677   -5.9768572    108.86636   0.04161558  0.043662287            5 
  219000    1.2015304   -5.9442934    109.02688  0.041486638  0.043658123            5 
  220000    1.1967239    -5.966615    109.83549  0.041604353  0.043656013            2 
  221000    1.2380841   -5.9332916    110.35974  0.041613779  0.043653483            2 
  222000    1.2166553   -5.9394818    110.67573  0.041544944  0.043650563            2 
  223000    1.2310979   -5.9737145    111.18517  0.041549016  0.043646308            4 
  224000    1.1928556    -5.949105    111.72866  0.041565723  0.043643989            2 
  225000    1.2092951   -5.9396493    112.49077  0.041663249  0.043642189            6 
  226000     1.216654   -5.9651911    112.74498  0.041572632  0.043641257            3 
  227000    1.1952251    -5.956851    113.46925  0.041655379  0.043637398            3 
  228000    1.1995637   -5.9880941    114.08145  0.041696436  0.043636914            7 
  229000    1.1982641   -5.9690125    114.60702  0.041705611  0.043638818            6 
  230000    1.2057656   -5.9412679    115.38612  0.041806567  0.043638096            3 
  231000    1.2083131   -5.9910947    115.25712  0.041579048  0.043635245            3 
  232000    1.2299553   -5.9641395    115.65709  0.041543496   0.04363063            6 
  233000    1.2306757   -5.9522239    115.95906  0.041473197  0.043623629            2 
  234000    1.2329418   -5.9526853    116.49117   0.04148546  0.043618323            2 
  235000    1.2126926   -5.9227735    117.64143  0.041716819  0.043612103            4 
  236000    1.2388824   -5.9903283    117.37905  0.041447403  0.043605644            5 
  237000    1.1980401   -5.9808171    118.05259  0.041509351  0.043599842            4 
  238000     1.205638   -5.9659344    118.44551  0.041472517  0.043591872            3 
  239000    1.1913896   -5.9791099    118.51595  0.041323552    0.0435835            4 
  240000    1.2074034   -5.9297166    119.75255  0.041580747  0.043575268            2 
  241000    1.2073714   -5.9672227    120.29142  0.041594545  0.043569886            3 
  242000    1.2420255   -5.9561528    120.63037  0.041539384  0.043563402            3 
  243000    1.2143552   -5.9821108    120.61647  0.041363672  0.043554691            3 
  244000    1.2223421   -5.9582367     121.0468  0.041341122  0.043544819            3 
  245000     1.193625   -6.0046465    121.77832  0.041421196  0.043536352            4 
  246000    1.2124707    -5.950687    122.83829  0.041611887  0.043531456            6 
  247000    1.1806765   -5.9526696    123.22769  0.041574794  0.043526872            8 
  248000     1.203446   -5.9632343    123.71036  0.041569342  0.043523535            3 
  249000    1.2243498   -5.9586142    125.34692  0.041950108  0.043522059            3 
  250000    1.2052156   -5.9542675    125.65245  0.041884148  0.043522238            3 
  251000    1.2222635   -5.9926419    125.65373  0.041717704  0.043521843            3 
  252000     1.220245    -5.950896    126.83395  0.041942442  0.043520654            3 
  253000    1.2156673    -5.999658    126.91693  0.041803996  0.043519086            8 
  254000    1.2234793   -5.9536202    127.31407  0.041769709  0.043519048            5 
  255000    1.2058063   -5.9199608    128.10498  0.041864373  0.043517168            2 
  256000    1.1935538   -5.9530024    128.73976  0.041907475  0.043518458            4 
  257000    1.2073712   -5.9355388    129.29618  0.041924832   0.04352232            6 
  258000    1.2143061    -5.981346    130.05047  0.042005967  0.043524666            4 
  259000    1.2280934    -5.978026    130.04158  0.041840919  0.043524701            5 
  260000    1.1835092   -5.9662562    131.13293  0.042029785  0.043525784            5 
  261000    1.2005884   -5.9760635    131.54961  0.042001791  0.043528427            3 
  262000     1.225235   -5.9377241    132.02218  0.041991789   0.04353047            2 
  263000    1.1978252   -5.9740111      132.842  0.042091889  0.043532277            2 
  264000    1.2051818   -5.9663258    132.79231  0.041916763  0.043535003            4 
  265000    1.1928192   -5.9766565    133.28659  0.041914021  0.043534556            3 
  266000    1.2067084   -5.9594365    133.81536  0.041922105  0.043533761            4 
  267000    1.2015796   -5.9872518    133.78706  0.041756262   0.04353247            8 
  268000     1.189254    -5.997888    134.52566  0.041830118  0.043530723            6 
  269000    1.2324555    -5.957779    135.44469   0.04195932  0.043529201            2 
  270000     1.216206   -5.9682801    135.41849  0.041795831  0.043527383            3 
  271000    1.1859844   -6.0052461    135.78095  0.041753059  0.043523631            4 
  272000    1.1918961   -5.9677847    136.47124  0.041811042  0.043520489            3 
  273000    1.2085904   -6.0104588    136.65458  0.041713851  0.043515627            3 
  274000    1.1889455   -5.9750869    137.52974  0.041827779  0.043510317            1 
  275000    1.2045795   -5.9561746    137.91093  0.041791191   0.04350552            2 
  276000    1.2089769   -5.9844695    138.29835  0.041756749  0.043498806            2 
  277000    1.2080994   -5.9982562    138.91689  0.041792085  0.043494891            3 
  278000    1.2314359   -5.9822432    139.48059  0.041810729  0.043491627            4 
  279000    1.2051402   -5.9560367    139.85871  0.041773808  0.043488528            2 
  280000    1.2268283   -5.9892825    140.12729  0.041704551  0.043483779            1 
  281000    1.2079217   -6.0113048     140.3017  0.041607858  0.043477488            8 
  282000    1.2141544    -5.966692    141.07177  0.041687875  0.043470828            2 
  283000    1.2257086   -5.9763251    141.25249  0.041593785   0.04346441            4 
  284000    1.1952589   -5.9974605    141.67576  0.041571524  0.043455372            3 
  285000     1.226939   -5.9930342    141.30797   0.04131812  0.043446578            3 
  286000    1.2137261   -6.0080144     142.3327  0.041472233  0.043436929            5 
  287000    1.2023148   -5.9654333    142.81248  0.041467037  0.043427433            3 
  288000    1.1933304   -5.9714279     143.7242  0.041586862  0.043417636            5 
  289000    1.2088801   -6.0101121    143.98925  0.041519392  0.043408638            2 
  290000    1.1814353   -5.9701208    144.34589  0.041478705  0.043399809            6 
  291000    1.2125995   -5.9879963    145.34281  0.041621652  0.043390327            5 
  292000    1.2117728    -6.004594    145.88592  0.041634109  0.043381442            3 
  293000     1.201183   -5.9462383    146.53056   0.04167536   0.04337318            4 
  294000    1.1948847   -6.0045516    147.08763  0.041691506  0.043367082            4 
  295000    1.2047693    -5.986386    147.66021  0.041711924  0.043359103            2 
  296000    1.2047323   -5.9739124     147.7248  0.041589188  0.043350505            4 
  297000    1.1960266   -5.9672441    147.93948  0.041509395  0.043342584            5 
  298000    1.2119448   -6.0111697    148.89126  0.041636257  0.043334787            3 
  299000    1.2086474   -5.9746235    149.51143  0.041669851  0.043328157            2 
  300000    1.2028193   -6.0291058    149.70938  0.041585939  0.043320261            2 
  301000    1.2248274   -5.9934351     149.7342  0.041454651  0.043310452            3 
  302000    1.1883819   -5.9821034    150.43433  0.041510575  0.043300791            3 
  303000    1.2082125   -6.0050662    150.37817  0.041358133  0.043290257            4 
  304000    1.2111351   -6.0094874    151.24568  0.041459891  0.043279187            4 
  305000    1.1870476    -6.016664    151.14848  0.041297398  0.043266565            2 
  306000    1.2065495   -6.0140206    151.84894  0.041353198   0.04325452            8 
  307000    1.2457475   -6.0241255    152.41583  0.041372376  0.043242056            2 
  308000    1.2014932   -5.9955038    152.64294  0.041299498   0.04322853           11 
  309000    1.1951108   -6.0065779    153.44564  0.041382319  0.043214807            5 
  310000    1.1721897   -5.9880569    153.44894  0.041249716  0.043201184            2 
  311000    1.1808531    -5.997085    154.27271  0.041337811  0.043187651            8 
  312000    1.2058523   -6.0082995    154.00745  0.041134467  0.043174563            4 
  313000    1.1866503   -5.9920112    154.84985  0.041227329  0.043159503            4 
  314000    1.2191556    -5.981739    155.13875  0.041172705   0.04314521            3 
  315000    1.2116993   -5.9644721    155.00236  0.041005916  0.043128688            2 
  316000    1.1960852   -5.9742308    156.12089   0.04117112   0.04311266            1 
  317000     1.211931   -5.9666798    157.30615  0.041352826  0.043098202            5 
  318000    1.2064818   -5.9603938    157.07411  0.041161978  0.043084547            4 
  319000     1.192998   -5.9655821    157.80685   0.04122436  0.043070271            4 
  320000     1.200552   -5.9951814    157.98267   0.04114132  0.043055704            3 
  321000    1.2385219   -5.9910475    158.45724  0.041136354  0.043040899            3 
  322000    1.1971528   -5.9519967    159.33579  0.041235969  0.043028238            2 
  323000    1.1988432   -5.9790855    159.72624   0.04120904  0.043014621            4 
  324000    1.1976215    -5.962075    160.62749  0.041313655  0.043003008            3 
  325000    1.1907365   -5.9705967    160.83907  0.041240786  0.042991299           10 
  326000    1.2096211    -5.995967    161.16708   0.04119813  0.042979048            2 
  327000     1.229505   -6.0188877    161.96625  0.041275803  0.042967101            2 
  328000     1.201159    -6.018651    161.88655  0.041129712  0.042955362           10 
  329000    1.2143009   -5.9959238    162.85859  0.041250908  0.042943818            3 
  330000    1.1981771   -5.9708809    162.27757  0.040979183   0.04293068            2 
  331000    1.2167617   -5.9971616    163.11729   0.04106679  0.042915892            4 
  332000    1.2083682   -5.9681721    163.82789  0.041121459  0.042901796            3 
  333000    1.2052639   -6.0153327    164.25468  0.041104774  0.042886855            3 
  334000    1.1884107    -5.992226    164.68868   0.04108999  0.042872141            2 
  335000    1.1875987   -5.9836737    165.19106  0.041092304  0.042856988            7 
  336000     1.219052   -5.9491072    165.14388  0.040958305  0.042842482            2 
  337000    1.2048921   -5.9704106    166.05722  0.041062617  0.042827543            2 
  338000    1.2112852   -5.9828982    166.60066  0.041075113  0.042813499            6 
  339000    1.2007021   -6.0187725    166.27341  0.040873504  0.042798291            3 
  340000    1.1849452   -6.0504319    167.37535  0.041023369   0.04278413            4 
  341000     1.200321   -6.0063888    167.99175  0.041053703  0.042770131            3 
  342000     1.205729   -5.9799089    168.64548  0.041092953  0.042757432            3 
  343000    1.1749945   -6.0021164    169.02656  0.041065733  0.042745542            4 
  344000    1.1965483   -5.9799281    170.01961   0.04118692  0.042733495            6 
  345000    1.2425052   -5.9919323    170.29789  0.041134756  0.042722005            2 
  346000    1.1979817   -6.0014744    170.41528  0.041044142  0.042709381            3 
  347000    1.1899453   -6.0204179    170.91176  0.041045092  0.042696939           11 
  348000    1.2033761   -6.0246738    170.97408   0.04094207  0.042685513            2 
  349000    1.1901457   -5.9904401    172.28644  0.041138119  0.042673446            4 
  350000    1.1866299   -6.0226258    172.24992  0.041011886  0.042661927            7 
  351000    1.1706571    -6.006864    172.24036  0.040892773  0.042649722            2 
  352000    1.2196093   -6.0188876    173.58183  0.041094183   0.04263704            1 
  353000    1.1556094   -6.0036554    173.67119  0.040998865  0.042622798            5 
  354000    1.2162663   -5.9860099    174.28575   0.04102772  0.042609901            2 
  355000    1.1990797   -6.0363537    174.06734  0.040860877  0.042597237            5 
  356000    1.1744784   -6.0266039    174.62228  0.040876003  0.042584625            2 
  357000    1.1914528   -5.9908818    175.90249  0.041060337  0.042571718            2 
  358000    1.2083895   -5.9884318    175.41434  0.040832016  0.042559581            4 
  359000    1.1944176   -5.9967715    176.40396  0.040947994   0.04254686            3 
  360000    1.2186125   -6.0179697    177.52087  0.041092793  0.042535628            4 
  361000    1.2024977   -5.9906178    177.75494  0.041032997  0.042523738            7 
  362000    1.1745343   -6.0069695    178.76991  0.041153294  0.042512656            2 
  363000    1.1922129    -5.992541    178.11654  0.040889931  0.042501584            3 
  364000    1.1873255   -5.9819196    179.43461  0.041079351  0.042490701            2 
  365000    1.1883171   -5.9667624     180.5088  0.041212055  0.042480709            2 
  366000      1.18019   -5.9728089    179.83316  0.040945619  0.042470954            4 
  367000    1.1909558   -6.0297581    180.33565  0.040948149  0.042458941            9 
  368000    1.1734939   -5.9589366    181.08934   0.04100755  0.042447517            3 
  369000     1.176519   -6.0079351    181.24469  0.040931502  0.042435458            2 
  370000     1.199839    -5.980106    182.14874   0.04102449  0.042423926            2 
  371000    1.1976334   -6.0253732    182.92694   0.04108871  0.042413531            2 
  372000    1.1850692   -5.9973975    183.14569  0.041027261  0.042402521            3 
  373000    1.2107159   -5.9961821     183.3997  0.040974016  0.042391967            2 
  374000    1.1910408    -6.026796    183.45165  0.040876037  0.042381039            3 
  375000    1.2024794   -6.0576126    184.25066  0.040944592  0.042370081            2 
  376000    1.1817377   -6.0093532    184.63735  0.040921398  0.042359694            2 
  377000    1.1882024   -5.9865895    185.63808  0.041034057  0.042349325            3 
  378000     1.210057   -6.0175757    185.27592  0.040845662  0.042338152            5 
  379000    1.1997764   -6.0163308    186.29381    0.0409617  0.042326808            5 
  380000    1.2034919   -5.9927441    186.60271  0.040921647  0.042315482            2 
  381000    1.1940291   -5.9919687    187.27066  0.040960338  0.042304076            3 
  382000     1.200145   -6.0080791    187.19605  0.040836835    0.0422932            3 
  383000    1.2121088   -6.0039363    187.76629  0.040854284  0.042281836            2 
  384000    1.1904057   -6.0245098    188.84518  0.040982028  0.042270802            3 
  385000    1.1809482   -6.0008185    188.32927  0.040763912  0.042259137            5 
  386000    1.2022033   -5.9963459    189.69157  0.040952411  0.042247498            6 
  387000    1.2137101   -6.0102654    189.42634   0.04078948  0.042236072            4 
  388000    1.1862838   -6.0091076     189.8296  0.040770961  0.042223829            2 
  389000    1.1979892    -6.011256    189.71701  0.040642033  0.042211716            2 
  390000    1.1875888   -6.0121426     190.7953  0.040768226  0.042199279            3 
  391000    1.2035544   -5.9977791    191.77802  0.040873405  0.042187093            3 
  392000     1.212731   -6.0474949    192.28437  0.040876778  0.042175697            5 
  393000    1.2066637   -6.0127961     192.2058  0.040756107  0.042164683            6 
  394000    1.1695809   -5.9777275     194.3364    0.0411033  0.042154118            3 
  395000    1.2034712   -6.0205537    193.24942  0.040769919    0.0421442            2 
  396000    1.1517898   -6.0173155    194.32095  0.040892455   0.04213274            4 
  397000    1.2026179   -6.0064277    194.38646  0.040803204  0.042122122            4 
  398000    1.1894613    -6.013567    194.62354  0.040750323  0.042111126            3 
  399000    1.2012776    -5.979622    195.06032  0.040739416  0.042100603            4 
  400000    1.1816988   -6.0188697    195.67073  0.040764736  0.042089654            3 
  401000    1.2038504   -6.0200836    196.12795  0.040758095  0.042079033            2 
  402000    1.1943164   -6.0120657     196.5278  0.040739594  0.042068815            2 
  403000    1.2279144   -6.0035526    197.69478  0.040879814  0.042058695            6 
  404000    1.1659139   -6.0020597    198.51284  0.040947369  0.042049684            3 
  405000    1.1849617   -5.9982384    198.70442  0.040885684  0.042041869            5 
  406000    1.1839781    -6.027015    199.12829  0.040871981  0.042033984            3 
  407000      1.22249   -6.0029692    200.65454  0.041084058  0.042025765            6 
  408000    1.1829899   -6.0457629    200.24031  0.040898757  0.042018233            4 
  409000    1.2081889   -6.0499536    200.72242  0.040896988  0.042010137            6 
  410000     1.181462   -6.0059464     200.7229  0.040797338   0.04200188            3 
  411000    1.1566962   -6.0065182    201.68746  0.040893646  0.041993752            3 
  412000    1.1689166   -6.0083488     202.4736  0.040953399  0.041985028            6 
  413000    1.1786247   -6.0609808    202.56303  0.040872281   0.04197691            3 
  414000    1.1758143   -5.9988109    202.59255  0.040779499  0.041968283            4 
  415000    1.1668701   -5.9908621    203.50483  0.040864424  0.041958683            2 
  416000    1.2041826   -6.0369182     203.1225  0.040689603   0.04194901            7 
  417000     1.206135   -5.9755635    204.09408  0.040786188  0.041939285            5 
  418000    1.1763205   -6.0367236    204.47451  0.040764455   0.04192966            5 
  419000     1.183003   -5.9825666    204.62436  0.040696969  0.041919178            3 
  420000    1.1691732   -6.0015509    205.16673  0.040707685  0.041908814            3 
  421000    1.1797624   -6.0213339    204.56752  0.040492382  0.041897264            5 
  422000    1.1664056   -6.0177895    205.38998  0.040558844  0.041886081            5 
  423000    1.1657061   -6.0228777    206.28643  0.040639564  0.041874196            3 
  424000    1.1733041   -6.0138975    205.89159  0.040466114   0.04186242            4 
  425000    1.1950621   -6.0362333    206.92844  0.040574204  0.041851571            4 
  426000    1.1760948   -5.9913347    208.30823  0.040748871  0.041840885            4 
  427000    1.1732388   -6.0093088    207.83053  0.040560213  0.041830159            4 
  428000    1.1840569   -6.0235058     208.6615  0.040627239  0.041819849            6 
  429000    1.1765322   -6.0001932    209.72633  0.040739381  0.041809082            4 
  430000    1.1623212   -6.0209905    208.92455  0.040489254  0.041797903            5 
  431000    1.1878737   -6.0081182    208.92847  0.040396069  0.041786158            4 
  432000    1.1976984   -5.9988842    210.39278  0.040585028  0.041775377            4 
  433000    1.1822546   -6.0402938    211.22964  0.040652355  0.041765174            4 
  434000    1.1975384   -6.0361142    212.08994  0.040723875  0.041755439            5 
  435000    1.1615765   -6.0128238    212.63146  0.040733997  0.041745436            5 
  436000    1.1765337   -6.0376457    211.97941  0.040515943  0.041735784            9 
  437000    1.1693024   -6.0207181    213.71744  0.040754661  0.041726144            3 
  438000    1.1523489   -5.9951502    214.07958  0.040730513   0.04171765            3 
  439000     1.184498   -6.0408414    214.10669   0.04064288  0.041709377            2 
  440000    1.1763987   -5.9735213    215.56264  0.040826257  0.041702229            4 
  441000    1.1791011   -5.9983406    217.09435   0.04102312  0.041695394            3 
  442000    1.1638962   -6.0358847    216.49594  0.040817485  0.041689764            3 
  443000    1.1756062   -6.0334881    216.95111  0.040810968  0.041684082            2 
  444000    1.1928316   -6.0025872    218.83645  0.041072908  0.041679198            5 
  445000    1.1849327   -6.0016667    218.69304  0.040953754  0.041675083            5 
  446000    1.1927782   -5.9911479    218.76656  0.040875665  0.041670664            3 
  447000    1.1473413   -6.0147386    219.52953   0.04092646  0.041665842            2 
  448000    1.1855516   -6.0058019    220.40131  0.040997268  0.041660595            3 
  449000      1.17378   -6.0232235    220.33447  0.040893555  0.041655337            5 
  450000     1.200863   -6.0637697    220.38054  0.040811212  0.041649964            3 
  451000    1.2093807    -5.979141    221.67311  0.040959555  0.041644601            5 
  452000     1.175809   -6.0231822    221.62803  0.040860626  0.041640111            4 
  453000     1.187801   -6.0267438    222.18412  0.040872723  0.041636278            5 
  454000    1.1763404   -6.0114952    223.31053  0.040989452  0.041632954            3 
  455000    1.1926805   -6.0110751    223.64305  0.040960266  0.041629312            3 
  456000    1.1359846    -6.049263    223.92582  0.040922116  0.041625827            7 
  457000    1.1752694   -6.0390521    224.64666  0.040964016  0.041623203            3 
  458000    1.1730682   -6.0301399    226.00494  0.041121714  0.041620324            6 
  459000     1.185468   -6.0416132    226.62822  0.041145283  0.041617614            5 
  460000    1.1660153   -6.0608666    226.46622  0.041026488  0.041614355            4 
  461000    1.1721751    -6.055721    226.66678  0.040973748  0.041611119            7 
  462000    1.1763262   -6.0259721    226.92516  0.040931666  0.041607855            4 
  463000     1.173051   -6.0092069    227.97665  0.041032514  0.041604212            3 
  464000    1.1834163   -5.9883653    228.55082  0.041047202  0.041601297            4 
  465000    1.1605721   -6.0547299    228.34391  0.040921848  0.041599018            4 
  466000     1.168422   -6.0165305    228.75545  0.040907627  0.041595696            4 
  467000    1.1700058   -6.0264456    229.52824   0.04095793   0.04159218            3 
  468000    1.2094192   -6.0628032    230.00997  0.040956192  0.041589288            2 
  469000    1.1816076   -6.0215105    231.07776  0.041058592  0.041586512            3 
  470000    1.1936922   -6.0095935    231.39955  0.041028289  0.041583493           11 
  471000    1.2020037   -6.0369155    232.24851  0.041091385  0.041581189            3 
  472000    1.1554062   -6.0002025    232.15975  0.040988656  0.041579615            2 
  473000    1.1716929   -6.0582428    232.87627  0.041028236  0.041577173            7 
  474000    1.2081407   -6.0493933    232.24474  0.040830651  0.041574291            3 
  475000    1.1537281   -6.0563473    233.83544  0.041023761  0.041571031            2 
  476000    1.1754893   -5.9957256    234.69207  0.041087547  0.041568722            2 
  477000    1.1493907    -6.017245    234.97509  0.041050854  0.041566118            2 
  478000    1.1657335   -6.0128848    236.39523  0.041212557  0.041564482            2 
  479000    1.1547724    -6.078957    235.19493  0.040917699  0.041561614            4 
  480000     1.168081   -6.0373055    236.25404  0.041016326  0.041559588            5 
  481000    1.1724832   -6.0416532    236.07157  0.040899441  0.041556579            3 
  482000    1.1773623   -6.0555657    236.56956  0.040900685  0.041553253            4 
  483000    1.1369831   -6.0313878    237.88464  0.041042899  0.041550621            3 
  484000    1.1508763   -6.0470797    238.56497  0.041075236  0.041549206            5 
  485000    1.1718492   -6.0388661    239.43734  0.041140436  0.041547785            4 
  486000    1.1637063   -6.0619883    239.07062  0.040992904   0.04154583            2 
  487000    1.1752916   -6.0347222    239.59753  0.040998893  0.041542952            5 
  488000    1.1885757   -6.0545302    238.93177  0.040801191  0.041539854            5 
  489000     1.187208   -6.0086051    240.78917  0.041034282  0.041537106            3 
  490000    1.1721123   -6.0344807    240.57532   0.04091417  0.041533688            3 
  491000    1.1995936   -6.0198389    241.17227  0.040932158  0.041530144            2 
  492000     1.164536   -6.0144759    241.39898  0.040887361  0.041527641            5 
  493000     1.175706   -6.0386369    242.39451  0.040972703  0.041524674            4 
  494000     1.160662   -6.0540367    241.99888  0.040823023  0.041520179            3 
  495000    1.1891955   -6.0270682    242.09198  0.040756225  0.041515085            4 
  496000    1.1618336     -6.02562    242.07311  0.040670886   0.04150976            2 
  497000    1.2025171   -6.0620288     242.6443  0.040684825  0.041503557            5 
  498000     1.187842   -6.0503743    242.16465  0.040522866  0.041497574            4 
  499000    1.1450697    -6.041271    244.29995  0.040798255  0.041492107            5 
  500000    1.1542935   -6.0741936    243.72201  0.040620335  0.041486477            4 
  501000    1.1830029   -6.0253919    244.78094  0.040715393  0.041479901            3 
  502000     1.149687   -6.0450516    244.63588  0.040610206  0.041473822            4 
  503000    1.1575386   -6.0358458    244.93614  0.040579215  0.041468085            5 
  504000    1.1736222   -6.0446909    246.37666  0.040736882  0.041461954            7 
  505000    1.1921586   -6.0504915    246.28575  0.040641213  0.041456022            3 
  506000    1.1558139   -6.0342478    247.01627  0.040681204  0.041449805            5 
  507000    1.1559366   -6.0262846    247.25669  0.040640482  0.041443949            2 
  508000    1.1462798   -6.0884953    247.89498  0.040665187   0.04143759            3 
  509000    1.1708463   -6.0341551    247.55772  0.040530079  0.041431179            3 
  510000    1.1514869   -6.0098112     249.1318  0.040707811  0.041424676            4 
  511000    1.1520415   -6.0682612    248.07561  0.040455905  0.041418046            3 
  512000    1.1762608   -6.0509736    249.34835  0.040584041  0.041411175            5 
  513000     1.176843   -6.0636787    249.77233  0.040573803  0.041404269            3 
  514000    1.1668638   -6.0334328    249.91845  0.040518555  0.041396875            2 
  515000    1.1629692   -6.0890731     250.1272  0.040473657  0.041389149            5 
  516000    1.1529161   -6.0420308    251.06667  0.040546942  0.041381586            4 
  517000    1.1617635   -6.0019192    250.62066  0.040396625  0.041374137            3 
  518000    1.1608457   -6.0537709    252.10972  0.040558192  0.041366497            4 
  519000    1.1665577   -6.0640134    252.11713  0.040481235  0.041358403            2 
  520000    1.1967462   -6.0494567    251.23355  0.040261786  0.041349598            3 
  521000    1.1466016   -6.0556814    253.09039  0.040481508   0.04134178            2 
  522000    1.1543468   -6.0441224    253.05979  0.040399072  0.041333301            3 
  523000    1.1543628    -6.027887     253.2153  0.040346606  0.041325004            3 
  524000    1.1964439   -6.0479211    253.93316  0.040383772  0.041316577            2 
  525000     1.175365   -6.0501191    253.70432  0.040270527  0.041308368            3 
  526000    1.1916871   -6.0357108    255.80203  0.040526303  0.041300945            3 
  527000    1.1777111   -6.0794729    255.40761  0.040387036  0.041293243            6 
  528000    1.1787125   -6.0468145    256.21562  0.040438072  0.041285731            5 
  529000    1.1550431   -6.0382235    256.63547  0.040427768  0.041277844            4 
  530000    1.1693754   -6.0011089    257.48617  0.040485247  0.041269463            1 
  531000    1.1648516   -6.0511568    256.95789  0.040326096  0.041261602            4 
  532000    1.1661262   -6.0207436    257.55887  0.040344435  0.041254257            3 
  533000    1.1735753   -6.0428531    259.23587  0.040530936  0.041246943            5 
  534000    1.1873359   -6.0333471    258.79274  0.040385884  0.041239942            5 
  535000    1.1498506   -6.0607813    259.42353  0.040408649  0.041233058            9 
  536000    1.1653947   -6.0199784    260.34014  0.040475769  0.041225805            2 
  537000    1.1435502   -6.0597598    259.87458  0.040328148   0.04121866            4 
  538000    1.1660349   -6.0491217    261.25839  0.040467532  0.041211933            5 
  539000    1.1712625   -6.0218873    261.94307   0.04049831  0.041205157            3 
  540000    1.1686803   -6.0732671    261.10179  0.040293486  0.041198025            5 
  541000    1.1837663   -6.0612397     261.4738  0.040276309  0.041189862            5 
  542000    1.1645068   -6.0436299    262.81874  0.040408786  0.041182015            5 
  543000    1.1526499   -6.0502515    262.55089  0.040293261  0.041174195            4 
  544000    1.1784417   -5.9990715    263.52788  0.040368854  0.041165828            2 
  545000    1.1837573   -6.0544326    263.46187   0.04028469  0.041158276            5 
  546000    1.1537413   -6.0326886    264.69679  0.040399388  0.041150104            6 
  547000    1.1746325   -6.0678021    263.82802  0.040193177  0.041141653            9 
  548000    1.1514652   -6.0646739    263.85998  0.040124693  0.041132981            3 
  549000     1.152357    -6.017116    264.69712  0.040178677  0.041124874            3 
  550000    1.1483379   -6.0612899    266.39777  0.040363299  0.041116707            2 
  551000    1.1576426   -6.0700048    266.15989  0.040254066  0.041109319           10 
  552000    1.1765489   -6.0553802    265.72601  0.040115642  0.041100682            4 
  553000    1.1664247   -6.0576353    266.33043  0.040134182   0.04109248            8 
  554000    1.1493993   -6.0285017    267.88154  0.040295057   0.04108439            5 
  555000    1.1610187   -6.0368838    267.59953   0.04018011  0.041075725            2 
  556000    1.1733184   -6.0141623    268.03716  0.040173435  0.041067246            6 
  557000    1.1515635   -6.0310552    269.22628  0.040279215  0.041058337            2 
  558000    1.1728373   -6.0296102    267.80151  0.039994251  0.041049538            4 
  559000     1.161688   -6.0498977    268.75436  0.040064752  0.041041147            4 
  560000    1.1369718   -6.0419074    269.24871  0.040066772  0.041032592            5 
  561000    1.1694699   -6.0402417    270.33932  0.040157355  0.041024185            2 
  562000    1.1633902   -6.0580536    270.13043  0.040054927  0.041015402            9 
  563000    1.1568734   -6.0879218    269.72851  0.039924292  0.041006229            4 
  564000    1.1742661   -6.0633669    270.94102  0.040032657  0.040997152            4 
  565000    1.1778448   -6.0397983    272.63067  0.040211013  0.040988547            5 
  566000    1.1570948   -6.0255757     273.2712  0.040234275  0.040980244            2 
  567000     1.176983   -6.0471116    273.09759    0.0401378  0.040972977            3 
  568000    1.1645866   -6.0639372    272.93345  0.040043054  0.040964868            2 
  569000    1.1640801   -6.0414524    273.96007  0.040123033   0.04095603            4 
  570000    1.1710117   -6.1091119    274.56178  0.040140611  0.040947671            2 
  571000    1.1855656   -6.0542971     274.3834  0.040044279   0.04093949            3 
  572000    1.1516339   -6.0401506    275.88084  0.040192429  0.040932019            3 
  573000    1.1712231   -6.0480875    275.20046  0.040023337  0.040923862            4 
  574000    1.1698798   -6.0610513    276.55393  0.040150106  0.040915531            1 
  575000    1.1401008   -6.0988189    276.34544  0.040050064   0.04090745            4 
  576000    1.1674583   -6.0379749    276.61405  0.040019393  0.040899417            3 
  577000    1.1657237   -6.0726197    277.84656  0.040128041  0.040891573            3 
  578000     1.127933   -6.1005813     279.1131   0.04024122  0.040883986            2 
  579000    1.1482505   -6.0474058    279.10282  0.040170239  0.040876265            3 
  580000    1.1656519   -6.0585881    277.98667  0.039940613   0.04086867            4 
  581000     1.153949   -6.0652935    279.08201  0.040028975  0.040860832            1 
  582000    1.1514876   -6.1241037    278.94974  0.039941257   0.04085317            8 
  583000    1.1525116   -6.0571187    280.71422   0.04012496  0.040845679            2 
  584000    1.1449401   -6.0828397    279.41665  0.039871097  0.040837436            2 
  585000    1.1484444   -6.0469555    281.38792   0.04008375  0.040828912            3 
  586000    1.1551397   -6.0562688    281.12884  0.039978503   0.04082016            5 
  587000    1.1672099    -6.079132    281.25748   0.03992866  0.040811891            5 
  588000    1.1261164   -6.0614033    281.33584   0.03987186  0.040803693            3 
  589000    1.1687516   -6.0341637    282.98701  0.040037778  0.040795562            4 
  590000    1.1598493   -6.0644694    282.92242  0.039960794  0.040787024            4 
  591000    1.1479803   -6.0592149    283.46709  0.039969978  0.040778859            5 
  592000    1.1596318   -6.0845699    282.89503  0.039821935  0.040770129            5 
  593000    1.1608262    -6.034598    283.59942  0.039853769  0.040761622            5 
  594000     1.164401   -6.1042435    283.33069  0.039748974  0.040752727            2 
  595000    1.1350076   -6.0577273     284.0981   0.03978965  0.040743761            7 
  596000     1.160868   -6.0564745    284.09339   0.03972223  0.040734547            3 
  597000    1.1540883   -6.0547427    286.91454  0.040049489  0.040725561            4 
  598000    1.1595679    -6.031383    285.98218  0.039852589  0.040717691            7 
  599000    1.1282197   -6.0739214    286.38584  0.039842215  0.040708686            5 
  600000    1.1291046   -6.0663568    285.85086  0.039701508  0.040699314            6 
  601000    1.1621713   -6.0788482     286.6726   0.03974939  0.040689498            4 
  602000    1.1715586   -6.0437116    286.48641  0.039657588  0.040679759            3 
  603000    1.1581697   -6.0424035    286.87183  0.039645085  0.040668982            6 
  604000    1.1399913   -6.0607355    287.48952  0.039664669  0.040659264            2 
  605000    1.1824222   -6.0663939    287.85242  0.039649093  0.040648619            4 
  606000    1.1376007   -6.1101023    288.87775  0.039724662  0.040638136            3 
  607000    1.1624355   -6.0604237     288.5339  0.039612012   0.04062749            3 
  608000    1.1592258   -6.0666984    289.09025  0.039623116  0.040616777            6 
  609000    1.1354133   -6.1051083    289.11421  0.039561332  0.040606216            3 
  610000    1.1406976   -6.0858009     290.0322  0.039621885   0.04059592            2 
  611000    1.1615505   -6.0669616    290.93252  0.039679831  0.040586138            5 
  612000    1.1616637    -6.111251    290.94843   0.03961716  0.040576071            4 
  613000    1.1593361    -6.058567    291.55687  0.039635245  0.040566207            6 
  614000    1.1861314   -6.0603867    292.01507  0.039632882  0.040556974            5 
  615000    1.1492356   -6.1207162    292.11849  0.039582451  0.040547391            3 
  616000    1.1582946   -6.0711971    292.50608  0.039570628  0.040538045            6 
  617000    1.1714187   -6.0791031     292.8705  0.039555713   0.04052808            3 
  618000    1.1582066   -6.0844467    293.19172  0.039535022  0.040518228            3 
  619000    1.1335515   -6.0846828    292.91047  0.039433289  0.040508095            4 
  620000    1.1673275   -6.0637418      293.758  0.039483602  0.040497051            3 
  621000    1.1713967   -6.0727583    294.92448  0.039576554  0.040486515            4 
  622000    1.1434145   -6.0512574    295.10585  0.039537226  0.040475935            5 
  623000    1.1462102   -6.0215156    296.19393  0.039619305  0.040465953            8 
  624000    1.1399127   -6.0543436    295.97876  0.039527078  0.040455999            2 
  625000    1.1361706   -6.0669162     296.2659   0.03950212  0.040445714            2 
  626000    1.1431149     -6.07553    296.35442  0.039450802  0.040435775            5 
  627000    1.1236744   -6.0869156    297.29627   0.03951306  0.040425358            2 
  628000     1.162487   -6.1026881    297.86589  0.039525729  0.040415334            3 
  629000    1.1343691   -6.0410796    298.87986  0.039597226  0.040405181            3 
  630000    1.1495157   -6.1116761     297.6844  0.039376244  0.040394895            8 
  631000    1.1562764   -6.0689593    299.29689  0.039526794  0.040384613            6 
  632000    1.1639369    -6.052864    298.27194  0.039329107  0.040374504            4 
  633000    1.1513154   -6.0721265    299.71721  0.039457242  0.040364266            3 
  634000    1.1502056   -6.0635184    299.45869  0.039361027  0.040354897            3 
  635000    1.1520378   -6.0427642      300.907  0.039489107  0.040344559            2 
  636000    1.1525922   -6.0714216    301.24702  0.039471569  0.040334817            5 
  637000    1.1467428   -6.0571818    301.31541  0.039418552  0.040325276            5 
  638000    1.1531301   -6.0342279    301.97302  0.039442662  0.040315818            4 
  639000    1.1506027   -6.0630798    303.43667  0.039571814  0.040306748            5 
  640000    1.1593243   -6.1049871    302.89981  0.039440079  0.040298179            3 
  641000    1.1245508   -6.0290578    304.91665   0.03964075  0.040290106            3 
  642000    1.1712478   -6.0865425     304.5805  0.039535371  0.040281579            2 
  643000    1.1608925   -6.1267863    303.46436  0.039329233  0.040272875            3 
  644000    1.1595221   -6.1033472    303.90387  0.039325035  0.040263943            4 
  645000    1.1448129   -6.0325461    304.59345  0.039353159  0.040254126            4 
  646000    1.1454738   -6.0477395    305.85837  0.039455414  0.040244683            4 
  647000    1.1597526   -6.0704416    304.89068  0.039269793   0.04023505            3 
  648000    1.1358139    -6.081573    305.68389    0.0393112  0.040224687            3 
  649000    1.1267084   -6.0680368    306.37047  0.039338787   0.04021445            5 
  650000     1.121128   -6.0727733    305.98274  0.039228556  0.040203773            4 
  651000    1.1609219   -6.0884436    307.29978  0.039336889  0.040193228            2 
  652000    1.1231162   -6.0290042    307.81528  0.039342444  0.040182802            3 
  653000    1.1692503   -6.0847714    308.45382  0.039363683  0.040172581            3 
  654000    1.1158895   -6.0257552    308.22602  0.039274467  0.040162816            4 
  655000    1.1477907   -6.0985375    307.17023  0.039080182  0.040152432            4 
  656000    1.1528995   -6.0740542     308.7721  0.039224098  0.040142089            3 
  657000    1.1115851   -6.1090667     310.2981  0.039357953  0.040132109            3 
  658000    1.1335297   -6.1258754     308.9825  0.039131522   0.04012171            2 
  659000    1.1372254   -6.0596014    310.05808  0.039208153  0.040111032            2 
  660000    1.1861396   -6.0494768    311.11038  0.039281614  0.040100725            8 
  661000    1.1515289   -6.1060059    310.44216  0.039137942  0.040090296            2 
  662000    1.1483927   -6.1007095    310.42822  0.039077067  0.040079608            6 
  663000     1.144812   -6.0828965     311.0673  0.039098453  0.040068723            4 
  664000    1.1453028   -6.0869225    312.29403  0.039193528  0.040058021            2 
  665000    1.1250977   -6.0962212    312.38476   0.03914596  0.040047196            6 
  666000    1.1795555   -6.0694863    312.65583    0.0391211  0.040036951            6 
  667000    1.1387368   -6.1082593    312.16111  0.039000639  0.040025985            4 
  668000    1.1365399    -6.086792    312.70544   0.03901016  0.040015397            3 
  669000    1.1434458    -6.076838    313.91541  0.039102567  0.040005195            3 
  670000    1.1405431   -6.1230053    314.52555  0.039120094  0.039995118            3 
  671000    1.1386889   -6.0917499    313.98203   0.03899429  0.039984619            3 
  672000     1.144098   -6.0868314    314.25431  0.038970029  0.039974165            3 
  673000    1.1558415   -6.0718095    315.99335  0.039127458  0.039963917            4 
  674000    1.1543083   -6.0875722    314.73104  0.038913333  0.039953279            4 
  675000    1.1405637   -6.1163346    315.61214  0.038964462  0.039942703            5 
  676000    1.1682374   -6.0999935    317.86458   0.03918449  0.039932564            3 
  677000    1.1293017   -6.0705985    316.07708  0.038906583  0.039922003            5 
  678000    1.1615778   -6.0856608    317.20169  0.038987424   0.03991143            4 
  679000    1.1719704   -6.0935517    318.11545  0.039042151  0.039900863            4 
  680000    1.1394716   -6.1140556    318.84436  0.039074064  0.039890057            7 
  681000    1.1382925   -6.0717512    318.58524  0.038984978   0.03987918            5 
  682000    1.1572944   -6.1104779     318.2973  0.038892632  0.039868194            4 
  683000    1.1472219   -6.0742936     319.2822  0.038955856  0.039857239            4 
  684000    1.1418694   -6.1006192    319.15717  0.038883671  0.039846568            3 
  685000    1.1453345    -6.085056    320.10975  0.038942792  0.039836199            4 
  686000    1.1627394   -6.0763072    320.80421  0.038970385  0.039825836            4 
  687000    1.1648155   -6.1295229    320.95339  0.038931756  0.039815613            7 
  688000    1.1461211   -6.0976437    321.50512  0.038941996  0.039805229            3 
  689000    1.1316411   -6.0873781    322.36797  0.038989837  0.039795116            3 
  690000    1.1490276   -6.0580748     322.5141  0.038950978  0.039784577            5 
  691000    1.1648654   -6.0798521    322.54968    0.0388989  0.039774054            4 
  692000    1.1343836   -6.0960982    322.76157  0.038868205  0.039763098            7 
  693000      1.14253   -6.1428197    322.94453  0.038834119  0.039752501            4 
  694000    1.1345396   -6.1016449    323.58492  0.038855057  0.039741911            4 
  695000    1.1678352   -6.0804925    323.98857   0.03884755  0.039731328            7 
  696000    1.1357645   -6.0726597    325.06292  0.038920369  0.039720844            2 
  697000    1.1130949   -6.0904445    324.93851  0.038849655  0.039710343            3 
  698000    1.1347392   -6.0683216    325.80697  0.038897681  0.039699865            3 
  699000    1.1775334   -6.0694721    325.13742  0.038762211   0.03968927            3 
  700000      1.15984   -6.0824394    325.63815  0.038766447  0.039678952            5 
  701000    1.1407609    -6.099653     326.3085  0.038790835  0.039668503            4 
  702000    1.1660012   -6.0836722    327.75088    0.0389068  0.039658861            6 
  703000    1.1500086   -6.0798703    327.78778   0.03885583  0.039649433            3 
  704000     1.129304   -6.0628744     328.4014  0.038873272  0.039639526            7 
  705000    1.1257839   -6.0599474    328.07156  0.038779144  0.039628965            6 
  706000    1.1661075   -6.1066182    327.24493  0.038626645  0.039618587            3 
  707000    1.1117588   -6.1109007     328.9923   0.03877797  0.039607602           10 
  708000    1.1410159   -6.1255352    328.83586  0.038704785  0.039596524            5 
  709000    1.1551972   -6.1185227    329.72223  0.038754376  0.039585812            5 
  710000    1.1175964   -6.0901137    329.84827  0.038714585  0.039574857            4 
  711000    1.1299317   -6.1045657    329.17061  0.038580709  0.039563415            4 
  712000    1.1443263   -6.0738014    330.00514  0.038624197  0.039552054            3 
  713000    1.1562358   -6.0920662    330.27477  0.038601539  0.039540623            2 
  714000    1.1329949   -6.0825866    330.70513  0.038597705  0.039529649            5 
  715000    1.1090917   -6.0844748    331.30514  0.038613653   0.03951876            5 
  716000    1.1448184   -6.0894244    330.70943   0.03849039  0.039507841            3 
  717000    1.1329697   -6.0946614    332.79622  0.038679244  0.039497024            5 
  718000    1.1266591   -6.1224202    332.19472  0.038555562  0.039486535            4 
  719000    1.1531631   -6.0711735    333.25241  0.038624526  0.039476151            3 
  720000    1.1434178   -6.0884354    333.13427  0.038557208  0.039465457            4 
  721000    1.1164844    -6.091421    333.48916  0.038544748  0.039454666            4 
  722000    1.1207462   -6.1259609    334.82451  0.038645489  0.039444428            4 
  723000    1.1305758   -6.1050106    335.41986  0.038660657  0.039434222            7 
  724000    1.1187108   -6.1011962    335.55792  0.038623149  0.039423964            4 
  725000    1.1271391   -6.1156191    334.83344  0.038486603    0.0394133            6 
  726000    1.1613105   -6.1001614    336.51881  0.038627045  0.039402909            3 
  727000    1.1495679    -6.104919    336.07318  0.038522832  0.039392411            2 
  728000     1.151526   -6.0913038    336.14213  0.038477808  0.039381887            6 
  729000    1.1318428   -6.0855109    338.23854   0.03866467  0.039371659            5 
  730000     1.149114    -6.128649    336.90417   0.03845938  0.039360923            3 
  731000    1.1073881   -6.0960493     338.0423  0.038536513  0.039350752            5 
  732000    1.1326406   -6.0936387    338.00744    0.0384799  0.039340025            5 
  733000     1.134365   -6.1150967    338.29024  0.038459554  0.039329587            6 
  734000    1.1376008   -6.0991906     338.8135  0.038466564  0.039318884            3 
  735000     1.136484   -6.0764673    338.93186  0.038427648  0.039308052            6 
  736000    1.1199702   -6.1149365    339.71185  0.038463751  0.039297431            3 
  737000    1.1108667   -6.0728106    340.52961  0.038504026   0.03928657            7 
  738000    1.1456677   -6.0929676    340.51754   0.03845049  0.039276304            4 
  739000    1.1019817    -6.107967    341.46233  0.038504999  0.039265884            6 
  740000    1.1479332   -6.1345557    340.73616  0.038371189  0.039255392            4 
  741000    1.1046851   -6.1217651    341.42518  0.038396894  0.039245148            9 
  742000    1.1389688   -6.1306211    341.76479  0.038383287  0.039235237            4 
  743000    1.1504643   -6.0926222    343.57921  0.038535129  0.039225185            2 
  744000    1.1429642   -6.0906105    343.41445  0.038464881  0.039215138            6 
  745000    1.1063499   -6.1115927    344.28078  0.038510155  0.039205322            2 
  746000    1.1471278   -6.1252026    343.70041    0.0383937  0.039195149            5 
  747000     1.113683   -6.1272207    344.76744  0.038461339  0.039184939            4 
  748000    1.1491227   -6.0946708     345.8781  0.038533656  0.039174466            6 
  749000    1.1233773   -6.1200073    345.97027  0.038492464  0.039164785            6 
  750000    1.1158827    -6.109477    345.86588  0.038429543  0.039155147            3 
  751000    1.1480761   -6.1294583    345.33454  0.038319412   0.03914516            4 
  752000    1.1339286   -6.0875635    346.76388  0.038426849  0.039134995            2 
  753000    1.1013976   -6.0969447    347.04916  0.038407388  0.039124995            3 
  754000    1.1110349   -6.1197948    348.35245  0.038500492  0.039115563            3 
  755000     1.115538   -6.0817597    348.38741  0.038453356   0.03910623            5 
  756000    1.1312716   -6.1017052    348.25611   0.03838802  0.039096454            3 
  757000    1.1260884    -6.116198    349.21793  0.038443189  0.039086486            5 
  758000    1.1229196   -6.1099836     348.1897  0.038279431  0.039076274            3 
  759000    1.1222699   -6.1006175    348.88567  0.038305409  0.039066109            4 
  760000    1.1402377    -6.085939    348.53321  0.038216361  0.039055964            5 
  761000    1.1270376   -6.1063745    349.26286  0.038246043   0.03904584            7 
  762000    1.1313803   -6.1188511    349.25147  0.038194605  0.039035437            5 
  763000    1.1150342   -6.1057457    350.31722  0.038260946  0.039025108            5 
  764000    1.1388537   -6.0904645    350.99224  0.038284493  0.039014763            5 
  765000    1.1439353   -6.0869412    350.67931   0.03820036  0.039004544            6 
  766000     1.135731   -6.1123057    350.89026  0.038173439  0.038994211            5 
  767000    1.1266567   -6.1241397    352.14323  0.038259803  0.038983876            2 
  768000    1.1411341   -6.1059015    351.99859  0.038194291  0.038973506           10 
  769000    1.1260378   -6.0960997    352.14169  0.038160131  0.038962943            3 
  770000    1.1424246   -6.1316133    353.05791  0.038209731  0.038952618            5 
  771000     1.112984   -6.1146782    353.38877  0.038195933  0.038942318            5 
  772000    1.1039223   -6.0807023     354.0484  0.038217659  0.038932332            3 
  773000    1.1136992   -6.1273381     354.0707  0.038170623  0.038921976            2 
  774000    1.1004404   -6.0753128    355.13923  0.038236352  0.038911578            4 
  775000     1.127052   -6.1316946     354.8123   0.03815186  0.038901541            4 
  776000    1.1052283   -6.1184482    355.67763  0.038195622  0.038891519            8 
  777000    1.1232321   -6.1255074    355.03326  0.038077355  0.038881203            6 
  778000    1.1373605   -6.1407806    355.36658  0.038064115  0.038870974            7 
  779000    1.1483881   -6.1268364    355.77067   0.03805848  0.038860672            3 
  780000    1.1315358   -6.1401125    355.82576  0.038015572  0.038850568            3 
  781000    1.1243811   -6.1204147     357.6947  0.038166315  0.038839983            3 
  782000    1.1372945   -6.0835121    358.28532  0.038180448  0.038829687            2 
  783000    1.1158223   -6.1256757    357.31811  0.038028747   0.03881925            8 
  784000     1.108083   -6.0954606    357.92405  0.038044648   0.03880874            2 
  785000    1.1082617   -6.1223289    357.94634   0.03799855  0.038798074            4 
  786000    1.1505215   -6.0649419    359.88269  0.038155501  0.038788046            2 
  787000    1.1091754   -6.0954678    358.98458  0.038011921  0.038777764            6 
  788000    1.1206979   -6.1101831    361.18845  0.038196748  0.038767825            4 
  789000     1.128314   -6.1383751    359.37166  0.037956449  0.038757326            4 
  790000    1.1290485   -6.1453643    359.84094  0.037957905  0.038747019            3 
  791000    1.1018357   -6.1121858    361.16676  0.038049595  0.038736798            8 
  792000    1.1061817   -6.1414566    361.30153  0.038015733    0.0387269            7 
  793000    1.1164125    -6.157144    360.70498  0.037905105  0.038716698           11 
  794000     1.133155   -6.1161689     362.2904  0.038023761  0.038706647            4 
  795000    1.1135882   -6.1098203     362.4004  0.037987463  0.038696339            3 
  796000    1.1433161   -6.1044381    363.06781  0.038009611  0.038686035            3 
  797000    1.1132779   -6.1288632    363.80433  0.038038931  0.038675845            4 
  798000    1.1350233   -6.0917392    363.64017   0.03797412  0.038665601            4 
  799000    1.1160495   -6.1019851    364.76471  0.038043879  0.038655444            3 
  800000    1.1442556   -6.1289581    364.85093  0.038005305  0.038645392            6 
  801000    1.1186758      -6.1089    363.94828  0.037863949  0.038634879            4 
  802000    1.1479186     -6.13837     364.4544  0.037869326  0.038624153            5 
  803000    1.1147873   -6.1168371    365.47839  0.037928434  0.038613797            2 
  804000    1.1436577   -6.1403016    365.37861  0.037870918  0.038603598            3 
  805000    1.1186022   -6.1066071    365.06409  0.037791314  0.038593032            2 
  806000     1.124803   -6.1206619    366.43594  0.037886263  0.038582676            7 
  807000    1.1326233   -6.1097328    365.93039  0.037787112  0.038572118            4 
  808000    1.0979049   -6.1620873    365.95504  0.037742887  0.038561584            6 
  809000    1.1208203   -6.1173859    366.84149  0.037787546  0.038551213            5 
  810000    1.1269021   -6.1122652    368.17124  0.037877699  0.038540931            3 
  811000    1.1071659   -6.1314132    367.10426  0.037721359  0.038530061            4 
  812000    1.1134708   -6.1258919    367.24935  0.037689793  0.038519103            3 
  813000    1.1215105   -6.1440651    368.44145  0.037765627  0.038508409            8 
  814000    1.1108488   -6.1511396    367.23181  0.037595395  0.038497465            2 
  815000    1.1121132   -6.0925315    369.94223  0.037826404  0.038486549            2 
  816000    1.1185614   -6.1434114     369.4943  0.037734303  0.038475854            4 
  817000    1.1381211   -6.1308997    369.65308  0.037704313   0.03846495            5 
  818000    1.1339341   -6.1517968    370.43266  0.037737639  0.038454366            4 
  819000    1.1084672    -6.154016    370.73625  0.037722451  0.038443862            6 
  820000    1.1355838   -6.1248813    371.21164   0.03772476  0.038433475            4 
  821000    1.1232572    -6.095318    371.01376  0.037658725    0.0384233            4 
  822000    1.1098944   -6.0991029    371.70513  0.037683002  0.038413143            3 
  823000    1.1283566   -6.1306896    371.14738  0.037580739  0.038402718            2 
  824000    1.1286594   -6.1199134     372.2976  0.037651456  0.038392155            5 
  825000    1.1442657   -6.1291877    373.13447   0.03769035  0.038381717            4 
  826000    1.1125314    -6.091468    373.90303  0.037722259  0.038371492            3 
  827000    1.0885744   -6.1111052     373.5186  0.037637908  0.038361121            5 
  828000    1.1359275   -6.1236824    373.38582  0.037579088  0.038350498            7 
  829000    1.1194834   -6.1103331     375.0947  0.037705538   0.03833995            4 
  830000    1.0911978   -6.1278145    373.71187  0.037521272  0.038329528            4 
  831000    1.1386532   -6.1275315    375.28321  0.037633695  0.038318737            4 
  832000    1.0999074   -6.1657901    374.35622  0.037495615   0.03830781            7 
  833000    1.1120643   -6.1313869    374.61688  0.037476679  0.038296934            3 
  834000    1.1354303   -6.1299051    374.91396  0.037461427  0.038285937           13 
  835000    1.1217833   -6.1074334    374.73452  0.037398654  0.038275183            3 
  836000    1.1178283   -6.1674204    376.24239  0.037504225  0.038264615            4 
  837000    1.0989905   -6.1186837    376.80317  0.037515249  0.038254018            8 
  838000    1.1086727    -6.155928     377.5622  0.037545963  0.038243826            4 
  839000    1.1111185   -6.1437243    377.50676  0.037495705  0.038233617            4 
  840000    1.1012907   -6.1629503    378.17434  0.037517295  0.038223147            6 
  841000    1.1303556   -6.1183722    379.68926  0.037622797  0.038212958            4 
  842000    1.0981399    -6.068914    380.16828  0.037625523  0.038203202            2 
  843000    1.1223788   -6.1072902    379.49202  0.037514039  0.038193392            5 
  844000    1.1156357   -6.1432868    381.24466   0.03764264  0.038183478            7 
  845000    1.1140266   -6.1421702    381.44637  0.037617985  0.038173643            3 
  846000     1.117789   -6.1142585    381.14552  0.037543885  0.038163615            7 
  847000    1.1076244   -6.1485453    381.63187  0.037547409  0.038153447            3 
  848000    1.1289399   -6.1327629    380.41102  0.037383159  0.038143354            5 
  849000    1.0969657    -6.114714    382.78849  0.037572487  0.038133224            3 
  850000    1.1444308   -6.1389036    382.50902  0.037500885  0.038123351            6 
  851000    1.1256352   -6.1479529    382.07155  0.037413979  0.038113318            2 
  852000    1.1102906   -6.1374792    382.96057   0.03745702   0.03810316            5 
  853000    1.1272128   -6.1428779    382.88293  0.037405522  0.038092643            3 
  854000    1.0918906   -6.1322212    383.63704  0.037435308  0.038082285            3 
  855000    1.1049841    -6.112089     383.1925  0.037348197  0.038071892            3 
  856000    1.0886331   -6.1401385    384.58077  0.037439717  0.038062149           10 
  857000    1.1323449   -6.1086459    385.29642  0.037465618  0.038052322            5 
  858000    1.1338093    -6.132284    385.19453  0.037412056  0.038042411            5 
  859000     1.102103   -6.1146209    385.36406  0.037384949  0.038032582            2 
  860000     1.112796   -6.1595281    385.21318  0.037326858  0.038022713           10 
  861000    1.1074737   -6.1136639    388.04703  0.037557784  0.038012888            4 
  862000    1.1159209   -6.1405876    388.11302  0.037520593  0.038003404            4 
  863000    1.1080464   -6.1700581    386.64265  0.037335134  0.037993602            4 
  864000    1.0870165   -6.1508121    387.00631  0.037326997  0.037983915            3 
  865000    1.1042813   -6.1477357     389.5551  0.037529393  0.037974427            3 
  866000    1.0927524   -6.1361441    388.91528  0.037424488  0.037964824            5 
  867000     1.142853   -6.1440448    389.41729  0.037429574  0.037955681            3 
  868000    1.1030402   -6.1330996    389.78681  0.037421929    0.0379464            4 
  869000    1.1253666   -6.1304437    389.70086  0.037370623  0.037937486            3 
  870000    1.1175923   -6.1276709    391.15452  0.037466908  0.037928423            7 
  871000    1.1273991   -6.1633326    392.69561  0.037571336  0.037919429            3 
  872000    1.1274985    -6.127793    392.13653  0.037474821  0.037910716            4 
  873000    1.1209098   -6.1307985    392.77617  0.037492952  0.037901712            4 
  874000    1.1049703   -6.1444229    394.16786  0.037582748  0.037893286            7 
  875000    1.0893544   -6.1449822    393.24237  0.037451654  0.037884504            6 
  876000    1.1027465   -6.1685381    394.63065  0.037540967  0.037875742            3 
  877000    1.0860231   -6.1506459    393.51484  0.037392136   0.03786687            5 
  878000    1.1288551   -6.1437251    394.97295  0.037487941  0.037858185            5 
  879000    1.1286185   -6.1488321    393.47334  0.037303123   0.03784949            2 
  880000    1.0974421   -6.1786878    395.19649   0.03742391  0.037840877           10 
  881000    1.1010534   -6.1914155    395.76717  0.037435411  0.037831989            3 
  882000    1.0866729    -6.124236    394.81823   0.03730331  0.037822929            6 
  883000    1.0952685   -6.1407596    397.28423  0.037493793  0.037813822            3 
  884000    1.1177879   -6.1384243    395.88749   0.03731971  0.037805005            5 
  885000    1.1215066   -6.1594218    397.32539  0.037412937  0.037796386            3 
  886000    1.1027587   -6.0867405    398.22603   0.03745542  0.037787815            9 
  887000    1.1158144   -6.0991741    397.52191  0.037347042  0.037779084            7 
  888000    1.1048731   -6.1349542    397.84457  0.037335264  0.037770006            4 
  889000    1.0971093   -6.1461222    397.91217  0.037299603  0.037760967            3 
  890000    1.1002741    -6.164584    399.78019  0.037432602  0.037751977            5 
  891000    1.0995949   -6.0969485    398.43522  0.037264798  0.037743113            2 
  892000    1.1029845   -6.1296538    401.06266  0.037468484   0.03773445            4 
  893000    1.1208315   -6.1500721    399.60112  0.037290138  0.037725551            4 
  894000    1.1137624   -6.1618447    400.43703  0.037326346  0.037716439            6 
  895000     1.121725    -6.192099    398.94586  0.037145797  0.037707494            3 
  896000    1.0934765   -6.1649152    400.89418  0.037285545  0.037698654            7 
  897000    1.1129392   -6.1549345    400.87659  0.037242344  0.037689674            6 
  898000    1.1073913   -6.1934077    401.74112  0.037281099  0.037680844            3 
  899000    1.0986013   -6.1576421    402.04098  0.037267425  0.037671865            4 
  900000    1.0896085    -6.123505    401.52095  0.037177865  0.037662984            4 
  901000    1.0864524   -6.1504003    401.98017  0.037179076  0.037653931            6 
  902000    1.0896466   -6.1648098    401.14963  0.037061126  0.037644736            5 
  903000    1.1101367   -6.1272472    403.46162  0.037233446  0.037635714            6 
  904000    1.1152818   -6.1434824    402.52083  0.037105534  0.037626522            4 
  905000    1.0947005   -6.1826374     403.9848  0.037199337  0.037617161            4 
  906000    1.1014827   -6.1674202    403.44483  0.037108612  0.037607664            5 
  907000    1.1089029   -6.1317183    404.45982  0.037160954  0.037598731            7 
  908000     1.131771   -6.1511892    405.44557  0.037210497  0.037589486            2 
  909000     1.104828   -6.1708484    405.58289   0.03718215  0.037580692            5 
  910000    1.0941069   -6.1371189    405.34749  0.037119734  0.037571723            6 
  911000    1.0999571   -6.1504893    406.47091  0.037181752  0.037563169            4 
  912000    1.1339018   -6.1635408    405.50232  0.037052478   0.03755434            4 
  913000    1.1404187   -6.1501069    407.38436  0.037183676  0.037545595           11 
  914000    1.0897961   -6.1304601    407.93143  0.037192873  0.037537137            4 
  915000    1.0885518   -6.1800763    408.59436  0.037212601  0.037528734            4 
  916000    1.0990116   -6.1462216    409.57182  0.037260901  0.037520311            4 
  917000    1.0986905   -6.1649165    407.28269   0.03701224  0.037511578            4 
  918000    1.0890373   -6.1536062    407.53173  0.036994529  0.037502695            3 
  919000    1.1135288    -6.173046    408.30368  0.037024273  0.037493222            3 
  920000    1.0939405   -6.1573683    409.21136  0.037066246  0.037484205            3 
  921000    1.0995523   -6.1575698    410.96611  0.037184772   0.03747535            2 
  922000    1.0756411   -6.1636668    409.81304  0.037040224  0.037466674            4 
  923000    1.1135271   -6.1499669    410.15963  0.037031386  0.037458232            2 
  924000    1.1066215   -6.1804499    411.14782  0.037080431  0.037449981            3 
  925000    1.1093346   -6.1620903    413.20786  0.037225933  0.037441691            5 
  926000    1.0939913   -6.1680338    412.33525  0.037107203  0.037433434            3 
  927000    1.1019936   -6.1505278    412.75328  0.037104753  0.037425248            2 
  928000    1.1199504   -6.1641069    413.28997  0.037112964  0.037417064            6 
  929000    1.1031173   -6.1509822    414.21411  0.037155912  0.037409103            5 
  930000    1.0786986   -6.1695062    413.56764  0.037058032  0.037401373            3 
  931000    1.0955874   -6.2063594    414.25856  0.037080072  0.037393246            3 
  932000    1.0795524   -6.1533658    413.93789  0.037011614  0.037384909            5 
  933000    1.1093021   -6.1375883    414.63373  0.037034095  0.037376927            5 
  934000    1.1186602   -6.1712337    415.53057  0.037074462  0.037369096            4 
  935000    1.0875536    -6.165553    416.18334  0.037092989  0.037361334            6 
  936000     1.107989   -6.1757469    416.61732  0.037091998  0.037353477            4 
  937000     1.111963   -6.1856619     415.3285  0.036937789  0.037345701            5 
  938000    1.1201487   -6.1652882    417.38254  0.037080894  0.037337879            4 
  939000    1.1087028   -6.1619131    416.80319  0.036989989  0.037330022            4 
  940000    1.1037447   -6.1897358    417.89575  0.037047496  0.037322142            3 
  941000    1.0993618   -6.1522612    418.97753  0.037103926  0.037314439           12 
  942000    1.1104128    -6.153831    419.40546  0.037102394  0.037306751            3 
  943000    1.1117137   -6.1282415    418.44801  0.036978438   0.03729909            3 
  944000    1.1044069   -6.1904218    418.87608  0.036977055   0.03729175            3 
  945000    1.0874739   -6.1322445    420.34202  0.037067198  0.037284041            4 
  946000    1.1039121   -6.1329456    420.82491  0.037070552  0.037276281            5 
  947000    1.0919183   -6.1653089    421.32752  0.037075635   0.03726862            4 
  948000    1.1014914   -6.1753926    421.07503  0.037014331   0.03726098            4 
  949000    1.1089443   -6.1765449    422.31583  0.037084285  0.037253513            2 
  950000    1.1300096   -6.1549137    421.98392  0.037016133  0.037245971            3 
  951000    1.0862356   -6.1435994     422.4069  0.037014274  0.037238567            4 
  952000    1.1342312   -6.1857516    421.70467  0.036913924  0.037230953            7 
  953000    1.0995398   -6.1946229    422.30059  0.036927298   0.03722351            6 
  954000     1.111947   -6.1507503    423.27088  0.036973347  0.037215855            2 
  955000     1.112143   -6.1677603     424.1808  0.037014032  0.037208087            4 
  956000     1.112973   -6.1966554    424.31337   0.03698687  0.037200416            4 
  957000    1.1084672   -6.1716473    424.41173  0.036956786  0.037192722            5 
  958000    1.0900779    -6.179267    423.97423  0.036880152  0.037184905           10 
  959000    1.0988015   -6.1650055    425.63919  0.036986373  0.037177525            2 
  960000    1.1236953   -6.1433825    426.72906  0.037042453  0.037170078            5 
  961000    1.1178288   -6.1396789    426.40891  0.036976146  0.037162798            6 
  962000    1.0874714   -6.1684128    427.15761  0.037002565  0.037155332            5 
  963000    1.0778252   -6.1447872     426.4189  0.036900216  0.037147868            1 
  964000    1.0849958   -6.1966239     428.1572  0.037012206  0.037140344            9 
  965000     1.094105   -6.1816653    426.89446  0.036864806  0.037132696            5 
  966000     1.104513     -6.16987    428.67932  0.036980617   0.03712533            5 
  967000    1.1282288   -6.1476679    429.67321  0.037028026  0.037118082            6 
  968000     1.098879   -6.2115322    428.86317  0.036920039   0.03711081            4 
  969000    1.1167798   -6.1756269    430.31526  0.037006816  0.037103475            6 
  970000    1.0781736   -6.1905119    428.99351  0.036855112  0.037096462            1 
  971000    1.0806787   -6.1652895    430.22948   0.03692323  0.037089273            9 
  972000    1.1149525   -6.1604537     431.5957  0.037002375  0.037082244            2 
  973000    1.1015393   -6.1963682    431.60755   0.03696536  0.037075183            6 
  974000    1.0983665    -6.161036    431.44725  0.036913693  0.037068059           10 
  975000    1.0750935   -6.1701178    430.29922  0.036777711  0.037060757            4 
  976000    1.0976854    -6.188298    432.23654  0.036905442  0.037053711            5 
  977000    1.1085389   -6.1813521    433.86502  0.037006569  0.037046835           10 
  978000    1.1024009   -6.1563701    434.62289  0.037033307  0.037040267            8 
  979000     1.084176   -6.1667119    433.66973  0.036914346   0.03703358            5 
  980000    1.0897064   -6.1445061    434.85439  0.036977414   0.03702675            8 
  981000    1.1005653   -6.1502937    436.22355  0.037056027  0.037019855            5 
  982000     1.093215   -6.1589695    434.34115  0.036858549  0.037012968            7 
  983000    1.1051868   -6.2110107    434.57914  0.036841229  0.037005721            4 
  984000    1.0914549    -6.126694    435.59112  0.036889492  0.036998823            6 
  985000    1.1019687   -6.1718572    436.68459  0.036944551  0.036991787            6 
  986000    1.0850935   -6.1621068    436.48338  0.036890076  0.036984922            4 
  987000    1.0900948   -6.1855057    437.20413  0.036913553  0.036978029            6 
  988000    1.1204903   -6.1632787    437.09365  0.036866873  0.036971225            4 
  989000    1.0872891   -6.2174496    435.69036  0.036711355  0.036964303            3 
  990000    1.0930744   -6.1934352    437.13099  0.036795538  0.036957053            5 
  991000    1.1163712   -6.1804738    439.19864  0.036932277  0.036949714            4 
  992000    1.0896711   -6.1617639     439.3956  0.036911593   0.03694277            8 
  993000    1.0912659   -6.2018147    437.63574  0.036726732  0.036935668            2 
  994000    1.0997208   -6.1532702    438.89619  0.036795455  0.036928794            3 
  995000    1.0843046   -6.1894052    440.44388  0.036888098  0.036921838            8 
  996000     1.107884    -6.161868    439.31035  0.036756221   0.03691483            5 
  997000    1.0879304   -6.1572518    441.48871  0.036901431  0.036907691            7 
  998000    1.1090208    -6.142722    440.37841  0.036771744  0.036900774            4 
  999000    1.0879058   -6.1448738    440.85888  0.036775015  0.036893839            4 
 1000000    1.0946877   -6.2005575    441.33937  0.036778281  0.036886886            3 
 1001000    1.1227682   -6.1603237    441.83474  0.036782779  0.036880024            9 
 1002000    1.0770861   -6.1802204    443.06335  0.036848249  0.036873444            7 
 1003000    1.0772256   -6.1572488    444.77928  0.036954078  0.036866863            3 
 1004000    1.0856021   -6.1641604    445.49628  0.036976783  0.036860553            3 
 1005000    1.1161623   -6.1907924    443.18627  0.036748447  0.036854353            6 
 1006000    1.1067758   -6.1415175    444.60752  0.036829649  0.036847894           13 
 1007000    1.0826098   -6.1595674    443.57068  0.036707272  0.036841307            8 
 1008000    1.0953393   -6.1698415    444.39462  0.036738973    0.0368345            6 
 1009000    1.0867692    -6.186685    444.47055  0.036708833  0.036827571            4 
 1010000    1.1043527   -6.2366865    445.39465  0.036748734  0.036820677            8 
 1011000    1.0735743   -6.2127068    445.29835  0.036704447  0.036813779            7 
 1012000    1.0983172    -6.160211    445.38191  0.036675059  0.036807247            6 
 1013000     1.083831   -6.1596696    447.96149  0.036851061    0.0368008            2 
 1014000    1.0884732   -6.1754786    445.64825   0.03662461  0.036794282            3 
 1015000    1.1140856   -6.1822777    446.85809  0.036687857   0.03678739            6 
 1016000     1.081852   -6.1506959    447.19994  0.036679785  0.036780564            2 
 1017000    1.0980915   -6.1971025    446.70838   0.03660344  0.036773509            6 
 1018000    1.0552912   -6.1887431    446.92242  0.036585005  0.036766401            3 
 1019000    1.0910133   -6.1878867    446.89227  0.036546637  0.036759152            7 
 1020000    1.0802351   -6.1845328    448.19102  0.036616914  0.036751771            5 
 1021000    1.1124671   -6.2285656     447.6719   0.03653868  0.036744311            8 
 1022000    1.0870378   -6.1790894    448.38783  0.036561304  0.036737047            6 
 1023000    1.0812492   -6.1733776    448.34036  0.036521697  0.036729797            5 
 1024000    1.1195639   -6.1798086     449.7085  0.036597371  0.036722669            5 
 1025000     1.095878    -6.177579     448.9408  0.036499252  0.036715383            4 
 1026000    1.0704383   -6.1702202    450.42256  0.036584029  0.036708075            7 
 1027000    1.0848376   -6.1617713    448.86521  0.036422039  0.036700776            5 
 1028000     1.098902   -6.1981894    450.46273   0.03651611  0.036693469            3 
 1029000    1.0827414   -6.1879083    450.58032  0.036490146  0.036685885            8 
 1030000    1.0708051   -6.1287589    452.50496  0.036610434  0.036678389            2 
 1031000    1.0801784   -6.1978298    451.17842  0.036467703  0.036670923            8 
 1032000     1.066844   -6.1906885     452.6107  0.036548021  0.036663302            4 
 1033000    1.1004483   -6.1920554     450.9398  0.036377848  0.036655619            9 
 1034000    1.0640847   -6.2158975    451.48978  0.036386991  0.036647748            4 
 1035000     1.074206   -6.1817323    452.21598  0.036410304  0.036640059            5 
 1036000    1.0959181   -6.1455992    452.58456  0.036404807  0.036632437            3 
 1037000    1.0863149   -6.2041468    451.92154  0.036316421  0.036624509            6 
 1038000    1.0539481   -6.1608097    454.16242  0.036461337  0.036616546            8 
 1039000     1.091613   -6.1562014     453.3672  0.036362464  0.036608614            6 
 1040000    1.0635463   -6.2181488     454.1028  0.036386442  0.036600889            6 
 1041000    1.1025324   -6.1631778    453.88792  0.036334287   0.03659308            6 
 1042000    1.1048205   -6.2181031    453.99518  0.036307995  0.036585307            3 
 1043000    1.0911056   -6.1979609    453.65697  0.036246162  0.036577357            8 
 1044000    1.0705291   -6.1248596    455.73864  0.036377605  0.036569576            4 
 1045000    1.0783253   -6.1968724    454.84155  0.036271256  0.036561625            4 
 1046000    1.0624636   -6.1692059    455.96091  0.036325758  0.036553634           11 
 1047000     1.101377   -6.1770973    455.18522  0.036229323  0.036545811            6 
 1048000     1.082795   -6.1797206    456.07625  0.036265605  0.036537607            4 
 1049000    1.0868525   -6.1908605    457.07909    0.0363107  0.036529554            5 
 1050000    1.0881882    -6.158027    456.32963  0.036216637  0.036521501            6 
 1051000    1.0849174   -6.1773302    457.94074  0.036309922  0.036513452            3 
 1052000    1.1112743   -6.1969632     457.1062  0.036209299  0.036505326            5 
 1053000    1.0770242   -6.1863728    458.69511  0.036300658  0.036497141            5 
 1054000    1.0596101   -6.1926164    458.34371  0.036238433  0.036489148            3 
 1055000     1.070633   -6.1988906    456.01689  0.036020292  0.036480879            4 
 1056000    1.0727674   -6.1910094    456.50499  0.036024699  0.036472566            3 
 1057000    1.1069831   -6.1893087    459.25562  0.036207475  0.036464288            7 
 1058000    1.0906638   -6.2088493    458.74747  0.036133229  0.036455927            3 
 1059000    1.1057333   -6.1728044    460.69922  0.036252693  0.036447749            6 
 1060000    1.0660319   -6.1911649    459.49661  0.036123947  0.036439679            4 
 1061000    1.0450873    -6.202391    458.22369  0.035989922  0.036431086            4 
 1062000     1.081257   -6.1662698     460.0497  0.036099317  0.036422606            5 
 1063000    1.0991503   -6.2118676    460.57663  0.036106666    0.0364143            5 
 1064000    1.0675145   -6.1490787    459.72924  0.036006363   0.03640562            5 
 1065000    1.0935555   -6.1766564    460.51497  0.036034035  0.036397045            6 
 1066000    1.0964395   -6.1596809    461.91884  0.036109978  0.036388705            6 
 1067000    1.0626534   -6.1991025    461.21982  0.036021542  0.036380281            4 
 1068000    1.0724218   -6.2171785    461.81069  0.036033918  0.036371682            4 
 1069000    1.0705101    -6.195579    461.24798  0.035956344  0.036363365            5 
 1070000    1.0712781   -6.2323386    462.54778   0.03602397  0.036354903           14 
 1071000    1.0935656   -6.2233588    462.87112  0.036015493  0.036346511            3 
 1072000    1.0862621   -6.1809094    464.64539  0.036119822  0.036338194            7 
 1073000     1.095721   -6.1823348     464.5552  0.036079155   0.03632998            2 
 1074000    1.0708846   -6.1897443    464.41773  0.036034895  0.036321899            3 
 1075000    1.0775714   -6.1953679    464.23528  0.035987231  0.036313591            7 
 1076000    1.0826713   -6.1690055    464.18079  0.035949566  0.036305567            6 
 1077000    1.0916192   -6.1870497    464.80256  0.035964296  0.036297294            4 
 1078000    1.1005971   -6.1671649    466.44334  0.036057772  0.036289222            3 
 1079000    1.0698472   -6.1950775    467.36714  0.036095701  0.036281027            5 
 1080000    1.0746736   -6.2144857    465.18534  0.035893931  0.036272844           10 
 1081000    1.0910755   -6.2132046    466.75821  0.035981977  0.036264808            3 
 1082000    1.0737555   -6.1933478     467.0441  0.035970741  0.036257116            3 
 1083000    1.0864743   -6.2078785    466.68673  0.035910029  0.036248958            7 
 1084000    1.0870447   -6.2006824    467.48273  0.035938094  0.036240727            3 
 1085000    1.0712846   -6.1920856    467.79417  0.035928892  0.036232911            2 
 1086000    1.0858447   -6.1894398    468.42946  0.035944556  0.036224857            6 
 1087000    1.0764178   -6.2122856    468.28974  0.035900777   0.03621668            3 
 1088000    1.0656106   -6.2383834    468.42158  0.035877879  0.036208622           11 
 1089000    1.0853629   -6.2174777    470.38231  0.035994973  0.036200498            6 
 1090000    1.0680845   -6.1990111    469.08432  0.035862715   0.03619241            4 
 1091000    1.0598242   -6.2073484    470.59024   0.03594487  0.036184384            3 
 1092000    1.0983705   -6.2305687    470.44608  0.035900952  0.036176546           12 
 1093000    1.0879574   -6.1967042    472.55511  0.036028904  0.036168583            5 
 1094000    1.0616533   -6.2173591    472.49209  0.035991171  0.036160959            6 
 1095000    1.0933942   -6.1926413    472.80696  0.035982265  0.036153177            7 
 1096000    1.0678325   -6.1866471    473.07928   0.03597014  0.036145453            5 
 1097000    1.0669708    -6.217455    472.32359  0.035879944  0.036137724            4 
 1098000    1.0902085   -6.2293282    471.68294  0.035798645  0.036129753            4 
 1099000    1.0854294   -6.1913491    474.08356  0.035948101  0.036121871            9 
 1100000    1.1029659   -6.2081761    473.45242  0.035867607  0.036114068            4 
 1101000    1.0901152   -6.1886264    474.44197  0.035909928  0.036106565            5 
 1102000    1.0412841   -6.2203466    475.03134   0.03592191  0.036099013            6 
 1103000    1.0948752   -6.2088239    473.69297  0.035788227  0.036091058            4 
 1104000    1.0958608    -6.222189    474.96529  0.035851849   0.03608295            6 
 1105000    1.0731902   -6.2485774    473.33526  0.035696475  0.036074672            4 
 1106000     1.079528   -6.1842713    475.27583  0.035810415  0.036066532            4 
 1107000     1.084648   -6.2322532    474.94896   0.03575346  0.036058437            6 
 1108000    1.0950919   -6.2008239    475.63142  0.035772519  0.036050504            7 
 1109000    1.0858996     -6.23548    476.87874   0.03583399  0.036042523            6 
 1110000    1.0591763   -6.2229239    475.25362  0.035679701  0.036034561            6 
 1111000    1.0702596   -6.1842194    477.47973  0.035814561  0.036026574            3 
 1112000    1.0431746   -6.1717865     477.8574  0.035810657  0.036018772            4 
 1113000    1.0706308   -6.2179719     477.0368  0.035717041  0.036010659            6 
 1114000    1.0914552   -6.2204487    476.75082  0.035663586  0.036002603            5 
 1115000    1.0770546   -6.2184053    476.36651  0.035602878  0.035994191            3 
 1116000    1.0890347   -6.2095561    476.91689  0.035612074  0.035985611            5 
 1117000    1.0747804   -6.2035175    476.95907  0.035583338  0.035976887            6 
 1118000    1.0777501   -6.1978359    477.78531  0.035613097  0.035967992            7 
 1119000     1.085059   -6.1948045    478.63161  0.035644297  0.035959253            2 
 1120000    1.0658952   -6.2533623    477.19938  0.035505907  0.035950508            4 
 1121000    1.0635129   -6.2324519    477.74871  0.035515069   0.03594171            3 
 1122000    1.0652869   -6.2055592    478.94926  0.035572583  0.035933071            2 
 1123000    1.0533225   -6.1751047    479.01011  0.035545422   0.03592439            5 
 1124000     1.073409   -6.1952014    479.73022  0.035567187  0.035915601           10 
 1125000    1.0877131   -6.2312078    479.48837  0.035517657  0.035906935            5 
 1126000    1.0688292   -6.1883546    481.02021  0.035599483  0.035898224            7 
 1127000    1.0662011   -6.1899376    481.07544  0.035571978  0.035889586            5 
 1128000    1.0497113    -6.218102    481.94492  0.035604678  0.035880957            5 
 1129000    1.0764367   -6.2319325    482.28479  0.035598228    0.0358725            5 
 1130000    1.0816382    -6.219192    480.56169  0.035439653  0.035864038            7 
 1131000     1.074141   -6.2088033    483.26214   0.03560729  0.035855643            6 
 1132000    1.0665552   -6.2130958    482.62551  0.035528969  0.035847293            7 
 1133000    1.0676302   -6.2012117    482.16946  0.035464067   0.03583894            3 
 1134000    1.0517558   -6.2008442    483.93082  0.035562229  0.035830711            4 
 1135000    1.0684659   -6.2370548    482.62149  0.035434765  0.035822698            7 
 1136000    1.0691594   -6.2071772    485.82964  0.035638911   0.03581453            1 
 1137000    1.0795698   -6.2044142    486.11857  0.035628743  0.035806616            3 
 1138000    1.0577607   -6.2249538    485.94388  0.035584643  0.035798682            6 
 1139000    1.0550261    -6.227151      484.388  0.035439567  0.035790824            6 
 1140000    1.0688248    -6.185169    485.64754  0.035500551  0.035782986            3 
 1141000    1.0679713   -6.2210858    488.07812  0.035646956  0.035775008            4 
 1142000    1.0937384    -6.193601    487.30877    0.0355596  0.035767163           11 
 1143000     1.052849   -6.2155297    489.03214  0.035654137  0.035759426            4 
 1144000    1.0826592   -6.2211805    486.96069  0.035472078  0.035751712            3 
 1145000    1.0815349   -6.2218907    489.53378  0.035628369  0.035744023            7 
 1146000     1.067053   -6.2163224    490.79377  0.035688901  0.035736578           10 
 1147000    1.0866369   -6.2451899    488.87221  0.035518179  0.035729164           12 
 1148000    1.0856141   -6.2318014     489.6523  0.035543866  0.035721817            7 
 1149000    1.0879238   -6.2100466    491.26648  0.035630003  0.035714403            2 
 1150000    1.0702672    -6.234191    490.27935  0.035527489  0.035707267            4 
 1151000    1.0641573   -6.1967311    492.11748  0.035629705  0.035699965            6 
 1152000     1.054659   -6.2148154    492.30681  0.035612472  0.035692679            6 
 1153000    1.0572347   -6.2340342    491.83742   0.03554766  0.035685525            8 
 1154000    1.0670899   -6.2420107     493.1066  0.035608507  0.035678391            4 
 1155000    1.0735672   -6.2110161    494.23572  0.035659143  0.035671316            4 
 1156000    1.0798391   -6.2137924    493.91141  0.035604917   0.03566434            3 
 1157000    1.0894444   -6.2359658     494.5514  0.035620239  0.035657101            7 
 1158000    1.0635793   -6.1944272    493.84009  0.035538291   0.03564962            2 
 1159000    1.0422789   -6.2161541    493.35921  0.035473052  0.035642162            4 
 1160000    1.0785331   -6.2156744    494.87352  0.035551259  0.035634662            3 
 1161000     1.078663   -6.2270955    494.29761    0.0354793  0.035627239            4 
 1162000    1.0747457   -6.2302483    495.58328   0.03554097  0.035619763            4 
 1163000    1.0630466   -6.2260114    494.26657  0.035416063  0.035612254            9 
 1164000    1.0625971   -6.1792202    495.93295  0.035504936  0.035605054            5 
 1165000    1.0825351    -6.216365    496.71828  0.035530635  0.035597949            2 
 1166000    1.0861108   -6.2241585    496.30289  0.035470475  0.035590775            7 
 1167000     1.065478     -6.22986    497.62405  0.035534422  0.035583581            6 
 1168000    1.0552623   -6.2503252     497.0598  0.035463741  0.035576514            4 
 1169000    1.0378672   -6.2282609    498.77605  0.035555749  0.035569556            4 
 1170000    1.0573152   -6.2201508    498.22005  0.035485758  0.035562471            3 
 1171000    1.0734024   -6.2608505    498.46933  0.035473194  0.035555324            3 
 1172000    1.0512231   -6.2449681    500.05142  0.035555419  0.035547997            5 
 1173000    1.0692173   -6.2562813     497.9826  0.035378133   0.03554076           11 
 1174000    1.0602264   -6.2031787    499.81593  0.035478132  0.035533642            4 
 1175000     1.054021   -6.2321018    499.81533  0.035447896  0.035526343            5 
 1176000    1.0766694   -6.2275681    499.96849  0.035428606  0.035519253            7 
 1177000    1.0524535   -6.1881391    500.94808  0.035467862  0.035512186            4 
 1178000    1.0705136   -6.2548037    501.76001   0.03549519  0.035505159            3 
 1179000    1.0513759   -6.2129806    501.23868  0.035428236   0.03549791            2 
 1180000    1.0766187   -6.2578842    501.53434  0.035419092  0.035490918            5 
 1181000    1.0646584   -6.2320404    503.45197  0.035524412  0.035483952            5 
 1182000    1.1022453   -6.2466757    502.57602  0.035432601  0.035477206            4 
 1183000    1.0239085   -6.2112661    502.74033  0.035414224  0.035470366            6 
 1184000    1.0726469   -6.2412378    505.01398   0.03554434  0.035463554            6 
 1185000     1.038735   -6.2147926    503.33394  0.035396198  0.035456725            5 
 1186000    1.0465686   -6.2137124    502.88642  0.035334908  0.035449792            4 
 1187000    1.0727311    -6.203329    504.73683  0.035435048  0.035442858            6 
 1188000    1.0372229   -6.2414746    505.17673  0.035436078  0.035435947            4 
 1189000    1.0498159   -6.1700052    505.35038  0.035418445  0.035429124            3 
 1190000    1.0718445   -6.1965197     506.3583  0.035459264  0.035422398            3 
 1191000    1.0726305   -6.2381033    505.07934  0.035340004  0.035415407            3 
 1192000     1.067302   -6.2413514    505.25946  0.035322949  0.035408442            4 
 1193000    1.0599566   -6.2348746    505.94036  0.035340903  0.035401477            9 
 1194000    1.0499919   -6.2485407    505.77383  0.035299681  0.035394461            4 
 1195000    1.0440975   -6.2019778    507.46846  0.035388316  0.035387434            4 
 1196000    1.0728518   -6.2542801    507.38099  0.035352633  0.035380486            5 
 1197000    1.0346503   -6.2437269    508.88551  0.035427841  0.035373578            2 
 1198000    1.0597196   -6.2562654    506.44918  0.035228796  0.035366437            3 
 1199000    1.0486171   -6.2296633    508.87264  0.035367851  0.035359419            3 
 1200000    1.0818691    -6.269448    507.73261  0.035259209  0.035352281            3 
 1201000    1.0514405   -6.2204466    508.83668  0.035306459  0.035345181            7 
 1202000    1.0663933   -6.2359327    507.99632  0.035218824  0.035337955            6 
 1203000    1.0342774    -6.221622    508.96486   0.03525664  0.035330491            5 
 1204000    1.0786295   -6.2407553    508.81809  0.035217199  0.035323178            7 
 1205000    1.0816485    -6.279572    508.74573  0.035182969  0.035315611            9 
 1206000    1.0736903   -6.2225887    509.87608  0.035231902  0.035308134            4 
 1207000     1.055215    -6.265762     509.2369  0.035158582  0.035300553            5 
 1208000    1.0618256   -6.2311187    508.93007  0.035108311  0.035293011            4 
 1209000     1.064583   -6.2050931    510.03954  0.035155744  0.035285626            5 
 1210000    1.0726801   -6.2585513    510.16893  0.035135602  0.035277996            7 
 1211000     1.066651   -6.2668036    509.81295  0.035082091  0.035270388            7 
 1212000    1.0552691   -6.2488094    509.83143  0.035054416  0.035263014            4 
 1213000    1.0581537   -6.2316047    511.41429   0.03513426  0.035255749           11 
 1214000    1.0369714   -6.2250668    511.09134  0.035083151  0.035248331            3 
 1215000    1.0486158   -6.2124914    512.51533  0.035151943  0.035241007            8 
 1216000    1.0497733   -6.2379376     512.0393  0.035090412  0.035233556            8 
 1217000    1.0641216   -6.2523729    511.97354  0.035057076  0.035225906            6 
 1218000    1.0552312   -6.2551373    512.67645  0.035076386  0.035218494            2 
 1219000    1.0742388   -6.2388138    512.52765  0.035037438   0.03521101            7 
 1220000    1.0354133   -6.2295896    514.75869  0.035161113  0.035203648            8 
 1221000    1.0589868   -6.2199392    514.23613  0.035096651  0.035196275            5 
 1222000    1.0606236   -6.2393588    514.41492  0.035080123  0.035188856            5 
 1223000    1.0552793   -6.2249515    515.13226  0.035100318  0.035181556            3 
 1224000    1.0415821   -6.2187756    514.94916  0.035059175  0.035174298            7 
 1225000    1.0723351   -6.2225306    515.41953  0.035062553  0.035167231            5 
 1226000    1.0533656    -6.231905    514.84301  0.034994767  0.035159917            5 
 1227000    1.0653846   -6.2668668    515.26757  0.034995081  0.035152582            6 
 1228000    1.0518111   -6.2374243     518.1357  0.035161217  0.035145509            4 
 1229000    1.0679171    -6.256492    517.62497  0.035097977    0.0351383            5 
 1230000    1.0526487   -6.2737629    516.54148  0.034996035  0.035131224            8 
 1231000    1.0356649   -6.2179701    517.44725  0.035028923  0.035124144            7 
 1232000     1.034575   -6.2347161    518.31495  0.035059182  0.035116856            9 
 1233000    1.0610493   -6.2581691    518.12958   0.03501822  0.035109726            4 
 1234000    1.0628066   -6.2595954    518.46892  0.035012758  0.035102644            6 
 1235000    1.0355551   -6.2159353    520.20025  0.035101232  0.035095453            4 
 1236000    1.0517354    -6.268323     519.4201  0.035020234  0.035088275            9 
 1237000    1.0577747   -6.2362738    521.59607  0.035138512  0.035081138            4 
 1238000    1.0348698   -6.2449656    519.40327  0.034962525  0.035073973            4 
 1239000    1.0588878   -6.2559141    519.30029   0.03492738  0.035066685            7 
 1240000    1.0351463   -6.2481967    521.27404  0.035031857  0.035059547            4 
 1241000    1.0565848   -6.2550122     521.9368  0.035048133   0.03505229            3 
 1242000    1.0512828   -6.2494217    522.61262  0.035065259   0.03504523            3 
 1243000    1.0840315   -6.2408564    522.22271  0.035010909  0.035038225            5 
 1244000    1.0530168   -6.2411006    523.11844  0.035042768  0.035031337            6 
 1245000    1.0448931   -6.2187174    521.37946  0.034898223  0.035024316            9 
 1246000     1.059176   -6.2660785    522.93892  0.034974513   0.03501722            5 
 1247000    1.0608426   -6.2460031    523.21382  0.034964837  0.035009929            4 
 1248000    1.0720136   -6.2621432    521.54198  0.034825186  0.035002757            8 
 1249000    1.0742146   -6.2455925    522.51045  0.034861919   0.03499569            5 
 1250000    1.0580483   -6.2689867    522.53964  0.034835976   0.03498847            4 
 1251000    1.0377973   -6.2083402    523.83399  0.034894351  0.034981345            3 
 1252000    1.0594309   -6.2554425     523.6583  0.034854786  0.034974036            6 
 1253000     1.052304   -6.2570918       525.06  0.034920191  0.034966658            3 
 1254000    1.0929018   -6.2464746    524.49147  0.034854564  0.034959347            4 
 1255000    1.0400366   -6.2403569    524.61313  0.034834869   0.03495215            5 
 1256000    1.0522537    -6.239366     524.8219  0.034820986   0.03494477            3 
 1257000    1.0490534   -6.2175612    527.31684  0.034958687  0.034937411            7 
 1258000    1.0526833   -6.2382124    527.01433  0.034910859  0.034930205            2 
 1259000    1.0694304   -6.2530434    526.40374  0.034842715  0.034922802            4 
 1260000    1.0616174   -6.2409593    526.17646   0.03480003  0.034915362            6 
 1261000    1.0441002   -6.2518382    526.61255  0.034801252  0.034907767            3 
 1262000    1.0569286   -6.2737823      525.214  0.034681326  0.034900257            4 
 1263000    1.0630852   -6.2249925    526.69476  0.034751568  0.034892702            3 
 1264000    1.0513926   -6.2472474    526.78192  0.034729821  0.034885199            3 
 1265000      1.03383   -6.2442185    527.38468  0.034742074  0.034877671            8 
 1266000    1.0513561   -6.2839766    527.66532  0.034733104  0.034870149            3 
 1267000    1.0426943   -6.2387721     529.2437  0.034809504  0.034862734            4 
 1268000    1.0532215   -6.2535217    528.72079  0.034747686  0.034855402            8 
 1269000    1.0405897   -6.2007923    530.36402  0.034828213  0.034848095            5 
 1270000    1.0593636   -6.2393013    529.59558  0.034750366  0.034840907            7 
 1271000    1.0647163   -6.2566075    529.05998  0.034687909  0.034833808            8 
 1272000    1.0367613   -6.2204874    531.00197  0.034787865  0.034826696            3 
 1273000    1.0361379   -6.2483021    531.45932  0.034790477  0.034819553            7 
 1274000      1.05223   -6.2550794    530.00713   0.03466818  0.034812352            3 
 1275000    1.0478648   -6.2434844    532.31824  0.034792042  0.034805234            7 
 1276000    1.0517351   -6.2558774     532.0851  0.034749549  0.034798105            5 
 1277000    1.0524578   -6.2386656    533.00992  0.034782689  0.034791075            5 
 1278000    1.0613274   -6.2802744    533.88283  0.034812391  0.034783921            6 
 1279000    1.0467825   -6.2623567    533.69404  0.034772872  0.034776959            8 
 1280000      1.06037   -6.2414561    534.22111   0.03478002  0.034769977            7 
 1281000    1.0535252   -6.2653887    533.72122   0.03472035  0.034763135            8 
 1282000    1.0558669   -6.2466243    533.04216  0.034649127  0.034756377            6 
 1283000    1.0481787   -6.2753008    533.91926  0.034679089   0.03474959            5 
 1284000     1.061772   -6.2314225    537.12638  0.034860227  0.034742712            6 
 1285000    1.0614732   -6.2212627    536.04972  0.034763276   0.03473595            3 
 1286000    1.0214814   -6.2579673    536.07235  0.034737711  0.034728912            4 
 1287000    1.0619512   -6.2224051    537.39724  0.034796506  0.034721854            3 
 1288000    1.0450794    -6.287531    535.70233   0.03465983  0.034714697            7 
 1289000    1.0450631   -6.2794743    535.70314  0.034632993  0.034707346            8 
 1290000    1.0358713   -6.2418332    535.93911  0.034621389  0.034699971            5 
 1291000    1.0364598   -6.2641624    537.12068  0.034670842  0.034692684           11 
 1292000    1.0438177   -6.2563847    537.39319  0.034661584  0.034685439           11 
 1293000    1.0545875   -6.2913253    537.14268  0.034618631  0.034678379            5 
 1294000    1.0345383   -6.2421658    538.03203  0.034649152   0.03467132            3 
 1295000     1.037776   -6.2585565    540.25858  0.034765675   0.03466434            5 
 1296000    1.0588769   -6.2433023    538.58353  0.034631142  0.034657197            6 
 1297000    1.0342049    -6.257208    539.53316  0.034665456   0.03465007            7 
 1298000    1.0694501   -6.2581089    538.55425  0.034575902  0.034642788            6 
 1299000     1.033618     -6.26971     535.9406  0.034381614  0.034635388            3 
 1300000    1.0544144   -6.2681656    538.85139  0.034541756  0.034627845            6 
 1301000    1.0337136   -6.2798479    538.58703  0.034498273  0.034620288            8 
 1302000     1.053241   -6.2667359    539.94352  0.034558597  0.034612791            3 
 1303000    1.0528162   -6.2141916    539.44388   0.03450012  0.034605305            4 
 1304000    1.0238375   -6.2953903    539.62734  0.034485387  0.034597852            4 
 1305000    1.0750412   -6.2467767    539.35774  0.034441746  0.034590321            5 
 1306000    1.0384217    -6.248959    539.86952   0.03444803  0.034582646            5 
 1307000     1.011613   -6.2749537    537.26902  0.034255867  0.034574876            5 
 1308000    1.0433473   -6.2491876    539.86643   0.03439516  0.034566922            3 
 1309000     1.038603   -6.2572635    540.00421  0.034377655   0.03455909            7 
 1310000    1.0257355   -6.2569114    539.71154  0.034332795  0.034551329            7 
 1311000    1.0486372   -6.2564534    540.21022  0.034338305  0.034543561            6 
 1312000    1.0364279    -6.238321    541.33087  0.034383312  0.034535834            4 
 1313000    1.0661262   -6.2345549    540.84645  0.034326381  0.034528319            9 
 1314000    1.0415639    -6.235903    541.69036  0.034353777  0.034520741            5 
 1315000    1.0420087   -6.2759701    542.08167   0.03435245  0.034513007            4 
 1316000    1.0341543   -6.2584857    541.20898  0.034271085  0.034505395            7 
 1317000    1.0509192   -6.2578488    542.35438  0.034317539  0.034497709            4 
 1318000     1.055337   -6.2572596    543.75841  0.034380274  0.034489996            9 
 1319000    1.0386644   -6.2867907    542.16676   0.03425365  0.034482202            5 
 1320000    1.0544767   -6.2583891    543.23761  0.034295304  0.034474653            6 
 1321000     1.032858   -6.2505557    543.50103  0.034285959  0.034466877            7 
 1322000    1.0510458   -6.2516641    543.66974   0.03427066  0.034459128            9 
 1323000    1.0584931   -6.2710939    544.92931  0.034324093  0.034451429            6 
 1324000    1.0418454   -6.2739562    543.91777  0.034234502  0.034443827            4 
 1325000    1.0473477   -6.2189914    547.63667  0.034442558  0.034436274            9 
 1326000    1.0607877    -6.264644    546.52602  0.034346784  0.034428677            8 
 1327000     1.030819   -6.2492546    545.16002  0.034235118  0.034421055            5 
 1328000    1.0424698   -6.2550189     546.4302  0.034289044  0.034413512           15 
 1329000    1.0495663   -6.2818488    546.60508  0.034274209  0.034405877            5 
 1330000    1.0487873   -6.2472661    545.99512  0.034210221  0.034398189            6 
 1331000    1.0434664   -6.2766677    546.54387  0.034218875  0.034390694            7 
 1332000    1.0310152   -6.3155147    547.22003  0.034235488  0.034382997            9 
 1333000    1.0352133   -6.2630034    548.82989  0.034310446  0.034375548            4 
 1334000    1.0397835      -6.2846    548.03945  0.034235348  0.034368189            5 
 1335000    1.0294733   -6.2699096    547.27174  0.034161782  0.034360898            5 
 1336000    1.0451131   -6.2858986    547.60415  0.034156945  0.034353415            5 
 1337000    1.0559574   -6.2923771    548.48878  0.034186536  0.034345972            6 
 1338000    1.0471897   -6.2727246     548.9139  0.034187462  0.034338451            5 
 1339000    1.0430747   -6.2596306    549.46916  0.034196487  0.034330921            3 
 1340000    1.0410179   -6.2452155    551.23821  0.034280983   0.03432363            2 
 1341000    1.0419854   -6.2914897    549.84131  0.034168613   0.03431634            6 
 1342000    1.0208346   -6.2714929    553.19586  0.034351457  0.034309115            6 
 1343000    1.0309811   -6.2745842    551.96052  0.034249226  0.034301972            4 
 1344000    1.0391392   -6.3171451    551.83876  0.034216193  0.034294815            9 
 1345000    1.0333832   -6.2709544    552.24792  0.034216104  0.034287499            4 
 1346000    1.0201916   -6.2855632    553.52597   0.03426981   0.03428018           11 
 1347000    1.0290905   -6.2648083    552.95363   0.03420896   0.03427283            3 
 1348000    1.0214163   -6.2833576    553.44658  0.034214057  0.034265587            8 
 1349000    1.0395897   -6.2718212    551.04461  0.034040315  0.034258306           20 
 1350000    1.0402993   -6.2591488    553.10522  0.034142297   0.03425095            6 
 1351000    1.0273203   -6.2686802    553.95628  0.034169521  0.034243569            5 
 1352000    1.0423468   -6.2630309     553.9571  0.034144299  0.034236107            4 
 1353000    1.0599455   -6.2711676    553.65488  0.034100449  0.034228671            5 
 1354000    1.0336878   -6.3048796    554.33278  0.034116986  0.034221412            3 
 1355000    1.0226122   -6.2866363    554.42753  0.034097634   0.03421386            6 
 1356000    1.0342091   -6.2926564    556.08882  0.034174583  0.034206381            9 
 1357000    1.0448728    -6.303984    554.06537   0.03402514  0.034198958            4 
 1358000    1.0516164   -6.2514249    555.54104  0.034090638  0.034191529            3 
 1359000    1.0531142   -6.2762354    556.85971  0.034146414  0.034183999            7 
 1360000    1.0394996   -6.2387883    557.50936  0.034161113  0.034176595            4 
 1361000    1.0292697   -6.2798167    555.44248  0.034009459  0.034169123            5 
 1362000    1.0328973   -6.2817074    554.84625  0.033948009  0.034161422            3 
 1363000    1.0213745   -6.2443396    555.90233   0.03398767  0.034153943            4 
 1364000    1.0093709   -6.2686516    558.63395   0.03412964  0.034146546            6 
 1365000    1.0272105   -6.2590546    557.57913   0.03404024  0.034139249            5 
 1366000    1.0395426   -6.2682434    558.75257  0.034086906   0.03413201            4 
 1367000     1.031278   -6.2678476    556.56552  0.033928646  0.034124619            9 
 1368000     1.035035   -6.2962695    557.59372  0.033966479  0.034116932            4 
 1369000    1.0085662   -6.2832686    558.55198  0.033999999  0.034109511            5 
 1370000    1.0144162   -6.3176265    559.10598   0.03400888  0.034102003            4 
 1371000    1.0487074   -6.3161511    558.57131  0.033951575  0.034094515            7 
 1372000    1.0406193    -6.302356    560.06815  0.034017745  0.034087169            5 
 1373000     1.018392   -6.2873551    560.36323  0.034010878  0.034079721            7 
 1374000   0.99338544   -6.3098949     560.6545  0.034003791  0.034072382            7 
 1375000    1.0360349   -6.2743847    560.34431  0.033960261  0.034064961            3 
 1376000    1.0462824   -6.2920665    561.33339  0.033995481  0.034057617            8 
 1377000    1.0418964   -6.2711956    561.87035  0.034003289  0.034050258            6 
 1378000    1.0398063   -6.2882769    562.87253  0.034039219   0.03404313            4 
 1379000    1.0157889    -6.312098    561.37858  0.033924255  0.034035946           10 
 1380000    1.0387586   -6.2897317    562.47381  0.033965809  0.034028648            8 
 1381000    1.0469799   -6.2869254    561.97386  0.033911046  0.034021354            9 
 1382000    1.0422873   -6.2948232    562.63187  0.033926186  0.034013894            6 
 1383000    1.0586042   -6.3143462    564.05686  0.033987519  0.034006602            4 
 1384000     1.016283   -6.2544423    563.26337  0.033915184  0.033999415            3 
 1385000    1.0471476   -6.2847232    565.35096  0.034016303  0.033992221            6 
 1386000    1.0323916   -6.2826242    565.75939  0.034016317  0.033985037            2 
 1387000    1.0325883   -6.3001404    564.27893  0.033902844   0.03397788            5 
 1388000    1.0268023   -6.2869715    564.82283  0.033911073  0.033970778            5 
 1389000   0.99929795   -6.2624173    567.81452  0.034066146  0.033963626            5 
 1390000    1.0159271   -6.2729491    565.88281  0.033925828  0.033956583            6 
 1391000    1.0418428   -6.2528265     566.4337  0.033934442  0.033949455            4 
 1392000    1.0176552   -6.2680452    565.10201  0.033830341  0.033942355            3 
 1393000    1.0140397   -6.2945003    567.33165  0.033939438  0.033935123            4 
 1394000    1.0448354   -6.2897772    568.03911  0.033957383  0.033927975           21 
 1395000    1.0418326   -6.3015219    566.23115  0.033825039  0.033920709            6 
 1396000     1.052471   -6.2386945    567.85099  0.033897504  0.033913664            5 
 1397000    1.0207509   -6.2771377    568.17343  0.033892474  0.033906707            7 
 1398000    1.0310398   -6.3266903    568.46012   0.03388532  0.033899585            7 
 1399000    1.0310451   -6.3045052    568.54433  0.033866115  0.033892449            3 
 1400000      1.04934   -6.3194363    568.45191  0.033836423  0.033885184            6 
 1401000    1.0409935    -6.282435    568.56909  0.033819242   0.03387819            5 
 1402000    1.0461358   -6.3259125    568.70759  0.033803352  0.033871055            3 
 1403000    1.0139832   -6.2880945    571.41255  0.033939924  0.033864185            6 
 1404000    1.0338636   -6.3034082    570.22013  0.033844975  0.033857318            9 
 1405000    1.0277582   -6.2805771    571.79375   0.03391422  0.033850417            9 
 1406000    1.0374768   -6.3401924    571.18454  0.033853991  0.033843579            6 
 1407000      1.03882   -6.2462156    571.79819  0.033866275   0.03383661           10 
 1408000    1.0149331   -6.3131046    572.00431  0.033854422   0.03382972            5 
 1409000    1.0238852   -6.2996612    572.14964   0.03383899  0.033822751            5 
 1410000    1.0255157   -6.3208505    571.22895  0.033760576  0.033815848           10 
 1411000    1.0420338   -6.3067238    573.92899  0.033896113  0.033808795            4 
 1412000    1.0323127   -6.2498924    574.14471  0.033884839   0.03380203            4 
 1413000    1.0310238   -6.2900654    572.50248  0.033764006  0.033795288            5 
 1414000    1.0322113   -6.3242258    574.46249  0.033855639  0.033788531            6 
 1415000    1.0355139   -6.2816558    576.22164  0.033935315  0.033781637            5 
 1416000    1.0156693   -6.2568386      575.436  0.033865113  0.033774984           10 
 1417000    1.0277536   -6.2901855    574.12904  0.033764352   0.03376829            8 
 1418000    1.0228408   -6.3284489    575.99496  0.033850197  0.033761577           11 
 1419000    1.0228537   -6.2779679     577.1763  0.033895719  0.033754896            5 
 1420000    1.0127122   -6.2968551    577.00115   0.03386157   0.03374821            5 
 1421000    1.0293914   -6.2748797    577.51737  0.033868013  0.033741601            5 
 1422000    1.0147324   -6.3097068    576.75264  0.033799381  0.033734952            4 
 1423000     1.057027   -6.2943027    578.57004  0.033882059   0.03372835            4 
 1424000    1.0251769   -6.2668272    578.93129  0.033879406  0.033721917            7 
 1425000    1.0123912   -6.3080888    578.19604  0.033812634  0.033715497            7 
 1426000    1.0214025   -6.3124984    577.27116  0.033734874     0.033709            4 
 1427000    1.0035815    -6.312736    577.68825   0.03373559  0.033702485            4 
 1428000    1.0359997   -6.3019861    579.09367  0.033793981  0.033695806            4 
 1429000     1.020362   -6.2870494    578.99834  0.033764774  0.033689386            4 
 1430000    1.0150805   -6.2971766    580.26765  0.033815131  0.033682988            5 
 1431000    1.0375117   -6.3110071    580.65339  0.033813964  0.033676493           13 
 1432000    1.0215808   -6.3176362    579.18204  0.033704728  0.033669956            5 
 1433000    1.0149659   -6.2866698    578.94203   0.03366725  0.033663377            5 
 1434000    1.0323539   -6.2872793    580.38978  0.033727904  0.033656647           15 
 1435000    1.0245792   -6.2941289    581.82584  0.033787795   0.03364999            4 
 1436000    1.0215634   -6.2895869    580.27501  0.033674269  0.033643228            3 
 1437000    1.0156787   -6.2913528    581.27226  0.033708667  0.033636628            5 
 1438000    1.0265229   -6.2882142    581.52183  0.033699689  0.033630023            9 
 1439000    1.0235196   -6.2851588     582.2683  0.033719499   0.03362339            3 
 1440000    1.0106634   -6.3159752    582.87632  0.033731268  0.033616921            4 
 1441000    1.0459683   -6.3093399    582.02316  0.033658522  0.033610194            4 
 1442000    1.0415995   -6.3326555    581.85698  0.033625577  0.033603519            4 
 1443000    1.0137784   -6.3153661    582.46354  0.033637303  0.033596885           10 
 1444000     1.029813   -6.3326729    582.88906  0.033638565  0.033590122            3 
 1445000    1.0355515   -6.3190099    585.41495  0.033760955  0.033583323            6 
 1446000    1.0137742   -6.3030587     584.9401  0.033710241  0.033576559            4 
 1447000    1.0249309   -6.3047245    584.15686  0.033641837  0.033569857            5 
 1448000    1.0063964   -6.2959293    584.73445  0.033651845   0.03356326            6 
 1449000    1.0196694   -6.3020965    584.67188  0.033625022  0.033556473            6 
 1450000    1.0345227   -6.2883099     585.2033  0.033632373  0.033549645            6 
 1451000    1.0170562   -6.3034018    583.97238  0.033538501  0.033542877           13 
 1452000    1.0329159    -6.314812      585.724  0.033615932  0.033536063            5 
 1453000    1.0026002   -6.3216859    586.20792   0.03362055  0.033529462            5 
 1454000    1.0310774   -6.2819787    584.77923  0.033515545  0.033522824            6 
 1455000    1.0269995   -6.3270887    586.27456  0.033578154  0.033516176            4 
 1456000    1.0188453   -6.3140432    586.27402   0.03355506  0.033509602            9 
 1457000   0.99398006    -6.320766     586.7597  0.033559809   0.03350293            3 
 1458000     1.012255   -6.2891289     584.0647  0.033382756  0.033496257            6 
 1459000    1.0434935   -6.3188875    586.64425  0.033507211  0.033489428            6 
 1460000    1.0448229   -6.3026109    588.31792   0.03357979  0.033482592            6 
 1461000    1.0180996   -6.3219102    587.38005  0.033503311  0.033475841            4 
 1462000    1.0081337   -6.2951817    586.15253  0.033410427  0.033468936            6 
 1463000    1.0291955   -6.3223835    587.27719  0.033451651   0.03346197            4 
 1464000    1.0332928   -6.3188048    587.47958  0.033440322  0.033455014            5 
 1465000     1.010208   -6.3189525    588.15891  0.033456138  0.033448101            2 
 1466000    1.0198613   -6.3422785    587.53119  0.033397635  0.033441133            3 
 1467000    1.0230693   -6.3090797    589.60465  0.033492652  0.033434142            5 
 1468000     1.013931   -6.3264167    589.98901  0.033491656   0.03342702            5 
 1469000    1.0064528   -6.3209146    588.48901  0.033383765  0.033420044            6 
 1470000    1.0048425   -6.3281856    588.63972  0.033369599  0.033413011           13 
 1471000    1.0116066   -6.3344927    589.14349  0.033375453  0.033406085            6 
 1472000    1.0140677   -6.3112588    589.36973  0.033365587  0.033399091            8 
 1473000    1.0154202    -6.313442    591.58973  0.033468529  0.033392296            8 
 1474000   0.99360341   -6.3118073    590.47052  0.033382548   0.03338547           13 
 1475000    1.0234973     -6.31286    591.68071  0.033428288  0.033378533            4 
 1476000    1.0177991   -6.3394475    591.25791   0.03338177  0.033371485            7 
 1477000    1.0196851   -6.3384864    592.74331  0.033442976  0.033364563           11 
 1478000    1.0251959    -6.293189    590.97571  0.033320687  0.033357503            5 
 1479000    1.0119213   -6.2928015    592.24679  0.033369776  0.033350469            5 
 1480000    1.0201438   -6.3035033    592.75544   0.03337587  0.033343412            6 
 1481000    1.0030649   -6.3059694    592.30142  0.033327786  0.033336313            5 
 1482000    1.0159403   -6.3253108    591.97607  0.033287003  0.033329339            5 
 1483000    1.0090635   -6.3316152    592.19659   0.03327695  0.033322139            5 
 1484000    1.0236177   -6.3528909    591.66553  0.033224704  0.033314738           12 
 1485000    1.0156862   -6.3130002    592.74632  0.033262981  0.033307335           18 
 1486000    1.0073495   -6.3074935    592.61762  0.033233379  0.033300139            7 
 1487000    1.0288392   -6.2846311    592.54687  0.033207065   0.03329306           11 
 1488000    1.0301823   -6.3490045    592.52513  0.033183531  0.033285942           10 
 1489000    1.0220989   -6.3491029    594.89756   0.03329402  0.033278906            8 
 1490000    1.0142216   -6.3358377    593.39419  0.033187594  0.033271736            3 
 1491000    1.0019434   -6.3286776    596.09175  0.033316105  0.033264596            8 
 1492000    1.0131612   -6.3335211    595.41242  0.033255832  0.033257506            2 
 1493000    1.0191481   -6.3266701    595.04456  0.033213025  0.033250435            3 
 1494000     1.015756   -6.3395364    596.43757  0.033268494  0.033243517            9 
 1495000    1.0170751    -6.342231     594.1927  0.033121109  0.033236496            4 
 1496000    1.0283908   -6.3005654     595.2021  0.033155197  0.033229475            7 
 1497000    1.0103339   -6.3112144    597.26593  0.033247936  0.033222363            9 
 1498000   0.99499377   -6.3236791    597.67161   0.03324831  0.033215297            4 
 1499000    1.0047902   -6.3454122    596.76952   0.03317598  0.033208334            3 
 1500000    1.0383979   -6.3168912    598.01786  0.033223214  0.033201294           10 
 1501000      1.02618   -6.3440298    597.15398  0.033153119  0.033194032            8 
 1502000    1.0318462   -6.3435304    595.83554  0.033057897  0.033186728            6 
 1503000     1.006408   -6.3194558    598.93053  0.033207503  0.033179577            4 
 1504000    1.0060847   -6.3552995    597.08823  0.033083346   0.03317236           36 
 1505000    1.0021007   -6.3261117    600.60908  0.033256317   0.03316525            4 
 1506000   0.99121728   -6.3208821    599.61869  0.033179432  0.033158264            4 
 1507000    1.0060856    -6.342316    598.54786  0.033098201   0.03315113            5 
 1508000   0.97489459   -6.3329059    599.48872  0.033128245  0.033144105           13 
 1509000     1.009589   -6.3205907    598.31409  0.033041423   0.03313702            9 
 1510000    1.0437944   -6.3275537      598.443  0.033026655  0.033129802            3 
 1511000    1.0135798   -6.3292346    600.08874  0.033095563  0.033122645            6 
 1512000   0.98710693   -6.3603884    599.05535  0.033016719  0.033115307            9 
 1513000    1.0281583   -6.3173013    599.76799  0.033034148  0.033108113            6 
 1514000    1.0131893   -6.3571627    600.15885  0.033033843  0.033100976            3 
 1515000    1.0061704   -6.3213168    601.84281  0.033104665  0.033093822            4 
 1516000    1.0069491   -6.3429513    601.16398  0.033045513  0.033086681           11 
 1517000    1.0163638   -6.3084307     600.1561  0.032968364  0.033079459            6 
 1518000     1.031523   -6.3223188    601.17634  0.033002654  0.033072356            8 
 1519000    1.0159615    -6.323376    601.15127  0.032979552  0.033065144           10 
 1520000   0.99941629   -6.3233712    601.15715  0.032958177  0.033057872           13 
 1521000    1.0133204   -6.3303925    602.72868   0.03302261  0.033050562            7 
 1522000     1.012837   -6.3042975    604.56188  0.033101286  0.033043473            4 
 1523000   0.99433896   -6.3203215    604.26886  0.033063518  0.033036208            5 
 1524000    1.0071613   -6.3254692     603.1444  0.032980337   0.03302893            9 
 1525000    1.0262105   -6.3465027    603.78809  0.032993885  0.033021609            3 
 1526000    1.0019066    -6.360353    602.59167  0.032906928  0.033014288            4 
 1527000    1.0121943   -6.3229385    602.34822  0.032872092  0.033006969            6 
 1528000   0.99186304   -6.3235716    605.65069  0.033030688  0.032999795            5 
 1529000    1.0078698   -6.3238388    602.80762  0.032854132  0.032992415            8 
 1530000   0.99994819   -6.3273919     602.8289  0.032833818   0.03298499            4 
 1531000   0.98914395   -6.3515625    604.12489  0.032882914  0.032977472           11 
 1532000    1.0020541   -6.3256379    604.46799  0.032880113   0.03297011            8 
 1533000    1.0010991   -6.3617011    603.86571  0.032825925  0.032962566           11 
 1534000    0.9912532   -6.3217157    605.18911  0.032876419  0.032955071            5 
 1535000     1.015997   -6.3484537    605.69248  0.032882328  0.032947629            6 
 1536000   0.99511089    -6.335098    605.44896  0.032847708  0.032940149            8 
 1537000    1.0216451   -6.3619209    605.73138  0.032841649  0.032932701            9 
 1538000    1.0130424   -6.3290733    604.73739  0.032766439  0.032925271            6 
 1539000    1.0155053    -6.337375    606.91361  0.032862985  0.032917968            8 
 1540000    1.0269724   -6.3410355    605.18821   0.03274828   0.03291068            6 
 1541000     1.020774   -6.3503186    605.87859  0.032764363  0.032903156           15 
 1542000     1.001613   -6.3527248    605.38559  0.032716472  0.032895624            6 
 1543000   0.99277262   -6.3274268    605.49696  0.032701283  0.032888019            5 
 1544000   0.99269505   -6.3517824    607.01751  0.032762172  0.032880369           12 
 1545000    1.0112669   -6.2846307    609.32106  0.032865214  0.032872883            4 
 1546000    1.0007716   -6.3352121    607.23243  0.032731373  0.032865364            7 
 1547000   0.98920147   -6.3102152    607.72546  0.032736773  0.032857659            5 
 1548000    1.0010558   -6.3275125     607.9716  0.032728876  0.032850042            7 
 1549000   0.98847011   -6.3213093    609.17298  0.032772379  0.032842509            8 
 1550000    1.0130868    -6.296557    609.03141  0.032743624  0.032834944            5 
 1551000   0.98189641   -6.3501734    607.85281  0.032659188  0.032827309            5 
 1552000    0.9902316   -6.3190327    608.10983  0.032651945  0.032819664            6 
 1553000    1.0002842   -6.3680656    608.37466  0.032645131  0.032812141            8 
 1554000    1.0087031   -6.3155148     610.6198   0.03274452   0.03280462            7 
 1555000     1.008358   -6.3179471    608.89275  0.032630908  0.032797067            4 
 1556000    1.0125828      -6.3502    609.12136  0.032622181  0.032789363            6 
 1557000    1.0113848   -6.3385101    610.60928  0.032680865  0.032781718            5 
 1558000    1.0037985   -6.3528722    610.31926  0.032644376  0.032774037            8 
 1559000   0.99186748   -6.3406839    610.39086  0.032627265  0.032766363            2 
 1560000    0.9894429   -6.3638932    612.83047  0.032736671  0.032758848            7 
 1561000    0.9992113   -6.3685017    611.48358  0.032643796  0.032751321            2 
 1562000    1.0165706   -6.3548482    610.89108  0.032591287  0.032743793            4 
 1563000    1.0038067   -6.3105118    611.72077  0.032614671  0.032736238            7 
 1564000    0.9912268   -6.3368455    611.80678    0.0325984  0.032728642            4 
 1565000   0.98699718   -6.3333447    613.60239  0.032673183  0.032721101            9 
 1566000    1.0086902   -6.3388544    610.88661  0.032507802  0.032713583            5 
 1567000    1.0014442   -6.3224814    613.76292  0.032640019   0.03270624            6 
 1568000    1.0077701   -6.3514934    613.73764   0.03261786  0.032698764           11 
 1569000   0.97515404    -6.355722    612.90479  0.032552836  0.032691221            8 
 1570000    1.0072365   -6.3521827    613.67104  0.032572773  0.032683815            5 
 1571000     1.013336   -6.3780301    612.94997   0.03251379  0.032676475           10 
 1572000   0.99323736   -6.3212904    616.04157  0.032656996  0.032669053            5 
 1573000    0.9985486    -6.315451    616.07866    0.0326382  0.032661836            4 
 1574000    1.0111818   -6.3511258    617.98126  0.032718195  0.032654551            4 
 1575000   0.99988806   -6.3064814    615.55828  0.032569221   0.03264724            3 
 1576000    1.0244641   -6.3443496    616.30831  0.032588214  0.032639959            4 
 1577000   0.98940778   -6.3306845    615.12219  0.032504872  0.032632644           10 
 1578000   0.97738028   -6.3502113    614.50756  0.032451814  0.032625213            7 
 1579000    1.0114521   -6.3141374    616.29114  0.032525393  0.032617802            5 
 1580000   0.98885667   -6.3421489    615.77374  0.032477518  0.032610343           11 
 1581000     1.002383     -6.34164    616.22478   0.03248075  0.032602798            9 
 1582000   0.99956164   -6.3524598    613.93345   0.03233952  0.032595209            4 
 1583000      1.00112   -6.3472334    617.66743  0.032515657  0.032587699            4 
 1584000    1.0003519   -6.3204313    618.24049  0.032525278  0.032580304            5 
 1585000    1.0044196   -6.3570085    616.71473  0.032424539  0.032572762            7 
 1586000    1.0017204   -6.3282588    616.47789   0.03239165  0.032565166            5 
 1587000   0.99700825   -6.3384684    618.79387  0.032492852  0.032557674            9 
 1588000   0.99393882   -6.2926178    620.52408  0.032563186  0.032550329            3 
 1589000   0.96985361   -6.3476533    620.58942   0.03254612  0.032543033            4 
 1590000    1.0124689    -6.362754    619.26357  0.032456162  0.032535622            6 
 1591000    1.0206696   -6.3420189    618.73301  0.032407973  0.032528196            5 
 1592000   0.97880918   -6.3282355    619.28064  0.032416281  0.032520833            3 
 1593000   0.99671028   -6.3176941    618.68297  0.032364667  0.032513267            4 
 1594000   0.96761982   -6.3381472    618.25929  0.032322213  0.032505709            7 
 1595000   0.99759142   -6.3513714    618.87018  0.032333865  0.032498007            8 
 1596000    1.0026823   -6.3492806    620.20796  0.032383457  0.032490377           21 
 1597000   0.99937908   -6.4000526    619.72558  0.032338008  0.032482828            9 
 1598000    1.0006465   -6.3211075    620.70685  0.032368943   0.03247526            5 
 1599000    1.0283244   -6.3283138    619.45773  0.032283601  0.032467918            9 
 1600000   0.98851952   -6.3609347      621.059  0.032346823  0.032460506            5 
 1601000   0.98589213   -6.3703483    621.55832  0.032352609  0.032453012           11 
 1602000   0.99714458   -6.3456048    623.47605  0.032432171  0.032445625            8 
 1603000    1.0168075   -6.3503661    622.30443  0.032351031  0.032438237            6 
 1604000    1.0130571   -6.3374548    622.01784  0.032315972  0.032430965            9 
 1605000   0.99082675   -6.3538953    623.29672  0.032362239  0.032423587            6 
 1606000    1.0030576    -6.366591    623.90507  0.032373654  0.032416122            4 
 1607000   0.98828488   -6.3224189    624.50957  0.032384856  0.032408686            6 
 1608000    1.0017028   -6.3774676    624.93115  0.032386565  0.032401304            5 
 1609000    1.0031596    -6.353432     623.6243  0.032298752  0.032393958            3 
 1610000    1.0008914    -6.399071    624.77487  0.032338244  0.032386614            6 
 1611000   0.98659562   -6.3313195    626.45392  0.032405024  0.032379351            6 
 1612000   0.98707408   -6.3565415    625.12319  0.032316129  0.032372061            9 
 1613000   0.97786647   -6.3207424    625.54437  0.032317853  0.032364777            4 
 1614000   0.98705871   -6.3724575    625.70851  0.032306305   0.03235747            6 
 1615000    1.0006879   -6.3238267    625.40086  0.032270426  0.032350189            9 
 1616000    1.0197281   -6.3341736    625.44425  0.032252694  0.032342886            7 
 1617000    1.0078142   -6.3620216     624.9093  0.032205179  0.032335475            6 
 1618000   0.99931515   -6.3579278    624.93387   0.03218654  0.032328126            4 
 1619000   0.97474927   -6.3332673    628.61088  0.032355923  0.032320789            4 
 1620000   0.98059195   -6.3615028     628.5495  0.032332793  0.032313535           20 
 1621000   0.97800017   -6.3630976    627.43847   0.03225573  0.032306281            6 
 1622000    1.0105457   -6.3736897    627.79074  0.032253943  0.032298943            3 
 1623000    0.9942159   -6.3355383    627.37004  0.032212469  0.032291608           10 
 1624000   0.95981394   -6.3640715     628.3947  0.032245212  0.032284298            6 
 1625000    0.9877741    -6.366676    629.18638  0.032265968  0.032276998            2 
 1626000   0.96781947   -6.3442738    628.08384  0.032189619  0.032269664            4 
 1627000    0.9894061   -6.3199871    629.14342  0.032224105  0.032262337            5 
 1628000   0.99052612   -6.3590451    629.91274  0.032243691  0.032255002           10 
 1629000   0.98789034    -6.349854    628.30375  0.032141587  0.032247577            3 
 1630000   0.99297874     -6.36214    628.88165  0.032151413  0.032240132            3 
 1631000   0.99994236   -6.3517182     628.3992  0.032107051  0.032232571            8 
 1632000     0.996465   -6.3802061     629.0292  0.032119547  0.032225027           10 
 1633000    1.0046774   -6.3503712     632.4638  0.032275148  0.032217483            7 
 1634000   0.98360385   -6.3327284     630.9769  0.032179564  0.032210035            6 
 1635000   0.99813978   -6.3508111    630.76176  0.032148917  0.032202694            5 
 1636000   0.98079751   -6.3749946    630.62659  0.032122381  0.032195208            9 
 1637000   0.97752603   -6.3870232    630.32349  0.032087329  0.032187725            6 
 1638000   0.98307081    -6.367764    629.96999  0.032049755  0.032180086            7 
 1639000   0.98155688   -6.3625911    628.30724   0.03194566  0.032172528            4 
 1640000   0.99821675   -6.3733769    630.43513  0.032034305  0.032164843            5 
 1641000   0.98953379   -6.3867166    630.13773  0.031999682  0.032157108            7 
 1642000   0.98627616   -6.3784983    630.04619  0.031975547  0.032149415            3 
 1643000    0.9830102    -6.350117    630.01368  0.031954437  0.032141664            5 
 1644000   0.97658152   -6.3711275    630.05767   0.03193723  0.032133858           13 
 1645000    1.0356291    -6.334248    630.97819  0.031964447  0.032126144            6 
 1646000   0.97936319   -6.3667179    630.60612  0.031926191   0.03211842            6 
 1647000   0.97859475   -6.3687117    631.36496  0.031945201  0.032110747            7 
 1648000    1.0055535   -6.3826071     631.5405  0.031934693  0.032103093           13 
 1649000   0.99527237   -6.4157631    630.86048  0.031880962    0.0320954            8 
 1650000   0.99941227   -6.3856995    631.22994    0.0318803  0.032087676            5 
 1651000   0.99976783   -6.2976258    634.63547  0.032032883  0.032080068            9 
 1652000   0.97763954   -6.3559309    631.29173  0.031844821  0.032072357            8 
 1653000    1.0037734   -6.3656642    631.75646  0.031848985  0.032064485            4 
 1654000   0.98414778    -6.348772    632.71092  0.031877817    0.0320566            6 
 1655000   0.99091378   -6.3644041    632.14719  0.031830171  0.032048728            7 
 1656000   0.96875958    -6.380496    632.56134   0.03183179  0.032040825            5 
 1657000   0.97752178   -6.3864625    633.27231  0.031848336     0.032033            6 
 1658000   0.98711039   -6.3618357    631.23169  0.031726563  0.032025151            5 
 1659000    1.0119405   -6.3567144    633.37031  0.031814864  0.032017291           10 
 1660000   0.96830066   -6.3538909    633.06601  0.031780422  0.032009347            8 
 1661000   0.97326632   -6.3858541    634.86699  0.031851645  0.032001364            6 
 1662000    0.9890699   -6.3696905    634.49849  0.031814004  0.031993468            6 
 1663000    1.0048692   -6.3943606    634.99717  0.031819862  0.031985538            5 
 1664000   0.98712961    -6.374099    634.08262  0.031754939  0.031977562           11 
 1665000   0.98430282   -6.3273268    633.33119  0.031698258  0.031969555            9 
 1666000   0.99053663   -6.4093452    631.65309  0.031595293  0.031961471            5 
 1667000   0.98878715   -6.3777105    632.58648  0.031622999  0.031953313            5 
 1668000    0.9839571   -6.3577794     633.9005  0.031669689  0.031945169            8 
 1669000   0.99327996   -6.3618749    634.79379  0.031695316  0.031936891            5 
 1670000   0.97219626    -6.391718    632.89697  0.031581685  0.031928617            3 
 1671000   0.98491563   -6.4449722    634.64046  0.031649734  0.031920306            7 
 1672000   0.98364155   -6.3847467    635.02248  0.031649845  0.031911885            3 
 1673000   0.99289669   -6.3792535    634.19576  0.031589747  0.031903627            7 
 1674000   0.99920362   -6.3498945    634.41386  0.031581733  0.031895283           10 
 1675000   0.99365617   -6.3673167     633.6616  0.031525453  0.031886941            5 
 1676000   0.97146356   -6.3586411    634.51699  0.031549174  0.031878652            6 
 1677000   0.99436886   -6.4049941    635.70735  0.031589512  0.031870257            2 
 1678000   0.98076518   -6.3791501     636.2742  0.031598838  0.031861915            5 
 1679000    1.0014531   -6.3829525    635.58095   0.03154561   0.03185374            6 
 1680000    0.9889826   -6.3632546    634.91685  0.031493891  0.031845528            6 
 1681000    0.9667249   -6.3971479    636.23861  0.031540681  0.031837224            4 
 1682000   0.97643307   -6.3713003    637.73562  0.031596097  0.031829007           10 
 1683000   0.97568671   -6.3804846    636.71681  0.031526877  0.031820801            4 
 1684000   0.97090255   -6.3711458    637.32129  0.031538069  0.031812666            7 
 1685000   0.97775984   -6.3622689    636.38518  0.031473055  0.031804599            4 
 1686000   0.96493276   -6.3630425    637.82326  0.031525467  0.031796411            5 
 1687000    0.9913725   -6.3867387    635.57746  0.031395844  0.031788289            7 
 1688000   0.97561438   -6.4012361    634.22015  0.031310237  0.031779908            4 
 1689000   0.98014681   -6.3677578    638.11395  0.031483814  0.031771581            9 
 1690000   0.95890347   -6.3737691    638.42613  0.031480578  0.031763284            3 
 1691000    0.9794077   -6.3767607    639.14224  0.031497252  0.031755036            5 
 1692000    1.0042565   -6.3991425    637.90266  0.031417585   0.03174678            5 
 1693000   0.99350998   -6.3523913    638.78882  0.031442647  0.031738633           10 
 1694000   0.95436874   -6.3768479    637.98944  0.031384762  0.031730502            5 
 1695000   0.97706307   -6.4072632    639.27119  0.031429262   0.03172232           16 
 1696000   0.95835121   -6.3848705    639.90457  0.031441852  0.031714132           14 
 1697000   0.99915861       -6.363    641.25382   0.03148958  0.031706061            5 
 1698000   0.97026024   -6.3569269    640.14887  0.031416808  0.031697983            7 
 1699000   0.98894224    -6.384519    639.90511   0.03138636   0.03168982           10 
 1700000   0.99541012    -6.388219    641.66368  0.031454102  0.031681583            4 
 1701000   0.97738514   -6.3796811    640.18162  0.031363003  0.031673401            8 
 1702000   0.98081981   -6.3821986    642.11615  0.031439294  0.031665293            9 
 1703000    0.9860559   -6.4005217     641.0589  0.031369099  0.031657154            7 
 1704000   0.99249372   -6.4025663    642.96013  0.031443668  0.031649075            8 
 1705000   0.95849258   -6.3748828    644.17985  0.031484841  0.031641056           13 
 1706000   0.96587414   -6.3840596     641.6381  0.031342228  0.031633143            3 
 1707000    0.9605714   -6.3929456    641.81647  0.031332575  0.031625056            8 
 1708000   0.96023259   -6.4029959     643.0742  0.031375595  0.031616863            7 
 1709000    0.9624432    -6.351727    642.32209  0.031320562  0.031608735            4 
 1710000    0.9643468   -6.3837648    642.85706  0.031328317  0.031600661            3 
 1711000   0.98632465   -6.3880677    642.31017  0.031283371  0.031592566            6 
 1712000   0.97735151   -6.4230602    642.49684  0.031274184  0.031584313            7 
 1713000   0.99538956   -6.3322981    645.37974  0.031396173  0.031576237            5 
 1714000   0.97026906   -6.3916893    645.40307   0.03137899   0.03156829            4 
 1715000   0.98805285   -6.4204862    643.81383  0.031283471  0.031560291            5 
 1716000   0.97217865   -6.3906904    645.64155  0.031353999  0.031552284           10 
 1717000   0.98743902   -6.3863435    644.60078  0.031285225  0.031544329            5 
 1718000   0.98304236   -6.3849509     644.7863  0.031276014  0.031536404           15 
 1719000   0.98160568   -6.3826953    647.47428  0.031388127  0.031528539            3 
 1720000   0.97109622   -6.3819043    645.12503  0.031256057  0.031520645            4 
 1721000   0.98601932   -6.4114893     644.5728  0.031211156  0.031512564            5 
 1722000   0.97850297   -6.3503724    645.84874  0.031254779  0.031504654            4 
 1723000   0.97367634   -6.3834675    646.51865  0.031269039  0.031496775            9 
 1724000   0.98024362   -6.4279563    642.97479  0.031079601  0.031488671            5 
 1725000   0.97202497   -6.3969578    647.72074  0.031290857  0.031480737            7 
 1726000   0.97854464    -6.381744     647.6753  0.031270534  0.031472774            6 
 1727000   0.96821205   -6.3820169     648.6371  0.031298837  0.031464774            9 
 1728000    1.0181186   -6.4125196     648.0808  0.031253897  0.031456825            8 
 1729000   0.97782818   -6.3948005    647.33445  0.031199848  0.031448953           13 
 1730000   0.98734322   -6.3747373    647.69267  0.031199069   0.03144103            5 
 1731000   0.96771435   -6.3537432    648.55155  0.031222393  0.031433142            5 
 1732000   0.99126392   -6.3635166    647.99397  0.031177539  0.031425177            5 
 1733000    0.9677955   -6.3872112    649.18796  0.031216963  0.031417297            7 
 1734000   0.96633298   -6.4019878    649.10445  0.031194947  0.031409389            4 
 1735000   0.96390937   -6.3748942    649.01476  0.031172659  0.031401351            6 
 1736000   0.98185747   -6.3991483    650.47709  0.031224899  0.031393476            9 
 1737000   0.96477993   -6.3681797    649.89481  0.031178987  0.031385528            6 
 1738000   0.97637103   -6.4017875    651.54063  0.031239961  0.031377808            5 
 1739000   0.98206712   -6.3788818    649.82374  0.031139723  0.031369917            7 
 1740000   0.95753939   -6.4116604    649.46927   0.03110485  0.031361965           10 
 1741000   0.95945744   -6.4157794     650.9644  0.031158549  0.031353918            5 
 1742000   0.97916106   -6.4055628    650.16697  0.031102515   0.03134594            9 
 1743000   0.97485147    -6.379617    652.06403   0.03117537  0.031337948           14 
 1744000   0.97666154    -6.396075    649.79737  0.031049186  0.031329944            7 
 1745000   0.96561806   -6.4159891    650.62483  0.031070909  0.031321868            5 
 1746000   0.97879542   -6.4147414    650.95635  0.031068936  0.031313924            9 
 1747000   0.98701265   -6.3598465    652.39923  0.031119979  0.031305986            8 
 1748000   0.93904602   -6.3805465     653.6163  0.031160197  0.031298131            7 
 1749000    0.9837024   -6.3604591    652.68689  0.031098098  0.031290255            7 
 1750000   0.97370892   -6.4032082    653.03514  0.031096911  0.031282411            8 
 1751000   0.99538183   -6.3628724    655.72709  0.031207267  0.031274625            4 
 1752000   0.96890499   -6.3917841    654.75351  0.031143146  0.031266799            7 
 1753000   0.95924708   -6.4302226    653.48561  0.031065108  0.031258992           14 
 1754000   0.96278518    -6.388793    652.61439  0.031006005  0.031251089           13 
 1755000   0.94792432   -6.3994873    654.92786  0.031098189  0.031243259            7 
 1756000   0.96914627   -6.3870379    654.60379    0.0310651  0.031235418            4 
 1757000   0.96363549   -6.4097356    653.61169  0.031000365  0.031227487            5 
 1758000   0.99193395   -6.4282208      653.403  0.030972838   0.03121945           14 
 1759000   0.99083609   -6.4448868    653.08169  0.030940008  0.031211493           10 
 1760000   0.98071699   -6.4301636    655.14229  0.031019995  0.031203459           12 
 1761000   0.96686086   -6.4005557    655.24439  0.031007211  0.031195445            4 
 1762000   0.95633422    -6.407401    652.78703  0.030873393  0.031187475            6 
 1763000   0.99096396   -6.3671489    655.91759  0.031003857  0.031179638            8 
 1764000   0.96799621   -6.3935079    657.41476  0.031057009  0.031171877           18 
 1765000   0.98749779   -6.3944927    657.92775  0.031063633  0.031164029            6 
 1766000   0.95955156   -6.4111983    654.11629   0.03086619   0.03115626            6 
 1767000     0.967544   -6.4213052    655.84615  0.030930303  0.031148418            8 
 1768000   0.99114436   -6.4049398    657.79532  0.031004681  0.031140641            6 
 1769000   0.96630175   -6.3943664     657.6024  0.030978067  0.031132959            4 
 1770000   0.98003036   -6.4436459    658.11802  0.030984841  0.031125252            4 
 1771000    0.9689286   -6.4225716    659.46528   0.03103074  0.031117505            6 
 1772000   0.95374517   -6.4200308    658.45786  0.030965851  0.031109753            4 
 1773000   0.96099475   -6.4486022    656.47461  0.030855171  0.031102014            9 
 1774000    0.9674476   -6.4061544    660.55605  0.031029503  0.031094318           15 
 1775000   0.98134553   -6.4315947    659.15957  0.030946459   0.03108672            9 
 1776000   0.93340556   -6.3763508    660.47547  0.030990779  0.031079051            7 
 1777000   0.97306661   -6.3710568    660.04931  0.030953353  0.031071531            4 
 1778000   0.96584281   -6.4237378    658.77573  0.030876253  0.031063843            7 
 1779000   0.96196762   -6.3918615    660.23865  0.030927424  0.031056056            7 
 1780000   0.98527962   -6.4255182    659.52058  0.030876432  0.031048372            8 
 1781000   0.96807203   -6.4154269    660.84475  0.030921053  0.031040654            6 
 1782000   0.96848897   -6.3908713    659.27936  0.030830498  0.031032955           10 
 1783000    0.9487794   -6.4039272     660.6177  0.030875757  0.031025142            7 
 1784000   0.95607338   -6.4282259    660.81706  0.030867762  0.031017356            4 
 1785000    0.9704677   -6.3872509    659.49529  0.030788763  0.031009602            4 
 1786000    0.9613229   -6.3965483    661.35363  0.030858232  0.031001882            7 
 1787000   0.96807804   -6.4339347    660.57089  0.030804462  0.030994082            5 
 1788000   0.98891055    -6.429391    661.49483  0.030830296  0.030986279           10 
 1789000   0.95850437   -6.3907474    661.62753  0.030819244  0.030978408            8 
 1790000   0.94925802   -6.4367891    662.02231  0.030820405  0.030970644            5 
 1791000   0.95569932    -6.385795    661.95135  0.030799895   0.03096274            9 
 1792000   0.95974365   -6.4285062    661.55366  0.030764214  0.030954822            5 
 1793000     0.973172   -6.4335271     660.2755  0.030687651  0.030946878            5 
 1794000   0.96224833   -6.3869097    661.61565  0.030732797   0.03093895            4 
 1795000   0.96953783    -6.416814    662.17706  0.030741739  0.030931021            6 
 1796000   0.96232615   -6.3893921    662.54583  0.030741733  0.030923245            4 
 1797000   0.96506783    -6.400784    662.62251  0.030728182  0.030915427            3 
 1798000   0.97629961   -6.4143198    661.38003  0.030653505  0.030907554            9 
 1799000   0.96905766   -6.4189875    663.01422  0.030712165  0.030899653            4 
 1800000   0.96139644   -6.4287107    662.58264  0.030675122   0.03089181           11 
 1801000   0.97336068   -6.4355824    663.35652  0.030693898  0.030883879            6 
 1802000   0.93962873   -6.4218498     663.7419  0.030694687  0.030875916           14 
 1803000   0.94559722   -6.4302014    663.39921  0.030661824   0.03086795            5 
 1804000   0.94150956   -6.4205055    663.79729  0.030663216   0.03086009           10 
 1805000   0.94030458   -6.4504406    664.16645  0.030663271  0.030852196            5 
 1806000   0.97359562   -6.4206882      666.585   0.03075789   0.03084422           12 
 1807000   0.96052343   -6.4081782    664.96252  0.030666045  0.030836254           10 
 1808000     0.995692   -6.4284658    664.14183  0.030611257  0.030828252            8 
 1809000   0.98650929   -6.4127224    663.34912  0.030557818  0.030820224            5 
 1810000   0.95678683   -6.4072886    664.65223  0.030600931  0.030812218            6 
 1811000   0.95251877   -6.3833401    665.10938   0.03060507  0.030804355            6 
 1812000   0.95813684   -6.4238792    664.67858  0.030568367  0.030796438            5 
 1813000   0.95902894   -6.4049441     665.2073  0.030575809  0.030788572            7 
 1814000   0.96715948    -6.393343    666.35235  0.030611556  0.030780636           13 
 1815000   0.94485983   -6.3682688    668.04362  0.030672342  0.030772755            6 
 1816000   0.94755039   -6.4014012    666.45966  0.030582767  0.030764835            4 
 1817000   0.96257258    -6.419263    666.10028  0.030549453  0.030756902            4 
 1818000   0.94536886   -6.4112061    667.02068  0.030574839  0.030749108           15 
 1819000   0.97243175   -6.4135962    666.20117  0.030520486  0.030741234            5 
 1820000   0.97372042   -6.4228492    667.74597  0.030574449  0.030733377            6 
 1821000   0.97676407   -6.4114022    666.00555  0.030478014  0.030725415            9 
 1822000   0.97479987   -6.3972059    667.27799  0.030519484  0.030717431            5 
 1823000   0.99455015   -6.4069889    667.18056  0.030498288  0.030709425            3 
 1824000   0.93024479    -6.416593    666.68059  0.030458726  0.030701371            6 
 1825000   0.96936393   -6.4103117    668.26684  0.030514468  0.030693288           16 
 1826000   0.95682691    -6.401358    666.06053  0.030397067   0.03068527           10 
 1827000   0.95603872   -6.3954571    667.47286  0.030444848  0.030677264           14 
 1828000   0.97118944   -6.4422654    668.02844  0.030453521  0.030669246            6 
 1829000   0.96009401   -6.4137499    668.24113  0.030446561  0.030661325            7 
 1830000    0.9546514   -6.4171091    668.37206  0.030435886  0.030653461            7 
 1831000   0.96849557   -6.3907729    669.64627  0.030477256  0.030645566            8 
 1832000   0.96305289   -6.4156147    669.63803  0.030460245  0.030637718           11 
 1833000   0.96109409    -6.428465    667.16972  0.030331411  0.030629849           13 
 1834000   0.95718856   -6.4143012    669.42184  0.030417204  0.030621956            8 
 1835000   0.96512511   -6.4264431    671.08087   0.03047597  0.030614045            6 
 1836000   0.96092927   -6.4044412    670.61599  0.030438271  0.030606109            7 
 1837000   0.95338882    -6.423837    670.35818  0.030410006  0.030598137            3 
 1838000   0.96145113   -6.4275486    668.35741  0.030302748   0.03059017            6 
 1839000   0.95838093   -6.4122334    672.21011  0.030460853  0.030582192            5 
 1840000    0.9845513   -6.4396922    669.56594  0.030324544  0.030574193            6 
 1841000    0.9697524   -6.3980707    670.32422  0.030342396  0.030566226            5 
 1842000   0.96412254   -6.4350534    671.19699  0.030365409  0.030558325            8 
 1843000   0.93505859   -6.4339323    672.22013  0.030395195  0.030550425            5 
 1844000    0.9572778   -6.3970108    670.34458  0.030293952    0.0305425           10 
 1845000   0.95398478   -6.4290158     672.0682  0.030355384  0.030534619           10 
 1846000    0.9565327   -6.4476201    672.05501  0.030338345  0.030526812            7 
 1847000    0.9679634    -6.402645    673.46588  0.030385575  0.030519053            9 
 1848000   0.93578664   -6.4620786    672.56685  0.030328592   0.03051125           13 
 1849000   0.94233777    -6.408338    675.43113   0.03044128  0.030503445           14 
 1850000   0.94561748   -6.4451377    676.58507  0.030476805  0.030495723           11 
 1851000   0.94951469    -6.408753    674.24229  0.030354866  0.030488036            4 
 1852000   0.96286039   -6.4383181     676.2872  0.030430489  0.030480318            8 
 1853000   0.96041904    -6.376038     675.6518  0.030385492  0.030472677            8 
 1854000   0.93180822   -6.4366759    675.24214   0.03035069  0.030464988           11 
 1855000   0.93681831   -6.4239934    675.83764   0.03036108  0.030457245            4 
 1856000   0.94110598   -6.4280397    676.51122  0.030374965  0.030449607           13 
 1857000   0.92793931   -6.4127681    676.10306  0.030340292  0.030441932            6 
 1858000   0.94210195    -6.423174     677.9844  0.030408342  0.030434205            4 
 1859000   0.94893061   -6.4408143    678.05083  0.030394963  0.030426535            8 
 1860000   0.95000237   -6.4282269    676.24344  0.030297645    0.0304189           11 
 1861000   0.93635706   -6.4427982    677.51076  0.030338114  0.030411271            5 
 1862000   0.95991942   -6.4042729    678.12118   0.03034914  0.030403673            8 
 1863000   0.95621903   -6.4376851    676.78067  0.030272887  0.030395964            5 
 1864000   0.96224289   -6.4486943    676.83259  0.030258968  0.030388286            6 
 1865000   0.96226786   -6.3905493    677.99255  0.030294573  0.030380649            6 
 1866000   0.95745836   -6.4086005    680.74093  0.030401078  0.030373037            4 
 1867000   0.95741305   -6.4213544    679.91771   0.03034805   0.03036555            9 
 1868000   0.96863593   -6.4070055     677.9246  0.030242889  0.030357974            8 
 1869000   0.93974474   -6.4621807    678.39387  0.030247631  0.030350406            9 
 1870000   0.95920033   -6.4386138    677.33843  0.030184422  0.030342818            7 
 1871000   0.95847858   -6.4304859    677.04218  0.030155095  0.030335222            7 
 1872000   0.97312292   -6.4464326    679.32154  0.030240453  0.030327639            4 
 1873000   0.96456793   -6.4553592    678.88419  0.030204849  0.030320075            9 
 1874000   0.95603579   -6.4257952      679.795  0.030229233  0.030312456            8 
 1875000   0.93622414   -6.4429435    680.88696  0.030261642  0.030304833            7 
 1876000   0.94319172   -6.4421406    682.13298  0.030300861  0.030297308            7 
 1877000   0.95740286   -6.4267546    679.84666  0.030183212  0.030289789           13 
 1878000   0.94311131   -6.4532151    681.38566   0.03023543   0.03028214           11 
 1879000   0.94736957   -6.4094036    680.66441  0.030187352  0.030274486           10 
 1880000   0.93949628   -6.4826186    678.56691  0.030078321   0.03026677            7 
 1881000   0.95950467   -6.4186817    679.20002  0.030090378   0.03025902            7 
 1882000   0.95585929   -6.4354957    680.46999  0.030130623  0.030251226            6 
 1883000   0.95005762   -6.4438891    679.38606  0.030066652  0.030243505            7 
 1884000   0.95765143   -6.4159266    681.35253  0.030137674  0.030235742           13 
 1885000   0.92691774   -6.4277532    681.68548  0.030136405  0.030227934           11 
 1886000   0.97083027   -6.4294617    680.52144  0.030068993  0.030220107            6 
 1887000    0.9586974   -6.4290536    680.05889  0.030032631  0.030212265            9 
 1888000   0.94504136   -6.3981153    680.85993   0.03005208  0.030204423            6 
 1889000   0.95941274   -6.4339365    681.18032  0.030050305  0.030196615            4 
 1890000   0.96976463   -6.4232327    680.10907  0.029987172  0.030188791            7 
 1891000   0.95167801   -6.4221679     681.8532  0.030048175   0.03018099            7 
 1892000   0.97795234   -6.4190365    682.64412   0.03006713  0.030173222            5 
 1893000   0.93800547   -6.4319313    682.04886  0.030025042  0.030165423            6 
 1894000   0.93561212   -6.4403085    680.95019   0.02996085  0.030157736            8 
 1895000   0.95497701   -6.4584287    682.61301  0.030018162  0.030149983            8 
 1896000   0.93983288   -6.4456434    685.52068  0.030130128  0.030142327            4 
 1897000   0.93598921    -6.415882    683.22765  0.030013515  0.030134689            7 
 1898000   0.95274671   -6.4425338    683.57242  0.030012839   0.03012706           10 
 1899000    0.9300711   -6.4078358    683.96992  0.030014478  0.030119447            7 
 1900000   0.93458154   -6.4190259    685.65657  0.030072657  0.030111843            3 
 1901000   0.92164754   -6.4274727    684.86416  0.030022101  0.030104177            6 
 1902000   0.95614011   -6.4543545    686.41811    0.0300744  0.030096583            9 
 1903000   0.96260279   -6.4516358    683.66476  0.029938026  0.030088924            5 
 1904000   0.92398191   -6.4435032    684.93918   0.02997808  0.030081216            7 
 1905000   0.94429958    -6.431918     686.3071  0.030022183  0.030073557            8 
 1906000   0.94970358   -6.4172448    687.41239  0.030054757  0.030065942            5 
 1907000   0.95484738   -6.4684396    685.18452  0.029941641  0.030058393            6 
 1908000   0.93747168   -6.4662624     683.7035  0.029861264  0.030050818            8 
 1909000   0.94696005   -6.4032875    687.80164  0.030024517  0.030043267            9 
 1910000   0.95750231   -6.4333102    686.77772  0.029964124  0.030035733            5 
 1911000   0.94775598   -6.4991364    686.28229   0.02992684  0.030028094            6 
 1912000   0.93663905   -6.4595666     687.0599  0.029945079  0.030020502            6 
 1913000   0.94348107   -6.4782444    686.80045  0.029918124  0.030012877           10 
 1914000   0.94259193   -6.4565556    689.77639  0.030032062  0.030005286            8 
 1915000   0.94239926   -6.4599567     688.3663  0.029955017  0.029997765           11 
 1916000   0.93589716   -6.4199346    688.42185  0.029941799  0.029990265            9 
 1917000   0.95288067   -6.4495627      687.602  0.029890541  0.029982748            4 
 1918000   0.95720315   -6.4446129    690.54536   0.03000284  0.029975282            5 
 1919000   0.95654188   -6.4246898    690.17201  0.029970992  0.029967854            8 
 1920000   0.97134314   -6.4608108    688.84152  0.029897635  0.029960343           11 
 1921000   0.94272221   -6.4199221    687.83611  0.029838457   0.02995287           15 
 1922000   0.94118042   -6.4702642    688.98721  0.029872841  0.029945369            6 
 1923000   0.94925192   -6.4801161    690.64063  0.029928958  0.029937863            7 
 1924000   0.95126414   -6.4638257    689.71707  0.029873401  0.029930383            6 
 1925000   0.95149241   -6.4229762    690.87121  0.029907845  0.029922972            6 
 1926000    0.9324312   -6.4828876    691.96189  0.029939507  0.029915678            8 
 1927000   0.93311319   -6.4783621    689.81547  0.029831148  0.029908268           11 
 1928000   0.94667979   -6.4459092    691.20042  0.029875537   0.02990085            9 
 1929000    0.9577571   -6.4204652       694.29   0.02999352  0.029893522            5 
 1930000   0.94396348   -6.4352732    692.86449  0.029916429  0.029886254            9 
 1931000   0.94683707   -6.4142464    693.90267  0.029945739  0.029879041           10 
 1932000    0.9333319   -6.4611806    692.56214  0.029872418  0.029871799           10 
 1933000   0.95663268   -6.4384428    694.82766  0.029954633  0.029864571            3 
 1934000   0.94811718   -6.4407099    696.15795  0.029996465  0.029857339            6 
 1935000   0.94953803    -6.459289    694.41909  0.029906076   0.02985011           20 
 1936000   0.93194445   -6.4793338    694.43215  0.029891191  0.029842887           14 
 1937000   0.93580023   -6.4546638    696.86716  0.029980518  0.029835742            7 
 1938000   0.95147988    -6.452012    695.64446  0.029912472  0.029828655            5 
 1939000   0.93910025   -6.4465454    695.15324  0.029875934  0.029821504            6 
 1940000   0.95928178   -6.4461328     696.4368   0.02991567  0.029814386            9 
 1941000   0.93003205   -6.4401069    697.57931  0.029949309  0.029807416            3 
 1942000   0.94898848   -6.4383905    696.98829  0.029908526  0.029800369            6 
 1943000   0.94139106   -6.4399732    697.24045  0.029903948  0.029793327            3 
 1944000   0.94292493   -6.4410414    697.08168  0.029881759  0.029786275            7 
 1945000   0.93659462   -6.4669131     695.5314  0.029799974  0.029779115            8 
 1946000   0.94939471   -6.4364006    698.18634  0.029898353  0.029771967            8 
 1947000   0.94843173   -6.4408267    696.20841   0.02979834  0.029764772            8 
 1948000   0.96014455   -6.4729473    697.00913  0.029817297  0.029757515            4 
 1949000   0.95105493   -6.4688558    695.78079  0.029749478  0.029750212            7 
 1950000   0.93363893    -6.433517    697.08909  0.029790132  0.029743043            6 
 1951000   0.94484936   -6.4701026    695.65707  0.029713697  0.029735801           10 
 1952000   0.95962634   -6.4765755    696.23948  0.029723338  0.029728514            6 
 1953000   0.92702113   -6.4458771    698.40257  0.029800417  0.029721296            5 
 1954000   0.93699978   -6.3999427    698.95114  0.029808561  0.029714119           10 
 1955000   0.94407201   -6.4243141    698.66981  0.029781322  0.029707019           11 
 1956000   0.94130239   -6.4289959    698.39553  0.029754411  0.029699812           13 
 1957000   0.93591197   -6.4394943    698.39512  0.029739189  0.029692584           24 
 1958000   0.95786463   -6.4488634    700.70458  0.029822292  0.029685498            4 
 1959000    0.9488938   -6.4718077     699.3476  0.029749345  0.029678401            8 
 1960000   0.94274488   -6.4456258    700.64935  0.029789513  0.029671278            4 
 1961000   0.95283356   -6.4440482    698.02022  0.029662596  0.029664099           15 
 1962000   0.90985215   -6.4436395    699.71475  0.029719451  0.029657002            6 
 1963000   0.93477503   -6.4501544    701.02166  0.029759792  0.029649873            8 
 1964000   0.93718649   -6.4657178    700.87274   0.02973832  0.029642663            6 
 1965000   0.96168039   -6.4650275    699.73273   0.02967484   0.02963556            2 
 1966000   0.94408718   -6.4783313    700.11572   0.02967598  0.029628346            5 
 1967000   0.92886119   -6.4707602    700.21992  0.029665308  0.029621102            5 
 1968000   0.92651883   -6.4604936    700.19465  0.029649164  0.029613883            6 
 1969000   0.91998265    -6.464259    701.94026  0.029707985  0.029606715            5 
 1970000   0.93015092   -6.4058732     700.1359  0.029616578  0.029599564            7 
 1971000   0.92906622   -6.4463166     701.7347  0.029669149  0.029592424            6 
 1972000   0.95836404   -6.4713162    700.54871  0.029603985  0.029585295            4 
 1973000   0.94224899     -6.45634    702.89006  0.029687872  0.029578035            4 
 1974000   0.93388759   -6.4735864    702.72211  0.029665743  0.029570749            7 
 1975000   0.96228015   -6.4653356    700.09044  0.029539681  0.029563484            7 
 1976000   0.93809515   -6.4693529    702.09417  0.029609235  0.029556305            2 
 1977000   0.94704552   -6.4466878    702.81335  0.029624572  0.029549084            4 
 1978000   0.93950194   -6.4700501    699.61128  0.029474691  0.029541861            8 
 1979000   0.93904905   -6.4887935    700.68226  0.029504896    0.0295346            6 
 1980000   0.93154797   -6.4565478      701.941  0.029542971  0.029527379            8 
 1981000   0.92942025   -6.4384249    704.69055  0.029643722  0.029520191            8 
 1982000    0.9294744   -6.4543315     704.8931  0.029637281  0.029513096            5 
 1983000   0.94617739   -6.4702067    704.23927  0.029594859  0.029506021           14 
 1984000   0.94824864   -6.4733852    705.24006  0.029621978  0.029498972            9 
 1985000   0.96444681   -6.4461939    702.54229  0.029493799  0.029491773           11 
 1986000   0.94152737   -6.4515124    704.38008  0.029556063  0.029484618            4 
 1987000   0.91508004   -6.4409499    705.95124  0.029607081    0.0294775            5 
 1988000   0.91086941   -6.4839964    704.18479  0.029518142  0.029470377            5 
 1989000   0.90824261   -6.4779719    706.75842  0.029611129  0.029463287            4 
 1990000   0.93893174    -6.465328    705.86809  0.029558965  0.029456136            6 
 1991000   0.92929617   -6.4586673    706.68416  0.029578276  0.029448938            6 
 1992000    0.9461167   -6.4660081    705.18947  0.029500898  0.029441764           11 
 1993000   0.92149596     -6.49937    703.48554  0.029414849  0.029434494           10 
 1994000   0.93462469   -6.4527466    705.35501  0.029478227  0.029427221            9 
 1995000   0.92054991   -6.4518556    704.61385  0.029432492      0.02942            8 
 1996000   0.91957588   -6.4953964    705.73197  0.029464428  0.029412673            8 
 1997000   0.93628752    -6.488672    705.30312  0.029431778  0.029405315           13 
 1998000   0.94026381   -6.4637627    705.25763   0.02941515  0.029397887            7 
 1999000   0.92621946   -6.4787424    704.04974  0.029350081  0.029390496            9 
 2000000   0.92900756   -6.4481603    704.61196  0.029358831  0.029382957           12 
 2001000   0.92072545   -6.4657848    703.96959  0.029317407  0.029375425            5 
 2002000   0.93922937   -6.4815727    704.37509  0.029319642  0.029367879            6 
 2003000   0.92136032   -6.4663016    705.84684  0.029366236   0.02936044            4 
 2004000   0.93687614   -6.4710403     707.0699  0.029402441  0.029352992            9 
 2005000   0.90414324   -6.4982838    704.83555  0.029294911  0.029345574           23 
 2006000   0.93391813   -6.4872989     706.4008  0.029345331  0.029338118           10 
 2007000   0.90442105   -6.4603002    707.28464  0.029367407  0.029330723            5 
 2008000   0.92566661   -6.4758773    705.35787   0.02927282  0.029323324           24 
 2009000   0.92543737    -6.458066     706.8024  0.029318168  0.029315909            5 
 2010000   0.91939648   -6.4682369    706.55538  0.029293341  0.029308516            7 
 2011000   0.91793545   -6.4595181    707.38407  0.029313114  0.029301168            6 
 2012000   0.92306647   -6.4666401     706.8816  0.029277733  0.029293733            9 
 2013000   0.95488296   -6.4608736    707.70239  0.029297168  0.029286304            6 
 2014000   0.93888782   -6.4877074    705.91557  0.029208688  0.029278938            9 
 2015000   0.92503998   -6.4466944    708.71859  0.029310115  0.029271724            5 
 2016000   0.92430589   -6.5071647    708.32494  0.029279305  0.029264417           11 
 2017000   0.92484039   -6.4989832    706.24326  0.029178783  0.029256928            9 
 2018000   0.94307869   -6.4814175    707.82796  0.029229764  0.029249575            8 
 2019000   0.92722406   -6.4667768    709.01252  0.029264179  0.029242213            7 
 2020000   0.94281285   -6.4586937    708.53531  0.029230005   0.02923483            9 
 2021000   0.92874346   -6.4832135    708.51931  0.029214882  0.029227477           13 
 2022000   0.92202192   -6.4361334    707.97749  0.029178103  0.029220154           11 
 2023000   0.91609195    -6.443058    709.08728  0.029209395  0.029212885            4 
 2024000   0.94724573    -6.470407    709.57934  0.029215223  0.029205549            9 
 2025000   0.94268145   -6.4699099    710.16424  0.029224866  0.029198206            5 
 2026000   0.92042794   -6.4635665    710.14355   0.02920959  0.029190872            7 
 2027000   0.91595215   -6.4877797    707.10163  0.029070121   0.02918352           10 
 2028000   0.91428199   -6.4986213    709.64578   0.02916033  0.029176115            5 
 2029000    0.9201973   -6.4513213    710.10836  0.029164956  0.029168696           11 
 2030000   0.91929036   -6.4823613    711.35805   0.02920189   0.02916126            5 
 2031000   0.92983396    -6.466035    710.11699  0.029136591  0.029153864            9 
 2032000   0.93296824   -6.5101538    708.66723  0.029062796   0.02914643            8 
 2033000   0.93626688   -6.4731908    711.17679  0.029151369  0.029139002            9 
 2034000   0.92721752   -6.4677698    710.99491  0.029129585  0.029131635           14 
 2035000   0.93388405   -6.4944667    710.97715  0.029114543  0.029124338            7 
 2036000    0.9444167   -6.4983768    711.23202  0.029110675  0.029117032            8 
 2037000   0.92112593   -6.5080747    709.18115  0.029012484   0.02910958            7 
 2038000   0.93845644   -6.4755951    712.29657  0.029125636    0.0291022            5 
 2039000   0.94274313    -6.466717    712.65741    0.0291261  0.029094869            7 
 2040000   0.92513026   -6.5161049    712.19914  0.029093102  0.029087577            5 
 2041000   0.92307652   -6.5018433    713.65262  0.029138193  0.029080303            5 
 2042000   0.90401731   -6.4875946    711.63604  0.029041628  0.029073045           10 
 2043000   0.92913044   -6.4624477    715.10076  0.029168737  0.029065858            9 
 2044000   0.93662744   -6.5142083    714.86783   0.02914497  0.029058644            8 
 2045000   0.91737408    -6.489128    714.39565  0.029111477  0.029051405            4 
 2046000   0.93470317   -6.4947764    715.19747  0.029129907  0.029044149            9 
 2047000   0.92387196   -6.4939421    714.09102  0.029070633  0.029036935            6 
 2048000   0.93808256   -6.4794462    715.67628  0.029120942  0.029029705           12 
 2049000   0.91025448   -6.4982817    714.56517  0.029061541  0.029022549           10 
 2050000   0.92778244   -6.4922207    715.86525  0.029100213   0.02901535            8 
 2051000   0.90832324    -6.460748    713.91942  0.029006965  0.029008162            4 
 2052000   0.92074782   -6.4991668    714.85769  0.029030933  0.029000945            4 
 2053000   0.93029493   -6.5061986    713.89143  0.028977571  0.028993677           11 
 2054000    0.9293329   -6.4869345    716.55271  0.029071434  0.028986474            6 
 2055000    0.9298288   -6.5001772    716.18201  0.029042255  0.028979334           12 
 2056000   0.92500091   -6.5040746    714.80214  0.028972201   0.02897208            9 
 2057000   0.90828652   -6.4965578    716.52749  0.029028014  0.028964874           10 
 2058000   0.93899391   -6.5056519    714.92281  0.028948931  0.028957621            6 
 2059000   0.93712583   -6.4596584    716.21868  0.028987319  0.028950374            4 
 2060000    0.9047203   -6.4716184     715.5477  0.028946104  0.028943097           15 
 2061000   0.91823122   -6.5143953    714.53958  0.028891298  0.028935848            6 
 2062000   0.89283584   -6.5078923    714.73573  0.028885214   0.02892855            8 
 2063000   0.89307303   -6.4833027     716.2449  0.028932174  0.028921275            7 
 2064000   0.95076283   -6.4794627    716.67862  0.028935668  0.028913996            5 
 2065000    0.9235909   -6.4893718    717.45915  0.028953154  0.028906708            5 
 2066000   0.90455843   -6.4878001    718.62684  0.028986239  0.028899485           11 
 2067000   0.89809483   -6.5173424    717.92114  0.028943765  0.028892152            5 
 2068000   0.92928804   -6.4973965    718.10525  0.028937188   0.02888484            8 
 2069000   0.91079919   -6.4988179    718.80878  0.028951538  0.028877572           11 
 2070000   0.91347078   -6.4986876    720.15511  0.028991752  0.028870379            5 
 2071000   0.92180312   -6.4795192    717.49404  0.028870676  0.028863168           10 
 2072000   0.91512181   -6.5165256    717.84384  0.028870811  0.028855885            8 
 2073000   0.93447971   -6.4718241     720.1615  0.028950052  0.028848566           11 
 2074000   0.92730539   -6.4906831    718.02226  0.028850139  0.028841404            5 
 2075000   0.92682847   -6.4902608    719.59999  0.028899598  0.028834189           11 
 2076000   0.93128412   -6.4955916    715.34707  0.028714959  0.028826927           22 
 2077000   0.93189797   -6.4725456    718.46072   0.02882606  0.028819731           23 
 2078000   0.91196107   -6.4960766    718.84241  0.028827495  0.028812492            7 
 2079000   0.91872344   -6.4945452    718.56345  0.028802447  0.028805198            6 
 2080000   0.94504866   -6.4886275    721.86496  0.028920872  0.028797963           18 
 2081000   0.90997048   -6.4827961    720.00995  0.028832691  0.028790825            5 
 2082000   0.92514818   -6.4717911    720.28561  0.028829875  0.028783723            9 
 2083000   0.92794253   -6.4707262    719.34338   0.02877834  0.028776492            7 
 2084000   0.92993407   -6.4937813     719.5876  0.028774296  0.028769329           17 
 2085000   0.91048406   -6.4956626    721.19279  0.028824652  0.028762081            3 
 2086000   0.91012047   -6.5140543    719.28398  0.028734579   0.02875481           14 
 2087000   0.92682432   -6.4899403    720.57633  0.028772414  0.028747493            7 
 2088000   0.91953533   -6.5355924    720.24171  0.028745279  0.028740145           11 
 2089000   0.91557607   -6.5373177    717.63208  0.028627417  0.028732781           10 
 2090000   0.93014739   -6.5218167    719.55359  0.028690334  0.028725425            6 
 2091000   0.93818373   -6.4711351    720.08957  0.028697974  0.028718041            6 
 2092000   0.92201063   -6.5182282    722.30375  0.028772456  0.028710737           11 
 2093000   0.91806858   -6.5262853    719.27883  0.028638272  0.028703351           11 
 2094000   0.93744567   -6.5028165    723.19081  0.028780277  0.028695977           13 
 2095000   0.91193745    -6.501198    722.69837  0.028746952  0.028688673            8 
 2096000   0.93613125   -6.4821979    723.06759  0.028747916  0.028681452            7 
 2097000   0.90294341   -6.5357891    720.75998  0.028642504  0.028674184           27 
 2098000   0.91521122   -6.5125142    723.42064  0.028734534  0.028666821            4 
 2099000   0.91839752   -6.4708709    722.89014  0.028699783  0.028659492            7 
 2100000   0.92787223   -6.4700661    723.42438  0.028707317  0.028652187            7 
 2101000   0.93520483   -6.4869783    723.76624  0.028707213  0.028644912            8 
 2102000   0.90358635   -6.5311497    721.99098  0.028623176  0.028637663            7 
 2103000   0.91433564   -6.4842889    722.31975  0.028622593  0.028630439            8 
 2104000   0.91153409   -6.4993532    724.39714  0.028691268  0.028623245           12 
 2105000   0.90094904   -6.5132967    725.36745  0.028716051  0.028615942            7 
 2106000   0.90860054   -6.4853241     723.9517  0.028646395  0.028608726            4 
 2107000   0.91615368   -6.5496889    722.97146   0.02859403  0.028601496            9 
 2108000   0.93269988    -6.489123    725.19906  0.028668527   0.02859424           10 
 2109000   0.91718458    -6.495535    723.64342  0.028593465  0.028586982            7 
 2110000   0.90815117   -6.5254619    723.90859  0.028590387  0.028579726           11 
 2111000   0.89359793     -6.51325    725.08748  0.028623381   0.02857244            7 
 2112000    0.9128469   -6.4971422    722.96436  0.028526056  0.028565247           12 
 2113000   0.91596087    -6.499365    723.69577  0.028541401  0.028558041            4 
 2114000   0.91074919   -6.5029095    725.49945  0.028599001  0.028550875           11 
 2115000    0.9013265   -6.5235679     725.6917  0.028593054  0.028543689            4 
 2116000   0.92583466   -6.4720178    726.77443  0.028622182   0.02853651            9 
 2117000   0.91260453   -6.4840715    726.12365  0.028583044    0.0285293            8 
 2118000   0.92573995   -6.5102492    726.43547  0.028581817  0.028522095            9 
 2119000   0.92497263   -6.5254363    726.37947  0.028566127  0.028514858            8 
 2120000   0.90457938   -6.4855183    726.49264  0.028557101    0.0285077            6 
 2121000   0.90504236   -6.5201281    727.27985  0.028574566  0.028500526            9 
 2122000   0.90564226   -6.5117214    726.99273  0.028549824  0.028493343            5 
 2123000     0.911309   -6.4881954      728.019  0.028576661  0.028486231            7 
 2124000    0.9156563   -6.4900523    727.50125  0.028542893  0.028479095            7 
 2125000   0.91784148   -6.5180019     726.6474  0.028495977  0.028471944            5 
 2126000   0.90723199   -6.5019657    729.34193  0.028588191  0.028464829            5 
 2127000   0.90565696   -6.4787745    729.45782  0.028579291  0.028457748           10 
 2128000   0.89777198   -6.5025883    728.53439  0.028529699   0.02845051           15 
 2129000   0.93697704   -6.5030575    728.11309  0.028499808   0.02844331            4 
 2130000   0.90957618   -6.5175781    726.21371  0.028412117  0.028436109           12 
 2131000     0.907868    -6.496058    727.62062  0.028453802  0.028428968           12 
 2132000   0.90688965   -6.4924634    729.17125  0.028501065  0.028421843           12 
 2133000    0.9181063   -6.5040559    729.12243  0.028485796  0.028414747            5 
 2134000   0.92522799   -6.5144925    728.89667  0.028463631  0.028407614           11 
 2135000   0.90572638   -6.5366329     729.1326  0.028459508  0.028400523           12 
 2136000   0.89926264   -6.5314244    728.55132  0.028423506  0.028393361            7 
 2137000    0.9200234   -6.5027451    731.71491  0.028533572  0.028386258           12 
 2138000    0.9216014   -6.5106808    729.67735  0.028440807  0.028379088           22 
 2139000    0.9174868   -6.4995564    730.83738  0.028472705  0.028371999            5 
 2140000   0.91214156   -6.5122394     732.2026  0.028512562  0.028364917            8 
 2141000   0.88412305   -6.4897366    732.40154  0.028506988  0.028357909            8 
 2142000    0.8921031   -6.5056722    732.02012  0.028478841  0.028350879           10 
 2143000    0.9082206   -6.5292825    730.46824  0.028405204  0.028343798           14 
 2144000   0.89538999     -6.54316    731.58241  0.028435262  0.028336673            9 
 2145000   0.90328155   -6.4844677    732.79077   0.02846895  0.028329609            7 
 2146000   0.90163698   -6.5157775    733.16091  0.028470057  0.028322595            5 
 2147000    0.8975098   -6.4865719    733.28719  0.028461698  0.028315603            6 
 2148000   0.89967189   -6.5393917    731.66426  0.028385485  0.028308636            5 
 2149000   0.90440866   -6.4978084    732.84887  0.028418213   0.02830164           18 
 2150000   0.91277098   -6.5362148    733.00883  0.028411195   0.02829458            6 
 2151000   0.91500568   -6.5116761    732.07331  0.028361743  0.028287503           12 
 2152000   0.90047863   -6.5171457    733.26131  0.028394568  0.028280502            9 
 2153000    0.8993493    -6.513614    734.00792  0.028410277  0.028273457           11 
 2154000   0.90369439   -6.5347175    733.46156   0.02837595  0.028266407            8 
 2155000   0.90171066   -6.4932458    734.46367  0.028401534  0.028259376            8 
 2156000   0.90624627   -6.5208065    732.80598  0.028324288  0.028252375            8 
 2157000   0.90049854   -6.5212078    734.00024  0.028357296  0.028245274           12 
 2158000    0.9137484   -6.4921847    734.35093  0.028357697   0.02823823            6 
 2159000   0.90674592   -6.5347525    734.07729  0.028334001  0.028231189            6 
 2160000   0.91139004   -6.5029614    735.74196  0.028385106  0.028224222            8 
 2161000   0.92028186   -6.5396565    732.62132  0.028251632  0.028217221           13 
 2162000   0.88589385   -6.5138127    736.45471  0.028386321  0.028210187           10 
 2163000   0.91106583   -6.5261396    734.26473  0.028288825  0.028203243           10 
 2164000   0.91008125   -6.5184135      734.522  0.028285659  0.028196194            8 
 2165000   0.90457828   -6.5059029    735.62796  0.028315164  0.028189204            4 
 2166000     0.897225   -6.5235548    735.89906  0.028312522  0.028182242            4 
 2167000   0.89391418   -6.5310871    736.80051  0.028334122  0.028175251           11 
 2168000   0.90628578   -6.5325086    736.24284  0.028299617  0.028168336            7 
 2169000   0.89531032    -6.517487    736.59245  0.028300002  0.028161362            3 
 2170000    0.9197249   -6.5462077    736.20143  0.028271944   0.02815436            6 
 2171000   0.92278062   -6.4798542    735.53244  0.028233243  0.028147376           13 
 2172000   0.90806464   -6.5318579    736.86044  0.028271196  0.028140421           15 
 2173000   0.91728057   -6.5262198    737.61076   0.02828696   0.02813341            8 
 2174000   0.88096203   -6.5169001    739.82408  0.028358789  0.028126424           11 
 2175000   0.89816925   -6.5466543    736.83796  0.028231339   0.02811947           10 
 2176000    0.9082518   -6.4975752    739.32259  0.028313518  0.028112574           12 
 2177000   0.89793016   -6.5465888    737.87343   0.02824504   0.02810567           16 
 2178000   0.92800689   -6.5697027    738.17551   0.02824363  0.028098701           16 
 2179000   0.93399532   -6.5372848    740.67267  0.028326169  0.028091736            7 
 2180000   0.89786262   -6.5262465     737.7982  0.028203295  0.028084788            9 
 2181000   0.90532207   -6.5100684    738.08275  0.028201236  0.028077738           14 
 2182000   0.89857166   -6.4928421    740.60033  0.028284461   0.02807074            7 
 2183000     0.913049   -6.5187535    738.68021  0.028198206  0.028063787           10 
 2184000   0.89875041   -6.5262382    738.73702  0.028187463  0.028056814            8 
 2185000   0.89944256   -6.5067671    739.74719  0.028213089  0.028049798            7 
 2186000   0.90554066   -6.5091508    739.62087  0.028195367  0.028042852           13 
 2187000   0.89921217   -6.5147282    738.55804  0.028141977  0.028035833           10 
 2188000   0.88958202   -6.5169793    740.34291  0.028197094  0.028028865            5 
 2189000   0.90827798   -6.4918106    738.41543  0.028110836  0.028021855           13 
 2190000   0.90060346   -6.5248194    738.35587  0.028095733  0.028014837           15 
 2191000   0.91393965   -6.5346897    740.82106  0.028176672  0.028007786            6 
 2192000   0.88878549    -6.517559    740.34738   0.02814581  0.028000789            6 
 2193000   0.88048976   -6.5099594    739.30067  0.028093201  0.027993761            9 
 2194000   0.87327629   -6.4982013    741.92667  0.028180138  0.027986846           11 
 2195000   0.88257795   -6.5178006      740.694  0.028120501  0.027979972            9 
 2196000   0.90005659   -6.5038254    741.62027  0.028142846  0.027973062            5 
 2197000   0.91626866   -6.5031191    740.81292  0.028099413  0.027966239           16 
 2198000   0.89717738   -6.5532057    739.06673  0.028020425  0.027959323            5 
 2199000   0.90011533    -6.538304     740.6077  0.028066079  0.027952302            7 
 2200000   0.90278202    -6.536821    741.43701  0.028084735  0.027945206            9 
 2201000   0.89458111   -6.5260088    742.66004  0.028118281  0.027938256           14 
 2202000   0.91387564   -6.5370256    740.05809  0.028007042  0.027931221           21 
 2203000   0.86985679   -6.5149502    742.75184  0.028096226  0.027924197            9 
 2204000   0.90483384   -6.5500802    739.18909  0.027948771  0.027917185           15 
 2205000   0.89588997   -6.5289993    740.39867  0.027981809  0.027910144            8 
 2206000   0.89439077   -6.5573508    741.91315  0.028026335  0.027903097            8 
 2207000   0.90724778   -6.5328876    743.76806  0.028083675  0.027896065            6 
 2208000   0.89851895   -6.5085731    742.67437  0.028029679  0.027889135            8 
 2209000   0.89510318   -6.5203076    745.57321  0.028126347  0.027882211            6 
 2210000   0.90463202   -6.5121327    742.73831  0.028006724  0.027875323            5 
 2211000   0.90526161   -6.5241325      744.115  0.028045944  0.027868416           11 
 2212000   0.91254493   -6.5328099    743.43759  0.028007745  0.027861529            5 
 2213000   0.89282611   -6.5062666      745.522   0.02807358  0.027854612            6 
 2214000    0.9063741   -6.5107687    743.56677  0.027987307   0.02784767            4 
 2215000   0.90405678   -6.5145792    746.04211  0.028067799  0.027840697           14 
 2216000    0.8987683   -6.5150337      743.254  0.027950286  0.027833728           10 
 2217000   0.89259622   -6.5303532    743.27023  0.027938289  0.027826753           14 
 2218000   0.89917091   -6.5275429    743.14572  0.027921014  0.027819733            7 
 2219000   0.88519836   -6.5148482    744.63014  0.027964178  0.027812699           10 
 2220000   0.87393101   -6.5082432    741.68875  0.027841169  0.027805692            5 
 2221000   0.90136905   -6.5805914    743.87465   0.02791065  0.027798599            7 
 2222000   0.91473504   -6.5559526    744.03821  0.027904223  0.027791537           12 
 2223000    0.8785301   -6.5559555    741.93115  0.027812684  0.027784514           11 
 2224000    0.9087891    -6.579458    743.39158    0.0278549  0.027777416            6 
 2225000   0.89775843   -6.5617025    743.65319  0.027852179  0.027770366            5 
 2226000   0.90036433   -6.5221808    744.68077  0.027878136  0.027763332            4 
 2227000   0.88225967   -6.5573994    745.12356  0.027882187  0.027756265            6 
 2228000   0.89292503   -6.5208984    743.64885  0.027814514  0.027749188            6 
 2229000   0.88934681   -6.5401549    744.30453  0.027826549  0.027742151            6 
 2230000   0.89547405   -6.5499724    745.22744  0.027848559  0.027735148           21 
 2231000   0.89096602   -6.5564153    745.44867   0.02784434  0.027728087            7 
 2232000   0.89970516   -6.5495885    745.46818  0.027832593  0.027720998           14 
 2233000   0.90506797   -6.5369765    745.75477  0.027830824   0.02771394            8 
 2234000   0.89159058   -6.5108513    747.44352  0.027881361  0.027706916           25 
 2235000   0.90135592   -6.5418116    746.00633  0.027815299  0.027699932            9 
 2236000   0.89705189   -6.5501418     746.6743  0.027827754  0.027692932           11 
 2237000   0.89143669   -6.5360879    748.67647    0.0278899  0.027685929           12 
 2238000   0.90111741   -6.5255384    747.11104  0.027819148  0.027678947            5 
 2239000   0.91138333   -6.5403284    747.82097  0.027833146  0.027671949           11 
 2240000   0.90210349   -6.5415214     745.0201  0.027716522  0.027664919           10 
 2241000   0.89590931   -6.5480289    747.21969  0.027785947  0.027657876           14 
 2242000   0.90185929   -6.5360822    745.90611  0.027724729   0.02765078            3 
 2243000   0.90779812   -6.5643394    745.53691  0.027698652  0.027643721            9 
 2244000   0.89417931   -6.5527039    747.98039  0.027777049  0.027636718            9 
 2245000   0.88422383   -6.5389974     749.8773  0.027835089  0.027629711            7 
 2246000   0.91247936   -6.5692871    747.97908  0.027752266  0.027622696            6 
 2247000   0.91229941    -6.539371    747.58599  0.027725337  0.027615676           10 
 2248000   0.88509574   -6.5254494    747.01631  0.027691886  0.027608676           10 
 2249000   0.88834427    -6.522161     750.0152  0.027790692  0.027601715           13 
 2250000   0.89046829   -6.5379183    749.63959  0.027764429  0.027594818           10 
 2251000    0.8847686   -6.5642998    748.65862  0.027715779  0.027587898            8 
 2252000   0.88764396   -6.5388057    750.12487  0.027757729  0.027580943           11 
 2253000   0.90199683   -6.5528644    748.39928  0.027681583  0.027574009           11 
 2254000   0.87381204   -6.5410907    750.29288  0.027739311  0.027567096           10 
 2255000   0.90094782   -6.5604975    748.93596  0.027676865  0.027560131           14 
 2256000   0.88546603    -6.555987    750.26418  0.027713659  0.027553254            7 
 2257000   0.88996309   -6.5767393    750.64706  0.027715517  0.027546341            8 
 2258000   0.89626009   -6.5564794    750.90061    0.0277126  0.027539522           17 
 2259000   0.90238375   -6.5819276    749.37335  0.027643992  0.027532643            8 
 2260000   0.89137217   -6.5581876    749.48671  0.027635941   0.02752569            7 
 2261000   0.91422562     -6.54883    750.52104   0.02766184  0.027518724           10 
 2262000   0.88588559   -6.5385021    751.69685  0.027692929  0.027511775            5 
 2263000   0.87884619    -6.553934    753.17991  0.027735304  0.027504824            7 
 2264000   0.90251524   -6.5422634    752.07818  0.027682501   0.02749793           12 
 2265000   0.89893903   -6.5325429    751.89551  0.027663558  0.027490974           12 
 2266000   0.89184901   -6.5489315    751.72186  0.027644964  0.027484047            6 
 2267000   0.87931279    -6.548797    752.06589  0.027645416  0.027477077           12 
 2268000   0.89719862   -6.5819927    752.97951  0.027666796  0.027470119            8 
 2269000   0.89896134   -6.5676621    750.27078  0.027555119  0.027463168            9 
 2270000   0.88331794   -6.5355053    751.46507  0.027586823  0.027456207            3 
 2271000   0.89194448   -6.5541311    751.27013  0.027567523  0.027449226            5 
 2272000   0.89222592   -6.5569251    752.53911  0.027601933  0.027442231            6 
 2273000   0.88494303   -6.5475117    753.69144  0.027632037  0.027435299            4 
 2274000   0.90029149   -6.5473877      754.786  0.027659997  0.027428409            7 
 2275000   0.88990017   -6.5708555    753.83658  0.027613062  0.027421495            5 
 2276000    0.8865623   -6.5711075    752.63104   0.02755679  0.027414592           10 
 2277000   0.87622859   -6.5645005    754.56614  0.027615508  0.027407709            6 
 2278000   0.86940948   -6.5478283    754.00952  0.027583023  0.027400839            8 
 2279000   0.88616734   -6.5635595    753.76302  0.027561906  0.027393901           10 
 2280000   0.88854515   -6.5592146     754.1004  0.027562149  0.027386948            6 
 2281000   0.89894697   -6.5702648    752.80648  0.027502794  0.027380082            6 
 2282000   0.90295619   -6.5474323    753.49009  0.027515706  0.027373157            9 
 2283000   0.88216147   -6.5390975    753.87269  0.027517619  0.027366279           16 
 2284000   0.88462862   -6.5698117    754.36339  0.027523475  0.027359349            8 
 2285000   0.88675991   -6.5667896    752.96576  0.027460458  0.027352339           11 
 2286000    0.8678337   -6.5423012    753.31441  0.027461155  0.027345375           15 
 2287000   0.88691409   -6.5272215    755.38946  0.027524758  0.027338427            7 
 2288000   0.87196206   -6.5406562    752.96769  0.027424522  0.027331537           10 
 2289000   0.89195607   -6.5553718    754.49575  0.027468172    0.0273246           10 
 2290000   0.89736039   -6.5792167     754.3689  0.027451561  0.027317613            5 
 2291000   0.86937166   -6.5485685    754.81252  0.027455715  0.027310673           11 
 2292000   0.89029083   -6.5420339    753.77667  0.027406074  0.027303712           13 
 2293000    0.8933809   -6.5708015    754.32771  0.027414149  0.027296737            7 
 2294000   0.87596089   -6.5247249    756.21336  0.027470697  0.027289853           10 
 2295000    0.9112739     -6.53913    756.81691  0.027480643  0.027282996            9 
 2296000   0.88843031   -6.5333494    756.59415  0.027460589  0.027276083            9 
 2297000   0.86339381   -6.5279804    755.12841  0.027395458  0.027269163            5 
 2298000    0.8936033   -6.5665361    756.05619  0.027417181  0.027262178            6 
 2299000   0.88785223   -6.5484265    755.80228  0.027396052  0.027255202           10 
 2300000   0.89279282   -6.5729126    756.01991  0.027392026  0.027248321           15 
 2301000   0.89316913   -6.5446912    757.89198  0.027447921  0.027241441           15 
 2302000   0.89161124    -6.577441     755.9457  0.027365541  0.027234553           10 
 2303000   0.89561585   -6.5672796    755.87933  0.027351257  0.027227636           15 
 2304000   0.88481222   -6.5573083    756.46947   0.02736073  0.027220667           16 
 2305000    0.8861853    -6.568036    755.66004  0.027319596  0.027213716           21 
 2306000   0.88146659   -6.6149808    755.91139  0.027316832   0.02720674            7 
 2307000    0.8696488   -6.5851281    754.43209  0.027251557  0.027199758           16 
 2308000   0.87634313   -6.5645301     757.0839  0.027335496  0.027192745            9 
 2309000   0.88436775   -6.5705188    757.25195  0.027329722  0.027185745            9 
 2310000   0.88081481   -6.5746233    757.40737  0.027323498  0.027178748           13 
 2311000   0.88081154   -6.5530345    758.40193  0.027347538  0.027171752           11 
 2312000   0.87836298   -6.5622647    757.57191  0.027305793   0.02716478            8 
 2313000   0.88203191   -6.5781424    758.73806  0.027336002  0.027157847           27 
 2314000   0.88505428   -6.5112103    760.21827  0.027377494  0.027150949           10 
 2315000   0.87245253   -6.5782189    758.94345  0.027319779  0.027144066            6 
 2316000   0.89035944   -6.6021255    756.66498     0.027226  0.027137172           36 
 2317000   0.89621704   -6.5954024    759.78438  0.027326441  0.027130228           20 
 2318000   0.88470885    -6.564759    758.19402  0.027257478  0.027123322           11 
 2319000   0.89602053   -6.5980682    758.92292  0.027271918  0.027116414            9 
 2320000   0.88457383   -6.5690811    760.47425  0.027315885  0.027109476            9 
 2321000   0.88631558   -6.5803032     758.2815  0.027225388    0.0271026            7 
 2322000   0.87362194   -6.5716487    759.15201  0.027244904  0.027095685           20 
 2323000   0.87439397   -6.5599443    758.37517  0.027205308  0.027088765            6 
 2324000   0.88680782   -6.5757914    759.21975  0.027223886  0.027081904           15 
 2325000    0.8780148   -6.5761608    761.14877  0.027281318  0.027075025            7 
 2326000   0.88287697   -6.5598135    760.34646  0.027240845  0.027068093           13 
 2327000   0.86386653   -6.5851926    759.62087  0.027203154   0.02706117           13 
 2328000   0.89924739   -6.5744816    760.79463  0.027233485  0.027054209            9 
 2329000   0.88847293   -6.5631174    758.42056  0.027136845  0.027047325           30 
 2330000   0.86509811   -6.5667722    759.59324   0.02716714  0.027040387           16 
 2331000   0.88783285   -6.5792912    761.45015   0.02722187   0.02703349           13 
 2332000   0.88583233   -6.5702703    761.21251  0.027201705  0.027026646            8 
 2333000    0.8821427   -6.5738153    762.02567  0.027219091  0.027019744           10 
 2334000   0.86800711   -6.5810859    759.71465  0.027124916  0.027012852           14 
 2335000    0.8546042   -6.5634908    759.55405  0.027107568  0.027005998           15 
 2336000   0.88761876   -6.5487564    760.59672  0.027133159  0.026999127            4 
 2337000   0.88411053   -6.5621269    762.39067  0.027185518  0.026992261           10 
 2338000   0.87373004   -6.5744906    763.70824  0.027220853  0.026985391            9 
 2339000   0.86872274   -6.5741144    763.97748  0.027218807  0.026978526           15 
 2340000   0.86524762   -6.5938117    762.33457  0.027148667  0.026971679           17 
 2341000   0.87962789   -6.5901187    760.68651  0.027078403  0.026964821            9 
 2342000   0.90106369   -6.5519529     762.3331  0.027125431  0.026958025           13 
 2343000   0.87728881   -6.5680447    760.79611  0.027059187  0.026951116           13 
 2344000   0.86222912   -6.5933985    760.36668  0.027032376  0.026944206            7 
 2345000   0.87420679   -6.5803679     762.4455  0.027094723  0.026937373            7 
 2346000   0.89119201   -6.5852835    766.29159  0.027219792  0.026930564            8 
 2347000   0.86774842   -6.5800036    763.87774  0.027122488  0.026923729            8 
 2348000   0.86584529   -6.5616429    766.77874  0.027213896   0.02691693            7 
 2349000   0.86785189   -6.5939223    762.27832  0.027042654  0.026910079           10 
 2350000   0.85788179   -6.5834607    763.80737  0.027085368   0.02690326            6 
 2351000   0.88366679   -6.5408881    763.81647  0.027074169  0.026896441            9 
 2352000   0.87064773   -6.5337056    765.30941  0.027115555  0.026889627            9 
 2353000   0.88403665   -6.5433549    764.16092  0.027063356   0.02688282            9 
 2354000   0.86942435   -6.5976104    765.18955  0.027088274  0.026876048            4 
 2355000   0.87065413   -6.5626579    764.65733  0.027057938  0.026869203            7 
 2356000   0.88316893   -6.5519862    765.80136  0.027086919  0.026862341           15 
 2357000    0.8611051   -6.5792387    765.69446  0.027071647  0.026855508           10 
 2358000   0.89102718   -6.5733144    764.66481  0.027023778  0.026848672           10 
 2359000   0.88081447   -6.5733377    765.77166  0.027051422  0.026841821            7 
 2360000   0.85352955   -6.5935403    765.09191  0.027015957  0.026834928           16 
 2361000   0.86083056   -6.5642686    764.28877  0.026976167  0.026828021            9 
 2362000    0.8684824    -6.566195    765.09974  0.026993358  0.026821165           12 
 2363000   0.84761488   -6.6121396    764.02874  0.026944165  0.026814289            9 
 2364000   0.86608053   -6.5874403    765.86299  0.026997426  0.026807395            6 
 2365000   0.87519068   -6.5888433    764.76477  0.026947314  0.026800537            5 
 2366000    0.8834711   -6.5708944    767.35102  0.027027015  0.026793709            6 
 2367000   0.88319322   -6.5700915    765.04888  0.026934547   0.02678684           13 
 2368000   0.88116439   -6.5791013     763.3927   0.02686489  0.026779958           12 
 2369000   0.87451457   -6.5849662    766.65394  0.026968269  0.026773064           10 
 2370000   0.85950875   -6.6095617    764.90776  0.026895491  0.026766146            9 
 2371000   0.86645867   -6.5837638    765.65015   0.02691024  0.026759133           12 
 2372000   0.87830811   -6.5948401    765.14213  0.026881047  0.026752193           11 
 2373000   0.87831272   -6.6059964    762.61026  0.026780807   0.02674521            9 
 2374000   0.86947011   -6.6213872    766.95213  0.026921937   0.02673823            9 
 2375000   0.87534619    -6.603194    766.01505  0.026877721  0.026731271            7 
 2376000   0.88738822   -6.5831022     767.3188  0.026912135  0.026724337            5 
 2377000   0.87311756    -6.575033    766.67068  0.026878091   0.02671743            5 
 2378000   0.86228882   -6.5529884      766.348  0.026855481  0.026710484           11 
 2379000   0.89269366   -6.6102248    765.53604   0.02681575  0.026703539            4 
 2380000   0.86901622   -6.5764098    766.50752  0.026838498  0.026696541           11 
 2381000   0.87896199   -6.5870901    765.91734  0.026806571  0.026689536           12 
 2382000   0.89744462   -6.5589736    767.51933  0.026851362  0.026682596            9 
 2383000   0.86651455   -6.5502797    768.22186  0.026864661  0.026675672           10 
 2384000   0.86956684   -6.5611021    764.71476  0.026730801  0.026668729            9 
 2385000   0.87480217   -6.5910685    765.29371  0.026739822   0.02666175           13 
 2386000   0.85934904   -6.5994754    764.21795  0.026691043  0.026654673            7 
 2387000   0.89566399   -6.5892448    765.90431  0.026738734  0.026647576            6 
 2388000    0.8869813   -6.6013434    765.89394  0.026727175  0.026640499            7 
 2389000   0.86903117   -6.5775112    766.99092  0.026754253  0.026633437           10 
 2390000    0.8621991   -6.5882014    766.36887  0.026721369  0.026626348           10 
 2391000   0.90133034   -6.6256722    766.72963  0.026722767  0.026619298           11 
 2392000    0.8592131   -6.5911728     766.5717  0.026706093  0.026612307           17 
 2393000   0.88138849   -6.5735386    769.24249   0.02678794  0.026605311            9 
 2394000   0.86373302   -6.5894774    766.37249  0.026676848  0.026598282            8 
 2395000   0.86169839   -6.5994163    766.60064  0.026673648  0.026591322           15 
 2396000   0.87097951   -6.5915324    767.43933  0.026691685  0.026584268           13 
 2397000   0.86164367   -6.5659967    768.39668  0.026713833  0.026577302            8 
 2398000   0.86455821   -6.6058704    767.59849  0.026674954  0.026570336           10 
 2399000   0.87200068   -6.5895014    768.88733  0.026708605  0.026563334           10 
 2400000   0.88214134   -6.6203811     768.8148  0.026694958  0.026556335            6 
 2401000   0.87215696   -6.5961393    767.77101  0.026647612  0.026549346           17 
 2402000   0.85174365   -6.6047818    768.20955  0.026651733  0.026542326           15 
 2403000   0.87200531   -6.5956596    768.53203  0.026651825  0.026535324            4 
 2404000   0.87908583   -6.6029814    768.54372  0.026641144  0.026528334           12 
 2405000   0.87773431    -6.564358    770.81593  0.026708799  0.026521418            5 
 2406000   0.86558062   -6.5955914    768.35046  0.026612305  0.026514456           12 
 2407000   0.86713896   -6.5846455    770.04988  0.026660084  0.026507528            7 
 2408000   0.86630533   -6.6371609    768.78037  0.026605079  0.026500545           10 
 2409000   0.87740164   -6.6246131    769.92796  0.026633733  0.026493576           14 
 2410000   0.87756651   -6.6039011    770.41955   0.02663968  0.026486618           20 
 2411000   0.87391314   -6.6135707    770.48072  0.026630745  0.026479711           12 
 2412000   0.86243269   -6.5997079    771.62064  0.026659088  0.026472882            8 
 2413000    0.8543721    -6.602084    770.79396   0.02661949  0.026466039           19 
 2414000   0.84522823   -6.5919155    771.38499  0.026628866  0.026459155           11 
 2415000   0.87296183    -6.582357    771.58438   0.02662472  0.026452261            7 
 2416000   0.86177501   -6.5953027     773.1786  0.026668688  0.026445382           19 
 2417000   0.84479027   -6.5868548    771.01692  0.026583124  0.026438523           10 
 2418000   0.88062122   -6.5966232    771.93075  0.026603624  0.026431643           19 
 2419000   0.85503301   -6.5923018    770.52856  0.026544321  0.026424771            7 
 2420000   0.85481208   -6.6079955    773.65834  0.026641127  0.026417954           11 
 2421000   0.85518736   -6.5854066    771.50987  0.026556171  0.026411114            6 
 2422000    0.8714015   -6.6199505    771.95505  0.026560523  0.026404332            7 
 2423000   0.87297916   -6.5733394    772.91153  0.026582457  0.026397556            8 
 2424000   0.86431256   -6.5650653    773.96738   0.02660779  0.026390782           10 
 2425000   0.86365678   -6.5994724    772.86621  0.026558976  0.026383988            8 
 2426000   0.85556184   -6.5778649    774.93886  0.026619224  0.026377134            5 
 2427000   0.86469563   -6.5935629    772.14596  0.026512359  0.026370373            8 
 2428000   0.86427133   -6.5869694    773.33272  0.026542172  0.026363589           19 
 2429000   0.87376148   -6.5841216    773.72008  0.026544534  0.026356766            9 
 2430000   0.88072897   -6.6191743    773.28788  0.026518789  0.026349976           25 
 2431000   0.86586925   -6.6040852    774.42999  0.026547031   0.02634322            7 
 2432000   0.85416989   -6.6044453    774.48105  0.026537865  0.026336452            4 
 2433000    0.8705311   -6.5991072     775.0723  0.026547208  0.026329633           38 
 2434000   0.86533954   -6.6092645    774.16042  0.026505081  0.026322813           23 
 2435000   0.84983083   -6.6135902    776.43953  0.026572195  0.026315982            5 
 2436000    0.8760726   -6.6185471    773.96799  0.026476737  0.026309179           13 
 2437000   0.85905329   -6.6132392    773.99839  0.026466912    0.0263024           12 
 2438000   0.85659119   -6.5678382     775.3186  0.026501183   0.02629563            8 
 2439000   0.85944609   -6.5698067    776.75716  0.026539468  0.026288874            9 
 2440000   0.85427433   -6.6049158    775.16976  0.026474377  0.026282111           10 
 2441000   0.84835396   -6.5878002    775.34169  0.026469401  0.026275318           26 
 2442000   0.86872077   -6.5960345    774.05393  0.026414617  0.026268479           16 
 2443000   0.86936412   -6.5907085    775.55059  0.026454857  0.026261686            8 
 2444000   0.85016298   -6.6098424    774.30103  0.026401426  0.026254855            8 
 2445000    0.8586798   -6.6087983      776.738  0.026473688  0.026248036           14 
 2446000    0.8701335   -6.6313353    774.52719  0.026387544  0.026241242           11 
 2447000   0.86278527   -6.5937807    775.93605  0.026424739  0.026234442           12 
 2448000   0.85556252   -6.5877849    776.57156  0.026435579  0.026227669           11 
 2449000   0.86581934   -6.5887207     777.1415  0.026444178  0.026220859            9 
 2450000   0.86051933   -6.6025922    779.05555  0.026498488  0.026214078           15 
 2451000   0.85656353   -6.6056919    776.07485  0.026386334  0.026207296           10 
 2452000   0.85849554   -6.5969015    777.88199   0.02643699  0.026200487            6 
 2453000   0.85275446   -6.6142631    777.01901  0.026396895  0.026193668            7 
 2454000   0.86196222   -6.6013171    777.79235    0.0264124  0.026186853           25 
 2455000   0.85644108   -6.6274587    776.88202  0.026370741  0.026180075           13 
 2456000    0.8631825   -6.6045067    777.36782  0.026376487  0.026173244            5 
 2457000   0.85633166   -6.5939029    777.55776  0.026372194  0.026166454            9 
 2458000   0.85524978   -6.6285518    778.48816  0.026393008  0.026159599           14 
 2459000   0.85208304     -6.60261     777.7935  0.026358733  0.026152763           20 
 2460000   0.84619638   -6.5966022    777.84876   0.02634989  0.026145961            6 
 2461000   0.85034779   -6.6122947    776.65911    0.0262989  0.026139172           10 
 2462000   0.86181583   -6.6230207    776.28074  0.026275411  0.026132333           11 
 2463000    0.8501864   -6.6046329    777.38559  0.026302124  0.026125526           13 
 2464000   0.84601799   -6.6350827    778.98375    0.0263455  0.026118715            7 
 2465000   0.84034267   -6.6100432    778.79061  0.026328283  0.026111847            8 
 2466000   0.85830929   -6.6092719    776.74336  0.026248424  0.026105001           13 
 2467000   0.85093203    -6.622032    778.56447    0.0262993  0.026098136           10 
 2468000   0.83942756   -6.6125989    777.09328  0.026238968  0.026091265           26 
 2469000   0.85960369   -6.5985854    776.13494  0.026195995  0.026084413            6 
 2470000   0.84915449   -6.6139365    776.87128  0.026210232  0.026077554            7 
 2471000   0.86487395   -6.5874316    777.71466  0.026228068  0.026070678            6 
 2472000   0.86445292   -6.6024721    779.50844  0.026277927  0.026063825           11 
 2473000   0.86839778   -6.5898377    777.96994  0.026215458  0.026056942            6 
 2474000   0.85221329     -6.62332     777.1474  0.026177156   0.02605007           11 
 2475000   0.88130295   -6.6309044    779.41165  0.026242817  0.026043135           15 
 2476000   0.86039477   -6.6321101    778.60241  0.026204981  0.026036277           13 
 2477000   0.85188483   -6.6211622    779.46073  0.026223279    0.0260294           26 
 2478000   0.85721545   -6.6308923    778.87911  0.026193137   0.02602252           41 
 2479000   0.85112147   -6.6242233    777.95763  0.026151594  0.026015585           21 
 2480000   0.86637067   -6.5910933    779.76042  0.026201627  0.026008694           14 
 2481000   0.84940092   -6.6234311    777.80395  0.026125351  0.026001815           73 
 2482000   0.85081656   -6.6209092    779.47163  0.026170817  0.025994967           19 
 2483000   0.84347356   -6.6192767    779.83068  0.026172328  0.025988138            5 
 2484000   0.86427673   -6.6470976    780.25867   0.02617615  0.025981278           11 
 2485000   0.84164287   -6.5990294    781.65072  0.026212298  0.025974479           10 
 2486000   0.85221637   -6.6273538     780.8553  0.026175091  0.025967627           11 
 2487000   0.85644925   -6.6170737    781.39457  0.026182635  0.025960802           16 
 2488000   0.86117118   -6.6472294    779.62285   0.02611277  0.025954027           35 
 2489000   0.86754137   -6.6083502    780.81657  0.026142245  0.025947268           15 
 2490000   0.84856593   -6.6077541    783.36921  0.026217176  0.025940521            7 
 2491000   0.84314964   -6.6009587    782.00459  0.026160999  0.025933795            6 
 2492000   0.84258765   -6.6378489    780.46072  0.026098874  0.025927032            7 
 2493000   0.85515633   -6.6399298    781.49701  0.026123045  0.025920218            8 
 2494000   0.84870774   -6.6133223    783.25341  0.026171258  0.025913455           10 
 2495000   0.84883961   -6.6251666    781.39573  0.026098722  0.025906684           11 
 2496000   0.85235183   -6.6145004    780.91513   0.02607222  0.025899852            5 
 2497000   0.84635317   -6.6275058     781.1303   0.02606896  0.025892993            6 
 2498000    0.8295609   -6.6201956    782.37497  0.026100046  0.025886214            5 
 2499000   0.84948138   -6.6028478    784.70737  0.026167379  0.025879486           22 
 2500000   0.85867779   -6.6323008    781.81685  0.026060562  0.025872812           20 
 2501000   0.87685753   -6.6336338    782.01998   0.02605691  0.025866018           24 
 2502000   0.84929604   -6.6382211    781.47822  0.026028451  0.025859198           12 
 2503000   0.85623342   -6.6182553    784.89131  0.026131686    0.0258524           12 
 2504000   0.87063356   -6.6247738    782.78364  0.026051106  0.025845622            6 
 2505000   0.87260497   -6.6383405    783.36587  0.026060075  0.025838815            6 
 2506000   0.85082332   -6.6031147    782.57232  0.026023288  0.025832049            6 
 2507000   0.82911956    -6.646902    784.11097  0.026064053  0.025825255           10 
 2508000    0.8445221   -6.6294586    781.84161  0.025978257  0.025818455            6 
 2509000   0.85469282   -6.6192118    781.88463  0.025969331  0.025811623            7 
 2510000   0.84595518    -6.633712    779.88716  0.025892668  0.025804753           13 
 2511000   0.85690901   -6.6012302    782.20968  0.025959434  0.025797896           16 
 2512000   0.85530469   -6.6226215    782.91831  0.025972608  0.025791022           12 
 2513000   0.85211731   -6.6137932    782.57217  0.025950795  0.025784191            9 
 2514000   0.83848809    -6.586739    783.33095  0.025965624   0.02577738            8 
 2515000   0.86137015   -6.6357843    783.01548  0.025944847  0.025770557            9 
 2516000   0.83279258   -6.6096891    784.89882  0.025996914   0.02576374            8 
 2517000   0.84513636   -6.6040638    784.50104  0.025973416  0.025756891           10 
 2518000   0.85640809   -6.6456596    781.62947  0.025868066  0.025750032           11 
 2519000   0.85860205   -6.6230795    782.73055  0.025894222  0.025743178            9 
 2520000    0.8685522    -6.608224    783.73682  0.025917223  0.025736381           19 
 2521000   0.83810757   -6.6181296     784.8175  0.025942665  0.025729601            7 
 2522000   0.85607187   -6.6370211    782.90956  0.025869335  0.025722864            9 
 2523000   0.87545788   -6.6192984    786.06413  0.025963275  0.025716129           16 
 2524000   0.86265725   -6.6315264     784.1625  0.025890204  0.025709385            9 
 2525000   0.84558123   -6.6298605    783.79201  0.025867723  0.025702669           19 
 2526000    0.8428744   -6.6401139    783.62725  0.025852047  0.025695913            7 
 2527000   0.85990237   -6.6330557    784.50315  0.025870701  0.025689155           30 
 2528000   0.84143681    -6.617148    783.11436  0.025814687  0.025682381           10 
 2529000   0.83422613   -6.6440647    784.64767  0.025855004  0.025675551           14 
 2530000   0.83850512   -6.6138708    786.43298  0.025903589  0.025668782            9 
 2531000   0.83058272   -6.6343126    784.80575  0.025839778  0.025662005           17 
 2532000   0.84363749    -6.638721    784.38664  0.025815779  0.025655237           11 
 2533000   0.81885946   -6.6321227    785.54964  0.025843849  0.025648454           18 
 2534000   0.82607127   -6.6531536    784.54691  0.025800674   0.02564167           19 
 2535000   0.85015527   -6.6144416    785.46311  0.025820615  0.025634958            8 
 2536000   0.86037979   -6.5998325    785.83819  0.025822759  0.025628211            7 
 2537000   0.83942189   -6.6546963    786.09771  0.025821105  0.025621473           10 
 2538000    0.8424365   -6.6421142    786.58638  0.025826976  0.025614714           16 
 2539000   0.84924073   -6.5970865    786.34445  0.025808863  0.025607951            8 
 2540000   0.83616173    -6.588712    786.50159  0.025803858  0.025601187            7 
 2541000   0.83185774   -6.6319181    786.69313  0.025799985  0.025594419           11 
 2542000   0.83616387   -6.6108398    786.68774  0.025789659  0.025587696            8 
 2543000   0.84902025   -6.6454542    786.35495  0.025768611  0.025580933           10 
 2544000    0.8588499   -6.6295765    787.49541   0.02579584  0.025574149            9 
 2545000   0.83967674   -6.6494335     786.6348  0.025757525  0.025567376           14 
 2546000   0.83207206   -6.6369767    785.74005  0.025718122  0.025560576           18 
 2547000   0.85365816   -6.6512256    785.16108  0.025689081  0.025553777           20 
 2548000   0.84792992   -6.6432579    786.62152  0.025726763  0.025547006           18 
 2549000   0.83744393   -6.6285884    787.19952  0.025735567  0.025540237            7 
 2550000   0.83648137   -6.6275534    787.82785  0.025746008  0.025533514           22 
 2551000   0.83737955   -6.6267338    788.77208  0.025766761  0.025526812           33 
 2552000   0.85334435   -6.6180569    788.92206  0.025761562  0.025520169           11 
 2553000   0.86719144    -6.680719    785.43548  0.025637664  0.025513385            9 
 2554000   0.86216354   -6.6480072    787.62106  0.025698938  0.025506587            6 
 2555000    0.8325634   -6.6089022    790.94937  0.025797435  0.025499821           11 
 2556000   0.83665748   -6.6342538    788.46113  0.025706218  0.025493084           15 
 2557000   0.83920154   -6.6381159    788.47558  0.025696636  0.025486283           22 
 2558000   0.82334877   -6.6784574    788.66135  0.025692642  0.025479448           22 
 2559000   0.82386329   -6.6136431    785.08732  0.025566215  0.025472653           12 
 2560000   0.83522892   -6.6427222    789.15687    0.0256887   0.02546585           16 
 2561000   0.83536671   -6.6454922    787.22091  0.025615674  0.025459096           13 
 2562000   0.85013129   -6.6603188    790.17492   0.02570176  0.025452294           15 
 2563000   0.83907304   -6.6364039    788.14826  0.025625838  0.025445503           10 
 2564000    0.8407398   -6.6395371    790.31132  0.025686145  0.025438718           17 
 2565000   0.83667884   -6.6327652    791.08339  0.025701215  0.025431965            9 
 2566000   0.85237788   -6.6436819    789.38274  0.025635968  0.025425212            9 
 2567000   0.83770525   -6.6787069     788.5178  0.025597903  0.025418418            9 
 2568000   0.82157854   -6.6556225     788.6881  0.025593461  0.025411671           23 
 2569000   0.81743816   -6.6287365    792.86505  0.025718991  0.025404955            8 
 2570000   0.86026689    -6.629149    789.74167  0.025607706  0.025398229           16 
 2571000   0.83744394    -6.610605    790.00443  0.025606263  0.025391478           11 
 2572000   0.82891773   -6.6505721    789.72337  0.025587201  0.025384716            9 
 2573000   0.84484319   -6.6577496    789.38231   0.02556621  0.025377969            6 
 2574000   0.83140985    -6.651466    790.39457   0.02558905   0.02537125           17 
 2575000   0.84392011   -6.6469393    789.70004  0.025556636  0.025364445            9 
 2576000   0.82107516   -6.6686394    790.09078  0.025559355  0.025357641           12 
 2577000    0.8427219   -6.6270907    790.34925  0.025557795   0.02535084           14 
 2578000   0.84002893   -6.6255165    789.64818  0.025525219   0.02534407            9 
 2579000   0.85861744   -6.6598948    790.45541  0.025541405   0.02533731           22 
 2580000   0.84624605   -6.6629635    788.85727  0.025479886  0.025330533           12 
 2581000   0.82046637   -6.6249889    790.38553  0.025519357  0.025323799            7 
 2582000   0.83108895   -6.6715257     791.4204  0.025542874  0.025317037           23 
 2583000   0.84958413   -6.6443747    790.17695  0.025492869  0.025310247           12 
 2584000   0.83075108   -6.6533759     790.3174  0.025487532  0.025303452           14 
 2585000   0.82617812   -6.6472325    792.06385  0.025533973  0.025296691           40 
 2586000   0.83883867   -6.6387334    790.32064  0.025467925  0.025289904            8 
 2587000   0.83666207   -6.6364246    792.14669  0.025516901  0.025283112           13 
 2588000   0.83598886   -6.6496756    792.62272   0.02552237  0.025276387           17 
 2589000   0.84168354   -6.6430891     790.1155  0.025431811  0.025269654           13 
 2590000   0.85290167   -6.6842282    790.49849  0.025434314  0.025262928           22 
 2591000   0.83739602   -6.6604432    791.72385  0.025463909  0.025256165           24 
 2592000   0.83610539   -6.6793751    790.26828  0.025407288   0.02524943           26 
 2593000   0.85210887    -6.637446    792.33609  0.025463944  0.025242755           15 
 2594000   0.82764149   -6.6376852    792.52223  0.025460108  0.025236041           12 
 2595000   0.81380089    -6.636717     793.1616  0.025470829  0.025229319           16 
 2596000   0.83679443   -6.6359381    794.14102  0.025492457   0.02522259           21 
 2597000   0.83860459   -6.6478847    792.17849  0.025419667  0.025215827           13 
 2598000   0.84011865   -6.6519025    791.71448  0.025394999   0.02520904            8 
 2599000    0.8367026   -6.6608084    793.14976  0.025431248  0.025202252            7 
 2600000   0.82302463   -6.6520811    794.38671  0.025461112  0.025195481           17 
 2601000   0.83501544   -6.6282722    793.58283  0.025425568  0.025188745           10 
 2602000    0.8417432   -6.6444761    792.32592  0.025375542  0.025182025           23 
 2603000    0.8355388   -6.6573725      792.018  0.025355935  0.025175305           14 
 2604000   0.81740605   -6.6545916     794.1505  0.025414443  0.025168592           57 
 2605000   0.82535935   -6.6842082    792.06214   0.02533788  0.025161823           15 
 2606000   0.84104365   -6.6734494    793.67433  0.025379711  0.025155056           19 
 2607000   0.84344135   -6.6427065    795.14991  0.025417143  0.025148289           10 
 2608000   0.83638487   -6.6870493    793.08589  0.025341446  0.025141542           12 
 2609000   0.83186285   -6.6533557    790.83901  0.025259966  0.025134753            7 
 2610000   0.83086956   -6.6257862    794.81093  0.025377105  0.025127974           11 
 2611000   0.83400742    -6.634191    791.77138  0.025270375   0.02512123           10 
 2612000   0.82278599   -6.6541257    795.36731  0.025375425  0.025114427           27 
 2613000   0.83610393   -6.6375158    793.19351  0.025296387  0.025107643           40 
 2614000   0.81558181   -6.6590654    793.37202    0.0252924  0.025100865           11 
 2615000   0.84279823   -6.6738443    792.88302  0.025267145  0.025094092           23 
 2616000   0.83073866   -6.6789086     793.1504  0.025266004  0.025087253           16 
 2617000   0.86281187   -6.6594986    792.81916  0.025245802  0.025080452           23 
 2618000   0.83968905   -6.6890069    792.72712  0.025233229  0.025073644            8 
 2619000   0.82724092   -6.6439601    794.09868  0.025267236  0.025066774           10 
 2620000   0.84145283   -6.6468745    792.28052  0.025199762  0.025059951           16 
 2621000    0.8443417   -6.6478294    793.80608  0.025238652  0.025053133           11 
 2622000   0.82721024     -6.65427    792.70707  0.025194097  0.025046368           17 
 2623000   0.81139631    -6.702876    793.79836  0.025219163  0.025039588           21 
 2624000   0.84353785   -6.6811093    794.70438  0.025238325  0.025032792           22 
 2625000   0.83699525   -6.6814207    795.01497  0.025238571  0.025026024           10 
 2626000   0.82614121   -6.6658405    794.11384  0.025200363  0.025019214           12 
 2627000   0.84159196    -6.653958    794.86445  0.025214581  0.025012423           10 
 2628000   0.82435702   -6.6285398    794.82829   0.02520384  0.025005703            6 
 2629000   0.83508717   -6.6624017    795.53766  0.025216738  0.024998989           10 
 2630000   0.83154239    -6.666028    794.98637  0.025189682  0.024992244           52 
 2631000    0.8567417   -6.6509731    795.82558  0.025206689  0.024985467           23 
 2632000   0.81889607    -6.646921    796.53008  0.025219418  0.024978729           11 
 2633000   0.81536782   -6.6816708    797.11371  0.025228311  0.024971998           22 
 2634000   0.82898116   -6.6725235    796.70299  0.025205739  0.024965256            9 
 2635000   0.83223724   -6.6498751    798.30128   0.02524672  0.024958558           20 
 2636000   0.82293867   -6.6474356    797.28688  0.025205073  0.024951873           10 
 2637000   0.82721091   -6.6730183    797.09811   0.02518955  0.024945169           11 
 2638000   0.83944824   -6.6661566    797.58911  0.025195511  0.024938475           26 
 2639000   0.81603216   -6.6503141    796.98998  0.025167045  0.024931788           38 
 2640000   0.83102631   -6.6741735    796.19279  0.025132348  0.024925124           11 
 2641000   0.83590473   -6.6712281    796.40252   0.02512945  0.024918399           18 
 2642000   0.83203445    -6.641528    796.53265  0.025124043  0.024911727            7 
 2643000   0.84128659   -6.6681775    798.91868  0.025189768  0.024905037           15 
 2644000   0.82053615   -6.6653296    796.88755  0.025116224  0.024898353           32 
 2645000   0.83949046    -6.678451    797.07074    0.0251125  0.024891672           20 
 2646000   0.80961848   -6.7028875    797.32967  0.025111164  0.024884983           19 
 2647000   0.82415671   -6.6843652    797.63824  0.025111391  0.024878303           13 
 2648000   0.83985916   -6.6354277    798.06159  0.025115231  0.024871672            7 
 2649000   0.82755285   -6.6436758    799.54521  0.025152422  0.024865045            7 
 2650000   0.81515031   -6.6581252    798.59719  0.025113119   0.02485841           26 
 2651000   0.83219626   -6.6910003    798.42184  0.025098134  0.024851825           15 
 2652000   0.84843723   -6.6700795    799.31998  0.025116892  0.024845221            6 
 2653000   0.85167149   -6.6672618    799.57157  0.025115328  0.024838643           13 
 2654000   0.83340451   -6.6405416    797.40893  0.025037959   0.02483208           12 
 2655000   0.82774601   -6.6600704    799.07164  0.025080717  0.024825503           10 
 2656000   0.82633168   -6.6640462    799.10205  0.025072228  0.024818894            8 
 2657000   0.84834014   -6.6573728    799.33434  0.025070077  0.024812271            5 
 2658000   0.81191761   -6.6795094    799.13228   0.02505431  0.024805651           17 
 2659000   0.83442948    -6.678567    800.12014  0.025075847   0.02479904           24 
 2660000   0.82317517   -6.6747839     799.9103  0.025059846  0.024792439           17 
 2661000   0.82038984   -6.7086099    798.45095  0.025004727  0.024785813           26 
 2662000   0.83135668   -6.6859171    800.93277  0.025073027  0.024779159           19 
 2663000   0.83301127   -6.6773064    798.77397  0.024996056    0.0247725           17 
 2664000   0.83115731   -6.6559606    801.38692   0.02506841  0.024765922           20 
 2665000   0.82829568   -6.6772808    800.64571  0.025035826  0.024759325           21 
 2666000   0.84163937   -6.6737064    800.10596  0.025009564  0.024752679           32 
 2667000   0.82041202   -6.7098492    796.90599    0.0249002  0.024745993           10 
 2668000   0.81759346    -6.681045     799.5633  0.024973866  0.024739349           26 
 2669000   0.81984025   -6.6487853    801.87018  0.025036536  0.024732736           11 
 2670000   0.83026327   -6.6651919    800.64944  0.024989059  0.024726177            6 
 2671000   0.82114001   -6.6713017     801.7881  0.025015228  0.024719615            7 
 2672000   0.81378743   -6.6815678    799.65597   0.02493937  0.024713018           13 
 2673000   0.81199801   -6.6855455    800.29257  0.024949887  0.024706403           10 
 2674000   0.80997782   -6.6955636    800.13847  0.024935754  0.024699749           14 
 2675000   0.81321592   -6.6642889     800.0427  0.024923449  0.024693108           21 
 2676000   0.84661849   -6.6727733    800.64509  0.024932894  0.024686494           26 
 2677000   0.82097197   -6.6803559    799.10661  0.024875688  0.024679828           13 
 2678000   0.83083132   -6.6671831    800.99466  0.024925151  0.024673183           15 
 2679000   0.80840792   -6.6539404    801.38151  0.024927881  0.024666572           12 
 2680000    0.8190462   -6.6731472    803.02891  0.024969804  0.024659962           17 
 2681000   0.82476819   -6.6823158    801.60683  0.024916288  0.024653381           15 
 2682000   0.81777608   -6.7172638    801.61523  0.024907259  0.024646763           30 
 2683000   0.82034064   -6.6673453    803.07194  0.024943221  0.024640154           16 
 2684000   0.80486421   -6.6644414    803.06146  0.024933602  0.024633583           22 
 2685000   0.81899787   -6.6580328    802.92004  0.024919927  0.024627012           14 
 2686000   0.84017225   -6.6968381     802.9978  0.024913061  0.024620432            8 
 2687000    0.8167866   -6.6786733    802.73587  0.024895666  0.024613824           10 
 2688000   0.81732137   -6.6738411    803.18339  0.024900279  0.024607229            9 
 2689000   0.82058965   -6.6567677    802.37521  0.024865973  0.024600684           14 
 2690000   0.82787479   -6.6825901    802.66038  0.024865563  0.024594101           12 
 2691000   0.82713575   -6.6790762    803.39714  0.024879139  0.024587531           19 
 2692000   0.83844972   -6.6616619    802.79488  0.024851253  0.024580992           16 
 2693000   0.81256263   -6.6810585    802.08772  0.024820142  0.024574413            7 
 2694000   0.80588937   -6.6933033    801.36301  0.024788512  0.024567818           10 
 2695000   0.80661182    -6.662244    801.65876  0.024788459  0.024561185           11 
 2696000   0.86229767   -6.6918418    804.45569  0.024865717  0.024554593           13 
 2697000    0.8281098   -6.6722418    802.80631  0.024805534  0.024547984            6 
 2698000   0.81973833    -6.675228    801.91257  0.024768735  0.024541404           13 
 2699000   0.80373418     -6.67352    801.75645  0.024754738   0.02453479            9 
 2700000   0.81752989   -6.6954687    800.78096  0.024715462  0.024528185            7 
 2701000   0.82482942   -6.6945206    803.75677  0.024798123  0.024521546            7 
 2702000   0.83202021     -6.65737    803.25746  0.024773546  0.024514918           17 
 2703000   0.81451285   -6.6764383    802.74187  0.024748485  0.024508292            9 
 2704000   0.82994883   -6.6720231     803.0226  0.024747985  0.024501687           16 
 2705000   0.83732626   -6.6726703    802.01412  0.024707767  0.024495061            7 
 2706000   0.81119307   -6.6953229    802.15324  0.024702921  0.024488458           14 
 2707000   0.83063759   -6.6834268    804.80655  0.024775475  0.024481809           12 
 2708000   0.82636331    -6.677275    802.35372  0.024690846  0.024475208           21 
 2709000    0.8144579   -6.6729443     804.4613  0.024746564  0.024468595           20 
 2710000   0.83274675   -6.6822666    803.31239  0.024702103  0.024462007           13 
 2711000   0.83359606   -6.7289079    803.25446  0.024691211  0.024455362           10 
 2712000   0.79025819   -6.7225815    802.48948    0.0246586  0.024448752           21 
 2713000   0.82348433   -6.6608793    805.15448   0.02473137  0.024442138            9 
 2714000   0.82759176    -6.693907      804.599  0.024705202  0.024435552            8 
 2715000   0.82726036   -6.6815139    803.93757    0.0246758  0.024428925           11 
 2716000   0.82059669   -6.6786447    803.77351  0.024661681  0.024422293           40 
 2717000   0.81789711   -6.6843918    803.99165  0.024659295  0.024415657           11 
 2718000   0.79131549   -6.6819468    805.35868  0.024692135  0.024409043           12 
 2719000   0.82017256   -6.6864212    804.40377  0.024653787  0.024402428           26 
 2720000    0.8172705    -6.698062    806.16039  0.024698541  0.024395841           27 
 2721000   0.81201118   -6.7035267    807.25328  0.024722935  0.024389238           26 
 2722000     0.818321   -6.6757247     805.2246  0.024651745  0.024382643           14 
 2723000   0.81960738   -6.6512844    805.16089  0.024640742  0.024376091           12 
 2724000   0.83438133    -6.699749    807.45981  0.024702026  0.024369566           36 
 2725000   0.79828131   -6.6841806    805.76012  0.024640982  0.024363055           15 
 2726000   0.80283317   -6.6987292    806.39504  0.024651352  0.024356561           15 
 2727000   0.80271881    -6.650291    807.77018  0.024684335  0.024350045           16 
 2728000   0.79457774   -6.7052723    806.58538  0.024639094  0.024343465           33 
 2729000    0.8264512   -6.6944439    805.17468  0.024586988  0.024336858           17 
 2730000   0.81038267   -6.7030142    807.19242  0.024639573  0.024330321           11 
 2731000   0.81773563   -6.6879487    805.30493  0.024572956  0.024323769           47 
 2732000   0.82895416   -6.6945341    806.10037  0.024588225  0.024317225           14 
 2733000   0.81261016    -6.682303    806.46241  0.024590267  0.024310666           12 
 2734000   0.82069991   -6.6759422    806.20369  0.024573387  0.024304103           28 
 2735000   0.81410512   -6.7066064    806.48063  0.024572841  0.024297595           14 
 2736000   0.80136867   -6.7121057    806.28343  0.024557853  0.024291043           15 
 2737000   0.80992192   -6.6993897    807.54741  0.024587365  0.024284467           34 
 2738000   0.81921679   -6.6597556    807.95809  0.024590884  0.024277941           15 
 2739000   0.79622866   -6.6930205    807.38417  0.024564445  0.024271388           50 
 2740000   0.82336445   -6.7134872    808.17589  0.024579559  0.024264841            9 
 2741000    0.8187781   -6.6821461    808.45841  0.024579181  0.024258311           16 
 2742000   0.82078237   -6.6875259    807.64192  0.024545402  0.024251808           13 
 2743000   0.80822954    -6.717521    807.44796  0.024530561  0.024245288           23 
 2744000   0.81549143   -6.7118764    806.30539  0.024486923  0.024238769           13 
 2745000   0.80649884   -6.6852325    808.67105  0.024549819  0.024232237           14 
 2746000   0.81225801   -6.6920985    808.22986   0.02452749  0.024225706           11 
 2747000   0.80735082   -6.7125627    808.08788  0.024514254  0.024219197           17 
 2748000   0.81052929    -6.714287    807.82757   0.02449744  0.024212662           30 
 2749000   0.82690828   -6.7220804    804.39586  0.024384499  0.024206091           16 
 2750000   0.80835605   -6.6914806    808.42543   0.02449774  0.024199518           57 
 2751000   0.81371279   -6.7250167    809.24554  0.024513678  0.024192949           27 
 2752000   0.78204024   -6.6941099    807.96092  0.024465871  0.024186421           49 
 2753000   0.81737722   -6.6776371    808.95644  0.024487118  0.024179903           49 
 2754000   0.80189295   -6.7025572     810.0981  0.024512772  0.024173416           35 
 2755000   0.81066541   -6.6857809     810.5361  0.024517123  0.024166883           10 
 2756000   0.79579325   -6.6809681    810.11253   0.02449542  0.024160359           35 
 2757000   0.80838615   -6.7109512    808.54629  0.024439194  0.024153847           25 
 2758000   0.81612321   -6.6936007    808.46281   0.02442781  0.024147311           18 
 2759000    0.8116588   -6.7149084    808.82765  0.024429976  0.024140754           34 
 2760000    0.8086999   -6.7138949    807.38224  0.024377483  0.024134167           17 
 2761000   0.80967356   -6.7027216    808.89208  0.024414224  0.024127575            8 
 2762000   0.79043197    -6.700498    809.95075  0.024437327  0.024121006           24 
 2763000   0.80062641   -6.7092581    809.36085   0.02441069  0.024114464           31 
 2764000   0.80298207   -6.7216452    810.00531  0.024421289  0.024107948            7 
 2765000   0.83022766   -6.7046635    811.34554  0.024452849  0.024101431           11 
 2766000   0.81888105   -6.7236337    810.96521   0.02443255  0.024094925            9 
 2767000   0.79643122   -6.7054496    808.99468  0.024364374  0.024088435            8 
 2768000    0.8161524   -6.7121296    810.32484  0.024395618  0.024081905           16 
 2769000   0.80122574   -6.7333337    810.52383  0.024392796  0.024075372           43 
 2770000   0.80881889   -6.7421406    808.45579  0.024321775  0.024068825           23 
 2771000   0.81041677   -6.7568522    810.36465  0.024370403  0.024062275           22 
 2772000   0.80089862   -6.6927232    809.54355  0.024336927  0.024055722           11 
 2773000   0.80082154   -6.6866487    809.87244  0.024338035  0.024049187           18 
 2774000   0.81021297   -6.7171185    812.15726  0.024397899   0.02404268           16 
 2775000   0.81216945   -6.7277453    809.24785  0.024301737  0.024036143           13 
 2776000   0.80996564    -6.697035    810.36838  0.024326621  0.024029632           16 
 2777000   0.80932646   -6.7145608    810.63421  0.024325837  0.024023086           14 
 2778000   0.79950189   -6.7230394    809.01257  0.024268436  0.024016537           15 
 2779000    0.7985815   -6.7220673    807.80165  0.024223391  0.024009952           18 
 2780000   0.80188447   -6.7478601    808.52067  0.024236231  0.024003324           21 
 2781000   0.80776002   -6.7170246    808.38032  0.024223311  0.023996735           40 
 2782000   0.81372174   -6.6965575    808.09249  0.024205982  0.023990158            9 
 2783000   0.81078301   -6.7209685    810.26069  0.024262208  0.023983576            9 
 2784000   0.81332257   -6.7165069    811.46142  0.024289434  0.023977035            6 
 2785000   0.80152704    -6.722485    811.12494  0.024270645  0.023970504           12 
 2786000   0.80396516   -6.6967438    812.01176  0.024288459  0.023963958           18 
 2787000   0.80511688    -6.714515    810.64983  0.024239021   0.02395741           34 
 2788000   0.79020735   -6.7024157    811.57024  0.024257838  0.023950882           20 
 2789000   0.81042267   -6.6990082    810.83548  0.024227187   0.02394437           53 
 2790000   0.79076119   -6.7206916    810.92071  0.024221049  0.023937827           24 
 2791000   0.79172959   -6.7198624    810.51095  0.024200136  0.023931278           35 
 2792000   0.80970373   -6.6960761    810.92602  0.024203857  0.023924698           20 
 2793000   0.80690898    -6.684098    811.75944  0.024220057  0.023918154           10 
 2794000   0.82532738   -6.6695922    810.37308  0.024170039  0.023911607            8 
 2795000   0.80506764   -6.7115355    810.11619  0.024153733  0.023905045            7 
 2796000   0.80088744   -6.7206234    811.34082  0.024181593  0.023898493           14 
 2797000   0.81381348    -6.705281    811.80873  0.024186889   0.02389191           18 
 2798000   0.79517483   -6.7037564    811.54995  0.024170537  0.023885346           16 
 2799000   0.80985828   -6.7209203    810.56684  0.024132632  0.023878785           14 
 2800000   0.79822169   -6.7011176     813.1764  0.024201678  0.023872229           18 
 2801000   0.78799713   -6.7039744     811.0002  0.024128294  0.023865698           14 
 2802000   0.79173706    -6.726002    812.89902  0.024176155  0.023859154           17 
 2803000   0.82078493   -6.7337283     810.5292  0.024097074  0.023852554           16 
 2804000   0.81136106   -6.7219264    809.51596  0.024058368   0.02384596            7 
 2805000   0.80489387    -6.725661     812.9196  0.024150909  0.023839349            5 
 2806000   0.79540515   -6.7517877    810.80565  0.024079522  0.023832755           21 
 2807000   0.81392088   -6.7482409    810.73948  0.024068979  0.023826148           19 
 2808000   0.81212973   -6.7022742    810.09078  0.024041156  0.023819537           22 
 2809000   0.80279476   -6.7111762    812.58411  0.024106565  0.023812953           10 
 2810000   0.79903209   -6.7284981    811.84815  0.024076161  0.023806369           10 
 2811000   0.79337475   -6.7217432    812.01446  0.024072526  0.023799749            7 
 2812000   0.80159645   -6.7330336    811.87266  0.024059764  0.023793092            8 
 2813000   0.80664701   -6.7300425    811.19983  0.024031278  0.023786448           21 
 2814000   0.79550893    -6.699497    812.99415  0.024075875  0.023779818           28 
 2815000   0.78163754   -6.7024938    810.29186  0.023987326  0.023773215           16 
 2816000   0.79797415   -6.7197837    811.93957  0.024027568  0.023766612           26 
 2817000   0.79773063    -6.747055    812.30177  0.024029753  0.023759995            8 
 2818000   0.79070505   -6.7333404    811.74049  0.024004628  0.023753364           20 
 2819000   0.79335164   -6.7359565    813.32304  0.024042895  0.023746717           39 
 2820000   0.79154195   -6.7481201    811.63392  0.023984454  0.023740102           26 
 2821000   0.78640808   -6.7004714    810.79137  0.023951063  0.023733507           16 
 2822000   0.81832692   -6.6928901    813.20838  0.024013949   0.02372696           12 
 2823000   0.80152302   -6.7141959    815.72395  0.024079701  0.023720414           11 
 2824000   0.79859561   -6.7230521    814.24342  0.024027485  0.023713881           11 
 2825000   0.80643905   -6.7320039    813.19107  0.023987937  0.023707324            9 
 2826000   0.79299635     -6.73123    811.93888  0.023942524  0.023700747           13 
 2827000   0.79722322   -6.7382276    811.47998  0.023920528  0.023694136           23 
 2828000   0.78261962   -6.7022045    811.73457  0.023919571  0.023687551           24 
 2829000    0.8075099   -6.7311667    814.65402  0.023997114  0.023680948           14 
 2830000   0.80974088   -6.7324874    812.07692  0.023912748   0.02367436           15 
 2831000   0.79325948   -6.7235129    813.23783  0.023938474  0.023667756           17 
 2832000   0.78231388   -6.7236123     812.1467  0.023897914  0.023661134           25 
 2833000   0.80735336   -6.7447563     814.4621  0.023957586  0.023654515           58 
 2834000   0.79199285   -6.7529065    811.38144  0.023858546  0.023647872           24 
 2835000   0.80655226   -6.6888384    813.13732  0.023901744   0.02364125           19 
 2836000   0.79239675   -6.6968166    813.30415  0.023898218  0.023634676           10 
 2837000   0.79758875   -6.7527088    811.31283  0.023831302  0.023628086           12 
 2838000   0.80973496    -6.714446    812.65864  0.023862422  0.023621481           21 
 2839000   0.79566635   -6.7185475    813.14273  0.023868226  0.023614887           10 
 2840000   0.80816601   -6.7583175    811.76535  0.023819406   0.02360829           34 
 2841000   0.79067094   -6.7423187    813.37858  0.023858342  0.023601653           17 
 2842000   0.79275198   -6.7274139    814.56901  0.023884852   0.02359505           19 
 2843000   0.78351304   -6.7553287    811.98395  0.023800679  0.023588417           25 
 2844000   0.79516894    -6.744653    811.10931  0.023766682  0.023581749           28 
 2845000   0.79116379   -6.7531303    813.81699  0.023837639  0.023575053           34 
 2846000   0.78330388   -6.7314681    811.47189  0.023760597  0.023568384           37 
 2847000   0.80081528   -6.7140327    813.70286  0.023817552   0.02356175           15 
 2848000   0.78506125   -6.7259484    812.55667  0.023775652  0.023555101           49 
 2849000   0.79451922    -6.755067    813.43482  0.023792992  0.023548464           41 
 2850000   0.79629379   -6.7310617    814.16554   0.02380601  0.023541826           49 
 2851000   0.80218746   -6.7624666    811.84655  0.023729877  0.023535188           36 
 2852000    0.7904764   -6.7566158    813.51809  0.023770398  0.023528587           26 
 2853000   0.77792612   -6.7415011    814.80569  0.023799675  0.023521949           35 
 2854000     0.803755   -6.7693491    814.00632  0.023767996  0.023515326           50 
 2855000   0.79790153   -6.7256509    813.71548  0.023751182  0.023508717           29 
 2856000   0.79526407    -6.723563    814.12829  0.023754911  0.023502129           22 
 2857000   0.80977709   -6.7239962    814.13827  0.023746887  0.023495549           16 
 2858000   0.80822456   -6.7240575    813.22272  0.023711882  0.023488941           30 
 2859000    0.7901943    -6.729533    813.59114  0.023714327   0.02348229           71 
 2860000   0.79036101   -6.7653331    813.88566  0.023714617  0.023475634           29 
 2861000   0.79971475   -6.7196509    813.97607  0.023708962  0.023468974           22 
 2862000   0.77309168   -6.7397723    813.71429  0.023693055  0.023462327           11 
 2863000   0.78693359   -6.7421048    815.92085  0.023749006  0.023455694           25 
 2864000   0.79088716    -6.738692    813.67396  0.023675336  0.023449016           10 
 2865000   0.79130074   -6.7406916    813.50388  0.023662126  0.023442379           26 
 2866000   0.79724031   -6.7737566    815.31501  0.023706531  0.023435741           21 
 2867000   0.80293702   -6.7428095    813.85984  0.023655966  0.023429096           27 
 2868000   0.79592706   -6.7469546     814.1288  0.023655532  0.023422423           12 
 2869000   0.78638219   -6.7274718    814.62873  0.023661808  0.023415797           23 
 2870000    0.7948228   -6.7388187    814.09803  0.023638154  0.023409136           19 
 2871000   0.78250682   -6.7364301    814.54162  0.023642796  0.023402506           21 
 2872000   0.79737946   -6.7045438     814.5465  0.023634706  0.023395874           23 
 2873000   0.80573237   -6.7498598    814.42748  0.023623027  0.023389243           14 
 2874000   0.79734272    -6.739211    816.02976  0.023661267  0.023382642           10 
 2875000   0.79369914   -6.7594426    815.77215   0.02364557   0.02337605           13 
 2876000   0.79881265     -6.77199    814.74934  0.023607711  0.023369411           38 
 2877000   0.78088565   -6.7385711    815.31884  0.023616002  0.023362803           23 
 2878000   0.79331026   -6.7372227    815.21388  0.023604757  0.023356193           22 
 2879000   0.78065692   -6.7517886    815.00178  0.023590419  0.023349587           13 
 2880000   0.79464078   -6.7241932    816.25301  0.023618432  0.023342992           17 
 2881000   0.78588924   -6.7452366    816.11813  0.023606333  0.023336406           19 
 2882000   0.80216725   -6.7349459    814.33339  0.023546536  0.023329829           19 
 2883000   0.78587333   -6.7374183    815.71007  0.023578161  0.023323266           13 
 2884000   0.78802357    -6.727109    815.26551   0.02355714  0.023316697           39 
 2885000   0.78032839   -6.7260888    817.19889  0.023604821  0.023310097           14 
 2886000   0.79243527   -6.7596484    816.19771  0.023567732  0.023303504           11 
 2887000   0.78929206   -6.7383223    816.46618  0.023567318   0.02329693           12 
 2888000   0.78900351   -6.7597339    814.60649  0.023505496  0.023290326           15 
 2889000    0.7858456     -6.73876    814.53372  0.023495261  0.023283745           22 
 2890000   0.79703023   -6.7376631    816.06215  0.023531204  0.023277145           19 
 2891000   0.77090851   -6.7219597    817.66982  0.023569406  0.023270553           26 
 2892000   0.79866374   -6.7274177    816.49359  0.023527363  0.023263972           18 
 2893000   0.79360642   -6.7473336    817.00906  0.023534078  0.023257421           20 
 2894000   0.78985393   -6.7533178    815.92411  0.023494705  0.023250813           15 
 2895000   0.78798469   -6.7484936     814.9606  0.023458854  0.023244222           21 
 2896000   0.78759717   -6.7455781    814.80398  0.023446247  0.023237612           29 
 2897000   0.79830322   -6.7557896    816.54359  0.023488194  0.023230991           49 
 2898000   0.79847301   -6.7399745    818.56398  0.023538187  0.023224418           13 
 2899000   0.78013063   -6.7450057    818.78589  0.023536446  0.023217824           30 
 2900000   0.77485743   -6.7563891    816.50743  0.023462857   0.02321123           33 
 2901000    0.7822917   -6.7077461    816.58643  0.023457039  0.023204614           22 
 2902000   0.78110899   -6.7555998    818.01122   0.02348987  0.023197999           34 
 2903000   0.78730179    -6.760794    816.58292  0.023440777   0.02319137           59 
 2904000     0.798896   -6.7432571    816.61009  0.023433485  0.023184736           14 
 2905000   0.78436578    -6.750779    815.40042  0.023390718  0.023178135           49 
 2906000   0.78076542   -6.7454943      818.334  0.023466793  0.023171548           32 
 2907000   0.78897655   -6.7558535    816.98659  0.023420095  0.023164957           26 
 2908000   0.78431779   -6.7670419    817.57994  0.023429045   0.02315839           12 
 2909000   0.78985071   -6.7392683    815.24636  0.023354141  0.023151807            9 
 2910000    0.8070625   -6.7513663    816.01251  0.023368056  0.023145206           16 
 2911000   0.78199969    -6.759768    816.77874  0.023381963  0.023138603           12 
 2912000   0.78292463    -6.765745    819.13712  0.023441424  0.023131987           33 
 2913000   0.79036449   -6.7623625    816.74823  0.023365037  0.023125412           27 
 2914000   0.77993999   -6.7302339    818.87146  0.023417738  0.023118838            6 
 2915000   0.79371837   -6.7398971    816.70314  0.023347717  0.023112281           16 
 2916000   0.79292474   -6.7427196    818.37736  0.023387556  0.023105705           62 
 2917000   0.79428401   -6.7476376    816.56088  0.023327645   0.02309912           35 
 2918000   0.79091728   -6.7715462    817.64505  0.023350613  0.023092543          113 
 2919000   0.78694976   -6.7617812    817.13666  0.023328099  0.023085968           45 
 2920000   0.77875431   -6.7549772    817.44767  0.023328986  0.023079381           22 
 2921000   0.77798008   -6.7443727    819.99126  0.023393566  0.023072839           20 
 2922000   0.79808309   -6.7509573    817.51489  0.023314935  0.023066275           40 
 2923000   0.78205897    -6.763527    818.34795  0.023330709  0.023059708           30 
 2924000   0.77165209   -6.7389512    819.43758  0.023353784  0.023053194           17 
 2925000   0.77789818   -6.7205552    819.10327  0.023336275  0.023046687           23 
 2926000   0.79113341   -6.7330967    819.39642  0.023336649  0.023040192           12 
 2927000   0.77311032   -6.7818521    818.62619  0.023306747  0.023033671           30 
 2928000   0.77826361   -6.7629625    818.30643  0.023289687  0.023027133           12 
 2929000   0.77301565   -6.7561152    819.60913  0.023318798  0.023020585           34 
 2930000   0.79641726   -6.7952356    821.23348  0.023357039  0.023014019           22 
 2931000   0.77943887   -6.7560928    818.22102   0.02326342  0.023007491           29 
 2932000   0.79432461   -6.7495885     819.1816  0.023282788  0.023000941           27 
 2933000   0.76465505   -6.7707251    819.84785  0.023293779  0.022994378           27 
 2934000   0.77975585   -6.7847176    819.14389  0.023265846  0.022987854           27 
 2935000   0.77983686   -6.7787509     818.7237  0.023245988  0.022981309           22 
 2936000   0.76892315   -6.7525211    821.89898  0.023328195  0.022974791           20 
 2937000     0.790185    -6.745407    819.67434  0.023257132   0.02296826           40 
 2938000   0.79097548   -6.7454856    820.74999  0.023279725  0.022961734           24 
 2939000   0.76433235   -6.7488366    820.14462  0.023254639  0.022955219           18 
 2940000   0.76801095   -6.7474542    818.88066  0.023210903   0.02294873           12 
 2941000   0.77348206   -6.7677842    819.82222   0.02322969  0.022942219           14 
 2942000   0.77816581   -6.7669044    820.04678  0.023228155  0.022935719           15 
 2943000    0.7850311   -6.7150693    822.11661  0.023278871  0.022929251           34 
 2944000   0.77548122   -6.7577751    820.59878     0.023228   0.02292278           31 
 2945000    0.7792537   -6.7578125    821.73169   0.02325217  0.022916309           98 
 2946000   0.78935414   -6.7916811     820.7938  0.023217747  0.022909794           31 
 2947000   0.77756694   -6.7557461    822.08509  0.023246383  0.022903266           24 
 2948000   0.78727419   -6.7760713    819.96641  0.023178607  0.022896759           19 
 2949000   0.78368235   -6.7942633    819.38111  0.023154208  0.022890212           18 
 2950000   0.77656316    -6.789413    821.69738   0.02321179  0.022883667           12 
 2951000   0.78195535   -6.7820663    820.08995  0.023158532  0.022877147           25 
 2952000   0.76568131   -6.7980714    821.28094  0.023184308  0.022870597           56 
 2953000   0.79554353   -6.7574208    821.61306   0.02318583  0.022864098           18 
 2954000   0.77735522   -6.7672231    821.07561  0.023162819  0.022857613           20 
 2955000   0.77769619   -6.7443045    821.38033  0.023163574    0.0228511            8 
 2956000   0.79560352   -6.7573288    821.35069  0.023154902   0.02284462            8 
 2957000   0.77299221    -6.771941    820.53683  0.023124136  0.022838119           19 
 2958000   0.76951231   -6.7460308    821.93909  0.023155823  0.022831603           31 
 2959000     0.768743   -6.7330595    822.26804  0.023157262  0.022825129           18 
 2960000   0.75531223   -6.7854017    819.99838   0.02308554  0.022818609           18 
 2961000   0.78789206   -6.7997883    821.00155  0.023105976  0.022812107           10 
 2962000   0.79056017   -6.7612264    821.23049  0.023104617  0.022805627           11 
 2963000   0.75710728   -6.7432055     822.2487  0.023125456  0.022799166           15 
 2964000    0.7617676   -6.7533279    822.51672  0.023125189  0.022792672           13 
 2965000   0.76412125   -6.7716055    821.69533  0.023094304  0.022786196           29 
 2966000    0.7647927   -6.7490044    822.02104  0.023095669  0.022779764           15 
 2967000   0.77086069   -6.7342948    822.77942  0.023109185   0.02277333            4 
 2968000   0.77628995   -6.7853352    821.70485  0.023071228  0.022766865           12 
 2969000   0.79329379   -6.7571489    821.60191  0.023060568  0.022760408           23 
 2970000    0.7823701   -6.7800189    821.76647  0.023057421   0.02275393            8 
 2971000      0.77481   -6.7643807    822.26222  0.023063565  0.022747448           16 
 2972000   0.77172843   -6.7741025    823.61113  0.023093627  0.022740976           14 
 2973000   0.77421853   -6.7450677    822.86647  0.023064987  0.022734524           11 
 2974000    0.7767658   -6.7658781    820.34998  0.022986718  0.022728057           14 
 2975000   0.77031363   -6.7757777    821.51938  0.023011747  0.022721551           32 
 2976000   0.77610208   -6.7563579    821.75384   0.02301058  0.022715055           11 
 2977000    0.7701963   -6.7848152     821.0657  0.022983588   0.02270858           17 
 2978000    0.7623313    -6.772997     822.1391  0.023005907  0.022702066           33 
 2979000   0.78689058    -6.793896    822.96261  0.023021221  0.022695565           17 
 2980000   0.77277348   -6.7868261    821.51073  0.022972895  0.022689077           30 
 2981000   0.78235996   -6.7920377    819.79901  0.022917338  0.022682572           29 
 2982000   0.77733243   -6.7519203    823.93041  0.023025107  0.022676066           10 
 2983000   0.78238341   -6.8150209    821.46983  0.022948649  0.022669576           16 
 2984000   0.76666725   -6.7711131    822.88602  0.022980508  0.022663102           31 
 2985000   0.78651345   -6.7818854    820.99603  0.022920046  0.022656631           55 
 2986000   0.75969604   -6.8002313    823.09034  0.022970818  0.022650126           51 
 2987000   0.76988336   -6.8141404    820.20802  0.022882715  0.022643588           47 
 2988000   0.78299378   -6.7708063    821.84251  0.022920641  0.022637064           77 
 2989000   0.75830018   -6.7855582    822.55931  0.022932957  0.022630577           35 
 2990000   0.77881622   -6.7976271     822.6154  0.022926851  0.022624109           39 
 2991000   0.76378316   -6.7644133    822.31363  0.022910778  0.022617657           23 
 2992000   0.76959592   -6.7869734    821.54511  0.022881715  0.022611213           28 
 2993000   0.78842756   -6.7483931    824.17422  0.022947272  0.022604798           30 
 2994000   0.76487067   -6.7871566    822.76695  0.022900438   0.02259838           23 
 2995000   0.76143787   -6.7625604    823.69116  0.022918507  0.022591956           23 
 2996000   0.77937875   -6.7627654     823.2056  0.022897352  0.022585506           32 
 2997000   0.76531764   -6.7507392    821.02715  0.022829139  0.022579029           23 
 2998000   0.75042884   -6.7836188    822.64465  0.022866485  0.022572564           35 
 2999000   0.78329848   -6.7587317    823.52022   0.02288319  0.022566086           87 
 3000000   0.77976318   -6.7875231    821.22441  0.022811789  0.022559611           59 
 3001000   0.76373503    -6.792576     826.8237  0.022959672  0.022553147           43 
 3002000   0.75958473   -6.7681035    823.85841  0.022869709  0.022546676           12 
 3003000   0.78027972   -6.7729642      822.104  0.022813409  0.022540231           12 
 3004000    0.7744331   -6.7821353    822.30361  0.022811352  0.022533777           19 
 3005000   0.77200264   -6.7823515    823.69763  0.022842419  0.022527305           16 
 3006000   0.77311763   -6.7892844    822.73335  0.022808088  0.022520847           13 
 3007000   0.77693165   -6.7752704     823.7391  0.022828376  0.022514385           27 
 3008000   0.76743147   -6.7678232     825.2868  0.022863664  0.022507912           44 
 3009000   0.78184382   -6.7939645    824.56696  0.022836129  0.022501425           37 
 3010000    0.7627138   -6.7649714    826.03715  0.022869246  0.022494973           21 
 3011000   0.76220009   -6.8060186    823.71831  0.022797473  0.022488514           57 
 3012000   0.78038342   -6.8164725    822.75788  0.022763332   0.02248201           23 
 3013000   0.76674965   -6.7788691    821.90094  0.022732076  0.022475555           17 
 3014000   0.80272046   -6.7906874     823.9949  0.022782429  0.022469113           11 
 3015000   0.76126142   -6.8113241    824.46281  0.022787806  0.022462664           14 
 3016000    0.7730546   -6.7930657     826.2181   0.02282875  0.022456234           26 
 3017000   0.76469534   -6.7803363    824.64439  0.022777715  0.022449782           23 
 3018000    0.7765142   -6.7306206    825.35798  0.022789871  0.022443344           24 
 3019000   0.76605163   -6.7855397    824.03201  0.022745722  0.022436918           23 
 3020000   0.76855582   -6.7868848    823.18481  0.022714813  0.022430456           60 
 3021000   0.78048338   -6.7908952    824.48074  0.022743041  0.022423987           42 
 3022000   0.76850538    -6.804911    824.64953   0.02274017   0.02241754           54 
 3023000    0.7613332    -6.814286     823.2124  0.022693031  0.022411049           24 
 3024000   0.76865483   -6.7647868    823.76514  0.022700759   0.02240462           12 
 3025000    0.7760093   -6.7999976    823.98535  0.022699321  0.022398158           18 
 3026000   0.78580565   -6.7903175    826.07791  0.022749447  0.022391713           11 
 3027000   0.75393493   -6.8159857    825.08564  0.022714614  0.022385238           24 
 3028000   0.77482281    -6.781973    825.33251  0.022713906  0.022378776           15 
 3029000   0.77815456   -6.7913958    824.91298  0.022694866  0.022372323           20 
 3030000   0.75878434   -6.7779388    824.52869  0.022676807  0.022365882           44 
 3031000   0.75377886   -6.8050877    825.01572  0.022682715  0.022359407           82 
 3032000   0.76139079   -6.8122113    824.88696  0.022671695  0.022352902           31 
 3033000   0.75213257   -6.8056137    823.79455  0.022634206  0.022346402           37 
 3034000   0.76663787   -6.8059595    824.74793  0.022652931  0.022339899           36 
 3035000   0.75385191   -6.8404456    823.36119  0.022607391  0.022333368           40 
 3036000    0.7625033   -6.8165609    822.52938  0.022577113  0.022326854           76 
 3037000   0.77374319   -6.8139877    826.19737  0.022670326  0.022320363           44 
 3038000   0.75902705   -6.7828785    824.55665  0.022617859  0.022313901           28 
 3039000   0.76756425   -6.7679107    824.53587  0.022609846   0.02230742           34 
 3040000   0.74507391   -6.7823579    826.02793   0.02264331  0.022300962           17 
 3041000   0.76591067   -6.7738119    825.37347  0.022617929  0.022294542           12 
 3042000   0.76284586   -6.7989203    826.05335  0.022629119  0.022288113           19 
 3043000   0.77097453   -6.7815684    825.47458  0.022605832  0.022281653           10 
 3044000   0.75687238   -6.8073895     823.0395  0.022531743   0.02227518           51 
 3045000   0.75149135   -6.8009907    824.91578  0.022575692  0.022268713           18 
 3046000   0.76290782   -6.7703078    824.86446  0.022566876  0.022262278           12 
 3047000   0.77582781   -6.8000051    827.47198  0.022630784  0.022255849           32 
 3048000   0.76562142   -6.8089326    825.86888   0.02257953  0.022249446           48 
 3049000   0.77126953   -6.7959238    826.94524  0.022601543  0.022243007           25 
 3050000   0.77005617   -6.7842125    825.24248  0.022547609  0.022236555           20 
 3051000   0.77119032    -6.806208    825.78627  0.022555071  0.022230123           29 
 3052000   0.77886919   -6.7802265     824.7017  0.022518067  0.022223679           55 
 3053000   0.75687607   -6.7938411    826.46733  0.022558886   0.02221726           90 
 3054000   0.76929216   -6.8283953    824.00132   0.02248421  0.022210808           46 
 3055000     0.764534   -6.7854239     825.5115  0.022518044  0.022204345           72 
 3056000   0.75695529   -6.7823524    823.11339  0.022445282  0.022197899           75 
 3057000    0.7642619   -6.8227739    824.20246  0.022467628  0.022191456           58 
 3058000   0.76830112   -6.7728574    825.44589  0.022494165  0.022185002           60 
 3059000   0.77863617   -6.7965355     826.7595  0.022522597  0.022178549           25 
 3060000   0.76774849   -6.8211394    826.83785  0.022517371  0.022172112           27 
 3061000   0.75707668    -6.811438    826.57432   0.02250284  0.022165624           69 
 3062000   0.75628151   -6.7922089    826.23861  0.022486354  0.022159122           77 
 3063000   0.77371058   -6.7877228    824.55681  0.022433257  0.022152671           83 
 3064000    0.7468932   -6.7792643    826.82552  0.022487639  0.022146231           25 
 3065000   0.75393408   -6.8095678    828.57921  0.022527983  0.022139769           38 
 3066000   0.75501596   -6.8060692    825.75461  0.022443863  0.022133313           24 
 3067000   0.76274345   -6.7824778     825.8215  0.022438363  0.022126868           15 
 3068000   0.75833788   -6.8026519    827.27237  0.022470458  0.022120448           21 
 3069000   0.78004581   -6.8177594    825.52369  0.022415654  0.022114001           13 
 3070000   0.76666799    -6.796316    827.18827  0.022453536  0.022107574           17 
 3071000   0.75702347   -6.7933124    825.24813  0.022393578  0.022101106           20 
 3072000   0.76512004   -6.8061161    824.46946  0.022365165  0.022094636           24 
 3073000   0.76228521   -6.8229399    826.39208  0.022410025  0.022088155           25 
 3074000   0.75887327   -6.8138747    825.65573  0.022382773  0.022081655           49 
 3075000   0.76601346    -6.821933    826.25537  0.022391744  0.022075179           32 
 3076000   0.76539216   -6.8121396    826.06376  0.022379274  0.022068693           36 
 3077000   0.77118913   -6.8234174    826.74934  0.022390568  0.022062244           37 
 3078000   0.77206933   -6.8179943    827.67753  0.022408423  0.022055798           12 
 3079000   0.77290412   -6.8128295    827.27252  0.022390184  0.022049343           19 
 3080000   0.75803099   -6.8441097    826.13594  0.022352163  0.022042901           22 
 3081000   0.77136839   -6.7856788    826.59215  0.022357247   0.02203648           37 
 3082000   0.77197602    -6.796565    825.47395  0.022319759  0.022030063           88 
 3083000   0.75357068   -6.8184173    826.11092  0.022329736  0.022023654           39 
 3084000   0.75130211   -6.7851566    826.76673  0.022340216  0.022017271           36 
 3085000   0.75898566   -6.8104042    826.92753  0.022337319  0.022010888           49 
 3086000   0.73051364   -6.7994409    826.69681   0.02232385  0.022004513           19 
 3087000   0.75031664   -6.7818607    827.51675  0.022338752  0.021998126           14 
 3088000   0.74957131    -6.823644    826.57242  0.022306035   0.02199174           60 
 3089000   0.75087995   -6.8058877    827.21326  0.022316102  0.021985345           15 
 3090000   0.74618497    -6.831065    828.50913  0.022343828  0.021978968           28 
 3091000   0.76986967   -6.8155149    827.08848  0.022298298  0.021972562           12 
 3092000   0.76307872   -6.8316575    826.74163  0.022281739  0.021966161           34 
 3093000   0.76021188   -6.8084288    828.60909  0.022324849   0.02195976           19 
 3094000   0.76432691   -6.8256078    827.21391  0.022280056  0.021953333           35 
 3095000   0.74308306   -6.8405003    826.11945  0.022243388  0.021946903           30 
 3096000   0.74662224    -6.808596    828.15355  0.022290955   0.02194049           17 
 3097000   0.75522129   -6.8200564    828.60162  0.022295814  0.021934097           11 
 3098000   0.75024617   -6.8434759    825.62811  0.022208632  0.021927694           36 
 3099000   0.77501633   -6.8183537     826.3532  0.022220964  0.021921274           30 
 3100000    0.7628156   -6.8045191    828.16118  0.022262397  0.021914909           12 
 3101000   0.75588318   -6.8088213    827.21129  0.022229692  0.021908539           17 
 3102000   0.76244169     -6.82769    830.34266  0.022306648  0.021902171           19 
 3103000   0.74405775   -6.8120524    828.89131  0.022260482   0.02189579           31 
 3104000   0.75960829   -6.8184854    826.65727  0.022193333  0.021889384           38 
 3105000   0.75078884    -6.827554    829.14527   0.02225296  0.021882991           20 
 3106000   0.74953647    -6.819422    827.53261  0.022202528  0.021876643            8 
 3107000   0.76315082    -6.790633    828.41098  0.022218941   0.02187031            9 
 3108000   0.74063127   -6.7989419    830.17884  0.022259192  0.021864013            6 
 3109000   0.74158898    -6.825247    828.52008  0.022207572  0.021857691           12 
 3110000   0.75151077   -6.8075099    831.31224  0.022275248  0.021851372           19 
 3111000   0.73010886   -6.8177413    830.11568  0.022236036  0.021845039           25 
 3112000   0.77732893   -6.8359262    830.18037  0.022230623  0.021838698           42 
 3113000   0.76624314    -6.817896    829.19897   0.02219721  0.021832364           10 
 3114000   0.75938824   -6.8265679    828.82011  0.022179943  0.021826022           56 
 3115000   0.75664187   -6.8274047    830.06667  0.022206171   0.02181968           21 
 3116000    0.7650969   -6.8076019    829.41915  0.022181727  0.021813329           35 
 3117000   0.74566725   -6.8350325     828.3825  0.022146896  0.021806979           29 
 3118000    0.7559346    -6.790642    830.62179  0.022199642  0.021800673           15 
 3119000   0.78191604   -6.7964711    830.50305  0.022189352  0.021794375           26 
 3120000   0.74288943   -6.8238078    827.89117  0.022112478  0.021788035           32 
 3121000   0.74342761   -6.8077946    830.04168  0.022162813  0.021781692           25 
 3122000   0.75103067   -6.8197939    829.74662  0.022147838  0.021775372           24 
 3123000   0.75694295    -6.808096     831.0706  0.022176075  0.021769048           18 
 3124000   0.74473658   -6.7876828    831.14266  0.022170899  0.021762742           52 
 3125000   0.77672173   -6.8248179    829.92324  0.022131286  0.021756407           23 
 3126000    0.7332801   -6.8062223    830.00684  0.022126435   0.02175005           58 
 3127000   0.75006764   -6.8111647    829.03077  0.022093347  0.021743727           31 
 3128000   0.74836752   -6.8125544    830.05301  0.022113518  0.021737402           31 
 3129000   0.74616373   -6.8150269     830.2208  0.022110919  0.021731051           28 
 3130000   0.74512026   -6.8176842    830.21247  0.022103633  0.021724706           21 
 3131000   0.75205331   -6.7875622     830.7913   0.02211198  0.021718412           11 
 3132000   0.75956238   -6.8266386    828.85955  0.022053521  0.021712086           18 
 3133000   0.74599866    -6.814009    829.28824  0.022057885  0.021705753           37 
 3134000   0.74483195   -6.8153689    830.04171  0.022070881  0.021699429           19 
 3135000     0.746157   -6.8316489    829.90074  0.022060094  0.021693083           23 
 3136000   0.73541007    -6.813908    830.62946  0.022072424  0.021686765           32 
 3137000   0.74990844   -6.8397065    831.24611  0.022081769  0.021680427           38 
 3138000   0.75648035   -6.8194946    831.73833  0.022087803  0.021674112           27 
 3139000    0.7414835   -6.8267697    830.69659  0.022053111  0.021667807           31 
 3140000   0.75227962   -6.8497703    829.46687  0.022013452  0.021661494           63 
 3141000   0.77106358   -6.8452061    830.85414  0.022043249   0.02165516           44 
 3142000   0.74798398   -6.8317731    831.97626  0.022065995  0.021648831           36 
 3143000   0.74728102    -6.835707    831.69945  0.022051634  0.021642501           24 
 3144000   0.75019941   -6.8252039     829.0781  0.021975141  0.021636167           56 
 3145000   0.74596219   -6.8514235    829.87772  0.021989341  0.021629835           55 
 3146000   0.73515234   -6.8449768    830.68575  0.022003755  0.021623484           36 
 3147000    0.7475178   -6.8172467    831.56368  0.022020011  0.021617172           18 
 3148000   0.75118288   -6.8255597    831.95225  0.022023302   0.02161087           40 
 3149000   0.74799408   -6.8537481    831.49384  0.022004177  0.021604537           21 
 3150000   0.74727318   -6.8417074     829.4305  0.021942606  0.021598209           18 
 3151000   0.75706691   -6.8363737    830.52143  0.021964494  0.021591864           18 
 3152000    0.7592222   -6.8411827    831.00359  0.021970273  0.021585551           47 
 3153000   0.74646907   -6.8165168    831.92832  0.021987745  0.021579205           23 
 3154000   0.75682585   -6.8395101    828.96169  0.021902391  0.021572863           39 
 3155000   0.74364405   -6.8007742    831.03685   0.02195026  0.021566532           35 
 3156000   0.75408523   -6.8414899     828.1963  0.021868301  0.021560186           18 
 3157000   0.75346913   -6.8705893    830.92333  0.021933358  0.021553809          102 
 3158000   0.75154763   -6.8414341    831.26872  0.021935527  0.021547461          107 
 3159000   0.75082029   -6.8147397    830.58493  0.021910545  0.021541122          114 
 3160000   0.74941699   -6.8357036    828.71737  0.021854361  0.021534787          121 
 3161000   0.74577237   -6.8583309    831.41871  0.021918663  0.021528438           71 
 3162000   0.74645222   -6.8226632    830.37229  0.021884153  0.021522109           94 
 3163000   0.76479905   -6.8490931    828.71762   0.02183364  0.021515757           85 
 3164000   0.73713971   -6.8472539     829.9403  0.021858942  0.021509413           42 
 3165000   0.74913682   -6.8518495    831.13991  0.021883621  0.021503073           27 
 3166000   0.72987015   -6.8214464    828.92841  0.021818499  0.021496716           35 
 3167000   0.74768501   -6.8422927    829.34754  0.021822638  0.021490356           53 
 3168000   0.75930837   -6.8442731    829.91182  0.021830593  0.021484013           25 
 3169000   0.75302746   -6.8603638    831.07663  0.021854335   0.02147766           22 
 3170000   0.74237147    -6.813211    830.78886  0.021839875  0.021471307           13 
 3171000   0.73836822   -6.8244734    830.42122  0.021823326  0.021464973           45 
 3172000   0.73943459   -6.8039854    830.88037  0.021828509  0.021458639           61 
 3173000   0.74310699   -6.8240502    829.19254  0.021777302  0.021452321           22 
 3174000   0.74730048   -6.8379695    830.66748  0.021809165  0.021446022           47 
 3175000   0.75172114   -6.8359496    832.36461   0.02184684  0.021439718           76 
 3176000   0.75582919   -6.8631607     830.7523  0.021797657  0.021433391           38 
 3177000   0.76894378   -6.8305178    830.16083  0.021775281  0.021427068           52 
 3178000   0.74167751   -6.8767801     833.4681  0.021855153  0.021420744           53 
 3179000   0.75198551   -6.8509685    832.19149  0.021814813  0.021414431           38 
 3180000   0.74616488   -6.8816746    831.77775  0.021797111  0.021408128           44 
 3181000   0.72486421   -6.8666455    830.92553  0.021767933  0.021401786           29 
 3182000   0.72308391   -6.8515414    831.34906  0.021772184  0.021395437           44 
 3183000   0.74334613    -6.823544    832.34754  0.021791484  0.021389149           33 
 3184000     0.743905   -6.8340561    833.16213   0.02180596  0.021382842           14 
 3185000   0.74475303   -6.8346375    830.79867  0.021737275  0.021376515           95 
 3186000   0.75196874   -6.8254825    830.86378  0.021732156  0.021370189           94 
 3187000   0.74622896   -6.8710189    830.90203  0.021726337  0.021363875          135 
 3188000   0.74624589   -6.8523584    831.41449  0.021732917  0.021357573           34 
 3189000   0.74085054   -6.8346507    832.46311  0.021753505   0.02135124           78 
 3190000   0.72410271   -6.8555345    830.44164  0.021693878  0.021344927           62 
 3191000   0.73519498   -6.8455662    830.84536  0.021697622  0.021338614           41 
 3192000   0.73327703   -6.8138818    831.86953  0.021717563  0.021332317           37 
 3193000   0.75252074   -6.8675135    832.96838   0.02173944  0.021326011           40 
 3194000   0.74064271   -6.8475708    831.35728  0.021690599  0.021319703           58 
 3195000   0.73276235   -6.8719406    831.91105  0.021698254  0.021313373           85 
 3196000   0.73514751   -6.8234215    831.59537  0.021683233  0.021307042           87 
 3197000   0.73331678   -6.8639732     831.5509  0.021675292  0.021300734           26 
 3198000   0.74483009   -6.8209773    831.95535  0.021679053  0.021294431           36 
 3199000   0.74413952   -6.8314019    831.15859  0.021651521  0.021288108           20 
 3200000   0.73869607   -6.8207478    831.38229  0.021650581  0.021281813           34 
 3201000   0.75312418   -6.8550301    830.32375  0.021616259  0.021275495           75 
 3202000    0.7270032   -6.8627086    832.50589  0.021666299  0.021269167           98 
 3203000   0.73845633   -6.8250545    830.38325   0.02160431  0.021262837          140 
 3204000   0.74554125   -6.8592243     830.1669   0.02159194  0.021256525           71 
 3205000   0.73339288   -6.8626763      832.235  0.021638976  0.021250212          125 
 3206000    0.7291972   -6.8614328    833.22495  0.021657958   0.02124389           81 
 3207000   0.73392215   -6.8455899    831.03621   0.02159433  0.021237562           87 
 3208000   0.72425254   -6.8510371    832.20483  0.021617956  0.021231246          108 
 3209000   0.72025101   -6.8451365    831.56463  0.021594594  0.021224926           98 
 3210000   0.72691845   -6.8265664    832.05901  0.021600701  0.021218648           95 
 3211000   0.73017847    -6.829669    834.95936  0.021669245  0.021212394           58 
 3212000   0.72874893   -6.8403271    833.44835  0.021623297   0.02120612           66 
 3213000   0.74420353   -6.8399272    833.30658   0.02161289  0.021199849           67 
 3214000   0.73817587   -6.8382549    833.02538  0.021598874  0.021193581           67 
 3215000   0.74570556   -6.8488661     834.0533    0.0216188  0.021187309           98 
 3216000   0.73899235   -6.8590743    833.46267  0.021596773   0.02118102           79 
 3217000   0.74569795    -6.868995    832.49946  0.021565109  0.021174741           65 
 3218000   0.77061046   -6.8588718    830.82223  0.021514974  0.021168452          125 
 3219000   0.74853975   -6.8922275    832.08274  0.021540922  0.021162159           91 
 3220000   0.74043651   -6.8751048    831.78228  0.021526457  0.021155844          143 
 3221000   0.73594461   -6.8391594    831.77595   0.02151961  0.021149554           82 
 3222000   0.73151428   -6.9054843    832.12405  0.021521934  0.021143257          182 
 3223000   0.74249428   -6.8497194     831.8824  0.021509008  0.021136929          108 
 3224000    0.7433768   -6.8877188    830.87444  0.021476283  0.021130596          155 
 3225000   0.72846175    -6.848424    832.70941  0.021517039  0.021124282           82 
 3226000   0.72679162   -6.8712238    833.07309  0.021519764  0.021117957          167 
 3227000   0.72826079   -6.8956898    831.86603  0.021481924  0.021111633           90 
 3228000   0.72893943   -6.8712742    831.79582  0.021473457  0.021105323          125 
 3229000   0.73969559   -6.8685081    832.24048  0.021478282  0.021099028           92 
 3230000   0.73689614   -6.8784883    832.75436  0.021484891  0.021092725          129 
 3231000   0.72194081   -6.8452222    832.79677  0.021479335  0.021086442           79 
 3232000   0.73136774   -6.8930403    832.38545  0.021462084  0.021080169          154 
 3233000   0.74394307   -6.8641089     832.6224  0.021461553  0.021073856          136 
 3234000   0.74481457   -6.8757241    833.03964  0.021465668  0.021067571          134 
 3235000   0.72248464   -6.8642237    833.25245  0.021464515  0.021061272          241 
 3236000   0.74230203   -6.8716017    833.06987  0.021453179  0.021054984          226 
 3237000   0.74185748   -6.8502424     831.2236  0.021399022    0.0210487          239 
 3238000   0.74156281    -6.882487    832.42227  0.021423262  0.021042428          209 
 3239000   0.73180138   -6.8685121    833.21429  0.021437025  0.021036159          156 
 3240000   0.73171376   -6.8704512    833.89418  0.021447895  0.021029892          167 
 3241000   0.73343957   -6.8583228    832.98329  0.021417857  0.021023614          170 
 3242000    0.7483595   -6.8471794    834.31554  0.021445495  0.021017332          188 
 3243000   0.74764059   -6.8643408    831.22885  0.021359565  0.021011059          264 
 3244000   0.72679905   -6.8963496     831.7902  0.021367401  0.021004779          300 
 3245000   0.74807577   -6.8737043    833.01346  0.021392231  0.020998484          212 
 3246000   0.72544711   -6.8634925    833.46243  0.021397167  0.020992222          216 
 3247000   0.72789928   -6.8825425    834.12602  0.021407607  0.020985971          175 
 3248000   0.73781147   -6.8693659       834.29  0.021405224  0.020979735          250 
 3249000   0.73279527   -6.8857245    833.90198  0.021388683  0.020973495          192 
 3250000    0.7546886   -6.8733656    832.16018  0.021337441  0.020967245          252 
 3251000   0.74777908   -6.8706321    834.29721  0.021385656  0.020961006          248 
 3252000   0.72994719   -6.8453628    834.49768  0.021384217  0.020954764          270 
 3253000   0.72330447   -6.8597851    835.41237  0.021401075  0.020948521          289 
 3254000    0.7220378   -6.8779166    832.74153  0.021326099  0.020942269          330 
 3255000   0.74989669   -6.8700335    832.93567  0.021324518  0.020936013          338 
 3256000   0.73720249   -6.8691409    833.17537  0.021324103  0.020929754          468 
 3257000   0.72435478   -6.9016055    833.05876  0.021314573  0.020923471          520 
 3258000   0.74666816   -6.8836841    834.39949  0.021342324  0.020917204          508 
 3259000   0.73604975   -6.9166358    832.03451  0.021275302  0.020910907          540 
 3260000   0.71738126    -6.893392    832.58394  0.021282821  0.020904596          485 
 3261000   0.72043055   -6.9070128    831.99394  0.021261217  0.020898296          582 
 3262000   0.73267939   -6.9059024    831.98023  0.021254349  0.020892016          629 
 3263000   0.72683576   -6.8924483    831.66889  0.021239884    0.0208857          652 
 3264000   0.73516959   -6.9021233      832.451  0.021253345  0.020879395          626 
 3265000   0.73077834   -6.9162445    832.29797  0.021242929  0.020873111          645 
 3266000   0.75461258   -6.9091491    831.41578  0.021213916  0.020866795          692 
 3267000   0.71366077   -6.9270004     832.4253  0.021233173  0.020860476          814 
 3268000   0.74433148   -6.9259974    832.18136  0.021220455   0.02085416          830 
 3269000   0.74083878   -6.9564421    831.18841  0.021188651  0.020847839          855 
 3270000   0.72315063   -6.9563559    831.32611  0.021185681  0.020841495          934 
 3271000   0.74340426   -6.9213898    830.11462  0.021148339  0.020835146          978 
 3272000   0.72626608   -6.9625079    829.34254  0.021122212  0.020828775          963 
 3273000   0.72692515   -6.9492997    833.12464  0.021212054  0.020822404          986 
 3274000   0.71860526   -6.9378709    829.93604  0.021124415   0.02081602         1031 
 3275000   0.72069895   -6.9764709    831.76684  0.021164551  0.020809637         1107 
 3276000   0.71280939   -6.9983586    829.34624  0.021096516  0.020803229         1180 
 3277000   0.74460363   -6.9880674    830.13879  0.021110233  0.020796792         1285 
 3278000   0.72114145   -7.0118046    828.07843  0.021051414  0.020790338         1330 
 3279000   0.72617737   -7.0001879    829.17822  0.021072945   0.02078387         1477 
 3280000   0.74926905   -7.0105954     828.6756   0.02105375  0.020777387         1463 
 3281000   0.71527663   -7.0093768    828.22591  0.021035912  0.020770894         1516 
 3282000    0.7311196   -7.0040371    828.73604  0.021042455  0.020764369         1568 
 3283000   0.73845792   -7.0436022    826.90167  0.020989483  0.020757867         1651 
 3284000   0.73248249   -7.0443404    826.93326  0.020983893  0.020751345         1711 
 3285000   0.72534682   -7.0432942    827.30793   0.02098701  0.020744796         1796 
 3286000   0.71769118    -7.055459    826.97389  0.020972152  0.020738243         1829 
 3287000   0.74680014   -7.0502231    826.90388  0.020963997  0.020731669         1938 
 3288000     0.715695   -7.0885381    825.89457   0.02093204  0.020725068         2152 
 3289000    0.7018709   -7.0899847    824.69813  0.020895362  0.020718425         2118 
 3290000   0.70857128   -7.1165595    824.95902  0.020895619  0.020711762         2270 
 3291000   0.71764683   -7.1097729    824.82773  0.020885945   0.02070509         2403 
 3292000   0.72618488   -7.1016947    823.22243  0.020838964  0.020698402         2527 
 3293000   0.73179123   -7.1555024    823.13908  0.020830526  0.020691715         2647 
 3294000   0.73104114   -7.1624432     821.6129  0.020785593  0.020684959         2732 
 3295000   0.72074894   -7.1797649     821.6682  0.020780683  0.020678163         2898 
 3296000   0.73771244   -7.2028217    819.89426  0.020729527  0.020671312         2995 
 3297000   0.73382924   -7.2043504    820.01227  0.020726223  0.020664428         3092 
 3298000   0.72604416   -7.2616639    816.45246  0.020629989  0.020657496         3245 
 3299000   0.71710012   -7.2889359    817.11078  0.020640365  0.020650525         3235 
 3300000   0.70805691    -7.279866    816.21919  0.020611596  0.020643534         3274 
 3301000   0.72741325   -7.2911779     817.8815  0.020647316  0.020636525         3264 
 3302000   0.74419901   -7.3159954    815.73774  0.020586961  0.020629481         3394 
 3303000   0.71581854   -7.3127638    813.91815   0.02053482  0.020622422         3432 
 3304000   0.71114147   -7.2961708    815.56896  0.020570242  0.020615345         3578 
 3305000   0.74754579    -7.371694      815.203  0.020554791   0.02060825         3640 
 3306000   0.71819153   -7.3467604    815.50564  0.020556202  0.020601122         3696 
 3307000   0.72650146   -7.3824155    814.27295  0.020518923  0.020593991         3729 
 3308000   0.71637919   -7.3833686    812.99368  0.020480494  0.020586803         3799 
 3309000    0.7083657   -7.4132808    812.50944  0.020462109  0.020579594         3815 
 3310000   0.73372511   -7.4057125     812.5775  0.020457641  0.020572379         3837 
 3311000   0.72487909   -7.4217155    812.84453  0.020458183  0.020565149         3858 
 3312000   0.72743139   -7.4311377    811.13452  0.020408981  0.020557904         3841 
 3313000   0.71176282    -7.414807    810.60285  0.020389447  0.020550672         3823 
 3314000   0.71438617   -7.4264312    810.97222  0.020392582  0.020543431         3824 
 3315000   0.71546819   -7.4529722    811.69881  0.020404696  0.020536189         3823 
 3316000   0.73019625   -7.4217338    813.08603  0.020433404  0.020528949         3841 
 3317000   0.73132829   -7.4559058    811.49458  0.020387262  0.020521707         3839 
 3318000   0.72302657   -7.4384802    812.64174  0.020409929  0.020514476         3843 
 3319000   0.72386189   -7.4456198    809.56055  0.020326417   0.02050724         3842 
 3320000   0.73191226   -7.4265644    811.27241  0.020363263  0.020500001         3823 
 3321000   0.72046064    -7.429406    811.87446  0.020372239  0.020492753         3847 
 3322000   0.71873839   -7.4346375     811.7298  0.020362477  0.020485508         3828 
 3323000   0.72067375   -7.4455898    809.99764  0.020312911  0.020478267         3839 
 3324000   0.71522589   -7.4447504    809.52512  0.020294954  0.020471017         3850 
 3325000   0.70878538   -7.4449514    811.75697  0.020344786  0.020463779         3840 
 3326000   0.72405454   -7.4590804    811.41595  0.020330125  0.020456526         3824 
 3327000   0.71825195   -7.4194388    809.85086  0.020284813  0.020449284         3848 
 3328000   0.73709171    -7.445474    809.34832  0.020266134   0.02044204         3859 
 3329000   0.71835632   -7.4576161     808.9403  0.020249832  0.020434791         3868 
 3330000   0.73199797    -7.477058     809.8223  0.020265823  0.020427542         3860 
 3331000   0.72035967   -7.4357574    810.21297  0.020269513  0.020420295         3877 
 3332000   0.72039048   -7.4592711    811.02808  0.020283816  0.020413042         3870 
 3333000   0.71013213   -7.4573436    810.05148  0.020253312   0.02040579         3879 
 3334000   0.70953989   -7.4414853    810.78889  0.020265669   0.02039855         3859 
 3335000    0.6987061   -7.4505642    810.19213  0.020244681  0.020391312         3872 
 3336000   0.72206722   -7.4501975    808.53897  0.020197317  0.020384076         3862 
 3337000   0.72703256   -7.4245396    811.65036  0.020268963  0.020376834         3855 
 3338000   0.73590416   -7.4371388    812.29958  0.020279099  0.020369596         3854 
 3339000   0.71497744   -7.4606833    809.12542  0.020193806  0.020362365         3866 
 3340000   0.72216069   -7.4325862     811.0537  0.020235871  0.020355133         3851 
 3341000   0.72693734    -7.448555    810.30758  0.020211204  0.020347907         3857 
 3342000   0.71107981    -7.450344    810.76945  0.020216673  0.020340673         3836 
 3343000       0.7181   -7.4386554    811.02371  0.020216964  0.020333444         3847 
 3344000   0.72274281   -7.4666044    809.11839  0.020163437  0.020326222         3857 
 3345000   0.69848876   -7.4400058    808.94178  0.020153009  0.020318991         3854 
 3346000   0.71648751   -7.4505832    810.41079  0.020183572  0.020311763         3833 
 3347000   0.71988285    -7.456319    811.77593  0.020211531  0.020304545         3839 
 3348000   0.72016456   -7.4405611    809.86377  0.020157899  0.020297327         3833 
 3349000   0.72791634    -7.456599    809.75352  0.020149137  0.020290109         3859 
 3350000   0.70865173    -7.474562    810.44141  0.020160234   0.02028289         3824 
 3351000   0.70160352   -7.4627565    809.05982   0.02011986  0.020275655         3855 
 3352000   0.70727916   -7.4442603    812.16223  0.020190986  0.020268436         3817 
 3353000   0.70943693   -7.4566359    809.86783  0.020127941  0.020261221         3844 
 3354000   0.72298497   -7.4587885    809.95906  0.020124206     0.020254         3862 
 3355000   0.72160276   -7.4442411    809.08684  0.020096543  0.020246791         3874 
 3356000   0.69607004   -7.4507429    811.51097  0.020150749  0.020239583         3842 
 3357000   0.72252593   -7.4508037    810.44119  0.020118191  0.020232361         3876 
 3358000   0.70509944   -7.4756501    808.72144  0.020069521  0.020225147         3867 
 3359000    0.7047511   -7.4629063    810.62473  0.020110765  0.020217937         3871 
 3360000   0.72431434   -7.4468499     810.6868   0.02010632   0.02021074         3838 
 3361000   0.70714633   -7.4829495    811.04704  0.020109269  0.020203542         3897 
 3362000   0.70959627   -7.4695977    808.52652  0.020040812  0.020196335         3871 
 3363000   0.73439579   -7.4664076    812.02139  0.020121454  0.020189131         3859 
 3364000   0.71312359   -7.4620813    810.77356  0.020084561  0.020181939         3850 
 3365000   0.70402274   -7.4528294    809.52993  0.020047794  0.020174742         3863 
 3366000   0.70741325   -7.4592384    810.19351  0.020058267  0.020167539         3882 
 3367000   0.71048767   -7.4663391    808.60544  0.020013005  0.020160331         3867 
 3368000   0.71700909   -7.4532099    809.98803  0.020041272   0.02015314         3863 
 3369000   0.70857334    -7.457723    809.88664  0.020032815  0.020145946         3862 
 3370000   0.72450589   -7.4476026     810.9775  0.020053845  0.020138756         3854 
 3371000   0.72160228   -7.4410951    809.79579  0.020018684  0.020131563         3866 
 3372000    0.7189263    -7.462324    809.93428  0.020016169  0.020124368         3851 
 3373000   0.69393479   -7.4656395    810.14063  0.020015333  0.020117174         3856 
 3374000    0.7100857   -7.4896277    810.63993  0.020021733   0.02010998         3835 
 3375000   0.71697319   -7.4692653    809.55759  0.019989076   0.02010278         3882 
 3376000   0.69902694    -7.475449     809.3694   0.01997851  0.020095584         3841 
 3377000   0.71665941   -7.4600065    810.22904  0.019993807    0.0200884         3858 
 3378000   0.70523412   -7.4805827    810.28739  0.019989328  0.020081204         3859 
 3379000   0.71848478   -7.4649623    808.89138  0.019948984  0.020074013         3870 
 3380000   0.71594286   -7.4891161    811.03646  0.019995968  0.020066826         3849 
 3381000   0.71834916   -7.4822787    809.50393  0.019952281  0.020059645         3853 
 3382000   0.71290724   -7.4701303    809.38986   0.01994357  0.020052466         3857 
 3383000   0.71830903   -7.4584118    808.83887  0.019924103  0.020045287         3848 
 3384000   0.72210594   -7.4646129    809.85262  0.019943179  0.020038112         3869 
 3385000   0.71006677   -7.4682273    809.79833  0.019935951  0.020030943         3849 
 3386000   0.70708638   -7.4373589    809.40112  0.019920288  0.020023765         3873 
 3387000   0.73745665   -7.4811282    808.49748  0.019892173  0.020016595         3837 
 3388000   0.69360844   -7.4592178    809.49767  0.019910903  0.020009424         3852 
 3389000    0.6989833    -7.492928    809.42146  0.019903154  0.020002257         3854 
 3390000    0.7179875   -7.4675067      809.081  0.019888914  0.019995087         3862 
 3391000   0.71036094   -7.4620725    811.42783  0.019940721   0.01998792         3845 
 3392000   0.70576158     -7.47219    809.64153  0.019890957  0.019980768         3870 
 3393000   0.70518946   -7.4589275    808.81318  0.019864751  0.019973607         3853 
 3394000   0.70551846   -7.4829641    809.22049  0.019868898  0.019966457         3872 
 3395000   0.71288823   -7.4713933     809.5962  0.019872268  0.019959293         3844 
 3396000   0.70829394   -7.4758834    809.56033  0.019865536  0.019952143         3852 
 3397000   0.71921794   -7.4474965    809.53786  0.019859137  0.019944991         3839 
 3398000   0.69086354   -7.4565276    809.98356  0.019864223  0.019937841         3854 
 3399000   0.71950546   -7.4668645     809.2177  0.019839602  0.019930682         3845 
 3400000   0.70320769   -7.4728314    808.33938   0.01981224  0.019923529         3853 
 3401000   0.69224168   -7.4710931    808.20591  0.019803144  0.019916379         3847 
 3402000   0.71623532   -7.4680105    809.17749  0.019821122  0.019909226         3847 
 3403000   0.71577681   -7.4898152    809.66796  0.019827308  0.019902082         3840 
 3404000    0.7025668   -7.4712676    809.80323  0.019824795  0.019894938         3852 
 3405000   0.70544663   -7.4743775     810.6579   0.01983989  0.019887798         3829 
 3406000   0.70624281   -7.4843512    810.44043  0.019828744  0.019880664         3857 
 3407000   0.69413343   -7.4822466    809.24546  0.019793696  0.019873534         3868 
 3408000   0.70537888   -7.4774794    808.44205  0.019768243  0.019866395         3857 
 3409000   0.70744789   -7.4662442     809.0895  0.019778271  0.019859268         3855 
 3410000   0.71812986   -7.4750418    810.10696  0.019797335  0.019852137         3862 
 3411000   0.69674025   -7.4688048    809.82381  0.019784614  0.019845006         3842 
 3412000   0.70717731   -7.4631753    810.01546  0.019783496  0.019837869         3862 
 3413000   0.71302367   -7.4882769    808.43878  0.019739203  0.019830744         3862 
 3414000   0.70264664   -7.4901266    809.50631  0.019759478  0.019823624         3867 
 3415000   0.71037728   -7.4737655    808.30482  0.019724373  0.019816502         3859 
 3416000   0.68707338   -7.4705252     810.2906  0.019767042  0.019809374         3867 
 3417000   0.71543742   -7.4655694    808.36854  0.019714382  0.019802251         3855 
 3418000   0.69933269   -7.4818418    808.71651  0.019717098   0.01979513         3891 
 3419000   0.69870621   -7.4847649    809.84921   0.01973894  0.019788013         3844 
 3420000   0.69625561   -7.4748537     809.5996  0.019727086  0.019780898         3857 
 3421000   0.69969327   -7.4794658    809.44079  0.019717451   0.01977379         3861 
 3422000   0.69590156   -7.4853825      808.171  0.019680767  0.019766677         3844 
 3423000    0.7104459   -7.4580852    809.54495  0.019708466  0.019759577         3835 
 3424000   0.69851198   -7.4766003    809.83588  0.019709791  0.019752479         3851 
 3425000   0.69848413   -7.4767649    808.38832  0.019668816  0.019745382         3854 
 3426000   0.71618019   -7.4941103    809.91041  0.019700097  0.019738279         3875 
 3427000   0.69925396   -7.4684929    808.97625  0.019671633  0.019731178         3831 
 3428000   0.70701012   -7.4999225    808.68246  0.019658753  0.019724078         3846 
 3429000   0.71094997   -7.5129754    810.03025  0.019685774   0.01971698         3863 
 3430000   0.71458119   -7.4955536    810.74156  0.019697317  0.019709884         3823 
 3431000   0.70443321   -7.4713474    809.95796  0.019672543  0.019702788         3863 
 3432000   0.69183394    -7.495468    809.99675  0.019667753  0.019695699         3859 
 3433000   0.69550124   -7.4899086    809.98373  0.019661708  0.019688593         3862 
 3434000   0.69918498   -7.4804322    808.21405  0.019613037  0.019681507         3851 
 3435000   0.69655034   -7.4908508    809.67838  0.019642852  0.019674419         3845 
 3436000     0.703247   -7.4871386    809.16657  0.019624723  0.019667329         3848 
 3437000   0.70467927   -7.4848428    808.77327  0.019609477  0.019660245         3842 
 3438000   0.68865562   -7.4861353    810.62092  0.019648558  0.019653165         3869 
 3439000   0.69986645   -7.4728977    809.40994  0.019613501  0.019646093         3862 
 3440000   0.70769117   -7.4676339     807.9939  0.019573496   0.01963901         3874 
 3441000   0.69689251   -7.4644196    808.91006  0.019589995  0.019631926         3859 
 3442000   0.70642879   -7.5039577    808.03252  0.019563057  0.019624847         3869 
 3443000   0.70279133   -7.4945813    808.96892   0.01958004  0.019617773         3863 
 3444000   0.71295623    -7.469457    809.36532  0.019583946  0.019610707         3868 
 3445000   0.69588593   -7.5072683    807.99358  0.019545079  0.019603627         3872 
 3446000   0.67925975   -7.4828619    809.73698  0.019581568  0.019596555         3853 
 3447000   0.70800396   -7.4644616    808.30796  0.019541339  0.019589486         3850 
 3448000    0.6897158   -7.4914093    809.70045  0.019569326  0.019582424         3861 
 3449000   0.69909193   -7.4825958    809.18303  0.019551151  0.019575363         3862 
 3450000   0.70410765   -7.4718951    807.30803  0.019500194  0.019568295         3841 
 3451000   0.68974342   -7.4808128    808.24063  0.019517063  0.019561244         3852 
 3452000   0.69689131   -7.5109818    809.70555  0.019546774  0.019554179         3843 
 3453000   0.68211164   -7.4747058    808.62276  0.019514981  0.019547128         3852 
 3454000   0.68859996   -7.4868762    807.62394  0.019485233  0.019540069         3826 
 3455000    0.6855642   -7.5029856    807.68388  0.019481039  0.019533014         3849 
 3456000   0.69574863   -7.5084957    806.36876  0.019443691  0.019525958         3846 
 3457000   0.69844578   -7.5079837    810.17553  0.019529832  0.019518907         3841 
 3458000   0.69961165    -7.510282    808.44806  0.019482554  0.019511864         3836 
 3459000   0.67679641    -7.467083    808.15817  0.019469938  0.019504823         3848 
 3460000    0.7020069   -7.4899058    807.15291  0.019440099  0.019497775         3849 
 3461000   0.69111573   -7.4852718    809.12317  0.019481922  0.019490726         3861 
 3462000   0.68714905   -7.4908445    807.83576  0.019445305  0.019483687         3862 
 3463000    0.7265214   -7.4925382    809.44775  0.019478481  0.019476648         3845 
 3464000    0.6744114   -7.4850564    808.17822  0.019442317  0.019469611         3859 
 3465000   0.70559184   -7.4981533    806.99959  0.019408359  0.019462573         3864 
 3466000   0.69481356   -7.4700026    809.16327  0.019454781  0.019455535         3857 
 3467000   0.69578853   -7.4968573    808.50403  0.019433324  0.019448506         3870 
 3468000    0.6874703   -7.5132662    808.11356  0.019418338  0.019441465         3846 
 3469000   0.67829939   -7.5036776    808.55966  0.019423457  0.019434434         3846 
 3470000   0.69200447   -7.4816936    808.62485  0.019419425    0.0194274         3858 
 3471000   0.69277247   -7.5186171    807.59264  0.019389048  0.019420372         3881 
 3472000   0.70449023   -7.5123256    808.48652  0.019404918  0.019413351         3854 
 3473000   0.70475293   -7.4852211    807.98995  0.019387416  0.019406339         3861 
 3474000   0.68593979    -7.479108    806.38316  0.019343292  0.019399324         3861 
 3475000   0.66772574   -7.5009418    808.37273  0.019385437  0.019392308         3862 
 3476000   0.68744427   -7.4706075    808.40132  0.019380546  0.019385304         3845 
 3477000   0.70243075   -7.4803843    808.48152  0.019376894   0.01937829         3859 
 3478000   0.68737442   -7.4707987    807.65333  0.019351479  0.019371288         3854 
 3479000   0.68410612    -7.485013    809.47704    0.0193896  0.019364279         3865 
 3480000   0.69458693   -7.4825103     807.5769  0.019338527  0.019357274         3839 
 3481000   0.70325436   -7.4940543    806.76572  0.019313553  0.019350276         3849 
 3482000   0.69048008   -7.5063588    807.82142  0.019333271  0.019343278         3858 
 3483000   0.68440103   -7.4717656    808.40805  0.019341756  0.019336285         3859 
 3484000   0.69830044   -7.5086789    809.36623  0.019359123  0.019329293         3849 
 3485000   0.70576055   -7.5276005    808.21581   0.01932606  0.019322302         3874 
 3486000   0.68565355   -7.4834132    808.92038  0.019337359  0.019315303         3875 
 3487000   0.68464222   -7.5058967    808.28276  0.019316575  0.019308323         3849 
 3488000   0.70126082   -7.4928448    809.48827  0.019339838  0.019301338         3851 
 3489000   0.70080233   -7.4908912    807.52226  0.019287338  0.019294356         3884 
 3490000   0.69905333   -7.5000801    809.52243  0.019329571  0.019287374         3870 
 3491000   0.69439347   -7.4995687      808.292  0.019294662  0.019280393         3859 
 3492000   0.68209156   -7.4931974    808.55964  0.019295524  0.019273415         3846 
 3493000   0.70618355   -7.5033984    808.85426  0.019297029  0.019266435         3871 
 3494000   0.70954349   -7.4987174    809.00531  0.019295109  0.019259459         3868 
 3495000   0.70795193   -7.4978797    808.04595  0.019266713  0.019252484         3871 
 3496000   0.69187719   -7.4971983    808.15009  0.019263684  0.019245507         3861 
 3497000   0.68449689   -7.5049714    807.56262  0.019244176  0.019238536         3848 
 3498000   0.69768445   -7.5032813    808.88392  0.019270152  0.019231567         3848 
 3499000   0.70364153   -7.4947377    808.03192  0.019244354  0.019224603         3862 
 3500000    0.6918181   -7.4842164    806.91009  0.019212145  0.019217642         3883 
 3501000   0.69014896   -7.4950411    809.42202  0.019266448  0.019210688         3845 
 3502000   0.68426701   -7.5184135    808.42645  0.019237256  0.019203723         3867 
 3503000   0.69024878   -7.4821001    808.64626  0.019236994  0.019196765         3864 
 3504000   0.69545112   -7.5061176     809.2077  0.019244856  0.019189809         3859 
 3505000   0.68962271   -7.4984497    806.69883  0.019179715  0.019182854         3853 
 3506000   0.68508862   -7.5298504     809.1277  0.019231976  0.019175901         3861 
 3507000   0.68451936   -7.4897154    808.11608  0.019202454  0.019168946         3878 
 3508000   0.69342306   -7.5219037    807.38464  0.019179605  0.019161994         3880 
 3509000   0.69204839   -7.5053477    809.33417  0.019220437  0.019155041         3855 
 3510000   0.67485619   -7.4900662    808.61804  0.019197959  0.019148095         3849 
 3511000   0.67990283   -7.4986741    806.87358  0.019151086  0.019141155         3863 
 3512000   0.68193947   -7.5193667    808.66167  0.019188062  0.019134216         3865 
 3513000   0.67952293     -7.49765    807.18529  0.019147578   0.01912727         3852 
 3514000   0.67655508   -7.5057334    807.75148  0.019155556  0.019120334         3879 
 3515000   0.70388518   -7.5008069    808.25529   0.01916205  0.019113406         3851 
 3516000   0.67874975   -7.5002352    807.05777  0.019128218  0.019106471         3872 
 3517000   0.69215647   -7.5088397    807.22695  0.019126788  0.019099543         3854 
 3518000     0.676834   -7.5265428    807.30765  0.019123263  0.019092613         3875 
 3519000   0.67980451   -7.4907587    807.95433  0.019133142  0.019085686         3850 
 3520000   0.68552935   -7.5216065    807.70623  0.019121833  0.019078759         3858 
 3521000   0.70040125   -7.5119996    808.29216   0.01913027  0.019071834         3887 
 3522000   0.70317663   -7.5186062    807.33092  0.019102094  0.019064913         3857 
 3523000    0.6879212   -7.5351186    807.07329  0.019090578   0.01905798         3854 
 3524000   0.67486502   -7.4831543    807.62603  0.019098232  0.019051056         3844 
 3525000   0.68684915   -7.5142373    809.64524  0.019140549  0.019044131         3856 
 3526000   0.69082179    -7.518864    806.06789  0.019050574  0.019037221         3853 
 3527000   0.68897341   -7.5037599    805.20854  0.019024869  0.019030315         3865 
 3528000   0.68000385   -7.5134346    808.38744  0.019094564  0.019023402         3858 
 3529000   0.68534646    -7.512226    808.56708  0.019093395  0.019016493         3853 
 3530000   0.67726064   -7.5022345    807.99668   0.01907452  0.019009583         3860 
 3531000   0.68450956   -7.4968859    808.58874  0.019083091  0.019002673         3857 
 3532000   0.67995812   -7.5159505    808.52006  0.019076068  0.018995776         3859 
 3533000   0.68799046   -7.5214881    808.46536  0.019069378  0.018988872         3854 
 3534000   0.68347862   -7.5384673    808.20668  0.019057883  0.018981974         3865 
 3535000   0.68706821   -7.5173661    808.19779  0.019052282   0.01897508         3862 
 3536000   0.68424194    -7.503682    808.28972   0.01904906  0.018968178         3850 
 3537000   0.69258697   -7.5123591    807.37249  0.019022064  0.018961285         3853 
 3538000   0.67946728   -7.5137512    806.91784  0.019005979  0.018954395         3847 
 3539000   0.68710161   -7.5191715    807.12425  0.019005469  0.018947506         3876 
 3540000   0.69383057   -7.5029683     806.7552  0.018991413  0.018940619         3851 
 3541000   0.66937406   -7.5093232    807.27002  0.018998165  0.018933734         3851 
 3542000   0.68320298   -7.5273056    807.07428  0.018988196  0.018926849         3880 
 3543000   0.69531282   -7.5233013    807.33499  0.018988969  0.018919975         3879 
 3544000   0.69677351   -7.5088438    808.60983  0.019013587  0.018913099         3858 
 3545000   0.68844003   -7.5145944    808.03251  0.018994652  0.018906218         3879 
 3546000   0.69770767   -7.4914957    808.31815  0.018996008  0.018899342         3865 
 3547000   0.68615451    -7.520487     807.0444  0.018960727  0.018892476         3830 
 3548000   0.67809386   -7.5312865    807.42447   0.01896431  0.018885606         3859 
 3549000   0.67043726   -7.5187073    807.19371  0.018953548  0.018878736         3868 
 3550000   0.69646848   -7.4973779    808.91899  0.018988709  0.018871874         3861 
 3551000   0.68693986   -7.5276907    806.86578  0.018935177  0.018865013         3866 
 3552000   0.70493319   -7.5374373    806.82851  0.018928972  0.018858152         3861 
 3553000   0.67658972   -7.5103787    806.02663  0.018904837  0.018851292         3868 
 3554000    0.6965845   -7.5391321     808.1439  0.018949163  0.018844433         3853 
 3555000    0.6914154    -7.533274    806.17712  0.018897729  0.018837574         3859 
 3556000   0.68774195   -7.5309494    807.66581  0.018927302   0.01883072         3852 
 3557000   0.70515096   -7.5227657    806.05139  0.018884158  0.018823873         3865 
 3558000   0.68239405   -7.5091848    806.30379  0.018884762  0.018817024         3854 
 3559000   0.68839792   -7.4971273     809.0799  0.018944458  0.018810174         3846 
 3560000   0.68541849    -7.518432    806.44635  0.018877489  0.018803332         3861 
 3561000   0.68830838   -7.5238213    806.71914  0.018878572  0.018796494         3861 
 3562000   0.67729617   -7.5234837    806.64485  0.018871534  0.018789652         3873 
 3563000   0.69129846   -7.5109152    808.78083  0.018916195  0.018782821         3843 
 3564000   0.66483523   -7.5318556    807.71392  0.018885941  0.018775982         3859 
 3565000   0.67316952   -7.5324057    806.61777   0.01885502  0.018769144         3889 
 3566000   0.68594132    -7.518022    805.60258  0.018826009   0.01876231         3879 
 3567000   0.67210916   -7.5065526    807.19762  0.018857995  0.018755475         3869 
 3568000    0.6846571   -7.5072271    808.27049  0.018877767  0.018748642         3855 
 3569000   0.67386228   -7.5211567    808.13157  0.018869234  0.018741812         3844 
 3570000   0.67606934   -7.5187183    807.46684  0.018848432  0.018734993         3865 
 3571000    0.6743144   -7.5196186    807.64564  0.018847327  0.018728173         3853 
 3572000   0.68250101   -7.5209611    807.47555  0.018838082  0.018721347         3860 
 3573000   0.67963667   -7.4961458    806.80126  0.018817083  0.018714519         3869 
 3574000   0.67993956    -7.518619    807.43341  0.018826558  0.018707707         3865 
 3575000   0.66597897    -7.511024    807.03493  0.018812003  0.018700896         3880 
 3576000   0.69461531   -7.5132628    807.04519  0.018806981   0.01869409         3868 
 3577000    0.6628075   -7.5351061    805.79459  0.018772588  0.018687281         3882 
 3578000   0.68822382   -7.5283668    808.60277  0.018832746  0.018680474         3868 
 3579000   0.67170219   -7.5065228    807.54473  0.018802848  0.018673666         3843 
 3580000   0.68318154   -7.5387206    807.22397   0.01879013  0.018666853         3851 
 3581000   0.66910515   -7.5404866    806.93671  0.018778198  0.018660045         3858 
 3582000   0.69045729   -7.5181669     806.5398  0.018763721  0.018653243         3876 
 3583000   0.68158344   -7.5117864    806.37345  0.018754616  0.018646447         3871 
 3584000   0.67806634   -7.5375062     807.9478  0.018785989  0.018639654         3862 
 3585000     0.674269   -7.5324164    805.95418  0.018734407  0.018632861         3880 
 3586000   0.67934114    -7.518774    806.61362  0.018744507  0.018626079         3866 
 3587000    0.6789892   -7.5432604    807.71881  0.018764957  0.018619289         3875 
 3588000   0.67187606    -7.551023    805.85801  0.018716509  0.018612493         3871 
 3589000     0.678397   -7.5262319    808.05634  0.018762337  0.018605706         3852 
 3590000   0.66670736   -7.5361206    806.42765  0.018719305  0.018598919         3870 
 3591000   0.66993595   -7.4936629    807.89942  0.018748246  0.018592136         3863 
 3592000   0.67660926   -7.5478286    806.43695  0.018709098  0.018585364         3889 
 3593000   0.68005193   -7.4939348    807.39333  0.018726072  0.018578592         3860 
 3594000   0.67665526   -7.5403924    807.62553  0.018726246  0.018571816         3866 
 3595000   0.68103058   -7.5427165    807.55461  0.018719393  0.018565032         3876 
 3596000   0.66828042   -7.5178733    807.15808  0.018704998  0.018558262         3854 
 3597000   0.67958617   -7.5409924    807.11216  0.018698734  0.018551486         3863 
 3598000   0.69392859   -7.5143311    805.68106  0.018660391   0.01854471         3872 
 3599000    0.6788034   -7.5563002    806.42686  0.018672475  0.018537943         3872 
 3600000   0.68136383   -7.5190103    807.39938    0.0186898  0.018531179         3863 
 3601000   0.67561465    -7.545418    807.75479  0.018692835  0.018524419         3874 
 3602000   0.68511361   -7.5266206    805.66426   0.01863928  0.018517658         3872 
 3603000   0.66529194   -7.5490333    806.26033  0.018647894  0.018510893         3871 
 3604000   0.66825296   -7.5359358    806.78926   0.01865495  0.018504142         3873 
 3605000   0.68061707   -7.5347111    806.73976  0.018648631  0.018497393         3845 
 3606000   0.66799021   -7.5375198    806.57981  0.018639763  0.018490635         3860 
 3607000   0.66616472   -7.5318947     806.0732  0.018622891  0.018483889         3859 
 3608000   0.67610141   -7.5453562    806.51459  0.018627924  0.018477142         3876 
 3609000   0.68058669   -7.5367343    807.35512   0.01864217  0.018470399         3862 
 3610000   0.69249898   -7.5374798    806.81664  0.018624576  0.018463654         3859 
 3611000   0.67543643   -7.5367941    807.26818  0.018629839  0.018456911         3862 
 3612000   0.66795516   -7.5568445    806.53797  0.018607834  0.018450171         3862 
 3613000   0.66501033   -7.5276369    806.51292  0.018602106  0.018443435         3868 
 3614000   0.68636272   -7.5363602    807.80388  0.018626727  0.018436697         3892 
 3615000   0.67165899   -7.5341588    806.24973  0.018585748  0.018429964         3851 
 3616000   0.67436638   -7.5198642     806.2851  0.018581423  0.018423235         3878 
 3617000   0.64540092     -7.55229    806.10049  0.018572032  0.018416504         3869 
 3618000   0.67169382   -7.5216855    806.34206  0.018572463   0.01840977         3876 
 3619000   0.68256514   -7.5404608    807.45907  0.018593052  0.018403042         3875 
 3620000   0.66997028   -7.5312056    805.41213  0.018540795  0.018396328         3851 
 3621000   0.66517589   -7.5378159    805.06131  0.018527601  0.018389607         3871 
 3622000   0.65430891   -7.5646573    806.27994  0.018550523  0.018382888         3876 
 3623000   0.67778005    -7.553862    806.44292  0.018549152  0.018376165         3878 
 3624000   0.66847315   -7.5569856    806.34211  0.018541715   0.01836946         3870 
 3625000   0.67064256   -7.5295771    807.48249  0.018562816  0.018362752         3868 
 3626000   0.67321632   -7.5531176    806.63421  0.018538201  0.018356044         3887 
 3627000   0.67691972   -7.5301293    805.42709  0.018505355  0.018349338         3878 
 3628000   0.66473546   -7.5246498    806.07979  0.018515247   0.01834264         3868 
 3629000   0.67523282    -7.563234    806.16873  0.018512187  0.018335946         3877 
 3630000   0.65620844   -7.5584275    807.22344    0.0185313  0.018329251         3889 
 3631000   0.65920721   -7.5205244    805.05463  0.018476421  0.018322558         3871 
 3632000   0.66897156   -7.5639388    806.60067  0.018506807  0.018315863         3867 
 3633000    0.6685183   -7.5295428    806.61796  0.018502109   0.01830917         3876 
 3634000    0.6825388   -7.5397929    808.03887  0.018529602  0.018302479         3862 
 3635000   0.67523819   -7.5346527    806.67115  0.018493149  0.018295795         3854 
 3636000   0.67420558   -7.5477228    805.87807  0.018469886   0.01828911         3852 
 3637000   0.68596158   -7.5153412     807.4286  0.018500335  0.018282427         3852 
 3638000   0.69474014   -7.5481764    806.73973   0.01847947  0.018275751         3853 
 3639000   0.67603512   -7.5421781    806.09954  0.018459731  0.018269076         3884 
 3640000   0.66170927   -7.5566408    806.14022  0.018455591  0.018262397         3885 
 3641000   0.67983789   -7.5531436     807.3553  0.018478332  0.018255725         3867 
 3642000   0.66982618   -7.5521436    805.80603   0.01843781  0.018249053         3864 
 3643000   0.65441463   -7.5278505    806.54536  0.018449661  0.018242387         3872 
 3644000   0.66107799   -7.5279772    806.46143  0.018442678   0.01823572         3874 
 3645000   0.66671437   -7.5442798    804.97105  0.018403545  0.018229055         3885 
 3646000   0.66551095   -7.5539213    807.13102  0.018447866  0.018222402         3873 
 3647000   0.65914637   -7.5441832    807.33665  0.018447506  0.018215744         3884 
 3648000   0.66251374   -7.5287398    805.95954  0.018410991  0.018209082         3879 
 3649000   0.67259151   -7.5483081    805.71852  0.018400441  0.018202427         3861 
 3650000   0.65695002   -7.5435184    806.85364  0.018421316  0.018195772         3867 
 3651000   0.65065319   -7.5341556    806.75797  0.018414087  0.018189123         3865 
 3652000   0.67419835   -7.5414987    805.25301  0.018374704  0.018182478         3870 
 3653000   0.66757002   -7.5367764    805.59209  0.018377409  0.018175838         3865 
 3654000   0.65251321   -7.5386654    806.39033  0.018390584  0.018169196         3863 
 3655000   0.65479853   -7.5345729    806.12883   0.01837959  0.018162558         3885 
 3656000   0.66630555   -7.5524581    806.00226  0.018371678  0.018155922         3853 
 3657000   0.66554836   -7.5435166    805.83549  0.018362854  0.018149287         3862 
 3658000    0.6626676   -7.5626235    805.88732  0.018359015  0.018142653         3874 
 3659000   0.66125187   -7.5585658    805.88781  0.018354009   0.01813602         3861 
 3660000   0.66672013   -7.5446415    805.96212  0.018350686  0.018129389         3871 
 3661000   0.64311929   -7.5417465    806.47894  0.018357437  0.018122763         3858 
 3662000   0.65509511   -7.5481233    807.23828  0.018369704  0.018116135         3873 
 3663000   0.66940919   -7.5508204    805.30428  0.018320691   0.01810952         3874 
 3664000   0.66568999   -7.5488874    806.69819  0.018347393  0.018102903         3864 
 3665000   0.64849639   -7.5509549    805.74498  0.018320713  0.018096287         3872 
 3666000   0.64650442   -7.5465548    804.95204  0.018297691   0.01808967         3863 
 3667000   0.65322066   -7.5456408     805.0792  0.018295591  0.018083067         3869 
 3668000      0.67184   -7.5406832    806.20971  0.018316287  0.018076461         3863 
 3669000   0.66864058     -7.56029    805.47973  0.018294715  0.018069853         3894 
 3670000   0.66849149   -7.5351021    806.85167  0.018320883  0.018063249         3871 
 3671000   0.67121597   -7.5496113     805.9643  0.018295748  0.018056649         3871 
 3672000   0.66279149   -7.5511619    805.65716  0.018283795  0.018050057         3890 
 3673000   0.65853892   -7.5598704    806.09002  0.018288638  0.018043462         3862 
 3674000   0.66916959   -7.5527036    804.11974  0.018238971  0.018036872         3860 
 3675000   0.66586233   -7.5474537    805.36297  0.018262199  0.018030278         3881 
 3676000   0.67469979   -7.5386496    806.90512  0.018292191  0.018023691         3866 
 3677000   0.66092698   -7.5605083    806.23343  0.018271993    0.0180171         3877 
 3678000   0.67190688   -7.5560019    804.91307   0.01823711   0.01801052         3869 
 3679000   0.67445252   -7.5339487    805.98781  0.018256497  0.018003939         3858 
 3680000    0.6697952   -7.5451821    807.04961   0.01827558  0.017997364         3871 
 3681000   0.65874889   -7.5579047    806.87523  0.018266667  0.017990786         3862 
 3682000   0.66718652   -7.5513068    805.98161  0.018241481  0.017984213         3872 
 3683000   0.68258241   -7.5548518    804.71797  0.018207937  0.017977643         3878 
 3684000   0.65650823   -7.5615845    806.93468  0.018253137  0.017971071         3887 
 3685000   0.66287549   -7.5608773    805.20054  0.018208967  0.017964508         3876 
 3686000   0.66455544   -7.5546807    805.82778  0.018218208   0.01795794         3880 
 3687000   0.66154138   -7.5573404    805.18532  0.018198746  0.017951382         3876 
 3688000   0.66659889    -7.562294     806.9192   0.01823299  0.017944822         3871 
 3689000   0.66307416   -7.5444179    805.50218  0.018196037   0.01793827         3872 
 3690000   0.66228861   -7.5584946    807.01001  0.018225158   0.01793171         3859 
 3691000   0.65608687   -7.5519609    806.14841  0.018200768  0.017925156         3876 
 3692000   0.65518075    -7.518372     804.2511  0.018153013  0.017918606         3863 
 3693000   0.64568732   -7.5664791    805.80584  0.018183181  0.017912053         3858 
 3694000   0.66667506   -7.5638851     805.5473  0.018172426  0.017905504         3864 
 3695000   0.66024176   -7.5668727    805.51547   0.01816679  0.017898954         3879 
 3696000    0.6743138   -7.5420081    806.36402  0.018181007  0.017892411         3869 
 3697000   0.65464128   -7.5568133    806.10228  0.018170189  0.017885869         3886 
 3698000   0.66423942     -7.57024    805.29877  0.018147169  0.017879329         3875 
 3699000   0.65810958   -7.5644656    805.66345  0.018150479  0.017872791         3868 
 3700000   0.66538228    -7.569014    806.91835  0.018173837  0.017866255         3885 
 3701000   0.65598379   -7.5631329     806.0042  0.018148343  0.017859727         3877 
 3702000   0.65126483    -7.556252    805.19858  0.018125306  0.017853196         3878 
 3703000   0.66448076   -7.5507378    804.83951   0.01811233  0.017846666         3867 
 3704000   0.64420373   -7.5569844    805.30285  0.018117865  0.017840139         3854 
 3705000   0.64800268    -7.550833    805.21156  0.018110921  0.017833617         3873 
 3706000   0.65324776   -7.5693102    806.31249   0.01813079  0.017827094         3867 
 3707000   0.65811517   -7.5537896    804.77091  0.018091244  0.017820577         3870 
 3708000   0.65751556   -7.5521435    806.32714   0.01812134  0.017814062         3870 
 3709000   0.66017507   -7.5577823    805.47604  0.018097332  0.017807551         3874 
 3710000   0.66288777   -7.5585202    804.35853  0.018067352  0.017801037         3852 
 3711000   0.66164671   -7.5741923    804.78243  0.018072003   0.01779453         3872 
 3712000   0.66590495   -7.5661701    802.90947  0.018025087  0.017788022         3877 
 3713000   0.64588202   -7.5913567    805.32771  0.018074506  0.017781517         3885 
 3714000   0.65880246    -7.563983    804.39067  0.018048615  0.017775012         3877 
 3715000   0.65791575   -7.5627167    805.56578  0.018070116  0.017768511         3861 
 3716000   0.65188142   -7.5665385    806.67841  0.018090205  0.017762012         3870 
 3717000   0.65290667   -7.5527876     805.3705  0.018056015  0.017755519         3858 
 3718000   0.65272371   -7.5536037    805.96838  0.018064559  0.017749021         3873 
 3719000   0.65569706   -7.5625582    804.76535  0.018032745  0.017742536         3871 
 3720000   0.66525524   -7.5782721    806.08381  0.018057433   0.01773605         3863 
 3721000   0.66602362   -7.5668982    805.54994  0.018040624  0.017729571         3874 
 3722000   0.65992859   -7.5704506    805.70166  0.018039174  0.017723089         3877 
 3723000    0.6650225   -7.5692275    804.57411   0.01800909   0.01771661         3860 
 3724000    0.6704194   -7.5729285    805.51653  0.018025343  0.017710133         3866 
 3725000   0.66309973   -7.5460825    806.55053  0.018043636  0.017703666         3861 
 3726000   0.67241108   -7.5702566    806.27104  0.018032543  0.017697194         3870 
 3727000    0.6429605   -7.5620594    804.75509  0.017993808  0.017690725         3879 
 3728000   0.65782454   -7.5705607    806.04196  0.018017748   0.01768425         3866 
 3729000    0.6594147   -7.5479555    803.60839  0.017958532  0.017677782         3858 
 3730000   0.65368029   -7.5620848    805.02133  0.017985284  0.017671309         3856 
 3731000    0.6617301   -7.5570895    804.91305  0.017978045  0.017664843         3869 
 3732000   0.65568458   -7.5566994    805.06635  0.017976651  0.017658382         3872 
 3733000   0.64903013   -7.5813282    806.43468  0.018002381  0.017651924         3878 
 3734000   0.64759815   -7.5843309     804.4453  0.017953162  0.017645471         3869 
 3735000    0.6381578   -7.5688526    806.06279  0.017984444   0.01763902         3876 
 3736000   0.65500232   -7.5606599    805.16601  0.017959627  0.017632574         3877 
 3737000   0.65263844   -7.5699218    805.95939  0.017972513  0.017626125         3860 
 3738000    0.6531308   -7.5387817    805.68129  0.017961505  0.017619681         3877 
 3739000   0.65604576    -7.562868    804.40421  0.017928239  0.017613239         3880 
 3740000   0.65924522   -7.5600198    804.26884  0.017920429  0.017606795         3865 
 3741000   0.63993052   -7.5580991    804.86755  0.017928975  0.017600356         3868 
 3742000   0.63718645   -7.5458587    806.37457  0.017957745  0.017593924         3861 
 3743000   0.64784469   -7.5657411    805.20378  0.017926881  0.017587489         3866 
 3744000   0.66447963   -7.5776673    805.96169  0.017938962  0.017581051         3880 
 3745000   0.66688439   -7.5676164    805.59384  0.017925987  0.017574622         3867 
 3746000   0.66894643   -7.5703277    805.82751    0.0179264  0.017568191         3854 
 3747000   0.63990612   -7.5845748    804.88498  0.017900654  0.017561766         3865 
 3748000   0.64772096   -7.5753162    804.63144   0.01789024  0.017555348         3864 
 3749000   0.63436394   -7.5718842    805.81583  0.017911795  0.017548931         3869 
 3750000   0.64644255   -7.5514292    806.99412  0.017933203  0.017542521         3862 
 3751000   0.66473165   -7.5766165    803.37949  0.017848118  0.017536105         3866 
 3752000   0.64741441   -7.5663911    804.11377   0.01785967  0.017529691         3867 
 3753000   0.65258594   -7.5692683    805.58603  0.017887602  0.017523285         3870 
 3754000   0.65250077    -7.565136    805.04554  0.017870839  0.017516883         3853 
 3755000   0.64148094   -7.5499297    804.98778  0.017864798  0.017510481         3868 
 3756000    0.6538081   -7.5635129    804.06751  0.017839623  0.017504081         3860 
 3757000    0.6629892   -7.5594264    805.50397  0.017866737  0.017497681         3861 
 3758000   0.63550715   -7.5723189    804.79184  0.017846191  0.017491281         3881 
 3759000   0.63244285   -7.5743691    806.06846  0.017869745  0.017484887         3885 
 3760000   0.64146301   -7.5640627    806.15004  0.017866801  0.017478487         3878 
 3761000   0.63819481   -7.5590858     806.0394  0.017859599  0.017472099         3869 
 3762000   0.64365238   -7.5868393    805.05648  0.017833078  0.017465713         3872 
 3763000   0.65638713   -7.5863528    806.65383  0.017863713  0.017459326         3868 
 3764000   0.65488227   -7.5751467    805.27344  0.017828406  0.017452946         3868 
 3765000   0.65733121   -7.5712344    806.03459  0.017840518  0.017446569         3885 
 3766000    0.6505865   -7.5770898    804.49986   0.01780182  0.017440183         3871 
 3767000   0.64404885   -7.5687506    805.12483   0.01781092  0.017433807         3873 
 3768000    0.6578635   -7.5656515    805.51835  0.017814896  0.017427434         3869 
 3769000   0.64657603   -7.5703737    806.52663  0.017832463  0.017421068         3878 
 3770000   0.65766199   -7.5667277    804.22216  0.017776794    0.0174147         3873 
 3771000   0.64621003   -7.5624683    805.73864  0.017805592  0.017408333         3870 
 3772000   0.65216271   -7.5997456    804.22171  0.017767358  0.017401973         3882 
 3773000   0.65591333   -7.5953304    805.09675  0.017781976  0.017395608         3888 
 3774000   0.63747214   -7.5961368    803.81854   0.01774904   0.01738925         3876 
 3775000   0.65595251   -7.5621412    804.83185  0.017766708  0.017382894         3883 
 3776000   0.63947533   -7.5670716    804.80686  0.017761451  0.017376545         3864 
 3777000   0.65149827   -7.5674126    804.17746  0.017742862  0.017370196         3882 
 3778000   0.64260384   -7.5730721    804.72822  0.017750314  0.017363841         3873 
 3779000   0.64507923   -7.5521242    804.23242  0.017734683  0.017357494         3866 
 3780000   0.64103965   -7.5653061    804.94702  0.017745746  0.017351156         3868 
 3781000   0.65373802   -7.5569579    805.72976  0.017758304  0.017344814         3866 
 3782000   0.64721429   -7.5760276    804.61719  0.017729094  0.017338478         3859 
 3783000   0.63882082   -7.5796156    804.87503  0.017730087  0.017332131         3862 
 3784000   0.64136451   -7.5796645    803.86527  0.017703164  0.017325795         3882 
 3785000   0.64552713   -7.5615523    804.22306  0.017706364  0.017319463         3889 
 3786000   0.63536299   -7.5585374    804.81339  0.017714681  0.017313132         3879 
 3787000   0.65077781   -7.5898357    805.60251  0.017727368  0.017306807         3891 
 3788000   0.64388894   -7.5478321    804.02278  0.017687935  0.017300483         3891 
 3789000   0.66317716   -7.5757945    806.29284  0.017733194  0.017294163         3878 
 3790000   0.64816566   -7.5726149    804.15675  0.017681547  0.017287843         3864 
 3791000   0.65066258   -7.5854366    804.86999  0.017692561   0.01728153         3878 
 3792000   0.63178483   -7.5769671     803.8466  0.017665405  0.017275215         3848 
 3793000   0.66029801   -7.5628214    805.68029  0.017701035  0.017268903         3877 
 3794000   0.65731901    -7.568448    806.34636  0.017710999  0.017262596         3863 
 3795000   0.65547845   -7.5772164    804.06768  0.017656295  0.017256292         3882 
 3796000   0.63590649   -7.5544801    804.08785  0.017652087  0.017249984         3855 
 3797000   0.66319121   -7.5731314    804.35005  0.017653192  0.017243684         3864 
 3798000   0.64359193   -7.5680638     804.7367  0.017657028  0.017237384         3867 
 3799000   0.63362382   -7.5885513     805.2234  0.017663056  0.017231089         3870 
 3800000     0.663695   -7.5683873    804.75303  0.017648093  0.017224797         3886 
 3801000   0.64052848   -7.5779252    805.48752  0.017659553  0.017218502         3881 
 3802000   0.65039396   -7.5639198    803.64888  0.017614608   0.01721221         3873 
 3803000   0.65061185   -7.5657944    804.68671  0.017632718   0.01720592         3865 
 3804000   0.65408365   -7.5827845    804.79912  0.017630545  0.017199637         3870 
 3805000   0.63564543   -7.5801798    803.63698  0.017600459  0.017193352         3855 
 3806000     0.653438   -7.5769661    803.81182  0.017599663  0.017187071         3874 
 3807000    0.6361274   -7.5698069     804.0737  0.017600773   0.01718079         3864 
 3808000   0.64121163    -7.578599    804.18657  0.017598621  0.017174515         3873 
 3809000    0.6437114   -7.5886378    803.36349  0.017575993  0.017168245         3876 
 3810000   0.63644575   -7.5682592    806.00041  0.017629055  0.017161975         3854 
 3811000   0.62567946   -7.5931213    804.80087    0.0175982  0.017155704         3859 
 3812000   0.64503468   -7.5635113    805.55269  0.017610019  0.017149436         3879 
 3813000   0.63979114    -7.567328    804.66577  0.017586016  0.017143169         3864 
 3814000   0.63206163   -7.5671369    806.13179  0.017613437  0.017136909         3863 
 3815000   0.64644328   -7.5734177    801.79547  0.017514099  0.017130647         3879 
 3816000   0.64038732   -7.5739964    803.95487  0.017556666  0.017124394         3871 
 3817000   0.63429586   -7.5875589    804.30513  0.017559714   0.01711814         3869 
 3818000   0.65420627   -7.5900239    804.70738  0.017563894  0.017111888         3872 
 3819000   0.62922685   -7.5755883    803.95307  0.017542836  0.017105637         3863 
 3820000   0.64721705   -7.5695761    804.00315  0.017539336  0.017099395         3867 
 3821000   0.63990037   -7.5900801    804.75972  0.017551246  0.017093154         3869 
 3822000   0.62270484   -7.5797052    802.74182  0.017502656  0.017086911         3874 
 3823000   0.64421813   -7.5906048    804.15168   0.01752881  0.017080669         3871 
 3824000   0.64938036   -7.5912161    804.70464  0.017536276  0.017074436         3862 
 3825000    0.6277226   -7.5888733    806.81103  0.017577582  0.017068205         3868 
 3826000   0.63160703   -7.5578306    805.91128  0.017553391  0.017061976         3874 
 3827000   0.63126002   -7.5828831    804.97998  0.017528525  0.017055751         3876 
 3828000   0.64012343   -7.5944958    804.66646  0.017517121   0.01704952         3876 
 3829000   0.62531143   -7.5711392    804.99352  0.017519664  0.017043297         3874 
 3830000   0.63885939   -7.5802688    804.75444  0.017509888  0.017037077         3876 
 3831000   0.64059176   -7.5725175    804.64908  0.017503025  0.017030851         3868 
 3832000   0.63456235   -7.5864887    804.78817  0.017501483  0.017024635         3884 
 3833000   0.63593647   -7.5750459    805.25992  0.017507173  0.017018421         3872 
 3834000   0.62693426   -7.5979533    803.65276  0.017467674  0.017012204         3872 
 3835000   0.64098711   -7.5940415    805.26543  0.017498162  0.017005993         3896 
 3836000    0.6328817   -7.5852941    802.61999  0.017436131  0.016999782         3886 
 3837000   0.64103462   -7.5771045    805.02624  0.017483847  0.016993578         3871 
 3838000   0.64149718   -7.5730923    804.96864  0.017478041  0.016987381         3893 
 3839000   0.65036418   -7.5974393    804.41715  0.017461517  0.016981177         3870 
 3840000   0.64555947   -7.5922078    804.03745  0.017448729  0.016974979         3868 
 3841000    0.6261923   -7.6029092    804.29879  0.017449857  0.016968776         3866 
 3842000   0.62386402   -7.5819101    805.15323  0.017463848   0.01696258         3860 
 3843000   0.62270032   -7.5755058    804.14443  0.017437428  0.016956385         3870 
 3844000   0.63744214   -7.5867659    805.90509  0.017471061  0.016950193         3867 
 3845000   0.64424577   -7.5811962    806.28179  0.017474681  0.016944006         3865 
 3846000   0.64738465   -7.5834331    803.86921  0.017417863  0.016937824         3887 
 3847000   0.63212765   -7.6214566    803.10694  0.017396823  0.016931638         3881 
 3848000    0.6379994   -7.5922084    803.46941  0.017400152  0.016925458         3874 
 3849000     0.627097   -7.5801423    803.46222  0.017395475  0.016919284         3865 
 3850000   0.64081268   -7.5791882    803.53096  0.017392445  0.016913103         3868 
 3851000   0.63663386   -7.5770029    805.12206  0.017422359   0.01690693         3871 
 3852000   0.63468913   -7.5697151    803.31203  0.017378678   0.01690076         3874 
 3853000   0.63281778   -7.5790796    803.59834   0.01738036  0.016894591         3865 
 3854000   0.65586816   -7.5771786    802.95747  0.017361993  0.016888432         3888 
 3855000   0.63677114   -7.5960444    803.47698   0.01736872  0.016882266         3889 
 3856000    0.6233913   -7.5739206    803.25031  0.017359317  0.016876108         3873 
 3857000   0.64144347   -7.5936583    804.87898  0.017390005  0.016869957         3882 
 3858000   0.62984205   -7.5938647    803.26424  0.017350619  0.016863797         3868 
 3859000   0.63790274   -7.5899781    803.24776  0.017345767  0.016857642         3884 
 3860000   0.63214621   -7.5878789    804.73817  0.017373449  0.016851495         3881 
 3861000   0.64000099   -7.5720045    803.81597  0.017349045  0.016845349         3872 
 3862000   0.63814685    -7.610675    803.91334  0.017346654  0.016839207         3873 
 3863000   0.63084408    -7.601673    804.69598  0.017359047  0.016833065         3870 
 3864000   0.62709832   -7.5893155    805.33111  0.017368252  0.016826927         3876 
 3865000    0.6486013   -7.5898222    802.23679  0.017297042  0.016820792         3869 
 3866000   0.63728638   -7.6124417     803.2814  0.017315084  0.016814653         3871 
 3867000   0.64046415   -7.6044217    805.24716  0.017352969  0.016808522         3891 
 3868000   0.62736242   -7.6023167    804.66035   0.01733584  0.016802398         3868 
 3869000   0.61858052   -7.5668574    802.88703  0.017293164  0.016796271         3877 
 3870000   0.63303859   -7.5842927    802.11499  0.017272071  0.016790148         3886 
 3871000   0.62663524   -7.5902301    803.87425  0.017305482  0.016784025         3875 
 3872000   0.63328369   -7.5876073    804.15456  0.017307045  0.016777904         3878 
 3873000   0.63190899   -7.5783068    803.82937   0.01729558  0.016771781         3860 
 3874000   0.63152678   -7.5998594      803.447   0.01728289  0.016765666         3884 
 3875000   0.64206107   -7.5871122    803.15992  0.017272256  0.016759551         3880 
 3876000   0.63651077    -7.608581    802.81305  0.017260342  0.016753442         3865 
 3877000   0.62952634   -7.6036317    803.55941  0.017271933  0.016747338         3876 
 3878000   0.64664159   -7.5811301    804.07373  0.017278531  0.016741236         3866 
 3879000   0.63477258   -7.5747042    803.40166  0.017259639  0.016735137         3878 
 3880000   0.62519264   -7.5833004    801.84844  0.017221831   0.01672904         3890 
 3881000    0.6140629   -7.5864082    803.68751  0.017256882  0.016722941         3864 
 3882000   0.62741373   -7.6000777     803.2848  0.017243792  0.016716844         3882 
 3883000   0.63987867   -7.5923839    804.52426  0.017265951  0.016710754         3881 
 3884000   0.63340392   -7.6122993    803.92767  0.017248706  0.016704664         3889 
 3885000    0.6268244   -7.5982168     804.4576  0.017255633  0.016698576         3890 
 3886000   0.63996832   -7.5723591    803.78884  0.017236851  0.016692496         3889 
 3887000   0.63651344   -7.5950279    804.16727   0.01724053  0.016686417         3872 
 3888000   0.62199859   -7.6053065     804.3114  0.017239185  0.016680343         3878 
 3889000   0.63380642   -7.6067441    805.09678  0.017251581  0.016674265         3870 
 3890000   0.62898331   -7.6216785     803.6268  0.017215655  0.016668186         3868 
 3891000   0.61753592   -7.5866159     804.1812  0.017223105  0.016662115         3868 
 3892000   0.63355217    -7.597628    804.46429  0.017224741  0.016656046         3884 
 3893000   0.62650145   -7.5867651    804.17897  0.017214209  0.016649974         3871 
 3894000    0.6373444   -7.6185321    803.50155  0.017195291  0.016643905         3875 
 3895000   0.63523914   -7.6066537    803.08942  0.017182059  0.016637842         3887 
 3896000   0.62119639   -7.6134147    804.74772  0.017213119  0.016631786         3868 
 3897000   0.62966672   -7.5854804    803.98873  0.017192471  0.016625727         3873 
 3898000   0.62666019   -7.6213915    803.22699  0.017171776  0.016619667         3857 
 3899000   0.63894995    -7.587782     803.3913  0.017170884  0.016613611         3873 
 3900000   0.63092711   -7.5884715    804.07355  0.017181059  0.016607559         3883 
 3901000    0.6262161   -7.5978508    802.22848   0.01713724  0.016601507         3875 
 3902000    0.6280243   -7.6254026     802.6328  0.017141483  0.016595461         3881 
 3903000   0.62217827   -7.5965404    802.93177  0.017143474  0.016589413         3874 
 3904000   0.61910062    -7.601642    803.73302  0.017156186  0.016583368         3854 
 3905000    0.6412804   -7.6042312     802.8213  0.017132337  0.016577325         3880 
 3906000    0.6411265     -7.58726    802.97755  0.017131284  0.016571289         3889 
 3907000    0.6456976   -7.5809759    803.03742  0.017128176  0.016565257         3864 
 3908000   0.62648604   -7.5979761    804.42652  0.017153414  0.016559223         3875 
 3909000    0.6163129   -7.6082252    804.81924  0.017157398  0.016553195         3873 
 3910000   0.62359353   -7.6046838    803.21145  0.017118744  0.016547167         3867 
 3911000   0.62597847   -7.5795348    802.56455  0.017100583   0.01654114         3872 
 3912000   0.62973443   -7.6059252    803.73452  0.017121134  0.016535123         3887 
 3913000   0.62137356   -7.5991123    802.52112  0.017090917  0.016529108         3868 
 3914000   0.63300655   -7.5922947    803.58134  0.017109124   0.01652309         3880 
 3915000   0.61844033   -7.5943905    802.09032  0.017073017  0.016517077         3884 
 3916000   0.62770064    -7.613811    803.42192  0.017096993  0.016511063         3872 
 3917000   0.62482878   -7.6045912     803.6439  0.017097351  0.016505051         3872 
 3918000   0.62360968   -7.6060657    805.11261  0.017124226  0.016499047         3875 
 3919000   0.62050535   -7.6110814    803.96601  0.017095475  0.016493044         3884 
 3920000   0.61648452   -7.6074332    803.60051  0.017083344  0.016487042         3855 
 3921000   0.63202798    -7.605682    803.10242  0.017068401  0.016481043         3878 
 3922000   0.62514259   -7.6168795    802.98376  0.017061528  0.016475048         3875 
 3923000   0.62009394   -7.6057313    803.13702  0.017060435  0.016469054         3867 
 3924000   0.63931717   -7.6051806    803.61322    0.0170662   0.01646306         3863 
 3925000   0.61807068   -7.5974048     804.9042  0.017089261  0.016457067         3885 
 3926000   0.61632688    -7.591137    803.80117  0.017061495  0.016451085         3873 
 3927000   0.63666608   -7.6042197    802.46699  0.017028839    0.0164451         3855 
 3928000   0.63295442   -7.6202154    802.83508  0.017032312  0.016439117         3864 
 3929000   0.61412378   -7.5959346     803.4079  0.017040127  0.016433144         3867 
 3930000   0.60494538   -7.6007774     802.5143  0.017016843  0.016427168         3887 
 3931000    0.6217935   -7.6072359    803.59872  0.017035502  0.016421191         3862 
 3932000   0.61400913   -7.6136269    804.42325  0.017048645  0.016415222         3842 
 3933000   0.61472251   -7.5869385     802.7179  0.017008176  0.016409256         3875 
 3934000   0.62774942   -7.6200061    803.82097  0.017027219   0.01640329         3885 
 3935000   0.62785837   -7.6119244     802.5705   0.01699641  0.016397325         3877 
 3936000   0.62075388   -7.6291758    802.31107    0.0169866  0.016391368         3856 
 3937000   0.60493038   -7.6149682    804.51851  0.017029009  0.016385409         3880 
 3938000   0.63044252   -7.6055227    803.54222  0.017004025  0.016379448         3858 
 3939000   0.64299862   -7.6006403    803.97507  0.017008866  0.016373495         3874 
 3940000   0.61191096   -7.6059885    804.45915  0.017014787  0.016367546         3873 
 3941000   0.61271145   -7.6117925    804.28752  0.017006841    0.0163616         3875 
 3942000    0.6233078   -7.5895277    804.07913  0.016998121  0.016355655         3875 
 3943000   0.61683475   -7.6014861    801.79406  0.016945516  0.016349704         3883 
 3944000   0.63742926   -7.6015991    802.57982  0.016957823  0.016343764         3886 
 3945000   0.63104774   -7.6004424    802.77701  0.016957689  0.016337826         3874 
 3946000   0.62602235   -7.5889182    804.00676  0.016979362  0.016331889         3868 
 3947000   0.61424789   -7.5825123     802.8737  0.016951138  0.016325954         3861 
 3948000    0.6073434   -7.6075679    804.80331  0.016987574  0.016320019         3862 
 3949000   0.60912624   -7.5942191    802.56028  0.016935939  0.016314089         3877 
 3950000   0.62297411   -7.6049065    803.79945  0.016957794   0.01630816         3854 
 3951000   0.62504547   -7.6081022    802.19997  0.016919767  0.016302234         3861 
 3952000   0.62095809   -7.6098107    802.71874  0.016926424  0.016296312         3883 
 3953000   0.61023273   -7.6199538     803.6468  0.016941707  0.016290392         3882 
 3954000   0.62397054   -7.6089846    803.00123  0.016923816  0.016284477         3869 
 3955000   0.62883261   -7.6150792    802.11589  0.016900883  0.016278553         3866 
 3956000   0.62092871   -7.6205062    803.58583  0.016927575  0.016272635         3882 
 3957000   0.62410381   -7.6164658    803.85447  0.016928954  0.016266722         3872 
 3958000    0.6302087   -7.6011587    803.31948  0.016913413  0.016260809         3871 
 3959000   0.61581587    -7.599532    803.52285  0.016913422    0.0162549         3882 
 3960000   0.63676424   -7.6181066    803.39711  0.016906505  0.016248988         3879 
 3961000    0.6109685   -7.6142123    803.48589  0.016904104  0.016243085         3880 
 3962000   0.61650379    -7.610852    803.19989  0.016893822   0.01623718         3886 
 3963000   0.61194049   -7.6188284    802.45323  0.016873859  0.016231284         3867 
 3964000   0.61829198    -7.586576    803.00539   0.01688121  0.016225387         3866 
 3965000   0.61620647    -7.599646     804.6049   0.01691057  0.016219498         3871 
 3966000   0.62125629    -7.631016    802.09262  0.016853518  0.016213607         3878 
 3967000   0.62045346   -7.6337018     801.8394   0.01684395  0.016207717         3892 
 3968000   0.61328904   -7.6202967    802.43634  0.016852242  0.016201828         3880 
 3969000     0.620748   -7.6069793    803.60087  0.016872446  0.016195942         3895 
 3970000   0.61095456   -7.6060096    804.41988  0.016885388  0.016190062         3863 
 3971000     0.609552   -7.6195059    802.10744  0.016832608  0.016184185         3868 
 3972000   0.62510672   -7.6116014    802.78825  0.016842654  0.016178307         3872 
 3973000    0.6217515   -7.6084163    801.67418  0.016815047  0.016172435         3871 
 3974000   0.62706552   -7.6121975    803.66809  0.016852627  0.016166565         3880 
 3975000   0.59656879   -7.6085785    803.01506  0.016834697  0.016160698         3875 
 3976000   0.62298772     -7.60315    802.48776  0.016819411  0.016154829         3873 
 3977000   0.62033803    -7.603672     802.1843  0.016808824   0.01614896         3882 
 3978000   0.62520844   -7.6298628    802.34325  0.016807928  0.016143099         3861 
 3979000   0.62984057    -7.604322    802.46888  0.016806335  0.016137242         3891 
 3980000   0.60809496   -7.6119074    802.94339  0.016812048  0.016131386         3855 
 3981000   0.61065215   -7.6050626    803.51453   0.01681978  0.016125533         3879 
 3982000   0.60641532   -7.6047644    801.90255  0.016781821  0.016119684         3886 
 3983000   0.60997718   -7.6551408    803.74682  0.016816194   0.01611383         3886 
 3984000   0.60390096    -7.612767    802.51086  0.016786121  0.016107979         3876 
 3985000   0.61612926   -7.6120566    801.60086  0.016762879  0.016102137         3890 
 3986000    0.6159568   -7.6234545    802.22473  0.016771716  0.016096293         3886 
 3987000   0.61296477   -7.6266571    802.39338  0.016771035  0.016090454         3891 
 3988000   0.62325588   -7.6186891    802.27946  0.016764449  0.016084612         3867 
 3989000   0.60228534   -7.5983441    804.07056  0.016797664  0.016078775         3858 
 3990000   0.61272991   -7.6261111    802.43568  0.016759308  0.016072938         3870 
 3991000   0.60311031   -7.6342034    803.98682  0.016787497  0.016067103         3885 
 3992000   0.60669031   -7.6218765    801.98336   0.01674147   0.01606127         3865 
 3993000   0.60200284   -7.6084296    802.44525  0.016746916  0.016055446         3870 
 3994000   0.60275272   -7.6366843    801.84664  0.016730234  0.016049622         3876 
 3995000    0.6179045   -7.6184308    801.17493  0.016712034  0.016043799         3867 
 3996000   0.61829112   -7.6359443    803.65739  0.016759622  0.016037977         3867 
 3997000    0.6208301   -7.6293658    802.34108  0.016727985   0.01603216         3872 
 3998000   0.62298959   -7.6073187    803.00058  0.016737548  0.016026343         3878 
 3999000   0.61898714   -7.6065928    802.86936  0.016730628  0.016020532         3871 
 4000000   0.62000506   -7.6355865    803.07669  0.016730764  0.016014721         3877 
 4001000   0.61531891   -7.6174826     802.6722  0.016718158  0.016008915         3889 
 4002000   0.61972473   -7.5992564    803.22686   0.01672553  0.016003112         3863 
 4003000    0.6104796   -7.6306926    803.22034  0.016721216  0.015997309         3875 
 4004000   0.62021283   -7.6176652    802.71918   0.01670661  0.015991509         3853 
 4005000   0.59098939   -7.6317084    801.79943  0.016683301  0.015985711         3874 
 4006000   0.59551712   -7.6371512    802.88001  0.016701615  0.015979912         3871 
 4007000   0.60225658   -7.6156353    803.95025  0.016719704  0.015974123         3873 
 4008000   0.60799537   -7.6288057     802.4525  0.016684392  0.015968328         3869 
 4009000    0.6209199   -7.6285379    802.74938  0.016686401   0.01596254         3867 
 4010000   0.61343257   -7.6385287    803.50141  0.016697868  0.015956752         3875 
 4011000   0.60274023   -7.6108236    802.67579  0.016676552  0.015950969         3888 
 4012000   0.62122053   -7.6286104    802.29259  0.016664436  0.015945187         3876 
 4013000   0.61154682    -7.612655    802.49586  0.016664504  0.015939409         3883 
 4014000   0.61765726   -7.6366098    801.84503  0.016646841  0.015933631         3875 
 4015000   0.60694279   -7.6208445    802.26287  0.016651367  0.015927854         3894 
 4016000   0.62965108   -7.6136467    802.99155  0.016662341  0.015922085         3874 
 4017000   0.61218288   -7.6274875    802.82441  0.016654726  0.015916315         3886 
 4018000   0.59657484   -7.6212743    802.22092  0.016638065  0.015910552         3880 
 4019000   0.60754249   -7.6131575     803.3583  0.016657508  0.015904788         3886 
 4020000   0.59875545   -7.6306825    803.14843  0.016649014  0.015899024         3884 
 4021000   0.61167032   -7.6130501    802.76136  0.016636852  0.015893261         3877 
 4022000   0.60250924   -7.6317176    803.00571  0.016637778  0.015887506         3887 
 4023000   0.61600647   -7.6089693     800.7025  0.016585933   0.01588175         3884 
 4024000   0.61055253   -7.6511953    801.81878  0.016604928  0.015875998         3890 
 4025000   0.58539797   -7.6291543    802.04158  0.016605416  0.015870244         3893 
 4026000   0.59735665   -7.6338822    802.18301  0.016604219  0.015864494         3886 
 4027000   0.60808157   -7.6295663    803.06055  0.016618255   0.01585875         3890 
 4028000   0.61474991   -7.6361323    800.81909  0.016567757     0.015853         3895 
 4029000   0.61863617   -7.6261462    802.09546  0.016590044  0.015847259         3900 
 4030000   0.62505708   -7.6380966    802.96746  0.016603959  0.015841524         3897 
 4031000   0.61911475   -7.6362053    802.55642  0.016591342  0.015835784         3902 
 4032000   0.60061068   -7.6267685     802.0272   0.01657629  0.015830045         3893 
 4033000   0.60753034   -7.6400117    801.75987  0.016566656  0.015824317         3866 
 4034000   0.61283711   -7.6356868    802.60009  0.016579906  0.015818589         3900 
 4035000   0.59660671   -7.6133991    801.60626  0.016555272  0.015812866         3892 
 4036000   0.60592936   -7.6379451     802.7926  0.016575665   0.01580714         3891 
 4037000   0.61252065    -7.619542    801.65507  0.016548077  0.015801418         3885 
 4038000   0.59819936    -7.619532    802.67242  0.016564975  0.015795701         3879 
 4039000    0.6082816   -7.6309889    802.43229  0.016555919  0.015789977         3892 
 4040000   0.60004989   -7.6090552    802.60514  0.016555386   0.01578426         3870 
 4041000   0.60323558   -7.6159743    802.94861  0.016558373  0.015778549         3878 
 4042000   0.60085359   -7.6204752    802.02657  0.016535267  0.015772843         3892 
 4043000   0.60059946   -7.6047752    803.12208  0.016553757  0.015767133         3875 
 4044000   0.60568152   -7.6163113     801.9753  0.016526032   0.01576143         3896 
 4045000   0.59543007   -7.6181048    802.35195  0.016529706  0.015755724         3885 
 4046000   0.60500316   -7.6308823    802.12652  0.016520978  0.015750024         3884 
 4047000    0.6067912   -7.6128617    802.57054  0.016526039  0.015744325         3889 
 4048000   0.60365217   -7.6254856    802.73139  0.016525267  0.015738628         3883 
 4049000     0.618005   -7.6139558    802.74736  0.016521515  0.015732933         3870 
 4050000   0.60953956   -7.6355764    802.38676  0.016510016  0.015727244         3882 
 4051000   0.59203064    -7.634575    803.15972  0.016521841  0.015721557         3876 
 4052000    0.6014534   -7.6304351    801.71593   0.01648807  0.015715871         3879 
 4053000   0.60803313   -7.6490806    804.08675  0.016532748  0.015710188         3885 
 4054000   0.59803674   -7.6392081    802.21856  0.016490268  0.015704507         3878 
 4055000   0.60948344   -7.6205997    802.03252  0.016482378   0.01569883         3892 
 4056000   0.60499626   -7.6340578    802.86526  0.016495424  0.015693159         3891 
 4057000   0.62089633   -7.6310982    803.03353  0.016494814  0.015687488         3871 
 4058000   0.60808871   -7.6379571    802.09647  0.016471506  0.015681816         3863 
 4059000   0.59343449   -7.6352796    803.04639  0.016486951  0.015676147         3887 
 4060000   0.58498185   -7.6377259    800.96442  0.016440156  0.015670482         3861 
 4061000   0.60276121   -7.6412828    801.73675  0.016451957  0.015664816         3876 
 4062000   0.60411905   -7.6246533    803.44731  0.016482999  0.015659148         3880 
 4063000   0.59827015   -7.6387613    802.29149  0.016455236  0.015653487         3871 
 4064000   0.60622211   -7.6364076    801.98052   0.01644481  0.015647832         3882 
 4065000   0.59575526   -7.6333391    802.59987  0.016453462  0.015642176         3876 
 4066000   0.60284105    -7.656248    801.18914  0.016420502   0.01563652         3887 
 4067000   0.58650507   -7.6462886    802.19332   0.01643704  0.015630867         3893 
 4068000   0.60839967   -7.6336933    802.49986  0.016439279  0.015625219         3889 
 4069000   0.58959285    -7.638343    801.68443  0.016418539   0.01561957         3892 
 4070000   0.59381803   -7.6328157    803.00487  0.016441541  0.015613926         3902 
 4071000   0.60834889   -7.6234038    801.00403  0.016396545  0.015608277         3879 
 4072000   0.60798171   -7.6143601    801.47558  0.016402169  0.015602636         3892 
 4073000   0.59630999   -7.6285912    801.73252  0.016403399  0.015596996         3888 
 4074000    0.5981762   -7.6254346    801.69014  0.016398506   0.01559136         3878 
 4075000   0.59337577   -7.6091941    802.85262  0.016418254  0.015585728         3869 
 4076000   0.58823455   -7.6252559    801.60323  0.016388682  0.015580096         3890 
 4077000   0.58890387   -7.6424292    801.82306  0.016389156  0.015574462         3883 
 4078000   0.59154123   -7.6419908    801.31014  0.016374656  0.015568835         3899 
 4079000   0.58317183   -7.6293145    802.38054  0.016392509  0.015563207         3894 
 4080000   0.59467837   -7.6379869    803.21731  0.016405582  0.015557587         3885 
 4081000   0.59018284   -7.6455624    802.72058  0.016391419  0.015551963         3897 
 4082000   0.60650293   -7.6557212    800.51805  0.016342439  0.015546345         3917 
 4083000   0.61459106   -7.6466415    800.72288  0.016342617  0.015540728         3890 
 4084000   0.58884483   -7.6268785    802.39798  0.016372796  0.015535119         3893 
 4085000   0.59138146   -7.6528581    801.55488  0.016351589  0.015529504         3885 
 4086000   0.59631149   -7.6534107    801.88802  0.016354381  0.015523898         3889 
 4087000   0.60293832   -7.6665635    802.81135  0.016369206  0.015518288         3891 
 4088000   0.60508667   -7.6513751    801.28765  0.016334142  0.015512682         3868 
 4089000   0.60193542   -7.6546147    801.01998  0.016324692  0.015507078         3877 
 4090000   0.59572238    -7.646511    802.70429  0.016355018   0.01550148         3867 
 4091000   0.60891371   -7.6417074    800.91161  0.016314504  0.015495883         3895 
 4092000   0.59094357   -7.6524072    801.77223  0.016328043  0.015490287         3874 
 4093000   0.61121513   -7.6543811    801.88968  0.016326445  0.015484692         3880 
 4094000   0.59843056   -7.6409693    802.18824  0.016328534  0.015479102         3872 
 4095000   0.59393615   -7.6471676     801.6246  0.016313077  0.015473515         3890 
 4096000   0.60629696   -7.6420127     801.7975  0.016312612  0.015467931         3875 
 4097000   0.61583514   -7.6505267    801.73162   0.01630729  0.015462355         3874 
 4098000   0.59225422   -7.6658499    801.77391  0.016304171  0.015456775         3894 
 4099000   0.59444463   -7.6402713    801.34889  0.016291553  0.015451195         3890 
 4100000   0.59033638   -7.6495763    801.90166  0.016298814  0.015445621         3895 
 4101000   0.60142918   -7.6396643    800.62053  0.016268807  0.015440047         3890 
 4102000   0.59922769   -7.6431752    801.96348  0.016292123  0.015434479         3882 
 4103000   0.59939629   -7.6246145    801.30046  0.016274686  0.015428911         3882 
 4104000   0.59986881   -7.6089749    801.59893  0.016276781  0.015423344         3882 
 4105000   0.59425753   -7.6397671    801.94605  0.016279863  0.015417784         3891 
 4106000   0.60994918   -7.6455617    801.20712  0.016260901  0.015412222         3890 
 4107000   0.59513553     -7.63846    801.57893  0.016264486  0.015406661         3894 
 4108000   0.59029213   -7.6527973    800.70099  0.016242717  0.015401105         3877 
 4109000    0.6035748   -7.6588022    801.22457  0.016249383   0.01539555         3899 
 4110000   0.59884883   -7.6545638    801.60796  0.016253203  0.015390002         3895 
 4111000    0.5947098   -7.6395695    800.35423  0.016223835   0.01538445         3889 
 4112000   0.58778779   -7.6393485    801.62296  0.016245601  0.015378907         3882 
 4113000   0.59198551    -7.664997     801.1629   0.01623233   0.01537336         3899 
 4114000   0.59445474   -7.6427845    800.82581  0.016221557  0.015367815         3892 
 4115000   0.60213291   -7.6481806    800.51882  0.016211398  0.015362276         3891 
 4116000    0.5897172   -7.6281537     801.2696   0.01622266  0.015356735         3882 
 4117000   0.60290586    -7.652283    799.83686  0.016189719  0.015351203         3898 
 4118000   0.59762777   -7.6499828    801.48252  0.016219089  0.015345669         3892 
 4119000   0.60077494   -7.6513542    799.88313  0.016182794  0.015340139         3909 
 4120000   0.59409581   -7.6204954       801.99  0.016221481  0.015334614         3903 
 4121000   0.58353353   -7.6491899    800.57955  0.016189023  0.015329086         3883 
 4122000   0.59634934   -7.6539567    801.21822  0.016198007  0.015323563         3893 
 4123000   0.60433203   -7.6575173    801.18916  0.016193491  0.015318039         3884 
 4124000   0.58418136   -7.6493351    801.15106  0.016188794  0.015312521         3894 
 4125000   0.60157996   -7.6411228     802.8729  0.016219654  0.015307008         3880 
 4126000   0.58799336   -7.6609913    801.60326   0.01619008  0.015301494         3894 
 4127000   0.58871638   -7.6476626      799.974  0.016153259  0.015295979         3889 
 4128000   0.59011584   -7.6535119    800.48233  0.016159608  0.015290472         3910 
 4129000   0.58696937   -7.6476107    801.25956   0.01617138  0.015284962         3892 
 4130000   0.58578487   -7.6580245    801.38178  0.016169931  0.015279461         3883 
 4131000   0.57958166   -7.6496488    801.04461  0.016159215   0.01527396         3883 
 4132000   0.58782212   -7.6412287    801.58913  0.016166286  0.015268464         3892 
 4133000   0.59108477   -7.6528842    801.63243  0.016163248  0.015262969         3882 
 4134000   0.59185294   -7.6521415    801.29779  0.016152592  0.015257478         3873 
 4135000   0.59713919   -7.6634384    800.45671  0.016131735  0.015251985         3894 
 4136000   0.58512746   -7.6477591    801.14737  0.016141751  0.015246495         3889 
 4137000   0.58564315   -7.6315919    801.56694    0.0161463  0.015241007         3864 
 4138000   0.60278079   -7.6537394    802.20998  0.016155348  0.015235521         3874 
 4139000   0.60491203   -7.6426106    800.69439  0.016120931   0.01523004         3911 
 4140000   0.58552195   -7.6566066    801.23401  0.016127899   0.01522456         3883 
 4141000   0.58428231    -7.649833    802.03793  0.016140182  0.015219083         3892 
 4142000   0.59223035   -7.6581345    799.28071  0.016080813  0.015213605         3908 
 4143000    0.5907152   -7.6641165    801.51549  0.016121882  0.015208132         3893 
 4144000   0.59391805   -7.6628436    800.96643   0.01610695  0.015202659         3891 
 4145000   0.59673662   -7.6657609    801.00872  0.016103915  0.015197191         3873 
 4146000   0.59224933   -7.6411815    801.59942  0.016111904  0.015191726         3881 
 4147000   0.60036222   -7.6637191    800.18015  0.016079498  0.015186263         3892 
 4148000   0.59021504   -7.6569664    801.03022    0.0160927  0.015180799         3882 
 4149000    0.5894159    -7.640356    799.48003  0.016057685  0.015175339         3881 
 4150000   0.57231012   -7.6378785    801.52647  0.016094909  0.015169885         3887 
 4151000   0.59302238   -7.6455632    801.12789   0.01608303  0.015164432         3886 
 4152000   0.59229259   -7.6258369    799.97749  0.016056067  0.015158981         3891 
 4153000   0.59942695   -7.6488423    801.52751  0.016083303  0.015153534         3876 
 4154000   0.58899433   -7.6702454    801.40791  0.016077032  0.015148089         3882 
 4155000    0.5905406   -7.6455818     801.1128  0.016067244  0.015142643         3887 
 4156000     0.581459   -7.6551891    800.06003  0.016042269    0.0151372         3889 
 4157000   0.59577358   -7.6574255    801.30495  0.016063366  0.015131762         3884 
 4158000   0.58312972   -7.6690239    800.57979  0.016044969  0.015126322         3906 
 4159000   0.58535384   -7.6621456    800.94479  0.016048425  0.015120883         3889 
 4160000   0.58242728   -7.6613579    800.58746  0.016037409  0.015115451         3887 
 4161000   0.59194416   -7.6604302    801.00709  0.016041959  0.015110014         3890 
 4162000   0.58729924   -7.6423566    799.48508   0.01600763  0.015104586         3889 
 4163000   0.57753535   -7.6687587    801.15208  0.016037154  0.015099158         3888 
 4164000   0.58362882   -7.6431191     800.9761  0.016029781  0.015093737         3879 
 4165000   0.58702465   -7.6600825    800.78775  0.016022164  0.015088319         3909 
 4166000   0.58186633   -7.6382996    800.83154  0.016019194  0.015082901         3872 
 4167000   0.58026708   -7.6517097    801.62763   0.01603127  0.015077482         3890 
 4168000   0.58433885   -7.6673393    800.49491  0.016004777   0.01507206         3894 
 4169000   0.59512446   -7.6547611    800.19708  0.015994984  0.015066648         3893 
 4170000   0.58920325   -7.6478189    802.48543  0.016036879   0.01506124         3876 
 4171000   0.58394923   -7.6698762    800.33702  0.015990111   0.01505583         3886 
 4172000   0.58966063   -7.6569195    801.87691  0.016017036  0.015050426         3878 
 4173000   0.58468491   -7.6459898    801.23444  0.016000368  0.015045022         3888 
 4174000   0.58934764   -7.6680284    800.79956  0.015987853  0.015039617         3878 
 4175000   0.58682968   -7.6701369    800.90836  0.015986195  0.015034219         3883 
 4176000   0.58572903   -7.6586881    801.74697  0.015999101  0.015028819         3884 
 4177000   0.59228191   -7.6627192    800.91186   0.01597861  0.015023424         3892 
 4178000   0.57843854   -7.6700906    801.14649  0.015979466  0.015018032         3896 
 4179000   0.58330491   -7.6370517    800.41842  0.015961124  0.015012642         3887 
 4180000   0.59794624   -7.6679589    801.91964  0.015987234  0.015007253         3884 
 4181000    0.5926108   -7.6443958    800.56389  0.015956388  0.015001864         3885 
 4182000   0.58975487   -7.6623108    801.33384  0.015967915  0.014996482         3888 
 4183000   0.58346275   -7.6538198    802.33548  0.015984052    0.0149911         3890 
 4184000    0.5851956    -7.662441    801.56542  0.015964894  0.014985722         3898 
 4185000   0.58341776   -7.6548817    800.20928  0.015934076  0.014980343         3893 
 4186000   0.58638486   -7.6584672    800.32735   0.01593262  0.014974972         3885 
 4187000   0.59570064   -7.6786311    802.52563  0.015972567    0.0149696         3884 
 4188000   0.58652195   -7.6544136    800.73316  0.015933086  0.014964232         3894 
 4189000   0.59687548   -7.6752736    801.05002  0.015935586  0.014958862         3883 
 4190000   0.59319155   -7.6605039    801.27287  0.015936215  0.014953497         3869 
 4191000    0.5688142   -7.6745909    801.63471  0.015939607  0.014948132         3887 
 4192000   0.57721675   -7.6728071     801.1656  0.015926479  0.014942771         3874 
 4193000   0.58769554   -7.6688847    801.56951  0.015930708  0.014937409         3866 
 4194000   0.58701799   -7.6588041    801.33719  0.015922294  0.014932059         3880 
 4195000    0.5770776   -7.6676038    801.52168  0.015922163  0.014926704         3880 
 4196000   0.56644033   -7.6710971    800.07754  0.015889687  0.014921352         3878 
 4197000   0.56689814    -7.670738    802.43153  0.015932641  0.014916001         3898 
 4198000   0.57037093   -7.6737955    802.12882  0.015922837  0.014910658         3870 
 4199000   0.59528743   -7.6652199    801.28035  0.015902206  0.014905314         3875 
 4200000   0.59084228   -7.6512576    800.50304  0.015882997   0.01489997         3887 
 4201000   0.57729652   -7.6883139    800.55332  0.015880213  0.014894632         3892 
 4202000    0.5881626   -7.6682072    801.01611  0.015885612   0.01488929         3901 
 4203000   0.58285422   -7.6675236    801.22797  0.015886033  0.014883956         3905 
 4204000   0.58423726     -7.65678    800.48491  0.015867525  0.014878623         3903 
 4205000   0.56838737   -7.6585941    801.29223  0.015879751  0.014873292         3896 
 4206000    0.5807913   -7.6594615    801.88248   0.01588767  0.014867964         3902 
 4207000   0.57239401     -7.65358    800.51042  0.015856715  0.014862636         3884 
 4208000   0.57689212   -7.6566681    800.84484   0.01585957   0.01485731         3889 
 4209000   0.59038413   -7.6643549    799.46468  0.015828476  0.014851989         3888 
 4210000   0.56915648   -7.6759424    799.87359  0.015832811  0.014846668         3886 
 4211000   0.58007193    -7.669201    800.69974    0.0158454  0.014841349         3878 
 4212000   0.59205426   -7.6709257    802.45318  0.015876329  0.014836036         3879 
 4213000   0.58048336   -7.6660106    800.12222  0.015826454  0.014830723         3903 
 4214000   0.57842986   -7.6615122    799.32518  0.015806937  0.014825414         3896 
 4215000    0.5825423   -7.6844336    800.65313  0.015829441  0.014820107         3870 
 4216000   0.57481114   -7.6606849    801.55254  0.015843464  0.014814799         3904 
 4217000   0.56919611   -7.6563924    800.66308   0.01582213  0.014809494         3881 
 4218000   0.57738982   -7.6697168    799.71099  0.015799569  0.014804191         3881 
 4219000   0.58104312    -7.669351    800.46905  0.015810797  0.014798891         3885 
 4220000   0.58029191   -7.6532464    799.69925  0.015791849  0.014793595         3890 
 4221000   0.57772709   -7.6826751    801.39861  0.015821658    0.0147883         3874 
 4222000   0.57526235   -7.6666524    799.55743  0.015781569  0.014783009         3891 
 4223000   0.57991431   -7.6752729    799.62824   0.01577923  0.014777719         3872 
 4224000   0.58764802   -7.6659063    802.00009  0.015822287  0.014772439         3875 
 4225000   0.57514903   -7.6527848    800.39042  0.015786793  0.014767153         3882 
 4226000   0.56315984   -7.6422273    801.68111  0.015808509  0.014761871         3893 
 4227000   0.56740696   -7.6791736    799.40412  0.015759879  0.014756591         3890 
 4228000   0.57120458   -7.6836354    800.41653  0.015776106  0.014751313         3907 
 4229000   0.57451321   -7.6793824    799.29036  0.015750184  0.014746037         3890 
 4230000   0.57850581   -7.6725832    799.70002  0.015754532  0.014740767         3896 
 4231000    0.5777324    -7.658838    800.58019  0.015768144  0.014735498         3889 
 4232000   0.57590767   -7.6722901    800.77086  0.015768172  0.014730229         3887 
 4233000   0.56206173   -7.6640419    801.22244  0.015773337  0.014724956         3883 
 4234000   0.57140159   -7.6650435     800.7897  0.015761095  0.014719689         3881 
 4235000   0.58155985   -7.6611391    801.17787  0.015765011  0.014714424         3890 
 4236000   0.58393115   -7.6757327    799.93605   0.01573686  0.014709165         3886 
 4237000    0.5764307   -7.6828344    800.86465  0.015751409  0.014703903         3905 
 4238000   0.57701629   -7.6633745    799.19196  0.015714802  0.014698647         3883 
 4239000   0.57239351   -7.6625042    799.69158  0.015720917  0.014693385         3893 
 4240000   0.57756534   -7.6698499    799.98956  0.015723065  0.014688129         3906 
 4241000   0.57625636   -7.6948461    800.86969  0.015736652  0.014682877         3885 
 4242000   0.57873568   -7.6828621    800.63321  0.015728297   0.01467763         3902 
 4243000   0.57842663   -7.6856768    801.07129  0.015733194  0.014672385         3883 
 4244000   0.56365535   -7.6637281    799.82325  0.015704981  0.014667146         3900 
 4245000   0.58423159   -7.6618666    801.46957    0.0157336  0.014661908         3892 
 4246000   0.56012276   -7.6898858    801.86837  0.015737721  0.014656669         3888 
 4247000   0.57100793   -7.6757495    799.34514  0.015684506  0.014651434         3879 
 4248000   0.57240169    -7.679896    800.34482  0.015700424  0.014646199         3885 
 4249000   0.58363782   -7.6758899    800.97622  0.015709112  0.014640971         3898 
 4250000   0.57544766    -7.689523    799.16793  0.015669959  0.014635742         3890 
 4251000   0.56781962   -7.6836487    801.09656  0.015704081  0.014630519         3894 
 4252000   0.57103649   -7.6860454    799.14017  0.015662045  0.014625291         3902 
 4253000   0.58065304   -7.6992159    801.27784  0.015700248  0.014620068         3894 
 4254000    0.5726079   -7.6745685    798.98586  0.015651658  0.014614851         3891 
 4255000   0.56588073   -7.6785633     801.1882  0.015691112   0.01460963         3891 
 4256000   0.58430606   -7.6844954    800.27539  0.015669553   0.01460441         3881 
 4257000    0.5645004   -7.6812343    800.26325  0.015665634  0.014599197         3877 
 4258000   0.56815659   -7.6780986    800.80692  0.015672595   0.01459398         3889 
 4259000   0.56279252   -7.6855523    801.67493  0.015685899  0.014588772         3898 
 4260000   0.57365337   -7.6901731    799.96854  0.015648837  0.014583563         3902 
 4261000   0.56617972   -7.6712359     799.8339  0.015642531  0.014578363         3896 
 4262000   0.58029123   -7.6727838    799.90456  0.015640242  0.014573165         3902 
 4263000   0.57145556   -7.6887057    799.09909  0.015620828  0.014567965         3896 
 4264000   0.57361163    -7.679526    800.26645  0.015639979  0.014562769         3895 
 4265000   0.57520712   -7.6674122    799.62938  0.015623864   0.01455757         3887 
 4266000   0.57614081    -7.680377    801.84071  0.015663399  0.014552376         3884 
 4267000   0.56515916   -7.6591642    799.40426  0.015612145  0.014547187         3900 
 4268000   0.57170448   -7.6950375    800.96569  0.015638974  0.014541992         3891 
 4269000   0.57332796   -7.6766098     800.8228  0.015632521  0.014536802         3890 
 4270000   0.56827059   -7.6587348    800.47002  0.015621975  0.014531615         3891 
 4271000   0.56917153   -7.6754219    799.57736  0.015600901  0.014526436         3898 
 4272000   0.56612715   -7.6780524    800.71545  0.015619449  0.014521255         3899 
 4273000   0.57334162     -7.67133    799.90053  0.015599901  0.014516078         3902 
 4274000   0.56758931   -7.6874907    799.30729  0.015584684  0.014510901         3891 
 4275000   0.56467054   -7.6776945    798.98681  0.015574792  0.014505728         3906 
 4276000   0.57452725   -7.6695353    800.36083  0.015597927   0.01450056         3894 
 4277000   0.55640072   -7.6753318    799.48121  0.015577142  0.014495391         3887 
 4278000   0.57044532    -7.690743    800.63407  0.015595957  0.014490226         3899 
 4279000   0.58211814   -7.6794578    800.60892  0.015591823  0.014485062         3889 
 4280000   0.56611863   -7.6854743    800.56853  0.015587394  0.014479899         3879 
 4281000    0.5695468   -7.6614613    799.29903   0.01555904   0.01447474         3890 
 4282000    0.5742896   -7.6738687    799.96309   0.01556833   0.01446958         3891 
 4283000   0.57686206   -7.6984437    799.97182  0.015564865  0.014464422         3897 
 4284000   0.56761692   -7.6870827    800.15712  0.015564837  0.014459264         3892 
 4285000   0.56751749   -7.6877046    800.38377  0.015565612  0.014454111         3903 
 4286000   0.57933252   -7.6864513    799.92074  0.015552978  0.014448959         3897 
 4287000   0.54659052   -7.7114683    799.96445  0.015550199  0.014443811         3896 
 4288000   0.56431588     -7.69484    799.64496  0.015540364  0.014438662         3902 
 4289000   0.55953346   -7.6849693     799.4402  0.015532762  0.014433518         3889 
 4290000   0.57231549   -7.6815792    798.92196  0.015519074  0.014428375         3906 
 4291000   0.56076816   -7.6865938    799.10276  0.015518969  0.014423231         3895 
 4292000   0.55532577   -7.6975499    799.45851  0.015522261  0.014418092         3889 
 4293000   0.56398561   -7.6676279    799.19075  0.015513447  0.014412958         3896 
 4294000   0.56091214   -7.6911793    799.67765  0.015519284  0.014407822         3886 
 4295000   0.56485383   -7.6987833    799.92073  0.015520387  0.014402692         3894 
 4296000   0.55341961   -7.6855992    800.36802   0.01552545  0.014397564         3896 
 4297000   0.56887972   -7.6968973    800.44096  0.015523252  0.014392438         3898 
 4298000   0.57618445   -7.6801112    800.09694   0.01551297  0.014387317         3894 
 4299000   0.55287495   -7.6754343    800.19057  0.015511176  0.014382193         3885 
 4300000    0.5610578   -7.6877153    800.07573  0.015505344   0.01437707         3882 
 4301000   0.56562847   -7.6850111    797.75035  0.015456683  0.014371951         3906 
 4302000   0.56166521   -7.6894109    798.97708  0.015476853  0.014366837         3886 
 4303000   0.57678323   -7.6955407     802.2832  0.015537284  0.014361724         3887 
 4304000     0.569998   -7.6741859    800.39196  0.015497056  0.014356617         3898 
 4305000   0.55376527   -7.7022623    800.68043   0.01549904  0.014351513         3900 
 4306000   0.55882101   -7.6778174    799.78957    0.0154782   0.01434641         3902 
 4307000    0.5688583    -7.684225    799.63661  0.015471647  0.014341305         3890 
 4308000   0.56136307   -7.6886147    800.06722  0.015476385  0.014336203         3868 
 4309000   0.56620476   -7.6815724    800.07685   0.01547298  0.014331102         3911 
 4310000   0.56375578   -7.6899048    799.03974  0.015449338  0.014326006         3904 
 4311000   0.55202687   -7.7014538      799.614  0.015456855  0.014320911         3902 
 4312000   0.55383772    -7.691598    800.58301  0.015471997   0.01431582         3893 
 4313000   0.56805545   -7.6980655    800.85019  0.015473572  0.014310724         3896 
 4314000   0.55663534   -7.6913127     798.5839  0.015426207  0.014305637         3902 
 4315000   0.55901527   -7.6897141    800.82758  0.015465963  0.014300551         3896 
 4316000   0.56346014   -7.6857004    799.19935  0.015430942   0.01429547         3896 
 4317000   0.57598069   -7.7028631    799.63128  0.015435705  0.014290389         3881 
 4318000   0.55078088   -7.6892749      797.861  0.015397966   0.01428531         3898 
 4319000   0.54407482   -7.6903414    800.19202  0.015439377  0.014280232         3894 
 4320000   0.56947646   -7.7095272    800.41493  0.015440103  0.014275155         3894 
 4321000    0.5530427   -7.6954895    799.50438  0.015418969  0.014270088         3903 
 4322000   0.54938748   -7.7005759    800.57935  0.015436128  0.014265015         3887 
 4323000   0.55314306   -7.6934863    799.10851  0.015404204  0.014259946         3889 
 4324000   0.55678685   -7.7118934    799.93546  0.015416579   0.01425488         3903 
 4325000   0.54143069   -7.6935432    798.97254  0.015394461  0.014249816         3888 
 4326000   0.55382227   -7.6748895    801.77609  0.015444908  0.014244752         3880 
 4327000   0.56463486   -7.6972552    799.08516  0.015389515  0.014239692         3897 
 4328000   0.56632733   -7.6961102    799.61609  0.015396182  0.014234635         3892 
 4329000   0.55978007   -7.6817833    799.41214  0.015388699   0.01422958         3886 
 4330000   0.55559691   -7.6912139    798.62164  0.015369931  0.014224527         3884 
 4331000   0.56536472   -7.6817897    798.45505  0.015363177  0.014219476         3892 
 4332000   0.55618289   -7.6836745    798.73034  0.015364927  0.014214422         3893 
 4333000   0.56161965   -7.6782286    798.78083  0.015362352  0.014209374         3904 
 4334000   0.56505609    -7.694301    799.98146  0.015381892  0.014204328         3885 
 4335000   0.56235799   -7.6931872    799.95535  0.015377842  0.014199285         3898 
 4336000   0.54729131   -7.7024632    799.16552  0.015359116  0.014194245         3901 
 4337000   0.55477893   -7.6921936    799.91602  0.015369995  0.014189205         3903 
 4338000   0.55502334   -7.6876794    798.28698  0.015335158  0.014184172         3892 
 4339000   0.56171015   -7.6906492    799.76535  0.015360017   0.01417914         3880 
 4340000   0.56051583   -7.6819854    799.40535  0.015349565  0.014174113         3898 
 4341000   0.55280076   -7.7190135    799.82961  0.015354174  0.014169086         3895 
 4342000   0.55681852   -7.6705192    798.74696  0.015329859  0.014164058         3909 
 4343000   0.55618554   -7.7016636    799.26937  0.015336353  0.014159037         3881 
 4344000    0.5665649   -7.7092724    799.79323  0.015342872  0.014154016         3883 
 4345000    0.5499545   -7.6912099     799.0938  0.015325926  0.014148994         3885 
 4346000   0.55795341   -7.7019956    799.79441  0.015335834  0.014143976         3905 
 4347000   0.55004865   -7.6867009    799.97024  0.015335677  0.014138959         3898 
 4348000   0.56207848   -7.7037347    799.97174  0.015332178  0.014133944         3894 
 4349000   0.55894079   -7.6851067    798.70324  0.015304347   0.01412893         3882 
 4350000   0.55517338   -7.6771143    800.06199  0.015326858  0.014123921         3898 
 4351000   0.56482627   -7.7038163     798.9517   0.01530207  0.014118913         3889 
 4352000   0.55814239   -7.7082931    799.88805  0.015316484  0.014113907         3895 
 4353000   0.56005138   -7.7087248    798.18534  0.015280369  0.014108904         3897 
 4354000   0.55202901   -7.7085043    799.63065  0.015304522  0.014103905         3896 
 4355000   0.55736084   -7.6904409    799.12821  0.015291393  0.014098905         3875 
 4356000   0.55196454   -7.6971446    798.65932  0.015278913  0.014093912         3897 
 4357000   0.54524889    -7.697536    799.20915  0.015285922  0.014088917         3896 
 4358000    0.5577271   -7.7010259    798.97003  0.015277842  0.014083924         3901 
 4359000   0.54627244   -7.6950374    798.65773  0.015268367  0.014078928         3886 
 4360000   0.55873384   -7.6904873    798.28101  0.015257665   0.01407394         3888 
 4361000   0.55728472   -7.7150783     800.7801   0.01530192  0.014068957         3900 
 4362000   0.55020297   -7.7017532    799.36967  0.015271467  0.014063972         3896 
 4363000   0.55389858   -7.6985657    799.32161  0.015267049  0.014058991         3896 
 4364000   0.55622197    -7.700617    798.67937  0.015251287  0.014054011         3908 
 4365000   0.54890559   -7.7069799    800.27771  0.015278307  0.014049036         3913 
 4366000   0.55473977   -7.6979302    798.43359  0.015239609  0.014044063         3889 
 4367000   0.56236312   -7.6951974    798.82202  0.015243531  0.014039086         3897 
 4368000    0.5564011   -7.6989859    797.66689  0.015218004  0.014034116         3907 
 4369000    0.5484256   -7.7144459    798.96751  0.015239328  0.014029147         3913 
 4370000   0.54349192   -7.7097188    799.37194  0.015243553  0.014024178         3901 
 4371000   0.55095286   -7.7024244    798.52269  0.015223875  0.014019213         3908 
 4372000   0.55177026   -7.7062444    800.11147  0.015250676   0.01401425         3889 
 4373000   0.56017602   -7.6949381    799.25473  0.015230862  0.014009294         3890 
 4374000   0.54987691   -7.7031681    798.75238  0.015217809  0.014004333         3898 
 4375000   0.54020457   -7.6917026    798.74957  0.015214278  0.013999381         3909 
 4376000   0.54940424   -7.7105337    798.81132  0.015211977  0.013994428         3911 
 4377000   0.54930107   -7.6964514    798.44818  0.015201588  0.013989476         3881 
 4378000   0.55410023   -7.7121754    799.27198  0.015213796  0.013984526         3901 
 4379000   0.54499417   -7.7114796    799.09204  0.015206897  0.013979584         3896 
 4380000   0.54005176   -7.6934348    799.05254  0.015202674  0.013974642         3898 
 4381000   0.54179516   -7.7020505    797.56529  0.015170914    0.0139697         3892 
 4382000   0.53923825   -7.6827927    798.11813  0.015177965  0.013964758         3910 
 4383000   0.54989859    -7.694381    799.79535  0.015206391  0.013959821         3894 
 4384000   0.53954465   -7.7091691    798.98427  0.015187505  0.013954885         3899 
 4385000    0.5560436   -7.7042077    798.47448  0.015174353  0.013949954         3898 
 4386000   0.55481654   -7.7033852    798.73916  0.015175923  0.013945026         3904 
 4387000   0.53918706   -7.7061552    798.62878  0.015170367  0.013940096         3899 
 4388000   0.53686408   -7.7207242    798.87507  0.015171587  0.013935172         3905 
 4389000   0.54759554   -7.6952164    798.36786    0.0151585  0.013930247         3895 
 4390000   0.55401666   -7.7050472    799.35774  0.015173837  0.013925324         3908 
 4391000    0.5389446   -7.7054165    799.37769   0.01517076  0.013920403         3897 
 4392000   0.54843113   -7.7066702    798.49702  0.015150596  0.013915488         3906 
 4393000   0.55262652   -7.6968282    799.27735   0.01516195  0.013910572         3892 
 4394000   0.54417346   -7.7099374    798.59277  0.015145516  0.013905659         3889 
 4395000   0.56365734   -7.7065438    799.56403  0.015160486  0.013900747         3894 
 4396000   0.53347974   -7.6947257    797.94645  0.015126373  0.013895838         3894 
 4397000   0.54846426   -7.6911661    798.87403  0.015140513  0.013890928         3902 
 4398000   0.55089197   -7.7061875    800.36988  0.015165414  0.013886026         3884 
 4399000   0.56334307   -7.7018149    799.92229  0.015153487  0.013881124         3884 
 4400000   0.54590492   -7.7103315    800.39547  0.015159005  0.013876225         3906 
 4401000   0.55785037   -7.7081183    799.09006  0.015130843  0.013871325         3900 
 4402000   0.55274304   -7.7009633    799.52447  0.015135629  0.013866428         3893 
 4403000   0.54339125   -7.6817532    797.93397  0.015102089   0.01386153         3906 
 4404000   0.54087599    -7.711996     798.6045  0.015111348  0.013856634         3879 
 4405000   0.55173176   -7.7055715    798.52954  0.015106499  0.013851747         3903 
 4406000   0.54291423   -7.7034322    797.90071  0.015091177   0.01384686         3880 
 4407000   0.55494118   -7.7093603    798.68258  0.015102537  0.013841971         3895 
 4408000   0.55460333   -7.7035961    799.57724  0.015116025  0.013837086         3904 
 4409000   0.54646773   -7.7105419    798.94519   0.01510065  0.013832206         3899 
 4410000   0.56384002    -7.720193    799.71595   0.01511179  0.013827325         3898 
 4411000   0.53849288   -7.6968265    797.75311  0.015071282  0.013822447         3897 
 4412000   0.54627007   -7.7105281    799.32802  0.015097613  0.013817566         3887 
 4413000   0.53379829   -7.7112347    798.35011  0.015075725  0.013812691         3906 
 4414000   0.53782788   -7.7085846    798.00111  0.015065721   0.01380782         3884 
 4415000   0.54104373   -7.6872797    797.79352   0.01505839  0.013802948         3877 
 4416000   0.54680457   -7.7195295    799.13136  0.015080227   0.01379808         3878 
 4417000   0.54967617   -7.7110171    798.20035  0.015059247  0.013793214         3890 
 4418000   0.54465604   -7.7119499    798.31986  0.015058093  0.013788357         3899 
 4419000   0.54691788   -7.6960932    798.08421  0.015050242  0.013783494         3898 
 4420000   0.55665295   -7.7088176    798.99634  0.015064034  0.013778633         3896 
 4421000   0.55275445   -7.7125623    798.46629  0.015050635  0.013773771         3895 
 4422000   0.54817747   -7.7126733    796.45658  0.015009358  0.013768914         3898 
 4423000   0.53999028   -7.7122291    798.55815   0.01504556   0.01376406         3891 
 4424000   0.53117267   -7.6985597    798.95815  0.015049694  0.013759209         3898 
 4425000   0.54156201   -7.7235357    799.11218  0.015049194  0.013754357         3901 
 4426000   0.54764344   -7.7075563    798.37238  0.015031864  0.013749509         3912 
 4427000   0.54957631   -7.7147387    798.94322  0.015039214  0.013744662         3893 
 4428000   0.54252607   -7.7047317    797.62687  0.015011045  0.013739818         3889 
 4429000   0.53930712   -7.7223885    799.28525  0.015038858  0.013734978         3899 
 4430000   0.53499109   -7.7268235    797.44672  0.015000879  0.013730138         3900 
 4431000   0.54025066   -7.7053755    797.76475  0.015003475  0.013725299         3909 
 4432000   0.53742335   -7.6898175    798.45489  0.015013066  0.013720462         3897 
 4433000   0.55140819   -7.7172991     799.7395  0.015033828  0.013715631         3900 
 4434000   0.54667222   -7.6998367    799.28127  0.015021825  0.013710803         3911 
 4435000   0.54056705   -7.7070903    799.86748  0.015029453  0.013705977         3903 
 4436000   0.54959426   -7.7111446    797.70324  0.014985408  0.013701152         3885 
 4437000   0.54853207   -7.7104101    798.77363  0.015002134  0.013696327         3897 
 4438000    0.5446881    -7.722259    798.73473  0.014998023  0.013691507         3898 
 4439000   0.53483155   -7.7029636    797.71428  0.014975488  0.013686685         3898 
 4440000   0.53999753   -7.7294017    797.06576  0.014959943  0.013681867         3895 
 4441000   0.54316791   -7.7085419    798.42972  0.014982168  0.013677049         3896 
 4442000   0.54619514   -7.7119095    797.90755  0.014968999  0.013672235         3904 
 4443000   0.54289143   -7.7084073    799.46756   0.01499489  0.013667425         3893 
 4444000   0.54611442   -7.7107897    798.65216  0.014976226  0.013662619         3891 
 4445000   0.53330461    -7.704559    798.59201  0.014971729  0.013657811         3893 
 4446000   0.53917517   -7.7359453     798.1973  0.014960963  0.013653005         3905 
 4447000   0.54056063   -7.7212413     799.7983    0.0149876  0.013648201         3904 
 4448000   0.54010429   -7.7221688    798.60321  0.014961841    0.0136434         3901 
 4449000   0.52578143   -7.7210349    798.52041  0.014956927  0.013638601         3892 
 4450000   0.53108394   -7.7065507    798.16788  0.014946964  0.013633806         3887 
 4451000   0.54421052   -7.7123792    798.61525  0.014951982   0.01362901         3881 
 4452000   0.54808751   -7.7103386    796.94882  0.014917431  0.013624218         3899 
 4453000   0.53562493   -7.7066737    798.79089  0.014948553  0.013619429         3903 
 4454000   0.55079636   -7.7197925     797.6527  0.014923902  0.013614641         3901 
 4455000   0.54120739   -7.7140168    798.84758  0.014942903  0.013609854         3894 
 4456000   0.54749943   -7.7136121    799.07678  0.014943836   0.01360507         3894 
 4457000   0.54658798   -7.7377398     797.0298   0.01490221  0.013600285         3910 
 4458000     0.534787   -7.7164596    797.78099  0.014912909  0.013595506         3899 
 4459000   0.54151198   -7.7142573    798.42254  0.014921555  0.013590727         3893 
 4460000    0.5365157   -7.7233384    797.97886  0.014909919  0.013585951         3890 
 4461000   0.52971216    -7.722141     797.7922   0.01490309  0.013581179         3907 
 4462000   0.53962737   -7.7165243    797.89394   0.01490165  0.013576407         3895 
 4463000   0.52847258   -7.7342285    798.72932  0.014913909  0.013571638         3887 
 4464000   0.53239373   -7.7277258    798.42902  0.014904962   0.01356687         3905 
 4465000   0.52878227   -7.7041638    798.44024  0.014901833  0.013562104         3896 
 4466000    0.5389343   -7.7303761    797.16182  0.014874642  0.013557345         3887 
 4467000   0.53769463   -7.7479534    797.72046  0.014881734  0.013552582         3891 
 4468000   0.54622791    -7.714703    797.29216  0.014870415   0.01354782         3902 
 4469000   0.54061209   -7.7045413    797.50744  0.014871102  0.013543069         3887 
 4470000   0.52719412   -7.7316586    798.51125  0.014886489   0.01353831         3897 
 4471000   0.52538128   -7.7401099    798.19599  0.014877283  0.013533555         3893 
 4472000   0.53559459   -7.7171133    797.98512  0.014870027  0.013528806         3909 
 4473000   0.53734729   -7.7382446    798.05193  0.014867947  0.013524056         3886 
 4474000    0.5270667   -7.7269903    798.05632  0.014864706  0.013519312         3893 
 4475000    0.5365748   -7.7225892    798.14058  0.014862953  0.013514568         3895 
 4476000   0.52600951   -7.7167464    798.27439  0.014862124  0.013509828         3890 
 4477000   0.52084198   -7.7152734    798.00064  0.014853709   0.01350509         3904 
 4478000   0.53148108   -7.7288881    797.70469  0.014844884  0.013500353         3906 
 4479000   0.54349169    -7.720868    797.51652  0.014838069  0.013495616         3899 
 4480000   0.53367536   -7.7363564    796.98654  0.014824898  0.013490881         3904 
 4481000   0.55889361   -7.7184319    797.82201  0.014837127   0.01348615         3898 
 4482000   0.53990227   -7.7350521    797.67103   0.01483101  0.013481421         3905 
 4483000   0.53762906   -7.7303838    796.94124  0.014814136  0.013476699         3896 
 4484000   0.53766075   -7.7470636    797.50548  0.014821318  0.013471974         3892 
 4485000   0.52314375   -7.7269774    797.88826  0.014825126  0.013467252         3884 
 4486000    0.5287591    -7.737281    798.16427  0.014826948   0.01346253         3887 
 4487000   0.54276318   -7.7155997     796.7004  0.014796457  0.013457808         3897 
 4488000   0.54367922   -7.7209243    798.25031  0.014821938  0.013453093         3895 
 4489000   0.54030626   -7.7397761    796.63571  0.014788663   0.01344838         3895 
 4490000   0.52973919   -7.7063292    797.96087  0.014809964  0.013443665         3891 
 4491000   0.53847557   -7.7331617    797.87106     0.014805  0.013438955         3891 
 4492000   0.53150971     -7.72314    798.17277  0.014807301   0.01343425         3890 
 4493000   0.53452163    -7.728879    798.84986  0.014816564  0.013429545         3921 
 4494000   0.53639644   -7.7016775    797.69319  0.014791818  0.013424839         3905 
 4495000    0.5361587   -7.7070729    796.94295  0.014774619  0.013420137         3898 
 4496000   0.54038972   -7.7383442    798.25534  0.014795658  0.013415436         3892 
 4497000   0.53577661   -7.7307656    797.61425  0.014780488  0.013410739         3876 
 4498000   0.53504413   -7.7305394     797.7388  0.014779509  0.013406042         3885 
 4499000   0.53793203   -7.7350341    797.29716  0.014768044  0.013401346         3888 
 4500000   0.53023775   -7.7306675    798.24162  0.014782252  0.013396654         3893 
 4501000   0.53318836   -7.7088899    797.24371  0.014760492  0.013391966         3888 
 4502000   0.52396998    -7.749753    797.89075  0.014769191  0.013387277         3901 
 4503000    0.5304955   -7.7144977    797.45188  0.014757789  0.013382591         3901 
 4504000   0.54137748   -7.7345254    798.86177  0.014780598  0.013377908         3888 
 4505000   0.51781988   -7.7253954    798.46173  0.014769917  0.013373224         3882 
 4506000   0.53635336   -7.7374978     798.5241  0.014767793  0.013368546         3888 
 4507000   0.51774555   -7.7275589    798.53067  0.014764638  0.013363867         3907 
 4508000   0.52670997   -7.7104762    798.67471  0.014764025  0.013359193         3910 
 4509000   0.52114362   -7.7309405    798.41943  0.014756033  0.013354521         3890 
 4510000     0.520437   -7.7412544    797.13297  0.014728991  0.013349847         3895 
 4511000   0.53396592   -7.7357549     798.9488   0.01475927  0.013345177         3895 
 4512000   0.55584702   -7.7077112    796.62144  0.014713014   0.01334051         3905 
 4513000   0.51406797   -7.7238325    797.25853  0.014721518  0.013335848         3892 
 4514000    0.5206707   -7.7347177    797.92066   0.01473048  0.013331183         3897 
 4515000   0.52346797   -7.7390595    798.68219  0.014741273   0.01332652         3883 
 4516000   0.53279669    -7.730183    798.26451  0.014730302  0.013321864         3900 
 4517000   0.53412651   -7.7275569    797.22505  0.014707864  0.013317209         3892 
 4518000   0.53859231   -7.7327319    798.02485  0.014719361  0.013312555         3890 
 4519000   0.52724675   -7.7219504    798.16203  0.014718633    0.0133079         3910 
 4520000   0.52318232   -7.7132909    796.97126  0.014693423  0.013303247         3891 
 4521000   0.52396936   -7.7142087    797.08415  0.014692254  0.013298595         3903 
 4522000   0.54151615   -7.7450678    797.90684  0.014704165   0.01329395         3898 
 4523000   0.51574671    -7.725579    796.18237  0.014669142  0.013289304         3899 
 4524000   0.51905942   -7.7135575    797.51122  0.014690378   0.01328466         3898 
 4525000   0.52001961   -7.7485832    796.69984  0.014672189  0.013280018         3899 
 4526000   0.52299172   -7.7266961    798.29163  0.014698255  0.013275374         3903 
 4527000    0.5280449   -7.7421029    797.84388  0.014686766  0.013270739         3895 
 4528000   0.52473116   -7.7224814    797.04272  0.014668778  0.013266104         3892 
 4529000   0.53112552   -7.7355254    798.69782  0.014695993  0.013261472         3888 
 4530000   0.52810233   -7.7297732     798.7628  0.014693944  0.013256843         3881 
 4531000   0.53307685   -7.7423222    798.12947  0.014679053  0.013252214         3888 
 4532000   0.53545742   -7.7299896    797.83187  0.014670342  0.013247586         3899 
 4533000   0.52485766   -7.7292417    797.93536  0.014669008  0.013242959         3900 
 4534000   0.52232988   -7.7231839    798.74685  0.014680688  0.013238335         3893 
 4535000   0.51576126   -7.7388032    797.43499  0.014653344  0.013233715         3898 
 4536000   0.52297611   -7.7458414    797.12002  0.014644327  0.013229095         3885 
 4537000   0.51582508   -7.7285285    798.44997  0.014665527  0.013224481         3899 
 4538000   0.52135992   -7.7405591    797.25012  0.014640262  0.013219865         3886 
 4539000   0.52928137   -7.7289418    797.10123  0.014634303  0.013215249         3887 
 4540000   0.53352979   -7.7475353    797.65904  0.014641319  0.013210637         3903 
 4541000   0.53419501   -7.7401469    797.63683  0.014637687  0.013206026         3890 
 4542000   0.52812092   -7.7275749    798.18758  0.014644569  0.013201418         3907 
 4543000   0.51293308   -7.7513785     796.9879  0.014619339  0.013196814         3889 
 4544000    0.5200518   -7.7356187    798.25237  0.014639311  0.013192211         3884 
 4545000   0.53613926   -7.7409671    797.72747  0.014626466   0.01318761         3914 
 4546000   0.53016777   -7.7569288    798.03951  0.014628969   0.01318301         3897 
 4547000     0.527513   -7.7363264    797.56753  0.014617102  0.013178414         3892 
 4548000   0.51703833   -7.7351132    798.50851  0.014631129  0.013173817         3878 
 4549000   0.52483692   -7.7235169     797.1317  0.014602691  0.013169225         3891 
 4550000   0.51693311   -7.7423853    795.78034  0.014574732  0.013164632         3900 
 4551000   0.51896227   -7.7489443     796.9227  0.014592447  0.013160042         3903 
 4552000   0.50743835   -7.7392477    797.28366  0.014595849  0.013155455         3882 
 4553000    0.5219413   -7.7417087    797.69664  0.014600202  0.013150872         3904 
 4554000   0.52479956    -7.738186    796.35152  0.014572382  0.013146289         3899 
 4555000   0.52593709   -7.7522173    798.42671  0.014607148  0.013141711         3895 
 4556000    0.5224024   -7.7408741    796.95495  0.014577022  0.013137132         3888 
 4557000   0.52131143   -7.7358581     797.0865  0.014576229  0.013132554         3907 
 4558000   0.52359331   -7.7405818    796.85611  0.014568819  0.013127982         3904 
 4559000   0.52221806   -7.7439084     797.1509  0.014571012   0.01312341         3885 
 4560000   0.52690459   -7.7143877     796.9147    0.0145635  0.013118841         3889 
 4561000   0.51432976   -7.7309132     798.1152  0.014582241  0.013114273         3898 
 4562000   0.51318955   -7.7334011    796.99661  0.014558611  0.013109705         3904 
 4563000   0.52148956   -7.7363338     796.1868  0.014540631   0.01310514         3896 
 4564000   0.54301596   -7.7434412    797.67056  0.014564537  0.013100582         3894 
 4565000   0.52606945   -7.7583975    796.76978  0.014544903   0.01309602         3908 
 4566000   0.51979794   -7.7142697    798.98627   0.01458217  0.013091463         3897 
 4567000   0.52305488   -7.7386155     797.3978  0.014549993  0.013086905         3900 
 4568000   0.52737291   -7.7373445      796.929  0.014538255  0.013082351         3887 
 4569000   0.51607794   -7.7621006    797.89983   0.01455278  0.013077799         3894 
 4570000   0.52214056   -7.7534006    797.05926  0.014534268  0.013073249         3898 
 4571000   0.52644929   -7.7459803    795.64717  0.014505345  0.013068699         3899 
 4572000   0.52875693    -7.741042    798.07866  0.014546491  0.013064152         3894 
 4573000   0.53612808   -7.7374421    797.32464  0.014529569  0.013059608         3903 
 4574000   0.53037293   -7.7423971    797.70222  0.014533272  0.013055067         3892 
 4575000   0.52129843   -7.7379602    796.71679  0.014512146  0.013050526         3896 
 4576000   0.51691076   -7.7387635    797.83338  0.014529308  0.013045989         3887 
 4577000   0.52434362    -7.757757    798.08408  0.014530698  0.013041452         3898 
 4578000   0.51554675   -7.7369203    797.59891  0.014518693  0.013036919         3886 
 4579000   0.51478628   -7.7338944    797.67761  0.014516954  0.013032385         3899 
 4580000   0.52639534    -7.741407    797.41142  0.014508941  0.013027855         3898 
 4581000   0.52425152   -7.7471149    798.31535  0.014522218  0.013023326         3902 
 4582000    0.5125276   -7.7284785    796.19507  0.014480486  0.013018799         3899 
 4583000   0.51789082   -7.7500307     797.8247  0.014506959  0.013014275         3891 
 4584000    0.5135848   -7.7630375    796.41583  0.014478182  0.013009753         3896 
 4585000   0.51203418   -7.7520967    797.74573  0.014499195  0.013005232         3897 
 4586000   0.51313017   -7.7447454    795.63929  0.014457757  0.013000713         3902 
 4587000   0.51600604   -7.7515586    797.11334  0.014481385  0.012996199         3904 
 4588000   0.50779723   -7.7572729    796.99476  0.014476075  0.012991688         3895 
 4589000   0.50907575   -7.7390835    797.28075  0.014478113  0.012987175         3903 
 4590000   0.52433605   -7.7589475    797.22288  0.014473909  0.012982664         3902 
 4591000   0.50848617   -7.7379603    797.90652  0.014483165  0.012978156         3898 
 4592000   0.51540468   -7.7691406    796.89512  0.014461657  0.012973648         3906 
 4593000   0.51530358   -7.7454931    796.35601  0.014448727  0.012969142         3914 
 4594000   0.51824899   -7.7511579    797.66107  0.014469255  0.012964641         3898 
 4595000   0.51925178   -7.7505363    798.14053  0.014474801  0.012960141         3908 
 4596000   0.52003497    -7.751156     797.0393  0.014451684  0.012955641         3898 
 4597000   0.51979926   -7.7639504    796.74336  0.014443176  0.012951146         3906 
 4598000   0.52272182   -7.7265927    796.79912  0.014441045  0.012946652         3905 
 4599000   0.51062351   -7.7496504    798.01436  0.014459925  0.012942159         3882 
 4600000   0.50771678   -7.7398732    796.14812  0.014422973  0.012937666         3902 
 4601000   0.51332453   -7.7647359    796.58624  0.014427774  0.012933175         3902 
 4602000   0.51659186   -7.7465218     796.4667  0.014422474  0.012928687         3908 
 4603000    0.5151208   -7.7476626    796.51567  0.014420227  0.012924201         3900 
 4604000   0.50851413   -7.7531565    798.08177  0.014445442  0.012919721         3915 
 4605000   0.51182151   -7.7812243    797.63623  0.014434242  0.012915241         3906 
 4606000    0.5196185   -7.7453309    798.19541  0.014441225  0.012910764         3912 
 4607000   0.51468874   -7.7543014    798.10017  0.014436368  0.012906287         3905 
 4608000   0.53307282   -7.7581512    796.99628  0.014413272  0.012901814         3899 
 4609000   0.50627908   -7.7452759    797.06773  0.014411436  0.012897343         3895 
 4610000   0.52492097   -7.7337637    796.80422  0.014403547  0.012892871         3899 
 4611000   0.52333259   -7.7467174    796.44668  0.014393961  0.012888404         3906 
 4612000    0.5218018   -7.7560652    796.89211  0.014398889   0.01288394         3908 
 4613000   0.51407651   -7.7369616    796.53321  0.014389284  0.012879474         3912 
 4614000   0.51402089   -7.7671334    797.74135  0.014407986  0.012875011         3904 
 4615000   0.50617754   -7.7454376    796.28966   0.01437865  0.012870549         3901 
 4616000   0.51037697   -7.7592441    797.72254  0.014401403   0.01286609         3913 
 4617000   0.49522401   -7.7376056    796.61503  0.014378294  0.012861633         3898 
 4618000   0.50769412    -7.745804    796.87497  0.014379872  0.012857178         3899 
 4619000   0.51983235   -7.7447298    796.42256  0.014368596  0.012852724         3899 
 4620000   0.50549737   -7.7499615    796.27254   0.01436278  0.012848271         3896 
 4621000   0.50760757   -7.7509483    796.94089  0.014371725  0.012843825         3891 
 4622000   0.51795661   -7.7648092    797.24236  0.014374051  0.012839379         3908 
 4623000   0.52113168   -7.7438949    796.93775  0.014365451  0.012834931         3897 
 4624000   0.51691349   -7.7706675    797.95034  0.014380593  0.012830489         3898 
 4625000   0.52023143   -7.7427004    795.57444  0.014334675  0.012826046         3909 
 4626000   0.51923069   -7.7414719    796.96412   0.01435661  0.012821605         3905 
 4627000   0.50329223   -7.7467382    796.38762  0.014343124  0.012817169         3887 
 4628000      0.51521   -7.7711376    796.81557  0.014347731  0.012812736         3904 
 4629000   0.51065151   -7.7453721    796.13988  0.014332467    0.0128083         3895 
 4630000   0.51051124   -7.7413914    794.59332  0.014301536  0.012803871         3897 
 4631000   0.50828572   -7.7633378    796.28246  0.014328843  0.012799441         3908 
 4632000   0.50298066   -7.7547183    796.68298  0.014332955  0.012795013         3894 
 4633000   0.51111541   -7.7517912    796.12726  0.014319866  0.012790588         3894 
 4634000   0.51897527   -7.7675956    796.95524  0.014331665  0.012786168         3905 
 4635000   0.49862116   -7.7694625    797.49861  0.014338343  0.012781746         3904 
 4636000   0.51744112   -7.7619901    796.14927  0.014310995  0.012777322         3898 
 4637000   0.51215651   -7.7690684    797.15729  0.014326024  0.012772904         3906 
 4638000    0.5102297   -7.7722961    796.49368  0.014311012   0.01276849         3894 
 4639000     0.495837   -7.7599908     796.9651  0.014316395  0.012764073         3905 
 4640000   0.51756862   -7.7782282    796.88744  0.014311915  0.012759662         3886 
 4641000   0.50981899   -7.7458178    796.94053  0.014309785  0.012755247         3888 
 4642000   0.50544519   -7.7695279     797.8222   0.01432253  0.012750837         3898 
 4643000   0.51967749   -7.7626238    796.44326  0.014294696  0.012746431         3911 
 4644000   0.51487759   -7.7469223      795.621  0.014276863  0.012742023         3903 
 4645000   0.52032093   -7.7470543    796.53235  0.014290139  0.012737622         3914 
 4646000   0.51929826   -7.7444922    796.44977  0.014285582  0.012733222         3902 
 4647000   0.49171021   -7.7768772    797.02419  0.014292809  0.012728824         3899 
 4648000   0.50410947    -7.767968    796.21484  0.014275223  0.012724426         3892 
 4649000   0.50821601   -7.7722671     797.1407  0.014288749  0.012720032         3904 
 4650000   0.51994357   -7.7601415    796.84356  0.014280351  0.012715641         3897 
 4651000   0.49190862   -7.7592619    798.17174  0.014301078  0.012711251         3903 
 4652000   0.51315154   -7.7613827     796.4034  0.014266326  0.012706859         3898 
 4653000   0.50377004   -7.7626889    796.88952  0.014271967  0.012702472         3891 
 4654000   0.50494077   -7.7651978    795.52426  0.014244454  0.012698085         3894 
 4655000   0.50846684   -7.7537321    797.74783    0.0142812  0.012693702         3903 
 4656000   0.50259997    -7.743918     797.1638   0.01426768  0.012689323         3899 
 4657000   0.51045003   -7.7526116    796.87844   0.01425951  0.012684945         3913 
 4658000   0.50267653   -7.7395291    796.59023  0.014251292  0.012680568         3902 
 4659000   0.50902883   -7.7680399    795.99708  0.014237624  0.012676196         3895 
 4660000   0.51614578    -7.753701    796.97485  0.014252054  0.012671824         3894 
 4661000   0.51616319   -7.7558233    795.89899  0.014229761  0.012667451         3912 
 4662000   0.52250912   -7.7624879    796.74307  0.014241797  0.012663082         3917 
 4663000    0.5090151   -7.7614164    796.50573  0.014234501  0.012658712         3898 
 4664000    0.5033732   -7.7658526    797.37726  0.014247021  0.012654346         3899 
 4665000   0.49864655   -7.7490326    797.69382  0.014249622  0.012649982         3898 
 4666000   0.49629467   -7.7712201    797.35133  0.014240451  0.012645623         3906 
 4667000   0.50281106   -7.7668319    796.37459  0.014219959  0.012641263         3899 
 4668000   0.50568876   -7.7625068    795.41898  0.014199853  0.012636904         3904 
 4669000   0.49924148   -7.7688916    796.16068   0.01421005  0.012632546         3890 
 4670000   0.50326308    -7.765727     796.3472  0.014210335  0.012628192         3902 
 4671000   0.49743902   -7.7571364    796.81455  0.014215631  0.012623841         3889 
 4672000   0.51095114   -7.7591655    795.78703  0.014194261  0.012619493         3899 
 4673000   0.50439604   -7.7753335    796.92224  0.014211467  0.012615145         3912 
 4674000   0.50699479   -7.7650404    796.19194  0.014195406  0.012610801         3899 
 4675000   0.51574755   -7.7627304    795.97547  0.014188511  0.012606455         3890 
 4676000   0.50011537   -7.7584086     796.0366  0.014186566  0.012602111         3882 
 4677000   0.48668238   -7.7798601    795.21385  0.014168873  0.012597767         3920 
 4678000    0.5059298   -7.7747689    794.42421  0.014151778  0.012593423         3918 
 4679000   0.49469461   -7.7536329    796.07946  0.014178234  0.012589087         3900 
 4680000   0.50518808   -7.7458494    796.35971  0.014180194  0.012584753         3906 
 4681000    0.4910467   -7.7498895    796.24791  0.014175175   0.01258042         3906 
 4682000   0.50318955   -7.7505283     796.6972  0.014180144   0.01257609         3900 
 4683000   0.50679171   -7.7682895    795.52932  0.014156334   0.01257176         3881 
 4684000   0.49384658   -7.7692815    796.09873  0.014163442  0.012567432         3900 
 4685000   0.50695502   -7.7764051    795.76497  0.014154482  0.012563106         3888 
 4686000   0.49681619   -7.7624517    795.57036     0.014148  0.012558782         3908 
 4687000   0.49774207   -7.7718377    796.09303  0.014154275  0.012554459         3889 
 4688000   0.51689616   -7.7701714    796.06477  0.014150753  0.012550138         3880 
 4689000     0.499164   -7.7723888    795.75527  0.014142235   0.01254582         3901 
 4690000    0.5010612   -7.7670863    796.75628  0.014157006  0.012541503         3908 
 4691000   0.49369027   -7.7745093    796.78932  0.014154575  0.012537191         3894 
 4692000   0.49475282   -7.7541836    796.22922   0.01414161  0.012532878         3903 
 4693000   0.49917696   -7.7565954    796.86025  0.014149802  0.012528566         3904 
 4694000   0.49924143   -7.7583641    796.93788  0.014148166  0.012524256         3914 
 4695000   0.50669155      -7.7795    797.41433  0.014153609  0.012519947         3902 
 4696000   0.49985206   -7.7601781    796.05152  0.014126411  0.012515644         3898 
 4697000   0.49161796   -7.7669281    796.81126  0.014136883  0.012511343         3909 
 4698000   0.49223921   -7.7596809    795.18807  0.014105081  0.012507044         3895 
 4699000   0.48835494   -7.7719038     796.2073  0.014120155  0.012502746         3900 
 4700000   0.48643277   -7.7610064    795.37093  0.014102321  0.012498447         3899 
 4701000   0.48192472   -7.7574044    797.03462  0.014128813  0.012494154         3899 
 4702000   0.50933505   -7.7656908    794.80437  0.014086282   0.01248986         3902 
 4703000   0.50314129   -7.7811531    795.73271  0.014099736  0.012485569         3901 
 4704000   0.48892824   -7.7625341    795.73071  0.014096703  0.012481279         3891 
 4705000   0.50250175   -7.7756233    796.32951  0.014104313  0.012476992         3914 
 4706000    0.4902316   -7.7802675    794.93393  0.014076603  0.012472705         3901 
 4707000   0.49691796   -7.7432681    794.79444  0.014071143  0.012468421         3897 
 4708000   0.49473055   -7.7726608    796.32284  0.014095207  0.012464137         3892 
 4709000   0.50861956   -7.7711524    796.54898  0.014096216  0.012459859         3917 
 4710000   0.49433977   -7.7640861     796.8834   0.01409914  0.012455581         3904 
 4711000   0.49612627   -7.7668073    795.20631  0.014066481  0.012451305         3905 
 4712000   0.49501417   -7.7706924    796.06096  0.014078611  0.012447031         3900 
 4713000    0.4941682   -7.7849843    795.50461  0.014065786  0.012442759         3903 
 4714000     0.493317   -7.7700156    795.69288  0.014066131  0.012438486         3908 
 4715000   0.48517492   -7.7859304    797.11202  0.014088229  0.012434216         3898 
 4716000   0.49133619   -7.7673475     796.5356  0.014075056  0.012429947         3893 
 4717000   0.51154387   -7.7676768    794.97397  0.014044484  0.012425684         3898 
 4718000   0.49079879   -7.7704706    794.85779  0.014039455  0.012421419         3907 
 4719000   0.50409635   -7.7742106    796.84393  0.014071554   0.01241716         3907 
 4720000   0.48886502   -7.7758191    796.59328  0.014064147  0.012412903         3900 
 4721000   0.50157601    -7.790898    796.29612  0.014055922  0.012408647         3903 
 4722000   0.49802344   -7.7672541    797.02968  0.014065892  0.012404392         3886 
 4723000   0.49852608   -7.7755241    796.28563  0.014049785  0.012400139         3895 
 4724000   0.49093201   -7.7505239     796.4804  0.014050247  0.012395888         3899 
 4725000   0.49349061   -7.7633806    795.54708  0.014030813  0.012391639         3903 
 4726000   0.49581677   -7.7770724    795.83935  0.014032997  0.012387391         3910 
 4727000   0.49620185   -7.7895601    795.20113  0.014018777   0.01238314         3910 
 4728000   0.49822334   -7.7642032     795.5941  0.014022739  0.012378899         3902 
 4729000   0.50119651    -7.767958    795.67721  0.014021238  0.012374657         3914 
 4730000   0.49742592    -7.764158    795.48841  0.014014947  0.012370415         3904 
 4731000   0.49751636    -7.771497    796.54941  0.014030674  0.012366177         3903 
 4732000   0.48765978   -7.7743097    795.39137  0.014007315  0.012361938         3903 
 4733000   0.49354401   -7.7861262    795.72308  0.014010196  0.012357704         3911 
 4734000   0.49039386   -7.7726355    796.60707  0.014022797   0.01235347         3883 
 4735000   0.48596095   -7.7627357     795.2463  0.013995887  0.012349234         3915 
 4736000   0.48976523   -7.7842258      796.484   0.01401471  0.012345005         3901 
 4737000   0.50092644   -7.7903136    795.89292  0.014001353  0.012340779         3899 
 4738000   0.48533507   -7.7695625    795.28295   0.01398767  0.012336555         3887 
 4739000   0.49361693   -7.7714546    793.90561  0.013960498  0.012332329         3904 
 4740000   0.49253108   -7.7665871    795.83473  0.013991469  0.012328105         3884 
 4741000   0.49131842   -7.7803162    796.29224  0.013996559  0.012323888         3900 
 4742000    0.4848835   -7.7924752    796.22338  0.013992397  0.012319669         3900 
 4743000   0.49383518   -7.7851728    795.80048  0.013982017  0.012315451         3890 
 4744000    0.4956102   -7.7725508    796.00189  0.013982608  0.012311238         3902 
 4745000   0.50370157   -7.7792488    795.89804  0.013977837  0.012307028         3900 
 4746000   0.49710046   -7.7830814    795.82621  0.013973631  0.012302816         3885 
 4747000   0.48644118   -7.7798727     795.3378  0.013962113  0.012298608         3900 
 4748000   0.49294823   -7.7781141    795.72765  0.013966015    0.0122944         3911 
 4749000   0.49198165   -7.7854575    795.23029  0.013954346  0.012290189         3908 
 4750000   0.49170068   -7.7700016    795.14871  0.013949977  0.012285986         3923 
 4751000   0.49012803   -7.7959023    795.91871  0.013960547  0.012281785         3895 
 4752000   0.47950583   -7.7713551     795.6058  0.013952122  0.012277582         3903 
 4753000   0.47452995   -7.8016919    794.90648  0.013936925  0.012273382         3894 
 4754000    0.4961152   -7.7921234    795.34301  0.013941646  0.012269182         3898 
 4755000   0.48762702   -7.7683427    794.30802  0.013920575  0.012264985         3910 
 4756000   0.48234015   -7.7913633    795.28368  0.013934744  0.012260793         3909 
 4757000   0.48577094   -7.7768001    796.69747  0.013956581  0.012256601         3905 
 4758000   0.48589172   -7.7728032    793.70848  0.013901297  0.012252411         3906 
 4759000   0.49706751   -7.7971599    796.70057   0.01395077  0.012248222         3899 
 4760000   0.50110941   -7.7814075    795.97813  0.013935191  0.012244038         3898 
 4761000   0.50049979    -7.773724    794.51118  0.013906588  0.012239851         3909 
 4762000   0.48420058   -7.7655239    795.33122  0.013918018  0.012235669         3903 
 4763000   0.50090969   -7.7787425    795.57861  0.013919424  0.012231487         3912 
 4764000   0.48556695   -7.7819841    794.83999  0.013903582  0.012227308         3914 
 4765000   0.49034126   -7.7794836    795.14403  0.013905982  0.012223131         3904 
 4766000   0.47926494   -7.7591703    795.77033  0.013914015  0.012218958         3890 
 4767000   0.48570499   -7.7699942    797.16256  0.013935434  0.012214784         3895 
 4768000   0.48407243   -7.7857137     795.0619  0.013895797  0.012210614         3919 
 4769000   0.49004363   -7.7755703    794.93346  0.013890639  0.012206446         3905 
 4770000   0.50199198   -7.7738319    796.20125  0.013909875  0.012202278         3880 
 4771000   0.49250005   -7.7860437    794.55681  0.013878237  0.012198111         3894 
 4772000   0.47937503   -7.7848822     795.2297  0.013887079  0.012193946         3898 
 4773000   0.49549977   -7.7886844    795.85588  0.013895102  0.012189783         3907 
 4774000   0.48086208    -7.774075    795.46972  0.013885451   0.01218562         3904 
 4775000   0.49167475   -7.7800507     794.5097  0.013865789  0.012181459         3894 
 4776000   0.48594056   -7.7682013    795.82596  0.013885852  0.012177303         3898 
 4777000   0.49216554   -7.7864772    794.82656  0.013865511  0.012173149         3894 
 4778000   0.48832865    -7.788945    795.85511  0.013880548  0.012168999         3897 
 4779000   0.49479808   -7.7795546    796.44061  0.013887853  0.012164848         3891 
 4780000   0.48099722   -7.7788611    794.98544  0.013859579    0.0121607         3898 
 4781000   0.49947687   -7.7773854    794.79938  0.013853437  0.012156552         3899 
 4782000   0.48697399   -7.8009725    795.25602  0.013858497  0.012152409         3899 
 4783000    0.4900246   -7.8019336    795.28579  0.013856119  0.012148265         3895 
 4784000   0.49257519    -7.788129    795.67756  0.013860047  0.012144124         3890 
 4785000   0.48251914   -7.8009783    796.26694  0.013867414  0.012139985         3890 
 4786000   0.48573218   -7.7802255    795.57856  0.013852531  0.012135844         3902 
 4787000   0.48228357   -7.7860157    795.05549  0.013840531  0.012131705         3907 
 4788000   0.48343234   -7.7754963    794.90689  0.013835054  0.012127566         3887 
 4789000    0.4958079   -7.7830913    795.67421  0.013845518  0.012123435         3892 
 4790000   0.49792666   -7.8003891    796.46617  0.013856405  0.012119303         3907 
 4791000    0.4825041   -7.7817889    795.77793  0.013841542  0.012115172         3900 
 4792000   0.47302934   -7.7917323    795.42575  0.013832529  0.012111044         3900 
 4793000   0.49528788   -7.7863529    794.32245  0.013810461  0.012106919         3907 
 4794000   0.49159598   -7.7866203    795.00857  0.013819507  0.012102794         3893 
 4795000   0.48669262   -7.8028673    795.41412  0.013823673  0.012098673         3900 
 4796000   0.48391544   -7.7898686    793.88708  0.013794257  0.012094552         3901 
 4797000   0.47602099   -7.7968356    794.40862  0.013800442  0.012090432         3906 
 4798000   0.48130692   -7.7980808    795.50788  0.013816658  0.012086315         3897 
 4799000   0.48216575    -7.797333    794.62715  0.013798485  0.012082199         3902 
 4800000   0.48841148   -7.7850945    795.12638  0.013804277  0.012078086         3919 
 4801000   0.49185225   -7.7861418    794.78639  0.013795501  0.012073973         3888 
 4802000    0.4844876   -7.8117609    794.39744  0.013785878  0.012069863         3913 
 4803000   0.47863684   -7.7910995    795.56836  0.013803324  0.012065756         3912 
 4804000    0.4811198   -7.7930566    793.72395  0.013768456   0.01206165         3896 
 4805000   0.48301093   -7.7914925    795.21021  0.013791367  0.012057544         3897 
 4806000   0.48670106    -7.805305    794.98039  0.013784512  0.012053442         3888 
 4807000   0.47446853    -7.794474    795.24684  0.013786264   0.01204934         3903 
 4808000   0.47814751   -7.7754908      794.135  0.013764126  0.012045239         3891 
 4809000   0.48832062   -7.7914096    794.88196  0.013774207  0.012041141         3912 
 4810000    0.4941526   -7.8005814    795.17304  0.013776387  0.012037045         3895 
 4811000   0.48226325   -7.7958995    794.94453  0.013769565  0.012032949         3896 
 4812000   0.49067315   -7.7922572    794.71768  0.013762775  0.012028858         3899 
 4813000   0.48489986   -7.7856852    796.26876  0.013786771   0.01202477         3909 
 4814000   0.48500242   -7.8090743    796.27467   0.01378401  0.012020681         3894 
 4815000   0.47896074   -7.8007294    794.59782  0.013752126  0.012016593         3899 
 4816000   0.48857417   -7.8048822    794.31988  0.013744461  0.012012508         3904 
 4817000   0.49171696     -7.81193    796.14645  0.013773207  0.012008425         3914 
 4818000   0.48056197   -7.8073702    795.36006  0.013756747  0.012004344         3900 
 4819000   0.48531195   -7.7896327     795.0058  0.013747766  0.012000265         3883 
 4820000     0.489731   -7.7995188     795.5015  0.013753484  0.011996187         3916 
 4821000   0.47477246   -7.7755318    795.26879  0.013746608  0.011992113         3886 
 4822000    0.4896243   -7.7977953    795.60697  0.013749602  0.011988037         3896 
 4823000   0.47102535   -7.7958103    795.93465  0.013752413  0.011983964         3895 
 4824000   0.48824165   -7.7959561    795.61568  0.013744052  0.011979892         3902 
 4825000   0.47567139   -7.7897828    793.47111  0.013704164  0.011975824         3907 
 4826000   0.48049993   -7.8107083    794.55876  0.013720106  0.011971757         3912 
 4827000   0.48203163   -7.7881487      793.253  0.013694721  0.011967692         3900 
 4828000   0.48270951   -7.7784276    794.54293  0.013714149  0.011963627         3905 
 4829000   0.48969473    -7.792471    795.16829  0.013722101  0.011959568         3908 
 4830000   0.47273579   -7.7900229    795.69616  0.013728367  0.011955508         3901 
 4831000    0.4794098   -7.7978797    794.28258  0.013701142  0.011951451         3908 
 4832000   0.48100596   -7.7928611    793.85086  0.013690861  0.011947394         3903 
 4833000   0.49034597   -7.8174838    794.87578    0.0137057  0.011943339         3906 
 4834000   0.48736661   -7.7941297    795.46992  0.013713107  0.011939286         3908 
 4835000   0.48246701   -7.7797985    795.17677  0.013705218  0.011935236         3908 
 4836000   0.47417838   -7.7936967    795.98774  0.013716359  0.011931189         3894 
 4837000   0.47376427   -7.8035898    794.49404  0.013687789  0.011927141         3894 
 4838000   0.47610931   -7.8065469    794.74932  0.013689357  0.011923097         3911 
 4839000   0.46141401   -7.8016091    794.98433  0.013690575  0.011919053         3908 
 4840000   0.47240931   -7.8009925    796.14924  0.013707804  0.011915011         3892 
 4841000   0.47075954   -7.8003214    795.14933   0.01368776  0.011910969         3909 
 4842000   0.48822123    -7.797662    795.06948  0.013683558  0.011906932         3908 
 4843000   0.46699854   -7.7935375    795.34776  0.013685521  0.011902892         3898 
 4844000   0.47521292   -7.7900648    795.59916  0.013687021  0.011898856         3894 
 4845000   0.47962978   -7.8024219    794.95374  0.013673095  0.011894822         3896 
 4846000   0.47442832   -7.8066442    794.53304  0.013663039   0.01189079         3891 
 4847000   0.47398877   -7.8035801    794.57626  0.013660963  0.011886762         3913 
 4848000    0.4696922   -7.7996934    796.17138  0.013685564  0.011882734         3900 
 4849000   0.47398639   -7.7955155    795.35157  0.013668653  0.011878706         3887 
 4850000    0.4703702   -7.8009121    794.90333  0.013658133  0.011874682         3902 
 4851000   0.47139136   -7.7839912    794.13603  0.013642136  0.011870658         3905 
 4852000   0.48061566   -7.8073551    796.54847  0.013680758  0.011866637         3909 
 4853000   0.47318513   -7.8052197    794.34681  0.013640133  0.011862618         3910 
 4854000   0.47746479   -7.8107804    795.09867  0.013650231  0.011858603         3898 
 4855000   0.48815973   -7.7999717    794.23984  0.013632678  0.011854588         3901 
 4856000   0.47312543   -7.7877796    795.00491     0.013643  0.011850573         3892 
 4857000   0.47048815   -7.8080841    794.80795  0.013636812  0.011846559         3907 
 4858000   0.47259491   -7.7935222    793.88779  0.013618221  0.011842548         3887 
 4859000   0.47841565   -7.8044077    794.22031  0.013621121  0.011838539         3913 
 4860000   0.47572759   -7.7917376    794.39953  0.013621391  0.011834533         3896 
 4861000   0.47375852   -7.7963831    794.71012  0.013623914  0.011830529         3902 
 4862000   0.46073985   -7.8070407    795.12077   0.01362815  0.011826526         3920 
 4863000   0.47179023   -7.8084589    794.59179  0.013616283  0.011822523         3909 
 4864000   0.47339022     -7.81753    794.79969  0.013617045  0.011818523         3902 
 4865000   0.47403452   -7.7960919    795.64064  0.013628651  0.011814523         3906 
 4866000   0.47417133   -7.7972072    795.80359  0.013628641  0.011810527         3910 
 4867000   0.46522737   -7.7940846    794.02216  0.013595339   0.01180653         3909 
 4868000   0.46914048   -7.8091731    793.74772  0.013587848  0.011802534         3898 
 4869000   0.47460317   -7.8014239    794.53216  0.013598483  0.011798543         3905 
 4870000   0.46742495   -7.7958249    793.69925  0.013581438  0.011794552         3899 
 4871000   0.47643288   -7.7964571    794.16549  0.013586626  0.011790564         3909 
 4872000   0.46535798   -7.8092992    794.54691  0.013590362  0.011786581         3906 
 4873000   0.47848399   -7.7858529    792.52952  0.013553073  0.011782594         3887 
 4874000    0.4724563   -7.8040941     794.1156  0.013577411  0.011778612         3907 
 4875000    0.4746058   -7.7866028    794.47686  0.013580801   0.01177463         3899 
 4876000   0.47341967   -7.8023813     794.2714  0.013574504  0.011770651         3892 
 4877000   0.46962826   -7.7917602     793.9541  0.013566299  0.011766674         3911 
 4878000   0.46141715   -7.8211383    794.60957  0.013574716  0.011762697         3909 
 4879000   0.47144756   -7.7967505    795.57873  0.013588487  0.011758723         3902 
 4880000   0.47031729   -7.7904813    794.29806  0.013563833   0.01175475         3911 
 4881000   0.47664309   -7.7924377    793.27324  0.013543557  0.011750778         3901 
 4882000   0.48415835   -7.8191943    795.64549  0.013581276   0.01174681         3917 
 4883000   0.46380853   -7.7995443    794.66386  0.013561742  0.011742845         3904 
 4884000   0.47204975   -7.7963395    794.60461  0.013557955  0.011738881         3905 
 4885000   0.47283393   -7.7992061    793.54995  0.013537188  0.011734921         3908 
 4886000   0.47238495   -7.8072457    794.47068  0.013550121   0.01173096         3895 
 4887000   0.47132127    -7.797604    794.14421  0.013541781  0.011726999         3919 
 4888000   0.46414274   -7.8170189    796.02173   0.01357102  0.011723041         3908 
 4889000    0.4826033   -7.7994211    795.08445  0.013552268  0.011719081         3904 
 4890000   0.46918098   -7.8011739    794.91939  0.013546684  0.011715128         3898 
 4891000   0.45897972   -7.8020266    794.76497  0.013541283  0.011711177         3899 
 4892000   0.48011973   -7.8131699    794.71649  0.013537689  0.011707225         3888 
 4893000   0.46538163   -7.7942139    794.93479   0.01353864  0.011703276         3900 
 4894000   0.46424253   -7.8065877    794.76644  0.013533007   0.01169933         3898 
 4895000   0.47072719   -7.8210298    794.08618  0.013518662  0.011695384         3897 
 4896000   0.46442686   -7.8161764    793.30886   0.01350267  0.011691438         3908 
 4897000    0.4692107   -7.8263746    794.94068  0.013527681  0.011687495         3912 
 4898000   0.47346223   -7.8126092    795.17245  0.013528863  0.011683556         3918 
 4899000   0.46163831   -7.7928864    792.54364  0.013481385  0.011679617         3912 
 4900000   0.47061816   -7.8089122    794.13954  0.013505774  0.011675678         3910 
 4901000   0.46861746   -7.7921225    794.58598   0.01351061  0.011671742         3893 
 4902000   0.47466414   -7.8030709     793.9377  0.013496833  0.011667808         3910 
 4903000   0.46983069   -7.8097601    794.42845  0.013502421  0.011663874         3906 
 4904000   0.47186111   -7.8151063    795.00964  0.013509544  0.011659941         3890 
 4905000   0.46793302   -7.8010864    794.26623   0.01349416  0.011656012         3902 
 4906000   0.46495861   -7.8030247    794.76518  0.013499884  0.011652086         3913 
 4907000   0.46491273   -7.8132102    795.35605  0.013507167  0.011648162         3902 
 4908000   0.46931955   -7.7965713    793.82178  0.013478365  0.011644239         3906 
 4909000   0.46514824   -7.8112665    794.51201  0.013487336  0.011640315         3906 
 4910000   0.46461573   -7.8138284    795.02876   0.01349336  0.011636392         3905 
 4911000   0.46309966   -7.8107514    793.52968  0.013465175  0.011632474         3915 
 4912000   0.46337631   -7.8050287    794.89524  0.013485601  0.011628556         3911 
 4913000   0.46777119   -7.8008461    795.28816   0.01348952  0.011624642         3890 
 4914000    0.4794947   -7.8159736    794.60634  0.013475213   0.01162073         3918 
 4915000   0.47698225   -7.8042204    793.32723  0.013450784  0.011616817         3901 
 4916000   0.46940308   -7.8130608    794.85201  0.013473895  0.011612906         3916 
 4917000   0.47486861   -7.8196641    794.20491  0.013460188     0.011609         3915 
 4918000   0.46558174   -7.8103276    793.80648    0.0134507  0.011605094         3911 
 4919000   0.46048698   -7.8142372    793.86853  0.013449016  0.011601186         3899 
 4920000   0.45953574    -7.812193    793.48777  0.013439833  0.011597283         3887 
 4921000   0.45688592   -7.8116472    793.82405  0.013442797  0.011593383         3905 
 4922000   0.46858759   -7.8074425    793.45342  0.013433791  0.011589481         3894 
 4923000    0.4706422    -7.823215    794.72574  0.013452599  0.011585584         3908 
 4924000   0.47118764   -7.8195736    793.25119  0.013424912  0.011581687         3904 
 4925000   0.46788955   -7.8133231    793.12529  0.013420056  0.011577793         3904 
 4926000   0.45262279   -7.8183561    793.81172  0.013428944    0.0115739         3899 
 4927000    0.4705518   -7.8139938    794.94635  0.013445409  0.011570008         3909 
 4928000    0.4580827   -7.8030852    793.52349   0.01341862  0.011566118         3909 
 4929000   0.46464801   -7.8148879    793.98555  0.013423709  0.011562232         3905 
 4930000   0.46412304   -7.8094268     793.5143  0.013413021  0.011558347         3897 
 4931000   0.45649246   -7.7961531    793.63897  0.013412407  0.011554462         3888 
 4932000   0.45998929   -7.8136725     794.8019  0.013429337  0.011550579         3898 
 4933000   0.45257342   -7.8018897    794.27393  0.013417696  0.011546698         3927 
 4934000   0.46854117   -7.8163138    794.28312  0.013415132  0.011542819         3912 
 4935000   0.46571243   -7.8224873    793.39213  0.013397368  0.011538943         3908 
 4936000   0.46202857   -7.8352883    793.62344  0.013398559  0.011535066         3899 
 4937000   0.46567893   -7.8101695    794.56324  0.013411708  0.011531194         3899 
 4938000   0.45350528   -7.8154922    793.94284  0.013398522   0.01152732         3912 
 4939000   0.45824737   -7.8242082    793.67913   0.01339136  0.011523449         3915 
 4940000   0.47421187   -7.8244871     793.4443  0.013384688  0.011519578         3906 
 4941000   0.46331444   -7.8275413    793.60455  0.013384682   0.01151571         3899 
 4942000   0.46306168   -7.8174563    794.84611  0.013402909  0.011511845         3896 
 4943000   0.45364228   -7.8164539    793.08038  0.013370429   0.01150798         3905 
 4944000   0.46459946   -7.8395291    795.36432  0.013406222  0.011504118         3916 
 4945000   0.46169372   -7.8071144    794.05223  0.013381399  0.011500259         3912 
 4946000   0.45193095   -7.8163559    794.08281  0.013379209    0.0114964         3905 
 4947000   0.46009065   -7.8234147    793.93718  0.013374051  0.011492544         3890 
 4948000   0.45449024   -7.8212201    794.40223  0.013379181  0.011488691         3898 
 4949000   0.46147673   -7.8159427    794.42979  0.013376941  0.011484838         3905 
 4950000   0.46284439   -7.8182525    794.22845  0.013370849  0.011480985         3893 
 4951000   0.46897411   -7.8137484    794.21576  0.013367935  0.011477134         3892 
 4952000   0.45664233   -7.8013091    794.00942  0.013361763  0.011473286         3910 
 4953000   0.44802895   -7.8182995    794.36258  0.013365007  0.011469441         3886 
 4954000   0.46985645   -7.8220252    793.35051  0.013345285  0.011465594         3912 
 4955000   0.45902421   -7.8177977    792.78275  0.013333043  0.011461751         3908 
 4956000    0.4651411   -7.8158621     795.0952  0.013369236  0.011457908         3908 
 4957000   0.46539591    -7.812693    792.94863  0.013330452  0.011454068         3899 
 4958000   0.46663017    -7.813186    792.92594  0.013327382  0.011450226         3894 
 4959000   0.46067625   -7.8276999    794.22635  0.013346548  0.011446389         3896 
 4960000     0.453292   -7.8217532    794.18849  0.013343221  0.011442553         3893 
 4961000   0.46563149    -7.815243    794.35673  0.013343357  0.011438719         3897 
 4962000   0.45903316   -7.8072467    794.34585  0.013340485  0.011434888         3908 
 4963000   0.45852676   -7.8286793    793.85417  0.013329541  0.011431057         3904 
 4964000    0.4602648   -7.8151803    792.70536  0.013307571  0.011427224         3902 
 4965000   0.45576164   -7.8218321    792.37569  0.013299357  0.011423397         3908 
 4966000   0.45771409    -7.840297      794.364  0.013330044  0.011419571         3895 
 4967000   0.45622307   -7.8247169    793.29692  0.013309458  0.011415748         3903 
 4968000   0.45916987   -7.8268144    794.62695  0.013329089  0.011411926         3901 
 4969000   0.45110067   -7.8171392    794.00303  0.013315943  0.011408105         3911 
 4970000   0.46371637   -7.8206102     792.4001  0.013286387  0.011404283         3915 
 4971000   0.46342846    -7.821606     793.4015  0.013300501  0.011400464         3906 
 4972000   0.46237836   -7.8266181    794.44016  0.013315235  0.011396649         3890 
 4973000   0.45823185   -7.8112512    793.17826  0.013291411  0.011392834         3899 
 4974000    0.4534815   -7.8101075    793.44409  0.013293193  0.011389022         3917 
 4975000   0.44100433   -7.8092208    793.63195  0.013293667  0.011385211         3905 
 4976000   0.45623007    -7.808757    793.60309  0.013290513  0.011381401         3905 
 4977000   0.46033074   -7.8244216    794.18513  0.013297588  0.011377595         3904 
 4978000   0.45574596   -7.8380685    793.48002  0.013283113  0.011373788         3892 
 4979000   0.45477758   -7.8064746    794.15654  0.013291768  0.011369982         3903 
 4980000   0.46227837   -7.8191833    793.21129  0.013273281  0.011366179         3899 
 4981000   0.45818142   -7.8233522    793.17802   0.01327006  0.011362378         3912 
 4982000   0.44279396   -7.8358311    792.82332  0.013261463   0.01135858         3900 
 4983000   0.45841335    -7.811009    793.82226  0.013275508  0.011354781         3900 
 4984000    0.4602098   -7.8249576    793.88952  0.013273969  0.011350986         3900 
 4985000   0.45918147   -7.8122459    792.22013  0.013243399   0.01134719         3898 
 4986000   0.46154254   -7.8244655    793.63546  0.013264398  0.011343399         3908 
 4987000   0.46900822    -7.821062    794.67043  0.013279033  0.011339611         3915 
 4988000   0.44599335   -7.8302708    793.48103    0.0132565  0.011335823         3891 
 4989000   0.45255649   -7.8376255    793.63149  0.013256355  0.011332034         3920 
 4990000   0.45969467    -7.835342    795.08674  0.013278002  0.011328247         3901 
 4991000    0.4546685   -7.8265696    793.72386  0.013252586  0.011324463         3909 
 4992000   0.46480484   -7.8299357    794.06452  0.013255618   0.01132068         3912 
 4993000   0.45364004    -7.821819    794.29717  0.013256846  0.011316899         3906 
 4994000   0.44428738   -7.8326702    794.38347  0.013255631   0.01131312         3901 
 4995000    0.4412553   -7.8131688    792.79033  0.013226398  0.011309343         3903 
 4996000   0.46302739    -7.825482    794.56598  0.013253369  0.011305569         3903 
 4997000   0.45894226   -7.8282789    793.37247  0.013230813  0.011301794         3899 
 4998000   0.45376043   -7.8148501    794.01115  0.013238815  0.011298019         3907 
 4999000   0.45419628   -7.8348186    793.16027  0.013221982  0.011294248         3906 
 5000000    0.4458141   -7.8183544    792.05327  0.013200888  0.011290477         3916 
 5001000   0.45402681   -7.8384285    793.57484  0.013223603   0.01128671         3911 
 5002000   0.46063383   -7.8338563    794.17079  0.013230888  0.011282945         3908 
 5003000    0.4569376   -7.8287616    793.50657  0.013217179   0.01127918         3893 
 5004000   0.44462901   -7.8167729    794.39652  0.013229359  0.011275419         3916 
 5005000   0.44341627   -7.8298872     793.4027  0.013210168  0.011271655         3903 
 5006000   0.45606944   -7.8399764    793.19486  0.013204069  0.011267895         3914 
 5007000   0.45149775   -7.8394502    793.21493  0.013201766  0.011264134         3905 
 5008000   0.43727646   -7.8302884    792.77596  0.013191826  0.011260377         3908 
 5009000    0.4658794   -7.8213935     792.5384   0.01318524  0.011256624         3909 
 5010000    0.4466691   -7.8471732    793.29674  0.013195222   0.01125287         3908 
 5011000    0.4507688   -7.8191399    792.90982  0.013186154  0.011249118         3896 
 5012000   0.45490361   -7.8388045    793.92443  0.013200393  0.011245367         3900 
Loop time of 10628.2 on 48 procs for 5000000 steps with 4000 atoms

Performance: 81293.158 tau/day, 470.447 timesteps/s
99.4% CPU use with 48 MPI tasks x no OpenMP threads

MPI task timing breakdown:
Section |  min time  |  avg time  |  max time  |%varavg| %total
---------------------------------------------------------------
Pair    | 645.38     | 715.4      | 749.53     |  89.0 |  6.73
Neigh   | 65.926     | 67.659     | 69.935     |   9.5 |  0.64
Comm    | 550.7      | 610.54     | 698.07     | 120.3 |  5.74
Output  | 14.722     | 14.726     | 14.823     |   0.4 |  0.14
Modify  | 9056.1     | 9105.3     | 9158.6     |  24.8 | 85.67
Other   |            | 114.6      |            |       |  1.08

Nlocal:        83.3333 ave          91 max          77 min
Histogram: 2 1 11 7 6 11 3 4 1 2
Nghost:        1762.67 ave        1783 max        1741 min
Histogram: 2 3 3 5 6 11 9 3 3 3
Neighs:        10630.8 ave       11873 max        9515 min
Histogram: 1 2 5 10 6 12 8 1 2 1
FullNghs:      21262.1 ave       23341 max       19527 min
Histogram: 2 4 6 8 10 10 2 3 1 2

Total # of neighbors = 1020582
Ave neighs/atom = 255.14550
Neighbor list builds = 269995
Dangerous builds = 1

#clear
#
#next RN
#
#jump SELF
Total wall time: 2:57:10
