
units lj                  # Use reduced LJ style units
atom_style atomic         # Uncharged point particles
atom_modify map hash      # Needed for indexing of clusters etc
                          # Used to be able to find where atoms are in relation to each other.

lattice fcc 1.0 spacing 1 1 1
Lattice spacing in x,y,z = 1.5874011 1.5874011 1.5874011
region box block 0 10 0 10 0 10 units lattice
create_box 2 box
Created orthogonal box = (0.0000000 0.0000000 0.0000000) to (15.874011 15.874011 15.874011)
  3 by 4 by 4 MPI processor grid
create_atoms 1 box
Created 4000 atoms
  using lattice units in orthogonal box = (0.0000000 0.0000000 0.0000000) to (15.874011 15.874011 15.874011)
  create_atoms CPU = 0.003 seconds
set type 1 type/fraction 2 0.64 78393
Setting atom values ...
  2566 settings made for type/fraction
mass 1 1.0
mass 2 1.0
pair_style lj/cut  3.5
pair_modify tail  yes
pair_coeff 1  1  1.0  1.0   # Intearaction between 1 and 1 set with epsilon = 1 and sigma = 1
pair_coeff 1  2  1.5  0.8
pair_coeff 2  2  0.5  0.88

write_data data.0
System init for write_data ...
Neighbor list info ...
  update every 1 steps, delay 10 steps, check yes
  max neighbors/atom: 2000, page size: 100000
  master list distance cutoff = 3.8
  ghost atom cutoff = 3.8
  binsize = 1.9, bins = 9 9 9
  1 neighbor lists, perpetual/occasional/extra = 1 0 0
  (1) pair lj/cut, perpetual
      attributes: half, newton on
      pair build: half/bin/atomonly/newton
      stencil: half/bin/3d
      bin: standard
WARNING: Not all mixed pair coeffs generated from mixing. Use write_data with 'pair ij' option to store all pair coeffs. (../write_data.cpp:312)


#############################
#   M E L T   S Y S T E M   #
#############################

velocity all create 2.4 1741580 mom yes dist gaussian # Assign velocities
                                                    # Temperature 2.4, random number seed, zero linear momentum
                                                                                # Gaussian distribution

timestep 0.002   # simulation timestep
thermo 1000       # output thermodynamic data every 1000 steps bf 100

# Define a fix  in this case with index 1 applied to all
# particles in the simulation. This fix is for simulations
# in the anisotropic NPT ensemble. Note that we use the MTK
# correction.
fix 1 all npt temp 2.4 2.4 0.1 iso 5.68 5.68 0.5 mtk yes tchain 5 pchain 5 # Use NPT ensemble
                                                                         # Set temperature and pressure and damping
                                                                         # Numbers of thermostats in chain and in barostat
run 10000          # run for 10000 steps
Per MPI rank memory allocation (min/avg/max) = 3.642 | 3.644 | 3.648 Mbytes
Step Temp E_pair E_mol TotEng Press Volume 
       0          2.4   -4.5154638            0  -0.91636384   -3.9779215         4000 
    1000    2.4136189   -4.2845258            0  -0.66500261    5.8291302    3588.9262 
    2000    2.3531651   -4.2370331            0  -0.70816797    5.5652401    3606.0094 
    3000    2.4623122   -4.2433314            0  -0.55078641    5.9123344    3614.1363 
    4000     2.389747   -4.2306583            0  -0.64693395    5.1539574    3669.6157 
    5000    2.4317373   -4.2569617            0  -0.61026758    5.7885163    3616.0298 
    6000    2.3141601   -4.2855178            0  -0.81514546      5.39564    3604.4738 
    7000     2.409333   -4.1727944            0  -0.55969851    5.8663424    3634.7327 
    8000    2.3735436    -4.216248            0   -0.6568226    5.8231245    3631.6194 
    9000    2.4145292   -4.1959772            0  -0.57508881    5.6143343    3647.1096 
   10000    2.3793398   -4.2299465            0  -0.66182903    5.6725354    3626.0675 
Loop time of 2.64511 on 48 procs for 10000 steps with 4000 atoms

Performance: 653280.592 tau/day, 3780.559 timesteps/s
99.6% CPU use with 48 MPI tasks x no OpenMP threads

MPI task timing breakdown:
Section |  min time  |  avg time  |  max time  |%varavg| %total
---------------------------------------------------------------
Pair    | 1.1912     | 1.2723     | 1.3559     |   3.3 | 48.10
Neigh   | 0.21575    | 0.22393    | 0.22972    |   0.6 |  8.47
Comm    | 0.80734    | 0.88571    | 0.98042    |   4.0 | 33.48
Output  | 0.00025071 | 0.00025566 | 0.00032132 |   0.0 |  0.01
Modify  | 0.23385    | 0.24736    | 0.25812    |   1.3 |  9.35
Other   |            | 0.01555    |            |       |  0.59

Nlocal:        83.3333 ave          93 max          72 min
Histogram: 3 0 1 8 6 11 8 7 2 2
Nghost:        1756.90 ave        1784 max        1728 min
Histogram: 1 3 2 6 8 13 6 6 1 2
Neighs:        10530.0 ave       12337 max        8881 min
Histogram: 3 1 3 6 15 9 4 5 0 2

Total # of neighbors = 505442
Ave neighs/atom = 126.36050
Neighbor list builds = 907
Dangerous builds = 219

# Equilibrate just above the melting temperature to avoid step fn in T

fix 1 all npt temp 1.25 1.25 0.1 iso 5.68 5.68 0.5 mtk yes tchain 5 pchain 5
run 2000
Per MPI rank memory allocation (min/avg/max) = 3.644 | 3.646 | 3.650 Mbytes
Step Temp E_pair E_mol TotEng Press Volume 
   10000    2.3793398   -4.2299465            0  -0.66182903    5.6725354    3626.0675 
   11000    1.2474827   -6.2045416            0   -4.3337855    5.8618862    2764.2521 
   12000    1.2176437   -6.2498347            0   -4.4238258    5.6045245    2756.5932 
Loop time of 0.849983 on 48 procs for 2000 steps with 4000 atoms

Performance: 406596.420 tau/day, 2352.989 timesteps/s
98.9% CPU use with 48 MPI tasks x no OpenMP threads

MPI task timing breakdown:
Section |  min time  |  avg time  |  max time  |%varavg| %total
---------------------------------------------------------------
Pair    | 0.30575    | 0.32778    | 0.3975     |   2.5 | 38.56
Neigh   | 0.042191   | 0.044312   | 0.04666    |   0.4 |  5.21
Comm    | 0.23231    | 0.30568    | 0.34846    |   3.2 | 35.96
Output  | 5.351e-05  | 5.4902e-05 | 7.2242e-05 |   0.0 |  0.01
Modify  | 0.11964    | 0.16714    | 0.1747     |   2.7 | 19.66
Other   |            | 0.00501    |            |       |  0.59

Nlocal:        83.3333 ave          91 max          78 min
Histogram: 4 5 0 20 5 3 8 1 0 2
Nghost:        2114.35 ave        2141 max        2090 min
Histogram: 4 2 2 7 12 9 8 2 0 2
Neighs:        13844.5 ave       15621 max       12628 min
Histogram: 5 5 10 4 9 3 5 5 0 2

Total # of neighbors = 664534
Ave neighs/atom = 166.13350
Neighbor list builds = 144
Dangerous builds = 10

#############################
# L I N E A R  Q U E N C H  #
#############################

# Define solid atoms. This closely follows ten Wolde  Ruiz-Montero and Frenkel  Faraday Discuss  1996  104  93-110
# Compute components of the per-atom q6 vector
compute q6 all orientorder/atom degrees 1 6 components 6 nnn NULL cutoff 1.3 # compute the Q6 parameter.
                                                                             # Use all neighbours within 1.3 unit cell.

# get number of connections
compute coord_number all coord/atom orientorder q6 0.5

# An atom is solid if it has 8 or more connections (of a possible 14)
variable is_solid atom c_coord_number>=8
group solid dynamic all var is_solid    # Must be dynamic to update
dynamic group solid defined

# do clustering
compute cluster solid cluster/atom 1.3 # Create a cluster where all atoms within are solid and max 1.3 units from another member

# define chunks one chunk per cluster
compute clus_chunks solid chunk/atom c_cluster nchunk every compress yes  # Says which atoms are in which chunk

# count the size of each chunk
compute size_chunks solid property/chunk clus_chunks count


# Find the maximum entry in the vector of chunk sizes
variable max_n equal max(c_size_chunks)


# Thermo style which includes this variable
# thermo_style custom step temp pe vol v_max_n

thermo ${N}  # Print the thermo information every 100 steps
thermo 1000  

# Reset the npt fix at a lower temperature (below freezing)
fix 1  all npt temp  ${temp} ${temp}  0.1  iso  5.68  5.68  0.5  mtk yes tchain  5  pchain  5
fix 1  all npt temp  0.45 ${temp}  0.1  iso  5.68  5.68  0.5  mtk yes tchain  5  pchain  5
fix 1  all npt temp  0.45 0.45  0.1  iso  5.68  5.68  0.5  mtk yes tchain  5  pchain  5

dump dmp2 all dcd ${N} traj.dcd
dump dmp2 all dcd 1000 traj.dcd


compute msd all msd com yes
variable twopoint equal c_msd[4]/6/(step*dt+1.0e-6)
fix 9 all vector 10 c_msd[4]
variable fit equal slope(f_9)/6/(10*dt)
thermo_style custom step temp pe c_msd[4] v_twopoint v_fit v_max_n

fix 1 all npt temp 1.25 ${temp} 0.1 iso 5.68 5.68 0.5 mtk yes tchain 5 pchain 5
fix 1 all npt temp 1.25 0.45 0.1 iso 5.68 5.68 0.5 mtk yes tchain 5 pchain 5
run 2000000 # 5000000  # Run for this many steps
Neighbor list info ...
  update every 1 steps, delay 10 steps, check yes
  max neighbors/atom: 2000, page size: 100000
  master list distance cutoff = 3.8
  ghost atom cutoff = 3.8
  binsize = 1.9, bins = 8 8 8
  4 neighbor lists, perpetual/occasional/extra = 1 3 0
  (1) pair lj/cut, perpetual
      attributes: half, newton on
      pair build: half/bin/atomonly/newton
      stencil: half/bin/3d
      bin: standard
  (2) compute orientorder/atom, occasional
      attributes: full, newton on
      pair build: full/bin/atomonly
      stencil: full/bin/3d
      bin: standard
  (3) compute coord/atom, occasional
      attributes: full, newton on
      pair build: full/bin/atomonly
      stencil: full/bin/3d
      bin: standard
  (4) compute cluster/atom, occasional
      attributes: full, newton on
      pair build: full/bin/atomonly
      stencil: full/bin/3d
      bin: standard
Per MPI rank memory allocation (min/avg/max) = 9.846 | 9.851 | 9.854 Mbytes
Step Temp PotEng c_msd[4] v_twopoint v_fit v_max_n 
   12000    1.2176437   -6.2498347  7.64209e-31 5.3070067e-33 8.3333333e+20            2 
   13000    1.2541738   -6.2558044   0.55189755 0.0035378046  0.045334423            5 
   14000    1.2588422   -6.3045392    1.0556686 0.0062837412  0.043476098            2 
   15000     1.256979   -6.2848706    1.5488758 0.0086048653  0.042501388            1 
   16000    1.2171866   -6.3150981    2.0176093  0.010508382   0.04163172            1 
   17000    1.2542488   -6.2909643    2.4834872  0.012173957  0.040937239            2 
   18000    1.2524603   -6.3276104     2.943533  0.013627467  0.040493726            3 
   19000    1.2253128   -6.2917384    3.4723606  0.015229651  0.040324326            4 
   20000    1.2350341   -6.3206723    3.8929539  0.016220641  0.040220657            4 
   21000    1.2307886   -6.3325057    4.3154309  0.017124725  0.039872424            4 
   22000     1.229522   -6.3195961    4.8026067  0.018191692  0.039495791            2 
   23000    1.2251986   -6.3172564      5.21852  0.018907681  0.039271617            2 
   24000    1.2681055   -6.3421571    5.7000017  0.019791672  0.039034441            2 
   25000    1.2626881   -6.2911099    6.1534603  0.020511534  0.038856077            3 
   26000    1.2308799   -6.3279083    6.5920088  0.021128233  0.038763514            2 
   27000    1.2559489   -6.3030327    7.0657508  0.021807872  0.038583104            4 
   28000    1.2551555   -6.3384058    7.5104014  0.022352385  0.038515402            2 
   29000    1.2763101    -6.340724    8.0060409  0.023005864  0.038515385            3 
   30000    1.2175436    -6.321035    8.4614165  0.023503934  0.038524394            3 
   31000    1.2234523    -6.375803    8.9874498  0.024159811  0.038584562            1 
   32000    1.2425119    -6.344057    9.4373698  0.024576483  0.038627296            4 
   33000    1.2489242   -6.3122689    10.053594  0.025387862  0.038777862            2 
   34000    1.2509278   -6.3181383    10.467583  0.025655841  0.038937406            4 
   35000    1.2211511   -6.2390597    11.008609  0.026210975  0.039011288            3 
   36000    1.2465439   -6.3342325    11.429443  0.026457043  0.039075075            2 
   37000    1.2230371   -6.3531946    11.980123  0.026982258  0.039199597            1 
   38000    1.2364749   -6.3598617      12.5473  0.027516009  0.039339214            2 
   39000     1.258104   -6.3107715    13.042369  0.027868309  0.039480873            3 
   40000    1.2346941   -6.2696739    13.548677   0.02822641  0.039576033            2 
   41000    1.2239554   -6.3236672    13.947792   0.02834917  0.039673618            1 
   42000    1.2245099   -6.3185262    14.371118  0.028514123   0.03972966            2 
   43000    1.2217925   -6.2712112    14.858613  0.028795762  0.039723493            4 
   44000    1.2528975   -6.3493199    15.304987  0.028986717  0.039738692            2 
   45000    1.2441243   -6.3263109    15.908266  0.029459752  0.039772328            3 
   46000    1.1982571   -6.3179952    16.316578  0.029559018  0.039822566            2 
   47000    1.2299883    -6.358878     16.99948  0.030140922  0.039872383            2 
   48000    1.2585279   -6.3128765    17.528552  0.030431513  0.039975111            2 
   49000    1.2538288   -6.3106631    17.988252  0.030592264  0.040052896            1 
   50000    1.2358986   -6.3136318    18.259011  0.030431685  0.040082608            3 
   51000    1.2273396   -6.3755351    18.629014  0.030439564  0.040063327            3 
   52000    1.2147124   -6.3382191    19.127007  0.030652254  0.040034346            2 
   53000    1.2388847   -6.3861227     19.48975  0.030644261  0.040000713            2 
   54000    1.2572682   -6.3795548    19.796646   0.03055038  0.039928371            4 
   55000    1.2261861   -6.3356558    20.183575  0.030581175   0.03983441            2 
   56000    1.2418875   -6.4137187    20.648544     0.030727  0.039745408            3 
   57000     1.234773   -6.3429257    21.106162  0.030856962  0.039653762            1 
   58000    1.2482858   -6.3353488    21.586428  0.031014983  0.039598343            3 
   59000    1.2238749   -6.3339155    21.991014  0.031060754   0.03952393            6 
   60000    1.1958994   -6.3309849    22.560041   0.03133339  0.039452993            1 
   61000    1.2373322    -6.369985    22.900701   0.03128511  0.039390864            1 
   62000    1.2277329   -6.3501976    23.517719  0.031609837  0.039339218            3 
   63000    1.2503117   -6.3621036    23.983337   0.03172399  0.039304809            2 
   64000    1.2210429   -6.3536551    24.281047  0.031615947  0.039255774            4 
   65000    1.2298996   -6.3671119    24.766787   0.03175229  0.039203775            2 
   66000    1.2566336   -6.3432766    25.154858  0.031761185  0.039138949            3 
   67000    1.2130278   -6.3118825    25.540737  0.031767085  0.039067354            4 
   68000    1.2103596   -6.3373217    26.106478  0.031993232  0.039003098            2 
   69000    1.2389884   -6.3792387    26.442883  0.031935849  0.038950397            3 
   70000    1.2128105   -6.3976867    26.828508    0.0319387  0.038894692            4 
   71000    1.2320443   -6.3229966    27.124127  0.031835829  0.038816411            2 
   72000    1.2324145   -6.3500638    27.337145  0.031640213  0.038730676            3 
   73000    1.2350377   -6.3707084    27.775227   0.03170688  0.038631003            3 
   74000    1.2230585    -6.356226    28.351267  0.031927102   0.03853272            1 
   75000    1.2138942   -6.3769568    28.768448  0.031964942  0.038454569            2 
   76000    1.2380424   -6.3858354    29.232508  0.032053188  0.038383968            1 
   77000    1.2367411   -6.3675718    29.768897  0.032217421  0.038332199            3 
   78000    1.1922044   -6.3942095     30.11335  0.032172382  0.038273141            2 
   79000    1.2462685   -6.3751914    30.400114  0.032067631  0.038197326            2 
   80000    1.2240045   -6.3864495    30.831869   0.03211653  0.038130168            3 
   81000    1.2322594   -6.4093299    31.315981  0.032218088  0.038065782            3 
   82000     1.203533   -6.3606993    31.801061  0.032318151  0.038009433            4 
   83000    1.2160641   -6.3524452    32.361526  0.032491492  0.037956435            3 
   84000    1.2180378   -6.3858939    32.561634  0.032303208  0.037908374            3 
   85000    1.2170982    -6.357924    33.345182  0.032691355  0.037862166            2 
   86000    1.2185269   -6.3954615    33.511762  0.032472637   0.03783192            4 
   87000    1.2119516   -6.3765169    34.276847  0.032832229  0.037804541            3 
   88000    1.1806314   -6.3668163    34.695221  0.032855323  0.037786471            4 
   89000     1.195334   -6.3841217    35.035286  0.032804575  0.037758388            4 
   90000    1.2288924   -6.4062507     35.48163  0.032853361  0.037727598            4 
   91000    1.2228368   -6.3630571    35.812118  0.032794979   0.03769393            2 
   92000    1.2249826   -6.3679854    36.241572   0.03282751  0.037658998            4 
   93000    1.2248232   -6.3295527     36.65018  0.032840663  0.037618313            2 
   94000    1.2386011   -6.4224377    36.914821  0.032725905  0.037570946            2 
   95000      1.24519   -6.3834153    37.443243   0.03284495  0.037531094            3 
   96000    1.1969681   -6.3625168    38.062718  0.033040553  0.037497794            2 
   97000    1.2179096   -6.4473429     38.39834  0.032988264  0.037480769            1 
   98000    1.2388633   -6.3776413    39.189617  0.033324504   0.03746878            1 
   99000    1.2223071    -6.371314    39.657669  0.033381876  0.037456444            1 
  100000    1.2091981   -6.4191724    39.950129  0.033291774  0.037451256            2 
  101000    1.2291279    -6.417572    40.397773  0.033331496  0.037443255            3 
  102000    1.2031809   -6.4102748    40.779277  0.033316403  0.037440774            1 
  103000    1.2130921   -6.3681789    41.328981  0.033437687  0.037427311            4 
  104000    1.2180177   -6.3726989    41.925447  0.033594108  0.037420186            3 
  105000     1.228329   -6.4101615     42.27703  0.033553199  0.037415274            2 
  106000    1.1927973   -6.3895723    42.812874   0.03365792  0.037408066            4 
  107000    1.2176635    -6.426158    43.081346   0.03355245   0.03740012            5 
  108000    1.2069621   -6.4003212    43.591283  0.033635249  0.037394761            2 
  109000     1.208491   -6.4135917    44.229612  0.033814688  0.037391599            2 
  110000    1.1886723   -6.3631723    44.608348  0.033794203    0.0373861            3 
  111000    1.2236128   -6.3782593    45.046403  0.033818621  0.037380238            2 
  112000    1.2086689   -6.4183141    45.108652  0.033562985  0.037374983            3 
  113000    1.1896983   -6.4058872    45.675416  0.033683935  0.037365482            3 
  114000    1.1890269   -6.3766841     46.50825  0.033997259  0.037366136            1 
  115000    1.1971859   -6.4335277    46.783699  0.033901231  0.037372184            3 
  116000    1.2066386   -6.4564383    47.647027  0.034229186   0.03738529            2 
  117000    1.2328188   -6.3846962    48.029261  0.034208875  0.037398575            4 
  118000     1.199894    -6.448715    48.156004  0.034008477  0.037405792            3 
  119000    1.2145908   -6.4544353    48.432536  0.033916342  0.037407029            4 
  120000    1.2140238   -6.3859102    49.323542   0.03425246  0.037409509            2 
  121000    1.1896492   -6.4099237    49.529722  0.034111379  0.037407662            1 
  122000    1.2114672   -6.3934315    50.081034  0.034208356  0.037408285            1 
  123000    1.1852661    -6.371599    50.302913  0.034080564  0.037407171            4 
  124000    1.2027072   -6.4067874    50.863458  0.034182431  0.037401395            2 
  125000    1.2042439   -6.3934929    51.534105   0.03435607   0.03739788            3 
  126000    1.1854943   -6.4514271    51.801338  0.034260144  0.037398003            2 
  127000     1.194302   -6.4495307    52.272835   0.03429976  0.037401969            4 
  128000    1.2225426   -6.4260586    52.626574  0.034262092  0.037403942            2 
  129000    1.2142429   -6.3827165    53.177606  0.034352458  0.037405408            4 
  130000    1.2121935   -6.3878074    53.554436  0.034329766  0.037406988            3 
  131000    1.2151432   -6.4104071    54.047319  0.034381246  0.037403671            2 
  132000    1.1902405   -6.4361326    54.433462  0.034364559  0.037402494            2 
  133000    1.2175641   -6.4636794    54.499618   0.03414763   0.03739752            2 
  134000    1.2240955   -6.4456956    55.274026  0.034374394  0.037392848            4 
  135000    1.2128462   -6.4421294    55.348252  0.034165587  0.037381708            3 
  136000    1.2199481   -6.4196858    55.843097  0.034217584  0.037371967            2 
  137000    1.1942441   -6.3974838    56.359188  0.034281745  0.037359757            1 
  138000     1.221175   -6.4372021    56.612645   0.03418638  0.037342539            2 
  139000    1.2014966   -6.4241078    56.925551  0.034128028  0.037323644            7 
  140000    1.1946204   -6.4457717    57.048376  0.033957366  0.037300078            2 
  141000    1.1941473   -6.4011723    57.712001  0.034108747  0.037275582            2 
  142000    1.1912109   -6.4060498    58.171439  0.034138168   0.03725469            2 
  143000    1.1998785   -6.4336719    58.507453  0.034095252  0.037231467            2 
  144000    1.2044106   -6.4683989     58.85626  0.034060336  0.037212767            3 
  145000    1.2025014   -6.4488393    59.640356  0.034276067  0.037195875            2 
  146000     1.192499   -6.4362625    60.179171  0.034348842  0.037180986            2 
  147000    1.2026092   -6.4654485    60.385791  0.034232308  0.037167576            2 
  148000    1.2031142    -6.414948    61.046957  0.034373286  0.037157198            2 
  149000    1.2010649    -6.433029    61.192955  0.034224248  0.037142575            2 
  150000     1.227945   -6.4788296    61.497495  0.034165275  0.037127077            3 
  151000    1.1850747   -6.4218624    62.182807  0.034317222  0.037110758            2 
  152000    1.1866436   -6.4242394    62.689596  0.034369296  0.037098496            8 
  153000     1.225412   -6.4624254    63.117837  0.034377907  0.037088719            1 
  154000    1.1802583   -6.4264586    63.804833  0.034526425  0.037078482            4 
  155000    1.2030728   -6.4275741    64.109996  0.034467739  0.037071256            3 
  156000    1.2070741   -6.4373594    64.434466  0.034420121  0.037060122            5 
  157000    1.1629206   -6.4469377    64.572127  0.034273953    0.0370473            3 
  158000    1.1892708   -6.4496132     65.21972  0.034398586  0.037033155            2 
  159000    1.2065313   -6.4472901    65.407458  0.034280638  0.037020653            4 
  160000    1.1904534   -6.4459579    65.883842  0.034314501  0.037006872            5 
  161000    1.1946362   -6.4685944    66.241906  0.034286701  0.036988598            3 
  162000    1.2104699   -6.4743839    66.446301  0.034180196   0.03696943            2 
  163000    1.1862792   -6.4669505    67.142146   0.03432625  0.036950326            4 
  164000    1.1791492   -6.4326861    67.479032  0.034288126  0.036933024            3 
  165000    1.1749136   -6.4757364    67.920179  0.034303121  0.036914931            2 
  166000    1.1804097   -6.4338859    68.712485  0.034494219  0.036899808            2 
  167000    1.1923512   -6.4467633    68.656609  0.034259785  0.036883314            3 
  168000    1.2130957   -6.4590054    68.901727  0.034177444  0.036865763            5 
  169000    1.1631796   -6.4605251    69.472456  0.034256635  0.036846463            2 
  170000     1.186694   -6.5035832    69.572072  0.034103957  0.036825999            3 
  171000    1.1847141   -6.4668836    70.012858  0.034119327  0.036807044            3 
  172000    1.1824909   -6.4214161    70.665228  0.034237029  0.036784826            4 
  173000    1.1665197   -6.4675392    70.924217  0.034163881  0.036766426            4 
  174000    1.1878693    -6.434416    71.695492  0.034336921  0.036746525            3 
  175000    1.2092197   -6.4550515     72.04448  0.034306895  0.036729823            2 
  176000    1.1548402   -6.4842775    72.399405  0.034280021  0.036714838            2 
  177000    1.1843025   -6.5022251    72.705813  0.034230609  0.036697491            5 
  178000    1.1626979   -6.4962653    73.361207  0.034345134  0.036681105            1 
  179000     1.169947   -6.4952043    73.576872  0.034253665  0.036663643            2 
  180000     1.152031   -6.4986532    73.989903  0.034254585  0.036647148            3 
  181000    1.1800708   -6.4689061     74.65408  0.034371123  0.036632537            6 
  182000    1.1870675   -6.4476747    74.948901  0.034317262  0.036616335            4 
  183000    1.1966376   -6.4922131    74.995749  0.034151069  0.036595365            2 
  184000    1.1501812   -6.4965405    75.606181   0.03424193  0.036579014            3 
  185000     1.209375   -6.4515609    75.993489  0.034231301  0.036562104            5 
  186000     1.187026   -6.4854514    76.431591  0.034243544  0.036544697            4 
  187000    1.1689663   -6.4902433    76.688909  0.034175093  0.036527363            4 
  188000    1.1725623   -6.4643914    77.089091  0.034170696  0.036511098            2 
  189000    1.1725605   -6.5078349     77.32729  0.034094925  0.036491078            1 
  190000    1.1952378   -6.5017893    77.827129  0.034134706  0.036472348            3 
  191000    1.1850056   -6.4982681    77.982622  0.034023832  0.036450946            4 
  192000    1.2009595    -6.471828    78.621652  0.034123981  0.036432686            2 
  193000    1.1901835   -6.4824473    79.246709  0.034217059  0.036413199            2 
  194000    1.1638417   -6.4826248     79.64158  0.034210301  0.036396928            3 
  195000    1.1766521   -6.4605806    80.379372  0.034350159  0.036383761            3 
  196000    1.1864686   -6.5003756    80.675688  0.034300888  0.036372109            3 
  197000    1.1801157   -6.4799413    81.041311  0.034281434  0.036358632            4 
  198000     1.171727   -6.5098402     81.40585  0.034261721  0.036345494            2 
  199000    1.1827091    -6.530341    82.051996  0.034360132  0.036334666            2 
  200000    1.1624213   -6.4487582    82.620906  0.034425378  0.036322284            2 
  201000    1.1927184   -6.5296871    82.648729  0.034265642   0.03630999            3 
  202000    1.1865695   -6.5056306     82.75863  0.034141349  0.036297152            3 
  203000    1.1489629   -6.4795884    83.571045  0.034306669  0.036284255            2 
  204000    1.1930163   -6.5063565    83.923614  0.034282522  0.036273588            4 
  205000    1.1474813   -6.5182175    84.310226  0.034272449  0.036261555            2 
  206000    1.1571112   -6.5277016    84.657509  0.034246565  0.036248689            3 
  207000     1.166536    -6.516155    85.222951  0.034308756  0.036237917            3 
  208000    1.1673555    -6.478029    85.711725  0.034339633  0.036228054            3 
  209000    1.1902349   -6.4948187    86.352845  0.034430959  0.036217786            2 
  210000    1.1538207   -6.5066296    86.600751  0.034365377   0.03620996            3 
  211000    1.1622842   -6.4783887     87.43151  0.034530612  0.036204042            3 
  212000    1.1549466   -6.4729269    88.073013  0.034619895  0.036198494            2 
  213000    1.1503651   -6.4922658    88.232834  0.034519888   0.03619187            2 
  214000    1.1674684   -6.5119153    88.911011  0.034622668   0.03618566            2 
  215000    1.1510739   -6.5008259     89.05356  0.034516884  0.036180281            3 
  216000    1.1597424    -6.522314    89.374942  0.034481073  0.036172338            2 
  217000     1.162839   -6.4834441    89.683655  0.034440728  0.036165901            3 
  218000    1.1612112   -6.5015139    90.219583  0.034487608  0.036158508            3 
  219000    1.1611112   -6.5172551    90.598242  0.034474217  0.036149914            3 
  220000    1.1605682   -6.5071217    91.101779   0.03450825  0.036143547            2 
  221000     1.173378   -6.4707705    91.947612  0.034671045  0.036137462            4 
  222000    1.1514878   -6.5477583     91.66695  0.034409516  0.036128469            3 
  223000     1.153633   -6.5338637    91.919059  0.034349424  0.036118698            2 
  224000    1.1910075   -6.5462037    92.285361  0.034332351  0.036107243            2 
  225000    1.1751015   -6.5023452    92.603332   0.03429753  0.036095299            2 
  226000    1.1532781   -6.4969884    93.369735  0.034428368  0.036082515            2 
  227000    1.1506244   -6.5312934    93.187571  0.034209828  0.036068654            4 
  228000     1.165709   -6.4666427    93.477607  0.034165792  0.036052853            3 
  229000    1.1491741   -6.5256207    94.274069   0.03430643  0.036041022            2 
  230000    1.1978765   -6.4835399    95.026156  0.034429767  0.036031383            1 
  231000    1.1351369   -6.5196055    95.471343  0.034441321  0.036021337            3 
  232000    1.1588365   -6.4894817    96.216467  0.034560513  0.036013127            2 
  233000    1.1804773   -6.5204261    96.160515  0.034392173  0.036004378            2 
  234000    1.1778933   -6.5588269    96.529523  0.034376611  0.035995442            2 
  235000    1.1528911   -6.5307343     97.17104  0.034457816  0.035985398            3 
  236000    1.1622638   -6.5413304    97.603144  0.034464387  0.035976151            2 
  237000    1.1651636   -6.5245329    97.450794  0.034265399  0.035966308            4 
  238000    1.1342318   -6.5141681    98.071861  0.034338887  0.035956975            3 
  239000    1.1588372   -6.5337181    98.731629  0.034425254    0.0359471            5 
  240000    1.1551101   -6.5225875    98.720122   0.03427782  0.035938383            5 
  241000    1.1567856   -6.5149755    99.335016  0.034348208  0.035928653            3 
  242000    1.1576245   -6.5411242    99.819178  0.034372995  0.035918822            4 
  243000     1.162044   -6.5063828     100.3448  0.034411795  0.035909261            3 
  244000    1.1487563   -6.5750831    100.29604  0.034254112  0.035898378            4 
  245000    1.1541091   -6.5156669    101.10737  0.034390263  0.035887206            2 
  246000    1.1420983   -6.5368983    101.45069  0.034366766  0.035879504            3 
  247000    1.1716499    -6.545963    101.65567  0.034296784  0.035869586            4 
  248000    1.1651806   -6.5223154    102.55699  0.034461352  0.035860013            2 
  249000    1.1379655   -6.5637817    102.28857  0.034233122  0.035850892            2 
  250000    1.1579469   -6.5857386    102.43085  0.034143617  0.035839277            3 
  251000    1.1292665   -6.5426985    103.04317  0.034210878  0.035827088            4 
  252000    1.1382878   -6.5543505    103.94997   0.03437499  0.035818745            2 
  253000    1.1787217   -6.5371171    104.05853  0.034274877  0.035809278           11 
  254000    1.1577178   -6.5288405    104.57243   0.03430854  0.035799758            4 
  255000     1.171337   -6.5574718    104.99451   0.03431193  0.035790444            3 
  256000    1.1602834   -6.5243044    105.67263  0.034398644  0.035780742            5 
  257000    1.1468327   -6.4960245    105.72947  0.034283228  0.035769975            6 
  258000    1.1354738   -6.5217097    105.57427  0.034100215  0.035759466            5 
  259000    1.1584373   -6.5364711    106.07283  0.034128966  0.035747059            2 
  260000    1.1481438   -6.5916663    106.61044  0.034170013  0.035736643            1 
  261000      1.15513   -6.5144419    107.64744  0.034370193  0.035727392            9 
  262000    1.1439386   -6.5563378    107.65049  0.034239976  0.035717718            5 
  263000    1.1873516   -6.5738453    107.85498  0.034174582  0.035707349            2 
  264000    1.1409162   -6.5732071    108.39413  0.034215318  0.035696719            3 
  265000    1.1369753   -6.5393315    108.81843  0.034219632  0.035685864            2 
  266000     1.147672   -6.5618515    109.45192  0.034289447  0.035676092            4 
  267000    1.1321099   -6.5916039    109.51113  0.034179502   0.03566485            2 
  268000    1.1405113   -6.5727143     109.3431  0.033999719  0.035651543            2 
  269000    1.1464653   -6.5579307    110.39584  0.034199453  0.035639853            3 
  270000    1.1433564   -6.5588898    110.99244  0.034256927  0.035630495            3 
  271000    1.1227144   -6.5341254    111.49412  0.034284785  0.035621359            2 
  272000    1.1763548   -6.5599271    111.78723  0.034248539  0.035613249            2 
  273000    1.1673949   -6.5409904      112.149  0.034233517  0.035604349            3 
  274000     1.129418    -6.527228    112.92557  0.034344759  0.035597095            3 
  275000     1.126964   -6.5798577    112.91224  0.034215829  0.035588509            2 
  276000    1.1307113   -6.5558803    113.01861  0.034123977  0.035579079            2 
  277000    1.1673364   -6.6063945    113.52469  0.034153037  0.035570572            2 
  278000    1.1081391   -6.5173262    114.27042  0.034253723  0.035559558            4 
  279000    1.1039061   -6.5729813    114.49194  0.034197115  0.035548797            2 
  280000    1.1322757   -6.5813299    114.47075  0.034068676  0.035537338            2 
  281000     1.111033   -6.5477003    115.38888  0.034219715  0.035526191            3 
  282000    1.1524895   -6.5339176     115.5273  0.034139273  0.035513476            6 
  283000    1.1374514   -6.5649616    115.28677  0.033947812  0.035499504            4 
  284000    1.1551278   -6.5399224    115.70196  0.033950106  0.035484933            2 
  285000    1.1276519   -6.5879421    116.27798  0.033999409   0.03546991            4 
  286000    1.1485855   -6.5573645    116.99032  0.034088088  0.035455172            2 
  287000    1.1346288    -6.574501    117.22709  0.034038064  0.035441939            2 
  288000    1.1369544   -6.6096019    116.91312  0.033829028  0.035427709            2 
  289000    1.1135546   -6.6184028    117.71739  0.033943885  0.035413355            4 
  290000    1.1292606   -6.5869408    118.31332   0.03399808   0.03540024            3 
  291000    1.1487331   -6.5817203    118.69939  0.033991807  0.035387136            3 
  292000    1.1333637   -6.5848563    118.77491  0.033896948  0.035375393            2 
  293000    1.1250918   -6.6019947    119.19525  0.033900811  0.035362421            2 
  294000    1.1437767    -6.629536    119.85575  0.033972717  0.035349603            5 
  295000    1.1583942   -6.5752133    120.29377  0.033981292  0.035337931            3 
  296000    1.1354933   -6.5432396    120.71969    0.0339864  0.035326537            4 
  297000    1.1495387   -6.6149066     120.7336   0.03387587  0.035312704            3 
  298000    1.1258289   -6.5789439    121.25689  0.033908525  0.035297891            3 
  299000    1.1524601   -6.6199229    121.39104  0.033832508  0.035283369            2 
  300000    1.1298604   -6.5831815    121.87977  0.033855493  0.035267943            4 
  301000      1.12909   -6.6001848    121.75555  0.033708625  0.035252935            3 
  302000    1.1287245   -6.6004365    122.17247  0.033712049  0.035236882            3 
  303000     1.144427   -6.6233023    122.68043  0.033740494  0.035221548            3 
  304000    1.1379562     -6.57767    123.43223  0.033835588  0.035207642            2 
  305000     1.133016   -6.6005174    123.72637   0.03380502  0.035195337            3 
  306000    1.0966921   -6.6148694    123.83338  0.033723687   0.03518166            2 
  307000    1.1071753   -6.6695062    124.11263  0.033689639  0.035167143            2 
  308000    1.1115189   -6.5846263    125.07133  0.033839645  0.035153132            2 
  309000    1.1288978   -6.5697927    125.48487  0.033841658  0.035139659            2 
  310000    1.0982863   -6.6128425    125.50796    0.0337387  0.035126557            2 
  311000    1.1229535   -6.5773719    125.96357  0.033752297  0.035112787            2 
  312000    1.1440354   -6.6517027    125.73636  0.033583428  0.035097604            2 
  313000      1.11737   -6.6668351    125.71121  0.033469437  0.035080213            3 
  314000    1.1253089   -6.6259247    126.73005  0.033633241  0.035062952            5 
  315000    1.1419496   -6.6021978    126.44903  0.033452124  0.035044882            3 
  316000    1.1364719    -6.602215    127.14745  0.033530447  0.035028071            4 
  317000     1.113547   -6.5403768    127.66835  0.033561606  0.035010939            2 
  318000    1.1215822   -6.6096541    128.03862  0.033553097  0.034994303            5 
  319000    1.1337466   -6.6290336    128.19405   0.03348852  0.034977508            5 
  320000    1.1315196   -6.6022485    127.95907  0.033322675  0.034959548            4 
  321000    1.1397654   -6.6267184     128.5869  0.033381853  0.034941126            4 
  322000    1.1163451   -6.5850279    129.58603  0.033536757  0.034923754            4 
  323000    1.1348356   -6.5723167    130.04943  0.033552484  0.034905807            4 
  324000     1.096836   -6.6453893    129.16596  0.033221698  0.034886712            1 
  325000    1.1382286   -6.6230524    129.68193  0.033251776  0.034866587            2 
  326000    1.1234899   -6.5943607    129.90243  0.033206143  0.034845906            3 
  327000    1.1111223   -6.6478617    130.02722  0.033136395  0.034824826            2 
  328000    1.1345523   -6.6036194    130.96502  0.033273633  0.034804456            4 
  329000    1.1366361   -6.6448682     131.1025   0.03320732  0.034783553            3 
  330000    1.1203267   -6.6291152    131.61003  0.033234855  0.034763258            3 
  331000    1.1076349   -6.6272911    131.89703  0.033206704  0.034743065            2 
  332000     1.092889   -6.6186032    132.27501  0.033201559  0.034722797            4 
  333000    1.1197633    -6.649053    132.90695  0.033259997  0.034703798            3 
  334000     1.100397   -6.6047679    133.43261  0.033291568  0.034686065            3 
  335000    1.1144012   -6.6532241    133.36413  0.033175157  0.034667867            5 
  336000    1.1238714   -6.6568417    133.57141  0.033127831   0.03464862            4 
  337000    1.1276681   -6.6536754    134.05339  0.033148711  0.034629628            1 
  338000    1.1048302   -6.6373204     134.1511  0.033074729  0.034610607            4 
  339000    1.1288303   -6.6581188    134.58587  0.033084039  0.034591549            2 
  340000    1.1301924   -6.6239626    134.98653  0.033084934   0.03457187            4 
  341000    1.1248309   -6.6067795    135.30011  0.033064542  0.034550876            4 
  342000    1.1394023   -6.6020271    135.12186  0.032924431  0.034530799            6 
  343000     1.096005   -6.6092541    135.50128  0.032920622  0.034509939            4 
  344000    1.1316683   -6.6740496    136.30236  0.033018981   0.03448967            3 
  345000    1.1087567   -6.6116712    137.09035  0.033113612  0.034469603            8 
  346000     1.110895   -6.6156013     136.4829  0.032871605  0.034449315            7 
  347000    1.1100953    -6.628703    136.39389  0.032755497  0.034426073            3 
  348000    1.1153385   -6.6179504    136.68197  0.032730357  0.034401697            4 
  349000    1.1008559   -6.6614771    136.80009  0.032664777  0.034377059            2 
  350000     1.113336   -6.6135648    138.00586  0.032858538  0.034354439            6 
  351000    1.1347549   -6.6789393    137.62244  0.032673894  0.034331329            4 
  352000    1.1246431   -6.6418831    138.04782  0.032681775   0.03430705            2 
  353000    1.1222047   -6.6600134    137.87102  0.032547455  0.034283072            3 
  354000    1.1103068   -6.6737744      138.262  0.032547551  0.034257891            3 
  355000    1.1023191   -6.6715787    138.53209  0.032519269  0.034233025            3 
  356000    1.1154959   -6.6754111    139.06314  0.032552234  0.034208195            2 
  357000    1.1028904   -6.6616298    139.25926  0.032506829   0.03418332            6 
  358000    1.1497418   -6.6745394    139.90709  0.032566826  0.034159465            7 
  359000    1.1042431   -6.6792067    140.48861  0.032611098  0.034135512            5 
  360000    1.1049265    -6.668666    140.60494   0.03254744   0.03411261            2 
  361000    1.1149775   -6.6874655    140.95025  0.032536992  0.034089184            4 
  362000    1.1125395   -6.6467657     141.5455  0.032584139  0.034065831            6 
  363000    1.1248188   -6.6660004    141.56803  0.032499547  0.034042338            2 
  364000    1.0895859    -6.645906    141.82145  0.032468281  0.034018897            2 
  365000    1.1249005   -6.6577106    142.14317  0.032452778  0.033996835            3 
  366000    1.1036493   -6.6606206    142.10643  0.032355745  0.033974108            1 
  367000    1.1089653   -6.6660978    142.98513  0.032467104  0.033950733            2 
  368000    1.1005705   -6.7026555    142.76381   0.03232876  0.033927409            2 
  369000    1.1376526    -6.650281    144.52735   0.03263942  0.033904862            4 
  370000    1.0870765   -6.6663454    144.13576  0.032463009  0.033882115            2 
  371000     1.127605    -6.671511    144.54682   0.03246784  0.033860106            2 
  372000    1.0922099   -6.7265882    144.22842  0.032309234  0.033838165            3 
  373000     1.095603   -6.6583039     145.1059  0.032418654  0.033816308            2 
  374000    1.1147338    -6.642695    145.32176   0.03238007  0.033795114            3 
  375000    1.0781138   -6.6398994    146.42234  0.032538297  0.033775295            2 
  376000    1.1279102   -6.6323439    146.31078  0.032427034   0.03375493            2 
  377000     1.118069   -6.6585549     146.5687  0.032398034  0.033734623            2 
  378000    1.0973241   -6.7178769     146.8356  0.032371164  0.033713822            2 
  379000    1.1225372   -6.6420685     147.3024  0.032388391  0.033693176            2 
  380000    1.1062725    -6.695177    147.25999  0.032293857  0.033672393            5 
  381000    1.1227969   -6.6674135    148.33604  0.032444453  0.033652255            4 
  382000    1.1099633   -6.6345599    148.70456  0.032439913  0.033632608            4 
  383000     1.099773    -6.666456    148.18628  0.032242445  0.033612403            3 
  384000     1.109139    -6.693357    148.72089  0.032274499  0.033591615            3 
  385000    1.0996759   -6.7109463    148.59941  0.032164375  0.033570981            3 
  386000     1.108782   -6.6911388    149.54325  0.032284812  0.033550988            2 
  387000    1.0922958   -6.6959867     149.9039  0.032279049  0.033530445            3 
  388000    1.1241109   -6.7631479    149.30744  0.032067748  0.033510413            3 
  389000     1.121288   -6.6902401    150.86567  0.032319124  0.033490614            4 
  390000    1.1074569   -6.7225081    150.52663  0.032163809  0.033471415            1 
  391000    1.0855164   -6.6966671    151.18756  0.032222412  0.033452126            2 
  392000    1.0937588   -6.6898738    151.89757   0.03229115  0.033432613            5 
  393000    1.0953244   -6.6581252    152.02184  0.032235334  0.033413322            3 
  394000    1.1023651   -6.6987013     151.8254  0.032111971  0.033393039            1 
  395000    1.0839271   -6.6638814    152.71513  0.032218383  0.033373116            4 
  396000    1.0711664   -6.7129922    152.77928  0.032150521  0.033353808            4 
  397000     1.085574   -6.6893841    153.10717  0.032138365  0.033334217            1 
  398000    1.1079013   -6.6301497    153.62085  0.032165169  0.033314278            3 
  399000    1.0683643   -6.6419724    154.26298  0.032218668  0.033295525            3 
  400000    1.0967475   -6.7069045    153.90403   0.03206334  0.033276517            2 
  401000    1.0914705   -6.7651771    153.65712   0.03193207  0.033256145            3 
  402000    1.0937935    -6.738193    154.39902  0.032006431  0.033235929           10 
  403000    1.1074647   -6.7719779    153.87197  0.031818025  0.033214612            2 
  404000    1.0933712   -6.7137984    155.07385   0.03198718  0.033194035            3 
  405000    1.0928458   -6.7269807    155.34135   0.03196324  0.033174136            3 
  406000    1.1125969    -6.699349     155.3145  0.031879001  0.033153662            2 
  407000    1.0859536   -6.6665567    156.08687  0.031958818  0.033133412            1 
  408000     1.060338   -6.6769132    156.70052  0.032005824  0.033113726            2 
  409000    1.0897766   -6.6875856    155.98148  0.031781067  0.033092879            2 
  410000    1.0969701   -6.7013363    156.21559  0.031751135  0.033071814            1 
  411000    1.0952234   -6.7190697    156.76018  0.031784303  0.033049883            1 
  412000    1.0870514   -6.7269699    156.83712  0.031722717  0.033028066            3 
  413000    1.1039435   -6.7545782    157.03588  0.031686013  0.033006025            5 
  414000    1.0901712   -6.7133341    157.75302  0.031753829  0.032984379            2 
  415000    1.0819973   -6.7187276    157.68934  0.031664526   0.03296255            7 
  416000     1.062612   -6.7169961    158.16879  0.031684453  0.032939908            4 
  417000    1.0912285    -6.717881    158.56818  0.031688285  0.032917695            3 
  418000    1.1235223   -6.6876756    159.00945  0.031700449  0.032896147            3 
  419000     1.089316   -6.7144718    159.07916  0.031638655  0.032875209            3 
  420000    1.0830268   -6.7146523    159.42181  0.031631312   0.03285247            4 
  421000    1.0796322   -6.7121245    159.31822  0.031535674  0.032830632            3 
  422000    1.0922741   -6.6975109    159.82523  0.031561064  0.032808874            3 
  423000     1.111688    -6.715608     160.9886  0.031715642  0.032787468            5 
  424000    1.0803065    -6.684211    161.52221  0.031745717  0.032766841            3 
  425000     1.064673   -6.7335107    161.05095  0.031578617  0.032746217            1 
  426000    1.0710801   -6.7343453    161.13883   0.03152168  0.032725087            2 
  427000    1.0798358   -6.7298339    161.23372  0.031466378   0.03270312            2 
  428000    1.0687293   -6.7261795    161.61941  0.031467953  0.032681549            6 
  429000    1.0864277    -6.750884    161.09594  0.031292917  0.032659627            6 
  430000     1.078931   -6.7544892    161.86058   0.03136833  0.032637866            3 
  431000    1.0610295   -6.7212366    162.86205  0.031489183  0.032616274            3 
  432000    1.0812065   -6.7527327    162.80978  0.031406207  0.032594174            3 
  433000    1.0849808   -6.7100547     163.8071  0.031525616  0.032572558            6 
  434000    1.0647369    -6.703193    163.50156  0.031394309  0.032551675            4 
  435000    1.0605109   -6.7447552    164.32904  0.031480659  0.032530724            9 
  436000    1.0783415   -6.7250314    164.33912  0.031410382   0.03250974            3 
  437000    1.0929099   -6.7594029     164.1396  0.031300457   0.03248842            3 
  438000    1.1018326   -6.7450777    164.63756  0.031323737  0.032466913            3 
  439000    1.0705831   -6.7161839    164.93036  0.031307965  0.032445747            3 
  440000    1.0907803   -6.7383446    164.96014   0.03124245  0.032424679            5 
  441000    1.0451844   -6.7170527    165.94713  0.031358112  0.032403282            2 
  442000    1.0818353   -6.7195868    166.10201  0.031316367  0.032381893            4 
  443000    1.0802235   -6.7335044    165.70707  0.031171382  0.032359873            3 
  444000    1.0784995   -6.7410208    165.97759   0.03115195  0.032337547            4 
  445000    1.0952224   -6.7357074    166.70302  0.031217794  0.032315709            3 
  446000    1.0635518   -6.7698894    165.98946  0.031014473  0.032293754            3 
  447000    1.0691214   -6.7359567    167.18005  0.031167049   0.03227285            2 
  448000    1.0544122   -6.7272893    167.69883  0.031193979  0.032251954            3 
  449000    1.0871253   -6.7580941    167.62006  0.031109885   0.03223103            8 
  450000    1.0536474   -6.7413291    167.65478  0.031047181   0.03221038            4 
  451000    1.0887038   -6.7919556    168.11713   0.03106377  0.032188628            4 
  452000    1.0701016   -6.7175509    168.67026  0.031097024  0.032167623            2 
  453000    1.0717924   -6.7324373    168.91346  0.031073117  0.032146775            2 
  454000    1.0539286    -6.739412    169.24866    0.0310662  0.032125432            2 
  455000    1.0566973   -6.7579111    168.89611  0.030933353  0.032104194            3 
  456000    1.0696398   -6.7707839    169.19155  0.030919509  0.032082446            3 
  457000    1.0695023   -6.7645023    169.42331  0.030894111  0.032060847            4 
  458000     1.052398   -6.7632654    169.73236   0.03088289  0.032039023            6 
  459000    1.0497556   -6.7587425    169.92211  0.030850056  0.032017688            5 
  460000    1.0596548    -6.717881     171.1944  0.031013478  0.031996053            4 
  461000    1.1008862   -6.7731261    171.29264  0.030963962  0.031974981           11 
  462000    1.0637056   -6.7374934    171.70262  0.030970892   0.03195399            3 
  463000    1.0798432   -6.7533866    171.28845  0.030829454  0.031932631            3 
  464000    1.0609115   -6.7701754    171.85682   0.03086509  0.031911028            2 
  465000    1.0609284   -6.7557557    171.53159  0.030740428  0.031889146            2 
  466000    1.0778953    -6.761568    171.89601   0.03073963  0.031867683            5 
  467000     1.063323   -6.7687864     172.1466  0.030718523  0.031845708            2 
  468000    1.0721516   -6.7832608    172.67187  0.030746416  0.031824165            3 
  469000    1.0660369    -6.723765    172.97799  0.030735251  0.031802537            3 
  470000    1.0566326   -6.7764092    172.87713  0.030651974  0.031781051            4 
  471000     1.052347   -6.8215639    172.95239  0.030600211  0.031758623            4 
  472000    1.0851396   -6.7720098    173.10131  0.030561673  0.031736247            6 
  473000    1.0472186   -6.7844507     173.1729  0.030509672  0.031713277            4 
  474000    1.0684147    -6.792262     173.2802   0.03046417  0.031689625            7 
  475000    1.0978074    -6.794882    172.75481  0.030307862  0.031665936            3 
  476000    1.0485405   -6.7570377    173.52823  0.030379593  0.031641822            4 
  477000      1.08352   -6.7611725    173.80861  0.030364886  0.031617298            8 
  478000    1.0793576    -6.754589    173.58971    0.0302632  0.031593106            4 
  479000    1.0530523   -6.7514956    174.95037  0.030436738  0.031568857            5 
  480000    1.0672179   -6.8124039    174.12872  0.030230681  0.031544558            1 
  481000    1.0705825   -6.7397409    175.16391  0.030347178  0.031520401            3 
  482000    1.0624134   -6.7913234       175.34  0.030314661  0.031496612            3 
  483000    1.0509701   -6.7919107    175.34992   0.03025361  0.031473162            7 
  484000    1.0592709   -6.8032619    175.62239  0.030238015  0.031449551            6 
  485000      1.06063   -6.7949465    175.89211  0.030222012  0.031425966            7 
  486000    1.0756375   -6.7647171    176.41072  0.030248752  0.031402272            5 
  487000    1.0752044   -6.7725037    176.75202  0.030245041  0.031378633            3 
  488000    1.0503916   -6.7879407     176.8892   0.03020649  0.031355485            2 
  489000    1.0510672   -6.8132035    176.70993  0.030114167  0.031332029            4 
  490000    1.0340997   -6.7975624    177.01957   0.03010537  0.031308347            3 
  491000    1.0516612   -6.7928788    177.80272  0.030176972   0.03128432            2 
  492000    1.0684917   -6.7782732    177.74459  0.030105791  0.031260815           10 
  493000    1.0555027   -6.7984345     177.2813  0.029966413  0.031237046            5 
  494000    1.0691301   -6.8060011    177.81689  0.029996102  0.031212842            4 
  495000    1.0531093   -6.7892787    178.43679  0.030039863   0.03118869            3 
  496000    1.0572132   -6.7544502    178.20193  0.029939841  0.031164571            6 
  497000    1.0663029   -6.8236565    178.18768   0.02987721  0.031140386            4 
  498000    1.0658368   -6.7893564    178.42895  0.029857588  0.031115939            5 
  499000    1.0479301   -6.8413005     179.2363  0.029932582  0.031091249            4 
  500000     1.073114   -6.8305195    179.62459  0.029937432  0.031067117            7 
  501000    1.0529581   -6.8128222     179.1393  0.029796956  0.031042661            5 
  502000     1.057259   -6.8505037    179.54094  0.029804274   0.03101831            4 
  503000    1.0747341   -6.8722019    179.32138  0.029708645  0.030993458            3 
  504000    1.0383967   -6.8195735    180.50819  0.029845931  0.030968566            2 
  505000    1.0551753   -6.8284274    180.63406    0.0298076  0.030944199            5 
  506000     1.066577   -6.8107368    180.92226  0.029796156  0.030920217            6 
  507000    1.0434914   -6.7788293    181.42902  0.029820681   0.03089656            5 
  508000    1.0434124   -6.8167679    181.08038  0.029704787  0.030872398            4 
  509000    1.0384289   -6.7623925    181.49443  0.029714217  0.030848728            5 
  510000    1.0330264    -6.799462     181.5233   0.02966067  0.030825016            3 
  511000    1.0729532   -6.8092681    182.17107  0.029708263   0.03080106            4 
  512000    1.0397574   -6.8186074    182.03334  0.029627821  0.030776879            4 
  513000    1.0809867   -6.8218558    182.32684  0.029617746  0.030752913            3 
  514000    1.0487968   -6.7893466    183.05232  0.029677744  0.030728746            3 
  515000    1.0366293   -6.8040589      182.678  0.029559547  0.030704905            4 
  516000    1.0495012   -6.7885714    183.49197  0.029633717  0.030681032           10 
  517000    1.0421931   -6.8308859    182.80496   0.02946566  0.030657451            5 
  518000    1.0618007   -6.8364108    182.71202  0.029393826   0.03063344            4 
  519000    1.0398156   -6.8474622    183.37088   0.02944298  0.030609097            4 
  520000    1.0414078   -6.8383426    184.17526  0.029515267  0.030584565            4 
  521000    1.0565512   -6.8117579     183.9061  0.029415563  0.030560319            3 
  522000    1.0501034    -6.832162    184.20789   0.02940739  0.030536329            4 
  523000    1.0597685   -6.8744225    184.42401  0.029385598  0.030511942            5 
  524000    1.0203781   -6.8530512    184.69941  0.029373316  0.030487552            3 
  525000    1.0403858   -6.8108744    185.16039  0.029390538  0.030463451            3 
  526000     1.046533   -6.8445642    184.93907    0.0292996   0.03043942            2 
  527000    1.0445975   -6.8321312    185.47034  0.029328011  0.030415703            7 
  528000    1.0548219   -6.8136747    186.66949  0.029461725  0.030392363            6 
  529000    1.0397779   -6.7846358    186.55808  0.029388482  0.030369027            4 
  530000    1.0456196   -6.8203185     186.4998  0.029323868  0.030345866            4 
  531000    1.0588247   -6.8344751    186.73638  0.029305771  0.030322504            3 
  532000    1.0431045    -6.820336    186.50608  0.029214612   0.03029892            4 
  533000    1.0499743   -6.8276507    186.92582  0.029225425  0.030274787            2 
  534000    1.0454548   -6.8164761    186.72041  0.029138641  0.030250531            4 
  535000    1.0326919   -6.8654465    186.81153  0.029098368  0.030226172            4 
  536000    1.0676941   -6.8578504     186.7555   0.02903537  0.030201484            6 
  537000    1.0302906   -6.8537317    187.62082  0.029115583  0.030176785            3 
  538000     1.021835   -6.8439007    187.48684  0.029040713  0.030152585            4 
  539000     1.026397    -6.810853    188.24816  0.029104539  0.030128655            4 
  540000    1.0288583   -6.8708564    188.07669   0.02902418  0.030105069            6 
  541000      1.02408   -6.8407564    188.45674  0.029029073  0.030081514            3 
  542000    1.0359253   -6.8177083    189.13081  0.029079153  0.030057728            6 
  543000    1.0251471   -6.8630204     189.1608  0.029030202  0.030034578            3 
  544000    1.0310867    -6.840036    189.53806  0.029034629  0.030010791            3 
  545000    1.0250834   -6.8405971     190.1052  0.029068073  0.029987517            2 
  546000    1.0313493   -6.8737291    190.04213   0.02900521  0.029964597            5 
  547000    1.0383951   -6.8833669    190.36881  0.029001951  0.029941589            4 
  548000    1.0320738   -6.8027137    190.66687  0.028994354  0.029918234            3 
  549000     1.036042   -6.8444625    190.45013  0.028908642  0.029895562            5 
  550000    1.0449361   -6.8598513    190.49788  0.028863315  0.029872419            4 
  551000    1.0512616   -6.8447404     190.8968  0.028871265  0.029848546            4 
  552000     1.044902   -6.8380059    191.04187  0.028840862   0.02982529            2 
  553000    1.0434896   -6.8523318    191.47163   0.02885347  0.029801606            7 
  554000    1.0316217   -6.8686039    191.37551   0.02878693  0.029778252           10 
  555000    1.0364302   -6.8645653    191.73119  0.028788467  0.029754912            9 
  556000    1.0406379   -6.8794803    191.43047  0.028691618  0.029731402            7 
  557000    1.0310261   -6.8536403    191.83341   0.02870039   0.02970822            5 
  558000    1.0412241   -6.8691983    192.08362  0.028686323  0.029684682            4 
  559000     1.033228   -6.8754193    191.86063  0.028601764  0.029660781            4 
  560000    1.0100338   -6.8587919    192.81949  0.028693376   0.02963732            8 
  561000    1.0505578   -6.8485347    193.08727  0.028682007  0.029614276            2 
  562000    1.0436524   -6.8688038    192.88419  0.028600859  0.029590819            3 
  563000    1.0224727   -6.8659421    193.09301  0.028580966  0.029567131            5 
  564000     1.067608   -6.8449567    193.70825  0.028621195  0.029543929            7 
  565000    1.0208787   -6.8352035    193.56896  0.028549995  0.029520195            6 
  566000    1.0379422   -6.8648912    194.08362  0.028575327  0.029496791           10 
  567000    1.0419699   -6.8576891    194.03546  0.028517851  0.029473247            4 
  568000     1.027321   -6.8438924    194.60818   0.02855167  0.029450206            3 
  569000    1.0328585   -6.8785327    194.44949   0.02847825  0.029426829            6 
  570000    1.0338673    -6.913852    194.31488  0.028408609  0.029403009            3 
  571000    1.0207864   -6.9127565    194.81701  0.028432138  0.029379313            4 
  572000    1.0409287   -6.8871666    195.19736  0.028437844  0.029355671            2 
  573000    1.0327242   -6.8487794    195.37767  0.028414437  0.029332204            3 
  574000    1.0228381   -6.8785528    195.42575  0.028371915  0.029308972            5 
  575000    1.0289093   -6.8816103    195.73765  0.028367776  0.029285605            8 
  576000    1.0185121   -6.8641445    197.04799    0.0285081  0.029262784            7 
  577000    1.0337913   -6.8566007    197.19171  0.028479449  0.029240594            4 
  578000    1.0286729   -6.8943381    196.41922  0.028318804  0.029218378            2 
  579000    1.0288325    -6.859695    197.30677  0.028397635  0.029196326            5 
  580000     1.010419   -6.8399459    197.50783  0.028377562  0.029174529            5 
  581000    1.0135069   -6.8636199    198.43148    0.0284612  0.029152827            5 
  582000    1.0160571   -6.9057092    197.82807  0.028325898  0.029130922            5 
  583000    1.0155168   -6.8794082    198.53013  0.028377663  0.029109398            5 
  584000    1.0075258   -6.8639307    198.40877  0.028311753  0.029087663            4 
  585000    1.0387121    -6.871032    199.11417  0.028363841   0.02906608            6 
  586000    1.0166957   -6.8963301    198.77127  0.028266677  0.029044686            8 
  587000    1.0391734   -6.9085627    199.22884  0.028283481  0.029023007            9 
  588000    1.0663445   -6.8747216    199.27367  0.028241734  0.029001201            3 
  589000    1.0137259   -6.9027629    199.31924  0.028200232  0.028979564            4 
  590000   0.99609173   -6.8774345    199.83967  0.028225942  0.028957614            3 
  591000    1.0305119   -6.9223778    199.88543  0.028184635  0.028935935            4 
  592000    1.0342937   -6.9351092    199.73177  0.028115396  0.028913463            2 
  593000    1.0060321   -6.9054659    199.92265  0.028094808  0.028891447            2 
  594000    1.0268075   -6.8905939    199.82292  0.028033518   0.02886923            5 
  595000    1.0445712   -6.9138109    200.18718   0.02803742   0.02884733            3 
  596000    1.0301125   -6.9065172     200.3439   0.02801229  0.028825236            8 
  597000     1.029953    -6.875795    200.75808  0.028023183  0.028803203            4 
  598000    1.0171632   -6.8773941    201.19127  0.028036687  0.028781127            3 
  599000    1.0039484   -6.9126184     200.7488  0.027928325  0.028758526            3 
  600000    1.0329252   -6.8900074    201.24638  0.027950886   0.02873532            3 
  601000   0.99553449   -6.9277312     200.6574  0.027822712   0.02871218            3 
  602000     1.015333   -6.9486263    200.31626  0.027729271   0.02868845            3 
  603000    1.0256266     -6.91034     201.4718   0.02784298  0.028665273            3 
  604000    1.0056721   -6.9348735     201.4473  0.027793502  0.028641922            3 
  605000    1.0289267   -6.9255029    201.38218  0.027738592  0.028618279            6 
  606000    1.0224469   -6.9174405    201.46928  0.027704796  0.028594708            8 
  607000    1.0099191   -6.9506642     201.5393  0.027668768  0.028571066            2 
  608000    1.0272208   -6.8873379     201.6788  0.027642379  0.028547586            5 
  609000    1.0250449   -6.8959674    202.25429  0.027675737  0.028524794            3 
  610000    1.0230243    -6.936162    202.10375  0.027609802  0.028501773            4 
  611000    1.0119274   -6.9466261    202.21989  0.027580454  0.028478515            5 
  612000    1.0145262   -6.9156493    203.56448  0.027718475  0.028455848            8 
  613000    1.0090298   -6.9078839    203.28666   0.02763549  0.028432982            1 
  614000   0.99334661   -6.9189207    203.70916  0.027647823   0.02841011            6 
  615000    1.0067252   -6.9325034    204.33005  0.027686999  0.028387644            4 
  616000     1.023172   -6.9727111    204.20702  0.027625408  0.028365261            3 
  617000    1.0005548   -6.9085446    204.73557  0.027652022  0.028343262            5 
  618000   0.99687065   -6.9281606    204.23633  0.027539958   0.02832138            3 
  619000    1.0150816   -6.9087747    204.48753  0.027529285  0.028299322            3 
  620000   0.99776742    -6.928403    205.30574  0.027594857  0.028277438            3 
  621000    1.0077109   -6.9123148    205.69641  0.027602846    0.0282556            3 
  622000    1.0078371   -6.9344021    205.39122   0.02751758  0.028233795            5 
  623000    1.0060977   -6.9067087    206.02946  0.027558783  0.028212081            3 
  624000    1.0076966   -6.9451992    205.65966  0.027465233  0.028190307            6 
  625000     1.026337   -6.9178434    206.11509  0.027482012  0.028168418            3 
  626000   0.99654384    -6.906971    206.33438  0.027467303  0.028146681            5 
  627000   0.99619649   -6.9067704    206.79074  0.027484149  0.028125136            3 
  628000   0.99576061   -6.9325902    207.20974  0.027495984  0.028103376            4 
  629000   0.98089776   -6.9767323    207.17593  0.027447792  0.028081776            2 
  630000    1.0020298    -6.944728    206.98142  0.027378494  0.028059803            5 
  631000    1.0217407   -6.9473903    207.12232  0.027353713   0.02803805            4 
  632000    1.0022867   -6.9427366    207.30078  0.027333964    0.0280162            3 
  633000    1.0109095    -6.934179    207.92514  0.027372978  0.027994871            3 
  634000    1.0143108   -6.9879663    207.17751  0.027231534  0.027973296            6 
  635000     1.004289    -6.945871    207.99363  0.027295752  0.027951748            3 
  636000    1.0262128   -6.9336056    208.31739  0.027295256  0.027930078            4 
  637000    0.9984292   -6.9411108    208.28353  0.027247976  0.027908631            4 
  638000    1.0085158    -6.942944    208.94899  0.027292187  0.027886787            5 
  639000   0.99713861    -6.936723     208.5372  0.027195774  0.027865108            4 
  640000   0.96525728   -6.9513701     208.6789  0.027171732   0.02784346           12 
  641000   0.98361683   -6.9598053    208.57278  0.027115546  0.027821411            7 
  642000   0.98279217   -6.9615775    208.28236  0.027035612  0.027799508            3 
  643000    1.0021488   -6.9905438      209.112  0.027101089   0.02777738            9 
  644000    1.0038392   -6.9659867    209.27777  0.027080457   0.02775533            3 
  645000   0.99580338   -6.9660026    209.55492  0.027074279  0.027733745            6 
  646000    1.0287824    -6.910027     210.5682  0.027163081  0.027712317            6 
  647000   0.99805415   -6.9783691    209.83955  0.027027248  0.027690647            6 
  648000    1.0051292   -6.9689225    210.27511  0.027041552  0.027668911            5 
  649000   0.99519752   -6.9457077    210.05675  0.026971848  0.027647419            5 
  650000   0.97386883   -6.9125139    211.09973  0.027064068  0.027625853            4 
  651000   0.97599005   -6.9867154    210.44117  0.026938194  0.027604417            6 
  652000    0.9921069   -6.9803875    210.09798  0.026853014   0.02758244            6 
  653000    1.0052788   -6.9319977     210.9078  0.026915238  0.027560574            5 
  654000    1.0176061   -6.9648561    211.10225   0.02689886  0.027538835            2 
  655000   0.96921987   -6.9769921    211.65746   0.02692843  0.027517139            4 
  656000    0.9855117   -7.0056719    211.06249    0.0268118   0.02749524           11 
  657000   0.99515486   -7.0107923    211.25491  0.026795396  0.027473084            6 
  658000    1.0054568   -6.9775575    212.33064  0.026890912  0.027451482            4 
  659000   0.99730094   -6.9998496    212.06671  0.026816731  0.027429883            3 
  660000   0.97450196   -6.9612698    212.76989  0.026864886  0.027408462            6 
  661000   0.96759507   -6.9662131    212.63774  0.026807582  0.027387193            2 
  662000   0.98491966   -6.9625908    213.17811   0.02683511  0.027366052            3 
  663000   0.99805515   -6.9670035    212.88286  0.026757523  0.027344616            2 
  664000   0.97599186   -6.9817276    213.60852  0.026808298  0.027323327            3 
  665000   0.97673496   -6.9725572    213.20906  0.026717928  0.027301711            3 
  666000   0.99824437   -6.9626938    213.05878  0.026659007  0.027280093            4 
  667000    1.0172602   -7.0148939    213.16846  0.026632741  0.027258601            9 
  668000   0.98470863   -6.9697199    214.17802  0.026718815  0.027237511            3 
  669000   0.99094008   -7.0179874    213.97262  0.026653291  0.027216298            4 
  670000    1.0027237   -7.0478639    213.99612  0.026616433  0.027195095            4 
  671000   0.97865343   -6.9658935    214.94684  0.026694838  0.027174491            4 
  672000    0.9952284   -6.9625482    214.81344  0.026638571   0.02715388            5 
  673000   0.98271322   -6.9760929    215.34545  0.026664865  0.027132993            4 
  674000   0.98587608   -6.9767114    215.32442  0.026622703  0.027112398            6 
  675000    0.9788915   -6.9691785    215.53649  0.026609443  0.027091719            7 
  676000   0.99177049   -7.0358746    215.25462  0.026535333   0.02707104            2 
  677000    1.0006238   -6.9616069    216.24258  0.026617747  0.027050356           15 
  678000   0.98416538   -6.9632062    216.02279  0.026551474  0.027029981            2 
  679000   0.97361014   -7.0149469    216.17726  0.026531328  0.027009551            5 
  680000    1.0174139   -7.0290546    215.76915  0.026442298  0.026988449            5 
  681000   0.99114221   -6.9871609     216.0407  0.026436698  0.026967483            4 
  682000   0.96947466   -6.9885931    216.06074  0.026400384  0.026946409            4 
  683000   0.97766276   -6.9932121    216.48921  0.026414008  0.026925499            3 
  684000   0.98808197   -7.0163224    216.39899  0.026364399  0.026904738            7 
  685000    1.0225548   -7.0204356    217.46876  0.026456054    0.0268844            7 
  686000   0.99169217   -6.9918961    217.58581  0.026431706  0.026864138           12 
  687000   0.97429836   -6.9933199    217.89431  0.026430653  0.026843946            4 
  688000   0.94082678   -7.0100679    217.80012  0.026380829  0.026823479            7 
  689000    0.9688664   -6.9824363    217.81361  0.026344172   0.02680277            3 
  690000   0.97559414   -7.0055724    218.28378  0.026362776  0.026781901            4 
  691000   0.99647989   -7.0277847    217.16164  0.026189296  0.026761168            5 
  692000   0.97987042    -7.043124    217.74875  0.026222152   0.02674029            6 
  693000   0.96400588   -7.0014709    218.40811  0.026263602  0.026719639            2 
  694000   0.99442501   -7.0525568    217.57326  0.026125511  0.026698715            5 
  695000   0.97163231   -7.0093816    218.77946  0.026232549  0.026678078            4 
  696000   0.96837615   -7.0125674     218.6686  0.026181586   0.02665758            5 
  697000   0.99401078   -7.0209585    219.49144  0.026242401  0.026637282            7 
  698000   0.97277105   -7.0225469    219.39884  0.026193749  0.026616914            7 
  699000   0.98032334   -7.0366915    219.35445  0.026150984  0.026596542            4 
  700000     0.987239   -7.0396342     219.2735  0.026103988   0.02657587            3 
  701000   0.97939203   -7.0302859    219.85077  0.026135375  0.026555357            5 
  702000   0.98974705   -7.0425932    219.86958  0.026100377  0.026534861            4 
  703000   0.97385055   -7.0210806    219.37646  0.026004796   0.02651438            5 
  704000   0.97634398   -7.0157493    219.77796  0.026015384  0.026493835            5 
  705000   0.98233486   -7.0278339     219.9727  0.026001501  0.026472967            4 
  706000   0.96069387   -7.0134732    219.79545   0.02594375  0.026452098            4 
  707000   0.99647539   -7.0033713    219.86356  0.025915083  0.026431246            6 
  708000   0.96326802   -7.0180933    220.21471  0.025919811  0.026410358            7 
  709000   0.97770461    -7.037186    220.10375  0.025870211  0.026389258            6 
  710000   0.95537901   -7.0606852    220.07354  0.025830227  0.026368287            9 
  711000   0.94940952   -7.0539547    220.39616  0.025831711  0.026347093            7 
  712000   0.95671797   -7.0445764    221.28157   0.02589906  0.026326149            4 
  713000   0.95922973   -7.0467308    220.81188   0.02580784  0.026305511            6 
  714000   0.97166164   -7.0292839    221.36645  0.025836421  0.026284697           13 
  715000   0.95490879   -7.0301275      221.785  0.025849067  0.026263974            4 
  716000   0.96383139   -7.0771311      220.728  0.025689944  0.026243088            5 
  717000   0.97490592   -7.0638876    221.24641  0.025714367  0.026222102            3 
  718000   0.96160476   -7.0511958    221.56752  0.025715822  0.026201375            3 
  719000   0.97668478    -7.069077    221.49628  0.025671799  0.026180647            2 
  720000   0.96056001   -7.0153845    221.62687  0.025651258  0.026160058            4 
  721000   0.94851165   -7.0487064    221.88422  0.025645426  0.026139177            3 
  722000    0.9726653   -7.0510978    221.71094  0.025589905  0.026118001            8 
  723000   0.99068474   -7.0407473    221.89271  0.025575462    0.0260965            6 
  724000   0.97987471   -7.0605463    221.55939  0.025501771  0.026074988            4 
  725000   0.96899155   -7.0704739    221.67474  0.025479856   0.02605303            4 
  726000   0.96259929   -7.0467649    221.66988  0.025444201  0.026031159            7 
  727000   0.93079347   -7.0470282     221.4981  0.025389511  0.026009148            3 
  728000   0.95717877   -7.0569574    222.55274  0.025475359  0.025987407            6 
  729000   0.95354713   -7.0454932    222.34298  0.025416435   0.02596545            9 
  730000   0.95611023   -7.0371349    222.57038  0.025407578  0.025943518           10 
  731000   0.95479611   -7.0495419     222.1527  0.025325205  0.025921492            2 
  732000   0.96048537   -7.0836276    221.74619  0.025244329  0.025899413            8 
  733000   0.96906881    -7.078072    222.82479  0.025332514  0.025877424            8 
  734000   0.94358282   -7.0547022    222.54233  0.025265932  0.025855493            4 
  735000   0.97617927   -7.0456222    223.26812  0.025313846  0.025833775            3 
  736000   0.95880295   -7.0755165     222.4021  0.025181397   0.02581183            3 
  737000   0.94218467   -7.0990837    222.08605  0.025111494  0.025789785            4 
  738000   0.96191412   -7.0989861    222.38154  0.025110833  0.025767759            3 
  739000   0.96625723   -7.1006309    222.74149  0.025117443   0.02574569            4 
  740000   0.94387521   -7.0541129    223.14197  0.025128601  0.025723659            3 
  741000   0.97290657   -7.0766437    223.20028  0.025101246  0.025701843            8 
  742000   0.94707482   -7.0881046    223.51403  0.025102654  0.025679988            7 
  743000   0.97465197   -7.0886388    223.29356  0.025044141  0.025658304            7 
  744000   0.95478993   -7.0640456    224.21717   0.02511393  0.025636758            5 
  745000   0.94531959   -7.1044199    224.12309  0.025069697  0.025615189            5 
  746000   0.97421573   -7.0782363    224.53594   0.02508221  0.025593827            6 
  747000   0.98609022   -7.0659871    225.08988  0.025110428  0.025572695            4 
  748000   0.95724356   -7.0886164    224.80032  0.025044599  0.025551423            3 
  749000   0.96803119   -7.0751247     225.3687  0.025074399  0.025530216            5 
  750000   0.96068305   -7.0935944    225.72027   0.02508003    0.0255089            6 
  751000   0.92602886   -7.0848801    225.54215   0.02502687  0.025487651            4 
  752000   0.94195713   -7.0663796    225.04748  0.024938772  0.025466382           11 
  753000   0.94032034    -7.077807    226.08987  0.025021013  0.025445261            4 
  754000   0.93954288   -7.1315674    225.03336  0.024871061  0.025423897            7 
  755000   0.96225125   -7.1051869    225.56648  0.024896962  0.025402216            6 
  756000   0.93998396   -7.1025568    225.95756  0.024907139  0.025380385            3 
  757000   0.94041755   -7.0981734    225.57688  0.024832329   0.02535866            6 
  758000   0.96157328   -7.1088966    225.74527  0.024818082  0.025337212           13 
  759000   0.94972308   -7.0895925    225.85127  0.024797021  0.025315836            6 
  760000   0.95978599   -7.0897936    226.02699  0.024783662  0.025294448            3 
  761000   0.94210557    -7.074531    226.22669  0.024772962  0.025272942            7 
  762000   0.96396378   -7.0860066    226.08623  0.024725091  0.025251497            2 
  763000   0.97278439   -7.0951361    225.98595  0.024681733   0.02523005            3 
  764000   0.94364526   -7.1232507    226.16012  0.024668425  0.025208664            5 
  765000   0.93872437   -7.1025154    226.93632  0.024720732  0.025187288            4 
  766000   0.94919387   -7.0527379    227.43509   0.02474272  0.025166118            3 
  767000   0.95484456   -7.1133193    227.02091  0.024665462  0.025144646            4 
  768000   0.95335755   -7.1317691    226.71493  0.024600145  0.025123371            7 
  769000   0.93799977   -7.1314005    226.88403   0.02458648  0.025101959            5 
  770000   0.95139651   -7.1054922    226.74605  0.024539616  0.025080303            4 
  771000   0.95418109   -7.0613442    227.34298  0.024572306  0.025058799            7 
  772000   0.94596102   -7.1234857    228.02013  0.024613572  0.025037382            7 
  773000   0.93559367   -7.1086103    227.62626  0.024539269  0.025016085            2 
  774000   0.94228978   -7.0330971      229.246  0.024681956  0.024994966            4 
  775000   0.94809035   -7.0639905     228.6507  0.024586097  0.024973953            4 
  776000   0.91373698   -7.0941336    228.11457   0.02449684   0.02495283            4 
  777000   0.93925363   -7.1163528    228.55362    0.0245124  0.024931863            4 
  778000   0.94819751   -7.1145398    228.31233  0.024455049  0.024910878            7 
  779000   0.93636863   -7.1459873    228.02577  0.024393001  0.024889801            7 
  780000   0.94814698   -7.1188492    229.06588  0.024472851  0.024868447            3 
  781000   0.93088772   -7.1041037    229.16779  0.024452389  0.024847003            8 
  782000   0.94007948    -7.105998    229.11775  0.024415788  0.024825622            6 
  783000   0.94562874   -7.1142053    228.75796  0.024346313   0.02480411            3 
  784000   0.95138902   -7.1237712    228.58387  0.024296754  0.024782713            8 
  785000   0.96106937   -7.0788696    229.60587  0.024374296  0.024761543            2 
  786000   0.95341944   -7.1282904    229.23018  0.024303454  0.024740401            5 
  787000    0.9254168    -7.151148    229.18303  0.024267581  0.024719301            6 
  788000   0.93561478    -7.087773    230.44683  0.024370435  0.024698515            3 
  789000   0.96117982   -7.1155272    229.97178  0.024289373  0.024677573            5 
  790000   0.93127989   -7.1537123    229.57309  0.024216571  0.024656561            3 
  791000   0.94054806   -7.1189844    230.03482    0.0242346  0.024635604            5 
  792000   0.92322171   -7.1563014    230.05837  0.024206479    0.0246144            4 
  793000   0.94086012   -7.1416693    230.39506  0.024211334  0.024593419            5 
  794000   0.93256982   -7.1252801    230.39989  0.024181349  0.024572331            5 
  795000   0.93945248   -7.1462352    230.06088  0.024115397  0.024551345            6 
  796000   0.92623734   -7.1626432    231.32967   0.02421793  0.024530422            9 
  797000   0.90669888   -7.1229638    230.70451  0.024122178  0.024509651           12 
  798000   0.93696299   -7.1291885    231.11172  0.024134474  0.024489163            5 
  799000   0.93164486   -7.1337064    231.18735  0.024112156  0.024468667            4 
  800000   0.93235054   -7.1544588    230.77742  0.024039314  0.024448032            4 
  801000    0.9253605   -7.1755381    230.49354  0.023979769  0.024427074            8 
  802000   0.93943067   -7.1923167    230.92792  0.023995004  0.024405914            5 
  803000   0.91774923   -7.1307834    231.57939  0.024032731  0.024385072            4 
  804000   0.94104903   -7.1446195    231.73165   0.02401862   0.02436446            6 
  805000    0.9585852   -7.1449149    231.68939  0.023984409  0.024343705            4 
  806000   0.92775167    -7.168424    231.83135  0.023969329  0.024323046            6 
  807000    0.9315821   -7.1431147    232.26233  0.023984131  0.024302263            5 
  808000   0.93519576   -7.1421385    232.24045  0.023952191  0.024281664           15 
  809000   0.94801465   -7.1796092    231.49181  0.023845468  0.024261027            7 
  810000   0.92718479   -7.1916785    231.87334  0.023855282  0.024239902            5 
  811000   0.90763932   -7.1676091    232.08786   0.02384791  0.024219019            5 
  812000   0.95229779     -7.14371     232.8486  0.023896614  0.024198193            6 
  813000   0.91747082   -7.1525436    232.33954  0.023815041  0.024177223            7 
  814000   0.95322373   -7.1566386    232.83768  0.023836781  0.024156592            6 
  815000   0.93688721   -7.1485083    233.03982  0.023828202  0.024135934            3 
  816000   0.95013158     -7.16785    232.71359  0.023765686  0.024115317            4 
  817000   0.94100965   -7.1925693    233.29466  0.023795865  0.024094684            6 
  818000   0.93454199   -7.1263015    234.27525  0.023866671  0.024074238            7 
  819000   0.90500927   -7.1674394    233.03238  0.023711068  0.024053717            4 
  820000   0.92901239    -7.140858    233.49225  0.023728888  0.024033248            5 
  821000   0.90783186   -7.1486343    233.01537  0.023651581  0.024012754            6 
  822000   0.90960656   -7.1607385    233.78906  0.023701243  0.023992526            3 
  823000   0.94086498   -7.1494238    233.88211  0.023681867  0.023972335            3 
  824000   0.91955512   -7.1461569    233.68166  0.023632854  0.023952219            6 
  825000   0.92641628   -7.1943312    234.20186  0.023656753  0.023931933            2 
  826000   0.92990133   -7.2095508    234.22995  0.023630947  0.023911601            4 
  827000    0.9206491   -7.1910941    233.71462  0.023550446   0.02389092            7 
  828000   0.91202059   -7.1949976    234.13892  0.023564706  0.023870329            5 
  829000   0.92052363   -7.1727855    234.50891  0.023573474  0.023849976            5 
  830000   0.92632397   -7.1532151    235.07377  0.023601784  0.023829952            5 
  831000   0.91632402   -7.2054766    234.07036   0.02347276  0.023809981            5 
  832000   0.92209657   -7.1753413    235.11106  0.023548784  0.023789932            4 
  833000   0.92393041   -7.1792861    235.28492  0.023537907  0.023769729            4 
  834000   0.93005367   -7.1911846    234.63701  0.023444946  0.023749701            7 
  835000   0.90963201   -7.1883204    234.75343  0.023428486  0.023729757            4 
  836000   0.93227711   -7.2075314    234.65319  0.023390469  0.023709663           11 
  837000   0.90864994   -7.1490748    235.66711  0.023463472  0.023689696           10 
  838000   0.93474306   -7.1826258    235.88174  0.023456815  0.023669802            3 
  839000   0.91741675   -7.2296352    235.17563  0.023358723  0.023650083            4 
  840000     0.909103   -7.1639823     236.4975  0.023462053  0.023630103           10 
  841000   0.93877499   -7.1956856     235.9583  0.023380728  0.023610172            8 
  842000   0.90366547   -7.2259951     236.2286  0.023379711  0.023590023            3 
  843000     0.915684   -7.2039306    235.21334  0.023251615   0.02356987            5 
  844000   0.89748064   -7.1837028    235.41013  0.023243496  0.023549676           12 
  845000   0.92005144   -7.1868677    236.84888  0.023357878  0.023529626            3 
  846000   0.91977996    -7.166122    236.33277   0.02327943   0.02350967            8 
  847000   0.91822192   -7.1930161    235.75841  0.023195436   0.02348954            5 
  848000   0.91083297   -7.1672093    236.06464  0.023198176  0.023469423            6 
  849000   0.90466765   -7.1886568    235.84831  0.023149619  0.023449076            5 
  850000   0.91831296    -7.159784    236.36042   0.02317259  0.023428902           10 
  851000   0.91934423    -7.130121    236.66028  0.023174724   0.02340891            8 
  852000   0.91150184   -7.2099977    236.23967  0.023106384  0.023388849            5 
  853000     0.900101   -7.2049957    236.89693  0.023143506  0.023368527            6 
  854000   0.90490197   -7.1899273    235.57455  0.022987368  0.023348034            6 
  855000   0.89766708   -7.1836905    236.49043   0.02304975  0.023327785            7 
  856000   0.89846223   -7.2141497    236.49617  0.023023381  0.023307639           11 
  857000   0.91383743    -7.176103    236.72174   0.02301845  0.023287375            4 
  858000   0.92354173   -7.1845241    237.42842  0.023060258  0.023267183            5 
  859000   0.91247234   -7.2221971    236.69908  0.022962658  0.023247076           11 
  860000   0.91343054   -7.2492831    236.14618  0.022882382  0.023226781            9 
  861000   0.91885184   -7.1979719    237.10134  0.022948252  0.023206567            9 
  862000   0.89986814   -7.2441939     236.4861  0.022862152  0.023186219            6 
  863000   0.90175431   -7.2034744    236.92803  0.022878334  0.023166052           14 
  864000   0.89702334   -7.1848013    238.06803  0.022961809  0.023146143            5 
  865000   0.90468252   -7.1892102    238.12521  0.022940772  0.023126224           21 
  866000   0.89522139    -7.193944    238.02256  0.022904403  0.023106304           12 
  867000   0.91326228   -7.2207125    237.75844  0.022852599  0.023086705            5 
  868000   0.89729484   -7.2211589    237.59469   0.02281055   0.02306677           10 
  869000   0.88328804   -7.1776871    237.80636  0.022804599  0.023046783            4 
  870000   0.90502129   -7.2056762    237.88295  0.022785723  0.023026798            5 
  871000    0.9023589   -7.1909744    238.87229  0.022854218  0.023007024           10 
  872000   0.91616747    -7.199631     238.4734  0.022789889    0.0229871            3 
  873000   0.89646192   -7.1889968    238.79153  0.022794152  0.022967467           13 
  874000   0.91331029   -7.2540759    238.29579  0.022720804  0.022947628           10 
  875000   0.90199669   -7.2395073    237.97884  0.022664652  0.022927566           15 
  876000   0.90825791   -7.2242571    238.71203  0.022708527  0.022907538            5 
  877000   0.89078767   -7.2559635    238.10395  0.022624852  0.022887521            4 
  878000   0.91702792   -7.2504783     237.8502     0.022575  0.022867578            8 
  879000   0.91101155   -7.2397454    238.45046  0.022606225  0.022847576            6 
  880000   0.90688529   -7.2591701    239.34256  0.022665015  0.022827562            3 
  881000    0.9062531     -7.26114    238.59651   0.02256872  0.022807752            3 
  882000   0.90479209   -7.2337215     238.7968  0.022562056  0.022787933            6 
  883000   0.87882965   -7.2336023    239.33334   0.02258714  0.022767976            7 
  884000   0.89668737   -7.2639556    238.28552  0.022462813  0.022747865            9 
  885000   0.88800896   -7.2345043    239.10918  0.022514988  0.022727802            5 
  886000   0.89275864   -7.2319079    239.12166  0.022490751  0.022707867            5 
  887000   0.91580118    -7.263695    238.53302  0.022410092  0.022687785            6 
  888000    0.8840118   -7.2760102    238.39129  0.022371555  0.022667467           13 
  889000    0.8972925   -7.2370517     239.3264  0.022434046  0.022647306           26 
  890000   0.90985716   -7.2517544    239.14828  0.022392161  0.022627344            4 
  891000   0.87505228   -7.2802734    239.13741  0.022366013  0.022607223            7 
  892000   0.91291002    -7.220521    239.99038  0.022420626  0.022587285            5 
  893000   0.90908434   -7.2699163    238.79488  0.022283956  0.022567412            7 
  894000   0.89891837    -7.229004    240.35146  0.022404126   0.02254746            6 
  895000   0.89002382   -7.2441769    240.22014  0.022366866  0.022527634            8 
  896000   0.91263858   -7.2358366     239.8571  0.022308138  0.022507825            9 
  897000    0.9113364   -7.2394273     239.7393  0.022272325  0.022487979            9 
  898000   0.91316196   -7.2998394    239.34664  0.022211084   0.02246813            5 
  899000   0.89715149   -7.2832527     240.1082  0.022256971  0.022448258            8 
  900000   0.89710727   -7.2548679    240.04502   0.02222639  0.022428369           16 
  901000    0.8930432   -7.2123633     240.6818  0.022260618  0.022408655            5 
  902000   0.90235681   -7.2653314    240.18345  0.022189897  0.022388865            4 
  903000   0.87837283   -7.2665927    240.45166  0.022190076  0.022369088            7 
  904000   0.88643301   -7.2748866    240.62708    0.0221817  0.022349296            4 
  905000   0.88262991   -7.2302826    240.73582  0.022167203  0.022329641            5 
  906000   0.92344069    -7.249135    241.20999  0.022186349  0.022310094           10 
  907000   0.87247381   -7.2253169    241.18807  0.022159874  0.022290682            5 
  908000   0.88399344   -7.2932924    240.52094  0.022074242   0.02227101           14 
  909000   0.88168172   -7.2694006    240.58894  0.022056191  0.022251496            8 
  910000   0.88140278   -7.2548815    241.13367  0.022081838  0.022231916            8 
  911000   0.89536966   -7.2454461    241.33228  0.022075766   0.02221237           16 
  912000   0.90076308   -7.2643869    241.35458  0.022053599  0.022192814           11 
  913000   0.88447368   -7.3091491    240.88404  0.021986495  0.022173202            6 
  914000   0.89915258   -7.2899333    241.34272   0.02200426  0.022153522            5 
  915000   0.89873534   -7.2794728    241.40818  0.021986173  0.022133864           14 
  916000    0.8899169   -7.2724249    241.32913  0.021954979  0.022114282            6 
  917000   0.89815322   -7.2689912    241.96987  0.021989265  0.022094887            9 
  918000   0.87530117   -7.2902509    242.30228  0.021995486  0.022075632            8 
  919000   0.89046102   -7.2945419    241.26585  0.021877571  0.022056132            9 
  920000   0.88027336   -7.2902541    242.20644  0.021938989  0.022036722            5 
  921000   0.87678784    -7.272345    242.74822   0.02196419  0.022017494           15 
  922000   0.88199932   -7.3175527    242.36739  0.021905946  0.021998333            9 
  923000   0.88653602   -7.3061637    241.91898  0.021841728  0.021979054           18 
  924000   0.86212167   -7.3077134    242.47751  0.021868462  0.021959886            6 
  925000   0.90013256    -7.281725    243.00409   0.02189226  0.021940826            4 
  926000   0.89632802   -7.2510413    242.71071  0.021842217   0.02192181            4 
  927000   0.88530925    -7.273856    243.10056    0.0218537  0.021902833            6 
  928000   0.89926921   -7.2903708    243.40171  0.021857194  0.021883906            5 
  929000     0.868607   -7.3036533    242.60904  0.021762562  0.021864982            4 
  930000   0.88832234   -7.3011291    243.56326  0.021824665  0.021845971            4 
  931000   0.87381691   -7.2654276    243.91058  0.021832311  0.021827085            9 
  932000   0.86880242   -7.2553627    243.83741  0.021802343  0.021808358           10 
  933000    0.8875199   -7.2542166    244.19926  0.021811295  0.021789606            7 
  934000   0.86131945   -7.2889181    243.69063  0.021742562  0.021770921           10 
  935000   0.87083958   -7.3054812    243.80169  0.021729206  0.021752165           10 
  936000   0.88061035    -7.312701    244.07904  0.021730684   0.02173326            6 
  937000   0.87563421   -7.3126478    243.49082  0.021655178  0.021714321            5 
  938000   0.85732092    -7.307736    243.55262  0.021637582  0.021695367            6 
  939000    0.8540241   -7.3238404    244.03598  0.021657435  0.021676458            4 
  940000   0.85385466   -7.3100261    243.78838  0.021612445  0.021657514            8 
  941000   0.86444149   -7.3268662    243.89427  0.021598855  0.021638781            8 
  942000   0.87495135   -7.2802238    244.46088  0.021626051  0.021619903           13 
  943000   0.85868265   -7.3290777    244.28489  0.021587565  0.021601161            9 
  944000   0.90826977   -7.3144517    244.25557  0.021562109  0.021582354            8 
  945000   0.85325577   -7.3280933    244.75874  0.021583664  0.021563538            4 
  946000   0.89752882   -7.3040997     244.2658  0.021517424  0.021544764            4 
  947000   0.86888639    -7.289015     244.1058  0.021480623  0.021525946            6 
  948000   0.88724866   -7.2938066     243.8642  0.021436726  0.021507035            6 
  949000   0.87625797   -7.3297729    244.20973   0.02144448  0.021488067            7 
  950000   0.87270085   -7.3081059    244.29048   0.02142899  0.021469002           11 
  951000   0.88014552   -7.3165257    244.12656  0.021392092   0.02145003           11 
  952000   0.87610054   -7.2984829    244.61995  0.021412811  0.021431095           15 
  953000   0.85923444   -7.3211227    244.63746  0.021391873  0.021412254           18 
  954000   0.84652985   -7.3197151    244.18254  0.021329712  0.021393292            4 
  955000   0.88524533   -7.3120928    244.63723  0.021347053  0.021374331           19 
  956000    0.8680198   -7.3213439    244.59851  0.021321349  0.021355366           13 
  957000   0.88637273    -7.305525    244.77464  0.021314406  0.021336477            8 
  958000   0.86443822   -7.3067683    244.68701  0.021284535  0.021317608            6 
  959000   0.87574009   -7.3299582    244.44948  0.021241699  0.021298684           11 
  960000   0.87650555   -7.3207211    244.45736  0.021220257  0.021279728           14 
  961000   0.87328887   -7.3691428    244.45773  0.021198207   0.02126066           16 
  962000   0.86724388   -7.3324448    244.51274  0.021180937  0.021241555            8 
  963000   0.87080929   -7.3078772    244.78013  0.021182081  0.021222393            5 
  964000   0.87222197   -7.3448681    244.62672  0.021146847  0.021203246           10 
  965000   0.87481219   -7.3486569     244.3626  0.021102124  0.021184031            9 
  966000   0.86519371   -7.3315574    244.97443  0.021133059  0.021164963            6 
  967000   0.86819586   -7.3529887    244.11931  0.021037514  0.021145777            8 
  968000   0.86869293   -7.3287137    244.51566  0.021049902  0.021126676            7 
  969000   0.87251585   -7.3366338    245.10138   0.02107855  0.021107477            9 
  970000    0.8558584   -7.3056827    244.61205  0.021014781  0.021088178           25 
  971000   0.84939101   -7.3355554    244.12041  0.020950945   0.02106897           15 
  972000   0.87272568   -7.3427421    244.24482  0.020940057   0.02104975           28 
  973000   0.88863345   -7.3059125    244.95674  0.020979508  0.021030543           22 
  974000   0.87743728   -7.3431408    244.25455  0.020897891  0.021011564            7 
  975000   0.87326408   -7.3206638    244.97574  0.020938097  0.020992407            8 
  976000   0.87231257   -7.3434022    245.31215  0.020945368  0.020973337           10 
  977000   0.87900018   -7.3616748    245.13232  0.020908591  0.020954377           13 
  978000    0.8792791   -7.3378594    245.18306  0.020891536  0.020935318           14 
  979000   0.85631185   -7.3608965    244.75627  0.020833867  0.020916222            9 
  980000   0.88582059   -7.3509586      245.706  0.020893368  0.020897272           13 
  981000   0.86276188   -7.3437706    245.38356  0.020844679  0.020878317            5 
  982000   0.84721412   -7.3547933    245.12856  0.020801812   0.02085922           10 
  983000   0.87146219   -7.3960494      244.621  0.020737623  0.020839976           13 
  984000   0.86602027   -7.3730457    245.20336  0.020765867  0.020820806           14 
  985000   0.86708586   -7.3707604    244.90583  0.020719613  0.020801534           20 
  986000    0.8869446   -7.3719455    245.19527  0.020723062  0.020782261           17 
  987000   0.85544499   -7.4078595    244.42312  0.020636873  0.020762945            7 
  988000   0.85294454   -7.4159065     244.5135  0.020623608  0.020743568            7 
  989000   0.86022601   -7.3748831    244.98511  0.020642493   0.02072418           25 
  990000     0.859646   -7.3895299    244.47959   0.02057909  0.020704745           34 
  991000   0.84288628   -7.3480715    245.09603   0.02061016  0.020685574            7 
  992000   0.86859845   -7.3822199    245.19563  0.020597751  0.020666322           17 
  993000   0.86820344   -7.3819437    245.03097   0.02056319  0.020647217            9 
  994000   0.83360859   -7.3696821    245.47385  0.020579632  0.020628017            4 
  995000    0.8468266   -7.3451479    245.39337  0.020552208   0.02060894            5 
  996000   0.85819484   -7.3867604    245.41758    0.0205336  0.020589985            6 
  997000   0.83560819   -7.3530031    246.16495  0.020575472  0.020571036            3 
  998000   0.85066305   -7.4134067    245.11849  0.020467476  0.020552129            7 
  999000   0.84720378   -7.3932222    245.49167  0.020478117  0.020533005            8 
 1000000   0.84500636   -7.4270741    244.98589   0.02041549  0.020513925            7 
 1001000   0.86606743   -7.4132025     245.3364  0.020424275  0.020494772            7 
 1002000   0.86110042   -7.4108925    245.23409  0.020395383  0.020475698           14 
 1003000   0.87714414   -7.4556414    245.11592  0.020365231  0.020456702           10 
 1004000   0.84821207    -7.402405    245.30207  0.020360398  0.020437719            5 
 1005000   0.85663367   -7.3944235    245.38108   0.02034669  0.020418723           10 
 1006000   0.83965005   -7.3679511    246.63112  0.020430013  0.020399772            7 
 1007000   0.85752644   -7.4090943    246.24749  0.020377978  0.020380904            8 
 1008000   0.85446581   -7.3778918    246.57288  0.020384663  0.020362134            9 
 1009000    0.8457627   -7.3796499    246.38953  0.020349317  0.020343376           15 
 1010000   0.84129306   -7.3871578     246.2595   0.02031844  0.020324557            6 
 1011000   0.83691564   -7.3866667    246.40682  0.020310486  0.020305849            6 
 1012000   0.87356929   -7.3957268    247.07502   0.02034544  0.020287131            7 
 1013000   0.84958065   -7.4295832    246.28079  0.020260019  0.020268477            8 
 1014000   0.86187523   -7.4243224    246.06163  0.020222028  0.020249646           13 
 1015000   0.85292995   -7.4010474    247.05015  0.020283263  0.020230945           10 
 1016000   0.82974567     -7.42131    246.82916  0.020245174  0.020212348           15 
 1017000   0.83471493   -7.4069187    246.95065  0.020235222   0.02019373           11 
 1018000   0.85729697   -7.4120687    246.68441   0.02019355  0.020174941           19 
 1019000   0.83176993   -7.3924273    246.64911  0.020170846  0.020156223            6 
 1020000   0.84546234   -7.4647415    246.15602  0.020110786  0.020137412           13 
 1021000   0.85962855   -7.4208681    246.93426  0.020154608  0.020118652            8 
 1022000   0.84004692   -7.4192719    246.87293  0.020129887  0.020100002            7 
 1023000   0.87290426   -7.4497171    246.47262    0.0200776  0.020081211           12 
 1024000   0.85534776   -7.4305872    246.87068  0.020090388  0.020062369           11 
 1025000   0.84308379   -7.4684644    246.83715  0.020068061  0.020043646           20 
 1026000   0.83620038   -7.4363697    246.63068  0.020031732  0.020024941            5 
 1027000    0.8417047   -7.4233208     246.6147   0.02001093  0.020006252           15 
 1028000    0.8490251    -7.458434    246.67187  0.019996098  0.019987565           12 
 1029000   0.86816426   -7.4393214    247.01151  0.020004171  0.019968851            9 
 1030000   0.82822629   -7.4223234    247.76417  0.020045645  0.019950161           14 
 1031000    0.8434158   -7.4301736    246.69424  0.019939722  0.019931475            7 
 1032000   0.82863328    -7.428157    246.85016  0.019932991  0.019912715            5 
 1033000   0.84394142   -7.4509145    247.02428  0.019927741  0.019893984            7 
 1034000   0.82981644   -7.4284762    246.75926   0.01988711  0.019875237           12 
 1035000   0.83938812     -7.44592     246.3874  0.019837955  0.019856508            5 
 1036000   0.83592851   -7.4517919     247.2137  0.019885272  0.019837867           10 
 1037000   0.85267943   -7.4599438    246.04221  0.019771955  0.019819078            5 
 1038000   0.83167689   -7.4030074    247.46349  0.019867011  0.019800303            9 
 1039000   0.82446188   -7.4291934    246.92544  0.019804735  0.019781598           10 
 1040000     0.829275   -7.4545393    246.68234  0.019766213  0.019762832           12 
 1041000   0.83955543   -7.4298675    247.30562  0.019797119  0.019744224           18 
 1042000   0.83734313   -7.4366056    247.04429  0.019757221  0.019725544            7 
 1043000   0.84732664   -7.4440554     246.9332  0.019729402  0.019706928           11 
 1044000   0.81270733   -7.4752925    246.98311  0.019714489  0.019688296            9 
 1045000   0.83394985   -7.4052997    247.35352  0.019725161  0.019669727            8 
 1046000    0.8271378   -7.4504005    247.90638  0.019750349  0.019651133           10 
 1047000   0.82851633   -7.4360347    248.12434  0.019748833  0.019632652            7 
 1048000   0.83469898   -7.4319719    247.49394  0.019679862  0.019614165           17 
 1049000   0.81859277   -7.4549846    247.56275  0.019666568  0.019595662            9 
 1050000   0.82865087   -7.4364679    247.21428  0.019620181  0.019577106           10 
 1051000   0.82321898   -7.4357298    247.61155  0.019633013  0.019558673           11 
 1052000   0.83547886   -7.4696907    247.34311  0.019593085  0.019540193           12 
 1053000   0.84961406   -7.4764266    248.04936   0.01963037  0.019521708            8 
 1054000   0.82552899   -7.4449654    247.99232  0.019607236   0.01950345           17 
 1055000   0.82788345   -7.4350154    247.78683   0.01957242  0.019485119            5 
 1056000   0.81893478   -7.4729771    248.31554  0.019595608  0.019466831           12 
 1057000   0.82101266   -7.4654524    247.93077  0.019546734  0.019448484            8 
 1058000   0.83145861   -7.4497692    247.76302  0.019515046  0.019430261            8 
 1059000   0.81330275     -7.46131    247.86367  0.019504538     0.019412           12 
 1060000   0.84073831   -7.4795593       248.13  0.019507075  0.019393641           12 
 1061000   0.83184099   -7.4586044    248.49586  0.019517425  0.019375369            6 
 1062000   0.85002617   -7.4852828    248.47976  0.019497784  0.019357141           14 
 1063000   0.83245111   -7.4688962    248.38948  0.019472364  0.019338852            7 
 1064000   0.83468507   -7.4662906    248.69069  0.019477654  0.019320492           13 
 1065000   0.82536095    -7.486391    247.52129  0.019367863   0.01930212           11 
 1066000   0.82827783   -7.4866408    247.56588   0.01935318  0.019283757           29 
 1067000   0.83036305   -7.4651405    248.72281  0.019425399  0.019265489           18 
 1068000   0.82918029   -7.4684975    247.71419  0.019328511   0.01924719           23 
 1069000   0.82350491   -7.4874472    248.07521  0.019338572  0.019228829            9 
 1070000   0.82401259   -7.5066285      246.884  0.019227726  0.019210394           10 
 1071000   0.82255001   -7.4554069      247.916  0.019290072  0.019192052           18 
 1072000   0.83389333   -7.4850896    248.03472  0.019281306  0.019173723           11 
 1073000   0.81967085   -7.5298653    247.37159  0.019211835  0.019155388           14 
 1074000   0.79655956    -7.497542    247.74446  0.019222879  0.019137046           12 
 1075000   0.84436874   -7.5027533    247.42453  0.019180196  0.019118764            9 
 1076000   0.81650357   -7.4624903    248.33591  0.019232954  0.019100631            7 
 1077000   0.84137286   -7.4865381    248.31259  0.019213292  0.019082486            8 
 1078000   0.83546081   -7.4948392    247.66672  0.019145541  0.019064273            8 
 1079000   0.81910371     -7.51837    248.11936  0.019162756   0.01904608           18 
 1080000   0.81647471   -7.4959789    248.08622  0.019142456  0.019027842           30 
 1081000   0.81592684   -7.4789223    248.83405  0.019182397  0.019009649           15 
 1082000   0.81532185   -7.5134637    247.81716  0.019086349  0.018991479           11 
 1083000   0.80739956   -7.5113163    248.67795   0.01913496  0.018973288           10 
 1084000    0.8291137   -7.5378984    247.83708  0.019052666  0.018955082           13 
 1085000   0.82382076   -7.5443951    247.90706  0.019040481  0.018936805           10 
 1086000   0.83466804   -7.5272431    248.58265  0.019074789  0.018918668           20 
 1087000    0.8214089   -7.5037677    247.90873  0.019005576  0.018900581           12 
 1088000   0.81386288   -7.5296251    248.43521  0.019028432  0.018882511           13 
 1089000   0.81269015   -7.5239663    248.14924  0.018989075  0.018864344           10 
 1090000   0.83208038   -7.5381564    248.53411  0.019001078  0.018846281           17 
 1091000   0.81973373   -7.5125559    248.61816  0.018990082  0.018828187           30 
 1092000   0.83525709   -7.5668268    248.04362  0.018928848  0.018810039           26 
 1093000   0.82097075   -7.5087023    248.31183  0.018931978  0.018791918           21 
 1094000   0.81418942   -7.5225201    247.79215  0.018875087  0.018773926            7 
 1095000   0.82453683   -7.5183832    248.78608  0.018933492  0.018755826           15 
 1096000    0.8272922   -7.5021225     249.0273  0.018934558  0.018737751            7 
 1097000   0.81903041   -7.5465377    247.53507   0.01880394  0.018719625           32 
 1098000   0.82716859   -7.5165026     248.2774  0.018843155  0.018701578           17 
 1099000   0.80280041   -7.5329433    248.00535   0.01880538  0.018683451           20 
 1100000   0.80546192   -7.5148132    248.67495  0.018839011  0.018665467           10 
 1101000   0.82350909   -7.5082951    249.03611  0.018849237  0.018647612           11 
 1102000   0.83663677   -7.4986177    248.30489  0.018776837  0.018629706           24 
 1103000   0.81397288   -7.5106148    248.38279  0.018765699  0.018611845           17 
 1104000   0.80655268    -7.557771    247.80525  0.018705106   0.01859389           21 
 1105000   0.83098705   -7.5278134    248.59307  0.018747592  0.018575959           50 
 1106000   0.80042828   -7.5119657     248.7836  0.018744997  0.018558012           18 
 1107000   0.82925571    -7.490583     248.6074    0.0187148  0.018540194           34 
 1108000   0.81453219   -7.5292205    248.26544   0.01867219  0.018522289           22 
 1109000   0.81404136   -7.5411375    248.54373  0.018676265  0.018504498           26 
 1110000   0.80794482   -7.5129362    248.95797  0.018690538  0.018486728           28 
 1111000   0.81573815   -7.5287293     248.7452  0.018657755  0.018468931           41 
 1112000   0.82587594   -7.5225455    248.85851  0.018649468  0.018451226           45 
 1113000   0.81158811   -7.5075663    249.68565  0.018694643  0.018433577           38 
 1114000   0.80918254   -7.5328496    248.96838  0.018624206  0.018415934           26 
 1115000   0.81190489   -7.5149734    249.84279  0.018672855  0.018398369           30 
 1116000   0.82165763   -7.5494907    249.10755  0.018601221  0.018380724           16 
 1117000    0.8055336   -7.5260611    249.46515  0.018611247  0.018363168            7 
 1118000   0.79158365    -7.545015    248.97113  0.018557777  0.018345739           19 
 1119000   0.80638062   -7.5412202      249.193  0.018557715  0.018328231           18 
 1120000   0.81123415   -7.5604639     248.3252  0.018476578  0.018310661           27 
 1121000   0.79675004   -7.5625446    248.88279  0.018501545  0.018293105           17 
 1122000   0.79835689   -7.5541884    248.99223  0.018493184  0.018275503           21 
 1123000   0.80418173   -7.5424368    248.82344  0.018464191  0.018258058           21 
 1124000   0.80473761    -7.535961    249.72705  0.018514757  0.018240615            9 
 1125000   0.81915639   -7.5539512    249.27143   0.01846455  0.018223195            8 
 1126000   0.79860603   -7.5247957    250.07469    0.0185076  0.018205776           44 
 1127000   0.83439464    -7.545259    248.92741  0.018406345  0.018188342            8 
 1128000   0.79581465   -7.5300609    249.44138  0.018427998  0.018170949            9 
 1129000   0.81648693   -7.5511928    249.68284  0.018429498  0.018153509           10 
 1130000   0.79432619   -7.5319018    249.66173  0.018411632  0.018136166           20 
 1131000    0.8086235   -7.5579723    249.49757  0.018383257  0.018118751            8 
 1132000   0.80122952   -7.5349944    250.07379  0.018409437   0.01810136           10 
 1133000   0.80574664   -7.5532048    249.19376  0.018328461  0.018083994           35 
 1134000   0.81077718   -7.5568511    249.83055  0.018359094  0.018066593           21 
 1135000    0.8001734   -7.5638814    249.81838  0.018342025  0.018049214           11 
 1136000     0.788568   -7.5689529    249.45384  0.018299137   0.01803187            9 
 1137000   0.80560464   -7.5843335    249.22534  0.018266296  0.018014528           21 
 1138000   0.80223191   -7.5874922    248.52732   0.01819913  0.017997114            8 
 1139000    0.8069412   -7.5578601    249.43623  0.018249651  0.017979786            8 
 1140000   0.80815193   -7.5578807    250.24035  0.018292423  0.017962484           12 
 1141000   0.81032182   -7.5560115     249.3782  0.018213424  0.017945319            9 
 1142000   0.80715088   -7.5521382    249.50731  0.018206897  0.017928125           15 
 1143000    0.8104347   -7.5484573     249.7446  0.018208268  0.017910982           11 
 1144000   0.79188756   -7.5644217    250.11816  0.018219563  0.017893778           12 
 1145000   0.79788809   -7.6022345    249.18479   0.01813572  0.017876576           20 
 1146000   0.79485197    -7.602769     249.1191  0.018115117  0.017859345           13 
 1147000   0.80290226   -7.5804001    249.35187  0.018116236  0.017842022           11 
 1148000   0.77256983   -7.5455511    249.93209  0.018142574   0.01782477           11 
 1149000   0.78087068   -7.6102515    249.83013  0.018119389  0.017807557           11 
 1150000   0.79321844   -7.6058248    249.50309  0.018079934  0.017790321            7 
 1151000   0.79932899   -7.5872659    249.95027  0.018096602  0.017773163           20 
 1152000   0.80114066   -7.5784773    249.50685  0.018048818  0.017755931           16 
 1153000    0.7952558   -7.5940826    249.41031  0.018026186  0.017738777           10 
 1154000   0.79286257   -7.5929461    249.47062  0.018014921  0.017721554           15 
 1155000    0.7804698   -7.5938826    248.98863  0.017964548  0.017704341           19 
 1156000   0.78944513   -7.6124985    248.75222  0.017931965  0.017687072           19 
 1157000   0.79572463   -7.5745918    249.26536  0.017953425  0.017669846           10 
 1158000   0.80453035   -7.5800459    249.67294  0.017967252   0.01765269           11 
 1159000   0.80789921     -7.58497    249.94319  0.017971181  0.017635566            6 
 1160000    0.7755671   -7.5991184    250.04553  0.017963041  0.017618502           14 
 1161000   0.77828359   -7.5764244    249.59869  0.017915496  0.017601398           28 
 1162000   0.78781685   -7.5975034    249.76564  0.017912051  0.017584288           12 
 1163000   0.77108531   -7.6079553    249.29386  0.017862845  0.017567153           17 
 1164000   0.78817576   -7.6080525    249.28359  0.017846764  0.017550025           22 
 1165000   0.78938606   -7.5866892    249.95883  0.017879745  0.017532991            9 
 1166000   0.77140235   -7.5982714    249.89258  0.017859676  0.017515935           14 
 1167000   0.78358131   -7.6103831    249.77349  0.017835867  0.017498864            8 
 1168000   0.77912258   -7.5977176    249.75591  0.017819343  0.017481789           12 
 1169000   0.77516231   -7.6159162    249.14908  0.017760841  0.017464733           15 
 1170000   0.79903815   -7.6349586    249.65848  0.017781943    0.0174477            8 
 1171000   0.79167565   -7.6322976    248.92214  0.017714357  0.017430667           12 
 1172000   0.77499238   -7.6186799    249.31194  0.017726958  0.017413607           10 
 1173000   0.78550519   -7.6338731    249.49773  0.017725045  0.017396586           23 
 1174000   0.78598301   -7.6312969     249.3163  0.017697068  0.017379553           12 
 1175000   0.79038913   -7.6143391    249.22538  0.017675559  0.017362609           21 
 1176000   0.79943267   -7.6271041    249.42317  0.017674544  0.017345627           11 
 1177000   0.78302209   -7.6467227    249.37691  0.017656252  0.017328606            8 
 1178000   0.78719014   -7.6267169    249.67845  0.017662595  0.017311654           16 
 1179000   0.77174576   -7.6577058    249.36697  0.017625598  0.017294699           16 
 1180000   0.77216615   -7.6576436    249.41309  0.017613919  0.017277714           20 
 1181000   0.77287054   -7.6657895    249.46271  0.017602505  0.017260781           17 
 1182000   0.77786902   -7.6432306    249.44654  0.017586473  0.017243802           28 
 1183000   0.79183538   -7.6488641    249.89951  0.017603516    0.0172269           12 
 1184000   0.78605788   -7.6180729    249.79201  0.017581082  0.017210041           16 
 1185000   0.79270076   -7.6319583     249.2263  0.017526463  0.017193315           30 
 1186000    0.7870368   -7.6048962    250.77374  0.017620415  0.017176616           39 
 1187000   0.75717306   -7.6438607    249.26205  0.017499442  0.017159881           14 
 1188000   0.78044047   -7.6274385    250.27635   0.01755586  0.017143074           14 
 1189000   0.79733596   -7.6285075    250.05171  0.017525351   0.01712632           44 
 1190000   0.77656458   -7.6551597    249.42989  0.017467079  0.017109539           18 
 1191000   0.77748104   -7.6401389    249.62898  0.017466343  0.017092686           14 
 1192000   0.76572735   -7.6784697     249.0191  0.017409053   0.01707588           10 
 1193000   0.79191994   -7.6205012    249.97595  0.017461298  0.017059058           51 
 1194000   0.76979846   -7.6676104    249.55631  0.017417386   0.01704226           44 
 1195000   0.77763389    -7.676344     249.3155  0.017386018  0.017025423           57 
 1196000   0.76114955    -7.641435    249.96216  0.017416538  0.017008585           62 
 1197000   0.77550332   -7.6618253     248.9673  0.017332727  0.016991757           56 
 1198000   0.78038629   -7.6818572    249.29253  0.017340883  0.016974954           25 
 1199000   0.78844833   -7.6496285     249.8609  0.017365923  0.016958125           20 
 1200000   0.77388471   -7.6648402    250.02683  0.017362974  0.016941401           13 
 1201000   0.77273525   -7.6934693    249.02069  0.017278705  0.016924685           18 
 1202000   0.77805512   -7.7077741      248.717  0.017243275  0.016907908           12 
 1203000   0.77492799   -7.6904112    249.19033   0.01726173  0.016891126            8 
 1204000   0.77200748   -7.6832296    248.72658  0.017215295  0.016874332           17 
 1205000   0.78740281   -7.6621125    249.58546  0.017260405  0.016857588           24 
 1206000    0.7736296   -7.6895071     249.4708   0.01723817   0.01684093           23 
 1207000   0.78326376   -7.6689863    249.57959    0.0172314  0.016824243           16 
 1208000   0.77782645   -7.6812869    249.85918  0.017236422  0.016807607           20 
 1209000   0.76004537   -7.6516675    249.92499  0.017226702  0.016790969           17 
 1210000   0.79273458   -7.6507637    249.74851  0.017200311  0.016774442           17 
 1211000   0.77082626   -7.6752224    249.54806  0.017172314  0.016757889           27 
 1212000   0.77363992   -7.6709112    249.54231   0.01715775  0.016741282           12 
 1213000   0.76723778   -7.6661663    249.22008  0.017121468   0.01672475           16 
 1214000   0.77040444   -7.6662471    249.05829  0.017096258  0.016708173           32 
 1215000   0.77857785   -7.6651986     249.9845  0.017145713  0.016691644           17 
 1216000   0.76200292   -7.6486601    249.63714  0.017107809  0.016675121           54 
 1217000   0.76346538   -7.6737003    249.93247  0.017113974   0.01665865           55 
 1218000   0.76367051   -7.6690843    249.23042  0.017051889    0.0166422           31 
 1219000   0.75994895   -7.6496822    249.53116   0.01705846  0.016625761           22 
 1220000    0.7585301    -7.689143    249.64628  0.017052342  0.016609346           33 
 1221000   0.76646119   -7.6892587    249.97971  0.017061132  0.016592926           42 
 1222000   0.75203591   -7.7103351    248.76041  0.016964021  0.016576491           36 
 1223000   0.76642975   -7.7001388    249.56167  0.017004747  0.016560039           40 
 1224000    0.7424816   -7.7032197    249.57585   0.01699182  0.016543559           50 
 1225000   0.76629092   -7.6762505    249.67213  0.016984499    0.0165271           61 
 1226000   0.77554096    -7.651527    249.78158  0.016978085  0.016510728           22 
 1227000   0.75341461    -7.687393    250.03687  0.016981586  0.016494337           42 
 1228000   0.79175556   -7.6961337    249.30694  0.016918223  0.016477926           23 
 1229000   0.76930603   -7.6831876    249.46282  0.016915027  0.016461556           29 
 1230000    0.7523866   -7.6868796    249.66219  0.016914782  0.016445227           31 
 1231000   0.75803091   -7.6896996    249.38115  0.016882017  0.016428848           21 
 1232000   0.76782305   -7.6617389    249.22203  0.016857551  0.016412521           22 
 1233000   0.74956055   -7.6883067    249.55312  0.016866256  0.016396211           42 
 1234000   0.76048345   -7.6864504    249.40369  0.016842497  0.016379867           28 
 1235000   0.76865641   -7.6899021     249.7772  0.016854062  0.016363504           26 
 1236000   0.75766277    -7.720092    249.22012  0.016802867  0.016347233           38 
 1237000   0.78274944   -7.7231532    249.34303  0.016797563  0.016330938           28 
 1238000   0.74632258   -7.7154061    249.54399  0.016797522  0.016314615           10 
 1239000   0.77191584   -7.7201945    249.43296  0.016776497  0.016298304           37 
 1240000   0.76640036   -7.7197704    248.89979  0.016727136  0.016282011           24 
 1241000   0.74687698    -7.733248    249.78978   0.01677342  0.016265716           17 
 1242000   0.74117472   -7.7415022    248.75664  0.016690596  0.016249389           23 
 1243000   0.76224297   -7.7265467    248.85741  0.016683924   0.01623312           22 
 1244000   0.77293912   -7.7191334    249.00576   0.01668045  0.016216904           19 
 1245000   0.77249722   -7.7298607    249.37638   0.01669186  0.016200669           35 
 1246000   0.74485476   -7.7018674    249.41255  0.016680882  0.016184516           26 
 1247000    0.7444597   -7.7260336    249.78106  0.016692132  0.016168441           26 
 1248000   0.74345153    -7.729601    249.75856  0.016677254  0.016152372           17 
 1249000   0.76806619   -7.7117219     249.4857  0.016645696   0.01613632           37 
 1250000   0.76226152   -7.7246919    249.32564   0.01662171  0.016120265           42 
 1251000   0.74043196   -7.7575919    249.14557  0.016596427  0.016104216           25 
 1252000   0.75799293   -7.7445398    249.24435  0.016589746  0.016088156           20 
 1253000   0.75387778   -7.7473417    248.92997  0.016555598  0.016072172           44 
 1254000   0.76249305   -7.7491839    249.71141  0.016594325  0.016056204           19 
 1255000   0.76479233   -7.7206344     249.3604  0.016557796  0.016040239           25 
 1256000   0.73453646   -7.7682888     249.5296  0.016555839  0.016024314           41 
 1257000   0.74943152   -7.7490457    249.26477  0.016525111  0.016008378           26 
 1258000   0.74361444   -7.7350066    249.77948   0.01654607  0.015992487           45 
 1259000   0.74364795   -7.7395371    249.28804    0.0165004  0.015976592           22 
 1260000   0.75777713   -7.7543681    249.22059  0.016482843  0.015960734           18 
 1261000   0.72704362   -7.7492916    249.89827  0.016514556  0.015944879           12 
 1262000   0.75324281    -7.734035    249.79475  0.016494635  0.015928997           26 
 1263000   0.75636271   -7.7515201    249.23727  0.016444792  0.015913152           17 
 1264000   0.75634916   -7.7358667    250.17685  0.016493727  0.015897298           37 
 1265000    0.7423929   -7.7670476    249.42076   0.01643088  0.015881479           20 
 1266000   0.75215703   -7.7381205    249.29134  0.016409382  0.015865666           14 
 1267000   0.74885663   -7.7537693    249.29614  0.016396747   0.01584986           11 
 1268000   0.74533812   -7.7441072    249.31278  0.016384909  0.015834101            9 
 1269000   0.72593522   -7.7460136    249.52843  0.016386159  0.015818358           13 
 1270000   0.72542295    -7.756687    249.37988  0.016363509  0.015802637           13 
 1271000    0.7368843    -7.753399    249.03139  0.016327786  0.015786922           15 
 1272000   0.75327585   -7.7644345    249.95487   0.01637545   0.01577124           26 
 1273000   0.75805737   -7.7431971    249.89554  0.016358703  0.015755611           23 
 1274000   0.74163623   -7.7404894     249.8747  0.016344499  0.015739988           18 
 1275000   0.72870888   -7.7611402    249.20638  0.016287999  0.015724433           18 
 1276000   0.73284535   -7.7897461    250.05251  0.016330493  0.015708879            5 
 1277000   0.74024422   -7.7849227    249.19759  0.016261915  0.015693285           44 
 1278000   0.75419232   -7.7735392    249.82903  0.016290364   0.01567774           13 
 1279000   0.72539454   -7.7585671    249.80605   0.01627613   0.01566221           31 
 1280000    0.7464833   -7.7575232    249.67717  0.016255024  0.015646645           19 
 1281000   0.76578901   -7.7688353    249.76125  0.016247804  0.015631135           33 
 1282000   0.73575588   -7.7677176     249.6786  0.016229758  0.015615671           48 
 1283000   0.73825111   -7.7660275    250.06781  0.016242388  0.015600216           45 
 1284000   0.75702295   -7.7848759    249.69548  0.016205573   0.01558475           21 
 1285000   0.73602445   -7.7464771    250.13231  0.016221291  0.015569237           28 
 1286000   0.75485035   -7.7946453    249.48321  0.016166615  0.015553781           39 
 1287000   0.75260672   -7.7473422    250.09418  0.016193614  0.015538357           21 
 1288000   0.75139737   -7.8041857     249.3772  0.016134653  0.015522912           39 
 1289000   0.72872422   -7.7899982     249.7258  0.016144673   0.01550753           32 
 1290000     0.743976   -7.7998226    249.63699  0.016126421  0.015492125           45 
 1291000    0.7369402   -7.7530391    249.71532  0.016118985  0.015476811           34 
 1292000   0.72567074   -7.7901912    249.44531  0.016089094  0.015461462           31 
 1293000   0.74578681   -7.7986134    249.41006  0.016074379   0.01544607           44 
 1294000   0.73813162   -7.7668789    249.73181  0.016082677   0.01543073           12 
 1295000   0.72312864   -7.7802705     249.3215  0.016043854  0.015415421           28 
 1296000   0.73273367    -7.817748    249.74706  0.016058839   0.01540011           23 
 1297000   0.74676422   -7.8116003    249.41639  0.016025212    0.0153848           14 
 1298000   0.72921796   -7.8201783    249.80504  0.016037817  0.015369517           32 
 1299000    0.7461715    -7.794314    249.25066  0.015989907  0.015354226           39 
 1300000   0.73377845   -7.8126087    249.58863  0.015999271  0.015338967           24 
 1301000    0.7416963    -7.782331    249.71009  0.015994753  0.015323768           31 
 1302000   0.75372181   -7.7983894    249.44784  0.015965684    0.0153086           55 
 1303000   0.72100545   -7.8055193    249.72971  0.015971457  0.015293407           20 
 1304000   0.73397486   -7.8177517    249.43499  0.015940375  0.015278234           24 
 1305000   0.73389914   -7.8014973    249.98467  0.015963261  0.015263137           21 
 1306000   0.72770049   -7.8109225    249.64758  0.015929529  0.015248049           20 
 1307000   0.73996296   -7.8138981    249.71402  0.015921578  0.015232965           36 
 1308000    0.7372005   -7.7941225    250.05383  0.015931054  0.015217878           25 
 1309000   0.72652496   -7.7952418    249.88393  0.015908068  0.015202831           45 
 1310000    0.7290395    -7.765423    250.20974   0.01591665  0.015187821           49 
 1311000   0.72135007   -7.8099346    249.62156  0.015867122  0.015172806           20 
 1312000   0.73527598   -7.8279324    249.30323  0.015834809  0.015157781           33 
 1313000   0.71611575   -7.8158474     249.5744  0.015839959  0.015142791           21 
 1314000   0.73267195   -7.7821303    250.59552  0.015892664  0.015127847           17 
 1315000   0.73868218   -7.8089113    249.87059  0.015834638  0.015112902            9 
 1316000   0.71713914   -7.8388122    249.69123  0.015811248  0.015097948           52 
 1317000   0.72125072   -7.8108641    249.67388  0.015798145  0.015082971           22 
 1318000   0.72660549   -7.8081554    249.46821  0.015773154  0.015067992           29 
 1319000   0.73096746   -7.7990109    250.01961  0.015796033  0.015053039           23 
 1320000   0.72359512   -7.7948831     249.7626  0.015767841   0.01503814           32 
 1321000   0.73121578   -7.8105931     249.4177  0.015734147  0.015023224           19 
 1322000   0.73574378   -7.8174998    249.63729  0.015736087   0.01500833           22 
 1323000    0.7389716   -7.8208053    249.02049  0.015685342  0.014993452           27 
 1324000    0.7367968   -7.8143745    249.26456  0.015688857  0.014978598           44 
 1325000    0.7183495    -7.834221     249.6223  0.015699515  0.014963754           20 
 1326000   0.72441607   -7.8151445    249.78699  0.015698026  0.014948941           19 
 1327000    0.7160366   -7.8298243    249.61031  0.015675101  0.014934126           32 
 1328000   0.73154745   -7.8123362    250.07927  0.015692726   0.01491938           19 
 1329000   0.72524295   -7.8435303    249.98333  0.015674902  0.014904624           16 
 1330000   0.73608699    -7.842569     249.9804  0.015662932  0.014889934           35 
 1331000   0.73109017    -7.811196     249.6865  0.015632763  0.014875242           26 
 1332000   0.73662075   -7.8407902    250.21607  0.015654158  0.014860578           63 
 1333000    0.7182959   -7.8374267    249.33368  0.015587252  0.014845907           41 
 1334000   0.72352787   -7.8269219    249.95073  0.015614114  0.014831269           29 
 1335000   0.73475725   -7.8331885    249.84756  0.015595978  0.014816611           30 
 1336000   0.73339765   -7.8192819    249.60794  0.015569358  0.014801963           32 
 1337000   0.72512321   -7.8248774    249.59943  0.015557182  0.014787366           27 
 1338000   0.71962967   -7.8332276    249.89834  0.015564171  0.014772767           35 
 1339000   0.71479755   -7.8415404    249.59364  0.015533585  0.014758183           42 
 1340000   0.72679501   -7.8205861     249.5216  0.015517512  0.014743603           44 
 1341000   0.71565294   -7.8273481    249.93917  0.015531889  0.014729034          122 
 1342000   0.71356917   -7.8510217    249.87457  0.015516304  0.014714473           58 
 1343000   0.69914581   -7.8566711    250.01833  0.015513672  0.014699935           64 
 1344000   0.72254073   -7.8468008    249.67255  0.015480689  0.014685401           25 
 1345000   0.71795654   -7.8273312    249.71934  0.015472078  0.014670911           43 
 1346000   0.72851627   -7.8347003    249.41927  0.015442005  0.014656433           50 
 1347000   0.72035588   -7.8517239    249.81135  0.015454798  0.014641957           31 
 1348000    0.7172259   -7.8534305    249.68698  0.015435644   0.01462757           37 
 1349000   0.71487744   -7.8474204    250.00281  0.015443712  0.014613164           38 
 1350000   0.73001348   -7.8442107    250.04009  0.015434574  0.014598778           56 
 1351000   0.70078093   -7.8465492    250.12316  0.015428273  0.014584401           33 
 1352000   0.71785387   -7.8663715    250.03233  0.015411263  0.014570012           19 
 1353000   0.73736036   -7.8448083    250.00274   0.01539805  0.014555629           22 
 1354000   0.72734927   -7.8416418    249.40914  0.015350144  0.014541272           32 
 1355000   0.72353089   -7.8544387    249.88675  0.015368189  0.014526929           28 
 1356000   0.72833153   -7.8408323    250.22112  0.015377404  0.014512646           17 
 1357000   0.70304816   -7.8790861    249.83995  0.015342665  0.014498369           36 
 1358000   0.69685957   -7.8665932    249.14326  0.015288614  0.014484089           27 
 1359000   0.69904762   -7.8510044    249.81376  0.015318479  0.014469822           42 
 1360000    0.7136326   -7.8208889    249.60927  0.015294686  0.014455531           39 
 1361000   0.71543957   -7.8512817    249.76291  0.015292855  0.014441278           48 
 1362000   0.69867664   -7.8671395    249.85465   0.01528724  0.014427052           30 
 1363000   0.70246976   -7.8777762    249.23089  0.015237887  0.014412822          104 
 1364000   0.70010831   -7.8732034    249.92209  0.015268945  0.014398631           46 
 1365000   0.70562363   -7.8893082    249.68814  0.015243476  0.014384442           79 
 1366000   0.72185223   -7.8795587    249.42289  0.015216135  0.014370231           60 
 1367000   0.70415826   -7.8591375    249.83607  0.015230192  0.014356073           97 
 1368000   0.70443046   -7.8595893    250.14913  0.015238129  0.014341892           62 
 1369000   0.72046321   -7.8933007    249.48529  0.015186589  0.014327771          116 
 1370000   0.70163153   -7.8631368    249.98806  0.015206087  0.014313702           82 
 1371000   0.72128792   -7.8857011    250.43856  0.015222378  0.014299639           92 
 1372000   0.70173859    -7.850576    249.95263  0.015181768  0.014285585          135 
 1373000   0.70523382   -7.8764677    249.58502  0.015148399  0.014271547           84 
 1374000   0.71025088   -7.8635776    249.64373  0.015140935  0.014257551          116 
 1375000   0.69782567   -7.8992885    249.13504  0.015099093  0.014243546           94 
 1376000   0.70882481   -7.9120753    249.14296    0.0150886  0.014229536           73 
 1377000   0.71085334   -7.8766795    250.26152  0.015145335  0.014215528          119 
 1378000   0.70797641   -7.8598867    249.82662  0.015108045   0.01420156           98 
 1379000   0.72259157   -7.9136376    249.12738  0.015054833  0.014187584          100 
 1380000   0.70031495   -7.8874313    249.65275  0.015075649  0.014173618           49 
 1381000   0.68816912   -7.8809911    250.65067   0.01512495  0.014159664           62 
 1382000   0.71021808   -7.8726218    250.07789  0.015079468  0.014145738           36 
 1383000   0.69846181   -7.8831653    249.88773  0.015057106  0.014131795           45 
 1384000   0.70740906   -7.8799386    249.77952  0.015039711  0.014117839           30 
 1385000   0.69050248   -7.8768679    249.66943  0.015022228  0.014103912           60 
 1386000   0.70446751   -7.8797205    249.92362  0.015026673  0.014089999           64 
 1387000   0.70404533   -7.9104254    249.43827  0.014986678  0.014076122          125 
 1388000   0.69622459   -7.9091302    249.74499  0.014994296  0.014062255          125 
 1389000   0.69247697    -7.892603    249.67355  0.014979215  0.014048428           54 
 1390000    0.6888335   -7.9164378    249.28991  0.014945438  0.014034593           60 
 1391000   0.69422785   -7.8980815    249.67608  0.014957829  0.014020796           40 
 1392000   0.70390823   -7.9034319    249.56508  0.014940438  0.014007056           51 
 1393000   0.70857479   -7.9268441    249.24975  0.014910849  0.013993297           62 
 1394000   0.70483979   -7.8942467    249.58763  0.014920351  0.013979523           52 
 1395000   0.71461449   -7.8920731    249.49489  0.014904115  0.013965803           81 
 1396000   0.68371491   -7.8790054    249.71103  0.014906341  0.013952141           49 
 1397000   0.71242175   -7.8975989    249.89928  0.014906901   0.01393845           83 
 1398000   0.70959424   -7.9182108    249.46517  0.014870361   0.01392478           84 
 1399000   0.69793012   -7.8908652    249.79677  0.014879483  0.013911089           58 
 1400000   0.69654974   -7.8906596    249.49187  0.014850707  0.013897432           59 
 1401000   0.69305983   -7.9265693    249.66841  0.014850608  0.013883815           94 
 1402000   0.69339096   -7.9059666    249.25106  0.014815208  0.013870175           57 
 1403000   0.69846531   -7.9122191    249.51277  0.014820193   0.01385656           60 
 1404000   0.69100749   -7.9103609    249.38043  0.014801782  0.013842985          101 
 1405000   0.68942181   -7.9246544    249.84859  0.014819015  0.013829424           78 
 1406000   0.68574735   -7.9020243    250.02809  0.014819114  0.013815882          114 
 1407000   0.69040126   -7.9236337    249.30915     0.014766  0.013802305           76 
 1408000   0.71000949   -7.9427404     249.7644  0.014782457  0.013788751           83 
 1409000   0.69843091    -7.889804    249.67785  0.014766847  0.013775223           77 
 1410000   0.69411217    -7.934126    249.77699  0.014762233  0.013761684           92 
 1411000    0.6913583   -7.9241623    249.47467  0.014733916  0.013748173           58 
 1412000    0.6763496   -7.9166893    249.38773   0.01471835  0.013734678           55 
 1413000   0.69810671   -7.9493247    249.30569  0.014703096  0.013721208           63 
 1414000   0.68531285   -7.9171741     249.2732  0.014690783    0.0137077           72 
 1415000   0.67870759   -7.9505643    248.82518  0.014654015  0.013694248          268 
 1416000   0.68303107   -7.9493248    249.24897  0.014668607  0.013680792          134 
 1417000   0.69194576   -7.9167461    249.62582  0.014680417  0.013667387           48 
 1418000    0.6869018   -7.9446422    249.53886  0.014664954  0.013653995           98 
 1419000   0.67813332   -7.9563303    249.42862  0.014648145  0.013640572          101 
 1420000   0.69499739   -7.9459838    249.24381  0.014626984  0.013627202          126 
 1421000   0.69148663    -7.963881    248.86154  0.014594273  0.013613827           81 
 1422000   0.69073659   -7.9409901    249.39311  0.014615161  0.013600447          134 
 1423000   0.69693959   -7.9321555    249.19727  0.014593422  0.013587116           74 
 1424000   0.67536963   -7.9300897    249.82301  0.014619792  0.013573788          135 
 1425000   0.67656127   -7.9445447    250.12576  0.014627237  0.013560518           59 
 1426000   0.69099407   -7.9505275    249.57353  0.014584708  0.013547264          233 
 1427000   0.68070792   -7.9238989    249.81766  0.014588745  0.013534005          133 
 1428000    0.6791436   -7.9413556    249.50134  0.014560069  0.013520758          141 
 1429000   0.68000569   -7.9253151    249.84174  0.014569731  0.013507566           62 
 1430000   0.67662413   -7.9366536    249.37497  0.014532341  0.013494373          243 
 1431000   0.67587289   -7.9337701    249.82311  0.014548283  0.013481201          160 
 1432000   0.68033342   -7.9317822    249.12741  0.014497638  0.013468033          143 
 1433000   0.68522707   -7.9682387    249.22714   0.01449332  0.013454875          174 
 1434000   0.67731567   -7.9673564    249.55116  0.014502043  0.013441727           97 
 1435000   0.67171654   -7.9469177    249.63682  0.014496912  0.013428563          120 
 1436000   0.66879376   -7.9698721     249.4032  0.014473259  0.013415424          166 
 1437000   0.67280063   -7.9656603    249.22451  0.014452825  0.013402319          131 
 1438000   0.67281161   -7.9505306    249.86715  0.014480016  0.013389215          138 
 1439000   0.68187213   -7.9722844    249.64102  0.014456858  0.013376179          199 
 1440000   0.66241696    -7.959701     249.3934  0.014432488  0.013363114          164 
 1441000   0.68343128   -7.9345135    249.10692  0.014405905  0.013350082          148 
 1442000   0.67866433   -7.9691369    249.76615  0.014434012  0.013337038          141 
 1443000    0.6696529   -7.9704358    249.52168  0.014409891  0.013324011           84 
 1444000   0.68958452   -7.9919143    249.43403  0.014394854  0.013310965          115 
 1445000   0.67225956   -7.9568047    249.23019  0.014373137  0.013297952           46 
 1446000   0.67222178   -7.9814551    248.88232  0.014343149  0.013284978           55 
 1447000   0.68561293   -7.9610059    249.41238  0.014363763  0.013272004          127 
 1448000   0.67518326   -7.9693519    249.19784  0.014341496  0.013259078          135 
 1449000   0.68345934   -7.9532458    249.65849  0.014358091  0.013246129          132 
 1450000   0.67552431   -7.9517336    249.67192  0.014348961   0.01323321           97 
 1451000   0.68032689   -7.9741419    250.10994  0.014364228    0.0132203          142 
 1452000   0.68798631    -7.970699    249.41782  0.014314613   0.01320738          223 
 1453000   0.66454311   -7.9363411    249.96484  0.014336135  0.013194519          203 
 1454000   0.66690092   -7.9599125    249.33331   0.01429008  0.013181624          129 
 1455000   0.66911873    -7.969534    248.96401  0.014259107  0.013168724          199 
 1456000   0.65719631    -7.967615    249.06281  0.014254969  0.013155862          168 
 1457000   0.67058267   -7.9868443    248.97126  0.014239949  0.013142981          156 
 1458000   0.67953188   -7.9812403    249.76914  0.014275785  0.013130136          116 
 1459000   0.67303593    -7.985158    248.73467  0.014206915  0.013117288          195 
 1460000   0.67274827   -7.9814043    249.55508  0.014244011  0.013104488          182 
 1461000   0.67080113     -7.98939    249.71696  0.014243496  0.013091684           65 
 1462000   0.66713609   -7.9692136    249.07635  0.014197238  0.013078888          112 
 1463000   0.66590221   -7.9716799    249.58251  0.014216366  0.013066103           73 
 1464000   0.67403012   -7.9749282    249.06189   0.01417702  0.013053339          140 
 1465000    0.6648982   -7.9738147    249.82386  0.014210686  0.013040591           68 
 1466000   0.68133302   -7.9647206    249.77833  0.014198404  0.013027856          136 
 1467000   0.66001085    -7.988378    249.28981  0.014160975  0.013015134          117 
 1468000   0.67736772    -7.996461    249.29312  0.014151517  0.013002425          157 
 1469000   0.65475231   -7.9997557    248.97032  0.014123571  0.012989711           99 
 1470000   0.66598559    -8.008038    249.05289  0.014118644  0.012977033          153 
 1471000   0.66389562   -7.9889491    249.37091  0.014127063  0.012964372           84 
 1472000   0.65427525   -8.0038718    248.93014  0.014092512  0.012951712          107 
 1473000   0.67622912   -7.9755434    249.23869  0.014100401  0.012939066           94 
 1474000   0.67188073   -8.0023068    249.43335   0.01410184  0.012926452          129 
 1475000   0.65893766   -8.0004611     249.6431   0.01410413  0.012913835          117 
 1476000   0.66328834   -8.0032284    249.37821  0.014079619  0.012901224           76 
 1477000   0.66586644   -7.9707767    248.76796  0.014035655  0.012888598          155 
 1478000    0.6722452    -7.976402    249.07968  0.014043735  0.012875993          139 
 1479000   0.66659005    -7.992773     249.2838   0.01404574  0.012863412          168 
 1480000   0.66709817   -7.9955615     249.3249  0.014038564  0.012850847          154 
 1481000   0.65447055   -8.0044966     249.1995  0.014022029  0.012838271          117 
 1482000   0.64949428   -7.9922011    249.09676   0.01400679   0.01282572          100 
 1483000    0.6664075   -8.0054618    249.02206  0.013993148  0.012813204          120 
 1484000   0.65123474   -7.9992467    248.51655  0.013955332  0.012800655           76 
 1485000   0.66812915   -8.0023688    249.18262  0.013983312  0.012788126           43 
 1486000   0.66493935   -8.0202385      248.597  0.013941061  0.012775608          111 
 1487000   0.64562979   -7.9721469    248.82807  0.013944635  0.012763098          165 
 1488000   0.64895571   -7.9730353    249.27364  0.013960217  0.012750615           68 
 1489000   0.67271655   -8.0003764    249.26436  0.013950322  0.012738145          128 
 1490000    0.6599188   -8.0005248    248.88259  0.013919608  0.012725682          153 
 1491000   0.66077849   -7.9890752    248.82657  0.013907141  0.012713268           94 
 1492000   0.66994855   -7.9938193    248.59391  0.013884825  0.012700843           79 
 1493000   0.65358039   -7.9954091    248.95395  0.013895621  0.012688424           79 
 1494000   0.65842311   -8.0311236    248.77228  0.013876187  0.012676018          159 
 1495000   0.67857425   -8.0368807    248.96343   0.01387756  0.012663637          162 
 1496000   0.64729344     -8.02793    248.61381  0.013848808  0.012651269           62 
 1497000   0.66872302   -8.0240537    249.38783  0.013882645  0.012638922           63 
 1498000   0.66933876   -8.0071401    248.87277  0.013844725   0.01262658          161 
 1499000   0.67152148   -8.0330221     248.5668  0.013818479  0.012614282           89 
 1500000   0.65549362   -8.0095046     248.5891  0.013810506  0.012601955           48 
 1501000   0.64696657   -8.0217624    248.89569  0.013818326  0.012589646          109 
 1502000   0.65001497   -8.0479567    248.99221  0.013814481  0.012577353          113 
 1503000   0.65477817   -8.0276658    249.01778  0.013806708  0.012565077          146 
 1504000    0.6607027   -8.0050012    248.67391  0.013778475  0.012552818           60 
 1505000   0.65529096   -8.0205897    248.55119  0.013762524   0.01254056           52 
 1506000   0.64864804   -8.0187988    249.18706  0.013788571  0.012528333           73 
 1507000   0.65403398   -8.0220239    248.70387  0.013752702   0.01251614           87 
 1508000   0.64792355   -8.0347002    248.60279  0.013737997  0.012503934          185 
 1509000   0.62961417   -8.0285766    248.97699  0.013749558  0.012491722          184 
 1510000   0.65559521   -8.0504277    248.49367  0.013713779  0.012479525           54 
 1511000    0.6511859    -8.030043    248.75823  0.013719293  0.012467358          118 
 1512000   0.64810197   -8.0506056    248.76953  0.013710843  0.012455219           55 
 1513000   0.65307494   -8.0124265    248.26417  0.013673946  0.012443058          129 
 1514000   0.64335503   -8.0470383    248.60449  0.013683647  0.012430942          146 
 1515000   0.65001741   -8.0248485    248.37174  0.013661812  0.012418822           94 
 1516000   0.64106735   -8.0324424    248.47187  0.013658304  0.012406735          139 
 1517000   0.66630576   -8.0176424    248.85741   0.01367048   0.01239467          180 
 1518000   0.65013741   -8.0294474    248.39432  0.013636052    0.0123826           95 
 1519000   0.64744565   -8.0179493    249.06664  0.013663959  0.012370552          216 
 1520000   0.63654395   -8.0217748    247.98043  0.013595418  0.012358529          159 
 1521000    0.6543205   -8.0469536    248.19702  0.013598346  0.012346507          180 
 1522000   0.63908603   -8.0202956    248.54227  0.013608315  0.012334517          204 
 1523000   0.65049339    -8.005795    249.06852  0.013628175  0.012322551           48 
 1524000   0.64716918   -8.0176069    249.10698  0.013621335  0.012310587          132 
 1525000   0.63985807   -8.0259181     248.9222  0.013602306  0.012298682          149 
 1526000   0.63237626   -8.0284727    249.23969   0.01361073  0.012286763          294 
 1527000   0.64586695   -8.0452225    248.81478  0.013578628  0.012274838          160 
 1528000   0.63816728   -8.0347484    248.99404  0.013579518  0.012262932          121 
 1529000    0.6410108   -8.0592707    248.57501  0.013547799  0.012251032          198 
 1530000   0.63109695   -8.0103431    249.17127   0.01357142   0.01223915          154 
 1531000   0.64721862    -8.049966      248.377  0.013519323  0.012227276          328 
 1532000   0.64308836   -8.0248235      248.434  0.013513599  0.012215414          194 
 1533000   0.63757943   -8.0558255    248.89616  0.013529906  0.012203569          210 
 1534000   0.65551199   -8.0285536    248.93216  0.013523042  0.012191725          194 
 1535000     0.652531   -8.0595661    248.63455  0.013498076  0.012179902          130 
 1536000   0.64788836   -8.0824937    248.56715  0.013485631  0.012168056          186 
 1537000   0.64535394   -8.0614378    248.44664  0.013470323  0.012156253          181 
 1538000   0.64032075   -8.0419693    248.33544   0.01345554  0.012144462          119 
 1539000   0.64366197   -8.0581786    248.49782  0.013455589  0.012132686           74 
 1540000   0.63279498   -8.0368772    248.75912  0.013460991  0.012120911          162 
 1541000   0.62110929   -8.0436913    248.16757  0.013420267  0.012109152          143 
 1542000   0.63845855   -8.0609007    248.48321  0.013428621  0.012097383          109 
 1543000   0.63019744   -8.0516988    248.62379  0.013427511  0.012085645          319 
 1544000   0.62618272   -8.0463806    248.24432  0.013398333  0.012073932          262 
 1545000    0.6378425   -8.0868046    247.90741  0.013371489   0.01206221          182 
 1546000   0.64492504   -8.0658639    248.41321  0.013390104  0.012050504           94 
 1547000   0.63782486   -8.0913187    247.75403   0.01334594  0.012038774          135 
 1548000   0.63035743   -8.0572545    248.60855   0.01338332  0.012027073          224 
 1549000   0.63559545   -8.0645766    248.15631   0.01335035  0.012015394          154 
 1550000   0.64703944   -8.0629027    248.04748  0.013335886  0.012003715          174 
 1551000   0.63660889   -8.0845884     247.7311  0.013310289  0.011992061          254 
 1552000   0.62983508   -8.0541751    248.01742  0.013317087  0.011980426          202 
 1553000   0.62454244   -8.0543881    248.27466  0.013322315  0.011968805           48 
 1554000   0.63885088   -8.0781735    248.40311   0.01332063  0.011957204          208 
 1555000   0.62895283    -8.071924    247.84108  0.013281944  0.011945611          113 
 1556000   0.63252808    -8.042689    248.05984  0.013285124  0.011934014           60 
 1557000   0.63482661   -8.0747868    247.63786  0.013254007  0.011922441          243 
 1558000   0.63632286   -8.0859677    248.05685   0.01326791  0.011910873          272 
 1559000   0.62548093   -8.1006504    247.77921  0.013244559  0.011899311          129 
 1560000   0.63952208   -8.0684004    248.16438  0.013256644  0.011887754          124 
 1561000   0.63420202   -8.0718549    248.28391  0.013254533  0.011876232          189 
 1562000   0.64798331   -8.0956223    248.12615  0.013237631   0.01186475          200 
 1563000   0.63120929   -8.0759621    248.33267  0.013240172  0.011853247          265 
 1564000   0.63194733    -8.093477    247.82801  0.013204817  0.011841767          142 
 1565000   0.62972094   -8.0853243    248.13201  0.013212567  0.011830286          148 
 1566000   0.61939755   -8.0808248     247.9424   0.01319404  0.011818832           76 
 1567000   0.63699542   -8.0713861    248.46954  0.013213653  0.011807379          136 
 1568000   0.62631409   -8.0910597     248.3264  0.013197619  0.011795984          266 
 1569000   0.63764387   -8.0812445    247.93802   0.01316858  0.011784573           97 
 1570000   0.62111027   -8.0723146    248.08359  0.013167919  0.011773192          204 
 1571000   0.63110816   -8.0693447    248.27648  0.013169769    0.0117618          318 
 1572000   0.62891641   -8.0889411    247.83171  0.013137813   0.01175042          202 
 1573000   0.62614825   -8.0896111    248.11521   0.01314448  0.011739052          197 
 1574000    0.6324361   -8.0831505    248.42449  0.013152504  0.011727709          131 
 1575000    0.6315489    -8.095242    247.75921  0.013108953  0.011716373          195 
 1576000   0.62475609   -8.0924507    247.99894  0.013113311  0.011705047          194 
 1577000   0.64173097   -8.0951505    247.53873  0.013080677  0.011693732           93 
 1578000   0.61418644   -8.0894655    248.26749  0.013110873  0.011682414          190 
 1579000   0.61300806   -8.0902594    248.18866  0.013098409  0.011671113          188 
 1580000   0.62699401   -8.1030576    247.83628  0.013071534  0.011659839          147 
 1581000   0.61881316   -8.0849429    248.42742  0.013094424  0.011648567          110 
 1582000   0.62485778   -8.0976415    247.95811  0.013061426  0.011637326          228 
 1583000   0.60873714   -8.0968938    247.69791  0.013039477  0.011626076          162 
 1584000   0.63422286   -8.0740361      247.798  0.013036511  0.011614837          158 
 1585000   0.62430076   -8.0968586    247.78534   0.01302762  0.011603632          138 
 1586000   0.60428572    -8.070712    248.46981   0.01305537  0.011592428          168 
 1587000   0.61420857   -8.0957386    247.94617  0.013019648  0.011581243           76 
 1588000   0.62235202   -8.1009545    247.84207  0.013005986  0.011570082           90 
 1589000   0.60721672   -8.1031892    247.80135  0.012995665  0.011558928          211 
 1590000   0.60268388   -8.1319947    247.78441  0.012986604  0.011547767          343 
 1591000   0.61690759   -8.0919258    247.73835  0.012976029  0.011536628          114 
 1592000   0.62588451   -8.1119806    248.02563  0.012982916  0.011525505          280 
 1593000   0.62258458   -8.1194344    247.97043  0.012971878  0.011514389          136 
 1594000   0.60959206    -8.112582    247.62842   0.01294586  0.011503274          144 
 1595000    0.6156121   -8.1187933    247.85941  0.012949812  0.011492171          166 
 1596000   0.60860767   -8.1163373    247.74463  0.012935706  0.011481075          137 
 1597000   0.60361715   -8.1209731    247.83645  0.012932396  0.011469989          400 
 1598000   0.61994205   -8.1040942    247.97487  0.012931522  0.011458918          298 
 1599000   0.61057851   -8.1240224    248.13328  0.012931691  0.011447853          211 
 1600000    0.6254334   -8.1345403    247.66732   0.01289934  0.011436809          220 
 1601000   0.59414828    -8.120261    247.04334  0.012858804  0.011425763          142 
 1602000    0.6050168   -8.1297095    247.45015  0.012871939  0.011414724          130 
 1603000   0.60452625   -8.1203668    247.55663  0.012869444  0.011403699          212 
 1604000   0.61097828   -8.1059786     248.1899  0.012894321  0.011392684          227 
 1605000   0.62868181    -8.120159    247.60253  0.012855791  0.011381692           98 
 1606000   0.61258369   -8.1279392    247.81149  0.012858628  0.011370697          112 
 1607000   0.61852895   -8.1221265    247.20546    0.0128192  0.011359726          148 
 1608000   0.59919041   -8.1345153    246.88954  0.012794856  0.011348772          176 
 1609000    0.6268132   -8.1187407     247.4317  0.012814983  0.011337818          333 
 1610000   0.60435833   -8.1282873    247.72781   0.01282235  0.011326896          363 
 1611000   0.61055302   -8.1242688    247.09311   0.01278156  0.011315956          325 
 1612000   0.60052313   -8.1284876     247.5084  0.012795099  0.011305055          155 
 1613000   0.59560654   -8.1252577    247.36087  0.012779545  0.011294166          154 
 1614000   0.61647952   -8.1245483    247.67621  0.012787908  0.011283299          214 
 1615000   0.60571661   -8.1473081    247.56847  0.012774431  0.011272421          286 
 1616000   0.60460028   -8.1232658    247.39082  0.012757365  0.011261561          145 
 1617000   0.58976834   -8.1497341    247.74792  0.012767879   0.01125073          216 
 1618000   0.60927945   -8.1172464    247.25161  0.012734426  0.011239884          122 
 1619000   0.60211536   -8.1182518    247.58155  0.012743543   0.01122908          307 
 1620000   0.62633523   -8.1259136    248.08241  0.012761441  0.011218275          224 
 1621000   0.60430765   -8.1478623    247.58525   0.01272801  0.011207496          144 
 1622000   0.60597889   -8.1351509    247.47809  0.012714657   0.01119672          330 
 1623000   0.60849977   -8.1220991    247.33546    0.0126995  0.011185952          229 
 1624000   0.60896458   -8.1394412    247.44439   0.01269727  0.011175201          245 
 1625000   0.60979999   -8.1382987    246.95371  0.012664293  0.011164458          144 
 1626000   0.60804783    -8.133501    247.44198  0.012681528  0.011153718          212 
 1627000    0.6067208    -8.143921    247.44206  0.012673738  0.011142981          261 
 1628000   0.60491524   -8.1246736     247.4658  0.012667168  0.011132254          152 
 1629000   0.59877175   -8.1326744     247.3479  0.012653361  0.011121565          147 
 1630000   0.61142072   -8.1225054    247.07619  0.012631707  0.011110879          283 
 1631000   0.60798386   -8.1327332    247.47964  0.012644576  0.011100206          201 
 1632000   0.59357996   -8.1279175    247.30923  0.012628127  0.011089549          197 
 1633000   0.59433432   -8.1458467    246.97732  0.012603456  0.011078902          119 
 1634000   0.60203383   -8.1301228    247.31495  0.012612961  0.011068271          144 
 1635000    0.5878358   -8.1427908    247.40989  0.012610086  0.011057635          129 
 1636000    0.6008473   -8.1349036    247.25798   0.01259464  0.011047014          144 
 1637000   0.58718021   -8.1463478     247.1808  0.012583018  0.011036398          141 
 1638000   0.59235598   -8.1428443    246.93106   0.01256263  0.011025802          217 
 1639000    0.5962026   -8.1427913    247.18726  0.012567992  0.011015238          178 
 1640000   0.60268648   -8.1441835    247.28148  0.012565116  0.011004676          259 
 1641000    0.5992814   -8.1302439    247.10041  0.012548264  0.010994118          380 
 1642000   0.60886314   -8.1297024    247.33839  0.012552699  0.010983585          110 
 1643000   0.60575883   -8.1469807    247.30411  0.012543321  0.010973048          236 
 1644000     0.600909   -8.1565266    246.75681  0.012507949  0.010962506          334 
 1645000   0.60810844   -8.1416677    247.35856  0.012530829  0.010951994          205 
 1646000   0.58545056   -8.1472067    247.18303  0.012514329  0.010941503          183 
 1647000   0.60710707   -8.1607508    246.74641  0.012484639  0.010931008          180 
 1648000    0.6032875   -8.1427512    247.14493  0.012497215  0.010920527          157 
 1649000   0.59654352   -8.1484015    247.41536  0.012503303  0.010910066          268 
 1650000   0.59410407    -8.140458    247.01732  0.012475622  0.010899616          245 
 1651000   0.59983747   -8.1721845    246.67753  0.012450915  0.010889183          238 
 1652000   0.59045507   -8.1565162    247.22923  0.012471208  0.010878768          279 
 1653000   0.60254461   -8.1511464    247.04009  0.012454128  0.010868346          123 
 1654000   0.59277822   -8.1581711    247.12592  0.012450923   0.01085794          298 
 1655000   0.58596785   -8.1586323    246.90331  0.012432191  0.010847556          137 
 1656000    0.5925436   -8.1489395    246.98235  0.012428661  0.010837158          285 
 1657000   0.60179181   -8.1628577    247.02969  0.012423541  0.010826778          113 
 1658000   0.58914701   -8.1659528    246.54624  0.012391749   0.01081641          341 
 1659000   0.58965898   -8.1685831    247.17565  0.012415895  0.010806059          144 
 1660000   0.58345478   -8.1588855    247.05983  0.012402602  0.010795712          303 
 1661000   0.58327794   -8.1575472    247.10233  0.012397267   0.01078539          161 
 1662000   0.59115936   -8.1658677    247.21635  0.012395525   0.01077508          112 
 1663000   0.59308219   -8.1672298    246.88992  0.012371714  0.010764772          272 
 1664000   0.59501919    -8.169934    246.40659  0.012340074  0.010754488          175 
 1665000   0.57600169   -8.1871233    246.99272  0.012361998  0.010744188          130 
 1666000   0.58614089    -8.193593    246.52612  0.012331238  0.010733893          295 
 1667000   0.60326836   -8.1678267    246.68641  0.012331854  0.010723627          101 
 1668000   0.59166999   -8.1793927    246.37586  0.012308946  0.010713372           55 
 1669000   0.59814198   -8.1775965    246.72671  0.012319089  0.010703146           98 
 1670000   0.58407425   -8.1666913    246.58638   0.01230471  0.010692922          202 
 1671000    0.5827148   -8.1616509    246.91866  0.012313917  0.010682691          358 
 1672000    0.5865846   -8.1965732    246.50007  0.012285689  0.010672476          135 
 1673000   0.58226394   -8.1769712    246.62431  0.012284534  0.010662279          204 
 1674000   0.57016447   -8.1847867    246.45998  0.012269015  0.010652091          109 
 1675000   0.58404117   -8.1835089    246.80982  0.012279095  0.010641922          135 
 1676000   0.58148687   -8.1607872    246.51322  0.012257022  0.010631763          123 
 1677000   0.59717857   -8.1822662    246.77763  0.012262852  0.010621615          229 
 1678000   0.59045273   -8.1865499     246.7974  0.012256526  0.010611486          277 
 1679000   0.59680579   -8.1960117    246.47253  0.012233102  0.010601367          213 
 1680000   0.57848441   -8.2049248     246.6383  0.012234043  0.010591257          187 
 1681000   0.57885679   -8.1944452    246.35588  0.012212764  0.010581165          326 
 1682000   0.57772651   -8.1774003    247.13347  0.012244028  0.010571078          163 
 1683000    0.5705237   -8.1997869    246.06629  0.012183912  0.010561002          195 
 1684000   0.57400755   -8.2000621    246.64018  0.012205076  0.010550932          240 
 1685000   0.58763829   -8.1932466    246.92993  0.012212163   0.01054088          328 
 1686000   0.57795432   -8.1820084    246.15137  0.012166438  0.010530827          137 
 1687000   0.57253813   -8.1673405    246.67917  0.012185298  0.010520815           94 
 1688000   0.57735014   -8.1948108     246.4742   0.01216796  0.010510795          188 
 1689000   0.58047036     -8.17394    246.90582  0.012182052  0.010500801           93 
 1690000   0.56901529   -8.1695524    246.72164  0.012165761   0.01049082          235 
 1691000   0.58221252   -8.1848919    246.36329  0.012140907  0.010480834          243 
 1692000   0.58260308   -8.1950893    246.44314  0.012137665  0.010470867          345 
 1693000   0.57771554   -8.2034051    246.43836   0.01213026  0.010460899          152 
 1694000   0.57671606   -8.2073655    246.51064  0.012126655  0.010450952          331 
 1695000   0.57220482   -8.1873954    246.54016  0.012120952  0.010441011          344 
 1696000    0.5921004   -8.1955924      246.635  0.012118465  0.010431077          126 
 1697000   0.56782967   -8.2005701     246.2992  0.012094834  0.010421171          123 
 1698000   0.59140119   -8.1871747    246.53687  0.012099375  0.010411272          307 
 1699000   0.56770349   -8.1932446    246.21764  0.012076596   0.01040139          221 
 1700000   0.59444622   -8.1945193    246.41174  0.012079007  0.010391532          137 
 1701000   0.56525762   -8.1772754    246.98126  0.012099807  0.010381672          119 
 1702000   0.58340138   -8.2009471    246.60082  0.012074071  0.010371811          253 
 1703000   0.57192521   -8.1831428    246.51611  0.012062836  0.010361975          249 
 1704000   0.56600379   -8.2009157    246.75872  0.012067621  0.010352149          206 
 1705000   0.56716146   -8.1807355    246.85698  0.012065346  0.010342324          151 
 1706000   0.57297245   -8.1961484    246.31111   0.01203161  0.010332514          202 
 1707000   0.56599051    -8.216576     246.4184  0.012029799  0.010322715          171 
 1708000   0.57730142   -8.1902035    246.79222  0.012040994  0.010312927          156 
 1709000   0.56058764   -8.1967435    246.44926  0.012017225  0.010303153          165 
 1710000   0.57552008   -8.2058469    246.09714  0.011993038  0.010293404          258 
 1711000   0.56992207   -8.1898934    246.75057  0.012017853  0.010283677          183 
 1712000   0.56259894   -8.2076787    246.39769  0.011993657  0.010273943          192 
 1713000   0.55766957   -8.2022949    246.05774  0.011970118  0.010264218          142 
 1714000   0.56523247   -8.1912439    246.60418  0.011989701  0.010254504          452 
 1715000   0.55536528   -8.2111135    246.45582  0.011975501  0.010244817          342 
 1716000   0.55863857    -8.206465    246.66354   0.01197861  0.010235119          469 
 1717000   0.57037378   -8.2076609    246.24458    0.0119513   0.01022544          277 
 1718000   0.56347631   -8.2132042    245.98586  0.011931794  0.010215761          204 
 1719000   0.56788967   -8.2121444    246.67159  0.011958095  0.010206108          169 
 1720000   0.56906793   -8.1995086      246.264  0.011931395  0.010196458          190 
 1721000   0.56411606   -8.2041688    246.23564  0.011923089  0.010186822          200 
 1722000   0.56509226   -8.2036878    245.82159  0.011896128   0.01017719          264 
 1723000     0.572143   -8.2236307      245.894  0.011892726  0.010167585          199 
 1724000   0.57200184   -8.2165782    246.10697  0.011896122  0.010157978          185 
 1725000   0.58402871   -8.2155992    246.51803  0.011909084  0.010148394          358 
 1726000   0.56786769   -8.2187007     246.2728  0.011890344  0.010138825          354 
 1727000   0.55760002   -8.2156538    246.58264   0.01189841   0.01012926          263 
 1728000   0.55447651   -8.2188584    246.14641  0.011870487  0.010119696          121 
 1729000   0.57550469   -8.1877648    246.10896  0.011861816  0.010110156          447 
 1730000   0.56167479   -8.2243258    246.07141  0.011853151   0.01010064          395 
 1731000   0.56408633   -8.2185926    246.34563  0.011859505  0.010091121          136 
 1732000   0.56654139   -8.2248461     246.2237  0.011846791  0.010081607          371 
 1733000    0.5649373   -8.2066632    245.52138  0.011806183  0.010072101          304 
 1734000   0.54823624   -8.2255412    246.17159  0.011830622  0.010062619          330 
 1735000   0.56508547   -8.2084403    246.19365  0.011824863   0.01005314          262 
 1736000   0.54195384   -8.2476007    246.22167  0.011819397  0.010043674          382 
 1737000   0.55994375   -8.2300205    246.25372   0.01181413  0.010034216          352 
 1738000   0.56436564   -8.2396542     246.2869  0.011808923  0.010024774          305 
 1739000   0.56711227   -8.2106665    245.93173  0.011785113  0.010015347          159 
 1740000   0.55860664   -8.2391212    245.94101  0.011778784  0.010005919          241 
 1741000   0.55153817   -8.2278009    246.39621  0.011793807 0.0099965122          327 
 1742000   0.55027466   -8.2380332    246.28852  0.011781885 0.0099871152          321 
 1743000    0.5499238   -8.2067283    246.17135  0.011769523  0.009977726          245 
 1744000   0.55090598   -8.2018332    245.94596  0.011752005 0.0099683476          346 
 1745000   0.54698244   -8.2181109    246.29186  0.011761789 0.0099589827          507 
 1746000   0.55410685   -8.2298473    245.86679  0.011734765 0.0099496343          225 
 1747000   0.56691562   -8.2158429    246.16672  0.011742355 0.0099402919          323 
 1748000   0.54786258   -8.2349668    246.13527  0.011734137 0.0099309633          239 
 1749000   0.55657162   -8.2298298    246.14125  0.011727713 0.0099216438          388 
 1750000   0.56368639   -8.2467778    245.91512  0.011710244 0.0099123378          384 
 1751000    0.5609075   -8.2384527    245.87482  0.011701638 0.0099030489          337 
 1752000   0.54444082   -8.2121453     246.3239   0.01171632 0.0098937626          177 
 1753000   0.55569033   -8.2429633    246.22409  0.011704891 0.0098844856          172 
 1754000   0.54995309   -8.2499861    246.20943  0.011697521 0.0098752259          430 
 1755000   0.54838473   -8.2413178    246.04525   0.01168306 0.0098659791          266 
 1756000   0.56612356   -8.2453958    245.80893  0.011665192  0.009856747          327 
 1757000   0.55649423   -8.2347968    246.35529  0.011684467 0.0098475082          208 
 1758000   0.56914738   -8.2441671    246.05258  0.011663471 0.0098382806          144 
 1759000   0.55317861   -8.2241435    245.62716  0.011636685 0.0098290654          264 
 1760000    0.5480314   -8.2164829    246.18963  0.011656706 0.0098198517          210 
 1761000   0.55128631   -8.2498356    245.79025  0.011631187 0.0098106531          396 
 1762000   0.55575095   -8.2449527    245.55514  0.011613467  0.009801464          226 
 1763000   0.55556698   -8.2586236    245.78902  0.011617934 0.0097922905          340 
 1764000   0.54872083   -8.2358251    245.61362  0.011603062 0.0097831269          114 
 1765000   0.55795336   -8.2351707    245.78537  0.011604597 0.0097739861          125 
 1766000    0.5451436   -8.2564245    246.06085  0.011611026  0.009764848          304 
 1767000   0.55277837   -8.2440472    246.15538  0.011608912 0.0097557142          357 
 1768000    0.5514684   -8.2466871    246.32179   0.01161019 0.0097465964          304 
 1769000   0.55218574   -8.2549772    245.69746  0.011574216 0.0097374845          403 
 1770000   0.54361865   -8.2383115    246.11714  0.011587436 0.0097283957          245 
 1771000   0.54446825   -8.2230915    246.09927  0.011580052 0.0097193133          162 
 1772000   0.53910972    -8.260525    245.86088  0.011562306 0.0097102369          250 
 1773000    0.5396028   -8.2394417     245.8308  0.011554371 0.0097011767          302 
 1774000   0.53518745   -8.2336513    245.68138  0.011540839   0.00969212          337 
 1775000   0.53402051   -8.2241452    245.49109  0.011525403  0.009683074          343 
 1776000   0.53816481   -8.2476325    245.65849  0.011526768 0.0096740482          443 
 1777000   0.54451554    -8.254906    246.01335  0.011536923 0.0096650312          173 
 1778000   0.54452392   -8.2436199    245.85777  0.011523143 0.0096560277          158 
 1779000   0.54894839   -8.2369161    245.77916  0.011512983 0.0096470243          416 
 1780000   0.53821076   -8.2581339    245.65899  0.011500889 0.0096380312          555 
 1781000   0.54591104   -8.2707344    245.55858  0.011489733 0.0096290531          464 
 1782000   0.54101512   -8.2620926    245.43772  0.011477634 0.0096200714          244 
 1783000   0.53775176   -8.2448804    245.97462   0.01149629 0.0096111027          501 
 1784000    0.5430354   -8.2632813    245.76946  0.011480262 0.0096021419          389 
 1785000   0.53597783   -8.2442985    245.52622  0.011462475 0.0095931977          390 
 1786000   0.54807377   -8.2683891     245.3547  0.011448054 0.0095842641          416 
 1787000   0.52100263   -8.2599514    245.88441   0.01146635 0.0095753443          482 
 1788000   0.53285366    -8.261224    245.74484  0.011453432 0.0095664393          406 
 1789000   0.53781029   -8.2323949    245.72791  0.011446241 0.0095575352          369 
 1790000   0.54376254   -8.2671561    245.69012  0.011438087 0.0095486517          251 
 1791000   0.53827487   -8.2513033    245.52325  0.011423937 0.0095397783          475 
 1792000   0.52832697    -8.269955    245.48675  0.011415865 0.0095309181          400 
 1793000    0.5345797   -8.2578489    245.78025  0.011423139 0.0095220644          349 
 1794000   0.53843882   -8.2560879    245.83789  0.011419449 0.0095132233          374 
 1795000   0.53454817   -8.2543966    245.49897  0.011397352 0.0095043898          311 
 1796000   0.54804343   -8.2528446    245.63381  0.011397263 0.0094955638          348 
 1797000   0.53379549   -8.2749101    245.30953  0.011375883 0.0094867526          352 
 1798000   0.54255167   -8.2627801    245.61173  0.011383562 0.0094779374          351 
 1799000   0.53659564   -8.2573199     245.5326  0.011373569 0.0094691434          445 
 1800000   0.53939045   -8.2692787    245.19438  0.011351592 0.0094603481          355 
 1801000   0.52728311    -8.266318    245.57667  0.011362977 0.0094515819          518 
 1802000   0.52400216    -8.268721    245.36402  0.011346838  0.009442813          456 
 1803000   0.53276421   -8.2575099    245.59932   0.01135142 0.0094340629          334 
 1804000   0.52982311   -8.2902802    245.11939  0.011322958 0.0094253044          464 
 1805000   0.53618906   -8.2737672    245.31142   0.01132555 0.0094165636          397 
 1806000   0.53848824   -8.2669922    245.51061   0.01132847 0.0094078442          356 
 1807000    0.5377838   -8.2666233    245.39127  0.011316697 0.0093991168          588 
 1808000   0.54140581   -8.2770707    245.36538  0.011309245 0.0093904078          288 
 1809000    0.5333257   -8.2719456    245.45207  0.011306987 0.0093817118          440 
 1810000   0.52598007   -8.2715957    245.62066  0.011308502 0.0093730229          427 
 1811000   0.52425577   -8.2689058    245.49297  0.011296382 0.0093643462          346 
 1812000   0.53229097   -8.2610657    245.29191  0.011280901 0.0093556838          448 
 1813000   0.53339888   -8.2653512    245.33154    0.0112765 0.0093470351          476 
 1814000   0.53226454   -8.2783268    245.56173  0.011280858  0.009338392          438 
 1815000   0.53020884   -8.2593457    245.56147  0.011274631 0.0093297626          424 
 1816000   0.53092106   -8.2699622    245.16935  0.011250429 0.0093211417          474 
 1817000   0.53123381   -8.2739526       245.49  0.011258944 0.0093125315          542 
 1818000   0.52476862   -8.2805308    245.57125  0.011256475 0.0093039265          427 
 1819000   0.52300366   -8.2872152    245.52474  0.011248156 0.0092953268          269 
 1820000   0.51764192   -8.2870122    245.37664  0.011235194 0.0092867445          373 
 1821000   0.53188584   -8.2769309    245.70633  0.011244112 0.0092781673          304 
 1822000   0.53213419   -8.2798877    245.19163  0.011214399 0.0092696098          524 
 1823000   0.51774971    -8.298311    245.31973  0.011214104 0.0092610582          599 
 1824000   0.51635477   -8.2707822    245.18029  0.011201585 0.0092525138          425 
 1825000   0.52162266   -8.2909697    245.21719  0.011197132  0.009243989          253 
 1826000   0.52138873   -8.2829655    245.20393  0.011190395 0.0092354657          568 
 1827000    0.5253771   -8.2886465    245.32253  0.011189679 0.0092269555          411 
 1828000   0.52478718   -8.2804374    245.52105  0.011192608 0.0092184609          379 
 1829000   0.52746096   -8.2958164    245.26772  0.011174946 0.0092099683          341 
 1830000   0.52507776   -8.2986238    244.94581  0.011154181 0.0092014815          459 
 1831000   0.51421056   -8.2828031    245.09324  0.011154799 0.0091930125          526 
 1832000   0.51861998   -8.2913971    245.22195  0.011154565 0.0091845449          322 
 1833000   0.50902535   -8.2698253    245.64864  0.011167878  0.009176083          543 
 1834000   0.52156587   -8.2983108    245.33607  0.011147586 0.0091676474          504 
 1835000   0.51972995   -8.3081511    244.95197  0.011124068 0.0091592064          335 
 1836000   0.51539646   -8.2861626    245.24929  0.011131504 0.0091507802          435 
 1837000   0.51565344   -8.3023223    245.12845  0.011119963 0.0091423722          426 
 1838000   0.53392424   -8.3078746    244.86844  0.011102124 0.0091339737          532 
 1839000   0.52678814   -8.2860308    244.92778  0.011098776 0.0091255782          421 
 1840000   0.51451331   -8.3010477     245.5291  0.011119977 0.0091172002          485 
 1841000   0.52188023    -8.301449    245.38738  0.011107522 0.0091088192          370 
 1842000   0.51555621   -8.3079988    244.82132  0.011075883 0.0091004609          432 
 1843000   0.52121074   -8.2958263     245.3633   0.01109438 0.0090921121          466 
 1844000   0.52400187   -8.3008933    244.89333  0.011067124  0.009083773          311 
 1845000   0.51382686   -8.2936061    245.12508  0.011071594 0.0090754432          396 
 1846000   0.52189984   -8.2899964    245.40001  0.011078007 0.0090671306          427 
 1847000   0.51696222   -8.2891278    245.23375  0.011064508 0.0090588237          490 
 1848000   0.52495999   -8.2861713     244.9232  0.011044517 0.0090505213          518 
 1849000   0.49962121   -8.2782123    245.25331  0.011053421 0.0090422276          418 
 1850000   0.51038511   -8.2846664    245.27097  0.011048242 0.0090339393          287 
 1851000   0.52372777   -8.2861772    245.24197  0.011040967 0.0090256753          263 
 1852000   0.52467945   -8.3081035    245.06693  0.011027129 0.0090174254          287 
 1853000   0.50450312    -8.309223    244.86932  0.011012292 0.0090091758          239 
 1854000   0.50755281   -8.3073578    244.81424  0.011003876 0.0090009355          324 
 1855000   0.50774788   -8.3126267    244.70301  0.010992948 0.0089927034          574 
 1856000   0.51264551   -8.3052813    245.10203   0.01100494 0.0089844757          483 
 1857000   0.50816485   -8.3059459     245.0553  0.010996917 0.0089762583          343 
 1858000   0.50536948   -8.3153274    245.06063  0.010991237 0.0089680536          448 
 1859000   0.51080415   -8.2994038    245.04326  0.010984546 0.0089598703          402 
 1860000   0.50547174   -8.3230864    244.67852  0.010962299 0.0089516834          266 
 1861000   0.49933812    -8.315908    244.80393  0.010962024 0.0089435075          358 
 1862000   0.51214635   -8.2961446    245.11338  0.010969987 0.0089353415          262 
 1863000   0.50779546   -8.3087528    244.19188  0.010922879 0.0089271802          378 
 1864000   0.50700429   -8.3086881    245.08882  0.010957118 0.0089190276          378 
 1865000   0.50618707   -8.2995259    244.68295  0.010933108 0.0089108854          510 
 1866000    0.5036746   -8.3135172    244.96369  0.010939786 0.0089027606          609 
 1867000   0.50776132   -8.3173296    245.11241  0.010940565 0.0088946382          495 
 1868000   0.50438272   -8.3142472     245.1908  0.010938205 0.0088865263          372 
 1869000   0.50605899   -8.3022826    245.26921  0.010935849 0.0088784172          432 
 1870000    0.5042054   -8.2988797    245.09807  0.010922374 0.0088703209          430 
 1871000   0.51544382   -8.3023577    245.11759  0.010917406 0.0088622383          642 
 1872000   0.50739865   -8.3221835    245.08611  0.010910172 0.0088541644          330 
 1873000   0.49851103   -8.3031972    244.81033  0.010892077 0.0088461027          336 
 1874000    0.5087255   -8.3058418    244.83132  0.010887198 0.0088380541          457 
 1875000   0.50113862   -8.3258828     244.5391  0.010868405 0.0088300104          498 
 1876000   0.51110345   -8.3101412    244.76332  0.010872571 0.0088219712          315 
 1877000   0.50268032   -8.2949794    244.63219  0.010860957 0.0088139472          313 
 1878000   0.50075443   -8.3222841    244.59377  0.010853469 0.0088059313          449 
 1879000   0.50569433   -8.3111806    244.74934  0.010854592 0.0087979168          378 
 1880000   0.49645142   -8.3095072    245.22317  0.010869821 0.0087899155          389 
 1881000   0.50151039   -8.3289048    245.00045  0.010854175 0.0087819307          344 
 1882000   0.49796183   -8.3247097    244.64256  0.010832561 0.0087739522          538 
 1883000   0.50354941   -8.3123641    244.87615  0.010837146 0.0087659833          224 
 1884000   0.50119815   -8.3137901    244.44258  0.010812216 0.0087580205          399 
 1885000   0.50070414   -8.3119957    244.85257  0.010824605 0.0087500701          492 
 1886000   0.49907988   -8.3313853    244.45769  0.010801418 0.0087421329          203 
 1887000   0.51043835   -8.3128071    244.59014  0.010801543 0.0087341997          461 
 1888000    0.5037457   -8.3200983    244.34782  0.010785126 0.0087262771          387 
 1889000   0.50481071   -8.3231766    244.77659  0.010798332 0.0087183632          486 
 1890000   0.50185447   -8.3349692    244.86396  0.010796471 0.0087104603          502 
 1891000   0.49943192   -8.3369257    244.55862  0.010777306 0.0087025605          567 
 1892000   0.49071197   -8.3259502    244.64248  0.010775303 0.0086946806          636 
 1893000   0.50061261   -8.3109411    244.59452    0.0107675 0.0086868021          462 
 1894000   0.49533447    -8.311797    244.82032  0.010771749 0.0086789342          477 
 1895000    0.4983716   -8.3267661    244.66862  0.010759394 0.0086710793          247 
 1896000   0.49596383   -8.3255471    245.00679  0.010768583 0.0086632356          376 
 1897000   0.48890461   -8.3077095    245.05825  0.010765166  0.008655397          550 
 1898000   0.49141523   -8.3378172    244.68461   0.01074309 0.0086475651          547 
 1899000   0.48457488   -8.3343229    244.41995  0.010725818 0.0086397387          586 
 1900000   0.48725178   -8.3323704    245.25458   0.01075678 0.0086319274          402 
 1901000   0.49780649   -8.3484502    244.72486    0.0107279 0.0086241208          388 
 1902000   0.50108836   -8.3320157    244.55865  0.010714978 0.0086163266          525 
 1903000     0.498314   -8.3387161    244.69754  0.010715429 0.0086085355          562 
 1904000   0.48676549    -8.329821    244.57892   0.01070461 0.0086007576          420 
 1905000   0.48300009   -8.3234002    244.98763  0.010716869  0.008592989          594 
 1906000   0.48862702    -8.323848    244.83709  0.010704665 0.0085852351          477 
 1907000   0.48609801   -8.3297714    244.69959  0.010693043 0.0085774844          489 
 1908000   0.49057509   -8.3388888    244.64297  0.010684966 0.0085697496          451 
 1909000   0.48722519   -8.3456066    244.75569  0.010684289 0.0085620186          546 
 1910000    0.4925492   -8.3459779    244.45766  0.010665692 0.0085543002          595 
 1911000   0.49387177   -8.3362686    245.08733  0.010687569 0.0085465906          489 
 1912000   0.49654214    -8.341026    244.43999  0.010653765 0.0085388862          583 
 1913000   0.48656778   -8.3234558    244.55519  0.010653214 0.0085311933          315 
 1914000    0.4931104   -8.3268612    244.71381  0.010654555 0.0085235067          576 
 1915000   0.48784528   -8.3222489    245.22475  0.010671225 0.0085158343          495 
 1916000    0.4895355   -8.3427402    244.36889  0.010628431 0.0085081668          458 
 1917000   0.48238106   -8.3401211    244.55757  0.010631089 0.0085005144          493 
 1918000   0.49292043   -8.3336078    244.20928  0.010610414 0.0084928576          514 
 1919000   0.48735789   -8.3350257    244.11654  0.010600857  0.008485216          517 
 1920000    0.4842969   -8.3426958    244.42498  0.010608723 0.0084775872          582 
 1921000   0.48499258   -8.3242388    244.44083  0.010603888 0.0084699611          402 
 1922000   0.49932368   -8.3358962    244.30455  0.010592462 0.0084623489          604 
 1923000   0.48334397   -8.3493021    244.65846  0.010602291 0.0084547446          465 
 1924000   0.48443565   -8.3581757    244.38454  0.010584916 0.0084471545          445 
 1925000   0.48303168    -8.349234    244.32151  0.010576689  0.008439565          549 
 1926000   0.48404151   -8.3368452    244.37507  0.010573515 0.0084319805          429 
 1927000   0.48864138   -8.3430964    244.39371  0.010568834 0.0084244184          571 
 1928000   0.47625213   -8.3546448    244.62002  0.010573134   0.00841686          436 
 1929000   0.49267127   -8.3378998    244.82111   0.01057634 0.0084093098          383 
 1930000   0.47919947   -8.3500119    244.80266  0.010570063 0.0084017689          412 
 1931000   0.47697297   -8.3517154    244.30565   0.01054314  0.008394237          516 
 1932000   0.49340618   -8.3682997    244.33702  0.010539036  0.008386712          481 
 1933000   0.48389597   -8.3570972    244.49269  0.010540295 0.0083791983          456 
 1934000   0.49399093   -8.3470423    244.41752  0.010531607 0.0083716905          490 
 1935000   0.47809635   -8.3338406     244.4048  0.010525616 0.0083641877          542 
 1936000     0.475925    -8.346959    244.56802  0.010527205 0.0083566982          576 
 1937000   0.47236532    -8.349785    244.46817  0.010517474 0.0083492205          441 
 1938000   0.47254147   -8.3479727     244.3864  0.010508531 0.0083417522          488 
 1939000   0.47624684   -8.3712559    244.26883  0.010498059 0.0083342924          503 
 1940000   0.48389214   -8.3501634    244.91806  0.010520535 0.0083268396          614 
 1941000   0.47686615   -8.3445634    244.23095  0.010485615 0.0083193912          501 
 1942000   0.48189386   -8.3562605    244.48335  0.010491047 0.0083119564          561 
 1943000   0.47836495    -8.357051    244.80682  0.010499521 0.0083045235          440 
 1944000   0.47158509   -8.3458074    244.58434  0.010484583 0.0082971055          588 
 1945000   0.48256809   -8.3606858    244.48378  0.010474883 0.0082896928          425 
 1946000   0.46625504   -8.3542371    244.61813  0.010475254 0.0082822922          564 
 1947000   0.47872222   -8.3706369    244.29251  0.010455937 0.0082748993          492 
 1948000   0.47201912   -8.3610857    244.40261  0.010455279  0.008267524          573 
 1949000   0.47456945   -8.3558901    244.18405   0.01044057 0.0082601494          492 
 1950000   0.47514361   -8.3453321    244.21944  0.010436728 0.0082527879          637 
 1951000   0.47549031   -8.3498393    244.60207  0.010447722 0.0082454292          446 
 1952000   0.46472978   -8.3492062    244.75847  0.010449047 0.0082380785          631 
 1953000   0.47400123   -8.3552288    244.37293  0.010427246 0.0082307316          586 
 1954000   0.47548207   -8.3711296    243.96569  0.010404542 0.0082233974          560 
 1955000   0.47719612    -8.367062    244.13047  0.010406244 0.0082160695          513 
 1956000   0.45944106   -8.3501277    244.33015  0.010409431 0.0082087438          580 
 1957000   0.47002153    -8.363151    243.99882  0.010390003 0.0082014308          463 
 1958000   0.46471255   -8.3635487    244.43098  0.010403089 0.0081941296          426 
 1959000   0.48203672   -8.3763289    244.23904  0.010389614 0.0081868384          398 
 1960000   0.47601531   -8.3614577     244.4275  0.010392326 0.0081795477          364 
 1961000   0.47258404   -8.3751973    244.12581  0.010374206 0.0081722686          511 
 1962000   0.47843791   -8.3583009    244.05732  0.010366009 0.0081650031          476 
 1963000   0.46133619   -8.3721463    244.16864  0.010365454 0.0081577459          491 
 1964000   0.45624422   -8.3820445    244.27824  0.010364827  0.008150491          483 
 1965000   0.46752813   -8.3639573    244.38673  0.010364153 0.0081432476          491 
 1966000   0.47437009     -8.37385    244.02252  0.010343444 0.0081360101          558 
 1967000   0.46497094   -8.3736921    243.82726  0.010329913 0.0081287926          484 
 1968000   0.47173472   -8.3654817    243.82886  0.010324731 0.0081215729          475 
 1969000   0.46711058   -8.3772444     244.1951  0.010334988 0.0081143687          399 
 1970000   0.46211803    -8.366186    244.20644  0.010330222  0.008107168          506 
 1971000   0.46464625   -8.3829107    244.15593  0.010322845 0.0080999837          494 
 1972000   0.45825483   -8.3702693    244.43435  0.010329376 0.0080928057          529 
 1973000   0.45814898   -8.3773968    244.07047  0.010308771 0.0080856307          504 
 1974000    0.4625315   -8.3721197    244.29373  0.010312974 0.0080784653          506 
 1975000   0.46620865    -8.364953    244.40075  0.010312268 0.0080713142          399 
 1976000    0.4633636   -8.3632965    244.38876  0.010306543 0.0080641661          369 
 1977000   0.45692328   -8.3742472    244.19124  0.010293004 0.0080570248          529 
 1978000   0.46282229   -8.3870435    244.30308  0.010292513 0.0080498925          366 
 1979000   0.47212767   -8.3859067    244.46257  0.010294028 0.0080427691          440 
 1980000   0.46106358   -8.4018221    243.87881   0.01026426  0.008035649          365 
 1981000    0.4673304   -8.3672206    244.19165  0.010272238 0.0080285382          485 
 1982000   0.47721169   -8.3791454    244.03145   0.01026032 0.0080214411          551 
 1983000   0.46942577   -8.3755526    244.19986  0.010262223  0.008014351          580 
 1984000   0.46712727   -8.3863427    244.22324  0.010258032  0.008007269          510 
 1985000   0.45633808    -8.378922    244.29844  0.010256022 0.0080001895          542 
 1986000   0.45225897   -8.3770742    244.21217  0.010247238 0.0079931196          532 
 1987000   0.46308872   -8.3894342     243.9847  0.010232541 0.0079860606          358 
 1988000   0.45858591   -8.3746483    244.09859  0.010232168 0.0079790133          452 
 1989000   0.45991246   -8.3747604     244.0945  0.010226852 0.0079719748          471 
 1990000   0.45099718   -8.3626314    243.81623   0.01021006 0.0079649379          500 
 1991000   0.45399405   -8.3664563    244.00999  0.010213041 0.0079579107          538 
 1992000   0.45807679   -8.3714483    244.18211  0.010215115 0.0079508886          524 
 1993000   0.46079874   -8.3968936     243.8338  0.010195426 0.0079438766          618 
 1994000   0.45383954   -8.3811741    244.08203  0.010200687 0.0079368711          507 
 1995000   0.46326828   -8.3793049     244.0023  0.010192243 0.0079298783          610 
 1996000   0.45523824   -8.3979627    243.80806  0.010179027 0.0079228864          509 
 1997000   0.45642509   -8.3866202      244.338  0.010196044  0.007915906          524 
 1998000    0.4555799   -8.3992098    243.78194  0.010167749 0.0079089309          504 
 1999000   0.45926014   -8.3907404    244.15374  0.010178162 0.0079019649          535 
 2000000   0.46305462   -8.3890761    244.17916  0.010174131 0.0078950129          398 
 2001000   0.45594446    -8.377172    243.70314  0.010149223 0.0078880729          347 
 2002000   0.46559803   -8.3956771    244.13277  0.010162037 0.0078811423          409 
 2003000   0.45383255   -8.3899956    244.34993  0.010165998 0.0078742097          514 
 2004000   0.44865145   -8.3983822    243.96075  0.010144742 0.0078672849          589 
 2005000   0.44566729   -8.3937306    243.96882  0.010140018 0.0078603685          627 
 2006000    0.4539771   -8.3890447    244.19443  0.010144335 0.0078534678          548 
 2007000   0.44920031   -8.3936561    243.85371  0.010125133 0.0078465618          545 
 2008000    0.4550365   -8.4008345    243.93808  0.010123592 0.0078396703          579 
 2009000   0.45074041   -8.4036434    243.93729   0.01011852  0.007832791          650 
 2010000   0.44558789   -8.4049344     244.2722  0.010127371 0.0078259155          499 
 2011000   0.45144231   -8.3929111    243.88699  0.010106373 0.0078190514          477 
 2012000   0.46547824   -8.3905884    243.92897  0.010103089 0.0078121933          526 
Loop time of 5266.13 on 48 procs for 2000000 steps with 4000 atoms

Performance: 65626.993 tau/day, 379.786 timesteps/s
99.4% CPU use with 48 MPI tasks x no OpenMP threads

MPI task timing breakdown:
Section |  min time  |  avg time  |  max time  |%varavg| %total
---------------------------------------------------------------
Pair    | 392.11     | 430.29     | 465.99     |  89.6 |  8.17
Neigh   | 36.855     | 38.24      | 39.576     |  10.8 |  0.73
Comm    | 343.8      | 374.87     | 410.16     |  91.8 |  7.12
Output  | 4.8704     | 4.8724     | 4.92       |   0.3 |  0.09
Modify  | 4353.1     | 4368.3     | 4381.7     |  10.5 | 82.95
Other   |            | 49.52      |            |       |  0.94

Nlocal:        83.3333 ave          89 max          78 min
Histogram: 5 5 3 3 5 11 7 3 3 3
Nghost:        2424.69 ave        2438 max        2411 min
Histogram: 6 2 1 5 7 8 5 6 6 2
Neighs:        16845.8 ave       18728 max       14653 min
Histogram: 3 4 4 6 6 4 6 4 6 5
FullNghs:      33691.0 ave       35881 max       31454 min
Histogram: 2 5 6 1 6 12 6 4 3 3

Total # of neighbors = 1617170
Ave neighs/atom = 404.29250
Neighbor list builds = 106591
Dangerous builds = 0

#clear
#
#next RN
#
#jump SELF
Total wall time: 1:27:50
