
units lj                  # Use reduced LJ style units
atom_style atomic         # Uncharged point particles
atom_modify map hash      # Needed for indexing of clusters etc
                          # Used to be able to find where atoms are in relation to each other.

lattice fcc 1.0 spacing 1 1 1
Lattice spacing in x,y,z = 1.5874011 1.5874011 1.5874011
region box block 0 10 0 10 0 10 units lattice
create_box 2 box
Created orthogonal box = (0.0000000 0.0000000 0.0000000) to (15.874011 15.874011 15.874011)
  3 by 4 by 4 MPI processor grid
create_atoms 1 box
Created 4000 atoms
  using lattice units in orthogonal box = (0.0000000 0.0000000 0.0000000) to (15.874011 15.874011 15.874011)
  create_atoms CPU = 0.003 seconds
set type 1 type/fraction 2 0.84 78393
Setting atom values ...
  3354 settings made for type/fraction
mass 1 1.0
mass 2 1.0
pair_style lj/cut  3.5
pair_modify tail  yes
pair_coeff 1  1  1.0  1.0   # Intearaction between 1 and 1 set with epsilon = 1 and sigma = 1
pair_coeff 1  2  1.5  0.8
pair_coeff 2  2  0.5  0.88

write_data data.0
System init for write_data ...
Neighbor list info ...
  update every 1 steps, delay 10 steps, check yes
  max neighbors/atom: 2000, page size: 100000
  master list distance cutoff = 3.8
  ghost atom cutoff = 3.8
  binsize = 1.9, bins = 9 9 9
  1 neighbor lists, perpetual/occasional/extra = 1 0 0
  (1) pair lj/cut, perpetual
      attributes: half, newton on
      pair build: half/bin/atomonly/newton
      stencil: half/bin/3d
      bin: standard
WARNING: Not all mixed pair coeffs generated from mixing. Use write_data with 'pair ij' option to store all pair coeffs. (../write_data.cpp:312)


#############################
#   M E L T   S Y S T E M   #
#############################

velocity all create 2.4 6583654 mom yes dist gaussian # Assign velocities
                                                    # Temperature 2.4, random number seed, zero linear momentum
                                                                                # Gaussian distribution

timestep 0.002   # simulation timestep
thermo 1000       # output thermodynamic data every 1000 steps bf 100

# Define a fix  in this case with index 1 applied to all
# particles in the simulation. This fix is for simulations
# in the anisotropic NPT ensemble. Note that we use the MTK
# correction.
fix 1 all npt temp 2.4 2.4 0.1 iso 5.68 5.68 0.5 mtk yes tchain 5 pchain 5 # Use NPT ensemble
                                                                         # Set temperature and pressure and damping
                                                                         # Numbers of thermostats in chain and in barostat
run 10000          # run for 10000 steps
Per MPI rank memory allocation (min/avg/max) = 3.642 | 3.644 | 3.648 Mbytes
Step Temp E_pair E_mol TotEng Press Volume 
       0          2.4   -3.4880302            0   0.11106983   -3.0192302         4000 
    1000    2.4025642   -2.7476943            0   0.85525102    5.5383997    3868.7183 
    2000    2.4427668    -2.709725            0   0.95350918    5.7003964    3878.1348 
    3000    2.3933633   -2.7621686            0   0.82697883    5.5092418    3848.2611 
    4000    2.3944524   -2.7047752            0   0.88600548    5.8698139    3859.4444 
    5000    2.4620929   -2.6932391            0   0.99897689    5.9491091    3863.9574 
    6000    2.3859762   -2.7387833            0   0.83928635    5.3870771    3888.3678 
    7000    2.4111087   -2.7184009            0   0.89735793    5.6380426    3890.3316 
    8000    2.3571998    -2.695515            0    0.8394007    5.6208839    3896.0801 
    9000    2.3973097    -2.751443            0   0.84362254    5.5172244    3874.3613 
   10000    2.3987238   -2.6722901            0   0.92489618    5.6824424    3913.5613 
Loop time of 2.60415 on 48 procs for 10000 steps with 4000 atoms

Performance: 663555.030 tau/day, 3840.018 timesteps/s
99.5% CPU use with 48 MPI tasks x no OpenMP threads

MPI task timing breakdown:
Section |  min time  |  avg time  |  max time  |%varavg| %total
---------------------------------------------------------------
Pair    | 1.1321     | 1.1928     | 1.2721     |   3.3 | 45.80
Neigh   | 0.21219    | 0.22044    | 0.23574    |   1.1 |  8.47
Comm    | 0.77529    | 0.8682     | 0.93193    |   3.7 | 33.34
Output  | 0.00024737 | 0.00025308 | 0.00032703 |   0.0 |  0.01
Modify  | 0.26554    | 0.30758    | 0.3425     |   4.0 | 11.81
Other   |            | 0.0149     |            |       |  0.57

Nlocal:        83.3333 ave          95 max          75 min
Histogram: 2 5 8 3 14 4 5 3 3 1
Nghost:        1671.23 ave        1703 max        1638 min
Histogram: 2 4 4 5 9 6 5 7 4 2
Neighs:        9735.67 ave       11531 max        8413 min
Histogram: 1 4 9 6 12 8 3 4 0 1

Total # of neighbors = 467312
Ave neighs/atom = 116.82800
Neighbor list builds = 916
Dangerous builds = 254

# Equilibrate just above the melting temperature to avoid step fn in T

fix 1 all npt temp 1.25 1.25 0.1 iso 5.68 5.68 0.5 mtk yes tchain 5 pchain 5
run 2000
Per MPI rank memory allocation (min/avg/max) = 3.643 | 3.645 | 3.649 Mbytes
Step Temp E_pair E_mol TotEng Press Volume 
   10000    2.3987238   -2.6722901            0   0.92489618    5.6824424    3913.5613 
   11000    1.2337545   -4.0378044            0   -2.1876353    5.5868087    2984.4388 
   12000    1.2351827   -4.0072831            0   -2.1549723     5.538806    3001.2695 
Loop time of 0.612492 on 48 procs for 2000 steps with 4000 atoms

Performance: 564252.380 tau/day, 3265.349 timesteps/s
99.7% CPU use with 48 MPI tasks x no OpenMP threads

MPI task timing breakdown:
Section |  min time  |  avg time  |  max time  |%varavg| %total
---------------------------------------------------------------
Pair    | 0.28086    | 0.30231    | 0.32964    |   1.9 | 49.36
Neigh   | 0.039549   | 0.041871   | 0.044659   |   0.5 |  6.84
Comm    | 0.19049    | 0.22002    | 0.24424    |   2.4 | 35.92
Output  | 5.1758e-05 | 5.2833e-05 | 6.9439e-05 |   0.0 |  0.01
Modify  | 0.0382     | 0.043481   | 0.047573   |   1.3 |  7.10
Other   |            | 0.004755   |            |       |  0.78

Nlocal:        83.3333 ave          91 max          75 min
Histogram: 2 1 4 11 1 10 8 5 5 1
Nghost:        1986.96 ave        2000 max        1960 min
Histogram: 2 0 0 1 5 5 8 13 7 7
Neighs:        12723.1 ave       14086 max       11293 min
Histogram: 2 5 5 4 9 4 6 5 3 5

Total # of neighbors = 610710
Ave neighs/atom = 152.67750
Neighbor list builds = 142
Dangerous builds = 9

#############################
# L I N E A R  Q U E N C H  #
#############################

# Define solid atoms. This closely follows ten Wolde  Ruiz-Montero and Frenkel  Faraday Discuss  1996  104  93-110
# Compute components of the per-atom q6 vector
compute q6 all orientorder/atom degrees 1 6 components 6 nnn NULL cutoff 1.3 # compute the Q6 parameter.
                                                                             # Use all neighbours within 1.3 unit cell.

# get number of connections
compute coord_number all coord/atom orientorder q6 0.5

# An atom is solid if it has 8 or more connections (of a possible 14)
variable is_solid atom c_coord_number>=8
group solid dynamic all var is_solid    # Must be dynamic to update
dynamic group solid defined

# do clustering
compute cluster solid cluster/atom 1.3 # Create a cluster where all atoms within are solid and max 1.3 units from another member

# define chunks one chunk per cluster
compute clus_chunks solid chunk/atom c_cluster nchunk every compress yes  # Says which atoms are in which chunk

# count the size of each chunk
compute size_chunks solid property/chunk clus_chunks count


# Find the maximum entry in the vector of chunk sizes
variable max_n equal max(c_size_chunks)


# Thermo style which includes this variable
# thermo_style custom step temp pe vol v_max_n

thermo ${N}  # Print the thermo information every 100 steps
thermo 1000  

# Reset the npt fix at a lower temperature (below freezing)
fix 1  all npt temp  ${temp} ${temp}  0.1  iso  5.68  5.68  0.5  mtk yes tchain  5  pchain  5
fix 1  all npt temp  0.45 ${temp}  0.1  iso  5.68  5.68  0.5  mtk yes tchain  5  pchain  5
fix 1  all npt temp  0.45 0.45  0.1  iso  5.68  5.68  0.5  mtk yes tchain  5  pchain  5

dump dmp2 all dcd ${N} traj.dcd
dump dmp2 all dcd 1000 traj.dcd


compute msd all msd com yes
variable twopoint equal c_msd[4]/6/(step*dt+1.0e-6)
fix 9 all vector 10 c_msd[4]
variable fit equal slope(f_9)/6/(10*dt)
thermo_style custom step temp pe c_msd[4] v_twopoint v_fit v_max_n

fix 1 all npt temp 1.25 ${temp} 0.1 iso 5.68 5.68 0.5 mtk yes tchain 5 pchain 5
fix 1 all npt temp 1.25 0.45 0.1 iso 5.68 5.68 0.5 mtk yes tchain 5 pchain 5
run 2000000 # 5000000  # Run for this many steps
Neighbor list info ...
  update every 1 steps, delay 10 steps, check yes
  max neighbors/atom: 2000, page size: 100000
  master list distance cutoff = 3.8
  ghost atom cutoff = 3.8
  binsize = 1.9, bins = 8 8 8
  4 neighbor lists, perpetual/occasional/extra = 1 3 0
  (1) pair lj/cut, perpetual
      attributes: half, newton on
      pair build: half/bin/atomonly/newton
      stencil: half/bin/3d
      bin: standard
  (2) compute orientorder/atom, occasional
      attributes: full, newton on
      pair build: full/bin/atomonly
      stencil: full/bin/3d
      bin: standard
  (3) compute coord/atom, occasional
      attributes: full, newton on
      pair build: full/bin/atomonly
      stencil: full/bin/3d
      bin: standard
  (4) compute cluster/atom, occasional
      attributes: full, newton on
      pair build: full/bin/atomonly
      stencil: full/bin/3d
      bin: standard
Per MPI rank memory allocation (min/avg/max) = 9.828 | 9.834 | 9.837 Mbytes
Step Temp PotEng c_msd[4] v_twopoint v_fit v_max_n 
   12000    1.2351827   -4.0072831 3.0379033e-30 2.109655e-32 8.3333333e+20            2 
   13000    1.2614562   -4.0294427   0.88079181 0.0056461011  0.074629918            1 
   14000    1.2505155   -4.0535363    1.7762163  0.010572715  0.074730854            1 
   15000    1.2600162   -4.0384305    2.7589999  0.015327777  0.076044649            2 
   16000    1.2555286   -4.0399966    3.6947398  0.019243436  0.077635714            1 
   17000    1.2445591   -4.0750407    4.5284069  0.022198072  0.077467116            3 
   18000    1.2694725   -4.0671811    5.4412145  0.025190807  0.076529406            1 
   19000    1.2471708   -4.0369248    6.3544281  0.027870298   0.07610459            1 
   20000    1.2353945   -4.0069689    7.3569008  0.030653752  0.076130727            3 
   21000    1.2415956    -4.046108    8.1475037  0.032331363  0.076238533            3 
   22000    1.2522475   -4.0418859    9.1088409  0.034503184  0.076071776            4 
   23000    1.2390221   -4.0339523    10.135792  0.036723883  0.076197473            3 
   24000    1.2562601   -4.0339608    11.082683  0.038481538  0.076636915            1 
   25000     1.230761   -4.0156798    12.054272  0.040180905  0.076859738            2 
   26000    1.2612268   -4.0464063    12.923196  0.041420498  0.077102649            1 
   27000    1.2402815   -4.0450982    14.034266  0.043315635  0.077385034            1 
   28000    1.2480751   -4.0141185     15.01454  0.044686129  0.077781837            2 
   29000      1.24053   -4.0594898    15.721268  0.045176056  0.077850146            2 
   30000    1.2115055    -4.001057    16.716577  0.046434935  0.077824049            2 
   31000    1.2313494   -4.0643933    17.736877  0.047679775  0.077885892            1 
   32000    1.2056074   -4.0451609    18.737544  0.048795686  0.077990836            3 
   33000    1.2403113   -4.0252644    19.533083  0.049325965  0.077932318            3 
   34000    1.2569061   -4.0553003    20.459775  0.050146508  0.077939509            3 
   35000    1.2541337   -4.1015572    21.325181   0.05077424   0.07798289            4 
   36000    1.2613857   -4.0445966    22.163465  0.051304316  0.077899807            1 
   37000     1.242403   -4.0613297    23.084913  0.051993046  0.077734997            2 
   38000     1.260427   -4.0623697    23.925984  0.052469262  0.077624092            3 
   39000    1.2346172   -4.0544764    24.732294  0.052846781  0.077438183            1 
   40000    1.2489387   -4.0295014      25.5698  0.053270416  0.077265763            1 
   41000    1.2381672   -4.0330518    26.444207  0.053748388  0.077128433            4 
   42000    1.2401539   -4.0393951    27.337389  0.054240851  0.076950538            1 
   43000    1.2103456   -4.0963787    28.021553  0.054305334  0.076737398            2 
   44000    1.2211085    -4.048645    29.111663  0.055135725  0.076522705            2 
   45000    1.2395404   -4.0854927    29.977521  0.055513928  0.076364175            3 
   46000    1.2103904   -4.0638478    31.007266  0.056172583  0.076266019            6 
   47000    1.2265858   -4.0500727    31.894457  0.056550455  0.076179629            3 
   48000    1.2255293   -4.0140416    32.678023  0.056732678  0.076041733            2 
   49000    1.2240591   -4.0321396    33.689728  0.057295455  0.075930767            2 
   50000    1.2363893   -4.0573293    34.612112  0.057686852  0.075876624            2 
   51000    1.2120181   -4.0519991    35.509415   0.05802192  0.075817791            2 
   52000    1.2506524   -4.0598605    36.180751  0.057981973  0.075747836            2 
   53000    1.2162133   -4.0780749    37.323418   0.05868462  0.075662124            2 
   54000    1.2370175   -4.0805099    38.056866  0.058729732  0.075641579            1 
   55000    1.2280399   -4.0849233    38.809162   0.05880176  0.075547372            3 
   56000     1.235468   -4.0241421    39.994521  0.059515656  0.075487752            4 
   57000    1.2593157   -4.0522538    40.830529  0.059693755  0.075466894            2 
   58000    1.2204424   -4.0820019     41.74259  0.059974985  0.075455316            1 
   59000    1.2394618   -4.0969699    42.694336  0.060302734   0.07545378            2 
   60000    1.2267491   -4.0984986    43.704563  0.060700781  0.075462181            4 
   61000    1.2391654   -4.1041411    44.558687  0.060872522  0.075488011            2 
   62000    1.2495068   -4.0538942    45.461691  0.061104423  0.075481134            4 
   63000    1.2275741   -4.0449263    46.323341   0.06127426  0.075457753            3 
   64000     1.227993   -4.0404585    47.127993  0.061364574  0.075407871            2 
   65000    1.2197818   -4.1023586     47.71443  0.061172345  0.075358573            1 
   66000    1.2205013   -4.0525481    49.100653  0.061995773   0.07535504            3 
   67000    1.2254292   -4.0840569    50.329456  0.062598825  0.075373046            1 
   68000    1.2172514   -4.0484199    50.730644  0.062169906  0.075393419            3 
   69000    1.2318329   -4.0662726    51.459309  0.062148923  0.075363257            3 
   70000    1.2202691   -4.0937178    52.108547  0.062033984   0.07528674            4 
   71000    1.2096326    -4.070875     52.71979  0.061877687  0.075202879            3 
   72000    1.2387526   -4.0742618    53.535327  0.061962184   0.07511106            1 
   73000    1.2211593    -4.069836     54.55723  0.062279943  0.075006549            2 
   74000    1.2469297   -4.0574472    55.322717  0.062300357  0.074894958            1 
   75000    1.2171582   -4.0991985    56.168683  0.062409647  0.074808477            2 
   76000    1.2309094   -4.1137865    57.046016  0.062550455  0.074709728            2 
   77000    1.2027662   -4.0708621    57.836992  0.062594147  0.074634346            1 
   78000    1.2045913   -4.0581066    58.676273  0.062688325  0.074564094            2 
   79000    1.2232648   -4.0869685    59.787016  0.063066472  0.074494765            3 
   80000     1.201145   -4.0761827    60.435776  0.062953933  0.074415509            6 
   81000    1.2193074   -4.1086225    61.255335  0.063019892  0.074328056            1 
   82000    1.2559208   -4.0657909    61.908753  0.062915399  0.074237702            2 
   83000    1.2301794   -4.0798002    62.902181    0.0631548  0.074126218            1 
   84000    1.2446083   -4.0863899     63.65529  0.063150089  0.074036611            1 
   85000    1.2327738   -4.0718015    64.720642  0.063451609  0.073965132            2 
   86000    1.2391997   -4.0839466    65.522329  0.063490628  0.073893028            1 
   87000    1.2261259   -4.0868087    66.107686  0.063321538  0.073813644            2 
   88000    1.2186875   -4.0495523    67.540921  0.063959206  0.073742838            3 
   89000    1.2293019   -4.0693168    68.187337  0.063845821  0.073686251            3 
   90000    1.2285186   -4.0834433    68.149377  0.063101274  0.073591589            1 
   91000    1.2259918   -4.0866237     69.18155  0.063353067  0.073484412            1 
   92000    1.1929045   -4.0817499    69.915288  0.063329065  0.073392214            2 
   93000    1.1967048   -4.0592648    71.333951   0.06391931  0.073322637            3 
   94000    1.2407131    -4.090096    72.246233  0.064048079  0.073265777            2 
   95000    1.2259469   -4.0749414    73.003811  0.064038431  0.073203032            3 
   96000    1.2286543   -4.1121474    73.573841  0.063866181  0.073144644            3 
   97000    1.2108594   -4.0557891    74.585067  0.064076517  0.073089113            2 
   98000    1.2370833   -4.1031631    75.236261  0.063976412  0.073012096            2 
   99000    1.1974666   -4.1142975    76.012056  0.063983212   0.07294414            2 
  100000    1.2033506   -4.0634599    76.901765  0.064084804  0.072868439            2 
  101000    1.2364939   -4.0850877    77.759348  0.064157877  0.072800338            3 
  102000    1.1910862   -4.0807575    78.772171  0.064356349  0.072748568            3 
  103000    1.2057366   -4.0711034    79.624013  0.064420722  0.072700924            2 
  104000    1.1995541    -4.085719    80.520034  0.064519257  0.072648101            2 
  105000    1.2159476   -4.0925717    81.214692  0.064456105  0.072600501            1 
  106000    1.2203145   -4.1150748    82.207162  0.064628272  0.072563282            2 
  107000    1.2019359   -4.1139569    83.264782  0.064847961  0.072528273            2 
  108000    1.2129981   -4.1170788    84.065732  0.064865534  0.072495999            2 
  109000    1.1992152   -4.1067705    84.974391  0.064965131  0.072469545            3 
  110000    1.2085589   -4.1140377    86.100864  0.065227927  0.072451476            1 
  111000    1.2101248   -4.0948238    86.916634  0.065252728  0.072422828            2 
  112000    1.2122252   -4.1341656    87.625389  0.065197462  0.072393341            5 
  113000    1.1871244   -4.1217482    88.060192  0.064941144  0.072362124            1 
  114000    1.2164257   -4.0875857    89.339491  0.065306645  0.072333293            3 
  115000    1.2182514   -4.1215379    90.050401  0.065253913  0.072316832            1 
  116000    1.2115559   -4.1232141    91.170983  0.065496396  0.072307087            1 
  117000    1.2032209    -4.098899    92.322653  0.065756875  0.072310142            1 
  118000    1.2118097   -4.0554934    94.131321  0.066476921  0.072330595            1 
  119000    1.2054488   -4.0906591    94.787838  0.066378037  0.072360628            3 
  120000    1.1991378   -4.0961521    95.036873  0.065997828  0.072382872            3 
  121000    1.2295772   -4.1326104    95.756856  0.065948248  0.072390203            2 
  122000     1.224919   -4.0867624    96.550862  0.065950042  0.072380552            2 
  123000    1.2257769   -4.0954834    97.216892  0.065865103   0.07237265            2 
  124000    1.2024396   -4.1008639    98.143238  0.065956477  0.072361656            2 
  125000    1.2106036   -4.0959969    98.838842  0.065892561   0.07235195            1 
  126000    1.2147626   -4.1078167    99.818218   0.06601734  0.072345011            3 
  127000    1.2121243   -4.0834189    101.17787  0.066389681  0.072345526            1 
  128000    1.2109173   -4.1258424    102.42744  0.066684533  0.072367613            3 
  129000    1.1790849   -4.1078039    102.94002   0.06649872   0.07238449            1 
  130000    1.2405938   -4.1302052    103.87871  0.066588915  0.072397902            1 
  131000    1.1947206   -4.1357011    104.18887  0.066277909  0.072400278            2 
  132000    1.1956885   -4.0732661    105.54724   0.06663336  0.072396648            1 
  133000    1.2029828   -4.1376785    105.98931  0.066409339  0.072387787            3 
  134000    1.2249404   -4.0943626    106.95608  0.066514976  0.072382379            1 
  135000     1.200625   -4.1543811    107.97037  0.066648376  0.072385623            2 
  136000    1.1907811   -4.0934389    108.53356  0.066503406  0.072379475            2 
  137000    1.2025812   -4.1570341    109.54155  0.066631112  0.072373887            1 
  138000     1.173183   -4.1128377    110.50144  0.066727924  0.072374276            3 
  139000    1.2041053   -4.1045006    111.42425  0.066801107   0.07237136            1 
  140000    1.1657591   -4.1280129     111.7949  0.066544583  0.072372563            4 
  141000    1.1808852   -4.1121311     112.7568  0.066641137  0.072363674            2 
  142000    1.2140034   -4.0800817     114.0408  0.066925354  0.072352873            2 
  143000    1.1964722   -4.1107504    114.74845  0.066869725  0.072344892            2 
  144000    1.2000741   -4.1282946    115.40381  0.066784613  0.072337253            1 
  145000    1.1970277   -4.1463032    116.14555  0.066750314  0.072334704            2 
  146000    1.1915452   -4.1157782    116.99316  0.066776916  0.072329153            2 
  147000    1.1958483   -4.1229978     118.6012   0.06723424   0.07233652            2 
  148000    1.2061222   -4.1424009    119.53288  0.067304548  0.072340563            2 
  149000    1.2160875   -4.1159933    120.09397  0.067166647  0.072347016            1 
  150000    1.2122343   -4.1406178    121.11496  0.067286089  0.072350397            3 
  151000    1.1922512   -4.1167467    121.87499  0.067259928  0.072354299            2 
  152000    1.2002525   -4.1147924    122.48435  0.067151509  0.072352633            2 
  153000    1.1838509   -4.1167324    123.23747  0.067122805  0.072349676            2 
  154000    1.1912298   -4.1233355    124.00115  0.067100188  0.072343631            2 
  155000     1.212523   -4.1325743    124.96704  0.067186582  0.072340197            4 
  156000    1.2209238   -4.1027349    126.58188  0.067618527  0.072341316            5 
  157000    1.2111276    -4.091209    127.99787  0.067939421  0.072345904            2 
  158000    1.1727635   -4.1049372    127.60719  0.067303368  0.072346506            4 
  159000    1.1685414   -4.1472275    128.48865  0.067342058  0.072340767            1 
  160000    1.2050101   -4.1274024    129.09972  0.067239435  0.072334074            3 
  161000    1.1915215   -4.1349373    130.09038  0.067334565  0.072328683            3 
  162000    1.1907642   -4.1175674    131.05436  0.067414796  0.072324873            3 
  163000    1.1917031   -4.1108824    131.42932  0.067192906  0.072318471            5 
  164000    1.1897032   -4.1202728    132.37251  0.067262453  0.072304671            2 
  165000    1.2123581   -4.1283891    133.14145  0.067243157   0.07228708            1 
  166000     1.207017    -4.093719     133.7341  0.067135592   0.07226906            2 
  167000    1.1518728   -4.1338504    134.79237  0.067261662  0.072249467            2 
  168000    1.1766488   -4.1431857    135.44608  0.067185555  0.072234523            1 
  169000    1.1980657   -4.1372032    136.98294   0.06754583   0.07222032            2 
  170000    1.2094294   -4.0953396    138.21633  0.067753105  0.072212452            2 
  171000     1.179158     -4.12926    137.91646  0.067210753  0.072203001            3 
  172000    1.1875571    -4.119451     138.9189  0.067305669  0.072191375            5 
  173000    1.2022373   -4.1188217     140.1319  0.067500913  0.072174208            1 
  174000    1.1848876   -4.1072071    141.01274  0.067534837  0.072160356            2 
  175000    1.1784395    -4.120264    141.70487  0.067478512  0.072138382            1 
  176000    1.1879744   -4.1222755    142.14745  0.067304665  0.072117733            2 
  177000    1.1708351   -4.1514523    143.19097   0.06741571   0.07209665            3 
  178000    1.1596299   -4.1435667    143.03554  0.066964206  0.072074534            3 
  179000    1.1762574   -4.1361513    144.23679  0.067149342  0.072046959            2 
  180000     1.192605   -4.1452478    145.09543  0.067173812  0.072018215            1 
  181000    1.1928637   -4.1675953    145.13173  0.066819396  0.071985933            3 
  182000    1.1837767   -4.1546841    145.61247  0.066672378  0.071956992            3 
  183000    1.1780871   -4.1377507    146.96806  0.066925347  0.071925849            3 
  184000    1.2053318   -4.1127161    148.89952  0.067436376  0.071902401            3 
  185000    1.2009182   -4.1626161    149.05289  0.067140943  0.071876725            4 
  186000    1.1841158   -4.1128243    149.97212  0.067191809  0.071851537            3 
  187000    1.1714479   -4.1242353    150.21304  0.066939858  0.071824536            5 
  188000    1.1841719   -4.1687333    151.35913  0.067091814  0.071799363            3 
  189000    1.1657787   -4.1413964    152.75176  0.067350865  0.071777562            2 
  190000    1.1857862   -4.1389941    153.43841  0.067297547  0.071751923            1 
  191000    1.1793964   -4.1459524    153.59488  0.067013474  0.071725765            1 
  192000    1.1704921    -4.156674    154.61255   0.06710614   0.07169767            3 
  193000    1.1358383   -4.1333716    156.52912  0.067585976  0.071674383            3 
  194000    1.1891751   -4.1580011    156.87531  0.067386302  0.071658877            1 
  195000    1.1591327   -4.1501961     157.3038  0.067223844  0.071642537            3 
  196000    1.1565746   -4.1052376    159.24528  0.067706327  0.071630501            1 
  197000    1.1904047   -4.1381776    159.50424  0.067472184  0.071622847            2 
  198000    1.1687604   -4.1374384    159.91042  0.067302364  0.071607484            3 
  199000    1.1853538   -4.1491608    161.82133  0.067764375  0.071596489            1 
  200000    1.1596327   -4.1773361    161.92859  0.067470245  0.071583232            1 
  201000    1.1371978   -4.1618481    162.72847  0.067466198  0.071567609            2 
  202000    1.1638142   -4.1413774    163.82139  0.067583083    0.0715496            2 
  203000    1.1821327    -4.161574    164.77617  0.067642104  0.071540333            1 
  204000    1.1715473     -4.15421    165.33475  0.067538704  0.071522392            3 
  205000      1.18514   -4.1742106    165.58899  0.067312598   0.07150299            2 
  206000    1.1597008   -4.1614034    166.82532  0.067485972  0.071480179            3 
  207000     1.166971   -4.1693623    167.87431  0.067582252  0.071464644            2 
  208000    1.1840597   -4.1928411    167.76444  0.067213317  0.071451874            2 
  209000     1.155752   -4.1299866    169.20019  0.067464189  0.071435687            4 
  210000    1.1710837   -4.1574432    169.05124  0.067083824   0.07141418            1 
  211000    1.1602067   -4.1611626    170.91202  0.067500798  0.071394567            2 
  212000    1.1831759   -4.1849528    171.04434  0.067234409  0.071371697            2 
  213000    1.1629822   -4.1387115    172.43212  0.067461706  0.071351573            2 
  214000    1.1770164   -4.1347485    173.41948  0.067530952  0.071328537            1 
  215000    1.1659824   -4.1418046    174.21481  0.067525119  0.071306038            2 
  216000    1.1832192   -4.1552474    174.43368  0.067296945  0.071289246            3 
  217000    1.1471395   -4.1844338     175.1331  0.067255416   0.07127421            2 
  218000    1.1470376   -4.1766395    176.77404  0.067574175  0.071253518            1 
  219000    1.1943315   -4.1577007    177.33917  0.067480657  0.071233904            2 
  220000    1.1676382   -4.1722824    177.47435  0.067225131  0.071214488            2 
  221000    1.1752162   -4.1660783    178.90666  0.067461033  0.071196268            2 
  222000    1.1722704   -4.1620986    179.15418  0.067250066  0.071174441            1 
  223000    1.1530445   -4.1755193    179.92058  0.067234894  0.071154247            5 
  224000    1.1531412   -4.1645189    181.50436  0.067523942  0.071135063            2 
  225000    1.1420109   -4.1587382    182.06084   0.06742994  0.071117292            2 
  226000    1.1436265   -4.1621865    182.40198  0.067257367  0.071099701            1 
  227000    1.1573213   -4.1398934    184.26222  0.067643986  0.071085285            2 
  228000    1.1495965    -4.152481    185.39612  0.067761741  0.071074302            2 
  229000    1.1531038   -4.1374325    186.48851   0.06786336  0.071060225            3 
  230000    1.1577381     -4.18012    186.31412  0.067505116   0.07104625            4 
  231000    1.1533454   -4.1384459    188.36722  0.067953542  0.071032586            3 
  232000    1.1482881   -4.1420238    188.24881  0.067618108  0.071016997            2 
  233000    1.1671043   -4.2082409    188.84572  0.067541389  0.071007733            6 
  234000    1.1515828   -4.1768517    189.58194  0.067514936  0.070999812            3 
  235000    1.1860026   -4.1627559    191.00228  0.067731304   0.07098765            1 
  236000    1.1593645   -4.1985669    191.36276  0.067571597   0.07097889            3 
  237000    1.1634548   -4.1816623    192.60083  0.067721809  0.070969292            7 
  238000    1.1663871   -4.1701916    194.05972   0.06794808  0.070959608            2 
  239000    1.1582437    -4.178563    194.41975  0.067789312  0.070948808            1 
  240000    1.1699086   -4.1576393    195.70253  0.067952268  0.070936881            3 
  241000    1.1787751   -4.2022678    195.12617  0.067471013  0.070925657            2 
  242000    1.1718885   -4.1643272    197.42981   0.06798547  0.070911239            1 
  243000     1.164293   -4.1748563    197.33159  0.067672014  0.070902013            2 
  244000    1.1815546   -4.1662144    199.01846  0.067970784  0.070896701            2 
  245000     1.153209   -4.1588433    199.90875  0.067996173  0.070892855            2 
  246000    1.1601879   -4.1792851    200.64004  0.067967494  0.070881379            2 
  247000    1.1361838   -4.1562405    201.11568  0.067852792  0.070873144            1 
  248000      1.16575   -4.2068842    201.82276  0.067816788  0.070865413            2 
  249000    1.1372909    -4.166018    202.65893  0.067824272  0.070852579            4 
  250000     1.158695    -4.183144    203.03259   0.06767753  0.070839099            2 
  251000    1.1802307   -4.1700144    203.45737  0.067548928  0.070827237            2 
  252000    1.1563822   -4.2007279    205.03655  0.067803091  0.070815103            5 
  253000    1.1516569   -4.1766713    206.47001  0.068007249  0.070801186            4 
  254000    1.1308101   -4.1870299    206.01406  0.067589913  0.070789204            1 
  255000    1.1554208     -4.15314    207.07757  0.067672408  0.070775882            2 
  256000    1.1033728   -4.1417925    208.86957  0.067991397  0.070761947            3 
  257000    1.1455687   -4.1762524     208.4964  0.067605838  0.070748308            2 
  258000    1.1612228   -4.1590611    209.04669  0.067521539  0.070732562            3 
  259000    1.1419139   -4.2002743    210.56695  0.067749983  0.070713958            2 
  260000    1.1805446   -4.2058111     209.8168  0.067248974  0.070692151            2 
  261000    1.1807626   -4.1860704    212.17844   0.06774535  0.070673766            3 
  262000    1.1436895   -4.1906723    212.46063  0.067576536   0.07065581            2 
  263000    1.1682605   -4.1751506    212.88674  0.067454605  0.070634897            4 
  264000    1.1529282   -4.2215567    212.38278   0.06704002  0.070612008            1 
  265000    1.1471083   -4.2562471     213.7064  0.067203271  0.070586631            2 
  266000    1.1467003   -4.2084708    214.48028   0.06719307  0.070561225            1 
  267000    1.1312844   -4.2176454    214.67375  0.067001793  0.070535157            6 
  268000    1.1659297    -4.187901    215.69872  0.067070496  0.070509194            2 
  269000     1.140914   -4.2213684    215.79956  0.066852403  0.070481822            3 
  270000    1.1688746   -4.2051873    216.80637  0.066915547   0.07045464            1 
  271000    1.1204225   -4.1571032    218.31056  0.067131169  0.070423374            1 
  272000    1.1412705   -4.2095016    217.54649  0.066650271  0.070393506            2 
  273000    1.1640455   -4.1883553    218.56497  0.066717024  0.070361838            1 
  274000    1.1595603   -4.2080626    219.17321  0.066658519  0.070330106            5 
  275000    1.1494365   -4.1826544    220.20813  0.066729735  0.070299426            3 
  276000    1.1559898   -4.2365986    220.44356  0.066559045  0.070266179            4 
  277000    1.1204274   -4.1923857    222.21826  0.066852665  0.070235736            3 
  278000     1.150822   -4.1991229    223.94845  0.067130831  0.070205078            1 
  279000    1.1440528   -4.2096852    225.23451  0.067274346   0.07017814            2 
  280000    1.1078973   -4.2085337    225.19523   0.06702239  0.070152813            2 
  281000    1.1406125   -4.1847034     225.1352  0.066766073  0.070125919            4 
  282000    1.1313888    -4.191122    226.18261  0.066838832  0.070096347            3 
  283000    1.1525145   -4.1781825    227.75285  0.067065033  0.070068459            2 
  284000    1.1429788   -4.1964239    228.46727  0.067038519  0.070042772            2 
  285000    1.1288766   -4.2009731    227.96124  0.066655333  0.070015168            2 
  286000    1.1072321   -4.2304305    228.18196  0.066486584  0.069983506            2 
  287000    1.1594833   -4.2165596    230.03181  0.066792048  0.069954659            4 
  288000    1.1334074   -4.1576534    231.10237  0.066869897  0.069925671            1 
  289000    1.1469904   -4.1870853    231.66687  0.066801288  0.069899258            3 
  290000    1.1478116   -4.1828379    231.91087  0.066641054  0.069868825            1 
  291000    1.1533682   -4.2215534    233.33117  0.066818777  0.069842376            1 
  292000    1.1376624   -4.2118848    234.03603  0.066791104  0.069815586            5 
  293000    1.1413693   -4.2131528    233.70858  0.066470016  0.069788098            3 
  294000    1.1270435   -4.2141197    233.95267  0.066313115  0.069755347            2 
  295000    1.1476091   -4.2185332    235.00848  0.066386575  0.069723894            1 
  296000     1.121714   -4.2284414    234.65214  0.066061976  0.069687937            2 
  297000    1.1499656   -4.2211415    235.34567   0.06603414  0.069650521            2 
  298000    1.1438449   -4.2333559    235.77118  0.065931537  0.069611501            2 
  299000    1.1733715   -4.2027222    237.16952  0.066100759  0.069571172            5 
  300000    1.1467309   -4.1931504    237.71482  0.066031894  0.069533566            1 
  301000    1.1476098   -4.1994335    238.75432  0.066100311   0.06949585            1 
  302000    1.0945266   -4.2152405    239.83594  0.066179895  0.069459342            7 
  303000    1.1562868   -4.2271982    240.21172  0.066064828   0.06941865            7 
  304000    1.1387224    -4.255348    240.53128   0.06593511  0.069380719            4 
  305000    1.1225054   -4.2035021    240.29921  0.065655522  0.069341357            3 
  306000    1.1466707   -4.2130682    242.24897  0.065971941    0.0693041            3 
  307000    1.1455491   -4.2206502    244.01129  0.066235421  0.069268898            4 
  308000    1.1210216    -4.253507    243.42827  0.065862627  0.069233623            2 
  309000    1.1084683   -4.2314042    244.31837  0.065889528  0.069198386            6 
  310000    1.1110682   -4.2442788    243.44563  0.065442373  0.069162627            1 
  311000    1.1183478   -4.2331806    245.50016  0.065782465  0.069122966            3 
  312000     1.120928   -4.2063381    246.33866  0.065795582  0.069084738            1 
  313000    1.1380323   -4.2630638    246.25861  0.065564061  0.069046016            2 
  314000    1.1408323   -4.2330196    247.72578  0.065744635  0.069009203            3 
  315000    1.1307312   -4.2311781    249.40778  0.065980894  0.068975665            3 
  316000    1.1064977   -4.2391898    249.52854  0.065803939   0.06894124            2 
  317000    1.1387607   -4.2443344    249.40925  0.065564998  0.068907998            4 
  318000     1.123986   -4.1996766    251.40709  0.065882361  0.068873753            3 
  319000    1.1106363   -4.2510575     251.6649  0.065743182  0.068841167            4 
  320000    1.1311441   -4.2106449    252.89274  0.065857485  0.068808499            3 
  321000    1.1205578   -4.2274318    253.81012  0.065890477  0.068775504            2 
  322000    1.1443364   -4.2073412    254.21342  0.065790223  0.068744922            2 
  323000    1.1489239   -4.2388992    254.13607  0.065566582  0.068711752            1 
  324000    1.1242563   -4.2441596    254.58999  0.065480965     0.068679            2 
  325000    1.1063827   -4.2401737    256.16112  0.065682339  0.068645587            3 
  326000     1.134054   -4.2335425    257.02181   0.06570087  0.068613024            4 
  327000     1.143118    -4.199116     257.8987   0.06572342  0.068580969            2 
  328000    1.1319356   -4.2264101    258.69164  0.065724502  0.068548371            3 
  329000    1.1060871   -4.2529738    258.78021  0.065547166  0.068514184            3 
  330000    1.1232595   -4.2388617    259.00699  0.065405806  0.068480284            2 
  331000    1.1276383   -4.2377931    259.55514  0.065346208  0.068446092            3 
  332000    1.1262471   -4.2638162    260.20378  0.065312193  0.068412684            2 
  333000     1.114971   -4.2507566     261.5777  0.065459886  0.068380335            2 
  334000    1.1205085   -4.1952374    262.39224  0.065467127  0.068346596            1 
  335000    1.1094614   -4.2512567    262.17852  0.065218537  0.068311463            2 
  336000    1.1076707   -4.2483726       263.15  0.065265377  0.068275449            4 
  337000    1.1317537   -4.2248577    264.22916  0.065338565  0.068241918            1 
  338000    1.1203718   -4.2456073    265.37797  0.065428494  0.068207672            2 
  339000     1.121756   -4.2736683    265.87498  0.065357664  0.068175285            4 
  340000    1.1325758   -4.2447408    266.71074   0.06537028  0.068140484            3 
  341000    1.1259359   -4.2456122    266.98505  0.065245613  0.068106435            2 
  342000    1.1358713    -4.219278    269.38066  0.065638563    0.0680732            4 
  343000     1.130973   -4.2130062     268.8935  0.065328838  0.068038593            1 
  344000    1.1104356   -4.2249632    269.61588  0.065313924  0.068004201            2 
  345000    1.1037343   -4.3010042    268.97523  0.064969862  0.067971824            4 
  346000    1.1096371   -4.2436673    270.50922  0.065151545  0.067937423            3 
  347000    1.1190116   -4.2178464    271.58135  0.065221266  0.067902028            2 
  348000    1.0973172    -4.233473    271.98335  0.065130113  0.067866349            1 
  349000    1.1011871   -4.2258379    273.05596  0.065199609  0.067832911            2 
  350000    1.1153426   -4.2521543    272.71759   0.06493276  0.067799003            3 
  351000    1.1200774   -4.2462235    274.16168  0.065090617  0.067767287            2 
  352000    1.1005365   -4.2446123    275.38531  0.065195386  0.067735209            2 
  353000     1.079071   -4.2435108    275.69798  0.065084509  0.067702847            2 
  354000    1.1238428   -4.2486126    276.91017   0.06518601   0.06767083            3 
  355000    1.1162325   -4.2420278    276.42522  0.064888549  0.067639595            2 
  356000    1.1187509   -4.2346652    276.26938  0.064669799  0.067608159            3 
  357000    1.1209804   -4.2873698    279.04301  0.065136091  0.067576823            6 
  358000    1.0988009   -4.2707415    278.69631  0.064873444  0.067547385            4 
  359000    1.0845243   -4.2503904      280.241    0.0650513  0.067517054            4 
  360000    1.0933329   -4.2402257    280.66862  0.064969587  0.067486078            3 
  361000    1.1137821   -4.2388197    280.72012  0.064801505  0.067453359            3 
  362000    1.1110126   -4.2634266    281.19469  0.064731742  0.067417822            2 
  363000    1.1467098   -4.2629156    281.90804   0.06471718  0.067383512            3 
  364000    1.1267025   -4.2678184    282.64848    0.0647089   0.06734964            2 
  365000    1.1337742   -4.2443163    283.46954  0.064719072  0.067313812            3 
  366000    1.1114021    -4.249489    283.21865   0.06448512  0.067278377            2 
  367000    1.1100889   -4.2442174     284.5567  0.064613237   0.06724421            3 
  368000    1.1275326   -4.2407526    284.48983  0.064422515  0.067210198            2 
  369000     1.106566   -4.2437707    286.06979  0.064604739   0.06717395            1 
  370000    1.0997356   -4.2715808    285.53032  0.064308631  0.067139164            2 
  371000     1.096125   -4.2748773    286.21967  0.064290133  0.067103341            1 
  372000    1.0762624   -4.2815198    286.48974  0.064177808  0.067066436            3 
  373000    1.1108874   -4.2613629    289.67217  0.064716749  0.067033114            5 
  374000    1.1043152   -4.3043104     289.5473  0.064515886  0.066999694            1 
  375000    1.0931235   -4.2758075    289.05296  0.064233991  0.066965189            3 
  376000    1.1256666    -4.239133    290.83722  0.064458604  0.066932152            2 
  377000    1.1242465   -4.2985191    290.15077  0.064135891  0.066898051            2 
  378000    1.1109487   -4.2624316    292.16406  0.064410065  0.066863187            3 
  379000    1.1214823   -4.2817039    292.24301  0.064257477  0.066829115            1 
  380000    1.1012514      -4.2872    292.59438  0.064165434  0.066795072            4 
  381000    1.0846817   -4.2757233       293.71  0.064241033  0.066760499            1 
  382000    1.1076674   -4.2614923    294.93258  0.064339568  0.066725979            2 
  383000    1.0773326   -4.2723118    294.85848  0.064155457  0.066689968            1 
  384000    1.1102939   -4.2683005    294.91387  0.064000405  0.066653729            1 
  385000    1.1084074   -4.2658924    296.50547  0.064178673  0.066618034            2 
  386000    1.1104107    -4.253774    297.17244    0.0641564  0.066584373            3 
  387000    1.1147369   -4.2743965    296.53311  0.063852953  0.066548628            3 
  388000    1.0968275   -4.2725672    296.29788  0.063637862  0.066511333            2 
  389000    1.1149844   -4.3043853    296.59682  0.063538307  0.066473305            4 
  390000    1.0778399   -4.2831464    299.01556  0.063892215  0.066435141            3 
  391000    1.1008661   -4.2804829    298.81102  0.063685212  0.066399484            4 
  392000    1.1090194   -4.2913306    299.79872  0.063732721   0.06636439            2 
  393000    1.0991493   -4.3136183    299.73621  0.063557297   0.06632666            1 
  394000    1.0891779   -4.2712654     302.3981  0.063958989  0.066289642            2 
  395000    1.1046701    -4.288539    301.19906  0.063544106  0.066252031            2 
  396000    1.0944862   -4.2575167    302.52817  0.063663336  0.066213808            3 
  397000    1.1136203   -4.2751096    303.08947  0.063620795  0.066177185            5 
  398000    1.1014724   -4.2995329     303.4283  0.063531889  0.066139022            1 
  399000    1.1009847   -4.3000308    303.05728  0.063295172  0.066101637            2 
  400000    1.0897655    -4.309282    303.72378  0.063275787  0.066062678            2 
  401000    1.0803299   -4.2775149    304.50886  0.063281143  0.066023536            4 
  402000    1.0789402   -4.2483028     305.6803  0.063366563  0.065984479            2 
  403000    1.0886264   -4.2606701    307.00999  0.063484282  0.065945876            2 
  404000    1.0974254   -4.2914543    306.89205  0.063302815  0.065905238            3 
  405000    1.0968889   -4.2715076    305.66082  0.062893172  0.065863479            2 
  406000    1.1090139   -4.3168072    306.30113   0.06286969  0.065819859            1 
  407000    1.0798914   -4.2469829    308.04625  0.063072532  0.065777026            2 
  408000    1.1046639   -4.2605685    309.02845  0.063118557  0.065735062            2 
  409000    1.0960896   -4.2822947     309.3259  0.063024836  0.065693937            2 
  410000    1.0742438   -4.3284594     308.8611  0.062776646   0.06565174            3 
  411000    1.0622354   -4.2780748    310.11039  0.062877207  0.065610239            4 
  412000    1.1194776   -4.3039828    310.31028  0.062765024  0.065569206            3 
  413000    1.1002664   -4.2725665    312.62418   0.06307994  0.065528577            3 
  414000     1.070414   -4.2676689    312.25334  0.062852927  0.065488446            1 
  415000    1.0742518   -4.3022853     312.0225  0.062655121   0.06544936            2 
  416000    1.0566198   -4.3029252    313.18841  0.062738064  0.065410379            3 
  417000    1.0923414   -4.2652565    315.45846   0.06304126  0.065372027            2 
  418000    1.1037856   -4.2585584    315.72472  0.062943525   0.06533511            3 
  419000    1.1037948   -4.3021316    315.78421  0.062805134    0.0652975            2 
  420000    1.0938992   -4.2894072    317.82445  0.063060407  0.065261567            5 
  421000    1.1109605   -4.2995696    318.00807  0.062946966  0.065226193            3 
  422000    1.0754504   -4.2833929    319.08979  0.063011412  0.065190561            3 
  423000    1.0862588   -4.3226704    319.78908  0.063000213  0.065155594            3 
  424000    1.0689612    -4.302414    320.72412  0.063035401  0.065120693            3 
  425000    1.0947871   -4.2957742    319.98754  0.062742655  0.065085645            3 
  426000    1.0771496     -4.28326    321.54026  0.062899111  0.065049027            3 
  427000     1.070034   -4.3212947     321.6056  0.062764559  0.065013117            2 
  428000    1.0923626   -4.3130399    321.69338  0.062635005  0.064978121            4 
  429000    1.0863806   -4.2926792    322.63042  0.062671021  0.064943135            2 
  430000    1.0643434   -4.3241909    323.06812  0.062610101  0.064907976            5 
  431000    1.0954991   -4.2670688    323.96175  0.062637617  0.064872429            3 
  432000    1.0933204   -4.2837896    324.65569  0.062626484   0.06483812            3 
  433000     1.082504   -4.3019687    326.39555  0.062816696  0.064803938            7 
  434000    1.0778077   -4.3173247    325.84816   0.06256685  0.064769769            4 
  435000    1.0905066   -4.3094328    327.14228  0.062670935  0.064735753            4 
  436000    1.0486905   -4.3213559    327.02817  0.062505384  0.064702025            2 
  437000    1.0675903   -4.3126426    328.07118  0.062561247  0.064668653            2 
  438000    1.0564219   -4.2864695    330.45926  0.062872766  0.064636726            2 
  439000    1.0715345   -4.3028262    330.93317  0.062819507  0.064604896            2 
  440000    1.0733631   -4.3062588    330.93143  0.062676406  0.064573381            3 
  441000    1.0758585   -4.3161617    331.30964  0.062605753  0.064541558            2 
  442000     1.063503   -4.2953211    333.35864  0.062850423   0.06450976            2 
  443000    1.0715788   -4.3430421    333.74057  0.062780392  0.064478968            1 
  444000    1.0995819   -4.3696792    333.21599  0.062540538  0.064448299            2 
  445000    1.0801409   -4.3180834    333.09547  0.062377429  0.064416522            2 
  446000    1.0665851   -4.3420056    333.17985  0.062253335  0.064384651            1 
  447000    1.0632519   -4.2723336    336.21118   0.06267919  0.064355199            3 
  448000    1.0792403   -4.3366687    335.95299  0.062491255  0.064325014            3 
  449000     1.093403   -4.3240836    336.99964  0.062546332  0.064295763            5 
  450000     1.077071   -4.3139864    337.52939  0.062505442  0.064267582            1 
  451000    1.0741297   -4.3003621    339.19356  0.062674346  0.064239396            3 
  452000    1.0810516   -4.3244818    338.13809  0.062341093  0.064209327            4 
  453000    1.1052555   -4.2918388    340.00671  0.062547224  0.064179102            3 
  454000    1.0755121   -4.3140546    339.42975  0.062303551  0.064148851            1 
  455000    1.0990791   -4.2974535    342.20936  0.062675708  0.064119048            4 
  456000    1.0713535   -4.3161778    341.42203  0.062394377  0.064090339            2 
  457000    1.0650146   -4.3211238     341.6042  0.062291065   0.06405984            3 
  458000    1.0887944    -4.341363    342.65163  0.062345638  0.064029474            4 
  459000    1.0682493   -4.3418628    343.65699  0.062392336  0.064000054            3 
  460000    1.0882988   -4.3080315    343.10091  0.062155962  0.063971739            4 
  461000    1.0841901   -4.3219938    345.83354  0.062515101  0.063941575            2 
  462000    1.0814317   -4.3481927    344.74357  0.062183184  0.063910956            2 
  463000    1.0764075   -4.3274229    345.58063  0.062199537  0.063880848            3 
  464000    1.0573495   -4.2861413     347.6461   0.06243644  0.063850337            1 
  465000    1.0680856   -4.3075939    347.13376  0.062210351  0.063819985            3 
  466000    1.0600234   -4.2923045    346.95808  0.062045437   0.06378982            3 
  467000    1.0486571   -4.3347139    348.31685  0.062155042  0.063759605            2 
  468000    1.0750129   -4.3495952    347.99695  0.061965269  0.063728192            3 
  469000    1.0822096   -4.3562371    348.48231  0.061919387  0.063696303            2 
  470000    1.0976582   -4.3338176    348.27332  0.061750588  0.063664556            1 
  471000    1.0672081   -4.3066434     350.2395  0.061967356  0.063633042            4 
  472000    1.0697518   -4.3083066    351.58323  0.062073311   0.06360252            2 
  473000    1.0612605   -4.3158769    351.43612   0.06191616  0.063572495            3 
  474000    1.0577764   -4.3400843    351.14251  0.061733916  0.063542295            7 
  475000    1.0911461   -4.3359703    351.43382  0.061655056   0.06351265            2 
  476000     1.075191   -4.3362143    351.20395  0.061485285  0.063480532            4 
  477000    1.0775072   -4.3158817    352.63569  0.061606514   0.06344872            5 
  478000    1.0548973   -4.3303071    352.88822  0.061521655  0.063415849            4 
  479000    1.0755338   -4.3023509    353.92015  0.061572747  0.063384054            2 
  480000    1.0420391   -4.3164993    354.32471  0.061514707  0.063350969            1 
  481000    1.0787363   -4.3103188    354.62773  0.061439315  0.063316992            3 
  482000    1.0615148   -4.3174051    354.19412  0.061236882  0.063281625            2 
  483000    1.0545366   -4.3436809    353.60619  0.061008659  0.063246144            4 
  484000    1.0493007   -4.3925683    354.49056  0.061034877  0.063210892            4 
  485000    1.0861487   -4.3521761    356.60341  0.061272063  0.063175687            2 
  486000    1.0366465   -4.3532987    356.68605   0.06116016  0.063140887            1 
  487000    1.0680498   -4.3274774    357.08035  0.061102045  0.063107038            2 
  488000    1.0496646   -4.3371842    357.13675  0.060986466  0.063072789            3 
  489000    1.0527233   -4.3459293    358.61122  0.061113022  0.063038749            1 
  490000    1.0856119   -4.3254686    360.38606  0.061290147   0.06300454            2 
  491000    1.0453309   -4.3688389    358.85758  0.060905902  0.062969972            4 
  492000    1.0645989   -4.3350863    360.81974  0.061114455  0.062935166            3 
  493000    1.0558404   -4.3089284     361.1258  0.061042225  0.062900638            3 
  494000    1.0525835   -4.3329584    361.97415  0.061061766  0.062866852            2 
  495000    1.0696229   -4.3245741    362.13314  0.060965175  0.062833319            4 
  496000    1.0561782   -4.3758789     362.2217  0.060857141  0.062799512            3 
  497000    1.0782361   -4.3156477    364.29862  0.061082934  0.062765918            2 
  498000    1.0649564   -4.3233612    364.18634   0.06094149  0.062731586            3 
  499000    1.0718879     -4.37491    364.67882  0.060901607  0.062697722            2 
  500000    1.0522028   -4.3630232    365.64957  0.060941595  0.062663591            3 
  501000    1.0609491   -4.3712243    365.07258  0.060723983  0.062629644            5 
  502000    1.0375268     -4.33553    367.34737   0.06098064  0.062596199            5 
  503000    1.0674274   -4.3265055    368.51036  0.061052082  0.062562729            1 
  504000    1.0581984   -4.3710302    368.09388  0.060862084  0.062529879            3 
  505000    1.0473601   -4.3607751    368.57217   0.06082049  0.062496754            2 
  506000    1.0240811   -4.3498536    370.35989  0.060994711  0.062464619            3 
  507000    1.0496318   -4.3528848    368.00816  0.060487863  0.062432439            6 
  508000    1.0713663   -4.3677722    370.64151  0.060800772  0.062400809            2 
  509000    1.0488569   -4.3609721    371.99769  0.060903355  0.062370518            1 
  510000    1.0505585   -4.3827027    371.43805  0.060692492  0.062340061            3 
  511000    1.0532748   -4.3660468    373.46464  0.060904214  0.062309118            3 
  512000    1.0485288   -4.3882361    373.64381  0.060814422  0.062277745            2 
  513000    1.0595801   -4.3478236    374.17568  0.060782274  0.062248042            2 
  514000    1.0649461   -4.3503749      376.769  0.061084469  0.062218052            3 
  515000    1.0175831   -4.3606912    376.35357  0.060898635  0.062188849            3 
  516000    1.0603273   -4.3534232    376.17344  0.060751524  0.062160485            4 
  517000    1.0415629   -4.3665378     378.6537    0.0610338  0.062133761            6 
  518000    1.0401463   -4.3605791     378.2704  0.060854311  0.062106996            4 
  519000    1.0521125    -4.361098    379.61083  0.060952286  0.062079773            6 
  520000    1.0216763    -4.348412    379.96966  0.060892573  0.062052368            2 
  521000    1.0589666   -4.3724002    378.84613  0.060595989   0.06202401            3 
  522000    1.0539006   -4.3821507    381.16176  0.060849579   0.06199605            2 
  523000    1.0402234    -4.399911    382.32871   0.06091917  0.061969175            4 
  524000    1.0166393   -4.3594726    381.68462   0.06070048  0.061943596            2 
  525000    1.0391329   -4.3660668    384.93043  0.061100069  0.061917817            4 
  526000    1.0263465   -4.3638475    382.14102  0.060541987   0.06189218            2 
  527000    1.0293621   -4.3649822    384.18324  0.060750038  0.061865169            1 
  528000    1.0413314   -4.3628521    384.43581  0.060674844  0.061837356            3 
  529000    1.0381179   -4.3939743    385.07445  0.060660751  0.061809874            2 
  530000     1.046222   -4.3595869    383.16946   0.06024677   0.06178118            6 
  531000    1.0496827   -4.3648282    384.69491   0.06037271  0.061751171            5 
  532000    1.0605826   -4.3815552    385.66267  0.060410818   0.06172109            3 
  533000    1.0491066   -4.3833213    385.83494  0.060324412  0.061690633            5 
  534000     1.035669   -4.3867208    386.19176  0.060267128  0.061660514            4 
  535000    1.0537029   -4.3756035    387.03686  0.060286115  0.061630702            3 
  536000    1.0282662   -4.3571964    387.13068  0.060188227   0.06160178            3 
  537000    1.0513689    -4.335833    387.50729  0.060134588   0.06157208            2 
  538000    1.0492521   -4.3651517    388.32016  0.060148723  0.061543254            1 
  539000    1.0297478   -4.3677132    390.02704  0.060301026  0.061515504            2 
  540000     1.013179    -4.392008    389.49251  0.060106869  0.061487106            2 
  541000    1.0497802    -4.398457    390.32846  0.060124532  0.061458614            3 
  542000    1.0190351   -4.3973871    389.62228  0.059905024  0.061429637            2 
  543000    1.0430696   -4.3333931    392.58987  0.060250133  0.061401883            2 
  544000     1.027693   -4.3463641    393.86766  0.060335119  0.061373494            5 
  545000    1.0338375   -4.3676021    392.84714  0.060068371  0.061345361            4 
  546000     1.035591   -4.3787379    392.96315  0.059976061  0.061316981            7 
  547000    1.0345082   -4.3679353    394.77622  0.060142629  0.061288418            2 
  548000    1.0470682   -4.3908151    394.35586  0.059968956  0.061259594            2 
  549000    1.0502572     -4.39209    394.36075  0.059860465  0.061230686            4 
  550000    1.0312046   -4.3732597    394.84461   0.05982494  0.061201134            4 
  551000    1.0355709   -4.4196207    396.32087  0.059939635  0.061171834            2 
  552000     1.013248   -4.3767578    397.04285  0.059940044  0.061142137            4 
  553000    1.0261612   -4.3523428     396.2438  0.059711242  0.061112177            4 
  554000    1.0338121   -4.3862812    396.59375  0.059656099  0.061081699            4 
  555000    1.0450682   -4.4088664     397.1157  0.059626981  0.061050622            3 
  556000    1.0354441   -4.3806607     398.5346  0.059732404  0.061021422            2 
  557000    1.0438141    -4.374128    399.17138  0.059720434  0.060991864            4 
  558000    1.0259474    -4.429407    398.02188  0.059441738  0.060961923            5 
  559000    1.0232557   -4.3768536    401.59521  0.059868099  0.060932126            2 
  560000    1.0352814   -4.3632814    403.07486  0.059981378  0.060903075            2 
  561000    1.0277353   -4.3683414    400.77686  0.059533105  0.060875596            6 
  562000     1.028916    -4.378248    402.45237  0.059675618  0.060846738            2 
  563000     1.002372   -4.4142158    402.67713  0.059602891  0.060817769            5 
  564000    1.0048111   -4.3864172    403.85181  0.059670776  0.060789113            3 
  565000    1.0252892   -4.4147718     402.3934  0.059350059  0.060759566            2 
  566000    1.0085776   -4.4013141    403.86116  0.059461302  0.060730947            2 
  567000    1.0220164   -4.3882402    405.86169  0.059650454  0.060702127            4 
  568000    1.0037563   -4.3835059    407.08214  0.059724493  0.060672976            2 
  569000     1.012244   -4.4106748    405.95442  0.059454367  0.060644745            4 
  570000     1.031458   -4.3966109    408.81004  0.059767549  0.060616319            3 
  571000     1.028504   -4.4058225    406.39482  0.059310393  0.060588677            4 
  572000    1.0192447   -4.3803744    409.33716  0.059635367   0.06056033            3 
  573000    1.0462437     -4.37827    409.58594  0.059567472  0.060533684            2 
  574000    1.0047153   -4.3960862    409.76722  0.059490014  0.060506505            5 
  575000    1.0378248   -4.4056383    410.45522  0.059486264  0.060478973            1 
  576000    1.0334109    -4.401389    410.69153  0.059417177   0.06045128            3 
  577000    1.0336857   -4.4053477    413.02589  0.059651342  0.060424151            3 
  578000    1.0089036   -4.3850626    410.96514   0.05925103  0.060396932            6 
  579000    1.0236449   -4.3731134    413.18565  0.059468285  0.060369251            7 
  580000    1.0355595    -4.364556    413.94828  0.059475328  0.060341977            3 
  581000    1.0231969   -4.4150544    412.36228   0.05914548  0.060313972            4 
  582000    1.0061971   -4.3916037    413.72976  0.059239656  0.060285664            2 
  583000    1.0216782   -4.3950611    413.72851  0.059137866  0.060256907            3 
  584000    1.0374392   -4.3950313    414.79541  0.059188843  0.060227992            4 
  585000    1.0178518   -4.4051357    414.88352  0.059100216  0.060198806            4 
  586000     1.036917   -4.4103878    415.37391  0.059069099  0.060169946            4 
  587000    1.0155488   -4.3893764    416.67603  0.059153327  0.060141372            5 
  588000    1.0322003   -4.4107536    416.28374  0.058997129  0.060112212            3 
  589000    1.0327223   -4.3856889    415.68516  0.058812275  0.060083465            5 
  590000    1.0055703   -4.4047958    417.09997  0.058912426  0.060054843            2 
  591000   0.99767719   -4.4227576    416.93703  0.058789767  0.060025509            2 
  592000    1.0269111   -4.4193936    416.94251  0.058691231  0.059996121            7 
  593000    1.0249879   -4.3852788    418.36346  0.058791943  0.059967444            6 
  594000    1.0205447   -4.4256981    418.97233  0.058778385  0.059938531            1 
  595000    1.0182794   -4.3999735    420.21066  0.058853033  0.059909984            7 
  596000    1.0268373   -4.4471185    419.55877   0.05866314  0.059882401            3 
  597000     1.016633   -4.4321141    421.79439  0.058876939  0.059854462            9 
  598000    1.0158388    -4.435982    422.12767  0.058824926  0.059826274            4 
  599000    1.0145073   -4.3960786    423.60827  0.058932703  0.059798925            3 
  600000     1.013811   -4.4376648    422.55877  0.058688718   0.05977123            5 
  601000    1.0258575   -4.4103731    423.11325  0.058667949  0.059743243            4 
  602000    1.0011279   -4.3979878    424.33082  0.058739039  0.059716119            4 
  603000    1.0148587   -4.4161376    424.56861   0.05867449  0.059688468            3 
  604000   0.99953084   -4.4386337    425.49197  0.058704742  0.059661108            3 
  605000    1.0125457   -4.4184272    425.48687  0.058607007  0.059632503            4 
  606000    1.0164863   -4.4257903    424.50176  0.058374829  0.059603879            2 
  607000   0.99823977   -4.3990344    425.39804  0.058401707  0.059575145            4 
  608000    1.0128716    -4.423777    426.98196  0.058522747  0.059546796            3 
  609000    1.0006376   -4.4289758      426.099  0.058305829  0.059518062            2 
  610000   0.99763569     -4.41552    429.44964  0.058667984  0.059489993            3 
  611000    1.0258796    -4.395346    430.83442  0.058760831  0.059462593            2 
  612000    1.0317447   -4.4313265    428.52355  0.058350157  0.059435376            2 
  613000   0.99415113   -4.4182537    430.23749  0.058487968  0.059408343            3 
  614000    1.0223539   -4.4360407    430.59671  0.058441464  0.059380589            2 
  615000   0.99097634   -4.4379128    431.22802   0.05843198  0.059353479            3 
  616000    0.9909388   -4.4332568    432.07474  0.058451669  0.059326555            2 
  617000    1.0031833   -4.4403059      431.863  0.058328337   0.05929918            1 
  618000    1.0126662   -4.4355749    433.41097  0.058442687  0.059272696            4 
  619000    1.0324449   -4.4468134    432.01852  0.058160812  0.059245485            8 
  620000   0.99236432   -4.4244045    434.03468  0.058337995  0.059218308            5 
  621000    1.0304598   -4.4206217    435.29964  0.058413801  0.059191992            3 
  622000   0.99879871   -4.4366318    434.63563  0.058230926  0.059165809            3 
  623000    1.0094329    -4.445885    435.68058  0.058277231  0.059140024            3 
  624000    1.0161586   -4.4217413    436.66453  0.058315241  0.059115109            6 
  625000    1.0245621   -4.4489344    438.52987   0.05847065  0.059089841            2 
  626000   0.99207215   -4.4318194    440.11995  0.058588918  0.059065021            4 
  627000   0.99344872   -4.4272152    438.93875  0.058338484  0.059041234            7 
  628000   0.99928305   -4.4321401    439.39822  0.058306558  0.059017005            4 
  629000    1.0162284   -4.4704192    439.90418  0.058280893  0.058991975            2 
  630000    0.9964652   -4.4582549    439.63437  0.058152695  0.058966195            4 
  631000   0.99856286   -4.4564917    439.64254  0.058061614  0.058941217            4 
  632000   0.99623167   -4.4071422    442.84828  0.058392442  0.058916286            3 
  633000    1.0031255   -4.4222046    443.49928  0.058385898  0.058891559            1 
  634000    1.0068757   -4.4703038    441.72643  0.058060782   0.05886631            4 
  635000   0.99622452   -4.4607752    444.60159  0.058346665   0.05884074            2 
  636000    1.0005824   -4.4446106    444.44892  0.058234921  0.058815315            3 
  637000    1.0047397   -4.4562525    444.95006  0.058209061  0.058790704            5 
  638000    1.0248937    -4.467472    444.81577  0.058100284  0.058765638            2 
  639000    1.0026549   -4.4473469    445.20156  0.058059671  0.058741774            4 
  640000    1.0132148   -4.4626897    445.61554  0.058022857  0.058716841            2 
  641000   0.99323339   -4.4487975    446.30987  0.058022604  0.058692969            2 
  642000   0.99004118   -4.4378771    448.10715  0.058165518  0.058667431            4 
  643000     1.011818   -4.4587899    447.79632  0.058034774  0.058642152            4 
  644000   0.99967347   -4.4098208    447.94033  0.057963293  0.058616962            3 
  645000   0.98757928   -4.4764259    447.73751  0.057847224  0.058591818            2 
  646000    1.0008069    -4.453716    449.24473  0.057952107  0.058567798            2 
  647000    0.9995518   -4.4664922    450.30514  0.057999117  0.058542964            3 
  648000   0.99938036   -4.4555981    450.86315  0.057981372   0.05851753            3 
  649000    1.0050112     -4.45089     447.9239  0.057514625  0.058492823            3 
  650000   0.98188351   -4.4507819    451.09198  0.057832305  0.058467904            3 
  651000    1.0066129   -4.4631256    453.20125  0.058013473  0.058443402            3 
  652000   0.99088008   -4.4639979    452.37656   0.05781909  0.058418574            5 
  653000    1.0086078   -4.4102245    453.88176  0.057922634  0.058393955            4 
  654000   0.99343885   -4.4299121    455.67436  0.058062482  0.058369753            2 
  655000   0.98306969   -4.4850747    452.84908  0.057614386  0.058345157            4 
  656000   0.99937024   -4.4444567    455.25927  0.057832733   0.05832019            1 
  657000   0.99008373   -4.4757041    453.25441  0.057490412  0.058294786            6 
  658000   0.99986702   -4.4532208    455.24908  0.057655658  0.058269576            4 
  659000   0.98261311   -4.4640412    455.25123  0.057568441  0.058243703            4 
  660000   0.99634819   -4.4862475    454.85677  0.057431411  0.058218611            1 
  661000   0.99352079   -4.4318338    457.08614  0.057625585  0.058193779            3 
  662000   0.98272739   -4.4864657    455.32896  0.057317341  0.058167972            3 
  663000   0.99695781   -4.4549177    456.91394  0.057430108  0.058142446            2 
  664000   0.99017241   -4.4742945    457.70545  0.057442953  0.058117301            3 
  665000    1.0011891   -4.4599509    460.60255  0.057719618  0.058093039            5 
  666000   0.98889456   -4.4467881    458.86231  0.057415204  0.058068106            4 
  667000   0.97158531    -4.452295    460.53168  0.057537691  0.058042571            3 
  668000   0.98752039   -4.4615463    457.63426  0.057090103  0.058017487            4 
  669000   0.97858827   -4.4808017    459.47515  0.057234075  0.057991501            2 
  670000   0.99004441   -4.4812931    460.37455  0.057260516  0.057965628            2 
  671000     0.998714   -4.4585069     462.0208  0.057379632  0.057939648            4 
  672000   0.95848108    -4.474024     459.4418   0.05697443  0.057914414            7 
  673000    1.0026731   -4.4655403    460.75758  0.057052697  0.057888325            4 
  674000    0.9849324   -4.4513145    462.20668  0.057147215  0.057861818            3 
  675000   0.98949601   -4.4599529    464.07749  0.057293517  0.057835807            3 
  676000   0.98751776   -4.4452161    464.62929  0.057276786  0.057809416            3 
  677000   0.97919078   -4.4658349    464.56684  0.057184496  0.057783679            3 
  678000   0.98601801   -4.4929753    464.61314  0.057105843  0.057757384            6 
  679000   0.98621194   -4.4921281    463.41776  0.056875032  0.057730265            4 
  680000   0.98575984   -4.4542497     464.1529  0.056881483  0.057704246            2 
  681000   0.99019259   -4.4802683    464.98721   0.05690005  0.057677614            2 
  682000   0.97358077   -4.4742271    465.73897  0.056908476  0.057650455            4 
  683000   0.97398548   -4.4713462    464.95741  0.056729796   0.05762267            5 
  684000   0.97062108   -4.4860967    464.79575  0.056627163  0.057594934            2 
  685000   0.96475964    -4.451437    465.87823  0.056676184  0.057567089            3 
  686000   0.99548351   -4.4768691    465.80262   0.05658438  0.057539401            6 
  687000   0.96679012   -4.4938685    465.76026  0.056496877  0.057511745            4 
  688000   0.96971069   -4.4623478    467.21815  0.056591345  0.057483788            2 
  689000   0.98639271   -4.4916961     465.8945  0.056349117  0.057455101            4 
  690000   0.97512853   -4.4925182    467.78176  0.056495382  0.057426849            4 
  691000   0.98382607   -4.4812197    468.45701  0.056495057  0.057398968            5 
  692000   0.99754327    -4.474678    469.80883  0.056576208  0.057371428            5 
  693000   0.96254767   -4.4835942    469.34909  0.056439285   0.05734408            3 
  694000    1.0008936    -4.469723    469.19868  0.056339899   0.05731659            4 
  695000   0.97446937   -4.5224943    468.60476  0.056187621  0.057288155            4 
  696000   0.97828592   -4.5008468    469.03849  0.056158823  0.057258999            3 
  697000   0.97417375   -4.4986061    471.44553  0.056366036  0.057230442            3 
  698000   0.99863809   -4.4707353    471.37673  0.056277069  0.057201872            2 
  699000   0.96219942   -4.5082229    469.58719  0.055983213   0.05717318            6 
  700000   0.97151497   -4.5035837    472.60147   0.05626208  0.057144182            2 
  701000   0.97302876   -4.4776028    473.50838  0.056289631  0.057115721            2 
  702000   0.97581846   -4.4891146    473.76153  0.056239498  0.057086182            3 
  703000   0.96710664   -4.5101751    472.05398  0.055957087  0.057056972            2 
  704000    1.0113426   -4.4937997    473.72118   0.05607495  0.057028284            4 
  705000   0.98099615    -4.526797     471.9501  0.055786063  0.056999319            2 
  706000   0.95219268   -4.4989491    473.71091  0.055914885  0.056970664            4 
  707000   0.98048052   -4.4957073    473.23097  0.055779228  0.056941183            6 
  708000   0.98055351    -4.485328    475.69514  0.055990482  0.056912019            4 
  709000   0.96971502    -4.510931    474.41069  0.055760542  0.056882711            4 
  710000   0.97796144   -4.5089793    476.15158  0.055886336  0.056852803            4 
  711000   0.97153618   -4.5095304     476.2722  0.055821871  0.056823934            3 
  712000   0.96521649   -4.5140383    475.36321   0.05563708  0.056795045            2 
  713000   0.98438002   -4.4889638    475.87341  0.055618678  0.056766226            3 
  714000   0.98708082   -4.5489451    475.30858  0.055474857  0.056736587            2 
  715000   0.96760898   -4.4656902    479.19154   0.05584983  0.056706647            4 
  716000   0.94354594   -4.4837792    477.31832  0.055553809  0.056677175            3 
  717000    0.9626301   -4.5102432    478.72712  0.055640066  0.056647317            5 
  718000   0.95563184   -4.4930435    477.80607  0.055455672  0.056617534            2 
  719000   0.97677243   -4.4674253    480.84054  0.055730243  0.056588502            5 
  720000   0.96467174   -4.5024035    481.21283  0.055695929  0.056560308            2 
  721000    0.9628571    -4.535069    479.85566  0.055461819  0.056531237            2 
  722000    0.9788676   -4.5136469    481.38033  0.055560979  0.056502507            6 
  723000    0.9696314   -4.5342406    482.09611  0.055566634  0.056473229            4 
  724000   0.97104751   -4.4919655    483.34553  0.055633694  0.056444328            4 
  725000   0.96975746   -4.5241462    481.84939  0.055384988  0.056415673            7 
  726000    0.9647183   -4.5557875    482.57824   0.05539236  0.056386672            4 
  727000     1.001277   -4.5161742    481.92893  0.055241739  0.056357844            4 
  728000    0.9660944   -4.5610956    483.14871  0.055305484  0.056329921            4 
  729000   0.97078252    -4.505008    484.36115  0.055368216  0.056301704            2 
  730000   0.95494091   -4.5293614    485.37193  0.055407754  0.056273785            3 
  731000   0.95326296   -4.5189146    483.97462  0.055172666  0.056244856            5 
  732000   0.97705485    -4.518909    486.93718  0.055434561   0.05621581            3 
  733000   0.97314398   -4.4933451    486.93575  0.055358771  0.056187122            2 
  734000   0.96221365   -4.4976255    486.07069  0.055185138  0.056159278            4 
  735000   0.96882749   -4.4940318    486.92427  0.055206833   0.05613077            4 
  736000   0.95501193   -4.4998594    489.36186   0.05540782  0.056103071            4 
  737000   0.95690648   -4.4992057    489.13894  0.055307433  0.056075063           11 
  738000   0.97066941   -4.4861431    489.43005  0.055265363  0.056046852            3 
  739000   0.94198038   -4.5145533    489.77737  0.055229744  0.056018535            6 
  740000   0.95183043   -4.5158679    487.67568  0.054918432  0.055989818            2 
  741000   0.97253611   -4.5393418    489.22115  0.055018123  0.055960843            4 
  742000   0.95741608   -4.5377109    489.61172  0.054987839  0.055931601            2 
  743000   0.93951977   -4.5096011    490.95093  0.055064034  0.055902524            2 
  744000   0.96639941    -4.509052    491.01725  0.054997452  0.055873666            4 
  745000   0.96390569   -4.5141798    492.07743  0.055042218  0.055844971            3 
  746000   0.95331087   -4.5176022    490.99281  0.054847276  0.055816257            3 
  747000   0.98932313   -4.5380329    491.18196  0.054794953  0.055787919            6 
  748000   0.95597896   -4.5060042    493.84828  0.055018748  0.055759768            3 
  749000   0.97510446   -4.5200892    494.63188  0.055032474  0.055731897            3 
  750000    0.9493223   -4.5329659    492.99677  0.054777419  0.055703973            2 
  751000   0.96286938    -4.559064    493.54343  0.054765138  0.055675603            3 
  752000   0.94997177    -4.485454    494.72917  0.054823711  0.055647664            4 
  753000   0.95820468   -4.5194729    495.44745  0.054830395  0.055619357            2 
  754000   0.94489267   -4.5251173    495.59385  0.054773857  0.055591282            2 
  755000   0.96311015   -4.5492084    497.51122  0.054912938  0.055563066            3 
  756000   0.95962202   -4.5095338    496.89522  0.054772401  0.055535018            2 
  757000   0.94640685   -4.5412218    496.51734  0.054658448  0.055507037            8 
  758000   0.94697695   -4.5123164    496.34617  0.054567521  0.055479056            2 
  759000   0.96075119   -4.5337597    498.11225  0.054689531   0.05545102            2 
  760000   0.94298893   -4.5388091    497.63111  0.054564815  0.055422867            4 
  761000   0.95766171   -4.5493086    499.18092  0.054662825  0.055394689            3 
  762000   0.92793829   -4.5288476    497.98014  0.054459771  0.055366332            5 
  763000   0.95989382   -4.5384215    498.48605  0.054443649  0.055338419            4 
  764000   0.94547399   -4.5321857    501.37334  0.054687319  0.055310772            6 
  765000   0.93894689   -4.5306311    500.59048  0.054530554  0.055282945            4 
  766000   0.95046032   -4.5208993    499.93793  0.054388374  0.055254735            3 
  767000   0.95487084   -4.5460016    501.27258  0.054462471  0.055227117            2 
  768000   0.95520391   -4.5224993    502.67124  0.054543321   0.05519927            3 
  769000   0.94062798   -4.5574846    501.13279  0.054305677  0.055172156            6 
  770000     0.958616   -4.5565277    503.71473  0.054514581  0.055144514            3 
  771000   0.95601345       -4.548    503.76794  0.054449626  0.055116787            3 
  772000   0.95700334   -4.5398977    504.11408  0.054416459  0.055089337            5 
  773000   0.95034835   -4.5647511    503.87831  0.054320646  0.055061712            3 
  774000   0.94650635     -4.53106    503.64873  0.054225747  0.055034559            4 
  775000   0.97487888   -4.5372578    506.34151  0.054445323  0.055007362            2 
  776000   0.95639497   -4.5169612    506.70961  0.054414692  0.054980177            8 
  777000   0.92849769   -4.5504038    506.17846  0.054287694  0.054952764            3 
  778000   0.94501712   -4.5654731    505.14397  0.054107109  0.054925352            6 
  779000   0.93561098   -4.5536906    507.46353  0.054285786  0.054897905            4 
  780000   0.93398538   -4.5455303    507.95061  0.054268228  0.054871066            3 
  781000   0.95494706   -4.5508686    510.40829  0.054460978  0.054844568            4 
  782000   0.93885243   -4.5437595    510.08946   0.05435736  0.054818216            2 
  783000    0.9325503   -4.5494143    511.22254  0.054408529  0.054791642            5 
  784000   0.94733431   -4.5463904    511.15047   0.05433147  0.054765279            5 
  785000   0.94773713   -4.5369627    511.28033  0.054276044  0.054738006            4 
  786000   0.94859947   -4.5450447    510.81527  0.054157683  0.054710815            4 
  787000   0.94675313   -4.5499472    511.91429   0.05420524  0.054684059            3 
  788000   0.93382014   -4.5728404    508.52658  0.053778191  0.054656325            6 
  789000   0.94425435   -4.5290276    510.87365  0.053957926  0.054628801            3 
  790000   0.93184798    -4.553572     510.2404  0.053822827  0.054602037            6 
  791000   0.94855733   -4.5772172    510.41295  0.053772962  0.054574889            7 
  792000   0.95798107   -4.5677924    512.67384  0.053942955   0.05454784            4 
  793000   0.93499331   -4.5720072    512.03754  0.053808065  0.054520505           10 
  794000   0.93360024   -4.5363896     512.5141  0.053790313  0.054492721            2 
  795000   0.93464108   -4.5765153     512.5979  0.053731436  0.054465143            2 
  796000   0.94354184   -4.5493363    513.63618  0.053772632  0.054437709           11 
  797000   0.92217955   -4.5683809    512.62217   0.05359914  0.054409974            3 
  798000   0.95382026   -4.5582463    514.07982  0.053684191  0.054382513            4 
  799000   0.92819616   -4.5683769    513.22817  0.053528178  0.054354629            3 
  800000   0.92420531   -4.5569379    513.34908  0.053473863  0.054326351            4 
  801000   0.93704218   -4.5465847    515.88355  0.053670781  0.054298402            1 
  802000   0.91506929   -4.5460692    515.38209  0.053551755  0.054269952            3 
  803000   0.93066158   -4.5826973    514.42033  0.053385256  0.054241469            6 
  804000   0.92747658   -4.5558345    516.91459  0.053577383  0.054213023            2 
  805000   0.92157113   -4.5383367    518.30192  0.053654443  0.054185286            6 
  806000   0.93961964   -4.5634261    516.06699  0.053356802  0.054156562            5 
  807000   0.91680639   -4.5683675    516.76341  0.053362599  0.054128055            3 
  808000   0.94377847   -4.5665016    516.36627  0.053255597  0.054099651            5 
  809000   0.93196058    -4.552709    517.68707  0.053325821   0.05407125            5 
  810000   0.93470084   -4.5674029     517.6603  0.053257233    0.0540423            4 
  811000   0.92178414   -4.5395621     519.9669  0.053428576   0.05401423            5 
  812000    0.9319875   -4.5745021    518.25838  0.053187437  0.053985614            5 
  813000   0.90931618   -4.5655923    517.95007  0.053090413  0.053956611            3 
  814000   0.93060895   -4.5689826    519.38145  0.053171729  0.053927848            4 
  815000    0.9349034   -4.6211673    516.72385   0.05283475  0.053898832            3 
  816000   0.93784876   -4.5471451    521.57666   0.05326559  0.053869628            2 
  817000   0.91841532   -4.5562474      520.037  0.053043349  0.053840564            5 
  818000   0.93733344   -4.5785265    520.31248  0.053006569   0.05381148            3 
  819000   0.92330602   -4.5688291    519.63601  0.052873017    0.0537829            3 
  820000   0.93654795   -4.5755445    519.05685   0.05274968  0.053753746            2 
  821000   0.93480594   -4.5675124    521.48252   0.05293164  0.053724754            3 
  822000   0.93246913   -4.5425987    524.32079  0.053154986  0.053696189            5 
  823000   0.94054576   -4.5948148    521.49522  0.052804295   0.05366773            2 
  824000   0.93027461   -4.5989658    522.04963  0.052796281  0.053639288            2 
  825000   0.90624447   -4.5449679     523.8676  0.052915919  0.053611075            3 
  826000   0.91686297   -4.5775029    524.16054   0.05288141  0.053582637            7 
  827000   0.90906364   -4.6063022    523.91463  0.052792687  0.053554001            2 
  828000   0.92790186   -4.5860459    524.11751  0.052749346   0.05352583            3 
  829000    0.9320415   -4.5727177    525.00937  0.052775369  0.053497414            9 
  830000   0.91986326   -4.5845241    524.86846  0.052697636  0.053469298            2 
  831000   0.92184091   -4.5893941    524.87113   0.05263449  0.053440241            6 
  832000    0.9204348     -4.55601    526.17204  0.052701526  0.053411355            3 
  833000   0.90620844   -4.5777535    526.06972  0.052628023  0.053382674            2 
  834000    0.9017899   -4.5804748    527.42408  0.052700247  0.053354236            5 
  835000   0.91600757   -4.5668007    528.61117  0.052755606  0.053325785            2 
  836000   0.92276044   -4.5650615    530.66251   0.05289698  0.053297403            3 
  837000   0.93821675   -4.6020062    526.29139  0.052398585  0.053269033            5 
  838000   0.91949796   -4.5870582    529.18978  0.052624282  0.053240686            3 
  839000    0.9204494   -4.5792745    527.98923  0.052442315  0.053212014            3 
  840000   0.92109205   -4.5730579    531.15192  0.052693643  0.053184098            4 
  841000   0.92234999   -4.5670574    530.17473  0.052534159  0.053156133            4 
  842000   0.92876792   -4.5970136     531.7101  0.052623723  0.053128495            4 
  843000   0.91399555   -4.5935288    530.11812  0.052403927   0.05310015            2 
  844000   0.90800777   -4.5932861    531.07229  0.052436048  0.053071884            4 
  845000   0.92017157   -4.6044583    531.66474   0.05243242   0.05304388            3 
  846000   0.90471959   -4.6412859    529.70464  0.052177368  0.053015906            4 
  847000   0.91446391   -4.5752303    531.17228  0.052260162  0.052987343            4 
  848000   0.92160558   -4.6054089    531.56931   0.05223755  0.052958999            4 
  849000    0.9275815   -4.5602865     531.9736  0.052215704  0.052930523            5 
  850000   0.90839599   -4.5843287    534.86185  0.052437437  0.052902302            2 
  851000   0.91270711   -4.5829989    532.91512  0.052185186  0.052873981            3 
  852000    0.9140352   -4.6093064    532.09166  0.052043394  0.052845371            5 
  853000   0.92332043   -4.6029341    531.19638  0.051894918  0.052816612            5 
  854000   0.92517834   -4.5962366    533.93357  0.052101246  0.052788356            5 
  855000   0.91349029   -4.6198844    533.16559  0.051965457  0.052759418            4 
  856000   0.90254159   -4.6024388     532.8597  0.051874971  0.052730924           14 
  857000   0.92644685   -4.6163757    536.49754  0.052168177  0.052702808            4 
  858000   0.92699634   -4.5795627     536.3185  0.052089986  0.052674931            5 
  859000   0.90909223   -4.6091918     534.8556  0.051887427  0.052646821            6 
  860000   0.90695795   -4.6220604    536.75111  0.052010766  0.052618404            3 
  861000   0.89288235   -4.5815675    538.04074  0.052075178  0.052590084            5 
  862000   0.93448156   -4.6127428    538.51986  0.052061084  0.052562378            4 
  863000   0.90550244   -4.5761363    539.97415  0.052141188  0.052534667            3 
  864000   0.87933748   -4.6137663    538.91507  0.051978691  0.052507308            2 
  865000   0.91982744   -4.6202227     537.1685  0.051750337  0.052479606            3 
  866000   0.90355215   -4.5762246    540.01144  0.051964149  0.052452429            6 
  867000   0.91249455   -4.6142913    539.93199  0.051896577  0.052424932            3 
  868000   0.92186092   -4.6092548    540.89355  0.051929105   0.05239762           10 
  869000   0.91081137   -4.6191579    538.88139   0.05167639  0.052369614            5 
  870000    0.9085724   -4.6080901    539.73625  0.051698874  0.052341968            3 
  871000   0.90430214   -4.6298378    541.77303  0.051834388  0.052315071            3 
  872000   0.89146258   -4.6187611    542.51386  0.051845744  0.052288219            6 
  873000   0.91647442   -4.6184211    540.09813  0.051555759  0.052261156            3 
  874000   0.89540256   -4.6269118    542.55975  0.051731479  0.052233958            4 
  875000    0.8963481   -4.5790143     544.9771  0.051902581  0.052207006            5 
  876000   0.90128157   -4.6187656    542.39885  0.051598064  0.052180215            6 
  877000   0.89548425   -4.6469711    543.33501  0.051628185  0.052152937            6 
  878000   0.89884001   -4.6169842    545.22204  0.051748485  0.052126083            5 
  879000   0.88815081    -4.631132    546.08172  0.051771115  0.052099499            3 
  880000   0.90376529   -4.6215288     545.8974   0.05169483  0.052072794            2 
  881000   0.91557681   -4.6349854    546.44312  0.051687771   0.05204626            2 
  882000   0.92109006   -4.6292968    543.22249  0.051324876  0.052019753            3 
  883000   0.90658913   -4.6380699    545.90834  0.051520229  0.051992981            2 
  884000   0.89556825   -4.6183032    547.25111  0.051588528  0.051966691            2 
  885000   0.90776325   -4.6389568    547.45321  0.051549266  0.051940438            6 
  886000   0.89828632   -4.6076788    549.41818  0.051675901  0.051913948            6 
  887000   0.87921575   -4.6250985    548.74958  0.051554827  0.051887815            3 
  888000   0.89608288   -4.6141037    547.80449  0.051408079  0.051861571            4 
  889000   0.91075156   -4.6323346    548.81724  0.051445186  0.051834713           11 
  890000   0.91685529    -4.634601    549.02469  0.051406806  0.051808396            2 
  891000   0.89215243   -4.6481468    548.23795  0.051275529  0.051781858            5 
  892000   0.88311335   -4.6478994    549.43697   0.05133006  0.051755309            3 
  893000   0.90186732   -4.6093716    550.38141  0.051360714   0.05172852            5 
  894000   0.88833676   -4.6515733    550.98162  0.051359212   0.05170229            5 
  895000    0.8962147   -4.6379523    550.10427  0.051220137  0.051675727            4 
  896000   0.90660996   -4.6092765    554.10395  0.051534966  0.051649248            8 
  897000   0.87337373   -4.6463377    550.93078  0.051182719  0.051623121            5 
  898000   0.90464566   -4.6117383    552.78568  0.051297855  0.051596943            3 
  899000   0.90159394   -4.6181115    550.04192  0.050986459   0.05157069            3 
  900000   0.90249957   -4.6318186    551.87602  0.051099631  0.051544009            3 
  901000   0.89139796   -4.6402226    552.23916  0.051076504  0.051517342            5 
  902000   0.89640667   -4.6439214    551.14933  0.050919192  0.051490872            3 
  903000   0.88896384   -4.6243891    554.00235  0.051126093  0.051464258            6 
  904000   0.90417111    -4.656678    554.36299  0.051102783  0.051437838            2 
  905000   0.88182294    -4.640709    554.03592  0.051016198  0.051411367            3 
  906000   0.89118878   -4.6170553    556.11409  0.051151038    0.0513853            5 
  907000   0.90817614    -4.631768    553.41282  0.050846455   0.05135849            4 
  908000   0.89218346    -4.665413    554.42938  0.050883754  0.051331702           11 
  909000   0.90647779   -4.6329136    557.14052  0.051076322  0.051305374            5 
  910000   0.88430783   -4.6470074     556.2318  0.050936978  0.051278764            3 
  911000   0.90246988   -4.6502332    557.54609  0.051001289  0.051252808            3 
  912000   0.89359117   -4.6183398    557.37892  0.050930091   0.05122653            3 
  913000   0.88261624   -4.6476102    556.66085  0.050808766  0.051200504            6 
  914000   0.89196885   -4.6163581    557.36579   0.05081745   0.05117426            2 
  915000   0.88938039   -4.6430482    556.65759  0.050697413  0.051147818            2 
  916000   0.88215664   -4.6696505    559.23033  0.050876122  0.051121379            3 
  917000   0.87257804   -4.6475296    559.12583  0.050811145  0.051094886            2 
  918000   0.87259559   -4.6433742    558.18453  0.050670346  0.051068732            3 
  919000   0.87188431   -4.6175096    559.83786  0.050765131  0.051043104            4 
  920000   0.87805384   -4.6563088    560.68949  0.050787092  0.051017259            6 
  921000   0.87083639    -4.652995    559.03177  0.050581955  0.050991256            6 
  922000   0.89836823   -4.6412989    560.64897  0.050673262  0.050965141            3 
  923000   0.87296145   -4.6477134    561.21447  0.050669418  0.050938888            3 
  924000   0.87181231   -4.6596869    561.66319   0.05065505   0.05091262            4 
  925000   0.90040641   -4.6361118    560.27411  0.050475145  0.050886762            9 
  926000    0.9050118    -4.634429    562.29415  0.050602425  0.050860908            5 
  927000    0.8854128   -4.6315597    564.82998  0.050775799  0.050834922            5 
  928000   0.87802235   -4.6755269    562.59747  0.050520606  0.050809305            3 
  929000   0.89639248   -4.6560761    564.40697   0.05062854  0.050783665            5 
  930000   0.88657456   -4.6766822    561.30212  0.050295889  0.050757888            5 
  931000   0.87977187   -4.6703511    561.47963  0.050257754  0.050732147            4 
  932000   0.88358767    -4.660034    562.95308  0.050335576   0.05070639            4 
  933000   0.87202257   -4.6540724    563.70809  0.050349061   0.05068083            5 
  934000   0.88202401   -4.6535861    565.96685  0.050496685  0.050655225            3 
  935000   0.89285705   -4.6623194    566.32941  0.050474992  0.050629525            6 
  936000   0.88173409   -4.6709664    565.59046  0.050355276  0.050603827            4 
  937000   0.87853367   -4.6454267     566.8738   0.05041567  0.050578055            4 
  938000   0.88595191   -4.6795522    565.92915  0.050277998  0.050552702            6 
  939000   0.86304529   -4.6457409    568.33301   0.05043779  0.050527116            5 
  940000   0.86961888   -4.6990369    566.28914  0.050202938  0.050501679            3 
  941000   0.85387591   -4.6327894     567.7349  0.050277621  0.050476324            2 
  942000    0.8793346   -4.6814262    567.37503  0.050192413  0.050451359            2 
  943000   0.86018735   -4.6801133    567.65641  0.050164051  0.050425861            7 
  944000   0.86173239   -4.6679256    567.81059  0.050124523  0.050400536            9 
  945000   0.87651948   -4.6661661    569.70387  0.050238436  0.050374876            2 
  946000   0.87696051   -4.6570597    570.42255  0.050248639  0.050349501            2 
  947000   0.87212999   -4.6979009    568.14613   0.04999526  0.050324128            4 
  948000   0.86850499   -4.6619608    570.67966   0.05016523  0.050298629            3 
  949000    0.8578584   -4.6544811    570.56815  0.050102577  0.050273098            5 
  950000   0.87162095   -4.6642341     572.3779  0.050208587  0.050248061            6 
  951000   0.86722945   -4.6580383    573.12213  0.050221007  0.050223139            4 
  952000   0.87521043   -4.6857273    571.85993  0.050057767  0.050197841            6 
  953000   0.86683842   -4.6540644    573.22892  0.050124949  0.050172733            8 
  954000   0.86354964   -4.6649779    572.80338  0.050035236  0.050147705            4 
  955000   0.89650508      -4.6573    573.96558  0.050084256  0.050122672            4 
  956000   0.87245692   -4.6617888    574.40845  0.050070471  0.050097897            5 
  957000   0.85968384   -4.6640167     575.0323  0.050072475  0.050073352            4 
  958000   0.86861662    -4.700582    571.99659  0.049756141  0.050048612            9 
  959000   0.85091668   -4.6672971    576.28123  0.050076575  0.050023867            4 
  960000   0.87559965   -4.6541269    574.96267  0.049909954  0.049999147            5 
  961000   0.88124163   -4.6517958    573.21166  0.049706179  0.049974141            4 
  962000   0.88248817   -4.6667342    574.89471  0.049800304  0.049949494            5 
  963000   0.85874227   -4.6716042    576.58122  0.049894533  0.049924452            2 
  964000   0.87338324   -4.6750944     576.3484  0.049822648  0.049899936            4 
  965000   0.86262204   -4.6883724     574.9985  0.049654447   0.04987514            6 
  966000   0.86458718   -4.6723292     575.0987  0.049611689  0.049850256            8 
  967000   0.87122954   -4.6781251    577.73229  0.049787339  0.049824929            4 
  968000   0.86371991   -4.7003826    577.92669  0.049752642  0.049799741            4 
  969000   0.87487336   -4.6668476     577.1699  0.049636214  0.049774381            2 
  970000   0.87745684   -4.6869539    577.00591  0.049570954   0.04974925            3 
  971000     0.858328   -4.6830581    576.40549  0.049468374  0.049723735            4 
  972000     0.869108   -4.6966107    577.20856   0.04948633  0.049698448            2 
  973000   0.85411984   -4.6825075     576.2049  0.049349512  0.049672909            3 
  974000   0.86959511   -4.6736212    578.80342  0.049521168   0.04964728            4 
  975000    0.8654133   -4.6598074    578.29357  0.049426801  0.049621647            2 
  976000   0.86953189    -4.686484    578.34008  0.049380129  0.049596173            4 
  977000   0.86228104   -4.6992009    579.04151  0.049389415  0.049570721            4 
  978000    0.8686435   -4.6734771    580.62376  0.049473736  0.049545281            8 
  979000   0.86224819   -4.6687583    578.73978  0.049262834  0.049519889            6 
  980000   0.86423309   -4.7037921    578.59832  0.049200538  0.049494745            6 
  981000   0.86436299   -4.6531019    580.09428  0.049277461  0.049469432            5 
  982000    0.8641192   -4.7141795    580.00665  0.049219845  0.049444218            7 
  983000   0.86666705   -4.6757238    582.19583  0.049355361   0.04941901            4 
  984000   0.85610084   -4.6726729    580.10979  0.049128539  0.049394248           11 
  985000   0.87185592    -4.702338    581.32963  0.049181864  0.049368927            5 
  986000   0.85859112    -4.694126    581.69044  0.049162478  0.049343678            3 
  987000   0.84698891   -4.7085898    581.97009  0.049136279  0.049318283            3 
  988000   0.86142197   -4.7444326     580.0444  0.048924123  0.049292542            4 
  989000   0.87271245   -4.6920349    583.05873  0.049128643  0.049267194            3 
  990000   0.85887256   -4.6860003    583.82514   0.04914353  0.049241568            3 
  991000   0.86155409   -4.6817655    582.71756  0.049000804  0.049216073            3 
  992000   0.87532055   -4.6834615    585.00289  0.049143388  0.049190382            2 
  993000   0.87224992   -4.7027611     582.6996  0.048900605  0.049165007            4 
  994000   0.86441921   -4.6910453    584.98389  0.049042915  0.049139517            3 
  995000   0.85711041   -4.6882844     585.4139   0.04902964  0.049114207            5 
  996000   0.86052718   -4.7258916    583.99947  0.048862071   0.04908907            3 
  997000   0.85287166   -4.6872366    585.52894  0.048940901  0.049063619            5 
  998000    0.8343932   -4.7203285     584.1797    0.0487792  0.049038077            3 
  999000   0.84521242   -4.6698009    587.01257  0.048966681  0.049012743            4 
 1000000   0.85394335     -4.70189    584.99367  0.048749472  0.048987763            7 
 1001000   0.84910745   -4.6996938    585.48737  0.048741872  0.048962545            5 
 1002000   0.85725019   -4.7036812    585.79429  0.048718753  0.048937282            6 
 1003000   0.85466858   -4.7151582    588.25932  0.048874985  0.048911779            4 
 1004000   0.83405358    -4.726084    587.78537  0.048786966  0.048886399            7 
 1005000   0.84582242    -4.710253    586.16988  0.048604468  0.048860939            5 
 1006000   0.87370055   -4.7232622    588.04964  0.048711866  0.048835381            6 
 1007000   0.86472839   -4.7497373    585.86716  0.048482883  0.048809504            3 
 1008000   0.84949942   -4.7169662    588.15863  0.048624225  0.048783824            5 
 1009000   0.85091162   -4.7206435    587.15381  0.048493047  0.048758154           13 
 1010000   0.85749921   -4.7323046    588.17312  0.048529135  0.048732464            7 
 1011000   0.84990441   -4.6889839    589.18933  0.048564897  0.048706817            6 
 1012000   0.83609205   -4.7245651    587.18016  0.048351462   0.04868117            2 
 1013000   0.83796846   -4.6941337     588.5249  0.048414355  0.048655555            5 
 1014000   0.83771407   -4.7312264    589.04587  0.048409424  0.048629272            3 
 1015000   0.84575313   -4.7096444    589.95688  0.048436526  0.048603383            4 
 1016000   0.83681369   -4.7372467    587.24994  0.048166826  0.048577513            8 
 1017000   0.86534095   -4.7357816    588.71358  0.048239396  0.048551473            4 
 1018000   0.84982774   -4.7081746    589.73938  0.048275981  0.048525514            5 
 1019000   0.84199507   -4.7118757    590.04904  0.048253929  0.048500027            7 
 1020000     0.843683   -4.7321922     591.0594  0.048289166  0.048474204            6 
 1021000   0.83704526   -4.7234835    590.91574  0.048230145  0.048448485            8 
 1022000   0.83453153    -4.729126    589.28295  0.048049817  0.048422606            5 
 1023000   0.84026892   -4.7142691    590.57923  0.048108441  0.048396394            7 
 1024000   0.85010245   -4.7268152     589.8722  0.048003922  0.048370238            3 
 1025000   0.82985946   -4.7324274    590.08261  0.047974196  0.048343619            4 
 1026000   0.83763039   -4.7459576    590.82338  0.047987604  0.048317443            6 
 1027000   0.83262899   -4.7232877    590.96192  0.047952119  0.048290895            5 
 1028000   0.84132873   -4.7159312    592.52159  0.048031906  0.048265007            2 
 1029000   0.83666062   -4.7360828    590.98175  0.047860524  0.048238902            5 
 1030000   0.84343216   -4.7228237    593.33667  0.048004585  0.048212463            5 
 1031000   0.85436145    -4.730404    592.12895  0.047860406  0.048185875            4 
 1032000   0.83926035   -4.7448027    592.05131  0.047807761  0.048159286            7 
 1033000   0.83064429   -4.7212076    591.61112   0.04772597  0.048132647            8 
 1034000     0.838017   -4.7139303    591.91631   0.04770441  0.048106143            5 
 1035000   0.83764015   -4.7475043    592.23586  0.047684046  0.048079292            9 
 1036000   0.82737958   -4.7360982    594.08601  0.047786842  0.048052293            3 
 1037000   0.85377841   -4.7531442    592.37355  0.047603146  0.048025855            5 
 1038000   0.85447718   -4.7270706    593.62732  0.047657942  0.047999203            9 
 1039000   0.84543765   -4.7379313    592.20305  0.047497838  0.047972166            9 
 1040000   0.86036261   -4.7624978    593.26102   0.04753694  0.047945035            4 
 1041000   0.82042412    -4.723922    595.28264  0.047653109  0.047918394            4 
 1042000   0.84168255   -4.7672065    592.79466  0.047408402   0.04789151            8 
 1043000   0.82166232   -4.7489869    594.30378  0.047483523  0.047864119            3 
 1044000   0.84395816    -4.727873    593.67396  0.047387768  0.047836758            3 
 1045000   0.82212016   -4.7405759    594.96486  0.047445363  0.047809574            2 
 1046000   0.85382031   -4.7712646    594.30646  0.047347551  0.047782276           13 
 1047000   0.82089748   -4.7359348    595.95077  0.047433204  0.047755059            3 
 1048000   0.83685438   -4.7159032    595.71177  0.047368938  0.047728304            3 
 1049000   0.84190708   -4.7342959    592.72578  0.047086573  0.047701622            4 
 1050000   0.83743981    -4.740387    596.95765  0.047377591  0.047674882            5 
 1051000   0.82501426   -4.7562172    597.50837  0.047376179  0.047647879            5 
 1052000   0.83263355   -4.7617247    598.55384  0.047413961  0.047621372            4 
 1053000   0.83372171   -4.7528877    597.98221  0.047323695  0.047595046            7 
 1054000   0.84093312   -4.7426367     597.4325  0.047235333  0.047568872            7 
 1055000   0.84585921   -4.7813567    596.42371  0.047110877  0.047542107           12 
 1056000   0.83245764   -4.7557054    597.47017  0.047148845  0.047515699            6 
 1057000    0.8373707   -4.7453881    598.26388  0.047166815  0.047489315            4 
 1058000   0.83354736   -4.7722905    596.98793  0.047021734  0.047462926            5 
 1059000   0.83690922   -4.7607137    599.21017  0.047152201  0.047436486            5 
 1060000   0.82430342   -4.7683657    598.15291    0.0470246  0.047410197            5 
 1061000   0.81730623   -4.7602707    597.88034   0.04695887  0.047383497            9 
 1062000   0.83186353   -4.7636715    599.59732  0.047049381  0.047357009            4 
 1063000   0.83653033   -4.7677886    598.47296  0.046916977  0.047330386            4 
 1064000   0.83861381   -4.7755191     598.8841  0.046905083  0.047303595            6 
 1065000   0.84372707    -4.762439    597.52211  0.046754469  0.047276858            5 
 1066000   0.81653411   -4.7750588    598.46413  0.046784251  0.047249973            3 
 1067000   0.82766675   -4.7340901     600.3461  0.046887387  0.047223117            4 
 1068000   0.83233224   -4.7695942    599.65855  0.046789837  0.047196403            4 
 1069000   0.82504546   -4.7204651     602.2752  0.046950047  0.047169848            4 
 1070000   0.81090277   -4.7554439    600.15738  0.046741229  0.047143357            6 
 1071000   0.82714135   -4.7605276    600.57483  0.046730067   0.04711689            5 
 1072000   0.84653034   -4.7686286    601.81399  0.046782804  0.047090365            4 
 1073000   0.82694204   -4.7573057    601.00076  0.046676045  0.047063554            6 
 1074000   0.83322893   -4.7171424    601.34406  0.046659222  0.047036899            3 
 1075000   0.83345663   -4.7733233    603.10186  0.046752082   0.04701032            6 
 1076000   0.83983413   -4.7969074    600.91567  0.046539318   0.04698358            9 
 1077000   0.83833336   -4.7532071    602.76329  0.046639066  0.046956987            5 
 1078000   0.83286533   -4.7759464    603.08837  0.046620932  0.046930252            5 
 1079000   0.81307881    -4.731686    604.39178  0.046678389  0.046903517            3 
 1080000   0.83667275   -4.7614782    602.72381  0.046506467   0.04687668            7 
 1081000    0.8276938   -4.7877624    602.58661  0.046452868  0.046849949           11 
 1082000   0.80128766    -4.745395    604.12589  0.046528488  0.046823405            8 
 1083000    0.8356046   -4.7696551    603.74329  0.046456085  0.046797064            5 
 1084000   0.82844929   -4.8156587    603.91156  0.046426165  0.046770437            3 
 1085000   0.83056866   -4.7621497    604.90385  0.046459589  0.046743805            6 
 1086000   0.81149051   -4.7721902    603.97348  0.046345417  0.046717116            3 
 1087000    0.8031947   -4.7807498    606.28669   0.04648012   0.04669039            8 
 1088000   0.80452365   -4.7661881    605.96805  0.046412994  0.046663491            6 
 1089000   0.82191586   -4.7758311    607.38462  0.046478774  0.046637099            3 
 1090000   0.80527204   -4.7667882    605.41265  0.046285371  0.046610859            5 
 1091000   0.80229943   -4.7620673    607.19172  0.046378836  0.046584736            2 
 1092000   0.82767273   -4.7815423    606.38001   0.04627442   0.04655847           16 
 1093000    0.8102248   -4.7794067    607.70209  0.046332883  0.046532378            3 
 1094000   0.81512732   -4.7705639     606.0858  0.046167413  0.046506468            8 
 1095000   0.80873484   -4.7688735    609.97035  0.046420879   0.04648003            3 
 1096000   0.83805356   -4.7811254    605.77675  0.046059667  0.046453919            6 
 1097000   0.81898523   -4.7836716    609.95162  0.046334824  0.046427925            3 
 1098000   0.82411772   -4.8323489    606.43119   0.04602544  0.046401779            3 
 1099000   0.84680123   -4.7959257    608.20176  0.046117816  0.046375768            8 
 1100000   0.81203954   -4.7787256    609.76559  0.046194362  0.046349682            5 
 1101000   0.80330193   -4.7825294    607.47719    0.0459792  0.046323681            2 
 1102000   0.80788064   -4.7852838    608.69305   0.04602942  0.046297731            4 
 1103000   0.80655155   -4.8003448    608.16334  0.045947669  0.046271466            5 
 1104000   0.81654039   -4.8018967    608.68817  0.045945665  0.046245144            6 
 1105000   0.81081763   -4.7898768    609.17763  0.045940998  0.046218874            4 
 1106000   0.81147135    -4.776505    612.23675  0.046129954  0.046192892            8 
 1107000   0.79852225   -4.7625407    613.44347  0.046179123  0.046167325           11 
 1108000   0.80649479   -4.7840072    609.80584  0.045863857  0.046141404            3 
 1109000   0.81106278   -4.8171052    612.63782  0.046035304  0.046115322            9 
 1110000    0.8112897   -4.7959823    610.49566  0.045833008  0.046089378            6 
 1111000   0.82322568   -4.7921509    612.75582  0.045961283  0.046063457            4 
 1112000   0.80620649   -4.7801516    612.23824  0.045881163  0.046037715            3 
 1113000   0.81797823   -4.8109185    612.03103  0.045824425  0.046011921            5 
 1114000   0.78663588   -4.7892754    611.28355  0.045727375  0.045986111            5 
 1115000   0.80709607   -4.8009872    610.76758  0.045647801  0.045960265            7 
 1116000   0.82409017   -4.7874311    614.36156  0.045875266  0.045934516            6 
 1117000   0.80005927   -4.8052247      613.579  0.045775813  0.045908847            3 
 1118000   0.79769736   -4.7743529     613.7157  0.045745058  0.045883409            5 
 1119000    0.8081873   -4.7779912    614.25468  0.045744317  0.045857652            5 
 1120000   0.80349838   -4.8224431    613.35336  0.045636411  0.045831839            6 
 1121000   0.82561454   -4.8313128    611.52872   0.04546006  0.045805905           10 
 1122000   0.78702579   -4.8053283    613.37669  0.045556795  0.045780052            7 
 1123000   0.80735896    -4.800742     615.4108  0.045667171  0.045754247            2 
 1124000   0.80232782   -4.7922717    613.83951  0.045510047  0.045728617            5 
 1125000   0.80600885   -4.8050037    615.68932  0.045606616  0.045703085            4 
 1126000   0.81885066   -4.8107311      616.941  0.045658748  0.045677786            4 
 1127000   0.78541687   -4.7984976    615.79897   0.04553379  0.045652163            4 
 1128000   0.81643699   -4.7922503    616.96118  0.045579283  0.045626602            7 
 1129000   0.81009589    -4.790609     614.9909  0.045393483  0.045601025            6 
 1130000   0.78191307   -4.8040947    614.24143  0.045298041  0.045575145            4 
 1131000    0.7971955   -4.7901963    614.18483  0.045253819  0.045549084            8 
 1132000    0.8023961   -4.8204957    617.37154  0.045448435  0.045523563            2 
 1133000   0.81831094   -4.7997829    618.49062  0.045490631  0.045498048           13 
 1134000   0.81274724   -4.8264839    616.93699  0.045336345  0.045472531            5 
 1135000   0.78766563    -4.815797     617.7582  0.045356696  0.045446841            5 
 1136000   0.79545727   -4.8225831    614.53844  0.045080578  0.045421135            6 
 1137000   0.80914317   -4.8139537    616.98518  0.045220257  0.045395448            4 
 1138000   0.80167758   -4.8117165    617.93345   0.04524996  0.045369513            3 
 1139000   0.80323012   -4.8241593    618.82158   0.04527521  0.045343652            7 
 1140000    0.8060585   -4.8348825    618.36154  0.045201867  0.045317853            4 
 1141000   0.80743158   -4.8302801    617.68581  0.045112899  0.045292379            5 
 1142000   0.80104758   -4.7839492     619.4819  0.045204459  0.045266685            3 
 1143000    0.7964728   -4.8221768    618.86218  0.045119727  0.045241056            5 
 1144000   0.80415982   -4.8408665    617.40932  0.044974455  0.045215128            7 
 1145000   0.80302796    -4.847012    618.33365  0.045002449  0.045189317            3 
 1146000   0.77903695   -4.8276424    619.05775  0.045015834  0.045163417           12 
 1147000   0.80054313   -4.8184997    619.18862  0.044986096  0.045137695            4 
 1148000   0.79491939   -4.8396519    619.73411  0.044986506  0.045111745           12 
 1149000    0.8069482    -4.840644    619.13694  0.044904043  0.045085848            4 
 1150000   0.78802046     -4.82182    619.15048  0.044865977    0.0450597            8 
 1151000   0.79219007   -4.8454215    617.97722  0.044742052  0.045033676            4 
 1152000   0.80228227   -4.8415585    618.20695  0.044719831  0.045007254           10 
 1153000   0.78524849   -4.8254816    619.59225  0.044781168  0.044980976            6 
 1154000   0.81024023   -4.8347247    618.87171  0.044690332  0.044954875            4 
 1155000   0.79560992   -4.8354152    620.67878  0.044782019  0.044928728            3 
 1156000   0.77296416   -4.8506793    619.35635  0.044647949  0.044902443            6 
 1157000   0.77129654   -4.8284851    621.65246  0.044774738  0.044876415            3 
 1158000   0.78361124   -4.8276384    622.36977  0.044787692  0.044850239            9 
 1159000   0.79566444   -4.8319563     620.4717  0.044612576  0.044824318            6 
 1160000   0.79942463   -4.8078301    620.63696  0.044585988   0.04479853            2 
 1161000   0.80091119   -4.8280021    622.10865  0.044653219  0.044772329            4 
 1162000   0.79100679   -4.8181637     621.5547  0.044575065  0.044746165            6 
 1163000   0.79224735   -4.8524409    620.85052   0.04448628  0.044719832            4 
 1164000   0.80047656   -4.8364121    622.51342  0.044567112  0.044693592           14 
 1165000   0.78876688   -4.8278601    620.80257  0.044406478  0.044667463            9 
 1166000   0.78995756   -4.8433421    622.77758  0.044509547  0.044641446            3 
 1167000   0.78475463    -4.852019    621.15836  0.044355781  0.044615531            4 
 1168000   0.77624643   -4.8690225    621.95079  0.044374343  0.044589507            6 
 1169000    0.7982434   -4.8316868    622.88759  0.044403164  0.044563786            4 
 1170000   0.78842078   -4.8274404    624.03206  0.044446728  0.044538377            6 
 1171000   0.78172659   -4.8217645    625.55825  0.044517382  0.044512907            5 
 1172000   0.78122729   -4.8629939    624.37758  0.044395448  0.044487487            5 
 1173000   0.79362568   -4.8586697    624.04436  0.044333927   0.04446209            7 
 1174000   0.79485295   -4.8160263    627.02978  0.044508076  0.044436924            5 
 1175000   0.78496036   -4.8401555    623.68752  0.044233157  0.044411704            2 
 1176000   0.77475642    -4.871738     626.3122  0.044381533  0.044386135            6 
 1177000   0.79492809   -4.8574557    624.47704  0.044213894  0.044360965            4 
 1178000   0.78218821   -4.8633184    625.05738  0.044217415  0.044335546            7 
 1179000   0.79609475    -4.848883    625.07953  0.044181476  0.044310202            3 
 1180000   0.77718276   -4.8548949    625.39915  0.044166607  0.044284714            6 
 1181000   0.78186397     -4.82262    624.87116  0.044091953  0.044259185            6 
 1182000   0.77747815   -4.8571527    625.71169   0.04411391  0.044233809            8 
 1183000   0.76966298   -4.8594163    627.13644  0.044176982  0.044208589            6 
 1184000   0.79299309   -4.8432022    628.24428  0.044217643  0.044183491            8 
 1185000   0.79485838   -4.8757492    626.33729  0.044046223   0.04415836            5 
 1186000   0.76942376   -4.8752153    625.47934  0.043948801  0.044133045            4 
 1187000   0.76923336   -4.8408871    628.53519  0.044126312  0.044107806            3 
 1188000   0.78771421   -4.8542301    628.51676  0.044087876  0.044082475            4 
 1189000   0.77394816   -4.8873966    629.46599  0.044117325  0.044057294           12 
 1190000   0.77016263   -4.8586766    627.42566  0.043937371  0.044032027            3 
 1191000   0.76809761    -4.837855    630.16805  0.044092363  0.044006976            6 
 1192000   0.76696245   -4.8730776    629.53029  0.044010787  0.043982122            4 
 1193000   0.79134876   -4.8849523    628.26501  0.043885513  0.043957039            4 
 1194000   0.78139527   -4.8727175    630.85948  0.044029836  0.043932107            3 
 1195000   0.78602131   -4.8480212    633.46777  0.044174879  0.043907286            6 
 1196000   0.79672972   -4.8884977    630.16351  0.043907714  0.043882418            9 
 1197000   0.77519198   -4.8626615    632.37021   0.04402466    0.0438575            4 
 1198000   0.77154826   -4.8651472    630.61918  0.043866108  0.043832728            9 
 1199000   0.78537177    -4.886445    629.77667  0.043770967   0.04380812            6 
 1200000   0.77881826   -4.8336979    632.26125  0.043907031  0.043783371           10 
 1201000   0.79817696   -4.8774006     630.0102   0.04371428  0.043758894            5 
 1202000   0.78310653   -4.8841492    631.02537  0.043748292  0.043734047            7 
 1203000   0.76383937   -4.8550778    631.89896  0.043772441  0.043709078           21 
 1204000    0.7637359   -4.8680139    630.63275  0.043648446  0.043684241            5 
 1205000   0.77835455   -4.8543592    633.80598  0.043831672  0.043659321            7 
 1206000   0.77573436   -4.9109263    631.42375  0.043630718  0.043634372            7 
 1207000   0.75994552   -4.8773704    633.38846  0.043730217  0.043609042            3 
 1208000   0.75157177   -4.8757617     631.2528  0.043546689  0.043583986            8 
 1209000   0.77003255   -4.8787609    631.65931   0.04353869  0.043559259            8 
 1210000   0.76247266    -4.864607    630.20103  0.043402275  0.043534249            9 
 1211000   0.77408209   -4.8619397    632.90419  0.043552449  0.043509351            5 
 1212000   0.75609773   -4.8666986    632.44614  0.043485021  0.043484502            7 
 1213000   0.76669137   -4.8756941    633.19636  0.043500712  0.043459421            9 
 1214000   0.77464367   -4.8590457    633.20883  0.043465735  0.043434297            4 
 1215000   0.77261411   -4.8794074    634.06751  0.043488855  0.043409384            4 
 1216000   0.75467724   -4.8486465    632.36834  0.043336646  0.043384647           12 
 1217000   0.77544708    -4.885819    633.31535  0.043365883  0.043359658            4 
 1218000    0.7627631   -4.8844645     635.4005   0.04347294  0.043334648           15 
 1219000   0.76309625   -4.8806622    633.51509  0.043308387  0.043309591            7 
 1220000   0.78518536   -4.8744713    634.88907   0.04336674  0.043284592            8 
 1221000   0.75126419   -4.8956841    631.76315  0.043117878    0.0432595            2 
 1222000   0.76134111   -4.8917249    633.39875  0.043194132  0.043234156            3 
 1223000   0.76816948   -4.8846073    632.59901  0.043104321  0.043208868            6 
 1224000   0.74957837   -4.8814799    633.77066  0.043148874  0.043183486            7 
 1225000   0.77446592   -4.8896105    632.48353   0.04302609  0.043158076            9 
 1226000    0.7661658   -4.8706737    634.91396  0.043156197  0.043132677            9 
 1227000   0.76698648   -4.9086078    631.46283  0.042886636  0.043107096            8 
 1228000   0.78233332   -4.8908257    634.70975  0.043072051   0.04308167            6 
 1229000   0.76125592   -4.8728015    633.87327  0.042980287  0.043056207            9 
 1230000   0.77206992   -4.8729074    634.18679  0.042966585  0.043030768            4 
 1231000   0.76436008   -4.9136216    633.89529  0.042911948  0.043005357            6 
 1232000   0.77450256   -4.8937686    633.91315  0.042878324  0.042979787            8 
 1233000    0.7460607   -4.8767567    635.61203  0.042958369  0.042954365            5 
 1234000   0.76510133   -4.9014488    633.84724  0.042804378  0.042928712            3 
 1235000   0.75467285   -4.8822672     634.4286  0.042808947  0.042903208            6 
 1236000   0.76717498   -4.9009966    633.77732  0.042730402  0.042877809            3 
 1237000   0.74671222   -4.8806167    635.86626  0.042836584  0.042852338           13 
 1238000   0.75006503   -4.8984165    633.63328  0.042651675  0.042826856            2 
 1239000   0.76324859   -4.8747687    637.20973  0.042857797  0.042801147            4 
 1240000   0.74736064   -4.8997144        632.4       0.0425  0.042775681            7 
 1241000   0.74919529   -4.9053144    636.18014  0.042719591  0.042749892            3 
 1242000   0.76708932   -4.9148981    633.60071  0.042512125  0.042724528            6 
 1243000   0.74456085   -4.8939569    636.21459  0.042653164  0.042699077            7 
 1244000   0.74936824   -4.8915476    635.78005  0.042589768  0.042673657            5 
 1245000   0.76815553   -4.9141147    635.76211  0.042554358   0.04264823            9 
 1246000   0.75350054    -4.889652    639.13259  0.042745626  0.042622669           10 
 1247000   0.75446489    -4.904902    636.94427  0.042565107  0.042597248            7 
 1248000    0.7589507   -4.9091932    636.31553  0.042489018  0.042571957           10 
 1249000   0.74634448   -4.9214197    635.66325  0.042411479  0.042546627            7 
 1250000    0.7588543   -4.8901211    636.58245   0.04243883  0.042521198            6 
 1251000    0.7601482   -4.8748295    639.67165  0.042610688   0.04249604            4 
 1252000   0.75022501   -4.9358126    636.88887  0.042391432  0.042470875           13 
 1253000   0.74273384   -4.9090311    638.01307  0.042432367  0.042445665            5 
 1254000   0.75125297   -4.9211101    637.24027  0.042347174  0.042420659            4 
 1255000   0.76172144   -4.8920965    637.39546  0.042323736  0.042395401            6 
 1256000   0.74829036   -4.9063909    638.55433  0.042366928  0.042370186            7 
 1257000   0.74497591    -4.913304    638.08734  0.042302263  0.042344741           12 
 1258000    0.7388456   -4.9081385    634.15649  0.042008246  0.042318999           10 
 1259000    0.7536823   -4.9194628    638.66658  0.042273403    0.0422932            6 
 1260000   0.75150235   -4.9331734    637.67812  0.042174479   0.04226745            6 
 1261000   0.75976802   -4.9360491    637.55011  0.042132574  0.042241826           12 
 1262000   0.74044213   -4.9378362    637.12308  0.042070991  0.042216074            7 
 1263000   0.74837661   -4.9149246    639.04002  0.042164161  0.042190346            6 
 1264000   0.73334473   -4.9247531    638.53246   0.04209734  0.042164688            3 
 1265000   0.74861038   -4.9130909    639.33112  0.042116675  0.042139021            7 
 1266000    0.7462847   -4.9367253    637.72679  0.041977803   0.04211339            6 
 1267000   0.75474883   -4.9114455    638.45448  0.041992534  0.042088092            8 
 1268000   0.74402457   -4.9005716     639.0209  0.041996642  0.042062986           11 
 1269000   0.74750672   -4.9286653    639.69423  0.042007764  0.042037538           12 
 1270000    0.7455247   -4.9319455    639.94562  0.041991183  0.042012339            5 
 1271000   0.76663139   -4.9320751    640.43173  0.041990016  0.041986971            4 
 1272000   0.74255144   -4.9081765    640.91291   0.04198853  0.041961755            6 
 1273000   0.74208406   -4.9322726    638.92712  0.041825551  0.041936627            6 
 1274000   0.74198979    -4.931995    640.00044  0.041862928  0.041911536           10 
 1275000   0.74367524   -4.9151255    639.35698  0.041788038   0.04188628            5 
 1276000   0.74602794   -4.9261948    641.50713  0.041895711  0.041861086           13 
 1277000   0.73527595   -4.9386746      640.364  0.041788306  0.041835802            8 
 1278000   0.74368896   -4.9239826    642.75655  0.041911616   0.04181088            8 
 1279000   0.74807871   -4.9217132    640.53754  0.041734268  0.041785835            5 
 1280000   0.74944793   -4.9243728    642.08487    0.0418024  0.041760925            9 
 1281000   0.75330185   -4.9687315    640.26957  0.041651676  0.041735957            8 
 1282000    0.7445804    -4.944873    641.79462  0.041718319  0.041710741            4 
 1283000   0.73488058   -4.9530623     642.2038   0.04171238  0.041685598           11 
 1284000    0.7397511   -4.9368622    642.78598  0.041717678  0.041660586            3 
 1285000   0.74952557   -4.9315546    642.93194  0.041694679  0.041635637            4 
 1286000    0.7315584   -4.9220816    643.76812  0.041716441  0.041610722            5 
 1287000   0.73409074   -4.9555864     643.0725  0.041638986  0.041585919           17 
 1288000   0.73344718   -4.9374071    643.40024  0.041627862  0.041560949            6 
 1289000   0.74048406     -4.95949    643.31626  0.041590139  0.041536187            6 
 1290000   0.74603608    -4.949217    643.21031  0.041551054  0.041511167            5 
 1291000   0.75516548   -4.9337968    644.05531  0.041573413  0.041486304            5 
 1292000   0.73714738   -4.9470639    641.98034  0.041407401   0.04146118           13 
 1293000   0.72892029    -4.932708    642.63643  0.041417661  0.041436146            4 
 1294000   0.73688928   -4.9610055    640.70783  0.041261452  0.041411113            5 
 1295000   0.72410688   -4.9306244    644.99353  0.041505375  0.041386006            7 
 1296000   0.74300397   -4.9580963    641.96119  0.041278368  0.041360727            3 
 1297000   0.73915178   -4.9423137    643.74146  0.041360926  0.041335339            8 
 1298000   0.73315369   -4.9364598    643.07385    0.0412862  0.041310151           15 
 1299000   0.73639101   -4.9436325    642.69134  0.041229878  0.041284726            7 
 1300000   0.73038155   -4.9681615      641.918   0.04114859  0.041259346            8 
 1301000   0.72436672   -4.9333132    644.65341  0.041292174   0.04123388           10 
 1302000   0.73431755   -4.9717491     641.8405  0.041080421   0.04120833            3 
 1303000   0.73560967   -4.9490934    643.75186  0.041171134  0.041182809            6 
 1304000   0.73175699   -4.9458194    643.32887   0.04111253  0.041157264           13 
 1305000   0.73455127   -4.9448153    643.01244   0.04106082  0.041131821            6 
 1306000   0.73659613   -4.9489099    645.12153  0.041163957  0.041106518            7 
 1307000   0.73128408   -4.9547183    643.62891  0.041037293  0.041081124           11 
 1308000   0.75840329   -4.9601554    643.15191  0.040975529  0.041055715            9 
 1309000   0.71927282   -4.9470422     644.7488  0.041045887  0.041030117            9 
 1310000   0.72395245   -4.9942194    643.66572  0.040945656  0.041004546           11 
 1311000   0.71571829   -4.9437919    645.37173  0.041022866  0.040979071           13 
 1312000   0.71216277   -4.9404006    644.47923   0.04093491  0.040953564            4 
 1313000   0.73457793   -4.9849513    645.03554  0.040939041  0.040928162           10 
 1314000   0.73475536   -4.9866503     643.6442  0.040819647  0.040902663            9 
 1315000   0.73169286    -4.960647    644.53242  0.040844893  0.040877393            5 
 1316000   0.72629876    -4.964889    645.18406   0.04085512  0.040851937            4 
 1317000   0.74255321    -4.961217    644.35466  0.040771618  0.040826481            6 
 1318000   0.74255281   -4.9649274    645.63119  0.040821395  0.040801105            6 
 1319000   0.73100218    -4.960306    645.40419  0.040776105  0.040775762           13 
 1320000   0.73401003   -4.9700875    643.50343  0.040625216  0.040750287            8 
 1321000   0.72313291   -4.9827853    643.15915  0.040572745  0.040725166           12 
 1322000   0.73619038   -4.9671334    643.85585  0.040585972   0.04069972            9 
 1323000   0.73425969   -4.9738117    643.67309  0.040543782  0.040674206            6 
 1324000   0.71001932   -4.9886673    645.19301  0.040608825  0.040648886           11 
 1325000   0.72147498    -4.980146     644.6386  0.040543308  0.040623595           10 
 1326000   0.72021593   -4.9697994    648.51158  0.040756132  0.040598456            7 
 1327000   0.73564443   -4.9699592    645.28297  0.040522668  0.040573438           10 
 1328000   0.73008254   -4.9603715    647.13071  0.040608102  0.040548167            5 
 1329000   0.72964464    -4.962445    646.28144  0.040524294  0.040523182            4 
 1330000   0.71652607   -5.0020347     646.5237  0.040509004  0.040498249            9 
 1331000   0.72679315   -4.9852514      648.642  0.040611194  0.040473251            9 
 1332000   0.70621116   -4.9914571    645.74443  0.040399426  0.040448354           13 
 1333000    0.7012329   -4.9877528     647.7902  0.040497012  0.040423566            5 
 1334000   0.72314113   -4.9818671    648.84633  0.040532629  0.040398729            6 
 1335000    0.7250928   -4.9736302    649.17161  0.040522573  0.040373919            9 
 1336000   0.73348673   -4.9843381     647.1848  0.040368314  0.040349128            8 
 1337000   0.73034834   -4.9934858    648.32767  0.040409354  0.040324427            9 
 1338000     0.693395   -4.9993765    649.34673  0.040442621   0.04029967            6 
 1339000   0.71866478   -4.9713138    650.32667  0.040473405  0.040274973           11 
 1340000   0.71361587   -5.0178996    648.06843  0.040302763  0.040250285            6 
 1341000   0.72966453    -4.965484    649.33113  0.040351176  0.040225717            4 
 1342000   0.71737537    -4.968769    649.78606  0.040349358   0.04020114            6 
 1343000   0.71900901    -5.001702    649.75574  0.040317432  0.040176825           11 
 1344000   0.71873432   -4.9792795    652.17037  0.040437151  0.040152403           10 
 1345000   0.71643805   -4.9741556    651.61142  0.040372455  0.040127949            6 
 1346000   0.71541226   -4.9888228    651.85518  0.040357552  0.040103403            5 
 1347000   0.71840857    -4.999028    649.34067  0.040172029  0.040078947           13 
 1348000   0.71651329   -4.9970626     651.3998  0.040269522  0.040054546           13 
 1349000   0.70425496   -4.9718544    653.03849    0.0403409  0.040030293            7 
 1350000   0.70757911   -4.9877383    650.80231  0.040172982  0.040006157           11 
 1351000   0.70619455   -4.9808037    651.86522  0.040208809  0.039981894            6 
 1352000   0.70657072   -4.9751589    652.43362  0.040214104  0.039957705            4 
 1353000   0.71037024   -5.0040184    651.46167  0.040124518  0.039933342            8 
 1354000   0.70691649   -5.0081066    650.36265  0.040027244  0.039909023            7 
 1355000   0.70886447   -5.0125357    651.56057  0.040071376  0.039884359            9 
 1356000   0.73077939   -5.0081929    652.70619  0.040112229  0.039860002            6 
 1357000   0.73016182   -5.0108442    652.72631  0.040083905  0.039835552           10 
 1358000   0.69797197   -4.9876473     650.8298   0.03993801  0.039811114           10 
 1359000    0.7036041   -5.0353672    649.61298  0.039834007  0.039786648           11 
 1360000   0.69265692   -4.9816943    654.13362  0.040081717  0.039762432            7 
 1361000   0.72324048   -5.0041145    653.13735  0.039991266  0.039738318            7 
 1362000   0.72298375   -5.0192474     652.9383  0.039949725  0.039714344           10 
 1363000   0.71609735   -4.9866614    653.01278  0.039924968  0.039689945           10 
 1364000   0.71020533   -5.0068644    650.51427  0.039743052  0.039665637           10 
 1365000   0.71586437   -5.0045266    654.14516  0.039935602  0.039641609            8 
 1366000   0.69669096   -5.0020384    652.95806  0.039833947   0.03961747            5 
 1367000   0.70319425    -5.001828    654.74247  0.039913586  0.039593281            5 
 1368000   0.69173376    -4.992494    653.26266  0.039794266  0.039569048            6 
 1369000   0.71527663   -4.9934085    652.47213  0.039717076  0.039544831            4 
 1370000   0.71185488   -5.0076264    651.83427  0.039649287  0.039520631           10 
 1371000   0.71247091   -5.0192552    652.37632  0.039653314  0.039496366            5 
 1372000   0.72492717   -5.0131242    653.17339  0.039672825  0.039472097            6 
 1373000   0.70178029   -5.0099918    655.26789  0.039771054  0.039447986            8 
 1374000   0.71500399   -4.9962731    656.19018  0.039798046  0.039424055            6 
 1375000   0.70795531   -5.0305164    655.74384  0.039742051  0.039400077            8 
 1376000   0.70322678   -4.9849034     656.2487  0.039743744  0.039375889            9 
 1377000   0.69706159   -5.0229578    654.17161   0.03958918  0.039351693            8 
 1378000   0.69922349   -4.9938272    653.79318  0.039537565  0.039327725           14 
 1379000   0.69181097   -5.0326791    654.07383  0.039525854  0.039303704            4 
 1380000   0.70754454   -4.9978243    657.11426  0.039680813  0.039279641           12 
 1381000   0.68701616   -5.0126172    655.02209  0.039525832  0.039255872           12 
 1382000   0.69288886   -5.0332875    654.22301  0.039449048  0.039231998            7 
 1383000   0.69488031   -4.9979294    655.96196  0.039525305   0.03920813            6 
 1384000   0.71096345   -4.9960009    656.38332  0.039522117  0.039184139            6 
 1385000   0.69559738   -5.0191027    655.04464  0.039413035  0.039160048            7 
 1386000   0.69873509   -5.0032903    656.30067  0.039460117  0.039136064            8 
 1387000   0.70219312   -5.0043717    655.72709  0.039397206  0.039112095           11 
 1388000   0.71099276   -5.0181653    655.17271  0.039335538  0.039088168            6 
 1389000   0.70580785   -4.9964732    656.77221   0.03940318  0.039064195            9 
 1390000   0.69576799   -5.0177113    655.53862  0.039300877  0.039040274            6 
 1391000   0.70997302   -5.0245031    656.13511  0.039308358  0.039016348            6 
 1392000   0.69956529   -5.0377232    657.98169  0.039390666  0.038992541            6 
 1393000   0.69571113   -5.0400629    656.22459  0.039257274  0.038968524           10 
 1394000   0.70505955   -5.0442297    655.32941  0.039175598  0.038944431            7 
 1395000   0.68215333   -5.0350074    655.03366  0.039129849  0.038920372            7 
 1396000   0.69794547   -5.0407587    655.58653  0.039134821  0.038896096           29 
 1397000   0.67707094   -5.0497919     655.2605   0.03908736  0.038871662            9 
 1398000   0.69836232    -5.021497    654.90436  0.039038171  0.038847355            5 
 1399000   0.70054617   -5.0230421    656.31709  0.039094418  0.038823201           10 
 1400000   0.68019035    -5.049048    654.71299  0.038971011  0.038799014            6 
 1401000   0.68151044   -5.0268263    656.60834  0.039055933  0.038774687            6 
 1402000   0.69101943   -5.0603296     654.0967  0.038878786  0.038750358            7 
 1403000   0.69034993   -5.0677012    654.71807  0.038887982  0.038726102           12 
 1404000   0.69997212    -5.038331    657.33636  0.039015691  0.038701983            4 
 1405000   0.70804617   -5.0214362    658.93021  0.039082456   0.03867806            9 
 1406000   0.69786164   -5.0395672    657.60936  0.038976373  0.038654222           19 
 1407000   0.67701425   -5.0458705    656.85137  0.038903777  0.038630261            7 
 1408000   0.69648439   -5.0215742    657.44384  0.038911212  0.038606361           19 
 1409000   0.68341854   -5.0149766    658.82288  0.038965158  0.038582495           10 
 1410000   0.68647192   -5.0610624    656.20235  0.038782645  0.038558472           10 
 1411000   0.68989857   -5.0505724     656.4359  0.038768952  0.038534465            7 
 1412000    0.6807308   -5.0546443     655.8397  0.038706309  0.038510581            6 
 1413000   0.68399314   -5.0452814    656.25369  0.038703331  0.038486606            6 
 1414000    0.6871271   -5.0588125    658.79245  0.038825581  0.038462782            8 
 1415000   0.67748334   -5.0511527    657.01391  0.038693399  0.038438999            8 
 1416000   0.70088351   -5.0620614    657.27744  0.038681582  0.038415074           12 
 1417000    0.6973226   -5.0258532    658.05225   0.03869985  0.038391285            9 
 1418000   0.66986249   -5.0437065    657.87976  0.038662421  0.038367506            7 
 1419000   0.68165537   -5.0533956    660.89865  0.038812465  0.038343701           10 
 1420000   0.67832414   -5.0777737     657.8041  0.038603527  0.038319898            8 
 1421000   0.68243566   -5.0799269    659.33398  0.038666079  0.038295975            6 
 1422000   0.68226571   -5.0382596    659.95367  0.038675203   0.03827224            5 
 1423000   0.67811257   -5.0632693    657.95815  0.038531164  0.038248515           13 
 1424000   0.67092065   -5.0556076     659.5886   0.03859952  0.038224766            7 
 1425000   0.69558253   -5.0492271    659.91408  0.038591467  0.038201195            5 
 1426000   0.68814758   -5.0371247    658.43577  0.038478014  0.038177781            7 
 1427000   0.69194578   -5.0738284    659.13038  0.038491613  0.038154201           10 
 1428000   0.68123704   -5.0503418    660.61184  0.038551111   0.03813058            9 
 1429000     0.689204   -5.0685649    659.37814  0.038452189  0.038106697            4 
 1430000   0.70139108   -5.0444442    663.31481  0.038654709   0.03808334           10 
 1431000    0.6817064   -5.0606814    659.59484  0.038411067  0.038059938           11 
 1432000   0.69738544   -5.0693347    661.35758  0.038486824  0.038036512           10 
 1433000   0.69585289   -5.0556178    660.23032  0.038394413  0.038013187            7 
 1434000   0.67538929   -5.0376331    662.99608  0.038528364  0.037989933           19 
 1435000   0.67463867   -5.0667906    659.13087  0.038277054  0.037966741            6 
 1436000   0.67954766   -5.0676443    662.95457  0.038472294  0.037943378            9 
 1437000   0.69290568    -5.065056    661.85579  0.038381802  0.037920025           17 
 1438000   0.68929901   -5.0593459    662.23739  0.038377225  0.037896722            9 
 1439000   0.68133403   -5.0744002    659.24249  0.038177119  0.037873327            9 
 1440000   0.68992695     -5.05663    660.34358  0.038214327  0.037849905            8 
 1441000   0.68467524   -5.0761322    662.73643  0.038326187  0.037826486           11 
 1442000   0.68167475   -5.0805753    658.97964  0.038082504  0.037803077            8 
 1443000   0.68613853   -5.0906818      662.109  0.038236833  0.037779545            8 
 1444000   0.67966093   -5.0750125    661.43854  0.038171661  0.037756193           18 
 1445000   0.69307117   -5.0734031    661.20268  0.038131642   0.03773276            7 
 1446000   0.68114496    -5.096096    660.41282  0.038059752  0.037709421            6 
 1447000    0.6614486   -5.0399922      663.232  0.038195808  0.037686016            4 
 1448000   0.68218149    -5.090658    658.67634  0.037907248  0.037662606            6 
 1449000   0.67008339   -5.0899108    660.89826  0.038008872  0.037638983           11 
 1450000   0.68383304   -5.0670277    663.18276  0.038113952  0.037615694           12 
 1451000     0.681059   -5.0985716    659.96678  0.037902985  0.037592237            8 
 1452000   0.66987067   -5.1034568    661.07913  0.037940721  0.037568711            5 
 1453000   0.67051848    -5.081683    661.70878  0.037950721  0.037545311           11 
 1454000   0.67390383   -5.0837341    661.96331  0.037939209   0.03752173           12 
 1455000   0.66798094   -5.0757069    661.53749  0.037888745   0.03749829            5 
 1456000   0.68046663   -5.0749276     661.3802   0.03785372  0.037474806           13 
 1457000    0.6642128    -5.103124    661.33194   0.03782498   0.03745124            4 
 1458000   0.68367387   -5.0856973    660.54128  0.037753845  0.037427659            5 
 1459000    0.6628753   -5.0745162    663.32918  0.037887205  0.037404143           10 
 1460000   0.67849107      -5.0792    663.42336   0.03786663  0.037380815            5 
 1461000   0.66472688   -5.0496922     663.6556  0.037853959  0.037357572            5 
 1462000   0.65420397   -5.0830688    662.87396  0.037783514   0.03733436            8 
 1463000   0.66613298   -5.0690983    662.51696  0.037737353   0.03731107           11 
 1464000   0.68877763   -5.0983812    661.68372  0.037664146  0.037287805           11 
 1465000   0.67110294   -5.1085712    660.29051  0.037559187  0.037264467            9 
 1466000   0.66744817   -5.1187919    660.73319  0.037558731  0.037241054           16 
 1467000   0.66695785   -5.0785313    664.66193  0.037756301  0.037217692            5 
 1468000   0.67704889   -5.1157959    662.87746  0.037629284  0.037194358            6 
 1469000    0.6772978   -5.0882183    661.37685  0.037518542  0.037171028           12 
 1470000   0.66472099   -5.1103978    662.77425  0.037572237  0.037147743           12 
 1471000   0.65767374   -5.0876567    663.98431  0.037615245   0.03712451           14 
 1472000    0.6643298   -5.0965708    663.20432  0.037545534  0.037101354           10 
 1473000    0.6562093   -5.0912571    662.93673  0.037504907  0.037078149            7 
 1474000   0.66806752   -5.1093076    663.02732  0.037484584  0.037054896            5 
 1475000   0.66111779   -5.1203312    662.99701  0.037457458  0.037031574            8 
 1476000   0.66665748   -5.1244524    663.90664  0.037483437  0.037008297           10 
 1477000   0.66988354   -5.1279922    664.03736  0.037465435  0.036984993           12 
 1478000    0.6867098   -5.1012325    662.77051  0.037368658  0.036961772            5 
 1479000   0.66402346   -5.0730772    664.93957  0.037465606  0.036938769            5 
 1480000   0.67342512   -5.1091421    662.79664  0.037319631  0.036915674           13 
 1481000   0.65746704   -5.1103713    662.33016  0.037268184  0.036892379            5 
 1482000   0.66677669   -5.0986285     663.8706  0.037329656  0.036869195            7 
 1483000   0.66608584   -5.0781049    665.74789  0.037409973  0.036846163            7 
 1484000   0.65182629   -5.1079568    664.09078   0.03729171  0.036823129            6 
 1485000   0.65778744   -5.1133597    664.77186  0.037304818  0.036800038           16 
 1486000   0.65716964   -5.1073972      665.542  0.037322903  0.036776639            7 
 1487000   0.67405486   -5.1242102    662.78143  0.037143098  0.036753318           17 
 1488000   0.65195466     -5.10834    665.25689  0.037256771  0.036730045            5 
 1489000   0.65839074   -5.1078647    665.29749  0.037234021    0.0367069           10 
 1490000   0.65748803   -5.1172606    663.02458  0.037081912  0.036683711            9 
 1491000   0.66076141   -5.1142983    665.09697  0.037172869  0.036660536            6 
 1492000   0.64942228   -5.1075499    665.97834  0.037197182  0.036637559            9 
 1493000   0.66049539    -5.078746    666.12162  0.037180264  0.036614511            6 
 1494000   0.67863053   -5.0860183    666.10586  0.037154499  0.036591643            9 
 1495000   0.64906459    -5.127421    665.11178  0.037074235  0.036568708           14 
 1496000   0.66667146   -5.0936222    665.20327  0.037054549  0.036545908            8 
 1497000   0.66484585   -5.1020684    666.97131  0.037128218  0.036522996            7 
 1498000   0.66872343   -5.0967864    664.49491  0.036965671  0.036500027           12 
 1499000   0.65220688   -5.0984673    665.90272  0.037019275  0.036476988            8 
 1500000   0.64609898   -5.1300718      663.536  0.036863111   0.03645393            8 
 1501000   0.66195334   -5.1174053    664.47771  0.036890834  0.036430852            9 
 1502000     0.639887   -5.0963546    665.93172  0.036946944  0.036407825            9 
 1503000   0.65756785   -5.1318002    666.32819  0.036944344  0.036384905           12 
 1504000   0.65073891   -5.1146832     666.3142  0.036919005  0.036361975            7 
 1505000    0.6451576   -5.1268133    665.79781  0.036865881  0.036338897           12 
 1506000   0.66180097   -5.1416557    665.67185  0.036834432  0.036315861           22 
 1507000   0.66464256   -5.1469478    665.83095  0.036818787  0.036292993            8 
 1508000   0.64986715    -5.117242    665.62681  0.036783091  0.036269992            9 
 1509000   0.64946394   -5.1353774    666.10884  0.036785334  0.036247062            6 
 1510000   0.63722124   -5.1143891     664.1186  0.036651137  0.036224065           16 
 1511000   0.64568731   -5.1185559    666.08758  0.036735472  0.036201101            7 
 1512000   0.65020412    -5.131488    665.95661  0.036703958  0.036178194            9 
 1513000   0.64538567    -5.134094    665.96211  0.036680001  0.036155349            4 
 1514000   0.64684315   -5.1502434    664.64109  0.036583063  0.036132463            8 
 1515000   0.64232321   -5.1069085    668.37978  0.036764564  0.036109594            7 
 1516000     0.643133   -5.1196579    666.64126  0.036644748  0.036086898           11 
 1517000   0.64864616   -5.1344741    665.48984  0.036557341  0.036063919            9 
 1518000   0.65793481    -5.126807    665.74139  0.036547068  0.036040921           16 
 1519000   0.64807108   -5.1635635    666.09542   0.03654243  0.036017934           13 
 1520000   0.61719237   -5.1486596    664.55836  0.036434121  0.035994978            6 
 1521000   0.63959994   -5.1412513    665.42289  0.036457533  0.035972001            8 
 1522000   0.63632287   -5.1461446    666.59099  0.036497536  0.035949064           13 
 1523000   0.64826814   -5.1234859    666.74235  0.036481853  0.035926227            6 
 1524000   0.64183342   -5.1509058    665.43837  0.036386613  0.035903288           13 
 1525000   0.64803099   -5.1670786    665.22288  0.036350977  0.035880371           16 
 1526000   0.65437242   -5.1388184    666.79452  0.036412982  0.035857463            4 
 1527000   0.64007217   -5.1442813    665.46643  0.036316657  0.035834583           14 
 1528000   0.64114982   -5.1544863    665.09324  0.036272537  0.035811553            9 
 1529000   0.64527294   -5.1290888    666.69973  0.036336371  0.035788701            4 
 1530000   0.63987698   -5.1483338     666.6318  0.036308922  0.035765968            5 
 1531000   0.63493848    -5.157553    667.29309    0.0363212  0.035743154            9 
 1532000   0.63722395   -5.1401409    666.19461   0.03623774  0.035720431           19 
 1533000   0.64323949   -5.1357817    668.35999  0.036331811  0.035697663           12 
 1534000   0.63436829   -5.1493013    664.92084  0.036121297  0.035675071            6 
 1535000   0.63023223   -5.1318288    666.69002  0.036193812  0.035652463            7 
 1536000   0.64105458   -5.1315089    668.44427  0.036265423  0.035629858            6 
 1537000    0.6424413   -5.1366017    668.58983   0.03624972   0.03560716           17 
 1538000   0.64829999   -5.1382256    667.76841  0.036181644  0.035584559           13 
 1539000    0.6508299   -5.1497401    666.89257  0.036110709    0.0355618           12 
 1540000   0.62449303   -5.1539145    666.80596  0.036082574  0.035538948           23 
 1541000   0.64523006   -5.1499607    668.26438  0.036138026    0.0355163           20 
 1542000   0.63577757   -5.1509634    666.41475  0.036014632  0.035493643            6 
 1543000   0.64314055   -5.1712428    666.17397  0.035978288   0.03547094            9 
 1544000   0.64003728   -5.1639206    666.97868  0.035998417  0.035448219           11 
 1545000   0.63673969   -5.1630976    668.04253  0.036032499  0.035425537           22 
 1546000   0.64186942   -5.1578045    667.20268  0.035963922  0.035402981            7 
 1547000   0.63280548   -5.1786708    668.73618  0.036023281  0.035380269           11 
 1548000   0.64198877   -5.1601026    667.15563  0.035914924  0.035357626           11 
 1549000    0.6396773   -5.1741133    667.44338  0.035907218  0.035334986           14 
 1550000   0.63508363   -5.1557258    667.93046   0.03591024  0.035312318           10 
 1551000   0.64102887   -5.1638701    667.78236   0.03587913   0.03528968           12 
 1552000   0.62895373   -5.1764625    667.63561  0.035848132  0.035267119            9 
 1553000   0.64298672    -5.184539    667.13718  0.035798304  0.035244558            7 
 1554000   0.64450641    -5.157083    670.10565  0.035934451  0.035222045           13 
 1555000    0.6412014   -5.1907682    667.01038  0.035745465  0.035199484            9 
 1556000   0.64828312   -5.1682715    669.40649  0.035850819  0.035176918            5 
 1557000   0.63112015    -5.185602    668.57067  0.035783059  0.035154287            4 
 1558000   0.63164846   -5.1544125    670.06094  0.035839802  0.035131847           10 
 1559000   0.63397708    -5.169278    668.82523  0.035750761  0.035109434           11 
 1560000   0.62523654   -5.1320622    669.83576  0.035781825   0.03508711           12 
 1561000   0.63123682   -5.1528562    669.39342  0.035735288   0.03506472           13 
 1562000   0.62786019   -5.1785267    667.93657  0.035634687  0.035042251           16 
 1563000   0.62437106   -5.1669585    668.34407  0.035633614  0.035019785            9 
 1564000   0.63942743   -5.1829922    668.35664    0.0356115  0.034997307            6 
 1565000   0.61646089   -5.1689847    669.80352  0.035665789  0.034974828           11 
 1566000   0.62266464   -5.1695826    668.40746  0.035568724  0.034952286            7 
 1567000   0.62529483   -5.1759291    668.02819  0.035525856  0.034929766            8 
 1568000    0.6195278   -5.2019836    667.88483   0.03549558  0.034907313            9 
 1569000   0.61819075   -5.1874215    669.18666    0.0355421  0.034884874            8 
 1570000   0.62623108   -5.1663259      669.206  0.035520488  0.034862387            7 
 1571000   0.62745562    -5.180243    669.39099  0.035507691  0.034839976           21 
 1572000   0.62339448   -5.1852876    670.49264  0.035543503  0.034817741            6 
 1573000   0.62431029   -5.1938323    668.46885  0.035413692  0.034795386            6 
 1574000   0.62560966   -5.1780038    669.88537  0.035466188  0.034772994            5 
 1575000   0.64209544   -5.1957527    669.04338  0.035399121  0.034750695           13 
 1576000   0.63361681   -5.1882834    668.04372  0.035323801  0.034728272            8 
 1577000   0.62572284   -5.1847874    669.04315  0.035354214    0.0347058           23 
 1578000   0.62348271   -5.1778005    669.05494  0.035332432  0.034683392            8 
 1579000   0.61458838   -5.1734048    669.42635  0.035329658  0.034661068            8 
 1580000   0.61874959   -5.2034086    669.09435  0.035289786  0.034638862           11 
 1581000   0.61389497    -5.196111    669.71411  0.035300132  0.034616563           16 
 1582000   0.62738993    -5.201666    666.55746  0.035111539  0.034594193           14 
 1583000    0.6259996   -5.1904758    668.85963  0.035210551  0.034571779           24 
 1584000   0.62118967   -5.1615436    671.12425  0.035307463   0.03454951            8 
 1585000   0.63277801   -5.2059075    668.17372  0.035130059  0.034527194           15 
 1586000   0.61152744   -5.1916669    669.89746   0.03519848  0.034504981            4 
 1587000   0.61890419   -5.2068679    669.34044  0.035147051  0.034482752           13 
 1588000   0.62960504   -5.2000391    668.03214  0.035056262  0.034460527           15 
 1589000   0.61289195   -5.2089494    669.09294  0.035089833  0.034438381           14 
 1590000   0.61025034   -5.2078396    668.44786  0.035033955  0.034416138           18 
 1591000   0.61502424   -5.2078656    668.72865  0.035026642  0.034393756           14 
 1592000    0.6133531   -5.1639643    669.21652  0.035030178  0.034371521            9 
 1593000   0.62094037   -5.2087661    669.52514  0.035024333  0.034349498           32 
 1594000   0.60952215   -5.2193739    671.05858  0.035082527  0.034327421            8 
 1595000   0.61888931   -5.2331047    670.15091  0.035013109  0.034305233           16 
 1596000   0.61918466   -5.2126466    668.28215  0.034893596  0.034282997            8 
 1597000   0.61999183   -5.1753884    672.16885  0.035074559   0.03426094            9 
 1598000   0.61872113   -5.1865002    670.41108  0.034960945  0.034238942           10 
 1599000    0.6094836    -5.197486     671.9676    0.0350202  0.034217013           17 
 1600000   0.61523817   -5.1963381    671.18839  0.034957729  0.034194949            5 
 1601000   0.60943773   -5.2269947     669.1247  0.034828477  0.034172804           10 
 1602000   0.60496783   -5.2165219    668.97156   0.03479877  0.034150578           12 
 1603000   0.61910986   -5.2146178    670.64292  0.034863949  0.034128308           12 
 1604000   0.60462871   -5.2228704     670.7385  0.034847179  0.034106044           14 
 1605000   0.60524244   -5.1912547    672.17819  0.034900218  0.034084034           30 
 1606000   0.61144655   -5.1996004    670.17448  0.034774516  0.034062141           10 
 1607000   0.60919361   -5.2028993    672.04559  0.034849906   0.03404007            7 
 1608000   0.60745467    -5.208502    670.98747  0.034773397  0.034018165           13 
 1609000   0.59444938   -5.2001536    671.78173  0.034792922  0.033996234           24 
 1610000   0.59192385   -5.2319323    671.37868  0.034750449  0.033974331           16 
 1611000   0.59766205   -5.2280429    670.45433  0.034681064  0.033952329           12 
 1612000   0.62406493   -5.2383713    670.41047  0.034657282  0.033930254           19 
 1613000   0.61499018   -5.2094802    670.66844  0.034649124  0.033908217           12 
 1614000   0.61748169   -5.2308514    669.47298  0.034565933  0.033886142           10 
 1615000   0.61785547   -5.2264287    667.98949  0.034467982  0.033864014           24 
 1616000    0.6101757   -5.2295941    670.46914  0.034574522  0.033841856           17 
 1617000   0.60764657   -5.2245211    672.12932  0.034638699  0.033819726            5 
 1618000    0.6075372    -5.216901    670.40995  0.034528736  0.033797721           26 
 1619000   0.60739001   -5.2199256    669.97636  0.034485091  0.033775847           19 
 1620000    0.6092468   -5.2018331     673.2127  0.034630283  0.033753995           10 
 1621000   0.60444502   -5.2305417    671.19462  0.034505173  0.033732153           16 
 1622000   0.59882111   -5.1963835    671.07077  0.034477536   0.03371026           22 
 1623000   0.60912028   -5.2320683    670.66331  0.034435372  0.033688458           17 
 1624000   0.62345883   -5.2243653    671.87324  0.034476254  0.033666751           10 
 1625000   0.61164026    -5.216364    672.66868   0.03449583  0.033645057           13 
 1626000   0.59814856   -5.2246994    671.93783  0.034437158    0.0336233           15 
 1627000   0.62284112   -5.2445051    672.52173  0.034445899  0.033601551           10 
 1628000   0.60611765   -5.2510855    669.73745   0.03428222   0.03357975           11 
 1629000   0.58921127   -5.2242189    671.53184  0.034352969  0.033558025            9 
 1630000   0.59351307   -5.2238261    671.64174  0.034337512  0.033536324           13 
 1631000   0.59581108   -5.2484433    671.34026  0.034301055  0.033514601           16 
 1632000   0.59068049   -5.2412428    669.07147  0.034164188  0.033492735           25 
 1633000   0.60935802   -5.2517264    670.29272  0.034205589  0.033470934           16 
 1634000   0.60862008   -5.2130219    672.42636   0.03429347  0.033449208           10 
 1635000   0.60080482   -5.2467402    670.86976  0.034193158  0.033427553           13 
 1636000   0.59243274     -5.23018    673.40096   0.03430119  0.033405915           10 
 1637000   0.59920604    -5.228687    671.73455  0.034195405   0.03338435            9 
 1638000   0.60183491   -5.2353103    673.05742  0.034241831  0.033362763           14 
 1639000   0.60363499   -5.2451265    671.78362  0.034156174  0.033341284           26 
 1640000   0.59494296   -5.2575254    671.71189  0.034131702  0.033319642           32 
 1641000   0.58910948   -5.2379864    672.29995  0.034140765  0.033298003           11 
 1642000   0.58551391    -5.241468    671.77861  0.034093515  0.033276377            9 
 1643000   0.60906466   -5.2319896    670.53186  0.034009528  0.033254965           14 
 1644000   0.60792124   -5.2259451    671.93309  0.034059869  0.033233399           14 
 1645000   0.59734839   -5.2475273    672.14218  0.034049756  0.033211846           26 
 1646000   0.60447243   -5.2418875    673.02172  0.034073599  0.033190214           12 
 1647000   0.60578011     -5.26837    672.22072  0.034012382  0.033168615           31 
 1648000   0.59156705   -5.2621317    671.08656  0.033934393  0.033146995           10 
 1649000   0.60450272   -5.2667552    673.25898  0.034023599  0.033125499            9 
 1650000   0.59623157   -5.2592752    670.43497  0.033860352  0.033103957           10 
 1651000   0.59865745   -5.2431067    671.28735  0.033882866  0.033082284           22 
 1652000    0.5998645   -5.2620485     672.2381  0.033910316  0.033060642           21 
 1653000   0.58238015   -5.2736998    673.46606  0.033951707  0.033039076           47 
 1654000   0.58178221   -5.2320804    672.84463   0.03389987  0.033017535           20 
 1655000   0.58641547   -5.2008102    672.42447  0.033858231  0.032996111           23 
 1656000   0.60249561   -5.2478647    672.49568  0.033841369  0.032974724           12 
 1657000     0.592922   -5.2860754    670.80847  0.033736093  0.032953119           17 
 1658000   0.59435393   -5.2535007    670.65366  0.033707964  0.032931396           11 
 1659000   0.59047413   -5.2693985    671.54029  0.033732183  0.032909809           17 
 1660000   0.58886479   -5.2712158    671.35147  0.033702383  0.032888289           17 
 1661000   0.59594529   -5.2549907    672.35387  0.033732384   0.03286673           17 
 1662000    0.5831408    -5.247219     672.5934  0.033724097  0.032845241           13 
 1663000   0.58475033   -5.2627555    672.54914  0.033701601  0.032823704           35 
 1664000   0.60075919   -5.2587976     670.8091  0.033594206  0.032802235           41 
 1665000   0.58307312   -5.2518382     673.3184   0.03369962  0.032780766           12 
 1666000   0.60143148   -5.2751152     671.8136  0.033604122  0.032759322           15 
 1667000   0.58664699   -5.2776092    672.28282   0.03360742   0.03273786           10 
 1668000   0.57739296    -5.268544    672.33527  0.033589892  0.032716319           22 
 1669000   0.57950043   -5.2776665    671.79057  0.033542569   0.03269478           17 
 1670000   0.59405399   -5.2632732      671.538   0.03350988  0.032673337           11 
 1671000   0.59508078   -5.2768237     672.5058  0.033538091  0.032651933           31 
 1672000   0.59432823    -5.264219    671.67265  0.033476508  0.032630525           12 
 1673000   0.58602985   -5.2582608    671.09997  0.033427972  0.032609215           14 
 1674000   0.58037323    -5.236195    675.13431  0.033608837   0.03258783           28 
 1675000   0.57509846   -5.2592953    671.52802  0.033409354  0.032566465           13 
 1676000   0.58531908   -5.2556312    673.16769  0.033470947  0.032545074           11 
 1677000   0.58122579   -5.2792634    672.89847   0.03343761  0.032523722           10 
 1678000   0.57649639   -5.2586746    673.06098  0.033425754  0.032502352           15 
 1679000    0.5829613   -5.2632413     671.0305  0.033305068  0.032480893           14 
 1680000   0.58388493   -5.2592337    673.34783   0.03340019  0.032459488           19 
 1681000   0.58218677   -5.2796344    672.64569  0.033345513  0.032438102            9 
 1682000   0.58355878   -5.2656176    672.37638  0.033312346  0.032416755           10 
 1683000   0.58694566   -5.2839686    671.97759  0.033272806  0.032395371           21 
 1684000   0.58077724   -5.2678919    672.54475  0.033281114  0.032374046           24 
 1685000   0.57670242   -5.2799311    672.92179   0.03328001   0.03235276           11 
 1686000   0.57387734   -5.2850144    672.07026  0.033218182  0.032331431           16 
 1687000   0.58649274   -5.2877616    671.42269  0.033166503  0.032310068           14 
 1688000   0.58721244     -5.25931    672.14853  0.033182688  0.032288709            9 
 1689000   0.59033045   -5.2895627    671.50206  0.033131146  0.032267389           10 
 1690000   0.58296231   -5.2603678    673.17443  0.033194005  0.032246116           17 
 1691000   0.57792934   -5.2707682    670.78162  0.033056457  0.032224854           20 
 1692000    0.5715643   -5.3013541    673.31634  0.033161758  0.032203623           10 
 1693000   0.59415732   -5.2561957    672.71538   0.03311259  0.032182492           17 
 1694000   0.59216408   -5.2674918    674.38308  0.033175083  0.032161404            5 
 1695000   0.57069462   -5.2693837    673.65116  0.033119526  0.032140282           28 
 1696000   0.58994861   -5.2928053    672.86223  0.033061234  0.032119055           12 
 1697000   0.57600137   -5.2993819    672.90928  0.033044062   0.03209788           13 
 1698000   0.57116362   -5.2957066    672.67112  0.033012913  0.032076667            9 
 1699000   0.57181338   -5.2870649    672.36128  0.032978285  0.032055493           13 
 1700000   0.57622675   -5.2775123    672.81604  0.032981178  0.032034292           34 
 1701000   0.56660318   -5.2992543    673.44916  0.032992806  0.032013172           27 
 1702000    0.5787539   -5.2969892    672.56285  0.032930026  0.031992097           18 
 1703000   0.57803655    -5.296197    672.91831  0.032928083  0.031971049           23 
 1704000   0.56383607    -5.288054    672.44228  0.032885479  0.031949971           12 
 1705000   0.58242597   -5.3015433    672.36311  0.032862322  0.031928734           13 
 1706000   0.57434482   -5.3156627    672.78284  0.032863562  0.031907509           16 
 1707000   0.56854098   -5.3000694    673.46566  0.032877644  0.031886373           29 
 1708000   0.57618931   -5.3033861    672.16652   0.03279501   0.03186516           19 
 1709000   0.58160109   -5.3001186    670.81331  0.032709836  0.031844012           25 
 1710000   0.56084823   -5.2800841    672.28308  0.032762333  0.031822938           23 
 1711000   0.57182755   -5.2870481    671.63448  0.032711596  0.031801893           15 
 1712000   0.55257033   -5.3129942    671.70561   0.03269595  0.031780769           33 
 1713000   0.56752937   -5.3089781    670.98329  0.032641725  0.031759552           15 
 1714000   0.57765508    -5.295216    672.86153  0.032713999  0.031738436           22 
 1715000   0.57198075   -5.3073296    672.95946  0.032699682  0.031717439           20 
 1716000   0.55344918   -5.2892087    673.94713   0.03272859  0.031696465           25 
 1717000   0.57169033    -5.309735    671.42585   0.03258716  0.031675471           12 
 1718000   0.56793054   -5.3186419    673.37617  0.032662794  0.031654451           10 
 1719000   0.57479755   -5.2979607    674.48562  0.032697577  0.031633562           13 
 1720000   0.58100978   -5.3061467    673.45995  0.032628874  0.031612685           23 
 1721000   0.56910224   -5.3010581    672.89109  0.032582369  0.031591732           17 
 1722000   0.56572555   -5.3001651    674.83792  0.032657662  0.031570804           32 
 1723000   0.56576046   -5.3152771    671.50756  0.032477634  0.031549886           22 
 1724000   0.55436301   -5.3318189    672.34979  0.032499507   0.03152886           18 
 1725000   0.56691016   -5.3226788    671.83474  0.032455785  0.031507858           14 
 1726000   0.56591381   -5.3264285    671.90854  0.032440544  0.031486873           22 
 1727000   0.55820441   -5.3129563    672.75606  0.032462655    0.0314659            7 
 1728000   0.57908665    -5.345701    671.23423  0.032370478  0.031444967           14 
 1729000   0.55685585   -5.3196116    671.33608  0.032356665  0.031423963           24 
 1730000   0.56725875   -5.3402402    672.83347   0.03241009  0.031403001           27 
 1731000   0.57125113   -5.3291033    672.45431  0.032373113  0.031382062           23 
 1732000   0.56193178    -5.318712    671.14305  0.032291332  0.031361091           25 
 1733000   0.56409167   -5.3243872    673.10293  0.032366942  0.031340111           17 
 1734000   0.54934108   -5.3453064    672.20881  0.032305306  0.031319222           12 
 1735000    0.5600073   -5.3278312    673.00268  0.032324816  0.031298209           12 
 1736000   0.56466555   -5.3144966    672.92344  0.032302392  0.031277305           20 
 1737000   0.56392404   -5.3266977    672.92962  0.032284092  0.031256493            5 
 1738000   0.57027138    -5.328289    672.66004  0.032252591  0.031235674           23 
 1739000   0.56631404   -5.3224508    673.94117  0.032295436  0.031214883           10 
 1740000   0.56161059   -5.3452625    672.43853   0.03220491  0.031194075           14 
 1741000    0.5508363   -5.3209799    671.11594  0.032123106    0.0311732           14 
 1742000     0.555571   -5.3105299    673.35153  0.032211612  0.031152428            9 
 1743000   0.55249621   -5.3177687    673.65767  0.032207768  0.031131673           31 
 1744000   0.56594071    -5.331615    673.04996  0.032160262  0.031110889           16 
 1745000   0.54306107   -5.3643434    670.98272   0.03204311  0.031090109           16 
 1746000   0.56121197      -5.3255    671.79212  0.032063389  0.031069256           14 
 1747000    0.5667949   -5.3309369    671.50236  0.032031213  0.031048472           39 
 1748000   0.54591618   -5.3436398    671.62628  0.032018797  0.031027671           36 
 1749000   0.55964146   -5.3352956    670.96109  0.031968796  0.031006835           51 
 1750000   0.56595135    -5.321466    672.20379  0.032009704  0.030986049           50 
 1751000   0.55832025   -5.3168869    672.49389   0.03200523  0.030965334           35 
 1752000   0.56580786   -5.3381256    672.26887  0.031976259  0.030944567           37 
 1753000   0.56052882   -5.3519932    673.52917   0.03201793  0.030923831           15 
 1754000    0.5548864   -5.3407081    673.35081  0.031991201  0.030903118           39 
 1755000   0.54443824   -5.3283955    672.15958  0.031916409  0.030882444           63 
 1756000   0.55207276   -5.3426623    670.59226  0.031823854  0.030861609           28 
 1757000   0.54950308   -5.3232577    671.64808  0.031855819  0.030840728           15 
 1758000   0.54726164   -5.3443134    670.93939  0.031804105  0.030819913           38 
 1759000   0.53595677   -5.3517999    672.49464  0.031859704  0.030799185           22 
 1760000   0.54758062   -5.3441135    670.79327  0.031761045  0.030778446           21 
 1761000   0.54926728   -5.3452509    671.19059  0.031761811  0.030757623           24 
 1762000   0.53676408   -5.3245552    672.85621   0.03182256  0.030736896           22 
 1763000   0.54197678   -5.3303571    670.62039  0.031698827  0.030716227           18 
 1764000   0.56443791   -5.3442496    672.61318  0.031774999  0.030695527           14 
 1765000   0.53970505   -5.3606242    672.76735  0.031764275  0.030674808           10 
 1766000   0.54525334   -5.3342671      672.716  0.031743865  0.030654135            7 
 1767000    0.5439298   -5.3570507    670.96513  0.031643328  0.030633385           13 
 1768000   0.54569744   -5.3614531    671.72157  0.031661085  0.030612674           13 
 1769000   0.55275511   -5.3418305    672.21609  0.031666482  0.030592018           16 
 1770000   0.55710248   -5.3456024    670.73175  0.031578708  0.030571343           44 
 1771000     0.541772   -5.3683714     670.8392  0.031565932  0.030550552           19 
 1772000   0.55015099   -5.3566687    671.59324   0.03158358  0.030529828           25 
 1773000   0.54499615   -5.3536663    671.40351  0.031556849  0.030509125           16 
 1774000   0.55205868   -5.3550688     671.0507  0.031522487  0.030488457           15 
 1775000   0.54552246   -5.3600729    671.43013  0.031522541  0.030467757            8 
 1776000   0.54416584   -5.3699439    670.50921  0.031461581  0.030446992            8 
 1777000   0.54853901   -5.3458494    671.61927  0.031495933  0.030426331           13 
 1778000   0.54463853   -5.3741516    671.11397  0.031454536  0.030405658            7 
 1779000   0.55683281   -5.3544714    671.35082  0.031447949  0.030384987           10 
 1780000   0.54203135   -5.3876411    671.61666  0.031442728  0.030364353           15 
 1781000   0.54218867   -5.3577223    671.07538  0.031399746  0.030343756           24 
 1782000    0.5404802   -5.3759767    671.28053  0.031391719  0.030323185           39 
 1783000   0.53355327   -5.3664711    671.85588  0.031401004  0.030302573           34 
 1784000   0.53609989   -5.3610488    673.05737  0.031439526  0.030282109           24 
 1785000   0.53208689   -5.3417836    671.72342  0.031359637   0.03026169           16 
 1786000   0.54485882   -5.3759922    671.19025  0.031317201  0.030241268           39 
 1787000   0.54304887   -5.3577459    671.48718  0.031313523  0.030220933           25 
 1788000   0.53168034   -5.3786946    672.10822  0.031324954   0.03020051           81 
 1789000   0.54880767   -5.4099826    671.03575  0.031257488  0.030180141           30 
 1790000    0.5491694   -5.3691438    670.43984  0.031212283  0.030159736           31 
 1791000   0.54042969   -5.3798588    671.38729   0.03123894  0.030139338           22 
 1792000   0.53783978   -5.3866787    670.66817  0.031188066  0.030118947           34 
 1793000   0.54666398   -5.3779091    672.13534  0.031238861  0.030098585           36 
 1794000   0.54774435   -5.3775565    672.34198  0.031231047   0.03007822           25 
 1795000   0.53767706   -5.4072117    670.36477  0.031121856  0.030057843           34 
 1796000   0.52755671   -5.3885354    670.88783  0.031128797  0.030037422           52 
 1797000   0.53972461   -5.3856425    671.83745  0.031155512  0.030017058           18 
 1798000   0.54408127   -5.3655635    671.70128  0.031131873  0.029996771           17 
 1799000   0.52848725   -5.3681355    672.76953  0.031164051   0.02997651           12 
 1800000   0.53603787   -5.3924644    672.38729  0.031129041   0.02995628           12 
 1801000   0.53942447   -5.4090583    671.57289  0.031074074  0.029936016           31 
 1802000   0.52513168   -5.3892945    672.62303  0.031105393   0.02991575           14 
 1803000   0.53608046   -5.3769042    672.39458  0.031077583  0.029895451           31 
 1804000   0.53789524   -5.3896911    674.20047  0.031143776  0.029875258           14 
 1805000   0.53755958   -5.3990938    670.82429  0.030970651  0.029855005           12 
 1806000    0.5323513   -5.3783981    670.04629  0.030917603  0.029834783           13 
 1807000   0.53064991   -5.3963723    670.86227  0.030938124  0.029814589           43 
 1808000   0.52744361   -5.3955912    672.14984  0.030980358  0.029794292            6 
 1809000   0.54218413   -5.4268355    672.39872  0.030974697  0.029774069           37 
 1810000   0.53537794   -5.3895683     670.5425  0.030872122  0.029753795           13 
 1811000   0.53231613   -5.3881087    671.25884  0.030888038  0.029733552           35 
 1812000   0.52953023   -5.4060851    671.05717  0.030861717  0.029713362           18 
 1813000   0.54259237   -5.3764615    672.34692  0.030903977   0.02969318           37 
 1814000   0.52771154   -5.3970411    671.88746  0.030865833  0.029673041           22 
 1815000   0.53467836   -5.4171192     670.7829  0.030798113  0.029652837           24 
 1816000   0.53235124   -5.4029711    671.63305  0.030820165  0.029632622           38 
 1817000   0.52133522   -5.4054697    669.20121  0.030691672  0.029612405           54 
 1818000   0.54077007   -5.4091308    672.43254  0.030822907  0.029592271           36 
 1819000   0.52487301   -5.4031701    671.82244  0.030778012  0.029572164           45 
 1820000   0.53222263    -5.420174    670.90187   0.03071895  0.029551969           20 
 1821000   0.54245408   -5.4062418    670.79549  0.030697213  0.029531789           19 
 1822000   0.52504497   -5.4163199    669.51203  0.030621663  0.029511599           42 
 1823000   0.53439947   -5.4151182    670.34908  0.030643129  0.029491421           31 
 1824000   0.53662644   -5.3916366    670.64112  0.030639671  0.029471257           25 
 1825000   0.51935308   -5.4067616    671.81034  0.030676271  0.029451223           21 
 1826000   0.52167895   -5.3866742    671.46903  0.030643895  0.029431177           39 
 1827000   0.51995647   -5.4127561    671.87793  0.030645773  0.029411129           36 
 1828000   0.51107485   -5.4120542    671.16443  0.030596482  0.029391156           25 
 1829000   0.54232799   -5.4160013    671.40333  0.030590638  0.029371175           16 
 1830000   0.52313674   -5.4066743    671.38482  0.030573079  0.029351218           20 
 1831000    0.5305485   -5.4100929     671.4912  0.030561223  0.029331312           17 
 1832000   0.52706224   -5.3976963    672.39917  0.030585843  0.029311414           39 
 1833000   0.53151974    -5.392428    671.92602  0.030547646  0.029291533           11 
 1834000   0.51034658   -5.4012104    671.24646  0.030500112  0.029271656           13 
 1835000   0.51284189   -5.4216723    671.97923  0.030516768  0.029251712           34 
 1836000   0.51492517   -5.4152991    671.93334  0.030498064  0.029231845           26 
 1837000    0.5220951   -5.4035889    671.75132  0.030473204  0.029211984           20 
 1838000   0.53248413   -5.4008755    670.83976  0.030415296  0.029192081           39 
 1839000   0.52210061   -5.3937139    672.68101  0.030482192  0.029172218           23 
 1840000   0.52554914   -5.3998171    672.19032  0.030443402  0.029152374           22 
 1841000   0.51715813   -5.4089514    671.53159  0.030397048  0.029132498           20 
 1842000   0.51034389     -5.41489    669.66901  0.030296282  0.029112621           16 
 1843000   0.52694484    -5.441081    670.44995  0.030315154  0.029092764           26 
 1844000   0.51522874   -5.4349911    670.45083  0.030298754  0.029072817           30 
 1845000   0.52329268   -5.4214516    670.13172  0.030267919  0.029052854           35 
 1846000   0.50309738   -5.4177103    670.34287  0.030261054  0.029032935           26 
 1847000   0.50302669   -5.4166828    670.25403  0.030240662  0.029013017           59 
 1848000   0.52286674   -5.4172433     669.4478  0.030187942  0.028993095           50 
 1849000   0.51536441   -5.4276343    671.43584  0.030261215  0.028973214           47 
 1850000   0.51796254   -5.4074674    671.07321  0.030228523  0.028953393           50 
 1851000   0.52206022   -5.4275721    670.55378  0.030188807  0.028933579           54 
 1852000   0.50731762   -5.4445247    671.27925   0.03020515  0.028913711           33 
 1853000   0.51354861   -5.4536597    670.97978  0.030175381  0.028893805           65 
 1854000   0.51945291   -5.4341301    670.31722  0.030129325  0.028873935           63 
 1855000   0.51783635    -5.428845    671.25551  0.030155234  0.028854119           30 
 1856000   0.51291479    -5.430157    670.32217   0.03009708   0.02883431           27 
 1857000   0.51145208   -5.4412967    669.77419  0.030056282  0.028814519           22 
 1858000   0.50989054    -5.421704    671.80557  0.030131215  0.028794787           57 
 1859000   0.51128551   -5.4493085    671.16078  0.030086103  0.028775047           35 
 1860000   0.50168045   -5.4517352    668.90561  0.029968889  0.028755249           55 
 1861000    0.5125681    -5.429388    670.38934  0.030019225  0.028735441           77 
 1862000   0.51572044   -5.4375188    670.59491  0.030012304  0.028715705           87 
 1863000   0.50788078   -5.4277459    669.48742  0.029946655  0.028695979           30 
 1864000   0.52096484   -5.4350799    670.35049  0.029969174   0.02867626           34 
 1865000   0.51220721   -5.4399555    670.26159  0.029949133  0.028656526           30 
 1866000   0.50787348   -5.4347115    670.06947  0.029924503  0.028636799           28 
 1867000   0.50691264   -5.4336073    668.92942  0.029857589  0.028617128           26 
 1868000   0.50827364   -5.4557852    670.04531  0.029891386  0.028597487           28 
 1869000   0.50418129   -5.4457186    670.26597  0.029885231  0.028577888           22 
 1870000   0.50492359   -5.4320832    670.00237  0.029857503  0.028558319           19 
 1871000   0.49292151   -5.4429814     669.6911  0.029827681  0.028538682           23 
 1872000   0.50751942   -5.4404582    670.35667  0.029841376  0.028519033           26 
 1873000   0.50905988   -5.4391294    669.02533   0.02976621  0.028499419           22 
 1874000   0.50532039   -5.4484755    669.54777  0.029773558  0.028479842           16 
 1875000   0.49900421   -5.4374615    671.30153  0.029835623  0.028460296           14 
 1876000   0.50643853   -5.4267979    671.03204  0.029807749  0.028440807           23 
 1877000   0.51235066   -5.4613379    669.51098  0.029724338  0.028421264           34 
 1878000   0.50388746   -5.4431491    669.25172  0.029697006  0.028401646           67 
 1879000   0.50421403   -5.4493344    670.40635  0.029732408  0.028382134           78 
 1880000   0.49905082   -5.4563009    669.05156  0.029656541  0.028362567           61 
 1881000   0.50360695   -5.4523948    670.02299  0.029683811  0.028343058           48 
 1882000    0.4997086   -5.4556875     670.5278  0.029690392  0.028323566           22 
 1883000   0.50282923   -5.4409599    669.71724  0.029638752  0.028304095          122 
 1884000    0.4956737   -5.4520823    669.69681  0.029622116  0.028284654           30 
 1885000   0.50876419   -5.4689917    670.12504  0.029625333  0.028265145           20 
 1886000   0.49929104   -5.4509571     668.6674  0.029545219   0.02824563           25 
 1887000   0.49992382   -5.4544426    669.86155  0.029582298   0.02822614           14 
 1888000   0.50383027   -5.4606991    669.85041  0.029566138  0.028206677           42 
 1889000   0.49661864   -5.4562672    670.35789  0.029572873  0.028187148           66 
 1890000   0.49905415   -5.4814913    666.26912  0.029376945  0.028167638           36 
 1891000   0.49410826   -5.4718233    668.80596  0.029473205  0.028148111           35 
 1892000   0.48538071   -5.4457417    668.86248  0.029460116   0.02812862           38 
 1893000   0.50153162   -5.4730267    667.20524  0.029371599  0.028109138           24 
 1894000   0.49390246   -5.4587117    668.99628  0.029434894    0.0280897           22 
 1895000   0.48445503   -5.4775832    668.81048  0.029411191  0.028070296           16 
 1896000   0.49063766   -5.4732945    669.32102  0.029418118  0.028050847           27 
 1897000   0.50930861   -5.4818847     668.0778  0.029347997  0.028031349           39 
 1898000   0.50051109   -5.4662533    668.96838  0.029371636  0.028011914           29 
 1899000   0.49665687   -5.4710432    669.46746   0.02937807  0.027992475           72 
 1900000   0.50065244    -5.489287    668.76781  0.029331922  0.027973041           64 
 1901000   0.49731976   -5.4781942    667.67312  0.029268504  0.027953586           25 
 1902000   0.49112025   -5.4971956    668.77447   0.02930137  0.027934176           38 
 1903000   0.49345184   -5.4747206    667.10592  0.029212906   0.02791472           41 
 1904000   0.49926995   -5.4769919    668.54321   0.02926047  0.027895296           46 
 1905000    0.4932265   -5.4804268     669.2883  0.029277703  0.027875903          100 
 1906000    0.4953101   -5.4835365    668.39442  0.029223261  0.027856498           56 
 1907000   0.49161118    -5.485709    669.14527  0.029240748  0.027837109           23 
 1908000   0.50492833    -5.471262    666.59336  0.029113966  0.027817729           32 
 1909000   0.48394966   -5.4783345    668.05453  0.029162499  0.027798356           12 
 1910000   0.49068483    -5.480705    667.92769  0.029141697  0.027779062           35 
 1911000   0.48593411   -5.4798178    668.13938  0.029135679  0.027759781           41 
 1912000   0.50415927    -5.486426     668.7306  0.029146208  0.027740448           42 
 1913000   0.48762516   -5.4900092    668.55829  0.029123466  0.027721132           46 
 1914000   0.49048851   -5.4889521    667.29543  0.029053267  0.027701764           32 
 1915000   0.49076322     -5.48431    666.80536  0.029016769    0.0276825           25 
 1916000   0.48974575   -5.4845051    667.79795  0.029044796  0.027663214           32 
 1917000   0.48779568   -5.4887731    667.32971   0.02900929  0.027643944           52 
 1918000   0.49518824   -5.4859031    668.76037  0.029056325  0.027624677           40 
 1919000   0.48538036   -5.5148039    667.17967  0.028972541  0.027605394           43 
 1920000   0.48629028   -5.4895351    666.43997  0.028925346  0.027586114           56 
 1921000   0.48804529   -5.5199123    666.84114  0.028927692  0.027566785          127 
 1922000   0.48566941   -5.4951354    668.81161  0.028998075  0.027547453           72 
 1923000   0.48701255   -5.5013535    667.10281  0.028908945  0.027528212           89 
 1924000      0.48659    -5.527917    666.86245  0.028883509  0.027508934           95 
 1925000   0.48269314   -5.5107543    668.04193  0.028919564  0.027489672          105 
 1926000   0.48301267    -5.527002    668.10907  0.028907454  0.027470429           76 
 1927000   0.49147303   -5.5028717    667.85976  0.028881671  0.027451221           42 
 1928000   0.48922963   -5.5100141    667.58953  0.028855011  0.027432067          133 
 1929000   0.47686517   -5.5239404    667.40525  0.028832091  0.027412918           82 
 1930000   0.47931662   -5.5248039    666.19056  0.028764705  0.027393754          103 
 1931000   0.48071239    -5.509076    667.49698  0.028806188  0.027374605           55 
 1932000   0.49322273   -5.5351205    666.87325  0.028764374  0.027355462           62 
 1933000   0.47631089   -5.5159941    668.27939  0.028810113  0.027336328           87 
 1934000   0.47881332   -5.5142283    667.48378  0.028760935  0.027317223           82 
 1935000   0.48301007   -5.5036426    668.79519  0.028802549  0.027298147          128 
 1936000   0.47389217   -5.5231721     667.1509  0.028716895  0.027279099          132 
 1937000   0.48310503   -5.5106151    665.78511   0.02864331   0.02726003           81 
 1938000    0.4800793   -5.5218199    666.54381  0.028661154  0.027240971          144 
 1939000   0.48450944   -5.5112342    665.94961  0.028620836  0.027221929          100 
 1940000   0.48973207   -5.5152869    666.96816  0.028649835  0.027202877           90 
 1941000   0.47453208   -5.5259781    667.04479  0.028638365  0.027183827          152 
 1942000   0.47945175   -5.5268588     665.8673   0.02857309  0.027164804          117 
 1943000   0.47139724   -5.5260876    667.66108  0.028635318  0.027145804          157 
 1944000   0.47569912   -5.5072483    666.78384  0.028582984  0.027126802          226 
 1945000   0.46853382   -5.5311292    667.68226  0.028606781   0.02710779          138 
 1946000   0.48583044   -5.5198304    665.63466  0.028504396  0.027088752          162 
 1947000   0.47254109    -5.531504    666.49063  0.028526392   0.02706972          171 
 1948000    0.4774636    -5.535546    667.55127  0.028557122  0.027050688          188 
 1949000   0.47645751   -5.5287528    665.89005   0.02847144  0.027031713          208 
 1950000   0.47486277   -5.5379162    666.83038  0.028497025  0.027012724          395 
 1951000   0.47212883   -5.5232618    666.82016  0.028481982  0.026993767          196 
 1952000   0.47412889   -5.5352351    665.86427  0.028426583  0.026974824          112 
 1953000   0.46717218   -5.5425244    666.93928  0.028457897  0.026955913          158 
 1954000   0.47131429   -5.5315739    667.18154  0.028453665  0.026937037          366 
 1955000   0.47837246   -5.5322151    666.56461  0.028412814  0.026918102          280 
 1956000   0.47515805   -5.5350786    666.32829  0.028388219  0.026899178          252 
 1957000   0.46916705   -5.5282263    665.94699  0.028357477   0.02688027          229 
 1958000   0.47560087   -5.5534048    666.78944  0.028378849  0.026861343          365 
 1959000    0.4831807   -5.5381849     667.7107  0.028403552  0.026842458          271 
 1960000    0.4671662   -5.5592922    665.60037  0.028299335  0.026823544          377 
 1961000   0.46028889   -5.5476402    665.03613  0.028260927  0.026804675          167 
 1962000   0.46783763    -5.552196    665.31567  0.028258396  0.026785776          262 
 1963000   0.47260923   -5.5482587    666.30005  0.028285789  0.026766921          518 
 1964000   0.46746152   -5.5375237    665.90066  0.028254441  0.026748108          209 
 1965000   0.47517087   -5.5388055    665.93359  0.028241458  0.026729309          391 
 1966000   0.47027873      -5.5459    665.62409  0.028213975  0.026710514          256 
 1967000   0.46730007   -5.5447766    665.34488  0.028187802  0.026691729          302 
 1968000   0.46783715   -5.5525758    666.38075  0.028217342  0.026672963          302 
 1969000   0.46671376   -5.5539492     666.4074  0.028204139  0.026654199          296 
 1970000   0.46467901   -5.5481657    666.96775  0.028213526  0.026635458          369 
 1971000   0.46192301   -5.5614443    665.41855  0.028133712  0.026616757          230 
 1972000   0.45416236    -5.539086    664.84161  0.028095065   0.02659802          305 
 1973000    0.4688751   -5.5556823    665.00447  0.028087704  0.026579256          285 
 1974000   0.47043538   -5.5672389    664.21806  0.028040276  0.026560524          416 
 1975000   0.45549057   -5.5682943    665.67935  0.028087736  0.026541799          308 
 1976000   0.46265467   -5.5588451    666.85886  0.028123265  0.026523088          328 
 1977000   0.47579944   -5.5608863    665.91316  0.028069177  0.026504414          310 
 1978000   0.46673364    -5.575274    665.03392  0.028017944  0.026485734          388 
 1979000   0.46401538   -5.5621954    666.96815  0.028085234  0.026467054          378 
 1980000   0.46186137   -5.5525119    664.68132  0.027974803   0.02644838          316 
 1981000   0.47150363   -5.5655863    665.30145  0.027986768  0.026429774          316 
 1982000   0.46594903   -5.5484846    664.22361   0.02792733  0.026411187          431 
 1983000   0.46388175   -5.5564603      665.975  0.027986847  0.026392596          374 
 1984000    0.4711561   -5.5662498    665.03539  0.027933274  0.026373995          359 
 1985000   0.45313717   -5.5618639     665.0144  0.027918321  0.026355413          329 
 1986000   0.45431415   -5.5628317    665.08256  0.027907123  0.026336824          386 
 1987000   0.45761074   -5.5562027    666.42717   0.02794947  0.026318297          350 
 1988000   0.45799728   -5.5680489    664.76599  0.027865778  0.026299734          416 
 1989000   0.45272045    -5.570994    666.78039  0.027936165  0.026281226          300 
 1990000   0.47036932   -5.5522696    664.53103  0.027827933  0.026262739          388 
 1991000   0.44991917   -5.5820743    665.23027  0.027843222  0.026244239          374 
 1992000   0.45327819    -5.559642    665.49796  0.027840444  0.026225755          360 
 1993000   0.45047074   -5.5785901    663.91988   0.02776049  0.026207257          416 
 1994000   0.45017815   -5.5708237    665.86817  0.027827991  0.026188812          377 
 1995000    0.4650125   -5.5802797    664.79752   0.02776932  0.026170348          349 
 1996000   0.45738265   -5.5636496    664.05779  0.027724523  0.026151888          439 
 1997000   0.45126626   -5.5790739    663.17545  0.027673821  0.026133441          374 
 1998000   0.46755251   -5.5714821    665.98246  0.027777046   0.02611501          454 
 1999000   0.45927149   -5.5725532      664.485  0.027700725  0.026096589          421 
 2000000   0.45019555   -5.5782364     664.4988   0.02768745  0.026078209          400 
 2001000   0.45603983   -5.5801558    664.36458  0.027668023  0.026059858          400 
 2002000    0.4538945   -5.5911239    664.93005  0.027677741  0.026041455          432 
 2003000    0.4692584   -5.5777943    665.60597  0.027692044  0.026023066          307 
 2004000   0.45116748   -5.5956878    663.82423  0.027604134  0.026004722          470 
 2005000   0.44706652   -5.5895947    664.96494  0.027637778   0.02598639          485 
 2006000   0.44552577   -5.5819905    664.59496  0.027608631  0.025968049          454 
 2007000   0.44799183   -5.5828736    664.63158  0.027596395   0.02594974          383 
 2008000    0.4525886   -5.5782893    663.71554  0.027544636  0.025931419          559 
 2009000    0.4452019   -5.5699427     664.4985  0.027563402  0.025913097          518 
 2010000   0.46527196   -5.5853886    664.61546  0.027554538  0.025894835          532 
 2011000   0.44264664   -5.5907367    666.05188   0.02760036   0.02587658          536 
 2012000   0.44548338   -5.5879543    664.22419  0.027510942  0.025858311          578 
Loop time of 5021.53 on 48 procs for 2000000 steps with 4000 atoms

Performance: 68823.694 tau/day, 398.285 timesteps/s
99.4% CPU use with 48 MPI tasks x no OpenMP threads

MPI task timing breakdown:
Section |  min time  |  avg time  |  max time  |%varavg| %total
---------------------------------------------------------------
Pair    | 345.68     | 365.98     | 384.72     |  49.9 |  7.29
Neigh   | 34.196     | 35.432     | 37.559     |  11.5 |  0.71
Comm    | 324.63     | 344.6      | 366.97     |  59.8 |  6.86
Output  | 4.2648     | 4.2665     | 4.3034     |   0.3 |  0.08
Modify  | 4208.6     | 4224.3     | 4238.2     |   9.5 | 84.12
Other   |            | 46.92      |            |       |  0.93

Nlocal:        83.3333 ave          91 max          77 min
Histogram: 3 4 3 10 5 12 5 4 0 2
Nghost:        2326.83 ave        2356 max        2308 min
Histogram: 1 2 9 14 11 6 3 1 0 1
Neighs:        15813.6 ave       17251 max       13385 min
Histogram: 1 0 2 5 6 3 15 6 5 5
FullNghs:      31628.0 ave       34559 max       28912 min
Histogram: 2 6 1 8 7 10 6 3 3 2

Total # of neighbors = 1518142
Ave neighs/atom = 379.53550
Neighbor list builds = 107815
Dangerous builds = 0

#clear
#
#next RN
#
#jump SELF
Total wall time: 1:23:45
