
units lj                  # Use reduced LJ style units
atom_style atomic         # Uncharged point particles
atom_modify map hash      # Needed for indexing of clusters etc
                          # Used to be able to find where atoms are in relation to each other.

lattice fcc 1.0 spacing 1 1 1
Lattice spacing in x,y,z = 1.5874011 1.5874011 1.5874011
region box block 0 10 0 10 0 10 units lattice
create_box 2 box
Created orthogonal box = (0.0000000 0.0000000 0.0000000) to (15.874011 15.874011 15.874011)
  3 by 4 by 4 MPI processor grid
create_atoms 1 box
Created 4000 atoms
  using lattice units in orthogonal box = (0.0000000 0.0000000 0.0000000) to (15.874011 15.874011 15.874011)
  create_atoms CPU = 0.002 seconds
set type 1 type/fraction 2 0.38 78393
Setting atom values ...
  1537 settings made for type/fraction
mass 1 1.0
mass 2 1.0
pair_style lj/cut  3.5
pair_modify tail  yes
pair_coeff 1  1  1.0  1.0   # Intearaction between 1 and 1 set with epsilon = 1 and sigma = 1
pair_coeff 1  2  1.5  0.8
pair_coeff 2  2  0.5  0.88

write_data data.0
System init for write_data ...
Neighbor list info ...
  update every 1 steps, delay 10 steps, check yes
  max neighbors/atom: 2000, page size: 100000
  master list distance cutoff = 3.8
  ghost atom cutoff = 3.8
  binsize = 1.9, bins = 9 9 9
  1 neighbor lists, perpetual/occasional/extra = 1 0 0
  (1) pair lj/cut, perpetual
      attributes: half, newton on
      pair build: half/bin/atomonly/newton
      stencil: half/bin/3d
      bin: standard
WARNING: Not all mixed pair coeffs generated from mixing. Use write_data with 'pair ij' option to store all pair coeffs. (../write_data.cpp:312)


#############################
#   M E L T   S Y S T E M   #
#############################

velocity all create 2.4 3143649 mom yes dist gaussian # Assign velocities
                                                    # Temperature 2.4, random number seed, zero linear momentum
                                                                                # Gaussian distribution

timestep 0.002   # simulation timestep
thermo 1000       # output thermodynamic data every 1000 steps bf 100

# Define a fix  in this case with index 1 applied to all
# particles in the simulation. This fix is for simulations
# in the anisotropic NPT ensemble. Note that we use the MTK
# correction.
fix 1 all npt temp 2.4 2.4 0.1 iso 5.68 5.68 0.5 mtk yes tchain 5 pchain 5 # Use NPT ensemble
                                                                         # Set temperature and pressure and damping
                                                                         # Numbers of thermostats in chain and in barostat
run 10000          # run for 10000 steps
Per MPI rank memory allocation (min/avg/max) = 3.642 | 3.644 | 3.648 Mbytes
Step Temp E_pair E_mol TotEng Press Volume 
       0          2.4   -5.9717516            0   -2.3726516   -4.1474152         4000 
    1000    2.4352242   -5.0617173            0   -1.4097941    5.8978063    3912.3387 
    2000    2.4618514   -4.9989274            0   -1.3070736    6.0939525    3924.2915 
    3000     2.390973   -4.9950677            0   -1.4095047    5.7699063    3943.2399 
    4000    2.3720549   -5.0772118            0    -1.520019    5.4856422    3932.4925 
    5000    2.4082443   -5.0369725            0   -1.4255092     5.837773    3918.3883 
    6000    2.3777412   -4.9973333            0   -1.4316132    5.7815641    3940.3422 
    7000    2.3943965   -5.0517069            0   -1.4610101    5.5242672    3936.5519 
    8000    2.3338068   -5.0047069            0    -1.504872    5.5010673    3962.5806 
    9000    2.4472207   -5.0113626            0   -1.3414492    5.5209299    3958.0655 
   10000    2.3971566   -5.0208265            0   -1.4259905    5.7662683    3934.0587 
Loop time of 2.506 on 48 procs for 10000 steps with 4000 atoms

Performance: 689544.235 tau/day, 3990.418 timesteps/s
99.6% CPU use with 48 MPI tasks x no OpenMP threads

MPI task timing breakdown:
Section |  min time  |  avg time  |  max time  |%varavg| %total
---------------------------------------------------------------
Pair    | 1.1167     | 1.1754     | 1.2784     |   2.9 | 46.90
Neigh   | 0.20837    | 0.21694    | 0.22727    |   0.9 |  8.66
Comm    | 0.72337    | 0.8334     | 0.89456    |   3.8 | 33.26
Output  | 0.00024562 | 0.00024974 | 0.00032043 |   0.0 |  0.01
Modify  | 0.23178    | 0.26456    | 0.29011    |   3.2 | 10.56
Other   |            | 0.01547    |            |       |  0.62

Nlocal:        83.3333 ave          92 max          75 min
Histogram: 1 3 7 4 14 9 0 3 4 3
Nghost:        1666.69 ave        1693 max        1635 min
Histogram: 1 2 3 7 10 5 6 7 5 2
Neighs:        9702.21 ave       11304 max        8576 min
Histogram: 5 3 6 10 9 6 5 1 2 1

Total # of neighbors = 465706
Ave neighs/atom = 116.42650
Neighbor list builds = 906
Dangerous builds = 204

# Equilibrate just above the melting temperature to avoid step fn in T

fix 1 all npt temp 1.25 1.25 0.1 iso 5.68 5.68 0.5 mtk yes tchain 5 pchain 5
run 2000
Per MPI rank memory allocation (min/avg/max) = 3.643 | 3.645 | 3.649 Mbytes
Step Temp E_pair E_mol TotEng Press Volume 
   10000    2.3971566   -5.0208265            0   -1.4259905    5.7662683    3934.0587 
   11000    1.2404977   -7.0164149            0   -5.1561336    5.2272204    3148.4296 
   12000    1.2632242    -7.025467            0   -5.1311044    5.7177728    3127.3338 
Loop time of 0.610541 on 48 procs for 2000 steps with 4000 atoms

Performance: 566055.293 tau/day, 3275.783 timesteps/s
99.6% CPU use with 48 MPI tasks x no OpenMP threads

MPI task timing breakdown:
Section |  min time  |  avg time  |  max time  |%varavg| %total
---------------------------------------------------------------
Pair    | 0.26546    | 0.29437    | 0.3213     |   2.6 | 48.21
Neigh   | 0.038567   | 0.041954   | 0.045658   |   0.8 |  6.87
Comm    | 0.19291    | 0.22405    | 0.25723    |   3.4 | 36.70
Output  | 5.3686e-05 | 5.5071e-05 | 7.2246e-05 |   0.0 |  0.01
Modify  | 0.042643   | 0.04526    | 0.048119   |   0.8 |  7.41
Other   |            | 0.00485    |            |       |  0.79

Nlocal:        83.3333 ave          91 max          74 min
Histogram: 1 1 3 3 10 12 7 8 2 1
Nghost:        1934.58 ave        1966 max        1916 min
Histogram: 6 9 6 7 5 6 4 2 2 1
Neighs:        12218.2 ave       13953 max       10750 min
Histogram: 3 5 4 7 7 9 4 5 3 1

Total # of neighbors = 586474
Ave neighs/atom = 146.61850
Neighbor list builds = 143
Dangerous builds = 10

#############################
# L I N E A R  Q U E N C H  #
#############################

# Define solid atoms. This closely follows ten Wolde  Ruiz-Montero and Frenkel  Faraday Discuss  1996  104  93-110
# Compute components of the per-atom q6 vector
compute q6 all orientorder/atom degrees 1 6 components 6 nnn NULL cutoff 1.3 # compute the Q6 parameter.
                                                                             # Use all neighbours within 1.3 unit cell.

# get number of connections
compute coord_number all coord/atom orientorder q6 0.5

# An atom is solid if it has 8 or more connections (of a possible 14)
variable is_solid atom c_coord_number>=8
group solid dynamic all var is_solid    # Must be dynamic to update
dynamic group solid defined

# do clustering
compute cluster solid cluster/atom 1.3 # Create a cluster where all atoms within are solid and max 1.3 units from another member

# define chunks one chunk per cluster
compute clus_chunks solid chunk/atom c_cluster nchunk every compress yes  # Says which atoms are in which chunk

# count the size of each chunk
compute size_chunks solid property/chunk clus_chunks count


# Find the maximum entry in the vector of chunk sizes
variable max_n equal max(c_size_chunks)


# Thermo style which includes this variable
# thermo_style custom step temp pe vol v_max_n

thermo ${N}  # Print the thermo information every 100 steps
thermo 1000  

# Reset the npt fix at a lower temperature (below freezing)
fix 1  all npt temp  ${temp} ${temp}  0.1  iso  5.68  5.68  0.5  mtk yes tchain  5  pchain  5
fix 1  all npt temp  0.45 ${temp}  0.1  iso  5.68  5.68  0.5  mtk yes tchain  5  pchain  5
fix 1  all npt temp  0.45 0.45  0.1  iso  5.68  5.68  0.5  mtk yes tchain  5  pchain  5

dump dmp2 all dcd ${N} traj.dcd
dump dmp2 all dcd 1000 traj.dcd


compute msd all msd com yes
variable twopoint equal c_msd[4]/6/(step*dt+1.0e-6)
fix 9 all vector 10 c_msd[4]
variable fit equal slope(f_9)/6/(10*dt)
thermo_style custom step temp pe c_msd[4] v_twopoint v_fit v_max_n

fix 1 all npt temp 1.25 ${temp} 0.1 iso 5.68 5.68 0.5 mtk yes tchain 5 pchain 5
fix 1 all npt temp 1.25 0.45 0.1 iso 5.68 5.68 0.5 mtk yes tchain 5 pchain 5
run 2000000 # 5000000  # Run for this many steps
Neighbor list info ...
  update every 1 steps, delay 10 steps, check yes
  max neighbors/atom: 2000, page size: 100000
  master list distance cutoff = 3.8
  ghost atom cutoff = 3.8
  binsize = 1.9, bins = 8 8 8
  4 neighbor lists, perpetual/occasional/extra = 1 3 0
  (1) pair lj/cut, perpetual
      attributes: half, newton on
      pair build: half/bin/atomonly/newton
      stencil: half/bin/3d
      bin: standard
  (2) compute orientorder/atom, occasional
      attributes: full, newton on
      pair build: full/bin/atomonly
      stencil: full/bin/3d
      bin: standard
  (3) compute coord/atom, occasional
      attributes: full, newton on
      pair build: full/bin/atomonly
      stencil: full/bin/3d
      bin: standard
  (4) compute cluster/atom, occasional
      attributes: full, newton on
      pair build: full/bin/atomonly
      stencil: full/bin/3d
      bin: standard
Per MPI rank memory allocation (min/avg/max) = 9.818 | 9.827 | 9.834 Mbytes
Step Temp PotEng c_msd[4] v_twopoint v_fit v_max_n 
   12000    1.2632242    -7.025467 5.0299743e-30 3.4930376e-32 8.3333333e+20            1 
   13000    1.2444618   -7.0684631   0.49824207 0.0031938593  0.041219844            3 
   14000    1.2482404   -7.0682733    0.9257772 0.0055105784  0.037759484            1 
   15000    1.2618874   -7.0828496    1.3271962  0.007373312  0.036386658            1 
   16000     1.238042   -7.0552309    1.7561321  0.009146521  0.036128083            2 
   17000    1.2567874   -7.1001135     2.201203   0.01079021  0.035778807            1 
   18000    1.2510781   -7.1077436    2.6545567  0.012289614  0.036037499            1 
   19000    1.2765842   -7.0988806    3.0917157  0.013560156  0.036084388            1 
   20000    1.2478369   -7.0789915     3.534245   0.01472602  0.036293723            1 
   21000    1.2582973    -7.057145    3.9135903   0.01553012  0.036170841            1 
   22000    1.2684781   -7.0875894    4.3170076  0.016352301  0.035918822            5 
   23000    1.2675969   -7.0589844    4.8065814   0.01741515  0.035827831            1 
   24000    1.2567008   -7.0715912    5.2211066  0.018128842  0.035870635            1 
   25000    1.2585055   -7.0747428    5.6600448  0.018866816  0.035928745            3 
   26000    1.2482118   -7.0589989    6.0497259  0.019390147  0.035938894            3 
   27000    1.2378182   -7.1078204    6.4973564  0.020053569  0.035832542            1 
   28000    1.2233417   -7.0858367    6.9413635   0.02065882  0.035798292            2 
   29000    1.2366729   -7.0862268    7.3598423  0.021148972  0.035828294            1 
   30000    1.2197525   -7.1203861    7.7807512  0.021613197  0.035849855            1 
   31000    1.2634124   -7.0809085    8.1239906  0.021838684  0.035800241            1 
   32000    1.2663561   -7.0881436    8.6295739  0.022472848  0.035705395            4 
   33000    1.2465626   -7.0945808    9.0406035  0.022829806  0.035682071            1 
   34000    1.2320644   -7.1119522    9.4883493  0.023255758   0.03568345            1 
   35000    1.2431022   -7.0477777    9.9034878  0.023579733  0.035650134            1 
   36000    1.2837933   -7.1059474    10.163207  0.023525941   0.03557398            2 
   37000     1.237455   -7.0715803    10.666782  0.024024284  0.035487671            1 
   38000    1.2441471   -7.0889757    10.999329  0.024121336  0.035382773            2 
   39000    1.2162133   -7.0690657    11.503829  0.024580831  0.035312883            1 
   40000    1.2136032   -7.0162777    11.902013  0.024795861  0.035268286            1 
   41000    1.2019608   -7.0944669    12.429765   0.02526375  0.035237418            3 
   42000    1.2413093   -7.0594498    12.866983  0.025529728  0.035292704            4 
   43000     1.223822   -7.0936777    13.288056  0.025752047  0.035309983            1 
   44000    1.2278853   -7.0606603    13.631472  0.025817182  0.035307134            1 
   45000    1.2454155   -7.0580337    14.067708  0.026051311   0.03529464            1 
   46000    1.2446064   -7.1181977    14.544138  0.026348076  0.035291894            2 
   47000    1.2367527   -7.1380656    15.130661  0.026827412  0.035344512            1 
   48000    1.2449133   -7.1307942    15.611839  0.027103886  0.035425491            1 
   49000    1.2567204   -7.1325469    16.097192  0.027376176  0.035502113            1 
   50000    1.2501216   -7.1455703    16.697038  0.027828397  0.035632787            1 
   51000    1.2284537   -7.1076503     17.12022  0.027974216  0.035764418            2 
   52000    1.2165942   -7.0817353    17.655686  0.028294369  0.035898249            2 
   53000    1.2520426   -7.1038554    18.101216  0.028461031  0.036023794            1 
   54000    1.2449533   -7.1269385    18.418672  0.028423877  0.036109347            2 
   55000    1.2374876   -7.1353612    18.903512  0.028641684    0.0361849            1 
   56000    1.2444364   -7.0846198    19.427749   0.02891034  0.036265689            2 
   57000    1.2320674   -7.0955239    19.735173  0.028852592  0.036307576            1 
   58000    1.2447575   -7.0789721    20.204164  0.029028971  0.036351109            2 
   59000      1.22605   -7.1382056    20.406112  0.028822192  0.036364928            2 
   60000    1.2012221    -7.136527    20.928498  0.029067357  0.036362054            2 
   61000    1.2356124   -7.0787424    21.267185  0.029053531  0.036362731            2 
   62000    1.2289751    -7.095448    21.716265  0.029188529  0.036346856            1 
   63000     1.195435    -7.126754    21.990519  0.029087988  0.036326757            2 
   64000    1.2147411   -7.1507442    22.416478  0.029188122  0.036299823            1 
   65000    1.2282964   -7.1028741    22.738138  0.029151459  0.036262703            2 
   66000    1.2114073   -7.1538141    23.243048  0.029347283  0.036229625            1 
   67000    1.2123674   -7.1456965     23.69209  0.029467773  0.036193792            2 
   68000    1.2198165   -7.1017088    24.112776  0.029549971   0.03616688       -1e+20 
   69000    1.2300595   -7.0932192    24.617071  0.029730762  0.036140178            2 
   70000     1.263318   -7.1517132      24.9169  0.029662976  0.036116344            1 
   71000    1.2071512   -7.1338592    25.239795  0.029624172  0.036090007            2 
   72000    1.2480751   -7.1181618    25.697465  0.029742437  0.036054079            2 
   73000    1.2071909   -7.1128828    26.117359  0.029814336  0.036024426            3 
   74000    1.2184467   -7.1157159    26.625297  0.029983443  0.035991892            1 
   75000    1.1932227   -7.1250286    27.101305  0.030112561  0.035977169            2 
   76000        1.235   -7.1428967    27.450519  0.030099253  0.035956789            4 
   77000    1.2271294   -7.0933488    28.095606    0.0304065  0.035941675            1 
   78000    1.2268639   -7.1437416    28.392407  0.030333768  0.035939681            4 
   79000    1.2075197   -7.0955875    29.027477  0.030619701  0.035946507            1 
   80000    1.1814311   -7.1314114    29.528838  0.030759206  0.035962869            2 
   81000    1.2343541   -7.0915451    29.923252  0.030785239   0.03597796            1 
   82000     1.218258   -7.1301332    30.392352  0.030886536  0.035981425            1 
   83000    1.2303962    -7.143644    30.645834  0.030768909  0.035979892            3 
   84000    1.2316549   -7.1179558    30.977306  0.030731454  0.035965447            4 
   85000    1.1813222   -7.0964437    31.400962  0.030785256  0.035945113            3 
   86000    1.2271771   -7.1439725    31.821523  0.030834809   0.03593562            2 
   87000    1.2594815   -7.1006104    32.372454  0.031008098  0.035934923            1 
   88000    1.2411388   -7.1434609    32.660425  0.030928433  0.035933005            2 
   89000    1.2195419    -7.145511    32.957043  0.030858655  0.035918022            1 
   90000     1.221662    -7.110526    33.606799  0.031117407  0.035905397            2 
   91000    1.2148463   -7.1074588    34.105818  0.031232434  0.035902194            1 
   92000    1.2144813   -7.1727114    34.363095  0.031125992  0.035898115            1 
   93000    1.1921521   -7.1940629    34.914736  0.031285605  0.035892557            2 
   94000    1.2438428   -7.1735134    35.326487  0.031317807  0.035895541            3 
   95000    1.2174659   -7.1220226    35.829015   0.03142896   0.03589961            4 
   96000    1.1946247   -7.1534609    36.363494  0.031565533  0.035900079            2 
   97000    1.2335739    -7.131088    36.757772  0.031578841  0.035903343            1 
   98000    1.2299665   -7.1209903    37.104693  0.031551609  0.035909461            2 
   99000    1.2271906   -7.1402325    37.856534  0.031865769  0.035916261            3 
  100000    1.2546651   -7.1156126    38.191011  0.031825842    0.0359265            1 
  101000    1.2194676   -7.1464224    38.340327  0.031633933  0.035926582            1 
  102000    1.2020544   -7.1550645    38.858692  0.031747297  0.035926081            4 
  103000    1.2258265   -7.1574784    39.073261  0.031612671  0.035921902            2 
  104000    1.1969805   -7.1599243    39.768975  0.031866166  0.035918457            2 
  105000    1.1763445    -7.143849    40.159169  0.031872356  0.035923145            2 
  106000    1.2436375   -7.1812759    40.575578  0.031899039  0.035929539            1 
  107000    1.2281335   -7.1002824    41.234938  0.032114438   0.03593589            1 
  108000    1.1979234   -7.1425704    41.638342   0.03212835  0.035940891            1 
  109000    1.2134757   -7.1274719    41.996537  0.032107444  0.035944978            1 
  110000    1.1749361   -7.1516111    42.258661  0.032014137  0.035946664            1 
  111000    1.2258501   -7.1403486    42.528879  0.031928588  0.035943662            1 
  112000    1.2311612   -7.1418401    43.119312  0.032082822  0.035939321            3 
  113000    1.2319927   -7.1450096    43.279568  0.031917086  0.035927649            2 
  114000    1.2190741   -7.1252208    43.737292  0.031971705  0.035910685            4 
  115000    1.2300469   -7.1407935    44.043709  0.031915731  0.035896232            4 
  116000    1.2018009   -7.1434788    44.449059  0.031931795  0.035875094            2 
  117000    1.2040225   -7.1831116    44.703501  0.031840101  0.035856718            1 
  118000    1.1876401    -7.193915    45.187629  0.031912167  0.035835658            1 
  119000    1.2131829     -7.16627     45.60923  0.031939237  0.035817022            2 
  120000    1.2018878   -7.1766075    45.857951  0.031845799  0.035792035            1 
  121000    1.2082316   -7.1778971    46.233119  0.031840991   0.03576674            1 
  122000    1.2200275   -7.1409956    46.757255  0.031938015  0.035743588            2 
  123000    1.2157373   -7.1802377    47.087999  0.031902438  0.035720068            2 
  124000    1.2204355   -7.1617042    47.343342  0.031816762  0.035693689            3 
  125000    1.1997511   -7.1378196    47.777309  0.031851539    0.0356648       -1e+20 
  126000    1.2135479   -7.1553706    48.041725  0.031773628  0.035631115            1 
  127000    1.2053256   -7.1436478    48.427189   0.03177637   0.03559764            1 
  128000    1.2077432   -7.2052993    48.348354  0.031476793  0.035557023            1 
  129000    1.2194753   -7.1574623    48.992062  0.031648619  0.035516761       -1e+20 
  130000    1.2030705   -7.1937707     49.37778  0.031652423  0.035476734            1 
  131000    1.2211619    -7.140783    49.865183  0.031720854  0.035439374            1 
  132000    1.2105913   -7.1140838    50.566356  0.031923205  0.035408693            1 
  133000    1.1809026   -7.1529659    50.726507  0.031783525  0.035377119            2 
  134000    1.1989737   -7.2123935    50.971291  0.031698564  0.035349218            3 
  135000    1.2090855   -7.1873519    51.663551  0.031891081    0.0353217            3 
  136000    1.1732534   -7.2047019    51.826551  0.031756465  0.035295917            2 
  137000    1.1962151   -7.2124912    52.138479  0.031714403  0.035268307            4 
  138000    1.1937693   -7.1461279    52.492132  0.031698147  0.035235832            1 
  139000    1.1709347   -7.1444521    52.964588   0.03175335  0.035200978            2 
  140000    1.2202019   -7.1802242    53.354088  0.031758385   0.03516384            3 
  141000    1.1932469   -7.2159114    53.371221  0.031543275   0.03512599            2 
  142000    1.1987919    -7.127799    53.769069  0.031554618  0.035087688            1 
  143000    1.2183352   -7.1915788    54.401768  0.031702662  0.035052357            2 
  144000    1.1870193   -7.2192206    54.655827  0.031629529  0.035020365            2 
  145000    1.1901536   -7.1772602    55.143957  0.031691929  0.034988377            2 
  146000    1.1979646   -7.1700943    55.592331  0.031730783  0.034955389            1 
  147000    1.1876529   -7.2029956    55.813304  0.031640195  0.034922808            3 
  148000    1.1887567   -7.1898781    56.332053  0.031718498   0.03488894            4 
  149000     1.161474   -7.1680162    56.589826  0.031649791   0.03485457            2 
  150000    1.1958037   -7.2111041    57.113836  0.031729909  0.034824605            2 
  151000    1.1930244   -7.1913563    57.505242  0.031735784  0.034792265            1 
  152000    1.1733082   -7.1834203    57.834707  0.031707624  0.034761818            1 
  153000    1.2077403   -7.2253975    58.046965  0.031615994  0.034731326            1 
  154000    1.1767334   -7.1654095    58.828059  0.031833365  0.034700654            1 
  155000    1.1770731   -7.1509846    58.886163  0.031659227  0.034672628            3 
  156000    1.1903091   -7.2021419    59.278195  0.031665703   0.03464281            1 
  157000    1.1910711   -7.1775452    59.640338   0.03165623  0.034613825            1 
  158000    1.2101216   -7.2383383    60.187531  0.031744478  0.034586621            2 
  159000    1.1644592    -7.197947     60.48104  0.031698658  0.034558466            1 
  160000    1.1960454   -7.1876199    60.755385   0.03164343  0.034530815            1 
  161000     1.163866   -7.1853809    61.273925  0.031715282  0.034504592            2 
  162000    1.2006958   -7.2725217    61.437722  0.031603766    0.0344779            2 
  163000    1.1602866   -7.1988751    61.998851  0.031696754  0.034448084            2 
  164000    1.1864651   -7.1775417    62.229828  0.031620848  0.034418851            1 
  165000    1.2054909   -7.2012316    62.440986  0.031535851  0.034385078            2 
  166000    1.1947321   -7.2260093    62.711673  0.031481764  0.034352427            3 
  167000    1.1911428   -7.2111479    63.206682   0.03154026  0.034319706            2 
  168000    1.1898101    -7.203964    63.267634  0.031382755  0.034285496            1 
  169000    1.1985099   -7.1707832    63.675053  0.031397955  0.034251993            2 
  170000    1.1813052   -7.2054641    64.217756  0.031479292  0.034220267            1 
  171000    1.1849267   -7.2206922    64.673331  0.031517218  0.034187694            1 
  172000    1.1744851   -7.2088031    64.833772  0.031411711  0.034155594            1 
  173000    1.2002573   -7.2189512    65.292352  0.031451036  0.034124947            4 
  174000    1.1802379   -7.2118902    65.662836  0.031447718  0.034094572       -1e+20 
  175000    1.2101788   -7.1971743    66.163261  0.031506315  0.034064418            1 
  176000    1.1800652   -7.2131436    66.422802   0.03145019   0.03403222            1 
  177000    1.1563818   -7.2862394    66.698047  0.031402094   0.03400315            1 
  178000    1.1851729    -7.194444    67.606792   0.03165112  0.033974534            3 
  179000    1.1836612   -7.1620801    68.127223  0.031716584  0.033951366            1 
  180000    1.1587181   -7.2613283    68.445025  0.031687511  0.033929581            1 
  181000    1.2088836   -7.2141746    69.073534  0.031801811   0.03390832            1 
  182000    1.1983714   -7.2123695    69.247389   0.03170668  0.033887828            3 
  183000    1.1961481   -7.1957307    69.379591  0.031593621  0.033865641            1 
  184000    1.2223746    -7.202646    69.951252  0.031680821  0.033844806            1 
  185000    1.1638661   -7.2004691    70.214689  0.031628238  0.033825422            5 
  186000    1.2030669   -7.2458862    70.485132   0.03157936  0.033802695            3 
  187000    1.1703365   -7.2337181    70.969488  0.031626331  0.033780296            1 
  188000    1.1825916   -7.2067269     71.43796  0.031665762  0.033761266            2 
  189000    1.1693186   -7.2538847    71.999534  0.031745826  0.033743144            3 
  190000    1.1662991   -7.2557636    72.359018  0.031736411  0.033728358            2 
  191000    1.1664568   -7.2112177    72.604255  0.031677249   0.03371232            2 
  192000    1.1616515   -7.2693445    73.099354   0.03172715  0.033695919            3 
  193000    1.2014249   -7.1968917    73.509433  0.031739824  0.033680736            1 
  194000    1.1776326   -7.2115155    73.890524  0.031739916  0.033665739            2 
  195000    1.1778397   -7.2066366    74.067799  0.031652905  0.033650674            2 
  196000    1.1815332    -7.234174    74.516171  0.031682045  0.033634076            1 
  197000    1.1715725    -7.222732    74.987463  0.031720585  0.033618149            1 
  198000    1.1852332    -7.195017    75.508145  0.031779522  0.033602987            1 
  199000    1.1919419   -7.2684114    75.825906  0.031752892  0.033588044            1 
  200000    1.1696656   -7.2081873    75.822573  0.031592739  0.033570177            1 
  201000    1.1585771   -7.2050764      76.2057  0.031594403  0.033551908            1 
  202000    1.1793619   -7.2060239    76.572654  0.031589379  0.033535242            1 
  203000    1.1679156   -7.2077163    76.828493   0.03153879  0.033515374            1 
  204000    1.1599122   -7.2150705    77.000247  0.031454349  0.033493937            2 
  205000    1.1637139    -7.206177    77.350186  0.031443165  0.033473174            2 
  206000    1.1524047   -7.2859617    77.101505  0.031189929  0.033448267            1 
  207000    1.1814955   -7.2662768     77.66358  0.031265531  0.033422079            1 
  208000    1.1660979   -7.2520886    78.196879  0.031328878  0.033397224            1 
  209000    1.1877461   -7.2747349    78.525445  0.031309986  0.033372657            1 
  210000    1.1799891   -7.2570107    78.842552  0.031286727  0.033347736            2 
  211000    1.1858208    -7.223565    79.193924  0.031277221   0.03332132            2 
  212000    1.1812378   -7.2504828    79.237141  0.031146675  0.033296068            1 
  213000    1.1800774   -7.2757814       79.839  0.031235916  0.033271695            1 
  214000     1.200568   -7.2483644    80.418652  0.031315674  0.033247286            2 
  215000    1.1676974   -7.2736406    80.955454  0.031378083  0.033226655            2 
  216000    1.1763366   -7.2438512    81.145584  0.031306167  0.033206151            1 
  217000    1.1652247   -7.2400723    81.876974   0.03144277  0.033186594            2 
  218000    1.1649539   -7.2100102    82.112471  0.031388559  0.033166681            2 
  219000    1.1645577   -7.2588421    82.604016  0.031432274  0.033146783            1 
  220000    1.1971754   -7.2540352    82.829306  0.031374737  0.033126587            3 
  221000    1.1612935   -7.2635463    83.198263  0.031371894  0.033108309            1 
  222000    1.1432473   -7.2599378    83.475301  0.031334572  0.033088932       -1e+20 
  223000      1.15072   -7.3093458    83.875699  0.031343684  0.033070525            2 
  224000    1.1873944   -7.2367598    84.276892   0.03135301  0.033050654            1 
  225000    1.1484775   -7.3124986    84.212561  0.031189837  0.033030566            2 
  226000    1.1689894   -7.2619177    85.002122  0.031342965  0.033011086            2 
  227000    1.1457437   -7.2579859    85.144277  0.031257077  0.032992682            1 
  228000    1.1875658   -7.2890806    85.209946  0.031143986  0.032972621            1 
  229000    1.1725839   -7.2853712    85.919636  0.031266243  0.032950874            1 
  230000    1.1128519   -7.2837257    86.155435  0.031215737  0.032930339            3 
  231000     1.162472   -7.2876414    86.313266  0.031137542  0.032910307            1 
  232000    1.1529914   -7.2455743    86.993207   0.03124756  0.032890032            2 
  233000    1.1573272   -7.3247146    87.122554  0.031159712  0.032870408            3 
  234000    1.1499612   -7.2592587    87.637448  0.031209917  0.032851493            2 
  235000    1.1860306   -7.2871418    87.963857  0.031192857   0.03283395            1 
  236000    1.1779185   -7.2932548    88.005786   0.03107549  0.032813966            1 
  237000     1.170494   -7.2405587    88.619472  0.031160152   0.03279408            2 
  238000    1.1573533   -7.2537323    88.846492  0.031108716  0.032774779            2 
  239000    1.1705957    -7.285971    89.000721  0.031032329  0.032753074            2 
  240000    1.1715405   -7.2576702    89.029396  0.030912985  0.032730494            2 
  241000     1.153213   -7.2536025    89.634112  0.030993815  0.032707905            1 
  242000    1.1510762   -7.2684458    89.871564  0.030947508  0.032685213            1 
  243000    1.1518497   -7.2586593    90.540544  0.031049569  0.032664476            1 
  244000    1.1514731   -7.2696824    90.771166  0.031001081  0.032643629            2 
  245000    1.1566202   -7.2609401    91.151091  0.031003772  0.032623553            1 
  246000    1.1692916   -7.2727816    91.353786  0.030946404  0.032602795            2 
  247000     1.177779   -7.2826011    91.982407  0.031033201  0.032582014            1 
  248000    1.1587197   -7.3115191    91.927322  0.030889557   0.03256069            1 
  249000    1.1484471   -7.3215837     92.17872  0.030849639  0.032538682            1 
  250000    1.1396567   -7.2846945    93.087095  0.031029032  0.032516379       -1e+20 
  251000    1.1476101   -7.2969931    93.214244  0.030947624  0.032494921            1 
  252000    1.1805733    -7.211331    93.813867  0.031023104  0.032475205            1 
  253000    1.1754899   -7.3462793    93.818535  0.030902021  0.032456265            4 
  254000    1.1260164   -7.3034331    94.366602  0.030960171  0.032437175            1 
  255000    1.1502219   -7.3014559    94.800188  0.030980454   0.03241878            3 
  256000    1.1444995   -7.2766892    95.113952  0.030961573  0.032399626            2 
  257000    1.1560733   -7.2895063    95.018493  0.030810147  0.032380663            1 
  258000    1.1652978   -7.2463594     95.97195  0.030998692  0.032361763            2 
  259000    1.1480085   -7.3225373    95.571322  0.030750104  0.032342468            3 
  260000    1.1451647    -7.300968    96.430541  0.030907225  0.032324749            2 
  261000    1.1658113   -7.2686286     96.80714  0.030909049  0.032306513            2 
  262000    1.1436767   -7.3329373    96.922601  0.030827799  0.032288409            1 
  263000    1.1353401   -7.3254273    97.462138  0.030881539  0.032270247            5 
  264000    1.1554889    -7.298438    97.728619   0.03084868  0.032251793            1 
  265000    1.1417734    -7.329135    97.591388  0.030689116  0.032232839            1 
  266000    1.1574578   -7.3071988    98.454825  0.030844243  0.032213247            1 
  267000    1.1611774   -7.2921053    98.474868  0.030734977  0.032192334            2 
  268000    1.1443506   -7.3128508    98.598701    0.0306588  0.032169791            1 
  269000    1.1651336   -7.2431723    99.001665  0.030669661  0.032148822            1 
  270000    1.1517375   -7.2869957    99.677495  0.030764659  0.032128531            2 
  271000    1.1369945   -7.2953158    99.883892  0.030714604  0.032109516            2 
  272000     1.140009   -7.3201863    99.920103  0.030612777  0.032090146            1 
  273000     1.133692   -7.3252777    100.43059  0.030656468  0.032069987            2 
  274000    1.1501036   -7.2924401    100.88639  0.030683208  0.032050252            1 
  275000    1.1452914   -7.3437727    100.80375   0.03054659   0.03203086            1 
  276000    1.1513641   -7.3377829    101.44276  0.030628852  0.032009993            1 
  277000    1.1562036   -7.3157065    101.53137  0.030544938  0.031990058            1 
  278000    1.1300499   -7.3146035    102.23448  0.030645826  0.031971492            2 
  279000    1.1543638   -7.3252289     102.4773  0.030608512  0.031952142            1 
  280000    1.1410565   -7.3058733    103.00447  0.030656092  0.031932541            1 
  281000    1.1487018   -7.3144761    103.22599  0.030612689  0.031914048            2 
  282000    1.1429639   -7.2918205    103.80925  0.030676493  0.031896795            2 
  283000    1.1474986   -7.3096164    103.93039  0.030603767  0.031878869            1 
  284000    1.1617799   -7.2796048    104.40695  0.030635842  0.031860702            2 
  285000    1.1538084   -7.3215739    104.55062  0.030570358  0.031842247            2 
  286000    1.1332347   -7.3263941    104.63031  0.030486688  0.031821983            2 
  287000    1.1146794   -7.3350083    104.76289  0.030418957  0.031800921            1 
  288000    1.1416679   -7.3098759    105.03594  0.030392345  0.031781176            4 
  289000    1.1275843   -7.3545246    105.48876  0.030417752  0.031760254            2 
  290000    1.1139774   -7.3150188    105.93718  0.030441718  0.031740053            2 
  291000    1.1472785   -7.2664089    106.55313  0.030513497   0.03172042            3 
  292000    1.1519741   -7.3071996    106.36161  0.030354342  0.031700256            1 
  293000    1.1524194   -7.2771439    106.92555  0.030411135   0.03167966            1 
  294000    1.1702269   -7.3023765    106.89983  0.030300404  0.031659295            2 
  295000    1.1376753    -7.305054    107.80029  0.030452059  0.031640319            2 
  296000    1.1230665   -7.2802157     108.3064  0.030491665  0.031621836            2 
  297000    1.1119057    -7.289676    108.31973  0.030392741  0.031603474            2 
  298000    1.1319058   -7.3148542    108.47158  0.030333217  0.031584292            1 
  299000    1.1522263   -7.3560106    108.58232   0.03026263  0.031565114            2 
  300000    1.1367646   -7.2972062    109.44635  0.030401763  0.031545962            1 
  301000    1.1372007   -7.3182833    109.30194  0.030260782  0.031525894            2 
  302000    1.1407255   -7.3534831    109.70645  0.030272198  0.031505989            2 
  303000    1.1411224   -7.3467037    109.65329  0.030157671  0.031485658            2 
  304000    1.1400617   -7.3510511    109.93178  0.030134808  0.031464539            1 
  305000    1.1452384   -7.3531674    110.14694  0.030094791  0.031442557            2 
  306000    1.1461007   -7.3160555    110.64693  0.030132605  0.031421415            2 
  307000    1.1277027   -7.3444592    110.45322  0.029981873  0.031398738            2 
  308000    1.1525635   -7.3516829    110.67876  0.029945552  0.031376023            1 
  309000    1.1320663   -7.3569953    111.29195  0.030014011  0.031353637            3 
  310000    1.1355333   -7.3475824    111.67013  0.030018852  0.031331018            1 
  311000    1.1232977    -7.359492    111.91536  0.029988037  0.031309036            1 
  312000    1.1329777   -7.3674982    111.78937  0.029858271  0.031286975            2 
  313000    1.1281438   -7.3043414    112.99285  0.030083294  0.031265137            2 
  314000    1.1136152   -7.3808465    113.25129  0.030056076  0.031243945            2 
  315000    1.1272039   -7.3753328     113.1711  0.029939444  0.031222294            1 
  316000    1.1595118   -7.3365875    113.24622  0.029864509  0.031200606            1 
  317000    1.1096533   -7.3577594    114.46346   0.03009029   0.03117924            2 
  318000    1.1097007   -7.3376328    114.30548  0.029954266  0.031158975            2 
  319000    1.1184242   -7.3454433     114.2581  0.029847989    0.0311375            2 
  320000    1.1357348   -7.3878259    114.85663   0.02991058  0.031115448            5 
  321000    1.1115435   -7.3487634    115.18075  0.029901545  0.031094518            2 
  322000     1.103122   -7.3623141    115.65834  0.029932282  0.031074157            1 
  323000    1.1391675    -7.370481    115.77765  0.029870394  0.031053295            1 
  324000    1.1054987   -7.3495294    115.67545  0.029751917  0.031031228            2 
  325000    1.1127899    -7.374173    115.86673  0.029709417  0.031009141            2 
  326000    1.1377209     -7.36199    116.73706  0.029840761  0.030986547            2 
  327000    1.1186716   -7.3816698    116.56462  0.029705562  0.030964483            1 
  328000    1.1390837   -7.3644835    117.03279   0.02973394  0.030942312            2 
  329000    1.1087976   -7.3496018    117.06294  0.029651199  0.030920795            5 
  330000    1.1067608    -7.328547    117.68642  0.029718792  0.030897959            2 
  331000     1.137306   -7.3810938    117.93833  0.029692431  0.030876139            1 
  332000    1.1284071   -7.3561187    118.27054   0.02968638  0.030855116            2 
  333000    1.1181806   -7.3935482    117.96169  0.029519942  0.030833786            3 
  334000    1.1134605   -7.3799574    118.40515  0.029542203  0.030811678            3 
  335000    1.1230808   -7.3483483    119.14018  0.029636861   0.03078972            2 
  336000    1.1274169   -7.3805868    119.17214  0.029556583  0.030768756            3 
  337000    1.1341501   -7.3682341    119.59351  0.029573074  0.030746902            2 
  338000    1.1259605   -7.3930117    120.02327  0.029591536  0.030726097            1 
  339000    1.1177831   -7.3784579    120.29393  0.029570778  0.030705524            2 
  340000    1.1363198   -7.3494366    120.92599  0.029638723  0.030684651            1 
  341000    1.1094562    -7.339867    121.11899   0.02959897    0.0306649            1 
  342000    1.1191706   -7.3842677    121.26468  0.029547923  0.030643947            3 
  343000    1.1100133   -7.4067764    121.34328  0.029480874    0.0306235            2 
  344000    1.1195205   -7.3806123    121.64878   0.02946918  0.030603053            1 
  345000    1.1146945    -7.353601    122.30352  0.029541912  0.030582906            1 
  346000    1.1007689   -7.3855252    122.48617  0.029500522  0.030562711            5 
  347000    1.1599437    -7.376374    122.79405  0.029489446  0.030543016            1 
  348000    1.1304659   -7.3699641    123.75661  0.029635203  0.030524881            1 
  349000    1.1163682   -7.3829617    123.68882  0.029534103  0.030506798            1 
  350000    1.1112148   -7.3987241    123.60455  0.029429656  0.030486866            3 
  351000     1.126851   -7.3439373    124.16521  0.029478919  0.030466811            1 
  352000    1.1256393   -7.3362392    124.15363  0.029392431  0.030446712            3 
  353000    1.1012926   -7.3198617    124.60672  0.029416128  0.030425319            2 
  354000    1.1065757   -7.3206167    125.06392  0.029440659  0.030405024            1 
  355000     1.109744   -7.3669534    125.05074  0.029354634  0.030384639            1 
  356000    1.1116027   -7.4033483    124.98563  0.029256936   0.03036432            1 
  357000    1.0963623   -7.3974559    125.39479  0.029270491  0.030343159            4 
  358000    1.1341592   -7.3634987    125.89091  0.029304216  0.030322678            1 
  359000    1.1223035   -7.3940036    126.67999  0.029405755  0.030303167            1 
  360000    1.0962579   -7.3937233    127.10894  0.029423366  0.030285255            2 
  361000      1.10066   -7.3537666    128.00221  0.029548063  0.030268081            1 
  362000    1.1029419   -7.3835937    128.20058  0.029512104  0.030251111            1 
  363000    1.1083199    -7.401362    128.54858  0.029510694  0.030235124            1 
  364000    1.1103697   -7.3737329    128.39956  0.029395503   0.03021871            2 
  365000    1.1097904   -7.3919974    128.92111  0.029434043  0.030202079            3 
  366000    1.1406721   -7.4144373    129.09495  0.029393204  0.030186149            1 
  367000    1.1084372   -7.3539107    129.73614  0.029458706  0.030170288            2 
  368000     1.111899   -7.4095088    129.52146   0.02933004  0.030153965            1 
  369000    1.1212154   -7.3646702     130.5873   0.02949126  0.030137339            2 
  370000    1.1002656   -7.3840079    130.53846  0.029400554  0.030120996            2 
  371000    1.1124935   -7.3626669    130.46896  0.029305696  0.030104456            1 
  372000    1.1130064   -7.3999739    130.76577  0.029293406  0.030087951            1 
  373000    1.1095562   -7.3628526    131.32777  0.029340431  0.030071233            1 
  374000    1.1045541   -7.4128275    131.45252  0.029289778  0.030055192            1 
  375000    1.1066724   -7.3968779    131.68027  0.029262282  0.030039569            3 
  376000    1.0895411   -7.4074661    132.34014  0.029330705  0.030023838            1 
  377000    1.1231268   -7.4477238    132.19437  0.029220683   0.03000733            2 
  378000    1.1208442   -7.3922971    132.40562  0.029189951  0.029989406            2 
  379000    1.0847383   -7.4236768    132.51958   0.02913799  0.029972568            2 
  380000    1.0963389   -7.4343013    132.82029  0.029127257  0.029955444            1 
  381000    1.1032059    -7.405627    133.44012  0.029186379  0.029938299            3 
  382000    1.0985665   -7.4473159    133.23564  0.029065366  0.029921638            1 
  383000    1.1187968   -7.4042686    133.48462   0.02904365   0.02990437            3 
  384000    1.0842077    -7.399916    133.82496  0.029041874  0.029887443            3 
  385000     1.105518   -7.3860562     134.3306  0.029075887  0.029869734            2 
  386000    1.0958357   -7.4099972    134.56933    0.0290521    0.0298521            1 
  387000    1.0885272   -7.4217795    134.90996   0.02905038  0.029834543            3 
  388000    1.1005562   -7.4104411    134.73464  0.028937851  0.029816541            1 
  389000    1.1026399   -7.4369685    134.81392  0.028880447  0.029797403            3 
  390000    1.1040131   -7.4441749    134.75328  0.028793437    0.0297786            4 
  391000    1.1028041   -7.4425578    135.54405  0.028888332  0.029759529            3 
  392000    1.0916206   -7.3615025    136.28237  0.028971593  0.029741783            1 
  393000    1.1221854   -7.4179061    136.09148  0.028857397  0.029723872            4 
  394000    1.1140975   -7.4441285    136.77947  0.028929668  0.029706502            1 
  395000    1.0932221   -7.4082988     137.1269  0.028929727  0.029690082            1 
  396000    1.0979657   -7.3974825    138.27528  0.029098334  0.029674077            1 
  397000    1.0990469   -7.4081826    138.12738  0.028993992  0.029658207            1 
  398000    1.0840217   -7.4070612    138.13763  0.028923289  0.029642146            2 
  399000    1.0925728   -7.4234872    138.36166  0.028897589  0.029625505            2 
  400000    1.0762514   -7.4163681    138.75963  0.028908257  0.029609786            2 
  401000    1.1088685   -7.4495169    139.26441  0.028941066  0.029593141            1 
  402000    1.1241837   -7.4024663    139.50854   0.02891968  0.029576935            2 
  403000    1.1007805   -7.4705973    139.34008  0.028813086  0.029560287            1 
  404000    1.0827321   -7.4496446    139.98303  0.028874387   0.02954402            2 
  405000    1.0983574   -7.4597636    139.58543  0.028721282  0.029527365            2 
  406000    1.1018477   -7.4728732    140.15111  0.028766648  0.029510421            2 
  407000     1.099242   -7.4192374    140.44604  0.028756354  0.029493683            1 
  408000     1.121256   -7.4866494    140.37156  0.028670662  0.029476073            1 
  409000    1.0949446   -7.4050116    140.62902   0.02865302  0.029456828            2 
  410000    1.1035017   -7.4655229    140.12308  0.028480301  0.029437326            3 
  411000    1.0969919   -7.4674836    140.29934  0.028446743  0.029417126            1 
  412000    1.0920202   -7.4618418    140.87502  0.028494139  0.029396114            1 
  413000    1.0900284   -7.4174198     141.5107  0.028553411  0.029375985            1 
  414000     1.065905   -7.4177538    141.31306  0.028444658  0.029356963            1 
  415000    1.1185952    -7.502343    141.32977  0.028379471   0.02933741            1 
  416000    1.0736964    -7.451533    142.01876   0.02844927  0.029317369            2 
  417000    1.0953143   -7.4700996    141.94834  0.028366974  0.029297329            1 
  418000    1.0781929   -7.4180451    142.57925   0.02842489  0.029277314            2 
  419000    1.0924424   -7.4198874    142.91322  0.028423472  0.029257492            3 
  420000    1.1050325   -7.4504884    143.42929  0.028458193  0.029238527            2 
  421000    1.0636635   -7.4442181    143.65291  0.028434859   0.02921956            1 
  422000    1.0898433   -7.4701222    143.95611  0.028427351  0.029200683            2 
  423000    1.0863276   -7.4725903    143.91018    0.0283511  0.029182016            3 
  424000    1.0750868    -7.454108    144.24892   0.02835081   0.02916305            1 
  425000    1.0755057   -7.4662808    144.49754  0.028332851  0.029143542            1 
  426000    1.0990347   -7.4703957    144.39349  0.028245988   0.02912384            2 
  427000    1.0821785   -7.4186958    145.15544   0.02832854  0.029103907            1 
  428000    1.0687506   -7.4427936    145.27315   0.02828527  0.029084229            3 
  429000    1.1043194   -7.4361647    145.32844  0.028230078  0.029064997            3 
  430000    1.0794113   -7.4661439    145.85317  0.028266118  0.029045055            1 
  431000    1.0705505   -7.4496296    145.57726   0.02814719  0.029025263            2 
  432000    1.0865414    -7.489631    145.42473  0.028052611  0.029004131            1 
  433000    1.0644631   -7.4590793     146.0597  0.028110027  0.028983329            3 
  434000    1.0477716   -7.4655065    146.01827  0.028037302  0.028961868            3 
  435000    1.0922054   -7.4878299    146.06823  0.027982419  0.028940093            3 
  436000    1.0837655   -7.4706024    146.18869  0.027941264  0.028919049            2 
  437000    1.0813107   -7.4557527    146.79877  0.027993663  0.028897466            1 
  438000    1.0835472   -7.4302043    147.30931  0.028026886  0.028876213            2 
  439000    1.0644605   -7.4246492    147.50969   0.02800108  0.028854983            2 
  440000    1.0629975   -7.4539863    147.46586  0.027929141  0.028833977            2 
  441000    1.0860841   -7.4584869    147.19936  0.027815449  0.028812581            3 
  442000    1.0889483   -7.4445241    147.94538  0.027893171  0.028791478            3 
  443000    1.0837934   -7.4405163    148.01633  0.027843553  0.028769398            3 
  444000    1.0627584    -7.481793    147.79177  0.027738696  0.028747639            2 
  445000    1.0506081   -7.5014336    147.50111   0.02762193  0.028725321            1 
  446000    1.0740861   -7.4305108    148.09189  0.027670383   0.02870262            1 
  447000    1.1091254   -7.5218004    148.38819  0.027663719   0.02868002            1 
  448000    1.0656655   -7.4742961    149.13485  0.027740857  0.028657479            2 
  449000    1.0723647   -7.4656687    149.25399  0.027701186  0.028634942            2 
  450000    1.1098252   -7.4714588    149.01731  0.027595798  0.028611841            3 
  451000    1.0706491   -7.4914862     149.3073  0.027588193  0.028589075            3 
  452000    1.0853937   -7.4924659    149.80872  0.027619602  0.028566203            1 
  453000    1.0849438   -7.4703506    149.64822  0.027529106  0.028543432            1 
  454000    1.0813692    -7.490104    150.14106  0.027558932  0.028520274            2 
  455000    1.0467149   -7.4637012    150.51289  0.027566463  0.028497178            2 
  456000    1.0585342   -7.5105908    150.69802  0.027539844    0.0284749            1 
  457000    1.0831784   -7.5143715    150.73231  0.027485833  0.028452602            6 
  458000    1.0626869   -7.4626347    151.45387  0.027557108  0.028429923            1 
  459000     1.082837   -7.4637348    151.58216  0.027520364  0.028407607            4 
  460000    1.0726451   -7.4595504    151.08776  0.027370972  0.028385261            1 
  461000    1.0565303   -7.4766257    151.85928  0.027451063  0.028362545            1 
  462000    1.1147746   -7.4796569    151.75459  0.027372761   0.02834012            2 
  463000    1.0732067   -7.4844426    152.08395  0.027372921  0.028318032            2 
  464000    1.0528765    -7.457028    152.71536  0.027427328  0.028295558            2 
  465000    1.0391739   -7.4807785    152.68436  0.027362789  0.028273353            1 
  466000    1.0731562   -7.4946651    153.16887  0.027390714   0.02825077            1 
  467000    1.0616552   -7.5044432    153.04264  0.027309536  0.028228324            1 
  468000    1.0851075   -7.4963177    153.31681  0.027300002  0.028205929            3 
  469000    1.0784078   -7.5019736    153.43004  0.027261912  0.028183866            3 
  470000    1.0577527   -7.4939043    154.13303  0.027328552  0.028162147            3 
  471000     1.087089     -7.46559     154.7002  0.027370878  0.028140663            2 
  472000    1.0571728   -7.4779355    153.96335  0.027182796  0.028118538            1 
  473000    1.0686864   -7.5260741    154.04865  0.027140355  0.028096646            2 
  474000    1.0427973   -7.5138495    155.15711  0.027277973  0.028074925            1 
  475000     1.079815   -7.4284564    155.59597  0.027297538  0.028053533            3 
  476000    1.0643662   -7.5039632    155.48019  0.027219922  0.028032151            2 
  477000    1.0493751   -7.4938814     155.5254  0.027170755  0.028010847            2 
  478000     1.048619   -7.5054636     155.7407  0.027151447  0.027989526            3 
  479000    1.0424304   -7.5001694    156.12123  0.027160966  0.027967977            2 
  480000    1.0558825   -7.5236729    155.86513  0.027059919  0.027946197            2 
  481000    1.0513168   -7.4641415     156.6796  0.027144769  0.027924538            1 
  482000    1.0416826   -7.4869213    157.00895  0.027145392  0.027903629            1 
  483000     1.049553   -7.4901966    157.07888  0.027101255  0.027882864            2 
  484000    1.0451378   -7.5088279    157.13716  0.027055296  0.027861816            2 
  485000    1.0400214   -7.5265874    157.44354  0.027052155  0.027840423            2 
  486000    1.0413457   -7.4733961    158.17034  0.027121114  0.027819335            2 
  487000    1.0829305   -7.5385183    158.19163  0.027069068  0.027798694            2 
  488000     1.064431   -7.5455079    157.98594  0.026978473  0.027777676            3 
  489000    1.0606976   -7.4951822    158.97269   0.02709146  0.027757183            3 
  490000    1.0553297   -7.5015027    159.37713  0.027104954  0.027737082            3 
  491000    1.0205939   -7.4357717    160.03347  0.027161145  0.027717534            2 
  492000    1.0581039   -7.5101231    159.84008  0.027073184   0.02769794            1 
  493000     1.065081   -7.5035256    160.13092  0.027067431  0.027678233            1 
  494000    1.0685165   -7.5015397    160.56601  0.027086033  0.027658593            2 
  495000    1.0591569   -7.5115505    160.09964  0.026952801  0.027638463            2 
  496000    1.0620789    -7.545917     160.2772  0.026928293  0.027617987            3 
  497000    1.0590713   -7.5362012    160.14003  0.026851112  0.027597843            2 
  498000    1.0356375   -7.5548058    161.10912  0.026959357  0.027577756            1 
  499000    1.0540104    -7.548459    160.65578  0.026829623  0.027557657            2 
  500000    1.0502764    -7.508429    161.35757  0.026892929  0.027537273            2 
  501000    1.0475426   -7.5161521    161.36675  0.026840777  0.027517213            2 
  502000    1.0594743   -7.5338062    161.56805  0.026820725  0.027496983            1 
  503000    1.0620545   -7.5113737     161.9935   0.02683789  0.027476999            2 
  504000    1.0222976   -7.5492181    162.14421  0.026809558  0.027457293            2 
  505000     1.048708   -7.5223191    162.53097  0.026820292  0.027437419            1 
  506000    1.0390157   -7.5453387    162.63586  0.026784563  0.027417617            2 
  507000    1.0646721   -7.5327596    162.70742  0.026743494  0.027397982            1 
  508000    1.0486034   -7.5642116    162.96567  0.026733214  0.027378333            2 
  509000    1.0651548   -7.4970944    163.35397  0.026744265  0.027358926            2 
  510000     1.047851   -7.5377546    163.29621  0.026682387   0.02733934            1 
  511000    1.0571563   -7.5425132    163.61556   0.02668225  0.027319209            1 
  512000    1.0597613   -7.6023102    163.05342  0.026538643   0.02729866            3 
  513000    1.0470234   -7.5777652    163.59669  0.026575161  0.027278233            2 
  514000    1.0455848   -7.5394269    163.59317  0.026522887  0.027257664            4 
  515000    1.0589179   -7.5386813    164.30025  0.026585801  0.027237393            2 
  516000    1.0596932   -7.5322644    164.71193  0.026600763  0.027217192            2 
  517000     1.040629    -7.521837    164.54108  0.026521773  0.027197026            7 
  518000     1.065975   -7.5843048    164.73321  0.026501482  0.027176875            2 
  519000    1.0431328   -7.5411609    165.01827  0.026496191  0.027156511            2 
  520000    1.0371977   -7.5439964    165.58733  0.026536432  0.027136734            1 
  521000    1.0347923   -7.5217176    166.33987  0.026605866  0.027117247            1 
  522000    1.0256548   -7.5191119    166.67518  0.026608426  0.027098078            1 
  523000     1.050573   -7.5392883     166.3285  0.026502311  0.027078912            1 
  524000    1.0300518   -7.5381715    166.43726   0.02646903  0.027060184            3 
  525000    1.0468223   -7.5766492    166.69834  0.026460053  0.027040581            1 
  526000    1.0377216    -7.517968    167.20271  0.026489656  0.027021096            2 
  527000    1.0487996   -7.5012549    167.68337  0.026515396  0.027001442            1 
  528000    1.0308686    -7.537517    167.13045  0.026377912  0.026981626            2 
  529000    1.0471758   -7.5280626    167.25341  0.026347419  0.026961588            2 
  530000    1.0380438     -7.56894    166.96761  0.026252769   0.02694131            1 
  531000    1.0571846   -7.5253188    167.98547  0.026363067  0.026921269            3 
  532000    1.0383285   -7.5489326    167.73881  0.026274876   0.02690149            3 
  533000    1.0173068    -7.614976    167.96773  0.026261371   0.02688134            2 
  534000    1.0481845   -7.5073809    168.65996  0.026320219  0.026861513            1 
  535000    1.0693013    -7.518782    168.81732  0.026295533  0.026842428            2 
  536000     1.037949    -7.538281    169.15596  0.026299122  0.026822868            5 
  537000    1.0592795    -7.563333    168.90832   0.02621172   0.02680327            3 
  538000    1.0353571   -7.4980583    170.67029  0.026435918  0.026783853            1 
  539000    1.0625127    -7.570728    169.44091  0.026196801  0.026764666            2 
  540000    1.0240029    -7.518566    170.20911  0.026266838  0.026745308            1 
  541000    1.0463266   -7.5266753    170.17019   0.02621229  0.026725938            3 
  542000    1.0437057   -7.5453471    170.58726  0.026228053   0.02670675            2 
  543000     1.040637   -7.5640871    170.02823  0.026093958  0.026687533            3 
  544000    1.0553712   -7.5733552    170.59053  0.026132127  0.026667696            2 
  545000    1.0322653   -7.5627089    170.84043   0.02612239  0.026647992            2 
  546000    1.0679152   -7.5248581     171.2143  0.026131608  0.026628574            2 
  547000    1.0143018   -7.5768089    171.47881  0.026124133   0.02660935            2 
  548000    1.0600519   -7.5767424    171.17429  0.026030153  0.026589847            1 
  549000     1.015897   -7.6039389    171.22358  0.025990222    0.0265705            1 
  550000    1.0152633   -7.6310181    171.81957  0.026033268  0.026550997            1 
  551000    1.0344067   -7.5553989    171.66588  0.025962776  0.026531867            1 
  552000    1.0185115   -7.5822186    172.04781  0.025973401  0.026512382            2 
  553000    1.0129152   -7.5696444    172.61046   0.02601122  0.026493128            1 
  554000    1.0442475    -7.594233    172.24828  0.025909789  0.026473691            1 
  555000    1.0500796   -7.5493249     173.0594  0.025984895  0.026454344            1 
  556000    1.0267448   -7.5798006    173.19577  0.025958599  0.026435215            1 
  557000    1.0344345   -7.5628557    173.11255  0.025899544  0.026416075            2 
  558000    1.0669998   -7.6230986    173.26763   0.02587629  0.026396563            1 
  559000    1.0338671   -7.5755187     173.6373  0.025885107  0.026377224            2 
  560000    1.0457177   -7.5755479    173.69037  0.025846782   0.02635764            1 
  561000    1.0323399   -7.5747867    173.99743   0.02584632  0.026338749            2 
  562000    1.0538041   -7.5571976    174.15871  0.025824245  0.026319736            1 
  563000    1.0276517   -7.5402109    174.39217  0.025812932  0.026301075            2 
  564000    1.0128132   -7.6106414    174.40899   0.02576965  0.026281943            3 
  565000    1.0264526   -7.6161386    174.41525  0.025724963  0.026262846            1 
  566000    1.0424922   -7.6081953    175.12651  0.025784233  0.026243693            1 
  567000    1.0294621   -7.6281715    174.71667  0.025678522  0.026224672            1 
  568000    1.0252039   -7.5888392     174.9834  0.025672448  0.026205397            1 
  569000    1.0230778   -7.5941744    174.97034  0.025625416  0.026186024            2 
  570000    1.0392927    -7.626343    174.94769  0.025577147  0.026166676            1 
  571000    1.0179359   -7.5610641    176.20261    0.0257155  0.026147215            1 
  572000    1.0455342   -7.5988956    175.91919  0.025629253  0.026127582            5 
  573000    1.0320155   -7.6045996    176.55232  0.025676602  0.026108646            1 
  574000    1.0367557   -7.6275648    176.32012  0.025598159  0.026090009            2 
  575000    1.0400388   -7.5889392    176.90953  0.025639063  0.026071283            1 
  576000    1.0196169   -7.5928297    177.25677  0.025644787  0.026052718            3 
  577000    1.0050083   -7.5646572    177.91676  0.025695661   0.02603407            2 
  578000    1.0113361   -7.5675792    177.80777  0.025635492  0.026015587            3 
  579000    1.0285257   -7.5889575    177.86888  0.025600012  0.025996857            1 
  580000    1.0306006    -7.623649    177.45315  0.025496143  0.025977959            1 
  581000    1.0077552   -7.6061252    178.51464   0.02560451  0.025959042            2 
  582000    1.0175806   -7.6022707    178.10934  0.025502482   0.02593986            1 
  583000     1.010284    -7.643788    177.90355  0.025429324  0.025920858            1 
  584000    1.0324054   -7.6316966     178.4612  0.025465353  0.025901846            4 
  585000    1.0111302   -7.6119926    179.23923  0.025532654  0.025882881            3 
  586000    1.0025019   -7.5726177    179.16149  0.025478027   0.02586425            1 
  587000    1.0102359   -7.5898664    179.02157   0.02541476  0.025845692            1 
  588000    1.0144119    -7.595297    179.69918  0.025467571  0.025827141            2 
  589000    1.0123337    -7.656808     179.0383  0.025330829  0.025808328            1 
  590000    1.0022343   -7.6096081    179.94713  0.025416261  0.025790058            5 
  591000    1.0355323   -7.6331712     179.8084  0.025353695   0.02577146            1 
  592000    1.0098713   -7.6423118    180.59031  0.025420933  0.025753015            1 
  593000    1.0192202   -7.6289772    180.30096  0.025337403  0.025734489            1 
  594000    1.0348667   -7.6429052    180.40582  0.025309459  0.025715997            1 
  595000    1.0203075   -7.6165398    180.54669  0.025286651  0.025697382            2 
  596000     1.015278   -7.6713591    180.78199  0.025277124  0.025678597            2 
  597000    1.0204605    -7.653138    181.25242   0.02530045  0.025660203            2 
  598000   0.99995679   -7.6015041    181.77398  0.025330822  0.025641674            3 
  599000    1.0286938   -7.6098213    181.77041  0.025288037  0.025623454            1 
  600000    1.0162148    -7.606439    181.59817  0.025221967  0.025605141            1 
  601000     1.024359   -7.5950077    182.65884  0.025327072  0.025587137            2 
  602000   0.99997053   -7.5964624    182.52295  0.025266189  0.025569274            1 
  603000   0.99483581   -7.6328355    182.63682  0.025240024   0.02555146            2 
  604000   0.99645568    -7.662963    182.72266   0.02521008  0.025533614            2 
  605000     1.015879   -7.6383312    183.08454  0.025218256  0.025515578            3 
  606000    1.0006226   -7.6162562    183.40455  0.025220648  0.025497592            2 
  607000    1.0381857   -7.6486149    183.44871   0.02518516  0.025479752            1 
  608000   0.98354981   -7.6377125    183.98134   0.02521674  0.025462214            2 
  609000    1.0348535   -7.6052876     184.4836  0.025244061  0.025445158            1 
  610000    1.0052678   -7.6389498    183.77086  0.025105309  0.025427919            1 
  611000    1.0289324   -7.6576213    184.09979  0.025109082  0.025410794            2 
  612000   0.99786695   -7.6541674    184.67125  0.025145867   0.02539332            2 
  613000   0.99761237   -7.6991102    184.42071  0.025070787  0.025376042            1 
  614000    1.0074613   -7.6729206    184.86686  0.025090507  0.025358804            3 
  615000   0.99964733    -7.701896    184.51394  0.025001889  0.025341498            3 
  616000    1.0169891   -7.6398143    185.71465  0.025123735  0.025324128            3 
  617000    1.0164584   -7.6540609    185.23492  0.025018223  0.025306625            2 
  618000    1.0017998   -7.6124578    185.98999  0.025079556  0.025289378            2 
  619000     1.013334   -7.6673101    184.90544  0.024893031  0.025271638            2 
  620000    1.0099258   -7.6750786    185.87433  0.024983108  0.025254105            2 
  621000    1.0204492   -7.6267004    186.45471   0.02502076  0.025236486            2 
  622000    1.0253794    -7.649102    186.28641  0.024957987  0.025218979            2 
  623000   0.99149729   -7.6607212    186.27194   0.02491599  0.025201317            3 
  624000     1.033496   -7.6495053    186.20899  0.024867654  0.025183572            1 
  625000   0.99166172   -7.6227122     187.0205  0.024936067   0.02516573            1 
  626000    1.0225763   -7.6395733    186.29859  0.024800132  0.025147987            2 
  627000   0.99539078   -7.6747578    186.57946  0.024797907  0.025130443            1 
  628000    1.0034625   -7.6296591    187.40737  0.024868282  0.025113235            3 
  629000    1.0040484   -7.6465979    187.24986  0.024807878  0.025096007            3 
  630000   0.98652538    -7.651407    187.24223   0.02476749  0.025078226            2 
  631000    1.0256342   -7.6447519    187.41563  0.024751139  0.025060618            3 
  632000    1.0061174   -7.6807127    187.19354  0.024682692  0.025043005            2 
  633000    1.0023044   -7.6801368    187.69431  0.024709624  0.025025101            2 
  634000   0.99922074   -7.6445596    187.75547   0.02467869  0.025007324            3 
  635000    1.0087748   -7.6624064    188.45389  0.024731482  0.024989533            3 
  636000   0.98081073   -7.6544728    188.21796  0.024661682  0.024971978            1 
  637000    1.0101038   -7.6579366     188.3758  0.024643616  0.024954252            4 
  638000   0.99942696   -7.6566823     188.6997  0.024647296  0.024936634            6 
  639000    1.0039679   -7.6751348    188.73707  0.024613598  0.024918918            2 
  640000    1.0305791   -7.6674498    189.43761  0.024666356  0.024901469            2 
  641000     1.000938   -7.6897029    189.27156  0.024606288  0.024883925            1 
  642000    1.0154668   -7.7120754    189.67382  0.024620174  0.024866221            3 
  643000   0.98328767   -7.7224209    189.23441  0.024524937  0.024848619            1 
  644000   0.97688256   -7.6855001    189.78268    0.0245578  0.024830996            5 
  645000   0.96761111   -7.6755199    189.90484  0.024535509  0.024813402            3 
  646000    1.0018582   -7.6796249    190.06142  0.024517728  0.024795995            1 
  647000   0.99869671   -7.6813481    190.65837   0.02455672  0.024778488            2 
  648000   0.99120371   -7.6553528     190.5955  0.024510738  0.024761086            1 
  649000    1.0065508   -7.6731061    190.61467  0.024475432  0.024743751            3 
  650000   0.99398356   -7.6673021    190.38309  0.024408088  0.024726157            2 
  651000   0.97741536   -7.6729929    191.17172  0.024471546  0.024708287            3 
  652000     1.002032   -7.6585158    191.05363   0.02441892  0.024690297            3 
  653000   0.99905418    -7.668259    191.45865  0.024433212  0.024672624            2 
  654000   0.99805905   -7.6477145    191.30723  0.024376558  0.024655171            1 
  655000    1.0014493   -7.6766784     191.5991  0.024376475  0.024637311            3 
  656000   0.97916927   -7.6473785    191.75934  0.024359672  0.024619794            1 
  657000    1.0072238   -7.6620709    192.62492  0.024432385  0.024602412            2 
  658000   0.97981372   -7.7006314    192.25831  0.024348824  0.024584717            3 
  659000    0.9977301   -7.6801841    192.24256  0.024309883  0.024567158            4 
  660000   0.99634425   -7.6771878    192.42413  0.024295976  0.024549391            2 
  661000   0.99488018   -7.7247106    192.38384   0.02425414  0.024531949            1 
  662000   0.97044467   -7.7083618    192.67771  0.024254496  0.024514381            5 
  663000   0.97826255   -7.6770235    193.10882  0.024272099  0.024497146            5 
  664000    0.9898171   -7.6904259    193.21121  0.024248395   0.02448006            3 
  665000    0.9805907   -7.6641724    193.38256  0.024233404  0.024462866            2 
  666000   0.98482606   -7.7029602    193.23281  0.024178279  0.024445388            1 
  667000   0.98462938   -7.6791627    194.05889  0.024245239  0.024428303            2 
  668000   0.97267492   -7.7080549     194.0214  0.024204266  0.024411014            2 
  669000   0.97122262    -7.670698    194.28456  0.024200867  0.024393996            4 
  670000   0.98928012   -7.6408638    194.52985  0.024195255   0.02437679            2 
  671000   0.96692122   -7.7000051    194.32204  0.024133388   0.02435966            1 
  672000    0.9802958   -7.6906286     194.9796  0.024179018  0.024342598            6 
  673000   0.97943952   -7.6677047    195.47308  0.024204196  0.024325831            1 
  674000   0.99017526   -7.7244527    194.79149  0.024084012  0.024308778            3 
  675000   0.99318055    -7.692456     195.5272  0.024139161  0.024291881            1 
  676000   0.96344404   -7.6773782    195.50727  0.024100994  0.024274895            1 
  677000   0.98671273   -7.6853779     195.8772   0.02411093  0.024258051            2 
  678000   0.99173974   -7.7014371    196.04122  0.024095529  0.024241163            2 
  679000   0.98997622   -7.7105537    195.93367  0.024046843  0.024224261            1 
  680000   0.97580378    -7.701465    196.26605  0.024052212  0.024207517            2 
  681000   0.96090454    -7.683002    196.86566  0.024090266  0.024190712            1 
  682000   0.98068863   -7.6978317    196.34292   0.02399107  0.024174053            2 
  683000    0.9785904   -7.6490607    196.32316  0.023953533  0.024157206            1 
  684000   0.99517797   -7.7086844    196.79013  0.023975405  0.024140395            1 
  685000   0.96705996   -7.7381682     197.1094  0.023979245  0.024123634            2 
  686000   0.96731778    -7.729959    196.90722   0.02391973   0.02410691            2 
  687000   0.98849583   -7.7157137    196.82709  0.023875192  0.024089819            3 
  688000   0.98148769   -7.7228834    197.21532  0.023887515  0.024072625            1 
  689000   0.98493953   -7.7196997    197.64698  0.023905053  0.024055386       -1e+20 
  690000   0.98406905    -7.693217     197.4361   0.02384494   0.02403796            3 
  691000   0.98006174   -7.7393891    197.07559  0.023766955  0.024020442            1 
  692000   0.98981446    -7.722081    197.08435  0.023733665  0.024002752            3 
  693000   0.98837835   -7.7236931    197.43618  0.023741725  0.023985211            2 
  694000   0.95680595   -7.7329411    197.68539  0.023737439  0.023967457            3 
  695000   0.99084705   -7.6961411    197.59793  0.023692797  0.023949875            2 
  696000   0.96519839   -7.7146989    197.75411  0.023677455  0.023932118            1 
  697000   0.97110552   -7.7076089    197.73959  0.023641749  0.023914269            1 
  698000   0.98565673    -7.699724    197.82024  0.023617507  0.023896301            3 
  699000   0.96934034   -7.7582395    197.75801  0.023576301  0.023878449            4 
  700000   0.98361431   -7.7397246    198.69748  0.023654462  0.023860728            1 
  701000   0.98439752   -7.7642459    197.56463  0.023486048  0.023842912            2 
  702000   0.97797064   -7.7571714    198.60832  0.023576486  0.023825275            1 
  703000    0.9723829   -7.7130349    198.87942  0.023575085  0.023808041            1 
  704000   0.97558642   -7.7423367    199.31874  0.023593601  0.023790677            6 
  705000   0.99248843   -7.6978722    199.62162  0.023595936  0.023773444            1 
  706000   0.96390641   -7.7326365    199.87227    0.0235921  0.023756129            1 
  707000   0.97271625   -7.7267777    200.05232  0.023579953   0.02373872            1 
  708000    0.9512257   -7.7366032     200.0381  0.023544974  0.023721379            2 
  709000   0.98753837   -7.7093409    200.05887  0.023514207  0.023704092            3 
  710000   0.97456782    -7.717633     200.2303  0.023501208  0.023686883            1 
  711000   0.99269387   -7.7177555    200.17753   0.02346197  0.023669687            1 
  712000   0.95664289   -7.7220365    200.23225  0.023435423  0.023652188            2 
  713000   0.96175732   -7.7278747     200.6171  0.023447533  0.023634936            1 
  714000   0.96270898   -7.7598353    200.49299  0.023400208  0.023617408            4 
  715000   0.95475342   -7.7219459    200.77338   0.02340016  0.023599528            2 
  716000   0.95173066   -7.7472552    200.17417  0.023297739  0.023581709            1 
  717000   0.97649865   -7.7488078    200.11545  0.023258421  0.023563585            4 
  718000   0.96186692   -7.7322494    201.12116  0.023342753    0.0235456            2 
  719000   0.95131906   -7.7486588    200.88847  0.023283319  0.023527968            2 
  720000   0.95965434   -7.7714282    201.16418  0.023282891  0.023510313            2 
  721000   0.96535479    -7.766273    200.86594  0.023216128  0.023492655            2 
  722000   0.96059262   -7.7812397    201.28472  0.023232309  0.023475047            3 
  723000   0.96981329   -7.7408644    201.33678  0.023206176  0.023457284            2 
  724000   0.95914265   -7.7598013    202.07581  0.023259186  0.023439926            2 
  725000   0.97156662   -7.7894082    201.74014  0.023188522  0.023422513            1 
  726000   0.95526806   -7.7479875    202.12278  0.023200503  0.023405141            1 
  727000   0.96107437   -7.7655184    201.99117  0.023153504   0.02338783            2 
  728000   0.97448873   -7.7456819     202.3327  0.023160795  0.023370496            3 
  729000   0.94255293    -7.766238    202.22182  0.023116349  0.023352681            2 
  730000   0.94944636   -7.7762646    202.37502  0.023102171  0.023335037            3 
  731000   0.94785419   -7.7995075    201.93377  0.023020266  0.023317364            1 
  732000   0.93686458   -7.7902955    202.54195  0.023058055  0.023299824            1 
  733000    0.9671096   -7.7146101    203.76661  0.023165827   0.02328249            2 
  734000   0.94890866   -7.7209793    203.41935   0.02309484  0.023265465            2 
  735000   0.97119716   -7.6897796    203.90716  0.023118725  0.023248205            2 
  736000   0.96862863   -7.7589694    203.81947  0.023077386  0.023231144            1 
  737000   0.95565743   -7.7741356    204.11445  0.023079427  0.023213706            1 
  738000   0.93908523    -7.781694    203.73492  0.023005298  0.023196317            3 
  739000   0.94681132   -7.7525395    203.84733  0.022986843  0.023179154            3 
  740000   0.96453752   -7.8384758    203.47535   0.02291389  0.023161788            1 
  741000   0.96032905   -7.7656145    204.68759  0.023019298  0.023144252            1 
  742000   0.93890256   -7.7800372    204.36043  0.022951531  0.023126734            2 
  743000   0.95291239   -7.7521981    203.77806  0.022855323  0.023109257            2 
  744000   0.97661279   -7.7491107    204.42695  0.022897284  0.023091964            1 
  745000   0.94579087   -7.7791552    204.72366  0.022899739  0.023074987            5 
  746000   0.95191406   -7.7622885    205.18521    0.0229206  0.023057963            2 
  747000    0.9701498   -7.7974792    204.77215  0.022843837  0.023040717            4 
  748000   0.95337614     -7.75834    204.82228  0.022818881  0.023023239            6 
  749000   0.97640126   -7.7947295    204.95904  0.022803632  0.023005852            4 
  750000   0.93776072   -7.7713435     205.1043  0.022789367  0.022988399            2 
  751000   0.93549547   -7.7375247    205.55026  0.022808507  0.022970974            2 
  752000   0.93190445   -7.7656604    205.52564  0.022775448  0.022953646            5 
  753000   0.97376778   -7.7861566    205.15315  0.022703979  0.022936167            4 
  754000   0.95722135   -7.7701119    205.51166   0.02271349  0.022918661            3 
  755000    0.9659794   -7.7722611    205.89426  0.022725635  0.022901091            2 
  756000   0.94942049   -7.7727683    205.76255  0.022681057   0.02288352            2 
  757000   0.94658113   -7.7634078     206.3579  0.022716634  0.022866082            2 
  758000   0.93501177   -7.7807783     206.5844  0.022711565  0.022848693            2 
  759000   0.94919121   -7.7762512    206.50013   0.02267239  0.022831242            2 
  760000   0.95176876   -7.7333913    206.80627  0.022676127  0.022814147            2 
  761000   0.95242099   -7.7922572    207.11106  0.022679704  0.022797298            2 
  762000   0.95909526   -7.7607048     207.0916  0.022647813  0.022780211            3 
  763000   0.93364448   -7.7886894    206.81159  0.022587549  0.022763141            1 
  764000   0.94515692   -7.7769279    206.99623  0.022578123  0.022746072            2 
  765000   0.94125291   -7.8006901    207.01773  0.022550951  0.022728618            3 
  766000    0.9355771   -7.7971482    206.93572   0.02251259  0.022711401            3 
  767000    0.9396747   -7.7804973    207.98458  0.022597194  0.022694213            2 
  768000   0.93004068   -7.8226671    207.57789  0.022523643  0.022677027            2 
  769000    0.9254668   -7.7866722    208.06208  0.022546822  0.022659801            1 
  770000   0.95794989   -7.8136681    207.54766  0.022461868  0.022642702            2 
  771000   0.92599294    -7.779819    208.64058  0.022550863  0.022625584            1 
  772000    0.9247516   -7.8118553    208.62099  0.022519537  0.022608725            3 
  773000   0.94147309   -7.7844231    208.28888  0.022454601   0.02259162            1 
  774000   0.92298232    -7.776731    208.56657  0.022455488  0.022574751            1 
  775000   0.94905546   -7.7690695    208.46149  0.022415214  0.022557944            1 
  776000   0.94322916   -7.7925195     209.1565  0.022460964  0.022541178            3 
  777000   0.95596546   -7.8090772    209.30371  0.022447845  0.022524402            4 
  778000   0.94987974   -7.7654755    209.63054     0.022454  0.022507772            2 
  779000   0.95432184   -7.8049286    209.55385  0.022416972  0.022491134            2 
  780000    0.9480616   -7.8275062    209.40136   0.02237194  0.022474405            1 
  781000   0.92704597   -7.7814372    209.75545  0.022381076   0.02245761            2 
  782000   0.95415463   -7.7982762    209.25874  0.022299524  0.022440728            1 
  783000   0.95505633   -7.8298882    210.02491  0.022352588  0.022423781            2 
  784000   0.95385726   -7.8129656    209.69293   0.02228879  0.022406877            3 
  785000   0.93917947   -7.7967368    210.36588  0.022331834  0.022390157            3 
  786000   0.92327114   -7.8445001    210.05011  0.022269944  0.022373442            8 
  787000   0.93222344   -7.8606174    210.40865  0.022279611  0.022356556            1 
  788000   0.94283677   -7.7717793    211.12192  0.022326768  0.022339747            5 
  789000   0.94898326   -7.8184612    210.16694  0.022197607  0.022323048            1 
  790000   0.93616745   -7.8118825     210.8419  0.022240707  0.022306284            1 
  791000   0.93156875   -7.8259224     210.1605  0.022140803  0.022289426            2 
  792000   0.92406421   -7.8278722    210.34794   0.02213257  0.022272479            1 
  793000   0.95566774   -7.8115439    210.76151   0.02214812  0.022255305            2 
  794000   0.92293193   -7.7990978    210.50248  0.022093039  0.022238239            2 
  795000   0.93295631   -7.7947734    211.02218  0.022119726  0.022221418            1 
  796000    0.9475314   -7.8158699    210.68631  0.022056775  0.022204321            3 
  797000   0.93538097   -7.8601958    210.82891   0.02204401  0.022187257            2 
  798000   0.95444563   -7.8593282    211.44982  0.022081226  0.022170176            3 
  799000   0.93547484     -7.86011    211.42277  0.022050768  0.022153205            2 
  800000   0.93270107   -7.8297365     212.3163  0.022116281  0.022136297            1 
  801000   0.94172233   -7.8527131    212.34165  0.022091308  0.022119523            1 
  802000   0.93029665   -7.8469808    212.30422  0.022059873  0.022102752            2 
  803000   0.92770099   -7.8229616    212.26806  0.022028648  0.022085912            1 
  804000   0.96104711   -7.7878108    212.26525  0.022000959  0.022069157            2 
  805000   0.95412625   -7.7875148    212.25342  0.021972404  0.022052466            1 
  806000    0.9358588   -7.7879663    212.58878  0.021979816  0.022035724            1 
  807000   0.92000203   -7.8340951     212.3807  0.021931093  0.022018968            2 
  808000   0.97062376   -7.8282695    212.72615  0.021939578  0.022002011            2 
  809000   0.92103498   -7.8542196    212.11076  0.021849069  0.021984971            1 
  810000   0.94533178   -7.7674838    213.10649  0.021924536  0.021968069            2 
  811000   0.92699634   -7.8605891    212.71699   0.02185748  0.021951225            1 
  812000    0.9185793   -7.7940187    213.24019  0.021884256   0.02193444            1 
  813000   0.93108547   -7.8106268    212.90231  0.021822705  0.021917586            3 
  814000   0.93683894   -7.8488564    212.62976  0.021767994  0.021900849            2 
  815000   0.93620198   -7.8345024    213.29871  0.021809684  0.021884049            2 
  816000   0.93144111   -7.8543193    213.50859  0.021804391  0.021867294            2 
  817000   0.94312703   -7.8786721     212.9098  0.021716626  0.021850525            2 
  818000   0.92365481   -7.8372292    213.63111   0.02176356  0.021833845            1 
  819000   0.93561339   -7.8523248    213.56214  0.021729969  0.021817057            2 
  820000    0.9298579   -7.8548982    213.64496  0.021711886  0.021800313            1 
  821000   0.92413047   -7.8116349    214.41419   0.02176352   0.02178371            7 
  822000   0.91000976   -7.8753879    213.42315  0.021636573  0.021766883            1 
  823000   0.92478056    -7.862577    214.15748  0.021684638  0.021750007            2 
  824000   0.93771943   -7.8596987    213.98238  0.021640613   0.02173319            3 
  825000   0.92455561   -7.8795061    214.04084  0.021620287  0.021716346            1 
  826000   0.92165551   -7.8561416    214.48887  0.021639313  0.021699674            4 
  827000   0.94121587   -7.8366238    214.84881  0.021649416  0.021683008            2 
  828000   0.92065131   -7.8465121    215.08558    0.0216471  0.021666345            1 
  829000   0.91566567   -7.8376448    214.30541  0.021542563  0.021649724            2 
  830000   0.93126617   -7.8177432    214.94222  0.021580544  0.021632964            2 
  831000   0.90982763   -7.8662714    213.93517  0.021453587  0.021616256            2 
  832000   0.90376448   -7.8554081    214.11347   0.02144566  0.021599192            2 
  833000   0.90753171   -7.8362301    215.32065  0.021540681  0.021582163            3 
  834000      0.92682   -7.8437934    214.98086  0.021480902  0.021565358            2 
  835000   0.91211472   -7.8703346    215.05961  0.021463035  0.021548616            2 
  836000   0.90086201   -7.8590326    214.94712  0.021426149  0.021531794            1 
  837000    0.9221808   -7.8687503    215.29803  0.021435487  0.021515003            3 
  838000   0.91148155   -7.8445003    215.59295  0.021439235  0.021498311            3 
  839000   0.92833838   -7.8580016    215.67311  0.021421644  0.021481572            1 
  840000    0.9219265   -7.9016336    215.17052  0.021346282  0.021464872            3 
  841000   0.90883758     -7.87825    215.57441   0.02136092  0.021448158            1 
  842000   0.93710353   -7.8488045    216.52388  0.021429521  0.021431548            3 
  843000   0.93091559   -7.8629783    216.82964  0.021434326  0.021414936            2 
  844000   0.94273339   -7.8864554    216.15398  0.021342218  0.021398085            2 
  845000   0.93334706    -7.892783    216.25098  0.021326526  0.021381255            3 
  846000   0.93966202   -7.8885969    215.64928  0.021242049  0.021364353            3 
  847000   0.89870197   -7.8758585    216.28444  0.021279461  0.021347422            1 
  848000   0.89920555   -7.8878472    216.26613  0.021252568  0.021330313            2 
  849000   0.93284483   -7.9017823    215.89049  0.021190665  0.021313253            2 
  850000   0.91318728   -7.8975462    216.45642  0.021221218  0.021296291            9 
  851000    0.9208589   -7.8753679    216.29579  0.021180551  0.021279204            1 
  852000   0.92106018   -7.8777391    216.50305  0.021175963  0.021262216            1 
  853000    0.8969286   -7.8789279     216.6104  0.021161626  0.021245245            2 
  854000     0.911604   -7.8999367    215.90173  0.021067694  0.021228076            3 
  855000    0.9219281    -7.897711    216.23761   0.02107579   0.02121091            1 
  856000   0.89088353   -7.8763421    216.74406  0.021100473  0.021193826            7 
  857000   0.91110818   -7.8773331    217.11337  0.021111763  0.021176908            2 
  858000   0.91618662   -7.9227717    217.25142  0.021100565  0.021159889            5 
  859000   0.91368171   -7.8886118    217.38053  0.021088527  0.021142926            2 
  860000   0.90343935   -7.9082704     217.5369  0.021079157  0.021126106            1 
  861000   0.90711743   -7.8988128      217.317  0.021033391  0.021109167            2 
  862000   0.90324841   -7.8718802    217.94316  0.021069524  0.021092385            1 
  863000   0.90980075   -7.8985399    217.43454  0.020995996  0.021075632            1 
  864000   0.90712445   -7.8851363    217.94476  0.021020906  0.021058891            3 
  865000   0.90346445   -7.9039519    217.84865  0.020987346  0.021042184            2 
  866000   0.90629967   -7.9104914    218.39485   0.02101567  0.021025434            2 
  867000   0.91106838   -7.9374168    217.54627  0.020909868  0.021008789            1 
  868000    0.9086038   -7.9081903    217.75268  0.020905595   0.02099195            1 
  869000   0.89767611   -7.8907526    218.22391  0.020926727  0.020975312            4 
  870000    0.8999737   -7.8680116    218.58616  0.020937372  0.020958639            1 
  871000   0.91931219   -7.9144358    218.48384  0.020903544  0.020942003            2 
  872000   0.89491573   -7.8992847    218.58894  0.020889616  0.020925463            2 
  873000   0.90371675    -7.850555    218.99861  0.020904793   0.02090894            2 
  874000   0.91025761   -7.8717664    219.09775  0.020890327   0.02089248            1 
  875000   0.90310731   -7.8900436    219.03964  0.020860918  0.020875901            3 
  876000   0.90589373    -7.896911    218.62274  0.020797445  0.020859233            1 
  877000   0.89844791   -7.8793216    218.59352  0.020770954  0.020842372            3 
  878000   0.90831434   -7.9116562    219.06103  0.020791669  0.020825543            2 
  879000   0.90236559    -7.875792    219.34146  0.020794602  0.020808765            2 
  880000   0.88554123   -7.9089677    219.16194  0.020753972  0.020792027            2 
  881000   0.89602777   -7.9080393    219.06718  0.020721451  0.020775076            5 
  882000    0.8966702   -7.9408123     219.1252  0.020703439  0.020758219            3 
  883000     0.918848   -7.9428229    219.24243  0.020691056  0.020741457            5 
  884000   0.91545112   -7.9351468    219.75118  0.020715609  0.020724757            2 
  885000   0.91874653   -7.8867676    220.09232  0.020724324  0.020708144            3 
  886000   0.90280612   -7.9286577    219.75599    0.0206693  0.020691622            3 
  887000   0.89317877   -7.9395646    219.52167  0.020623982  0.020675051            1 
  888000   0.90683855   -7.9317602    219.46058  0.020595025  0.020658527            1 
  889000   0.91720895   -7.9344479    219.60904  0.020585774  0.020642048            2 
  890000   0.90760431   -7.9093775    219.98055  0.020597429  0.020625392            1 
  891000   0.89713714   -7.9435141     219.3645  0.020516695  0.020608766            2 
  892000   0.88957599   -7.9105347    220.48121   0.02059802  0.020592214            1 
  893000   0.90208306   -7.9586284    220.26019  0.020554329  0.020575741            3 
  894000   0.89588151   -7.9386776    220.81843  0.020583374  0.020559136            1 
  895000   0.89468675    -7.910681     220.6475   0.02054446  0.020542553            2 
  896000   0.89369678   -7.9512151    219.88724  0.020450822  0.020526003            4 
  897000   0.89699706   -7.8735947    221.27312  0.020556774  0.020509503            2 
  898000   0.88662534    -7.919176    220.59138  0.020470618   0.02049312            5 
  899000   0.90896095   -7.9436021    220.88137  0.020474728  0.020476598            3 
  900000    0.8926841   -7.9380515     221.1187  0.020473953  0.020460176            3 
  901000   0.87866311   -7.9217027    220.75529  0.020417619  0.020443918            1 
  902000   0.88765468    -7.904648    221.15773  0.020432163  0.020427654            1 
  903000   0.88681027   -7.9277318    221.43588  0.020435205  0.020411234            1 
  904000   0.89734334   -7.9199502    221.00651  0.020373019  0.020394873            1 
  905000   0.89177913   -7.9313049     221.3531  0.020382422  0.020378548            3 
  906000   0.89123882   -7.9604636    220.76333  0.020305678  0.020362101            1 
  907000   0.87134429   -7.9498898    221.10651  0.020314821  0.020345649            1 
  908000   0.88925214   -7.9313224    221.27793   0.02030818  0.020329164            3 
  909000   0.87577815   -7.9274315    221.65126  0.020320064  0.020312684            3 
  910000   0.89570292   -7.9257365    221.64138   0.02029683   0.02029621            2 
  911000   0.89553538   -7.9704766    220.58844  0.020178232  0.020279578            2 
  912000   0.89129237   -7.9259137    221.42076   0.02023216  0.020262912            1 
  913000    0.8636754   -7.9150382    221.42719  0.020210587  0.020246314            3 
  914000   0.90127993   -7.9469733    221.48655  0.020193887  0.020229743            3 
  915000   0.89464378    -7.983736    221.52008  0.020174871  0.020213145            2 
  916000   0.90925703   -7.9334843    221.05365  0.020110412  0.020196493            2 
  917000   0.90078265   -7.9580736    221.65358  0.020143001  0.020179873            4 
  918000   0.89357358    -7.958302    221.13902  0.020074348  0.020163249            3 
  919000     0.887457   -7.9593233    221.40299  0.020076441  0.020146675            1 
  920000   0.89899214   -7.9134825    223.17576  0.020215196  0.020130288            4 
  921000   0.89170621   -7.9404208    222.67204  0.020147669  0.020114099            1 
  922000   0.89553018   -7.9417791    222.64536  0.020123405  0.020097837            1 
  923000   0.87064695   -7.9631773    222.70783  0.020107244  0.020081515            3 
  924000   0.88745585   -7.9585794    222.92189  0.020104788  0.020065168            2 
  925000   0.89720615   -7.9716854    222.71181  0.020064127  0.020048815            3 
  926000   0.87514329   -7.9380631    223.09644  0.020077073  0.020032333            6 
  927000   0.89185881      -7.9604    223.42991  0.020085393  0.020015931            2 
  928000   0.89352036    -7.990569    223.25603  0.020048135  0.019999683            2 
  929000   0.90556585   -7.9396951    223.82544  0.020077631   0.01998348            1 
  930000   0.87192443   -7.9164135    224.02612  0.020074025  0.019967331            2 
  931000   0.86774742   -7.9481998    223.15986  0.019974924  0.019951225            2 
  932000   0.90987676   -7.9583782    223.64003  0.019996426  0.019935168            1 
  933000   0.87700396   -7.9696008     223.3191  0.019946329  0.019919067            2 
  934000   0.88632647   -8.0085567    222.91555  0.019888968  0.019902847            4 
  935000   0.87127504    -7.956823    224.25701  0.019987256  0.019886638            2 
  936000   0.86686997   -7.9439718    223.88149  0.019932469  0.019870371            2 
  937000   0.87238757   -7.9442831    223.68219  0.019893471  0.019854169            2 
  938000    0.8836362   -7.9602215    224.02557  0.019902769  0.019837943            4 
  939000   0.87449995   -7.9786827    223.17864  0.019806411  0.019821734            2 
  940000   0.89349478   -7.9938543     223.7419  0.019835275  0.019805525            3 
  941000   0.86345835   -7.9601223    225.01021  0.019926515   0.01978945            2 
  942000   0.88118488   -7.9568531    224.54469   0.01986418  0.019773315            2 
  943000   0.90181489   -7.9954345    224.61694    0.0198495  0.019757292            1 
  944000   0.87705128   -7.9763648    224.26822  0.019797689  0.019741253            3 
  945000   0.88155638   -8.0014007    225.12817  0.019852573  0.019725266            3 
  946000    0.8747216   -7.9643417    224.51767  0.019777807  0.019709321            1 
  947000   0.87934099   -8.0034831    225.02245  0.019801342  0.019693556            2 
  948000   0.88546271   -8.0147293    225.14125  0.019790897  0.019677721            3 
  949000   0.87152559   -7.9885056    225.27823  0.019782071  0.019661999            2 
  950000   0.86477549   -7.9557867    225.56187  0.019786129  0.019646394            2 
  951000   0.84963862   -8.0015255    224.73713  0.019693054  0.019630701            3 
  952000   0.88204978   -7.9759666    225.76544  0.019762381  0.019615058            1 
  953000   0.87986679   -7.9624391    225.33304  0.019703834  0.019599416            2 
  954000   0.86413964   -7.9891318    225.90599  0.019733227  0.019583861            4 
  955000   0.86462056   -7.9999274    226.00666  0.019721349  0.019568377            2 
  956000   0.86140027   -7.9663869     226.3769  0.019732993  0.019552888            6 
  957000   0.87049408   -8.0109928    225.94607  0.019674858  0.019537494            4 
  958000   0.87706641   -7.9707144     226.9761   0.01974392  0.019522163            3 
  959000   0.86750033   -7.9603322    226.35677  0.019669514  0.019506755            2 
  960000    0.8800451   -7.9618393    226.22685  0.019637748  0.019491327            1 
  961000   0.85652034   -8.0023834    226.49789  0.019640816  0.019475889            1 
  962000   0.86198139   -7.9746258    226.47566  0.019618474  0.019460375            2 
  963000   0.86069921   -7.9742152    226.73918  0.019620905  0.019445018            4 
  964000   0.86324348   -8.0077262    226.83553  0.019608881  0.019429781            1 
  965000   0.85252087    -7.996176    226.33619   0.01954544  0.019414372            2 
  966000   0.87213173   -7.9695698    227.33538  0.019611402  0.019398945            1 
  967000   0.85581173   -7.9953389    226.67769  0.019534444  0.019383493            2 
  968000     0.871586   -7.9982627    226.95788  0.019538385  0.019368062            1 
  969000   0.86065231   -8.0108844    226.81285  0.019505749  0.019352688            3 
  970000    0.8855609   -8.0009728    226.82769  0.019486915  0.019337311            2 
  971000   0.87013339   -7.9945993    228.08299  0.019574579  0.019322002            1 
  972000   0.88446153    -8.006851    227.40001  0.019495885  0.019306744            1 
  973000   0.85938675    -7.975381    227.94968  0.019522926  0.019291496            2 
  974000   0.85240125   -8.0172779    227.36318  0.019452702  0.019276182            3 
  975000   0.87716064    -8.026421    226.97389  0.019399478  0.019260872            1 
  976000   0.86203078   -8.0174984    227.35649  0.019412268  0.019245466            2 
  977000   0.86922227   -7.9908423    228.00048  0.019447328  0.019230059            2 
  978000   0.87706042   -8.0178105    227.15767   0.01935563  0.019214659            3 
  979000   0.84949465   -8.0471101     227.0835  0.019329546  0.019199225            1 
  980000   0.85810546    -8.019057    227.34908  0.019332404  0.019183796            2 
  981000   0.86934818   -8.0118365    228.26573  0.019390565  0.019168548            4 
  982000   0.84034338   -7.9791388    228.14829  0.019360853  0.019153242            4 
  983000   0.85758014   -8.0273667    227.90965  0.019320927  0.019137895            2 
  984000   0.86210801   -7.9949301    227.70846  0.019284253  0.019122595            3 
  985000   0.88055774   -8.0488578    228.34993  0.019318945  0.019107381            1 
  986000   0.85310009   -8.0055844    228.14671  0.019282177  0.019092116            1 
  987000   0.83814881   -7.9845638    228.77282  0.019315503   0.01907694            1 
  988000   0.84981303   -8.0372447    228.38973  0.019263641   0.01906182            1 
  989000   0.87015709   -8.0282408    228.49826  0.019253308   0.01904674            4 
  990000    0.8571771   -8.0215532    228.97253  0.019273782  0.019031547            4 
  991000   0.84390594   -8.0668103    228.61674  0.019224414  0.019016287            2 
  992000   0.85090896   -8.0619865    228.25104  0.019174314  0.019001018            1 
  993000   0.86566695   -8.0555895    228.08915  0.019141419  0.018985789            1 
  994000   0.84329922   -8.0299033    228.81298  0.019182845  0.018970547            4 
  995000   0.87595146   -8.0225825    228.25547  0.019116874   0.01895534            7 
  996000   0.86066473   -8.0152481    228.64593  0.019130349  0.018940172            2 
  997000   0.85860104   -8.0594146    229.12078  0.019150851   0.01892497            1 
  998000   0.87903723    -8.048406    229.00213  0.019121754  0.018909786            3 
  999000   0.84314921   -8.0777629    228.72905  0.019079834  0.018894497            2 
 1000000   0.86107308   -8.0376618    228.83277  0.019069398  0.018879366            1 
 1001000   0.86004199   -8.0185086     229.6222  0.019116068  0.018864244            5 
 1002000   0.83927715   -8.0000713    229.45615  0.019083179  0.018849232            1 
 1003000   0.84323159   -8.0425691    229.56122  0.019072883  0.018834137            2 
 1004000   0.86046938   -8.0691771    229.14042  0.019018959  0.018819036            2 
 1005000   0.84944997   -8.0657418    229.31269   0.01901432   0.01880399            2 
 1006000   0.86208871   -8.0431145    230.14712  0.019064539  0.018788978            2 
 1007000   0.84217396   -8.0877442    229.17287  0.018964984  0.018773799            2 
 1008000   0.85481389   -8.0347823    229.86376  0.019003287  0.018758665            2 
 1009000   0.84901569   -8.0600064    229.21621  0.018930972  0.018743609            3 
 1010000   0.84495919   -8.0521027    229.99001  0.018976074  0.018728463            1 
 1011000   0.84111037    -8.034342    229.88756  0.018948859  0.018713507            1 
 1012000   0.84048683   -8.0416356    229.86936  0.018928636   0.01869848            3 
 1013000   0.83646592   -8.0414612    230.07209  0.018926628  0.018683473            2 
 1014000   0.85556594    -8.083578     230.3954  0.018934533  0.018668388            4 
 1015000   0.84529432   -8.0674629    230.28281  0.018906634  0.018653406            2 
 1016000   0.84214071   -8.0497036    230.53299  0.018908546  0.018638528            2 
 1017000   0.84867428   -8.0697577    230.15813  0.018859238  0.018623565            2 
 1018000   0.86420394   -8.0558311    230.43388  0.018863285  0.018608601            2 
 1019000   0.84084374   -8.0961987    230.33689  0.018836841  0.018593634            1 
 1020000    0.8628409   -8.0601178    230.05885  0.018795657  0.018578683            3 
 1021000   0.83097443   -8.0489562    230.66272  0.018826536  0.018563862            2 
 1022000   0.83694417   -8.0339496    231.20455  0.018852295  0.018549217            2 
 1023000   0.85282886    -8.010765      230.848  0.018804822   0.01853451            3 
 1024000   0.83687807    -8.029928    231.04815  0.018802746   0.01851982            4 
 1025000   0.84411688   -8.0526755    230.68392   0.01875479  0.018505065            5 
 1026000   0.84960859   -8.0779156    231.03817  0.018765283  0.018490319            1 
 1027000     0.835943    -8.018397    231.76993  0.018806388  0.018475789            2 
 1028000   0.84049985   -8.0820967    230.98791  0.018724701  0.018461157            2 
 1029000   0.83058654   -8.0736491    231.38731  0.018738849  0.018446374            2 
 1030000   0.86399272   -8.0806719    230.99577  0.018688978  0.018431518            1 
 1031000    0.8285739   -8.0868814    230.90327  0.018663375  0.018416776            2 
 1032000   0.84333083   -8.0572107    230.95475  0.018649447  0.018401867            2 
 1033000   0.84288153   -8.0952976    230.63501    0.0186056  0.018386956            1 
 1034000   0.83507808   -8.0964607    230.55411  0.018581085  0.018371938            3 
 1035000   0.84675315   -8.0759523    230.87674   0.01858911  0.018357003            2 
 1036000   0.83953399   -8.1229441    230.53374  0.018543576  0.018342027            4 
 1037000   0.82655317   -8.0873152     231.1425  0.018574614  0.018327103            2 
 1038000   0.82281329   -8.0679347    231.88804  0.018616574  0.018312242            2 
 1039000   0.84482788   -8.0668066    231.06077  0.018532304  0.018297437            2 
 1040000   0.83494086   -8.0969634    230.74381  0.018489087  0.018282598            2 
 1041000   0.84147829   -8.0736446    231.24989  0.018511839  0.018267813            3 
 1042000   0.85312585   -8.0705372    232.09874  0.018561959  0.018253134            3 
 1043000   0.82882535   -8.0773272    231.96913  0.018533807  0.018238536            3 
 1044000    0.8419035   -8.0853755    231.79346  0.018502032  0.018223885            6 
 1045000   0.81666936   -8.0672494    231.94951  0.018496771  0.018209336            4 
 1046000   0.82981948   -8.1027065    232.00129  0.018483213  0.018194799            3 
 1047000   0.84719145   -8.0799597    232.44459  0.018500843  0.018180289            3 
 1048000   0.84496515   -8.0519409    232.22227  0.018465511  0.018165755            3 
 1049000   0.82536544   -8.0907577    232.12167  0.018439917  0.018151207            3 
 1050000   0.84961299   -8.0988333    232.66506  0.018465481  0.018136653            5 
 1051000   0.85449398   -8.1288547    232.27289  0.018416816  0.018122125            3 
 1052000    0.8097001   -8.1020956    231.90546  0.018370204  0.018107554            2 
 1053000   0.84550356   -8.0837335    232.11339  0.018369214  0.018092958            4 
 1054000   0.84428721   -8.0588677    233.06216    0.0184268   0.01807842            2 
 1055000    0.8238617   -8.0864091    232.89507  0.018396135   0.01806394            2 
 1056000   0.82639491   -8.0970914    233.14058  0.018398089  0.018049511            2 
 1057000   0.83058204   -8.0960406    232.89428  0.018361265  0.018035138            1 
 1058000   0.83289416   -8.0912416    233.39223  0.018383131  0.018020679            2 
 1059000    0.8197342   -8.0980165    232.32027  0.018281419  0.018006235            1 
 1060000   0.82512864   -8.0846859      232.519  0.018279796  0.017991723            2 
 1061000   0.82378538   -8.0926543    233.13843  0.018311218  0.017977248            2 
 1062000   0.83156271   -8.1158138    232.59349  0.018251215  0.017962693            2 
 1063000   0.81008842    -8.128683    232.95999  0.018262777  0.017948046            2 
 1064000   0.82997078   -8.1104562    233.00136  0.018248854  0.017933474            3 
 1065000   0.84862245   -8.0892062    233.34875    0.0182589  0.017919029            1 
 1066000   0.83432313   -8.1189445    233.25594  0.018234517  0.017904524            1 
 1067000   0.81475621   -8.1061123     233.1703  0.018210739  0.017889964            2 
 1068000   0.82309919   -8.1218919    232.51419  0.018142493  0.017875425            4 
 1069000   0.82271804   -8.0914732    232.94251  0.018158911  0.017860907            2 
 1070000   0.83200246   -8.0839652    233.55454  0.018189606  0.017846412            2 
 1071000   0.83381322   -8.1222568    233.67197   0.01818176  0.017831906            1 
 1072000   0.81025951   -8.1043683    232.81545  0.018098216  0.017817433            1 
 1073000   0.82813434   -8.0776679    233.11792   0.01810484  0.017802938            2 
 1074000    0.8314303   -8.1152642    233.00702  0.018079378   0.01778839            1 
 1075000   0.82764931   -8.1634873    233.12812  0.018071947  0.017773819            2 
 1076000   0.81462574   -8.1443983    232.61909  0.018015729  0.017759214            4 
 1077000   0.81908697   -8.1316593    233.02357  0.018030298  0.017744621            2 
 1078000   0.80514894   -8.1239451    233.17764  0.018025482  0.017730003            3 
 1079000    0.8255633   -8.1130063    233.39863  0.018025844  0.017715459            1 
 1080000   0.83008573   -8.1388943    233.43211  0.018011737  0.017700865            6 
 1081000   0.81228188   -8.1389255    233.31802  0.017986279  0.017686252            3 
 1082000   0.81937237   -8.1353135    233.67385  0.017997062  0.017671733            1 
 1083000   0.81438664   -8.1587027    233.06413  0.017933528  0.017657155            1 
 1084000   0.81264015   -8.1312349    234.00437  0.017989266  0.017642636            3 
 1085000   0.80260169   -8.1387144    233.67278  0.017947218   0.01762817            4 
 1086000   0.81798653   -8.1573763    233.30032  0.017902112  0.017613715            2 
 1087000   0.80563399   -8.1403167    234.49756  0.017977427  0.017599338            4 
 1088000   0.83001321   -8.1226261    233.70385  0.017900111  0.017585009            1 
 1089000   0.80578894   -8.1785403    233.17221  0.017842991  0.017570591            5 
 1090000   0.80108477    -8.133882    234.12622  0.017899558  0.017556136            2 
 1091000   0.82501578   -8.1210565    234.23959  0.017891811  0.017541707            1 
 1092000   0.80065658   -8.1417048    233.83133  0.017844271  0.017527233            4 
 1093000   0.79000209   -8.1494416    233.82274   0.01782729  0.017512819            2 
 1094000   0.81366034   -8.1453371    233.66986  0.017799349  0.017498397            2 
 1095000   0.82845796   -8.1649073     234.0238   0.01781003   0.01748385            1 
 1096000    0.8111599   -8.1575078    234.37305  0.017820335  0.017469346            2 
 1097000   0.84538536   -8.1032074    234.20419  0.017791263  0.017454954            3 
 1098000   0.79719538   -8.1492739    233.86006  0.017748942  0.017440502            3 
 1099000   0.80837597   -8.1682869    233.29861  0.017690219  0.017425998            3 
 1100000   0.80279836   -8.1129244    234.33374  0.017752556  0.017411612            2 
 1101000   0.83083112    -8.124076    234.40767  0.017742028  0.017397266            2 
 1102000   0.84197958   -8.1356003     233.9848   0.01769395  0.017382936            4 
 1103000   0.79288587    -8.137375    234.59707  0.017724167  0.017368632            4 
 1104000   0.81114065   -8.1281875    234.37111  0.017691056  0.017354294            2 
 1105000   0.81277475   -8.1231527    234.83417  0.017709967  0.017339976            5 
 1106000   0.79747675   -8.1147977    235.10942  0.017714694  0.017325842            1 
 1107000   0.81500274   -8.1230169     234.8905  0.017682211  0.017311681            2 
 1108000   0.82603201   -8.1349349    234.67553  0.017650085  0.017297493            1 
 1109000   0.80391169   -8.1541054     234.8741  0.017649091  0.017283234            1 
 1110000   0.79350842   -8.1482303     234.6905  0.017619407  0.017268917            2 
 1111000   0.82601206   -8.1541006    234.80754  0.017612327  0.017254581            2 
 1112000   0.81956582   -8.1513631    234.55288  0.017577404  0.017240356            3 
 1113000   0.81783704   -8.1656461    235.00997  0.017595835  0.017226145            2 
 1114000   0.80151269   -8.1876993    234.67367  0.017554883   0.01721193            1 
 1115000   0.78546159   -8.1574256    234.72288  0.017542816  0.017197727            3 
 1116000   0.81284028   -8.1678153    235.00601  0.017548238  0.017183607            4 
 1117000   0.79551993   -8.1898893    234.73819  0.017512548  0.017169392            2 
 1118000   0.79350479   -8.1669242    234.53496  0.017481735  0.017155135            6 
 1119000   0.81686967   -8.1333553    235.04703  0.017504247  0.017140918            3 
 1120000   0.81620963   -8.1793459     234.6469  0.017458847  0.017126669            3 
 1121000   0.80197603   -8.1682764    234.77509  0.017452801  0.017112388            2 
 1122000   0.80414053   -8.1497889    235.12169  0.017462989  0.017098124            2 
 1123000   0.79291232    -8.167138      234.783  0.017422307  0.017083816            4 
 1124000    0.7920607   -8.1794891    234.43366  0.017380906  0.017069548            1 
 1125000   0.79526816   -8.1651662    235.07491  0.017412957  0.017055275            2 
 1126000   0.81178314   -8.1625469    234.60613  0.017362798  0.017041068            1 
 1127000   0.83208163   -8.1600279    234.95502   0.01737319  0.017026841            4 
 1128000   0.80557558   -8.1681465    234.80252  0.017346522  0.017012682            1 
 1129000   0.80797044   -8.1706315    234.86972  0.017336117  0.016998542            1 
 1130000   0.80650718   -8.1833635    235.12516  0.017339613  0.016984366            2 
 1131000   0.80289981   -8.1877603    234.69332  0.017292464  0.016970173            1 
 1132000   0.79247621   -8.1631961    235.17253  0.017312465  0.016956012            1 
 1133000   0.80830187   -8.1580803    235.10109  0.017291931  0.016941879            4 
 1134000   0.80069441   -8.1607111    235.62587  0.017315246  0.016927698            1 
 1135000   0.80751279   -8.1785826    234.86523  0.017244143  0.016913529            4 
 1136000   0.79438405    -8.160484    235.37413  0.017266294  0.016899301            1 
 1137000   0.81693924   -8.1812099    235.73078  0.017277249  0.016885081            2 
 1138000   0.80524278   -8.1914438    235.24442  0.017226452  0.016870889            3 
 1139000   0.79976208   -8.2121983    234.84559  0.017182147   0.01685665            4 
 1140000    0.8010395   -8.2111537    235.20761  0.017193539   0.01684249            3 
 1141000   0.79274927   -8.1928613    235.18388  0.017176736  0.016828332            2 
 1142000   0.78992637    -8.180233    235.94199  0.017217016  0.016814209            2 
 1143000    0.7960109   -8.1779814    234.99094  0.017132614  0.016800144            3 
 1144000   0.79457676   -8.1843832    235.56837  0.017159701  0.016786006            2 
 1145000   0.80116561   -8.1937191    235.68706  0.017153352  0.016771832            3 
 1146000   0.80274577   -8.1715516    235.93368  0.017156317  0.016757692            1 
 1147000   0.79486653   -8.2022974     235.6221  0.017118723  0.016743598            2 
 1148000   0.80062768   -8.1872007    235.74243  0.017112546  0.016729591            2 
 1149000   0.77469665   -8.1937746    235.29859  0.017065462  0.016715594            2 
 1150000   0.81659302   -8.1777867    235.70419  0.017080014  0.016701592            2 
 1151000   0.77752663   -8.1964373    235.99689  0.017086366  0.016687623            2 
 1152000   0.78889987   -8.1977751    236.26917  0.017091231  0.016673637            2 
 1153000   0.80222078   -8.2163795    235.65257  0.017031842   0.01665964            1 
 1154000   0.78858381    -8.188651    235.73284   0.01702288  0.016645605            2 
 1155000   0.79413617   -8.1961085    236.27246  0.017047075  0.016631633            2 
 1156000   0.78762287   -8.2175604    235.76406  0.016995679  0.016617674            2 
 1157000   0.77024367   -8.2020112    236.02454   0.01699975  0.016603717            1 
 1158000   0.78100592   -8.1756395    236.07115  0.016988424  0.016589782            3 
 1159000   0.78851043   -8.2290561    235.48933  0.016931934  0.016575869            2 
 1160000   0.78911633   -8.2063343    236.53129   0.01699219  0.016561906            4 
 1161000     0.795625   -8.2138826    236.26489  0.016958433  0.016547966            4 
 1162000   0.78043692   -8.1808265    236.40049  0.016953564  0.016534057            2 
 1163000   0.78595916   -8.2162965    236.02746  0.016912257  0.016520077            2 
 1164000   0.80554639   -8.2341851    235.63312  0.016869496  0.016506131            1 
 1165000   0.78558869   -8.2322313    236.21899  0.016896924  0.016492081            1 
 1166000   0.80833896    -8.238787    236.02372  0.016868476  0.016478093            1 
 1167000   0.79011877   -8.2257602    236.43037   0.01688306  0.016464072            4 
 1168000   0.78851389   -8.2330886    236.10784  0.016845593  0.016450053            1 
 1169000   0.79626777   -8.2169348    236.12568  0.016832455  0.016436052            2 
 1170000   0.76846985   -8.2043367    236.27057  0.016828388  0.016422126            2 
 1171000   0.76705903   -8.1770071    236.75732  0.016848656  0.016408261            4 
 1172000   0.77050243   -8.2151797    235.80374  0.016766477  0.016394338            3 
 1173000   0.79781019   -8.2187061    236.14986  0.016776773  0.016380422            3 
 1174000   0.78659353   -8.2139247    236.19312  0.016765553   0.01636656            4 
 1175000   0.78281082    -8.232999    235.73222  0.016718597  0.016352603            5 
 1176000   0.78359764   -8.2332567    236.17254  0.016735582  0.016338643            2 
 1177000   0.79063155   -8.2042827    236.11631  0.016717382  0.016324718            2 
 1178000   0.79168398   -8.2292093    236.46908  0.016728146  0.016310847            3 
 1179000   0.78780356   -8.2202612     237.0072  0.016751993  0.016296996            2 
 1180000   0.78820808   -8.2675743    235.79135  0.016651932  0.016283186            3 
 1181000   0.77015606   -8.2445655    236.33444  0.016676153  0.016269366            2 
 1182000   0.76844876   -8.2400947    236.47649   0.01667206  0.016255493            1 
 1183000   0.77703833   -8.2524694    236.39418  0.016652168   0.01624166            2 
 1184000    0.7913206   -8.2365813    236.46652  0.016643196  0.016227835            1 
 1185000   0.76843616   -8.2356621    236.68506  0.016644519  0.016214105            3 
 1186000   0.78478841   -8.2396136    236.97658  0.016650968  0.016200405            2 
 1187000   0.78513402   -8.2431957    236.87739  0.016629977  0.016186707            4 
 1188000   0.77092512   -8.2507496    237.11567  0.016632693  0.016173063            3 
 1189000   0.77741112   -8.2234778    236.84067   0.01659943  0.016159495            2 
 1190000    0.7775093   -8.2224777    237.08634  0.016602685  0.016145794            3 
 1191000    0.7648076   -8.2500806    236.99131  0.016582095  0.016132158            1 
 1192000   0.76010232   -8.2549475    236.85381  0.016558572  0.016118603            3 
 1193000   0.77067705    -8.242414    236.79312  0.016540453  0.016104992            1 
 1194000   0.78502232   -8.2578754    236.73097  0.016522262  0.016091364            2 
 1195000   0.78383519   -8.2372061    236.99409  0.016526785  0.016077723            1 
 1196000   0.78774804   -8.2718942    236.80455   0.01649976  0.016064153            2 
 1197000   0.77820359   -8.2506631      237.215   0.01651455  0.016050496            3 
 1198000   0.77761129   -8.2395808    236.93534  0.016481312  0.016036902            2 
 1199000   0.78450552   -8.2556891    237.14776  0.016482329  0.016023241            3 
 1200000    0.7752022     -8.26891    237.16763  0.016469974  0.016009609            2 
 1201000    0.7723514   -8.2546006    236.89221   0.01643715   0.01599604            2 
 1202000   0.77855594   -8.2657524    236.76549   0.01641469  0.015982475            2 
 1203000   0.77531057   -8.2446056    237.17512  0.016429421  0.015968903            4 
 1204000   0.77928442   -8.2601263    237.40435  0.016431641  0.015955419            7 
 1205000   0.77696566   -8.2506869    237.13666  0.016399492  0.015941934            4 
 1206000   0.77489483   -8.2835564    237.09603  0.016383087  0.015928429            2 
 1207000   0.77459686   -8.2662471    237.57471  0.016402562  0.015914944            4 
 1208000   0.77740307   -8.2635111     236.9476  0.016345723  0.015901485            2 
 1209000   0.79225388   -8.3094995    237.36938  0.016361275  0.015887933            2 
 1210000   0.77292076   -8.2918109    237.64223  0.016366545  0.015874487            3 
 1211000   0.76409725   -8.3128107    237.19417  0.016322197  0.015860993            3 
 1212000    0.7640296   -8.3036474    237.36826    0.0163207  0.015847506            1 
 1213000   0.76310134   -8.3117116    237.18353  0.016294554  0.015833984            2 
 1214000    0.7532889   -8.2875031    237.53489  0.016305251  0.015820505            2 
 1215000   0.76274651    -8.300757     237.6618  0.016300535  0.015807086            4 
 1216000   0.74290788    -8.317784    237.16616  0.016253163  0.015793605            2 
 1217000   0.77100881   -8.2977358     237.4808  0.016261353  0.015780119            2 
 1218000   0.78162448   -8.2891382    237.29978  0.016235617  0.015766635            1 
 1219000   0.77428696   -8.3012878    237.47331  0.016234161   0.01575323            2 
 1220000   0.77564278    -8.291267    237.97736  0.016255284  0.015739871            2 
 1221000   0.76132752   -8.2917044    237.78782  0.016229035  0.015726475            1 
 1222000   0.77630125   -8.2783651    237.85213   0.01622014   0.01571312            1 
 1223000   0.77780945   -8.3085943    237.52819  0.016184805   0.01569976            4 
 1224000   0.77143634   -8.2716498    237.62565  0.016178217  0.015686407            2 
 1225000   0.77302298   -8.2793095    237.62266  0.016164807  0.015673057            3 
 1226000   0.77220061   -8.2837761    237.95233   0.01617403  0.015659716            3 
 1227000   0.77477704   -8.3308088     237.8728  0.016155447  0.015646347            2 
 1228000   0.77101643   -8.3253212    236.86534  0.016073924  0.015632965            3 
 1229000   0.77765185   -8.3257642    237.61372  0.016111589  0.015619599            2 
 1230000   0.76055444   -8.3019639    237.83855  0.016113723  0.015606281            1 
 1231000   0.75093373   -8.3105136    237.91742  0.016105972  0.015592973            1 
 1232000   0.77622424   -8.2874224    237.55963  0.016068698  0.015579663            3 
 1233000   0.76034241   -8.3006765    238.04378  0.016088387  0.015566419            4 
 1234000   0.76908642   -8.3035867     238.0221  0.016073885  0.015553151            4 
 1235000   0.78150884   -8.3173935    237.71167  0.016039924  0.015539915            2 
 1236000   0.76871752   -8.3141421    237.98759  0.016045549  0.015526661            2 
 1237000   0.76447748   -8.3077299    237.95466   0.01603036  0.015513425            4 
 1238000   0.75248572   -8.3174071    238.47795  0.016052635  0.015500265            2 
 1239000   0.76758842   -8.3060114    237.84447  0.015997072  0.015487106            5 
 1240000    0.7726109   -8.3220356     238.1749  0.016006377  0.015473923            3 
 1241000   0.76080966   -8.3087933    237.96687   0.01597951  0.015460661            2 
 1242000   0.76352125    -8.296067    238.10538  0.015975938  0.015447446            1 
 1243000   0.75968284    -8.302467    238.04431  0.015958991  0.015434248            3 
 1244000   0.73258892   -8.2918746    237.89116  0.015935903  0.015421066            2 
 1245000   0.75208219   -8.3226842     238.1624  0.015941258  0.015407926            2 
 1246000   0.76229804   -8.3057318    238.42224  0.015945843   0.01539479            1 
 1247000   0.75806906   -8.3001496    238.25519  0.015921892  0.015381679            1 
 1248000   0.76958634   -8.3096367    237.91002  0.015886085  0.015368546            2 
 1249000   0.75473412   -8.2998611    237.96944  0.015877331  0.015355422            3 
 1250000   0.76146908   -8.3211414    237.93674  0.015862449  0.015342313            2 
 1251000   0.78326446   -8.3111048     237.6545  0.015830968  0.015329179           10 
 1252000   0.74777196    -8.304225    238.58069  0.015879972  0.015316048            3 
 1253000   0.76278793   -8.3136312    238.36931   0.01585324  0.015302937            1 
 1254000   0.74937084   -8.3246887    238.38212  0.015841449  0.015289868            2 
 1255000   0.75282695   -8.3463583    238.09566  0.015809804  0.015276773            3 
 1256000   0.72979407   -8.3102328    237.92955  0.015786196  0.015263669            3 
 1257000   0.77640643     -8.35213    238.01042  0.015778999  0.015250518            1 
 1258000   0.75468369   -8.3508525    238.02339  0.015767315  0.015237372            2 
 1259000   0.76453529   -8.3262105    238.22225  0.015767954  0.015224286            1 
 1260000   0.76039125   -8.3326894    237.90816  0.015734667  0.015211175            2 
 1261000   0.76769247   -8.3311908    238.54899  0.015764538  0.015198081            3 
 1262000   0.74373294   -8.3589076    238.10032   0.01572242  0.015184966            1 
 1263000   0.76078484   -8.3235762    238.46179  0.015733821  0.015171973            3 
 1264000   0.76472277   -8.3190472    238.81814  0.015744867  0.015158996            3 
 1265000   0.76772068   -8.3189323    238.22074  0.015693066  0.015145995            2 
 1266000   0.74720112   -8.3346522    238.72184  0.015713654  0.015133023            4 
 1267000   0.74434219   -8.3327221     238.3924  0.015679584  0.015120125            4 
 1268000   0.73152872   -8.3225688    238.98853  0.015706397  0.015107226            5 
 1269000   0.74069351    -8.308253    238.67745  0.015673591   0.01509429            3 
 1270000   0.74055753   -8.2990513    238.18986  0.015629256  0.015081391            5 
 1271000   0.76143407   -8.3608281    238.23804  0.015620118  0.015068458            2 
 1272000   0.73528039   -8.3560745    238.60831  0.015632095  0.015055556            5 
 1273000   0.75378585   -8.3511065    237.96525   0.01557772  0.015042607            3 
 1274000     0.748255   -8.3223457    238.83663   0.01562249  0.015029705            6 
 1275000   0.73931618   -8.3208923    239.37941  0.015645713  0.015016879            2 
 1276000   0.74369497   -8.3184609    238.52197  0.015577454  0.015004088            3 
 1277000   0.75158862   -8.3173798    238.87444  0.015588257  0.014991319            3 
 1278000   0.75003676   -8.3584895    238.85557  0.015574829  0.014978458            3 
 1279000   0.74216038   -8.3336176    238.54224  0.015542236  0.014965619            3 
 1280000   0.72639247   -8.3512609    238.38835  0.015520075  0.014952756            3 
 1281000   0.76197048   -8.3537299    238.68112  0.015527005  0.014939976            4 
 1282000   0.72705965   -8.3615519    238.64013  0.015512229  0.014927219            2 
 1283000   0.73616349   -8.3248558    239.24392  0.015539356  0.014914466            2 
 1284000    0.7376188   -8.3519651    238.49029  0.015478342  0.014901681            2 
 1285000   0.71862099   -8.3368937    238.75761  0.015483632  0.014888932            2 
 1286000   0.74109424   -8.3269027    239.02026  0.015488612  0.014876157            1 
 1287000   0.73252241   -8.3702155    238.74991  0.015459072  0.014863418            3 
 1288000   0.74824502   -8.3436342    238.89135  0.015456221  0.014850698            2 
 1289000   0.74630604    -8.318697    239.06994  0.015455776  0.014838009            2 
 1290000   0.73005487   -8.3493372    238.81352   0.01542723  0.014825359            2 
 1291000   0.74917798   -8.3589135    239.15412  0.015437265  0.014812702            7 
 1292000   0.73068067   -8.3455946    239.17424  0.015426615  0.014800024            1 
 1293000   0.74152094   -8.3726581    238.59092   0.01537709  0.014787372            3 
 1294000   0.74080802   -8.3552378    238.92019  0.015386411  0.014774687            2 
 1295000   0.71469359   -8.3772561    239.21563  0.015393541   0.01476196            2 
 1296000   0.72892743   -8.3811254    238.84011  0.015357517  0.014749282            3 
 1297000    0.7333774   -8.3704989    238.95595   0.01535312  0.014736599            2 
 1298000   0.74139084    -8.370468    238.71845  0.015326043  0.014723934            2 
 1299000   0.74516183   -8.3623298    238.88237  0.015324761  0.014711299            2 
 1300000   0.73758255   -8.3535236    239.35051  0.015342981  0.014698652            2 
 1301000   0.73689547    -8.380006    239.27716   0.01532649  0.014686023            2 
 1302000   0.74944255    -8.381784    238.47771   0.01526355  0.014673422            3 
 1303000   0.73888479   -8.4165366    238.94494  0.015281718  0.014660811            1 
 1304000   0.73613433   -8.3691144    239.05122   0.01527679  0.014648206            2 
 1305000    0.7345126     -8.38816    238.79317  0.015248606  0.014635593            4 
 1306000   0.72520452   -8.3512284    239.73443   0.01529699  0.014623014            2 
 1307000   0.72712967   -8.3622642     239.7117  0.015283837  0.014610527            2 
 1308000   0.73030887   -8.3643318    239.35713  0.015249562  0.014598008            1 
 1309000   0.72906659   -8.3903338    239.78082  0.015264885  0.014585452            1 
 1310000   0.72830475   -8.4092649    239.23844  0.015218731  0.014572907            3 
 1311000   0.73881971   -8.4054673    239.16685  0.015202571  0.014560335            1 
 1312000   0.72222257   -8.3943446    238.48757  0.015147839  0.014547739            2 
 1313000   0.71259674   -8.4041485    238.76249   0.01515375  0.014535195            3 
 1314000   0.72468991   -8.3931109      238.606  0.015132293  0.014522655            2 
 1315000   0.71705959   -8.3841636      238.968  0.015143726  0.014510108            2 
 1316000    0.7300752   -8.3609179    239.23372  0.015149045  0.014497588            1 
 1317000   0.75008473   -8.3790448    239.85269  0.015176708  0.014485113            2 
 1318000     0.718478   -8.3889287    239.42812  0.015138349  0.014472637            3 
 1319000   0.72287647   -8.3993032     239.4914  0.015130869  0.014460122            2 
 1320000   0.70841378   -8.3972381    239.17823  0.015099636  0.014447673            1 
 1321000   0.72614384   -8.3943784    239.07102  0.015081442   0.01443523            2 
 1322000   0.71753023   -8.4056763     238.9641  0.015063294   0.01442272            2 
 1323000   0.73436108   -8.3704707    239.14929  0.015063573  0.014410244            2 
 1324000   0.73067185   -8.4241581    238.59503  0.015017311  0.014397741            3 
 1325000   0.71336556   -8.4006086    239.11318  0.015038565   0.01438527            1 
 1326000   0.72760152   -8.4063944    238.84316  0.015010254  0.014372816            3 
 1327000    0.7292993    -8.382358    238.99436  0.015008438  0.014360384            1 
 1328000   0.72434952   -8.3710641    239.47932  0.015027568  0.014347999            4 
 1329000   0.73560088   -8.4143345    238.89136  0.014979393  0.014335577            4 
 1330000   0.72014911   -8.4113198    239.29072  0.014993153   0.01432314            2 
 1331000   0.72637931   -8.3923052    238.95402  0.014960808  0.014310713            3 
 1332000   0.72111878   -8.4219163    239.06643  0.014956608  0.014298332            2 
 1333000   0.72546086   -8.3981525    239.15076   0.01495066  0.014285924            4 
 1334000   0.71842232   -8.4124491    238.24873  0.014883104  0.014273474            1 
 1335000   0.73758118   -8.4097622    239.09908  0.014925036  0.014261041            1 
 1336000   0.74017388   -8.4325446    238.87208  0.014899705  0.014248635            7 
 1337000   0.71776112   -8.4329219    238.59967  0.014871583  0.014236211            1 
 1338000   0.71972995   -8.4217172    238.77846  0.014871603  0.014223834            2 
 1339000   0.71727207   -8.3962717    239.09963  0.014880485  0.014211468            1 
 1340000    0.7132974    -8.438341     239.3394  0.014884291  0.014199138            1 
 1341000    0.7158258   -8.4064427    239.42127  0.014878279  0.014186801            1 
 1342000   0.72579572   -8.4328342     238.7861  0.014827751   0.01417449            3 
 1343000   0.70122634   -8.4031908    239.36175  0.014852429  0.014162162            2 
 1344000   0.72469151   -8.4294695     239.0025  0.014819104   0.01414987            4 
 1345000   0.71249254   -8.4147959    239.10194  0.014814246   0.01413759            5 
 1346000   0.71499367   -8.4000937     239.2414  0.014811875  0.014125326            2 
 1347000   0.73434577   -8.4355214    238.74665  0.014770271  0.014113065            3 
 1348000    0.7109163   -8.4248315    238.76231  0.014760281  0.014100787            2 
 1349000   0.69763836   -8.4340315    238.80819  0.014752174  0.014088522            3 
 1350000   0.71087256   -8.4136781    239.20413  0.014765687  0.014076284            1 
 1351000   0.72320221   -8.4008405    239.12796  0.014750059  0.014064075            2 
 1352000   0.71749941   -8.4202587    239.87884  0.014785432  0.014051869            2 
 1353000   0.71855576   -8.4111207    239.42155  0.014746338  0.014039666            3 
 1354000   0.69822508   -8.4008264    239.24012  0.014724281  0.014027483            5 
 1355000   0.70488684   -8.4153488    238.88101  0.014691329  0.014015241            1 
 1356000   0.72369086   -8.4322711    238.92793  0.014683378  0.014003029            1 
 1357000   0.71410116   -8.4123983    238.88153  0.014669708  0.013990814            2 
 1358000   0.71672998   -8.4027052    239.63681  0.014705253  0.013978687            3 
 1359000   0.70211804   -8.4285575    239.09846  0.014661421  0.013966529            4 
 1360000    0.7163077   -8.4371338    239.05127  0.014647749  0.013954367            5 
 1361000   0.69740721   -8.4361867    239.13804    0.0146423  0.013942187            5 
 1362000   0.70647753   -8.4140225    239.03128  0.014625017  0.013930046            7 
 1363000   0.70814977   -8.4408007    239.23109  0.014626504  0.013917922            2 
 1364000    0.7162862   -8.4540056     239.1813  0.014612738  0.013905784            2 
 1365000   0.70982386   -8.4406948    239.28683  0.014608476  0.013893636            2 
 1366000   0.70223865   -8.4166394     239.2548  0.014595827  0.013881555            3 
 1367000   0.68866213   -8.4559476    239.07739  0.014574335  0.013869459            1 
 1368000   0.69444386   -8.4470766    239.10065  0.014565098  0.013857336            1 
 1369000   0.69778562   -8.4322745     239.4448  0.014575408  0.013845261            2 
 1370000   0.71874579   -8.4671968    239.63327  0.014576233  0.013833219            2 
 1371000   0.71845943   -8.4491136    238.99505  0.014526808   0.01382113            3 
 1372000   0.70166208   -8.4441582     239.2436  0.014531317  0.013809047            2 
 1373000   0.69944022   -8.4297068    238.89216  0.014499403  0.013796998            2 
 1374000    0.6981157    -8.447182    238.87525  0.014487824  0.013784971            2 
 1375000    0.6830033   -8.4487528    239.22898  0.014498726  0.013772955            4 
 1376000   0.69458963    -8.439097    239.69062  0.014516147  0.013760948            1 
 1377000   0.70793275   -8.4244478    239.48023  0.014492873  0.013748948            1 
 1378000   0.70636564   -8.4376554    239.38466  0.014476576  0.013736993            3 
 1379000   0.70081893   -8.4514332    239.13162  0.014450787   0.01372503            2 
 1380000   0.67893758   -8.4437495     238.9758  0.014430906  0.013713018            4 
 1381000   0.70060382   -8.4535298    239.32507  0.014441532  0.013701012            4 
 1382000    0.7043115   -8.4525234    239.00795   0.01441196  0.013689037            3 
 1383000   0.69177843   -8.4650562    239.13982  0.014409485  0.013677055            4 
 1384000   0.68837047   -8.4554231    238.89123  0.014384106  0.013665077            3 
 1385000   0.70974339   -8.4603726    239.19368  0.014391918  0.013653113            3 
 1386000   0.70525424   -8.4514969    239.48421  0.014399002   0.01364115            5 
 1387000   0.69547076   -8.4828272    239.12892  0.014367274  0.013629194            2 
 1388000   0.69493563   -8.4595536    239.20014    0.0143612  0.013617263            1 
 1389000    0.6985952   -8.4896856    239.52254  0.014370203  0.013605342            9 
 1390000   0.69229884   -8.4650241    239.17977  0.014339315  0.013593422            4 
 1391000   0.69527894    -8.478459    239.11854  0.014325338  0.013581526            5 
 1392000   0.70123331   -8.4807475    239.27016  0.014324124  0.013569636           14 
 1393000   0.69068278   -8.4572669    238.68205  0.014278658   0.01355778            5 
 1394000   0.69606745   -8.4617327    240.14072  0.014355614  0.013545946            5 
 1395000   0.69808562   -8.4722283     239.7898  0.014324361  0.013534107            7 
 1396000   0.69944292   -8.4638462    239.00417  0.014267202  0.013522314            6 
 1397000   0.69582371   -8.4760474    239.14483   0.01426538  0.013510489           11 
 1398000   0.69204817   -8.4602659    239.27737  0.014263076  0.013498692            6 
 1399000   0.68803504   -8.4797321    239.74115  0.014280507  0.013486909           10 
 1400000   0.69659494   -8.4669336    239.44673  0.014252781  0.013475141            4 
 1401000   0.68790524   -8.5087527    239.23188  0.014229829  0.013463399            5 
 1402000    0.6864529   -8.4484639    239.95614  0.014262728  0.013451661            5 
 1403000   0.70416475   -8.4724346    238.65611  0.014175345  0.013439904            6 
 1404000   0.69006383   -8.4778698    239.38742  0.014208655  0.013428149            5 
 1405000   0.69333911   -8.4924751    239.42103  0.014200535  0.013416393            3 
 1406000    0.7036507    -8.470266    239.11885  0.014172525  0.013404644            3 
 1407000   0.69331437    -8.500678    239.46859  0.014183167  0.013392928            2 
 1408000   0.68606849   -8.5051827    239.21839  0.014158285  0.013381187            2 
 1409000   0.67574563   -8.4871617    239.86534    0.0141865  0.013369487            2 
 1410000   0.67989553   -8.5023963    238.95135   0.01412242  0.013357795            2 
 1411000   0.69764322   -8.4969186    239.18132  0.014125993  0.013346073            2 
 1412000   0.68438361   -8.4984425    239.18317  0.014116098  0.013334418            3 
 1413000    0.6920901   -8.4857288    239.21669  0.014108085  0.013322731            4 
 1414000   0.70040662   -8.4956523      239.381  0.014107791  0.013311067            3 
 1415000    0.6793778   -8.4939164     239.8711  0.014126684  0.013299426            3 
 1416000   0.69075115    -8.501208    239.39497  0.014088687  0.013287778            3 
 1417000   0.68560249   -8.4798398    239.55399  0.014088096  0.013276139            3 
 1418000   0.67804486   -8.4945071     239.1286  0.014053162  0.013264528            2 
 1419000   0.68351016   -8.4957476    239.82278  0.014084025  0.013252911            2 
 1420000   0.67838364   -8.5127227    239.52962  0.014056903  0.013241316            2 
 1421000   0.67914313   -8.5042993    239.79821  0.014062761  0.013229712            1 
 1422000   0.67678035   -8.5009347    239.65158  0.014044279  0.013218137            2 
 1423000   0.68406975   -8.5329473    239.13509  0.014004163  0.013206545            2 
 1424000   0.66377315    -8.538574    239.19937   0.01399809  0.013194944            2 
 1425000   0.67956817   -8.5177455    239.04993  0.013979528  0.013183365            2 
 1426000   0.69095497   -8.4979269    239.13448  0.013974666  0.013171783            2 
 1427000   0.69259529   -8.5183481    238.96191  0.013954795  0.013160197            2 
 1428000   0.67581874   -8.5148444     238.8815   0.01394033  0.013148617            2 
 1429000   0.67010431   -8.5116844    238.81651  0.013926785  0.013137041            2 
 1430000   0.68707279   -8.5161372    238.96519   0.01392571  0.013125495            4 
 1431000   0.67442191   -8.5156953    239.47543  0.013945693  0.013113984            2 
 1432000   0.67693045    -8.504812    239.40069  0.013931604  0.013102468            2 
 1433000   0.68386469   -8.5158756    239.45568   0.01392508   0.01309095            3 
 1434000   0.67363943   -8.5092484    239.02976  0.013890618  0.013079407            2 
 1435000    0.6753097   -8.5035542    239.03448  0.013881213  0.013067889            1 
 1436000   0.68702995   -8.5275343    238.67807  0.013850863  0.013056383            2 
 1437000   0.68290514   -8.5081754    239.44754  0.013885846  0.013044903            1 
 1438000   0.68215887   -8.5262384    238.95866  0.013847859  0.013033447            5 
 1439000    0.6830473   -8.5219903    239.27867  0.013856768  0.013021959            2 
 1440000   0.68365662   -8.5161669    239.16664  0.013840662  0.013010452            2 
 1441000   0.67620651   -8.5400024    239.18119  0.013831899  0.012998938            1 
 1442000   0.69495444   -8.5292426    239.05488  0.013815007  0.012987459            1 
 1443000   0.69585544   -8.5328653    238.79474   0.01379041  0.012975999            2 
 1444000   0.67786068   -8.5288941    238.88924  0.013786313  0.012964566            2 
 1445000   0.67382177   -8.5597331    238.86748  0.013775518  0.012953118            2 
 1446000   0.67053267   -8.5254816    238.95907   0.01377127  0.012941678            2 
 1447000   0.66898904   -8.5292435    239.31076  0.013782006  0.012930235            3 
 1448000   0.69663064   -8.5446403    238.61052  0.013732189  0.012918798            2 
 1449000   0.67287901   -8.5121068    239.27735  0.013761062   0.01290736            1 
 1450000   0.67569892    -8.548013    238.82845  0.013725773  0.012895957            4 
 1451000   0.66893891   -8.5369408    238.75945  0.013712351  0.012884529            1 
 1452000   0.68373014   -8.5483476    238.75788  0.013702817  0.012873097            1 
 1453000   0.66370458   -8.5626007      238.849  0.013698612  0.012861698            2 
 1454000   0.66590072   -8.5329925    238.70225   0.01368078  0.012850284            4 
 1455000   0.67171745   -8.5599385    239.24799  0.013702634  0.012838893            3 
 1456000    0.6710765    -8.568442    238.61348  0.013656907  0.012827499            2 
 1457000   0.67234861   -8.5596809    238.59889  0.013646699  0.012816104            1 
 1458000   0.66246701   -8.5502564     238.6113  0.013638049  0.012804727            2 
 1459000   0.68996009   -8.5318073    238.94478  0.013647748  0.012793374            3 
 1460000   0.66409292    -8.561211     238.2193  0.013596992  0.012782005            1 
 1461000    0.6361897   -8.5616711    238.50424  0.013603938   0.01277066            3 
 1462000   0.66167895   -8.5376233     238.6596  0.013603488  0.012759321            1 
 1463000   0.66677971   -8.5598007     238.7931  0.013601794  0.012747994            5 
 1464000   0.65497167   -8.5661206    238.69821  0.013587102   0.01273668            3 
 1465000   0.67663012   -8.5629988    238.88659  0.013588543  0.012725355            3 
 1466000   0.69103298   -8.5687093    238.62249  0.013564262  0.012714043            5 
 1467000   0.68236698   -8.5391788    238.51488  0.013548903  0.012702746            3 
 1468000   0.66411275   -8.5563118    238.52843  0.013540442  0.012691499            6 
 1469000   0.67095797   -8.5457449    238.57927  0.013534109  0.012680251            4 
 1470000   0.66025626   -8.5478881    238.08575  0.013496924  0.012669031            3 
 1471000   0.66509317   -8.5375643    239.11494  0.013546053  0.012657813            4 
 1472000   0.66511301   -8.5738304    238.70973  0.013513911  0.012646589            5 
 1473000   0.67457029   -8.5692849    238.42261  0.013488494  0.012635369            3 
 1474000   0.67939921    -8.560469    238.75745  0.013498273  0.012624175            4 
 1475000   0.66224841   -8.5795855     238.9008  0.013497221  0.012612977            2 
 1476000   0.67194846   -8.5955122    238.48782   0.01346476  0.012601774            6 
 1477000   0.66143868   -8.5522528    238.86488  0.013476917   0.01259056            8 
 1478000   0.65935632   -8.5755331    238.41318  0.013442331  0.012579366            5 
 1479000   0.66811552   -8.5689662    238.32881  0.013428488  0.012568165            3 
 1480000   0.67196569   -8.5536695    238.70968   0.01344086  0.012556987            4 
 1481000   0.65850509   -8.5447302     238.6651  0.013429277  0.012545815            3 
 1482000   0.67153788   -8.5668518    238.16275  0.013391968  0.012534691            6 
 1483000   0.64869149   -8.5208726    239.15829  0.013438879  0.012523547            3 
 1484000    0.6730066   -8.5671635    238.70239  0.013404222  0.012512445            2 
 1485000   0.66678806   -8.5520349    238.06985    0.0133597  0.012501352            2 
 1486000   0.66088805   -8.5639512     238.6402  0.013382694  0.012490264            2 
 1487000   0.66862745   -8.5445006    238.74731  0.013379697  0.012479216            2 
 1488000   0.65953345   -8.5792553    238.53461  0.013358793  0.012468173            3 
 1489000   0.65868671   -8.5649431    239.50282  0.013404008  0.012457146            1 
 1490000   0.64814581   -8.5531533    238.56678  0.013342661  0.012446109            2 
 1491000   0.64648389   -8.5545663    238.97942  0.013356775  0.012435071            3 
 1492000    0.6579882   -8.5715496     238.5004  0.013321068  0.012424068            4 
 1493000   0.65757854   -8.5736053    238.92128  0.013335638  0.012413041            3 
 1494000   0.65507686   -8.5712218    239.04323  0.013333514  0.012402017            2 
 1495000   0.63958345   -8.5645629     238.5998  0.013299877  0.012390995            2 
 1496000   0.64937199   -8.5659081    238.71919  0.013297638  0.012380009            1 
 1497000   0.65747765   -8.5803389    238.56556  0.013280203  0.012369012            2 
 1498000   0.65342489   -8.5885428     238.4345  0.013264047  0.012358032            2 
 1499000   0.65287148    -8.556265    238.18887  0.013241543  0.012347041            1 
 1500000   0.64831313   -8.5672717    238.33474  0.013240819  0.012336097            2 
 1501000    0.6551628   -8.5791351    238.52811  0.013242733  0.012325162            2 
 1502000   0.65810006   -8.5706271     238.4671  0.013230532  0.012314241            1 
 1503000   0.65559715   -8.5922128    238.52828  0.013225121  0.012303325            2 
 1504000   0.65208876   -8.5595885    239.29857  0.013259008  0.012292416            1 
 1505000   0.64619734   -8.5594046    238.57935  0.013210374  0.012281528            1 
 1506000   0.65839256   -8.5726189    239.02561  0.013226295  0.012270644            1 
 1507000   0.63870833   -8.5904435    238.58147  0.013192959  0.012259763            2 
 1508000   0.64682108    -8.605876    238.74979  0.013193512  0.012248912            2 
 1509000   0.65006288   -8.5898248    238.65461  0.013179512  0.012238062            4 
 1510000   0.64661811   -8.5935805    238.68013  0.013172193  0.012227193            4 
 1511000   0.65040915   -8.5739689    238.44702  0.013150619  0.012216342            3 
 1512000   0.65887683   -8.6046793    238.37736  0.013138082  0.012205474            3 
 1513000   0.65645526   -8.5905257    238.57922  0.013140516  0.012194622            1 
 1514000   0.63385438   -8.5929774    238.63316  0.013134806  0.012183797            5 
 1515000   0.64201695   -8.5844567    238.88264  0.013139859  0.012172977            1 
 1516000    0.6424433   -8.5895032     238.5381  0.013112252  0.012162173            2 
 1517000   0.64689099   -8.6059732    238.57775  0.013105787   0.01215138            2 
 1518000   0.63688034   -8.5860011      238.641  0.013100626    0.0121406            2 
 1519000   0.64839824   -8.6000139     238.7475  0.013097844   0.01212981            3 
 1520000   0.64513268   -8.5860656    238.68644   0.01308588  0.012119052            1 
 1521000   0.63445698   -8.5945904    238.22756  0.013052134  0.012108293            1 
 1522000   0.65124507    -8.600791    238.22966  0.013043674  0.012097556            1 
 1523000   0.65619161    -8.600281    238.79637  0.013066118  0.012086844            3 
 1524000   0.62878433   -8.5882879    238.51716  0.013042277  0.012076148            1 
 1525000   0.64831355   -8.6013211      238.437  0.013029344  0.012065459            3 
 1526000   0.63097736   -8.6228846    238.34111  0.013015569  0.012054767            2 
 1527000   0.64684765   -8.6028325    238.15677  0.012996986  0.012044079            4 
 1528000   0.65673541   -8.5961351    238.63338  0.013014473  0.012033385            2 
 1529000   0.64008961    -8.598664    238.34533  0.012990262  0.012022727            2 
 1530000   0.65271917   -8.5852083    238.45325   0.01298765  0.012012062            2 
 1531000   0.63750007   -8.5922536    238.02075  0.012955625  0.012001403            2 
 1532000   0.63585228   -8.5961083    238.44345  0.012970162   0.01199074            1 
 1533000   0.62573561   -8.6004022    238.34426  0.012956309  0.011980124            1 
 1534000   0.64590828   -8.6003537    239.44563  0.013007694  0.011969523            3 
 1535000   0.64294778   -8.5977849    238.63274  0.012955089  0.011958947            3 
 1536000   0.63478285    -8.614394    239.08684  0.012971291   0.01194837            3 
 1537000    0.6560528   -8.5708449    238.81597  0.012948166  0.011937817            3 
 1538000   0.61949918   -8.5725804    238.63508  0.012929946  0.011927276            2 
 1539000   0.62472573   -8.5912383    238.42404  0.012910117  0.011916724            2 
 1540000   0.64098603   -8.6054718    238.64222   0.01291354  0.011906176            3 
 1541000   0.63856317   -8.5982533     238.3439  0.012889028  0.011895634            3 
 1542000   0.64461445   -8.5815621    238.70192  0.012900017  0.011885113            2 
 1543000   0.64346579   -8.5984622    238.84041  0.012899137  0.011874576            2 
 1544000   0.63371205   -8.6243567    238.17402  0.012854816  0.011864073            3 
 1545000   0.63642257   -8.6134461    238.62698  0.012870927  0.011853566            4 
 1546000   0.63448489   -8.6234665    238.19933   0.01283955  0.011843078            2 
 1547000   0.62025496   -8.6337832    238.47162  0.012845918  0.011832586            1 
 1548000    0.6364798   -8.6192802     238.5229   0.01284038  0.011822129            2 
 1549000   0.64165909   -8.6276605    238.62466  0.012837565  0.011811708            2 
 1550000   0.62623634   -8.6105795    238.41694  0.012818115  0.011801272            1 
 1551000   0.63516208   -8.6330087    238.38657  0.012808219  0.011790819            4 
 1552000   0.64300522   -8.6208756    238.51148  0.012806673  0.011780401            2 
 1553000    0.6339559   -8.6335943     238.2247  0.012783038  0.011769981            2 
 1554000   0.65137778   -8.6108728    238.63191  0.012796649  0.011759583            1 
 1555000   0.61948249    -8.627073     238.5718  0.012785198  0.011749195            3 
 1556000   0.64147877   -8.6339548    238.99458  0.012799624  0.011738829            6 
 1557000   0.63138401   -8.6102705    238.36663  0.012757794  0.011728443            4 
 1558000   0.63734387   -8.6125401    238.58724  0.012761406  0.011718071            5 
 1559000   0.62308099   -8.6141923    238.27008  0.012736267  0.011707722            1 
 1560000   0.64907716   -8.6260106    238.62741  0.012747191    0.0116974            4 
 1561000   0.62532654    -8.629533    238.33338  0.012723328  0.011687075            2 
 1562000   0.61837641    -8.620004    238.20073  0.012708105  0.011676759            4 
 1563000   0.62860975    -8.636939    238.66837  0.012724908  0.011666436            2 
 1564000   0.61960876   -8.6442163    238.83645  0.012725727    0.0116561            2 
 1565000   0.63432032   -8.6427124    238.27972  0.012687951  0.011645785            3 
 1566000   0.63559043   -8.6479774    238.24949   0.01267824  0.011635484            3 
 1567000    0.6302229   -8.6475857     238.2339   0.01266932   0.01162519            3 
 1568000   0.62925052   -8.6419519    238.22748  0.012660899  0.011614923            2 
 1569000    0.6237247   -8.6399252    237.96717  0.012639004  0.011604652            9 
 1570000   0.62238328   -8.6445645    238.25153  0.012646047  0.011594397            4 
 1571000   0.62510028   -8.6481268    238.19638  0.012635072  0.011584155            2 
 1572000   0.62858669   -8.6557785    238.34298  0.012634806  0.011573917            3 
 1573000   0.62980645   -8.6181578    238.68158  0.012644712  0.011563711            3 
 1574000   0.62476739   -8.6557522    238.55071   0.01262975  0.011553501            3 
 1575000   0.62629924   -8.6603095    237.76347  0.012580078  0.011543302            3 
 1576000   0.62910276   -8.6473039    238.38128  0.012604763  0.011533128            3 
 1577000   0.62550144   -8.6176149    238.51275  0.012603717  0.011522975            3 
 1578000   0.61180209   -8.6456606    238.04266  0.012570905   0.01151281            4 
 1579000   0.62630248   -8.6474548    238.52126  0.012588203  0.011502656            2 
 1580000   0.62485465   -8.6476643    237.96771  0.012551039  0.011492512            1 
 1581000   0.62095126   -8.6550964    237.96309  0.012542858  0.011482374            1 
 1582000   0.62025941   -8.6608373    238.13789  0.012544136  0.011472237            2 
 1583000   0.62427443   -8.6449417    238.09724  0.012534073  0.011462088            2 
 1584000   0.63234602   -8.6449566    237.93123  0.012517426  0.011451955            3 
 1585000   0.61452352   -8.6564141    238.31163  0.012529529   0.01144182            2 
 1586000   0.61554554   -8.6560738    238.38023  0.012525233  0.011431711            1 
 1587000   0.60964397   -8.6531422    237.73206  0.012483305  0.011421593            1 
 1588000   0.62813615   -8.6667226    238.39895   0.01251044  0.011411483            2 
 1589000   0.61616121    -8.665082    238.28329  0.012496501  0.011401391            2 
 1590000   0.61410793   -8.6609049    238.17951  0.012483203  0.011391324            1 
 1591000   0.61998446   -8.6645112    237.96635  0.012464192  0.011381224            2 
 1592000   0.62196914   -8.6577991    237.98836  0.012457514   0.01137115            3 
 1593000   0.61156832   -8.6540666    238.48036  0.012475432  0.011361085            4 
 1594000   0.62998486   -8.6570768    238.35689  0.012461151  0.011351056            1 
 1595000   0.61181459   -8.6716666    238.29514  0.012450112  0.011341023            2 
 1596000   0.61689009   -8.6788625    237.78746  0.012415803  0.011330994            1 
 1597000   0.61722613   -8.6584596    238.31252  0.012435427  0.011320978            2 
 1598000   0.60642791    -8.662065    238.22427  0.012423043  0.011310981            2 
 1599000   0.62028212   -8.6484242    238.61913  0.012435852  0.011301011            3 
 1600000   0.61797231   -8.6791487    238.16331  0.012404339  0.011291037            1 
 1601000   0.61245349   -8.6763063    238.32637  0.012405079  0.011281064            2 
 1602000   0.58678649   -8.6746397     237.9425  0.012377367  0.011271079            2 
 1603000   0.62560016   -8.6618544    238.10651  0.012378172  0.011261118            3 
 1604000   0.61088479   -8.6755587    237.81279  0.012355195  0.011251169            3 
 1605000   0.62578728   -8.6714184    237.53541  0.012333095  0.011241218            2 
 1606000    0.6222465   -8.6793763    238.14513  0.012357053  0.011231297            3 
 1607000   0.62745983   -8.6837685    237.83804  0.012333439  0.011221382            3 
 1608000   0.61268595   -8.6809078    238.04641  0.012336568  0.011211485            3 
 1609000   0.61047316   -8.6892575    238.10827  0.012332104  0.011201593            3 
 1610000   0.59890411   -8.6498415    238.02347  0.012320056  0.011191713            3 
 1611000   0.61409681   -8.6877258    237.77818   0.01229972  0.011181823            3 
 1612000   0.61193953   -8.6735763    237.98744  0.012302907  0.011171941            1 
 1613000   0.60889628   -8.6624762    237.88372  0.012289921  0.011162074            3 
 1614000   0.61900654   -8.6856551    238.00374  0.012288504  0.011152218            3 
 1615000   0.62649786   -8.6636557    238.34331  0.012298417  0.011142387            1 
 1616000   0.59412738   -8.6824005    238.03397  0.012274854   0.01113256            2 
 1617000   0.58829783   -8.6811611    238.15114  0.012273301  0.011122746            2 
 1618000   0.60253029   -8.6757688    238.19325  0.012267885  0.011112921            1 
 1619000    0.5910397   -8.7087872    237.91323  0.012245894  0.011103102            2 
 1620000   0.61923528   -8.6830093    238.10992  0.012248453  0.011093305            2 
 1621000   0.61201601   -8.7109957    237.53152  0.012211162  0.011083509            2 
 1622000   0.61694361   -8.6947008    237.68706  0.012211624  0.011073697            2 
 1623000   0.62966996   -8.6925072    237.96829   0.01221854  0.011063903            1 
 1624000   0.60127614   -8.6605852    237.65703  0.012195045  0.011054121            2 
 1625000   0.60626033   -8.6795278    237.89607  0.012199798  0.011044357            2 
 1626000   0.60105324   -8.6863038    237.64706  0.012179534  0.011034607            2 
 1627000   0.60389096   -8.7093347    237.55169  0.012167163  0.011024851            1 
 1628000   0.61072463   -8.6901918    237.93927  0.012179529   0.01101509            1 
 1629000   0.60808853   -8.7050735    237.62143  0.012155792  0.011005332            1 
 1630000   0.60625875   -8.7268223    237.42787  0.012138439  0.010995597            2 
 1631000   0.61086858   -8.6951894    237.31231  0.012125093  0.010985863            1 
 1632000   0.60637214   -8.6884168    237.85481  0.012145364  0.010976135            1 
 1633000   0.61049773   -8.7192232    237.77653  0.012133932  0.010966429            2 
 1634000   0.59351836   -8.6968815    237.99399  0.012137597  0.010956713            3 
 1635000    0.6127122   -8.7044913    237.73061  0.012116749  0.010947017            2 
 1636000   0.60266069   -8.7092616    237.73069  0.012109347  0.010937318            2 
 1637000   0.59647635   -8.7029486    237.47631  0.012088999  0.010927648            1 
 1638000   0.59042921   -8.7000651     237.2995  0.012072624  0.010917976            2 
 1639000    0.5903932   -8.7149617    237.65475  0.012083321  0.010908316            3 
 1640000   0.58962769   -8.7193669    237.43257  0.012064663  0.010898659            1 
 1641000   0.60063251   -8.6911274     237.6842  0.012070089  0.010889003            5 
 1642000   0.60846256   -8.7046069    237.61321  0.012059135  0.010879365            1 
 1643000   0.59797443   -8.6999927    237.15652  0.012028633  0.010869738            1 
 1644000   0.60747201   -8.7027863    238.01336  0.012064749  0.010860133            2 
 1645000   0.58962154   -8.7011614    237.49597  0.012031204  0.010850534            2 
 1646000   0.58011716   -8.7035465    237.34314  0.012016157  0.010840947            3 
 1647000   0.58615866     -8.72913    237.40883  0.012012186  0.010831358            4 
 1648000   0.61172922   -8.7254448    237.31708  0.012000257  0.010821786            5 
 1649000   0.59618141   -8.7216898    237.72873  0.012013783  0.010812214            2 
 1650000   0.59548772   -8.6822391    237.60755  0.012000381  0.010802668            2 
 1651000   0.59058545   -8.7077016    237.70998  0.011998283  0.010793136            5 
 1652000   0.58763671   -8.7091697    237.61689  0.011986324  0.010783611            3 
 1653000   0.60404689   -8.7136588    237.26162  0.011961162  0.010774081            3 
 1654000   0.59949411   -8.7140072    237.21864  0.011951765   0.01076455            2 
 1655000   0.59204463   -8.7001097    237.42264  0.011954816  0.010755035            5 
 1656000   0.58736785   -8.7450731    237.47421  0.011950192  0.010745537            3 
 1657000   0.60932533   -8.7118005    237.69677  0.011954173  0.010736058            1 
 1658000   0.58520846   -8.7216185    237.53101  0.011938632   0.01072658            3 
 1659000   0.58945693   -8.7209004    237.90552  0.011950247  0.010717115            2 
 1660000   0.59287592   -8.7330408    237.41518  0.011918433  0.010707661            4 
 1661000   0.58353458   -8.7118011    237.34917  0.011907946  0.010698214            2 
 1662000    0.5991884   -8.7039086    238.01809  0.011934321  0.010688795            4 
 1663000   0.58589357   -8.7297501    237.46463   0.01189941  0.010679379            2 
 1664000   0.59263808   -8.7225935    237.51756   0.01189491  0.010669959            4 
 1665000   0.58541861    -8.730084    237.30383  0.011877068  0.010660548            9 
 1666000   0.58249156   -8.7144375    237.41373  0.011875437  0.010651164            2 
 1667000   0.59061859   -8.7434499    237.90353  0.011892798  0.010641776            3 
 1668000   0.59725943   -8.7512068    236.99121  0.011840088  0.010632376            1 
 1669000   0.58095761   -8.7405964    237.38159  0.011852486  0.010622997            4 
 1670000    0.5850592   -8.7342306    237.21306  0.011836979  0.010613628            3 
 1671000   0.58476355   -8.7176967    237.26558  0.011832514  0.010604272            1 
 1672000   0.59019826   -8.7358479    237.28562  0.011826436  0.010594925            1 
 1673000   0.57858323   -8.7413225    237.66475  0.011838252  0.010585588            1 
 1674000   0.58602096   -8.7255443    237.51632  0.011823791  0.010576272            2 
 1675000   0.58876724   -8.7498288    236.93067  0.011787595  0.010566954            2 
 1676000   0.58715241   -8.7374491    237.38933  0.011803368  0.010557645            3 
 1677000   0.57647405   -8.7385496    237.35675   0.01179471  0.010548353            2 
 1678000   0.57736427   -8.7359744    237.58381  0.011798958  0.010539067            2 
 1679000   0.58925423    -8.729309     237.3018  0.011777933  0.010529792            3 
 1680000   0.57974985   -8.7283983    237.33472  0.011772555  0.010520527            2 
 1681000   0.58792022   -8.7595951     237.0222   0.01175006  0.010511262            1 
 1682000   0.56422018   -8.7510854    237.80114  0.011781665  0.010502013            2 
 1683000   0.57523174   -8.7440272    237.38912  0.011754264  0.010492761            2 
 1684000   0.58680397   -8.7460408    237.22127  0.011738978  0.010483531            1 
 1685000   0.57829165   -8.7559802    236.95492  0.011718839   0.01047429            2 
 1686000   0.57563999   -8.7494758    236.66059   0.01169734  0.010465053            1 
 1687000   0.57479531   -8.7468393    237.57231  0.011735443  0.010455852            4 
 1688000   0.58226501   -8.7459813    237.00594   0.01170053  0.010446643            3 
 1689000   0.57913985   -8.7433043    236.92511  0.011689614  0.010437444            5 
 1690000   0.57678712   -8.7348673    237.27862  0.011700129  0.010428246            3 
 1691000   0.57827352   -8.7209756     237.3439  0.011696427  0.010419075            3 
 1692000   0.58056775   -8.7378234    237.04262  0.011674676  0.010409902            4 
 1693000   0.57446431   -8.7433402    236.86143  0.011658862  0.010400747            3 
 1694000   0.56927412   -8.7766531    237.02685  0.011660117  0.010391589            2 
 1695000   0.57526838   -8.7520441    236.87924   0.01164598   0.01038244            3 
 1696000   0.59061361    -8.766548    237.51599    0.0116704  0.010373307            2 
 1697000   0.57817629   -8.7563385    237.02707  0.011639514  0.010364187            4 
 1698000   0.57199915   -8.7341712    236.97523  0.011630115  0.010355068            2 
 1699000   0.58544258   -8.7465728    237.23797  0.011636157  0.010345959            4 
 1700000   0.57955895   -8.7463408    236.96795  0.011616076  0.010336863            1 
 1701000   0.57649101   -8.7613254    236.75771  0.011598947  0.010327771            1 
 1702000    0.5776788   -8.7542955    237.24956  0.011616214  0.010318706            2 
 1703000   0.57134225   -8.7593658    237.29933  0.011611828  0.010309645            1 
 1704000   0.56721741    -8.749531    237.14155  0.011597298  0.010300585            2 
 1705000   0.57275894   -8.7603087    236.83993  0.011575754  0.010291528            2 
 1706000   0.55788841   -8.7619776    236.72313  0.011563263  0.010282486            3 
 1707000   0.56813717   -8.7742629    236.55052  0.011548063  0.010273454            1 
 1708000   0.57797081   -8.7505967    236.45789  0.011536782  0.010264432            3 
 1709000   0.57251551   -8.7594438    236.76511  0.011545012  0.010255421            3 
 1710000   0.57501809   -8.7533559    237.04809  0.011552051  0.010246425            4 
 1711000   0.58285213   -8.7726713    236.67679  0.011527215  0.010237425            2 
 1712000   0.56816001   -8.7607431    237.06375  0.011539318  0.010228437            5 
 1713000   0.54349214   -8.7489044    236.89225  0.011524239  0.010219456            1 
 1714000   0.56861137    -8.769544     236.7931  0.011512694  0.010210481            2 
 1715000    0.5716794   -8.7898801    237.33877  0.011532496  0.010201511            3 
 1716000   0.55775783   -8.7814594    236.87018  0.011503019  0.010192554            5 
 1717000   0.58149734   -8.7851585    237.16534  0.011510645  0.010183598            4 
 1718000   0.55399868   -8.7802193    236.84749  0.011488528  0.010174665            3 
 1719000    0.5697276    -8.767619    236.63288  0.011471441   0.01016573            2 
 1720000   0.57941366   -8.7940999    237.00699  0.011482897  0.010156801            5 
 1721000    0.5681078   -8.7630419    236.90138  0.011471111   0.01014789            2 
 1722000   0.57942788   -8.7919741    236.25403  0.011433122  0.010138987            2 
 1723000    0.5639723   -8.7746939    237.08727  0.011466786  0.010130096            1 
 1724000   0.57316104   -8.7673896    236.63552  0.011438298  0.010121215            1 
 1725000    0.5728086   -8.7645162     237.0875  0.011453502  0.010112343            6 
 1726000   0.55671443   -8.7802743    236.71173  0.011428724  0.010103479            3 
 1727000   0.56021632   -8.7816724    236.69957   0.01142152  0.010094629            2 
 1728000   0.56638406   -8.7864608    236.64384  0.011412222  0.010085785            2 
 1729000    0.5610863   -8.7840916    236.63652  0.011405269  0.010076942            2 
 1730000   0.57191156   -8.7941339    236.64796  0.011399227  0.010068111            2 
 1731000   0.54145392    -8.792414    236.66764  0.011393589  0.010059296            3 
 1732000   0.56997663   -8.7963121    237.02413  0.011404163  0.010050478            2 
 1733000   0.57271333   -8.7966474    236.69044  0.011381537  0.010041665            2 
 1734000   0.54350185   -8.7910527    236.46306  0.011364045  0.010032869            2 
 1735000   0.56138955   -8.8063513    236.60382  0.011364257  0.010024074            4 
 1736000   0.56411684   -8.8082107    236.77501  0.011365928  0.010015286            1 
 1737000   0.57034963   -8.7882306    236.86425  0.011363666   0.01000651            2 
 1738000    0.5490881   -8.7883917    236.32916  0.011331471 0.0099977514            6 
 1739000   0.55343818   -8.7743776    236.51101  0.011333669 0.0099890056            2 
 1740000   0.56692918   -8.7829252    236.48428  0.011325875 0.0099802642            2 
 1741000   0.55962862   -8.7796938    236.46471  0.011318433 0.0099715253            2 
 1742000   0.55732515   -8.7916767    236.16295    0.0112975  0.009962793            3 
 1743000   0.55655671   -8.8074101     236.8492  0.011323829 0.0099540803            1 
 1744000   0.55236869   -8.8041331    236.38243  0.011295032 0.0099453668            2 
 1745000   0.56744629   -8.7866297    236.60417  0.011299149 0.0099366654            2 
 1746000   0.56145658   -8.8022651    236.73673  0.011299004 0.0099279704            1 
 1747000   0.55591656   -8.7991985    236.29116  0.011271282 0.0099192701            2 
 1748000   0.55496625   -8.8070247    236.31527  0.011265984  0.009910583            3 
 1749000   0.56274253   -8.8147993    236.49509   0.01126811 0.0099019098            1 
 1750000   0.56427301   -8.7883675    236.48075  0.011260988 0.0098932342            2 
 1751000   0.54353888   -8.8011253    236.06842  0.011234934 0.0098845666            2 
 1752000   0.54798666    -8.808868    236.42814  0.011245631 0.0098759094            2 
 1753000   0.56068516   -8.8107531    236.64294  0.011249427 0.0098672731            2 
 1754000   0.54807366   -8.8000097    236.54187  0.011238211 0.0098586482            1 
 1755000   0.55355633   -8.7991854    236.43291  0.011226634 0.0098500346            2 
 1756000    0.5510792   -8.8060197    236.66864  0.011231427 0.0098414148            2 
 1757000   0.57137885    -8.819288    236.36521  0.011210643 0.0098327965            2 
 1758000   0.54753909   -8.8179657    236.73121  0.011221616 0.0098241961            3 
 1759000   0.57178931     -8.81726    236.30229  0.011194916 0.0098155912            3 
 1760000    0.5475361   -8.8175433    236.56229  0.011200866 0.0098070029            6 
 1761000   0.54731851   -8.7871795     236.5322  0.011193082 0.0097984314            1 
 1762000   0.55036385   -8.7915903    236.66819  0.011193161 0.0097898695            2 
 1763000   0.54937414   -8.8277669    236.35032  0.011171787 0.0097813176            3 
 1764000   0.55444384   -8.8112128     236.4092  0.011168235 0.0097727832            3 
 1765000   0.54150743   -8.8055236    236.37153  0.011160129 0.0097642547            2 
 1766000   0.55080984   -8.8025899    236.21909  0.011146616 0.0097557327            3 
 1767000   0.55186623   -8.7981671    236.46682  0.011151991 0.0097472235            5 
 1768000   0.54965468   -8.8212728    236.41105  0.011143055 0.0097387252            2 
 1769000    0.5566736   -8.8010552    236.47096  0.011139578 0.0097302286            4 
 1770000   0.54780881   -8.8170708    236.49798  0.011134556 0.0097217432            2 
 1771000   0.54788178   -8.8174471    236.28411  0.011118206 0.0097132594            1 
 1772000   0.54364783   -8.8236465    236.15638  0.011105924 0.0097047833            4 
 1773000   0.52395565   -8.8400372    235.98795  0.011091744 0.0096963083            4 
 1774000   0.55565472    -8.812983    236.04624   0.01108823 0.0096878499            3 
 1775000   0.55019649   -8.8139059    236.29178  0.011093511 0.0096794086            4 
 1776000   0.53382225   -8.8088658    236.33207  0.011089155 0.0096709694            2 
 1777000   0.54919334   -8.8269771    236.48252   0.01108997 0.0096625362            2 
 1778000   0.54204115   -8.8277455    236.17915  0.011069514 0.0096541096            2 
 1779000   0.53844775   -8.8152475    236.08896  0.011059067 0.0096457012            3 
 1780000    0.5361351   -8.8248251    236.37804  0.011066388 0.0096373048            2 
 1781000   0.54566735    -8.814491    236.35332  0.011059017 0.0096289124            2 
 1782000   0.52717103   -8.8089325    236.72065  0.011069989 0.0096205436            2 
 1783000   0.54830493   -8.8172847    236.39762  0.011048683 0.0096121783            2 
 1784000   0.52227476   -8.8353109    236.44565  0.011044733 0.0096038195            2 
 1785000   0.54092688   -8.8404607    236.61246  0.011046333  0.009595471            3 
 1786000   0.53549822    -8.829494    236.23538  0.011022554 0.0095871392            4 
 1787000   0.53625151   -8.8118926    236.19706  0.011014599 0.0095788102            2 
 1788000   0.53931032   -8.8195031    235.85197  0.010992355 0.0095704795            2 
 1789000   0.56115124   -8.8293344    236.33958  0.011008924 0.0095621633            5 
 1790000   0.53970037    -8.818544    236.32876   0.01100227 0.0095538554            1 
 1791000   0.54542875   -8.8111989    236.26109  0.010992979 0.0095455525            2 
 1792000   0.53674961   -8.8252376    236.28131  0.010987784 0.0095372676            2 
 1793000   0.54800287   -8.8138414    236.49224  0.010991459 0.0095289973            3 
 1794000   0.54835137   -8.8088705    236.32172  0.010977412 0.0095207384            2 
 1795000   0.54022808   -8.8271319    236.16256  0.010963907 0.0095124745            3 
 1796000    0.5280308   -8.8207142    235.97572  0.010949133 0.0095042219            4 
 1797000   0.53003478   -8.8388101    236.27966  0.010957135 0.0094959778            1 
 1798000    0.5381834   -8.8334443    235.99877  0.010938022 0.0094877392            1 
 1799000   0.53547966   -8.8286566    236.21628  0.010942018 0.0094795172            2 
 1800000   0.53245512    -8.821181    236.37463   0.01094327 0.0094713026            2 
 1801000   0.52671702   -8.8337815    236.38062  0.010937471 0.0094630938            2 
 1802000   0.52003194   -8.8389681    236.21137  0.010923574 0.0094548953            2 
 1803000   0.53103362   -8.8351043    235.78768  0.010897933 0.0094467037            4 
 1804000   0.53518071   -8.8419741    236.34799  0.010917775 0.0094385222            3 
 1805000   0.52988648   -8.8393091    235.92484   0.01089219 0.0094303459            2 
 1806000    0.5428813   -8.8399688    235.98491  0.010888931 0.0094221864            3 
 1807000   0.52917114   -8.8362026    236.37519  0.010900903 0.0094140407            3 
 1808000   0.54251787   -8.8350095    236.04155  0.010879496 0.0094058922            2 
 1809000   0.53102021   -8.8277372    236.35663  0.010887997 0.0093977619            2 
 1810000   0.52434102   -8.8446432    236.05451  0.010868071 0.0093896371            2 
 1811000    0.5360328   -8.8513058    236.14152  0.010866074   0.00938153            1 
 1812000   0.53932769   -8.8376203    236.02826  0.010854868 0.0093734238            1 
 1813000   0.52484765   -8.8310517    236.19346  0.010856475 0.0093653273            2 
 1814000   0.52979049   -8.8463504    236.30654  0.010855684  0.009357229            1 
 1815000   0.52842152   -8.8423733     235.9999  0.010835624 0.0093491446            1 
 1816000   0.52895362   -8.8429762    236.12364  0.010835336 0.0093410748            2 
 1817000   0.53573659   -8.8436007     235.9136  0.010819739 0.0093330031            1 
 1818000    0.5144076   -8.8549342    236.14435  0.010824365 0.0093249363            2 
 1819000   0.51672663   -8.8447062    236.38272  0.010829335  0.009316875            2 
 1820000   0.51503922   -8.8562882    236.25665  0.010817612 0.0093088253            2 
 1821000    0.5220303   -8.8478686    236.15468  0.010807005 0.0093007851            2 
 1822000   0.51520258   -8.8428746    236.00253  0.010794115 0.0092927573            3 
 1823000   0.52222033   -8.8501194    235.91865   0.01078436 0.0092847337            2 
 1824000   0.52624903   -8.8529465    235.64953  0.010766152 0.0092767264            3 
 1825000   0.52750099   -8.8630039    236.31989  0.010790863 0.0092687233            1 
 1826000   0.52029254   -8.8398508    236.24999  0.010781763 0.0092607224            5 
 1827000   0.52214647   -8.8488792    236.21462  0.010774248 0.0092527352            2 
 1828000   0.52656317   -8.8305606    236.26047  0.010770444 0.0092447628            2 
 1829000   0.52187826   -8.8421091    236.16659  0.010760278  0.009236791            2 
 1830000   0.52310339   -8.8553548    235.88662  0.010741649  0.009228825            2 
 1831000   0.52268768   -8.8559233    235.96373  0.010739292  0.009220874            2 
 1832000   0.52094795   -8.8551665    236.20197  0.010744267 0.0092129333            2 
 1833000   0.52518857   -8.8600883    236.08864  0.010733253 0.0092049955            3 
 1834000   0.52710364   -8.8710901    236.19911  0.010732421 0.0091970623            5 
 1835000   0.52039028   -8.8582188    236.28579  0.010730508 0.0091891492            2 
 1836000   0.51443619   -8.8506515    235.86852  0.010705724 0.0091812388            2 
 1837000   0.53080533   -8.8607152     235.4919  0.010682811 0.0091733408            2 
 1838000   0.52319533   -8.8571051    236.14406  0.010706568 0.0091654472            2 
 1839000   0.51046188   -8.8755901    235.35939  0.010665189 0.0091575712            2 
 1840000    0.5213757   -8.8604877    235.69202  0.010674458 0.0091496869            3 
 1841000   0.52842474   -8.8386146    235.97725   0.01068157 0.0091418153            1 
 1842000    0.5221815   -8.8541407    235.92166  0.010673257 0.0091339479            3 
 1843000    0.5113909   -8.8656751    236.03964    0.0106728 0.0091261057            1 
 1844000   0.51852327   -8.8465027    236.13184  0.010671179 0.0091182712            2 
 1845000   0.52973113   -8.8769021    236.02057  0.010660369 0.0091104331            7 
 1846000    0.5064798   -8.8650088    236.07879  0.010657222 0.0091026041            2 
 1847000   0.51064091   -8.8587193    235.96671  0.010646395 0.0090947866            2 
 1848000   0.51666542   -8.8512251    235.67122   0.01062731 0.0090869734            2 
 1849000   0.50742449   -8.8904716    235.52638  0.010615034 0.0090791709            2 
 1850000   0.51241413   -8.8670232    236.31617  0.010644872 0.0090713756            2 
 1851000   0.51651351   -8.8505388    235.88059  0.010619511 0.0090635894            3 
 1852000   0.51204789   -8.8612352     235.5667  0.010599654 0.0090558089            1 
 1853000   0.51143977   -8.8649364    235.99926  0.010613386 0.0090480376            1 
 1854000    0.5232417   -8.8588725    235.72204  0.010595201 0.0090402721            2 
 1855000   0.50527298   -8.8755961    235.92895  0.010598785 0.0090325229            6 
 1856000   0.51459002   -8.8593019    236.01802  0.010597074 0.0090247863            2 
 1857000   0.50127511   -8.8625513    235.77997  0.010580684 0.0090170407            3 
 1858000   0.51923038   -8.8633088    235.62394  0.010567992 0.0090093146            2 
 1859000   0.51015171   -8.8771475    236.15907  0.010586295 0.0090015929            4 
 1860000   0.51134151   -8.8709387    235.59408   0.01055529 0.0089938868            3 
 1861000    0.5000001   -8.8727166    235.54877   0.01054759 0.0089861734            2 
 1862000   0.51229344   -8.8636334    235.57243  0.010542984  0.008978478            3 
 1863000   0.51417668   -8.8613402    235.19763   0.01052056 0.0089707946            5 
 1864000   0.51124269   -8.8644773    235.82759  0.010543079 0.0089631142            3 
 1865000    0.5145518   -8.8665245    235.61924  0.010528116 0.0089554398            1 
 1866000   0.51026932   -8.8788022     235.5616    0.0105199 0.0089477787            1 
 1867000   0.51449635   -8.8741554    235.85598  0.010527405  0.008940115            3 
 1868000   0.50445298   -8.8697795    235.21343  0.010493105 0.0089324656            3 
 1869000   0.50860535   -8.8778831    235.70713  0.010509503 0.0089248252            2 
 1870000   0.50341254   -8.8737571    235.75619  0.010506069 0.0089171943            1 
 1871000   0.51005518   -8.8697057    235.58121   0.01049266 0.0089095752            2 
 1872000   0.51263161    -8.884895    235.93254  0.010502695 0.0089019657            2 
 1873000   0.49954509   -8.8826093    235.62149  0.010483248 0.0088943639            1 
 1874000   0.50577501      -8.8822    235.75752  0.010483703 0.0088867553            3 
 1875000   0.49218608   -8.8639651    235.67547  0.010474465 0.0088791731            1 
 1876000   0.51311787    -8.903953    235.51956  0.010461956 0.0088715868            3 
 1877000   0.50644096   -8.8725479    235.32832  0.010447892 0.0088640121            2 
 1878000   0.50023626   -8.8815352    236.00927  0.010472545 0.0088564448            3 
 1879000   0.50656729   -8.8729309    235.72395  0.010454318 0.0088488802            1 
 1880000   0.50808241   -8.8791677      235.466  0.010437323 0.0088413348            8 
 1881000   0.50548534    -8.882922    235.48587  0.010432654  0.008833799            1 
 1882000   0.49292729   -8.8936599    235.50174  0.010427813 0.0088262682            2 
 1883000   0.51154434   -8.8912032    235.32047  0.010414253 0.0088187466            2 
 1884000   0.49031449   -8.8934123    235.77481  0.010428822 0.0088112434            3 
 1885000   0.50434787    -8.880377    235.56246  0.010413902  0.008803748            4 
 1886000      0.49607    -8.878529    235.58757   0.01040949 0.0087962521            3 
 1887000   0.49825074   -8.9044979    235.61752  0.010405296  0.008788766            2 
 1888000   0.50135699   -8.8689802    235.61939  0.010399867 0.0087812857            5 
 1889000   0.50283194    -8.881949    235.63496  0.010395049 0.0087738072            2 
 1890000   0.50132933   -8.8965418    235.67646  0.010391378 0.0087663434            2 
 1891000   0.51037331   -8.9031181    235.82582  0.010392465 0.0087588831            2 
 1892000   0.50231739   -8.8949666    235.95614  0.010392712 0.0087514397            2 
 1893000   0.49526665   -8.8788273    235.77849  0.010379402 0.0087440016            3 
 1894000    0.4985802   -8.8811323    235.30622  0.010353142 0.0087365631            2 
 1895000   0.50196323   -8.8897223    235.64945  0.010362773 0.0087291254            3 
 1896000   0.49297282   -8.8953008    235.38786  0.010345809 0.0087217039            2 
 1897000   0.49818528   -8.8898915    235.59161  0.010349306  0.008714289            2 
 1898000   0.50305474   -8.9147653    235.23235   0.01032808 0.0087068786            2 
 1899000   0.49112275   -8.8943356     235.6514   0.01034103 0.0086994901            4 
 1900000    0.4970421   -8.8847465    235.41399  0.010325175 0.0086920983            1 
 1901000   0.49655372    -8.913482    235.42135  0.010320066 0.0086847152            2 
 1902000   0.48585603    -8.888483     235.4178  0.010314485 0.0086773395            3 
 1903000   0.49462366   -8.8949624    235.73089  0.010322775 0.0086699723            5 
 1904000   0.47983965    -8.906668    235.78303  0.010319635   0.00866261            4 
 1905000   0.49213734   -8.8968554     235.0615  0.010282655 0.0086552601            3 
 1906000   0.49171236   -8.9031486    235.63593  0.010302376 0.0086479114            4 
 1907000   0.49786487   -8.9056554    235.15286  0.010275863 0.0086405719            2 
 1908000   0.49485829   -8.9122207    235.38537  0.010280633 0.0086332454            5 
 1909000   0.49952391   -8.8996784    235.63259  0.010286039 0.0086259197            4 
 1910000   0.48990704   -8.9119831    235.34735  0.010268209 0.0086186037            2 
 1911000    0.4874926   -8.9079035    235.28153  0.010259966 0.0086112975            8 
 1912000    0.4837567   -8.8915827    235.26348  0.010253813 0.0086039929            2 
 1913000   0.48494553   -8.9100981    235.42318  0.010255409 0.0085967001            3 
 1914000   0.48352884   -8.9006453     235.4652  0.010251881 0.0085894175            4 
 1915000   0.48039824   -8.9284173    235.50887  0.010248428 0.0085821375            3 
 1916000   0.48171542   -8.9092362    235.32288   0.01023499 0.0085748658            3 
 1917000   0.48824529   -8.9089824    234.99436  0.010215369 0.0085676067            2 
 1918000   0.49202161   -8.9112757    235.53321  0.010233455  0.008560357            8 
 1919000    0.4809346   -8.9033384    235.49764  0.010226578 0.0085531125            2 
 1920000   0.48669802   -8.9048879    235.27956  0.010211786 0.0085458763            3 
 1921000   0.48284837   -8.9072592    235.42109   0.01021261 0.0085386489            1 
 1922000   0.48542302    -8.913446    235.47111  0.010209465  0.008531428            3 
 1923000   0.48066201   -8.9279677    235.27444  0.010195634 0.0085242118            5 
 1924000   0.47532166   -8.9088472    235.17391   0.01018598 0.0085170079            2 
 1925000   0.47396583    -8.903183    235.23575  0.010183366 0.0085098109            3 
 1926000    0.4938003   -8.9106085    235.73396  0.010199635 0.0085026262            3 
 1927000   0.49097972   -8.9214804    235.33405  0.010177047 0.0084954508            6 
 1928000   0.47784399   -8.9265035    235.56344  0.010181684 0.0084882808            1 
 1929000   0.47925801   -8.9060673    234.94193  0.010149556  0.008481116            2 
 1930000   0.48467736   -8.9056962    234.90051  0.010142509 0.0084739621            3 
 1931000   0.49522019   -8.9228755    235.06013  0.010144145  0.008466817            4 
 1932000   0.48327081   -8.9112727    235.31307  0.010149805 0.0084596686            1 
 1933000   0.48449231   -8.9275351    235.16743  0.010138275 0.0084525382            3 
 1934000   0.49120085   -8.9224092    234.98269  0.010125073 0.0084454126            3 
 1935000   0.48444213   -8.9090931    235.38056  0.010136975 0.0084382929            3 
 1936000   0.48433861   -8.9208325    235.18164  0.010123176 0.0084311776            1 
 1937000   0.47638863   -8.9106346    234.90158  0.010105902 0.0084240715            4 
 1938000   0.48028153   -8.9004057    235.03736  0.010106526 0.0084169843            4 
 1939000   0.47978615   -8.9198712    235.25541  0.010110685 0.0084099012            2 
 1940000   0.48276979   -8.9362369    235.16852   0.01010174 0.0084028284            1 
 1941000   0.47502509   -8.9354955    235.00612  0.010089564 0.0083957568            6 
 1942000   0.48784828   -8.9126044    235.21946  0.010093523 0.0083886908            2 
 1943000   0.48245136   -8.9184481    235.10481  0.010083411 0.0083816408            1 
 1944000   0.47854436   -8.9265453     235.3044   0.01008678 0.0083745944            3 
 1945000   0.47578768   -8.9174513    235.65775  0.010096733 0.0083675586            3 
 1946000   0.47905776   -8.9281476    235.29818  0.010076147 0.0083605299            2 
 1947000   0.47541962   -8.9166559    234.87475  0.010052849 0.0083535017            5 
 1948000   0.48312804   -8.9228493    235.11248  0.010057858 0.0083464802            4 
 1949000   0.48352251   -8.9211676    235.09928  0.010052133 0.0083394741            2 
 1950000   0.47198026   -8.9337689    235.13372  0.010048449 0.0083324777            1 
 1951000    0.4844442   -8.9204192    235.13714  0.010043445 0.0083254856            2 
 1952000   0.47466226   -8.9298787    235.38265  0.010048781 0.0083184972            2 
 1953000    0.4662438   -8.9332739    235.27968  0.010039242 0.0083115194            2 
 1954000   0.46709456     -8.91658    235.29527  0.010034769 0.0083045415            5 
 1955000   0.47100372   -8.9407493    235.14872   0.01002339 0.0082975752            2 
 1956000   0.47074224   -8.9312551    235.30692  0.010025005 0.0082906167            2 
 1957000   0.46754652   -8.9359605    235.22338  0.010016325 0.0082836772            1 
 1958000   0.47266556   -8.9520647    235.29031  0.010014058 0.0082767374            2 
 1959000    0.4755969    -8.923534    234.99544  0.009996403 0.0082697989            2 
 1960000     0.466546   -8.9172966    235.05983 0.0099940404  0.008262874            2 
 1961000   0.47386275   -8.9370974    235.24932 0.0099969966  0.008255957            2 
 1962000   0.46930412   -8.9420934    235.19073 0.0099894127 0.0082490466            1 
 1963000   0.47530316   -8.9231285    235.02683 0.0099773659 0.0082421379            1 
 1964000   0.46535325   -8.9273284    234.68608 0.0099578274 0.0082352376            1 
 1965000   0.47089178   -8.9352238     234.8672 0.0099604409 0.0082283503            2 
 1966000   0.45861038   -8.9469371    234.85341 0.0099547903  0.008221469            2 
 1967000   0.47453412   -8.9479304    235.17242 0.0099632445 0.0082145849            2 
 1968000   0.46375209   -8.9422621    235.20136 0.0099594073 0.0082077108            3 
 1969000   0.46865845    -8.939177    234.77788 0.0099364264 0.0082008455            3 
 1970000   0.46067684   -8.9355858    235.37551 0.0099566627  0.008193989            3 
 1971000   0.46720707    -8.945668    234.97459 0.0099346604 0.0081871387            2 
 1972000   0.47335515    -8.932961    234.95979 0.0099289972 0.0081802946            3 
 1973000   0.46528957   -8.9321374    235.23146 0.0099354392  0.008173453            3 
 1974000   0.46202599   -8.9350901    234.93435 0.0099178634 0.0081666232            3 
 1975000   0.46552174   -8.9328624    235.35147 0.0099304417 0.0081598015            3 
 1976000   0.45733415   -8.9459583    234.84861 0.0099042091 0.0081529844            1 
 1977000   0.45782462   -8.9441777    234.95837 0.0099038261 0.0081461703            2 
 1978000   0.45653515   -8.9537722    234.71205 0.0098884417 0.0081393627            2 
 1979000   0.46223583   -8.9532453    234.91691 0.0098920713 0.0081325637            2 
 1980000   0.46202464   -8.9375209     234.7432 0.0098797644 0.0081257752            3 
 1981000   0.46021121   -8.9408627    234.67509  0.009871912 0.0081189852            2 
 1982000   0.46444007   -8.9600278    235.11622 0.0098854784  0.008112207            3 
 1983000   0.46548442   -8.9409696    234.66705 0.0098616173 0.0081054351            4 
 1984000   0.45917434   -8.9449821    235.10893 0.0098752069 0.0080986712            2 
 1985000   0.46217265   -8.9499925    235.10991 0.0098702735 0.0080919156            2 
 1986000   0.45375303   -8.9667611    234.51377 0.0098402891 0.0080851681            2 
 1987000   0.45411865   -8.9378911    234.97846 0.0098548254 0.0080784274            2 
 1988000    0.4659069   -8.9573463     234.8747 0.0098455191 0.0080716963            2 
 1989000   0.45186101   -8.9490115    235.00202 0.0098459031 0.0080649681            1 
 1990000   0.45647244   -8.9470583    234.91892 0.0098374756 0.0080582493            5 
 1991000   0.46161863   -8.9521033    234.90283 0.0098318614 0.0080515398            2 
 1992000   0.45149099   -8.9664078    235.11364 0.0098357446 0.0080448395            3 
 1993000   0.46855041   -8.9585848    235.06102 0.0098286094 0.0080381415            3 
 1994000   0.46222201    -8.956133    234.79527 0.0098125741 0.0080314538            5 
 1995000   0.44872967   -8.9594392    235.01302 0.0098167512 0.0080247757            8 
 1996000   0.46063868   -8.9517267    234.84052 0.0098046308    0.0080181            3 
 1997000   0.45023458   -8.9653225    234.83871 0.0097996458 0.0080114377            1 
 1998000   0.45879492    -8.950845    234.96011 0.0097998043 0.0080047793            2 
 1999000   0.45652439   -8.9340124    234.97519 0.0097955309 0.0079981292            1 
 2000000   0.45984193    -8.945555    234.57622  0.009774009 0.0079914806            2 
 2001000   0.45645506   -8.9552608    234.83332 0.0097798318  0.007984837            2 
 2002000   0.44586015    -8.952402    234.75196 0.0097715601  0.007978202            5 
 2003000   0.45774562   -8.9607773     234.7742 0.0097676067 0.0079715803            2 
 2004000   0.45822904   -8.9490859    234.68672 0.0097590953 0.0079649653            2 
 2005000   0.45720907    -8.944285    234.79679 0.0097588026 0.0079583582            1 
 2006000   0.45201715   -8.9507403    234.74068  0.009751607 0.0079517546            7 
 2007000   0.45605039   -8.9668324    234.45695  0.009734967 0.0079451644            2 
 2008000   0.44560816   -8.9622901    234.79407 0.0097441098 0.0079385821            2 
 2009000   0.45710798   -8.9662057    234.80229 0.0097396007 0.0079320002            2 
 2010000   0.45020087   -8.9649358    234.56142 0.0097247685 0.0079254255            3 
 2011000   0.44002016   -8.9586027    234.75013 0.0097277526 0.0079188552            1 
 2012000     0.456257   -8.9641234    234.94203 0.0097308662 0.0079122939            3 
Loop time of 4954.26 on 48 procs for 2000000 steps with 4000 atoms

Performance: 69758.175 tau/day, 403.693 timesteps/s
99.4% CPU use with 48 MPI tasks x no OpenMP threads

MPI task timing breakdown:
Section |  min time  |  avg time  |  max time  |%varavg| %total
---------------------------------------------------------------
Pair    | 307.16     | 343.05     | 375.31     |  74.8 |  6.92
Neigh   | 32.173     | 34.038     | 35.988     |  17.0 |  0.69
Comm    | 300.92     | 337.37     | 373.6      |  75.7 |  6.81
Output  | 4.2296     | 4.2315     | 4.2711     |   0.3 |  0.09
Modify  | 4175.9     | 4188.7     | 4203.7     |  11.5 | 84.55
Other   |            | 46.86      |            |       |  0.95

Nlocal:        83.3333 ave          92 max          76 min
Histogram: 3 3 4 10 6 10 6 2 3 1
Nghost:        2170.54 ave        2198 max        2154 min
Histogram: 7 2 12 6 6 5 4 4 1 1
Neighs:        14354.2 ave       16954 max       12681 min
Histogram: 3 3 8 13 10 6 2 2 0 1
FullNghs:      28707.0 ave       32273 max       26299 min
Histogram: 3 6 6 8 11 8 2 2 1 1

Total # of neighbors = 1377935
Ave neighs/atom = 344.48375
Neighbor list builds = 106817
Dangerous builds = 0

#clear
#
#next RN
#
#jump SELF
Total wall time: 1:22:37
