
units lj                  # Use reduced LJ style units
atom_style atomic         # Uncharged point particles
atom_modify map hash      # Needed for indexing of clusters etc
                          # Used to be able to find where atoms are in relation to each other.

lattice fcc 1.0 spacing 1 1 1
Lattice spacing in x,y,z = 1.5874011 1.5874011 1.5874011
region box block 0 10 0 10 0 10 units lattice
create_box 2 box
Created orthogonal box = (0.0000000 0.0000000 0.0000000) to (15.874011 15.874011 15.874011)
  3 by 4 by 4 MPI processor grid
create_atoms 1 box
Created 4000 atoms
  using lattice units in orthogonal box = (0.0000000 0.0000000 0.0000000) to (15.874011 15.874011 15.874011)
  create_atoms CPU = 0.004 seconds
set type 1 type/fraction 2 0.44 78393
Setting atom values ...
  1760 settings made for type/fraction
mass 1 1.0
mass 2 1.0
pair_style lj/cut  3.5
pair_modify tail  yes
pair_coeff 1  1  1.0  1.0   # Intearaction between 1 and 1 set with epsilon = 1 and sigma = 1
pair_coeff 1  2  1.5  0.8
pair_coeff 2  2  0.5  0.88

write_data data.0
System init for write_data ...
Neighbor list info ...
  update every 1 steps, delay 10 steps, check yes
  max neighbors/atom: 2000, page size: 100000
  master list distance cutoff = 3.8
  ghost atom cutoff = 3.8
  binsize = 1.9, bins = 9 9 9
  1 neighbor lists, perpetual/occasional/extra = 1 0 0
  (1) pair lj/cut, perpetual
      attributes: half, newton on
      pair build: half/bin/atomonly/newton
      stencil: half/bin/3d
      bin: standard
WARNING: Not all mixed pair coeffs generated from mixing. Use write_data with 'pair ij' option to store all pair coeffs. (../write_data.cpp:312)


#############################
#   M E L T   S Y S T E M   #
#############################

velocity all create 2.4 6229865 mom yes dist gaussian # Assign velocities
                                                    # Temperature 2.4, random number seed, zero linear momentum
                                                                                # Gaussian distribution

timestep 0.002   # simulation timestep
thermo 1000       # output thermodynamic data every 1000 steps bf 100

# Define a fix  in this case with index 1 applied to all
# particles in the simulation. This fix is for simulations
# in the anisotropic NPT ensemble. Note that we use the MTK
# correction.
fix 1 all npt temp 2.4 2.4 0.1 iso 5.68 5.68 0.5 mtk yes tchain 5 pchain 5 # Use NPT ensemble
                                                                         # Set temperature and pressure and damping
                                                                         # Numbers of thermostats in chain and in barostat
run 10000          # run for 10000 steps
Per MPI rank memory allocation (min/avg/max) = 3.642 | 3.644 | 3.648 Mbytes
Step Temp E_pair E_mol TotEng Press Volume 
       0          2.4   -5.6445478            0   -2.0454478   -4.2010474         4000 
    1000    2.3465613   -5.0242118            0   -1.5052498     5.342141    3815.8115 
    2000    2.3817948    -4.993416            0   -1.4216169    5.6115837     3815.751 
    3000    2.3893785   -5.0492935            0   -1.4661218    5.6843688    3794.1898 
    4000    2.3434938   -5.0841522            0   -1.5697903    5.5155509     3778.507 
    5000     2.412937   -4.9709883            0   -1.3524875    5.5332055    3833.7399 
    6000    2.3618122   -5.0168846            0   -1.4750521     5.758388    3784.1849 
    7000    2.3272333   -4.9758599            0   -1.4858826    5.3579288    3831.5328 
    8000    2.4083977   -5.0292323            0   -1.4175389    5.7827662    3786.8167 
    9000    2.3962095   -4.9760172            0   -1.3826015    5.2703838     3843.201 
   10000    2.3693528   -5.1045408            0      -1.5514    5.3553548    3787.9145 
Loop time of 2.55915 on 48 procs for 10000 steps with 4000 atoms

Performance: 675224.744 tau/day, 3907.551 timesteps/s
99.6% CPU use with 48 MPI tasks x no OpenMP threads

MPI task timing breakdown:
Section |  min time  |  avg time  |  max time  |%varavg| %total
---------------------------------------------------------------
Pair    | 1.1361     | 1.2063     | 1.3388     |   3.6 | 47.13
Neigh   | 0.21516    | 0.22079    | 0.23765    |   1.0 |  8.63
Comm    | 0.73074    | 0.87197    | 0.94807    |   4.9 | 34.07
Output  | 0.00024536 | 0.00025026 | 0.0003215  |   0.0 |  0.01
Modify  | 0.20423    | 0.24458    | 0.2938     |   5.1 |  9.56
Other   |            | 0.01531    |            |       |  0.60

Nlocal:        83.3333 ave          92 max          72 min
Histogram: 1 0 1 3 8 15 7 6 5 2
Nghost:        1700.33 ave        1722 max        1668 min
Histogram: 2 2 3 4 4 6 8 8 5 6
Neighs:        10078.6 ave       11343 max        8492 min
Histogram: 1 0 4 5 8 12 7 6 2 3

Total # of neighbors = 483772
Ave neighs/atom = 120.94300
Neighbor list builds = 911
Dangerous builds = 244

# Equilibrate just above the melting temperature to avoid step fn in T

fix 1 all npt temp 1.25 1.25 0.1 iso 5.68 5.68 0.5 mtk yes tchain 5 pchain 5
run 2000
Per MPI rank memory allocation (min/avg/max) = 3.644 | 3.645 | 3.649 Mbytes
Step Temp E_pair E_mol TotEng Press Volume 
   10000    2.3693528   -5.1045408            0      -1.5514    5.3553548    3787.9145 
   11000    1.2269547   -7.0197135            0   -5.1797415    5.9474573    2996.9522 
   12000    1.2720429   -7.0915813            0    -5.183994     6.316296    2967.9484 
Loop time of 0.643469 on 48 procs for 2000 steps with 4000 atoms

Performance: 537088.842 tau/day, 3108.153 timesteps/s
99.6% CPU use with 48 MPI tasks x no OpenMP threads

MPI task timing breakdown:
Section |  min time  |  avg time  |  max time  |%varavg| %total
---------------------------------------------------------------
Pair    | 0.27621    | 0.30231    | 0.3725     |   2.9 | 46.98
Neigh   | 0.039476   | 0.042246   | 0.050141   |   0.8 |  6.57
Comm    | 0.17486    | 0.24897    | 0.28009    |   3.5 | 38.69
Output  | 5.3416e-05 | 6.2293e-05 | 8.5829e-05 |   0.0 |  0.01
Modify  | 0.038722   | 0.044957   | 0.050989   |   1.8 |  6.99
Other   |            | 0.00493    |            |       |  0.77

Nlocal:        83.3333 ave          94 max          76 min
Histogram: 4 8 6 4 7 8 5 5 0 1
Nghost:        2006.62 ave        2020 max        1991 min
Histogram: 2 2 3 5 9 5 9 10 2 1
Neighs:        12876.0 ave       14619 max       11420 min
Histogram: 3 5 9 5 6 4 5 6 4 1

Total # of neighbors = 618049
Ave neighs/atom = 154.51225
Neighbor list builds = 142
Dangerous builds = 5

#############################
# L I N E A R  Q U E N C H  #
#############################

# Define solid atoms. This closely follows ten Wolde  Ruiz-Montero and Frenkel  Faraday Discuss  1996  104  93-110
# Compute components of the per-atom q6 vector
compute q6 all orientorder/atom degrees 1 6 components 6 nnn NULL cutoff 1.3 # compute the Q6 parameter.
                                                                             # Use all neighbours within 1.3 unit cell.

# get number of connections
compute coord_number all coord/atom orientorder q6 0.5

# An atom is solid if it has 8 or more connections (of a possible 14)
variable is_solid atom c_coord_number>=8
group solid dynamic all var is_solid    # Must be dynamic to update
dynamic group solid defined

# do clustering
compute cluster solid cluster/atom 1.3 # Create a cluster where all atoms within are solid and max 1.3 units from another member

# define chunks one chunk per cluster
compute clus_chunks solid chunk/atom c_cluster nchunk every compress yes  # Says which atoms are in which chunk

# count the size of each chunk
compute size_chunks solid property/chunk clus_chunks count


# Find the maximum entry in the vector of chunk sizes
variable max_n equal max(c_size_chunks)


# Thermo style which includes this variable
# thermo_style custom step temp pe vol v_max_n

thermo ${N}  # Print the thermo information every 100 steps
thermo 1000  

# Reset the npt fix at a lower temperature (below freezing)
fix 1  all npt temp  ${temp} ${temp}  0.1  iso  5.68  5.68  0.5  mtk yes tchain  5  pchain  5
fix 1  all npt temp  0.45 ${temp}  0.1  iso  5.68  5.68  0.5  mtk yes tchain  5  pchain  5
fix 1  all npt temp  0.45 0.45  0.1  iso  5.68  5.68  0.5  mtk yes tchain  5  pchain  5

dump dmp2 all dcd ${N} traj.dcd
dump dmp2 all dcd 1000 traj.dcd


compute msd all msd com yes
variable twopoint equal c_msd[4]/6/(step*dt+1.0e-6)
fix 9 all vector 10 c_msd[4]
variable fit equal slope(f_9)/6/(10*dt)
thermo_style custom step temp pe c_msd[4] v_twopoint v_fit v_max_n

fix 1 all npt temp 1.25 ${temp} 0.1 iso 5.68 5.68 0.5 mtk yes tchain 5 pchain 5
fix 1 all npt temp 1.25 0.45 0.1 iso 5.68 5.68 0.5 mtk yes tchain 5 pchain 5
run 2000000 # 5000000  # Run for this many steps
Neighbor list info ...
  update every 1 steps, delay 10 steps, check yes
  max neighbors/atom: 2000, page size: 100000
  master list distance cutoff = 3.8
  ghost atom cutoff = 3.8
  binsize = 1.9, bins = 8 8 8
  4 neighbor lists, perpetual/occasional/extra = 1 3 0
  (1) pair lj/cut, perpetual
      attributes: half, newton on
      pair build: half/bin/atomonly/newton
      stencil: half/bin/3d
      bin: standard
  (2) compute orientorder/atom, occasional
      attributes: full, newton on
      pair build: full/bin/atomonly
      stencil: full/bin/3d
      bin: standard
  (3) compute coord/atom, occasional
      attributes: full, newton on
      pair build: full/bin/atomonly
      stencil: full/bin/3d
      bin: standard
  (4) compute cluster/atom, occasional
      attributes: full, newton on
      pair build: full/bin/atomonly
      stencil: full/bin/3d
      bin: standard
Per MPI rank memory allocation (min/avg/max) = 9.833 | 9.836 | 9.840 Mbytes
Step Temp PotEng c_msd[4] v_twopoint v_fit v_max_n 
   12000    1.2720429   -7.0915813 9.8489284e-31 6.8395333e-33 8.3333333e+20            2 
   13000    1.2326653   -7.1396218   0.46812642 0.0030008103  0.038332072            1 
   14000    1.2402504   -7.1430306   0.88434217 0.0052639413  0.036023365            3 
   15000    1.2488943   -7.1530894    1.2567232 0.0069817952  0.033583746            1 
   16000     1.256079   -7.1299473    1.6891904 0.0087978663  0.033940882            1 
   17000    1.2838528   -7.1095754    2.0431502  0.010015442  0.033853394            1 
   18000    1.2642071   -7.1133152    2.4621185  0.011398696  0.033034526            1 
   19000    1.2140519   -7.1505341     2.831224  0.012417649  0.033111649            2 
   20000    1.2288003   -7.1871928    3.2735906  0.013639961  0.033205235            3 
   21000    1.2418611   -7.0981906    3.6619956  0.014531728   0.03319399            2 
   22000    1.2423844   -7.1885721    4.1144874  0.015585179  0.033432175            1 
   23000    1.2287713   -7.1258998    4.6232871   0.01675104  0.033883394            1 
   24000    1.2603909   -7.1761953      5.01149  0.017401007  0.034210578            3 
   25000    1.2218022   -7.1513236    5.3691228  0.017897076  0.034274345            2 
   26000    1.2600709   -7.1767655    5.7622291  0.018468683  0.034283797            1 
   27000    1.2575818   -7.1281597    6.1365789  0.018940058  0.034225912            3 
   28000    1.2598467   -7.1528599    6.4851444  0.019301025  0.034101526            1 
   29000     1.228132   -7.1639602    6.8800915  0.019770378  0.033947738            3 
   30000     1.258415   -7.1569429    7.3330809  0.020369669  0.033850357            1 
   31000    1.2418752   -7.1370173    7.7267635  0.020770869  0.033844573            2 
   32000     1.211641   -7.1771634    8.0247838  0.020897874  0.033698146            1 
   33000     1.231711   -7.1450611    8.5672975  0.021634589  0.033596018            1 
   34000    1.2574717   -7.1315448    9.0060224  0.022073584  0.033642104            1 
   35000    1.2480283   -7.1488406     9.317654   0.02218489  0.033649954            3 
   36000    1.2306029   -7.1728759    9.7717763  0.022619852  0.033612349            1 
   37000    1.2437122   -7.1027508    10.243367  0.023070646   0.03363707            2 
   38000     1.220797   -7.1523531    10.629592  0.023310508  0.033701886            2 
   39000    1.2399055   -7.1624955    11.139243    0.0238018  0.033794416            1 
   40000    1.2267521   -7.1797089    11.666861   0.02430596  0.033928983            2 
   41000    1.2240631   -7.1511694    12.054854  0.024501736  0.034055487            1 
   42000    1.2184308   -7.1651622     12.39129  0.024585892  0.034139187            2 
   43000    1.2349875   -7.1649945    12.719139  0.024649494  0.034168221            3 
   44000    1.2289089   -7.1614445    13.148351   0.02490218  0.034172949            1 
   45000    1.2184703   -7.1557381    13.570976  0.025131436  0.034181577            2 
   46000    1.2164895   -7.1505199    13.860328   0.02510929  0.034142468            4 
   47000    1.2387633   -7.1255242    14.392066  0.025517847  0.034126756            1 
   48000    1.2373118   -7.1886199    14.697966  0.025517302  0.034126879            1 
   49000     1.247315   -7.1093237    15.228219  0.025898331  0.034145694            1 
   50000    1.2415565   -7.2078168    15.642085  0.026070142   0.03417111            3 
   51000    1.2184441   -7.2110086    15.922211  0.026016684   0.03417832            1 
   52000    1.2487555   -7.1936046    16.200094  0.025961689  0.034131328            2 
   53000    1.2223327   -7.2093677    16.586221  0.026078963  0.034081145            1 
   54000    1.2209289   -7.1584311     16.97696  0.026199012  0.034031645            1 
   55000    1.2234679   -7.2114869    17.306908  0.026222588  0.033961653            1 
   56000    1.2208294   -7.1902584    17.745089  0.026406382  0.033894305            3 
   57000    1.2165668    -7.165057    18.134454  0.026512359  0.033837203            1 
   58000    1.2398689   -7.1563976    18.583388   0.02670027   0.03379876            1 
   59000    1.2465083   -7.1523663    18.928054   0.02673454  0.033764212            2 
   60000    1.2391918   -7.1763311    19.403261  0.026948974   0.03372649            2 
   61000    1.2297657   -7.2318097     19.75705  0.026990506  0.033705787            4 
   62000     1.223247   -7.1964782    20.245912  0.027212247  0.033681898            1 
   63000    1.2155708   -7.1823467    20.549369  0.027181705  0.033650218            1 
   64000    1.2328799   -7.1662674    20.969369  0.027303865   0.03362558            3 
   65000    1.2375436   -7.1892567    21.418216  0.027459252  0.033611599            1 
   66000    1.2416862   -7.2068767    22.009285  0.027789501   0.03361486            1 
   67000    1.2466578   -7.1412407    22.397715  0.027857854  0.033624084            3 
   68000    1.2302652   -7.2034836     22.66459  0.027775232  0.033630237            2 
   69000    1.2173774   -7.1901681    23.044728  0.027831797  0.033635432            4 
   70000    1.2355164   -7.2084832    23.235019  0.027660737  0.033609402            3 
   71000    1.1969606   -7.1800548    23.747313  0.027872433  0.033576529            2 
   72000    1.2306392   -7.2149015    23.943877   0.02771282  0.033539506            2 
   73000    1.2152941   -7.2218139    24.280757  0.027717759  0.033499745            2 
   74000    1.2280757   -7.2217226    24.717085  0.027834555  0.033463609            1 
   75000    1.2107292   -7.1952667    25.221556  0.028023951  0.033431831            1 
   76000    1.2301897    -7.175349    25.761989  0.028247794  0.033414672            5 
   77000    1.2255115   -7.1912728    26.336649  0.028502867  0.033418353            3 
   78000    1.2225413   -7.2462492    26.661818  0.028484848  0.033430141            1 
   79000    1.2218247   -7.2035744    27.116702  0.028604116  0.033438774            2 
   80000    1.2254491   -7.2262389    27.309101  0.028446981  0.033433637            1 
   81000    1.2321519    -7.237994    27.728898  0.028527673  0.033422808            1 
   82000    1.2337718   -7.2130583    28.005093   0.02846046  0.033405566            2 
   83000     1.235621   -7.1754173    28.414232  0.028528345  0.033391745            2 
   84000    1.2280624   -7.2012771    28.981637  0.028751624  0.033383898            1 
   85000    1.2132649   -7.2231883    29.332095  0.028756955  0.033380611            2 
   86000    1.2397304   -7.2222093      29.6057  0.028687693  0.033365942            1 
   87000    1.2260937   -7.1815703     29.95739  0.028694818  0.033347721            7 
   88000    1.2122988   -7.2317283    30.213555  0.028611321  0.033320122            4 
   89000    1.2035423   -7.2537585    30.679016   0.02872567  0.033296928            2 
   90000    1.2003735    -7.192436    31.097611  0.028794084  0.033277537            3 
   91000    1.2264197   -7.1650141    31.472808  0.028821252  0.033255105            2 
   92000    1.2440591   -7.2133091    31.707095  0.028720194  0.033225651            3 
   93000    1.2223452   -7.2056279    31.844954  0.028534905  0.033192469            4 
   94000    1.2351874   -7.1802987    32.289702  0.028625622  0.033146148            2 
   95000    1.2078873   -7.2423667    32.762818  0.028739314  0.033107972            2 
   96000    1.2245488   -7.2430499    33.154549   0.02877999  0.033073981            2 
   97000    1.1998753   -7.2125738    33.271466  0.028583733  0.033035848            1 
   98000    1.2341204   -7.1999743    33.704908  0.028660636  0.032987248            1 
   99000    1.2131001   -7.1838371     34.29708  0.028869595  0.032949225            1 
  100000    1.2162271   -7.2435855    34.591953  0.028826627  0.032916177            2 
  101000    1.2177687   -7.2176199    34.946497  0.028833743  0.032884704            2 
  102000    1.2187223   -7.2038747    35.280479  0.028823921  0.032853816            1 
  103000    1.2259138   -7.2171214    35.848927  0.029003986   0.03282484            2 
  104000    1.2215539    -7.243164    35.872312   0.02874384  0.032791154            4 
  105000     1.261035   -7.2198978    36.368004  0.028863495  0.032757014            3 
  106000    1.2471348   -7.2142518    36.715092  0.028864066  0.032721246            1 
  107000    1.1958121    -7.231946    36.971482  0.028793989  0.032685842            2 
  108000     1.221786   -7.2418822    37.198828  0.028702799  0.032645109            2 
  109000    1.2104193   -7.2017348    37.597925  0.028744591  0.032605159            1 
  110000    1.2003564   -7.2551644    37.926451   0.02873216  0.032563796       -1e+20 
  111000    1.2078139   -7.2394272    38.313902   0.02876419  0.032523734            2 
  112000      1.21311   -7.2420746    38.853052  0.028908521  0.032489625            6 
  113000     1.229918   -7.2411655    39.450364  0.029093189   0.03246594            2 
  114000    1.2320527   -7.2460756    39.802269  0.029095225  0.032447857            3 
  115000    1.2104675   -7.2376863     40.31948  0.029217014  0.032430249            2 
  116000     1.200722   -7.2619331    40.572291  0.029146761  0.032407791            3 
  117000    1.2169193   -7.2375791     41.05652  0.029242535  0.032389535            6 
  118000    1.2101424   -7.2333816    41.234724  0.029120568   0.03237522            3 
  119000    1.1937003   -7.2691349    41.287771  0.028913005  0.032350638       -1e+20 
  120000    1.1934213   -7.2326833    41.749875  0.028992969  0.032323525            1 
  121000    1.2041769   -7.2214992    42.240828  0.029091479  0.032298906            1 
  122000    1.2102373   -7.2117065    42.548407  0.029063119  0.032275531            2 
  123000    1.1891252   -7.2564637    42.816984  0.029008797  0.032253873            1 
  124000    1.2142199   -7.2105871    43.544193   0.02926357  0.032230364            1 
  125000    1.2048585   -7.2432438    43.994066  0.029329377  0.032211241            3 
  126000    1.2010636   -7.2793854    44.090086  0.029160109  0.032191959            3 
  127000    1.1959996   -7.2439673    44.621685  0.029279321   0.03217633            2 
  128000    1.1837789   -7.2585655     44.74841   0.02913308  0.032162683            3 
  129000    1.1951052   -7.1939557    45.528986  0.029411489  0.032146555            1 
  130000    1.2108867   -7.2576301    45.505877  0.029170434  0.032130891            1 
  131000      1.20479    -7.269361    46.145098  0.029354388  0.032115195            5 
  132000    1.1740605   -7.2754865    46.447547  0.029322946  0.032102573            2 
  133000    1.2068161   -7.3137508    46.768784  0.029303749  0.032089152            3 
  134000    1.2028415   -7.2641775    47.272508  0.029398325  0.032078177            1 
  135000    1.2147917   -7.2073227    47.620192   0.02939518  0.032065206            1 
  136000    1.1881103   -7.2314183    47.833526  0.029309758  0.032048738            2 
  137000    1.2102228   -7.2558034    48.078707  0.029244955  0.032028397            2 
  138000     1.189294   -7.2879956    48.465584  0.029266657  0.032010604            1 
  139000    1.2054429   -7.2610703     48.97323  0.029360449  0.031995337            2 
  140000     1.192491   -7.2696586    49.251197  0.029316189  0.031979156            1 
  141000    1.2082122   -7.2568577    49.426534  0.029211899  0.031963207            1 
  142000    1.2082892   -7.2754446     50.21468  0.029468709  0.031949368            2 
  143000    1.1874768   -7.2675719    50.833737   0.02962339  0.031939493            1 
  144000    1.2083756   -7.2799842    51.144039  0.029597245  0.031932353            1 
  145000    1.1890265   -7.2472431    51.665397  0.029692757  0.031928289            1 
  146000    1.1771531   -7.2664909    51.862193  0.029601708  0.031924348            1 
  147000    1.1893653   -7.2458851    52.062547  0.029513915  0.031919058            2 
  148000    1.2009262   -7.2569935    52.482642  0.029551037  0.031907884            1 
  149000    1.1985357   -7.2850008     52.68989  0.029468619  0.031895283            1 
  150000    1.2109186   -7.2846341     52.92204  0.029401133  0.031877677            2 
  151000    1.1933234   -7.2715885    53.287854  0.029408308  0.031860026            1 
  152000    1.1782563   -7.3238034    53.588554  0.029379689  0.031844367            3 
  153000    1.1958371   -7.2896985    53.789741  0.029297245  0.031825437            1 
  154000    1.1897164      -7.3006    54.337062  0.029403172  0.031803106            1 
  155000    1.2039748   -7.3076909    54.265157  0.029174816  0.031783802            1 
  156000    1.1957515   -7.2600195    54.897541   0.02932561  0.031764303            2 
  157000    1.1873597   -7.3196777    55.029859  0.029209055  0.031739407            2 
  158000     1.178935   -7.2676352     55.26926  0.029150453   0.03171403            3 
  159000    1.2216555   -7.2681946    55.570886  0.029125202  0.031685476            3 
  160000    1.1948009   -7.2829488    56.113436  0.029225748  0.031660005            1 
  161000    1.2048342   -7.2435325     56.29517  0.029138287  0.031634245            2 
  162000      1.21998   -7.3022541    56.393245  0.029008871  0.031606034            1 
  163000    1.1863858   -7.2731117    56.811996  0.029044988  0.031576725            4 
  164000    1.1948003   -7.2997394    56.979963  0.028953233  0.031545454            1 
  165000       1.2051    -7.306651    57.399588  0.028989691   0.03151385            2 
  166000    1.2027338   -7.3008402    57.551529   0.02889133  0.031479727            2 
  167000    1.2100629   -7.2642222    58.112237  0.028998122   0.03144707            1 
  168000    1.1878363   -7.3057902    58.211738   0.02887487  0.031413802            1 
  169000    1.1925528   -7.2916015    58.341205  0.028767852  0.031379146            2 
  170000    1.1996907   -7.2765323    58.708004  0.028778433  0.031342208            2 
  171000    1.1911547   -7.3027039     58.89115  0.028699391  0.031303215            1 
  172000    1.1773122   -7.3126867    59.178962  0.028671977  0.031262828            1 
  173000    1.1932105   -7.2747369    59.610173  0.028713956  0.031225096            1 
  174000    1.1661146   -7.2882708    59.799607  0.028639658  0.031187109            2 
  175000    1.1848919   -7.3188887    59.946921  0.028546153  0.031146395            3 
  176000    1.1842177   -7.2860262    60.167131  0.028488225  0.031104996            1 
  177000    1.1884591   -7.2886901    60.467048  0.028468478  0.031062829            1 
  178000     1.184991   -7.3104168    60.682636  0.028409474  0.031019226            4 
  179000    1.1879722   -7.3147248     61.21113  0.028496801  0.030977907            1 
  180000    1.1715545   -7.2952971    61.347103  0.028401437  0.030937423            2 
  181000    1.1865598   -7.2517144    61.882453     0.028491  0.030898135            1 
  182000    1.2009848   -7.2835966     62.09114  0.028430009  0.030859167            2 
  183000    1.1988086    -7.277693    62.187894  0.028318713  0.030819936            1 
  184000    1.1876859    -7.279771    62.543495  0.028325858  0.030777577            2 
  185000    1.1690182   -7.2886139    62.899713  0.028333204  0.030735712            1 
  186000    1.1732207   -7.2938261    63.204404  0.028317385   0.03069397            2 
  187000    1.1963178   -7.3103077    63.527576  0.028309971  0.030655418            2 
  188000    1.1670913    -7.301378    63.686653  0.028229899  0.030617883            2 
  189000    1.2065084   -7.3035396    64.131674  0.028276752  0.030581912            1 
  190000    1.1810979    -7.274733     64.61542  0.028340096  0.030545395            1 
  191000    1.1835441   -7.3664892    64.891561    0.0283122  0.030507884            5 
  192000    1.2161087    -7.336407    65.048065  0.028232667  0.030471282            1 
  193000    1.1860855   -7.3059425    65.534532   0.02829643  0.030434797            1 
  194000    1.1693357   -7.2795278    66.138931  0.028410194  0.030401977            2 
  195000    1.1812211   -7.2981492    66.324161  0.028343658  0.030369134       -1e+20 
  196000     1.185929   -7.3019107    66.895603  0.028442008  0.030338122            2 
  197000    1.1933681   -7.2900671    67.211203  0.028431135  0.030308829            3 
  198000    1.1838705   -7.3054476     67.53055  0.028421949  0.030280713            3 
  199000    1.1708048   -7.3142936    67.985394  0.028469595  0.030254036            2 
  200000    1.1919932   -7.3246244    68.325857  0.028469107  0.030229759            2 
  201000    1.1807091   -7.3448282    68.747867  0.028502433  0.030205852            2 
  202000    1.1667049   -7.3094581     68.86473  0.028409542  0.030181171            1 
  203000    1.1977914   -7.3628255    68.969596  0.028312642  0.030157164            6 
  204000    1.1400257   -7.3051435    69.711989   0.02847712  0.030131019            2 
  205000     1.168921   -7.2997996    69.855459  0.028396528  0.030108316            2 
  206000    1.1517411   -7.3410426    70.171007   0.02838633  0.030085044            2 
  207000    1.1901705   -7.3468279    70.176865  0.028251556  0.030058678            2 
  208000    1.1644566   -7.3073143    70.762289  0.028350276  0.030033151            2 
  209000    1.2056051   -7.3693076    70.909105  0.028273168  0.030009499            2 
  210000    1.1833949   -7.3247413    71.405624  0.028335565  0.029985465            5 
  211000     1.164398    -7.349525    71.610769  0.028282294  0.029962063            1 
  212000    1.1873709   -7.3156878    72.044951  0.028319556  0.029939168            2 
  213000     1.151899   -7.3399996     72.55721  0.028387015  0.029917257            1 
  214000    1.1861449   -7.3503555    72.584073  0.028264826  0.029893276            3 
  215000    1.1582528   -7.3259764    72.932711  0.028268493  0.029869636            1 
  216000    1.1567246   -7.3275394    73.593949  0.028392727  0.029849084            1 
  217000    1.1641249   -7.3434739    74.060891  0.028441202  0.029830605            2 
  218000    1.1603861   -7.2979616    74.629818  0.028528218  0.029815063            2 
  219000    1.1831497   -7.3021493    75.217715  0.028621657  0.029800099            4 
  220000    1.1871125    -7.331889    75.316556  0.028528998  0.029785415            4 
  221000    1.1792777    -7.320893    75.777188    0.0285736  0.029772128            1 
  222000    1.1666078   -7.3537837    75.722053  0.028424194  0.029757215            2 
  223000    1.1677626   -7.3512397     76.46859  0.028575706  0.029741693            1 
  224000    1.1490199   -7.3171045    76.441226  0.028437956  0.029725841            2 
  225000    1.1541236   -7.3811841    76.594623  0.028368379  0.029709312            1 
  226000     1.176108   -7.3653787    76.722819  0.028290125  0.029690758            4 
  227000    1.1785251   -7.3650229     77.04564  0.028284009  0.029672484            3 
  228000    1.1770351   -7.3656084    76.950069  0.028125025  0.029652923            2 
  229000    1.1816157   -7.3378862    77.508145  0.028205293  0.029632862            1 
  230000    1.1534573   -7.3801037    77.808345  0.028191429  0.029611696            3 
  231000    1.1745232   -7.3196555    77.982438  0.028132193  0.029590691            1 
  232000    1.1437682   -7.3272084    78.115279  0.028058649  0.029569641            1 
  233000    1.1510139   -7.3807812    78.540268  0.028090224  0.029549387            2 
  234000      1.17808   -7.3357239     79.07794   0.02816166  0.029529093            2 
  235000    1.1660326   -7.3526102    79.586537  0.028222176  0.029510059            2 
  236000    1.1649761   -7.3185052    79.896951    0.0282122  0.029490859            2 
  237000    1.1619172   -7.3725651    80.234465  0.028211837   0.02947139            1 
  238000    1.1439719   -7.3626978    80.536573   0.02819908  0.029452029            1 
  239000    1.1926592   -7.3829768    80.648122  0.028119987  0.029433549            3 
  240000    1.1772651   -7.3522581    81.145394  0.028175484  0.029416216            1 
  241000    1.1543686   -7.3362226     81.68492  0.028245131  0.029400554            1 
  242000    1.1327592   -7.3408526    82.228292  0.028315528  0.029385562            2 
  243000     1.144621   -7.3912668    82.134462  0.028166825  0.029371373            1 
  244000    1.1704038   -7.3356294    82.813132  0.028283174  0.029356917            3 
  245000     1.172981   -7.3566342    83.167746  0.028288349  0.029343544            2 
  246000    1.1455968   -7.3819158    83.247686  0.028200435    0.0293297            2 
  247000    1.1366517   -7.4005969    83.318743  0.028110237  0.029313196            2 
  248000    1.1479566   -7.3767646    83.664981  0.028113233  0.029296102            1 
  249000    1.1654111   -7.3401299    84.351822  0.028230195  0.029279699            1 
  250000    1.1413107   -7.3403907      84.3968  0.028132266  0.029264571            1 
  251000     1.174517   -7.3867261    84.907809  0.028189844  0.029248904            2 
  252000    1.1536097   -7.3737057    85.024096  0.028116434  0.029234307            1 
  253000     1.189728   -7.3967515     85.32756  0.028105257  0.029220335            2 
  254000    1.1606875   -7.3686224    85.824352  0.028157596  0.029206021            2 
  255000    1.1803024   -7.3829271    86.278622  0.028195628  0.029192591            3 
  256000    1.1549496   -7.3867769    86.348192  0.028108135  0.029178483            3 
  257000    1.1419958   -7.3735418    86.289815  0.027979836  0.029162009            3 
  258000    1.1634309   -7.3577269    86.893144  0.028066261   0.02914632            2 
  259000    1.1725755   -7.4115747    86.816661  0.027933288  0.029129153            4 
  260000    1.1189025   -7.3850247    87.577246   0.02806963  0.029112688            2 
  261000    1.1647087   -7.3507882    87.781639  0.028027343  0.029096122            3 
  262000    1.1548622   -7.4117777    88.046361  0.028004568  0.029080379            3 
  263000    1.1572497    -7.422175    88.627342  0.028082174  0.029065335            2 
  264000    1.1312264    -7.389375    88.762065  0.028018328  0.029050237            4 
  265000    1.1373819   -7.3554091    88.825663  0.027932598  0.029033861            3 
  266000    1.1248561   -7.4088019    88.913764  0.027855189  0.029017466            1 
  267000    1.1812171   -7.3399423    89.693452  0.027994211  0.029001109            1 
  268000    1.1728601   -7.3488963    89.683142  0.027886549   0.02898479            1 
  269000    1.1845414   -7.3833111    89.763364  0.027807734  0.028967775            2 
  270000    1.1455354   -7.3448782    90.126847  0.027816928  0.028950698            1 
  271000    1.1633302   -7.4065175    90.571035  0.027850872   0.02893182            1 
  272000    1.1423438   -7.3409752     90.91306  0.027853266  0.028913541            3 
  273000     1.143899   -7.3471088    91.194844  0.027837254  0.028895437            1 
  274000    1.1318528   -7.4177894     91.07969  0.027700636  0.028876728            2 
  275000    1.1511618   -7.3927595    91.347664   0.02768111  0.028856106            3 
  276000    1.1512721   -7.4078544    91.631515   0.02766652  0.028835751            2 
  277000     1.115064   -7.3676461    91.866091  0.027637211  0.028816019            1 
  278000     1.141002    -7.373096    92.419558  0.027703704  0.028796205            2 
  279000    1.1470898   -7.4243887    92.488616  0.027625035  0.028777241            1 
  280000     1.155944   -7.4163742    92.713566  0.027593323  0.028757734            3 
  281000    1.1382992   -7.4365849     92.76546  0.027510516  0.028737885            2 
  282000    1.1575855    -7.438224    92.904362  0.027454008  0.028716035            3 
  283000     1.130676    -7.389301    93.259474  0.027461565  0.028693449            2 
  284000    1.1167285   -7.4015829    93.579437  0.027458755  0.028670298            3 
  285000    1.1352758    -7.389601    93.670795  0.027389121  0.028646685            2 
  286000    1.1327915   -7.3988184     93.89641  0.027359094  0.028622581            1 
  287000    1.1845169   -7.3976456    94.204843  0.027353322  0.028598878            4 
  288000    1.1527729   -7.4110144    94.476002  0.027336806  0.028575512            3 
  289000    1.1316986     -7.36168    94.877096  0.027357871  0.028552667            1 
  290000    1.1617332   -7.3945331    95.244097  0.027368993  0.028530463            2 
  291000     1.168332   -7.4144021    95.366602  0.027310023  0.028507532            2 
  292000    1.1457266   -7.4086866    95.560742  0.027271901  0.028485013            1 
  293000     1.140545   -7.3872657    95.949423  0.027289369  0.028461784            2 
  294000      1.12948   -7.4335598    96.154238  0.027254603  0.028437636            1 
  295000    1.1222102   -7.4003814    96.591131   0.02728563  0.028414083            1 
  296000    1.1210996   -7.4181569     96.32353  0.027118111  0.028390756            1 
  297000    1.0971089   -7.4549102    96.486119  0.027072424  0.028366402            1 
  298000    1.1335543   -7.4330076    96.882248  0.027092351  0.028341747            1 
  299000    1.1360496   -7.3988101    97.254973  0.027105622  0.028317013            1 
  300000    1.1018972   -7.4927672    97.206677  0.027001855   0.02829179            2 
  301000    1.1485519    -7.440762    97.681216  0.027043526  0.028267721            3 
  302000    1.1457047    -7.422242    97.876407  0.027007838  0.028242636            1 
  303000     1.126877   -7.3954738    98.253342  0.027022371  0.028217363            2 
  304000    1.1382419   -7.4455602     98.12664   0.02689875  0.028191528            3 
  305000    1.1136654    -7.380313    98.938575  0.027032398  0.028166769            3 
  306000    1.1215959   -7.4373785    99.133111  0.026997035   0.02814258            2 
  307000    1.1174573   -7.4427758    99.081663  0.026895131  0.028118336            1 
  308000    1.1128073   -7.4171294     99.42832  0.026901602  0.028095066            1 
  309000    1.1285319   -7.4553377    99.610576  0.026863694  0.028070979            1 
  310000     1.107874   -7.4405529    99.804666  0.026829211  0.028047624            4 
  311000    1.1117798   -7.4311556    100.08106  0.026817005  0.028024009            2 
  312000    1.1152966   -7.4272216    100.61796  0.026874456  0.027999137            2 
  313000    1.1283019   -7.4032002    100.51944  0.026762363  0.027974275            2 
  314000    1.1468909   -7.3923382    101.03942  0.026815133  0.027949803            1 
  315000    1.1219957   -7.4191381     101.4688  0.026843597  0.027926079            4 
  316000    1.1042124   -7.3666585    101.77187  0.026838572  0.027902855            2 
  317000    1.1436454   -7.4155614    101.85783  0.026776506  0.027878531            6 
  318000     1.134364   -7.4623494    102.14304  0.026767045  0.027854159            4 
  319000    1.1266612   -7.4734694    102.22348  0.026704148  0.027831504            2 
  320000    1.1426676   -7.4674794    102.44639  0.026678747  0.027808378            1 
  321000    1.1294309   -7.4655133    102.73275  0.026669977  0.027784354            1 
  322000     1.140026   -7.4503095    103.29282  0.026732096  0.027761485            2 
  323000    1.1392875   -7.4417497    103.90953  0.026808445  0.027739541            1 
  324000    1.1335503   -7.4506524    103.94177  0.026733993  0.027717978            2 
  325000     1.131711   -7.4461337    104.27433  0.026737008   0.02769677            1 
  326000    1.1486762   -7.4811348    104.26533  0.026652693  0.027676375            2 
  327000    1.1456678   -7.4033011    105.27091  0.026827448   0.02765667            2 
  328000    1.1453762   -7.4518914    104.94765  0.026663528  0.027636446            1 
  329000    1.1393763    -7.465961    105.34012  0.026681894  0.027616218            1 
  330000     1.127081   -7.4458113    106.09307  0.026791179  0.027597038            1 
  331000    1.1127798   -7.4620777    106.11684  0.026716223   0.02757732            4 
  332000    1.1328839   -7.4528091    106.21369  0.026660062  0.027558136            2 
  333000    1.1290207   -7.4443313    106.79019  0.026724273  0.027538542            2 
  334000    1.1150112   -7.4396387    107.31722  0.026775753   0.02751954            3 
  335000    1.1387074   -7.4367639    107.51185  0.026744241  0.027501296            3 
  336000    1.1061363   -7.4418565    107.76663  0.026727834  0.027483699            2 
  337000    1.1360904   -7.4360391    108.30872  0.026782571  0.027466686            2 
  338000    1.1358714   -7.4438586    108.54521   0.02676164  0.027449987            3 
  339000    1.1169001   -7.4596297    109.03303  0.026802613  0.027433276            1 
  340000     1.145427    -7.489185     108.9658  0.026707303  0.027415933            2 
  341000    1.1337439    -7.474069    108.81378  0.026591833  0.027398242            2 
  342000    1.1336859   -7.4212615    109.68835  0.026727182  0.027381077            3 
  343000    1.1165057   -7.4773018    109.53833   0.02661281  0.027363893            2 
  344000    1.1230293   -7.4380643    109.91493  0.026626679  0.027347025            1 
  345000    1.1372144   -7.4472254    110.01336  0.026573276  0.027330325            2 
  346000    1.1073941   -7.4651247    110.23622   0.02655015  0.027312184            2 
  347000    1.1087703   -7.4442796    110.20168   0.02646534   0.02729306            5 
  348000    1.1378029   -7.4606604    110.20645  0.026390432  0.027273748            2 
  349000    1.1246209   -7.4398103    110.70804  0.026434585  0.027254509            2 
  350000    1.1392901   -7.4679902     110.9583  0.026418642  0.027235704            2 
  351000     1.128586    -7.430476    111.65982   0.02650993  0.027215995            2 
  352000    1.1002842   -7.4693406    111.33293  0.026357228  0.027195591            2 
  353000    1.1172626   -7.4950341     110.9672  0.026196222  0.027174842            5 
  354000    1.1157426   -7.4359719    112.08925  0.026386358  0.027154551            5 
  355000    1.1209998   -7.4610979    112.05977   0.02630511  0.027133654            2 
  356000    1.1040066   -7.4699842    111.84418  0.026180754  0.027111834            2 
  357000    1.1358908   -7.4632959    112.53225  0.026268032  0.027089441            2 
  358000    1.1006901   -7.4754712    112.77161  0.026250374  0.027067823            2 
  359000    1.1412104   -7.4572197    112.88829  0.026204338  0.027046843            2 
  360000    1.1030688   -7.4533292    113.04418  0.026167635  0.027026738            2 
  361000    1.1002223   -7.4925173    113.30634  0.026155665  0.027006907            3 
  362000    1.1122914   -7.4329206     113.9489   0.02623133  0.026987196            1 
  363000    1.1313818   -7.4860779    114.12614  0.026199756  0.026967369            2 
  364000    1.0965788   -7.5232778    113.99295  0.026097287  0.026946869            2 
  365000    1.1323895   -7.4772093    114.52494  0.026147246  0.026926392            3 
  366000    1.1163481   -7.4576593    114.90379  0.026162066  0.026906132            3 
  367000    1.0886116   -7.5093601    114.33593  0.025961836  0.026886192            4 
  368000    1.1197276   -7.4734044    114.76782   0.02598909  0.026865979            3 
  369000    1.1001972   -7.5133014    115.10517  0.025994843  0.026845446            1 
  370000    1.1143753    -7.460091    115.50978  0.026015716  0.026824353            3 
  371000    1.1131933   -7.4919049    116.03708  0.026064035  0.026804052            2 
  372000    1.1008504   -7.4848264    116.35402  0.026064969  0.026784783            3 
  373000    1.1197328    -7.489274    116.40255  0.026005931  0.026765503            2 
  374000    1.1106777   -7.4748015     116.8685  0.026040218  0.026746229            2 
  375000    1.0987752   -7.5051283    117.40053  0.026089006  0.026726883            2 
  376000    1.1058874   -7.5267243    117.26934  0.025990544  0.026707925            2 
  377000    1.1070323   -7.5039157    117.73187  0.026023843  0.026688986            7 
  378000    1.1220913   -7.5407416    117.68623  0.025944936  0.026670291            3 
  379000    1.0851369   -7.4884878    118.36998  0.026026821  0.026651752            1 
  380000    1.1227903   -7.4991592    118.55257  0.025998371  0.026633234            4 
  381000    1.1074469    -7.492941     118.5919  0.025938735  0.026614978            2 
  382000     1.111201   -7.5007364    119.12892  0.025987984   0.02659676            2 
  383000    1.0885116     -7.52461    119.63955  0.026031234  0.026578827            1 
  384000    1.1211702   -7.4846067    119.38899  0.025909068  0.026561672            3 
  385000    1.0925186    -7.463336    120.21177  0.026019863  0.026544163            1 
  386000    1.0856787    -7.497332    120.38746  0.025990383  0.026527113            3 
  387000    1.1130823   -7.5514938    119.98733  0.025837064   0.02650935            4 
  388000    1.0903622   -7.5100452    120.65894  0.025914721  0.026491026            7 
  389000    1.1209121   -7.5511669    120.41736  0.025796349  0.026472249            4 
  390000    1.0984735   -7.5255915    120.73622  0.025798338   0.02645367            2 
  391000    1.1022215   -7.5456252    121.07285  0.025804104   0.02643544            2 
  392000    1.0927226   -7.5260815    121.87731  0.025909292   0.02641762            1 
  393000    1.0993913   -7.5437054    122.19421  0.025910562  0.026400324            5 
  394000    1.0683866   -7.5163638    122.58074  0.025926553  0.026383999            3 
  395000    1.0991854   -7.4972781    122.91873  0.025932221  0.026367531            2 
  396000    1.0916623   -7.5379453    122.85038  0.025852353  0.026351268            3 
  397000      1.09298   -7.5017125    122.79876  0.025776398  0.026334712            2 
  398000    1.0538014   -7.4549008    123.29577  0.025815698  0.026317772            2 
  399000    1.1055192   -7.4719057    123.53759  0.025801503  0.026300987            1 
  400000    1.0918851   -7.4895186     123.6556  0.025761584  0.026283604            4 
  401000     1.098601   -7.5373319    123.85681  0.025739154  0.026265882            2 
  402000    1.1227255   -7.5089558    123.83127  0.025669832  0.026248412            2 
  403000    1.0731697   -7.5279056    124.22367  0.025687277  0.026230197            3 
  404000    1.0912686   -7.5427605     124.4209  0.025664377  0.026212474            4 
  405000    1.0993841   -7.5451898    124.26982  0.025569921  0.026194397            2 
  406000    1.1010734   -7.5155021    124.87946  0.025632073  0.026176434            3 
  407000    1.0959889   -7.5631292    124.65431  0.025522996   0.02615777            2 
  408000     1.102998    -7.578843    124.71972    0.0254738  0.026138616            2 
  409000    1.0894561   -7.5159639    125.20867  0.025511139  0.026119711            2 
  410000    1.0769748   -7.5331832    125.43022  0.025493946  0.026101098            1 
  411000    1.1090465   -7.5284678    125.58559   0.02546342  0.026082447            1 
  412000    1.0959158    -7.543362    125.87785  0.025460731  0.026063818            1 
  413000    1.0916223    -7.564863    125.63321  0.025349719  0.026045213            4 
  414000    1.0869966   -7.5148445    126.65037  0.025493231  0.026026894            5 
  415000    1.0942439   -7.5325843    126.42707  0.025386963  0.026008617            3 
  416000    1.0628391   -7.5321258    126.53023    0.0253466   0.02599007            3 
  417000     1.098564   -7.5727006    126.69544  0.025318832  0.025971618            2 
  418000    1.0761251   -7.5204562    127.25839  0.025370493  0.025952945            1 
  419000     1.088597   -7.5519964    127.37841  0.025333813  0.025934247            2 
  420000    1.0785906   -7.5188687     127.4779  0.025293234  0.025915179            1 
  421000    1.0877967   -7.5123054    127.83292  0.025303428  0.025895893            3 
  422000    1.1113783   -7.5218534    127.99634  0.025275739  0.025876853            3 
  423000    1.0982531    -7.523746    128.59973  0.025334855  0.025858525            2 
  424000    1.0787336   -7.5606317    128.34606  0.025225248  0.025840184            1 
  425000     1.087952   -7.5542994    128.94094  0.025282538  0.025822195            4 
  426000    1.0849795    -7.552584    128.74355  0.025184575  0.025803491            1 
  427000    1.0838451    -7.565805    128.56862  0.025091455  0.025784606            2 
  428000    1.0543974   -7.4812211    129.58354  0.025230439  0.025765479            2 
  429000    1.0719742   -7.5555951    129.63598  0.025181813  0.025746147            2 
  430000    1.0745167    -7.538659    129.53021  0.025102754  0.025726342            3 
  431000     1.088543   -7.5683756     129.4438  0.025027804  0.025706819            2 
  432000     1.081213   -7.5351531    129.49586  0.024979911  0.025686798            2 
  433000    1.0720311   -7.5515117    129.92384  0.025004588  0.025667456            2 
  434000     1.080166   -7.5834928    130.34327   0.02502751  0.025648503            2 
  435000    1.0872133   -7.5577695    130.82426  0.025062119  0.025629472            3 
  436000    1.0587747   -7.5301552    131.50155  0.025134089  0.025611101            1 
  437000    1.0731364   -7.5309761     131.5584  0.025087414  0.025592695            1 
  438000    1.0883731   -7.5370485    131.53738  0.025026139  0.025574068            3 
  439000    1.0789134   -7.5614009    131.58819  0.024978775  0.025555499            1 
  440000    1.0826001   -7.5702708    131.57465  0.024919441  0.025537075            2 
  441000    1.0852802   -7.5682568     132.4106  0.025020899  0.025518485            4 
  442000    1.0810095   -7.5640512    132.67838  0.025014777  0.025500522            3 
  443000    1.0545972   -7.5674435    132.87164  0.024994665  0.025482504            2 
  444000    1.0658724   -7.5511164    133.45121  0.025047148  0.025465003            2 
  445000    1.0799428   -7.5409878    133.71509  0.025040279  0.025447634            3 
  446000    1.0909153   -7.5861439    133.69948  0.024981219  0.025430071            1 
  447000    1.0607558   -7.5836987    133.83943  0.024951422  0.025412278            3 
  448000    1.0686551   -7.5712124     133.8825  0.024903739  0.025394951            4 
  449000    1.0598648   -7.6043956    133.74457  0.024822674  0.025376968            1 
  450000    1.0835368   -7.5274981    134.44978  0.024898108  0.025358694            6 
  451000    1.0900721   -7.5331587    134.67757  0.024884991  0.025341177            1 
  452000    1.0819814   -7.5438475    134.83807  0.024859527  0.025324033            2 
  453000    1.0654733   -7.5003418    135.87626  0.024995633  0.025307003            3 
  454000    1.0570973   -7.5512481     135.9909  0.024961618  0.025290534            1 
  455000    1.1019399   -7.5658765    135.47559  0.024812379    0.0252736            1 
  456000    1.0802297   -7.5706537    135.69978  0.024798936  0.025257029            2 
  457000     1.073157   -7.5893071    135.94693  0.024789739  0.025239761            5 
  458000    1.0617326   -7.5908686    136.55163  0.024845639  0.025222693            2 
  459000    1.0944673   -7.5908679    136.73203  0.024824261   0.02520594            1 
  460000    1.0773833   -7.5603164    137.12168  0.024840884  0.025188728            2 
  461000    1.0822847   -7.5676519    136.64079   0.02470007    0.0251718            2 
  462000    1.0819281   -7.5790375    137.58791  0.024817444  0.025154709            4 
  463000     1.070351   -7.5473416    137.11474  0.024678678  0.025137426            4 
  464000    1.0691098   -7.6071668    137.12035  0.024626499   0.02511925            2 
  465000    1.0649513   -7.6350649    137.38119  0.024620284  0.025100999            2 
  466000    1.0815169   -7.5884925    137.72119  0.024628253  0.025082472            4 
  467000    1.0708918   -7.5914908    137.44954  0.024527041  0.025064433            1 
  468000    1.0760526   -7.6433432    137.02024   0.02439819  0.025045965            2 
  469000    1.0628963   -7.6497276    137.90144  0.024502743  0.025027487            2 
  470000    1.0518927   -7.6167203    138.26033  0.024514244  0.025008421            4 
  471000    1.0453683   -7.6350345    138.19735  0.024451053  0.024989667            1 
  472000     1.078531   -7.5863407    138.49036  0.024450982  0.024971092            1 
  473000    1.0624984   -7.6057548    138.88808  0.024469358  0.024952572            2 
  474000     1.093632   -7.5775953    139.44699  0.024515997  0.024934761            5 
  475000     1.049049   -7.5595276    139.60835  0.024492694  0.024916931            1 
  476000    1.0935311   -7.5683798     139.7003  0.024457336  0.024899529            4 
  477000    1.0483413   -7.5706128    140.42133  0.024532028  0.024882334            3 
  478000    1.0594276   -7.5930412     139.8377  0.024378958  0.024864488            2 
  479000    1.0735471   -7.6327744    140.41308  0.024428163  0.024846873            3 
  480000    1.0574387    -7.567199    140.55072  0.024401166  0.024829508            2 
  481000    1.0750347   -7.5969611    140.68729  0.024374097  0.024811758            5 
  482000    1.0645645   -7.6248376    140.89854  0.024360052  0.024793721            1 
  483000    1.0617741   -7.5819863    141.27521  0.024374605  0.024775477            1 
  484000    1.0681895   -7.6201865    141.39905  0.024345567   0.02475754            3 
  485000    1.0680956   -7.6265183    141.17164  0.024256295  0.024739283            2 
  486000    1.0375138   -7.5955894    141.91739  0.024334258  0.024721611            1 
  487000    1.0494867   -7.6087661    141.73326  0.024252782   0.02470369            1 
  488000    1.0673182    -7.607952    141.98903  0.024246761  0.024685518            3 
  489000    1.0508124   -7.6312096    142.03636  0.024205242  0.024667522            3 
  490000    1.0698404   -7.5771617    142.61994  0.024255092  0.024649315            2 
  491000    1.0561478   -7.5941594     142.5173  0.024188272   0.02463122            3 
  492000    1.0533264   -7.6288111    142.53057  0.024141356  0.024612328            2 
  493000    1.0593148   -7.6481615    142.11513  0.024022165  0.024593376            2 
  494000     1.058253   -7.6163952    142.71002   0.02407389  0.024574326            6 
  495000    1.0820128   -7.6252863    143.16555  0.024101945  0.024555324            2 
  496000    1.0469746   -7.6234831    143.01284  0.024027694  0.024536413            4 
  497000     1.034706   -7.5836413    143.38658  0.024042016  0.024517697            2 
  498000    1.0438792   -7.6107986    144.05373  0.024105376  0.024499428            5 
  499000    1.0676663   -7.6319204     143.4479  0.023955894  0.024481036            3 
  500000    1.0647561   -7.6370233    143.73831  0.023956386  0.024462656            1 
  501000    1.0598684   -7.6279374    144.37752   0.02401489  0.024444557            1 
  502000    1.0805136   -7.6240787    144.50644  0.023988452  0.024426369            2 
  503000    1.0379394   -7.6403099    145.15047  0.024047461  0.024408561            1 
  504000    1.0528243    -7.654394    145.33045  0.024029505  0.024391124            4 
  505000    1.0683114   -7.6201272    145.46662  0.024004392  0.024373599            1 
  506000    1.0238316   -7.6229381    145.63238  0.023984252  0.024355733            2 
  507000    1.0423411   -7.5887345    145.54487  0.023922562  0.024338184            2 
  508000    1.0487507   -7.6305205    145.77301  0.023912896  0.024320888            2 
  509000    1.0580806   -7.6657034    145.79427  0.023869396  0.024303441            5 
  510000    1.0533601   -7.5974456    146.86237   0.02399712  0.024286364            3 
  511000    1.0193433   -7.6460048    146.52483  0.023895113  0.024269079            1 
  512000    1.0462153   -7.6506152    146.51971  0.023847609  0.024251253            2 
  513000    1.0500588   -7.6149558    146.99883  0.023878952  0.024233853            3 
  514000    1.0552408   -7.6171519    147.40798  0.023898829  0.024216576            2 
  515000    1.0613784   -7.6414966     147.3342  0.023840485  0.024198919            3 
  516000    1.0448199   -7.6401953    147.54196  0.023827835  0.024181646            1 
  517000    1.0422548   -7.6368162    147.59913  0.023790963  0.024164432            2 
  518000     1.072184   -7.6345837    147.53178  0.023734199  0.024147113            2 
  519000    1.0572892   -7.6315829    148.19091  0.023794301  0.024129764            2 
  520000    1.0604103   -7.6765929    148.14417  0.023741053  0.024112136            2 
  521000    1.0218099   -7.6531705    147.97113  0.023667806  0.024094674            2 
  522000    1.0354201   -7.6312423    148.50552  0.023707777  0.024076813            6 
  523000    1.0395629   -7.6478024    148.54677   0.02366902  0.024058897            1 
  524000    1.0419825   -7.6278605    148.85409  0.023672724  0.024040891            3 
  525000    1.0355675   -7.6669585    148.77137  0.023614504  0.024023062            2 
  526000    1.0268107   -7.6662931    149.12794    0.0236261  0.024005216            2 
  527000    1.0177804   -7.6036606    149.31314  0.023610554  0.023987014            4 
  528000    1.0341924   -7.6328133    149.39506  0.023578765  0.023969007            4 
  529000    1.0409587   -7.6858885    149.37478  0.023530999  0.023950962            2 
  530000    1.0255982   -7.6540358    149.72882  0.023542267  0.023932728            3 
  531000    1.0526416   -7.7013372    149.79301  0.023508005  0.023914837            2 
  532000    1.0395857   -7.6639885    149.84395  0.023471796  0.023897036            3 
  533000    1.0511932    -7.659459      149.772   0.02341651  0.023878734            2 
  534000    1.0413666    -7.634198    150.26382  0.023449411  0.023860698            3 
  535000    1.0384734   -7.6371366    150.73736  0.023479339  0.023842461            1 
  536000    1.0416306   -7.6606651    150.53285  0.023403739  0.023824578            4 
  537000     1.054156   -7.6807181    150.54501  0.023362043  0.023806422            3 
  538000    1.0239591   -7.6776935    150.61715  0.023329793   0.02378806            4 
  539000    1.0423612   -7.6693931    151.05003  0.023353438  0.023769512            1 
  540000    1.0387156   -7.6513215    151.31026  0.023350349  0.023750911            1 
  541000    1.0348465   -7.6775483    151.50337  0.023336933  0.023732225            5 
  542000    1.0510047   -7.6793714    151.49299   0.02329228  0.023713678            4 
  543000    1.0395248   -7.6299652    152.30615  0.023374179  0.023695311            1 
  544000    1.0329399   -7.6611176    152.03904  0.023290294   0.02367725            2 
  545000    1.0242362   -7.6647564    152.02249  0.023245029  0.023658686            3 
  546000    1.0317022   -7.6358335    152.37549  0.023256333  0.023640412            4 
  547000    1.0226998   -7.6663115    152.59158  0.023246737  0.023622244            2 
  548000    1.0522824    -7.706798    152.39141  0.023173877  0.023603835            3 
  549000    1.0453065   -7.7354316    152.03145  0.023077026  0.023585192            3 
  550000    1.0323211   -7.6603253    152.83744  0.023157188  0.023566475            5 
  551000    1.0247113   -7.6301874    153.39534  0.023199537  0.023547913            2 
  552000    1.0303013   -7.6557415    152.85128  0.023075374  0.023529383            4 
  553000    1.0365396   -7.6272113    153.65129  0.023154203  0.023511326            1 
  554000    1.0307253   -7.7087956    153.80599  0.023135678  0.023493087            4 
  555000    1.0364162   -7.7016136    153.61367  0.023065116  0.023474954            3 
  556000    1.0225447   -7.6765269      153.927  0.023070593  0.023457191            4 
  557000    1.0483015   -7.6913986    154.53959  0.023120824  0.023439446            5 
  558000    1.0435689    -7.642376    155.13933  0.023168956  0.023422186            2 
  559000    1.0380926   -7.6527805      154.747  0.023069022   0.02340451            3 
  560000    1.0167185   -7.6959213    154.74663  0.023027772  0.023386512            4 
  561000    1.0431981   -7.6854395    155.11545  0.023041511  0.023368588            2 
  562000     1.035893   -7.6970809    154.57926  0.022921006  0.023350341            2 
  563000    1.0230982   -7.6892906    155.28323  0.022984493  0.023332665            2 
  564000     1.027154   -7.6918256    155.78024  0.023017174  0.023315144            2 
  565000    1.0345392   -7.6572161      156.505  0.023083333  0.023297621            2 
  566000    1.0467843    -7.655475    156.56431  0.023051283  0.023280334            2 
  567000    1.0301494   -7.6779358    156.50621  0.023002089  0.023263115            3 
  568000    1.0467467   -7.6690756    157.06536  0.023043626  0.023246084            3 
  569000    1.0353834   -7.6702203    157.33655  0.023042846  0.023229129            2 
  570000    1.0060782    -7.706133    156.70034  0.022909406  0.023212355            2 
  571000    1.0435649   -7.7266614    157.10142  0.022927819  0.023195169            6 
  572000    1.0275051   -7.6794365    157.60509  0.022961115  0.023178288            2 
  573000    1.0416323   -7.6903033    157.76929  0.022944922  0.023161197            3 
  574000    1.0263458    -7.717335    157.97123  0.022934267  0.023144586            2 
  575000    1.0216136   -7.7278734    157.61151  0.022842248  0.023127362            1 
  576000    1.0349639   -7.6615885    158.23472  0.022892754  0.023110253            1 
  577000     1.034903   -7.7284102    157.74312   0.02278208  0.023092777            2 
  578000    1.0063914   -7.7044493    157.99669  0.022779222  0.023075619            9 
  579000    1.0270887   -7.7116015    158.65347  0.022834409  0.023058544            3 
  580000    1.0314481   -7.7637851    158.28445  0.022742019   0.02304118            2 
  581000    1.0087168   -7.7035471    158.85093  0.022784126  0.023023736            2 
  582000    1.0187578   -7.7320449     159.0059  0.022767167  0.023006642            4 
  583000    1.0001434   -7.7298716    158.58969  0.022668623  0.022989615            3 
  584000    1.0243282   -7.6662284    159.67213  0.022784266  0.022972496            4 
  585000    1.0073753   -7.7178846    159.51553   0.02272301  0.022955372            3 
  586000    1.0122961   -7.7501909    159.16306  0.022634109  0.022937851            5 
  587000    1.0099475   -7.6749078    160.09979  0.022728533  0.022920767            3 
  588000    1.0039083   -7.7065263    159.85775  0.022655577  0.022903422            4 
  589000    1.0287276   -7.6952381    160.20107  0.022665687  0.022886278            1 
  590000    1.0123961   -7.6928032    160.46028  0.022663881  0.022869182            2 
  591000     1.027025   -7.7012962    160.04564  0.022567066  0.022852261            4 
  592000    1.0193883   -7.7378175    160.19416  0.022549854  0.022835025            2 
  593000   0.99304692   -7.7324889    160.55996  0.022563233  0.022817669            1 
  594000    1.0290076   -7.7408459    160.70019   0.02254492  0.022800547            4 
  595000    1.0146294   -7.7327553    161.12189  0.022566091  0.022783729            3 
  596000    1.0151151   -7.6996898      161.562  0.022589765  0.022766785            2 
  597000    1.0360226   -7.7143122    161.42922  0.022533392  0.022750082            1 
  598000    1.0181929   -7.7550899    161.60734  0.022520533  0.022733533            2 
  599000    1.0194434   -7.7607739    161.39214  0.022452997  0.022717099            2 
  600000    1.0358954   -7.7239121    162.20691  0.022528737  0.022701071            1 
  601000   0.99146502   -7.7395501    162.76627  0.022568811  0.022685164            5 
  602000    1.0033786   -7.6939453    163.04271  0.022569589  0.022669384            2 
  603000    1.0248938    -7.741719    163.22648  0.022557557  0.022653689            2 
  604000    1.0284842    -7.703124    163.57977  0.022568953  0.022637803            3 
  605000    1.0355093   -7.7332014    163.59092  0.022533185  0.022622062            4 
  606000     1.001847   -7.7292941    163.83138  0.022529067  0.022606699            5 
  607000    1.0100861   -7.7483828    163.68081  0.022471281  0.022591469            3 
  608000    1.0332845   -7.7334225    164.04942  0.022484844  0.022575759            5 
  609000   0.97996837   -7.7383052    164.39614  0.022495367  0.022560045            1 
  610000   0.99482601    -7.754206    163.91921  0.022393335  0.022544334            2 
  611000    1.0036102   -7.7374614    164.73254  0.022467613  0.022528947            2 
  612000    1.0205427   -7.7441515    165.09594  0.022480384  0.022513759            3 
  613000    1.0016934    -7.743155    164.81449   0.02240545  0.022498453            3 
  614000    1.0069944   -7.7454863    165.43808  0.022453593  0.022482936            1 
  615000    1.0204114   -7.7646282    165.06124  0.022366022  0.022467121            3 
  616000    1.0092648   -7.7465647    165.48092  0.022386488  0.022451493            2 
  617000    1.0192891   -7.7528216    165.69216  0.022378736  0.022436067            2 
  618000    1.0052298   -7.7503648    165.84389  0.022362984  0.022420426            5 
  619000    1.0000163    -7.766691    165.43659  0.022272023  0.022404507            4 
  620000    1.0130619   -7.7518512     165.8779  0.022295416  0.022388563            4 
  621000    1.0293125   -7.7603074    165.83245  0.022253415  0.022373036            3 
  622000    1.0163326   -7.7311481    166.86335  0.022355754  0.022357751            3 
  623000    1.0076813   -7.7541858    166.47656  0.022268133   0.02234215            5 
  624000   0.99974655   -7.7467625    165.91105  0.022156924  0.022326395            4 
  625000    1.0246738    -7.741641    166.27981  0.022170641  0.022310472            2 
  626000    1.0106954   -7.7603684    166.78863  0.022202959  0.022294425            3 
  627000    1.0217358   -7.7394659    167.17638  0.022219083  0.022278834            2 
  628000    1.0103048   -7.7571758    167.15276  0.022180568  0.022263277            6 
  629000   0.99636845   -7.7585222    167.41195  0.022179644  0.022247627            1 
  630000   0.99954056   -7.7341335    167.58935  0.022167903   0.02223216            3 
  631000     1.002029   -7.7713257     167.6396  0.022139408  0.022216624            1 
  632000   0.99822275    -7.744955    167.78668  0.022123771  0.022201149            2 
  633000    1.0110019   -7.6968521    168.19632  0.022142748  0.022185697            3 
  634000   0.98310615   -7.7395521    167.78267  0.022053452  0.022169991            2 
  635000    1.0062279   -7.7504297    168.29347  0.022085757  0.022154042            2 
  636000   0.99103257   -7.7802638    168.17315  0.022035266   0.02213819            3 
  637000    1.0148123   -7.7524212    168.50421  0.022043983  0.022122313            3 
  638000    1.0039708   -7.7735406    168.73301  0.022039317  0.022106288            3 
  639000    0.9807757   -7.7877071    168.44962  0.021967869  0.022090228            5 
  640000   0.98960676   -7.7888193    168.75599  0.021973436  0.022074235            1 
  641000    1.0113997   -7.7485921     169.1662  0.021992485  0.022058659            2 
  642000   0.99241715   -7.7791011     169.2176  0.021964901  0.022042923            3 
  643000   0.98905961   -7.7824099    169.20883  0.021929605  0.022027283            3 
  644000    1.0056198   -7.7496663    169.40446  0.021920867  0.022011518            1 
  645000   0.97948195   -7.7768176    169.31596  0.021875447  0.021995752            2 
  646000   0.99431223   -7.7360738    169.89683  0.021916516  0.021979684            2 
  647000   0.99573445   -7.8246799     168.8534  0.021748248  0.021963498            3 
  648000   0.99123916   -7.8496425    168.95449  0.021727686  0.021946833            2 
  649000    1.0142017   -7.8314465    169.35066  0.021745077  0.021930503            5 
  650000   0.98798824   -7.7745119    169.78927  0.021767856  0.021914187            2 
  651000   0.99220575    -7.785845    170.35119  0.021806347  0.021897769            2 
  652000   0.97893996   -7.8105407    169.58317   0.02167474  0.021881436            3 
  653000    1.0064068   -7.7781182    169.97462  0.021691503  0.021865063            4 
  654000   0.97110527   -7.7811704    170.07235  0.021670789  0.021848692            1 
  655000    1.0042001   -7.8103663     170.0271  0.021631947  0.021831979            1 
  656000   0.99225892   -7.7784324     170.6618  0.021679599   0.02181554            6 
  657000   0.99225454   -7.7448834    170.37531  0.021610262   0.02179909            5 
  658000    0.9848804   -7.7974339    170.64804  0.021611961  0.021782554            2 
  659000   0.99411865    -7.760703    171.21919  0.021651389   0.02176615            4 
  660000   0.99805237   -7.7527238     171.9973  0.021716831  0.021749971            6 
  661000   0.98929554   -7.7808671    171.00404  0.021558754  0.021733725            2 
  662000    1.0033362   -7.8158129    171.08979  0.021536983  0.021717482            4 
  663000     0.974244   -7.7848695    171.15779  0.021513046  0.021701052            2 
  664000   0.98548649    -7.752666    171.65858  0.021543497  0.021684761            3 
  665000    1.0095103   -7.7858696     171.5652  0.021499399  0.021668175            2 
  666000    1.0042456   -7.8042083    171.88963  0.021507712  0.021651373            2 
  667000   0.98032556   -7.7627021    172.26324  0.021522144  0.021635182            3 
  668000   0.96937024   -7.7850271    172.33662  0.021499079  0.021618733            1 
  669000   0.98010293   -7.7823756    172.25147  0.021456337  0.021602092            2 
  670000    1.0129835    -7.786307    172.69881  0.021479951  0.021585648            2 
  671000   0.99589386   -7.8010175    172.77204  0.021457034  0.021569343            2 
  672000    0.9985728   -7.7966042    172.61553  0.021405696  0.021552783            1 
  673000   0.96112054   -7.7986054    172.54573  0.021365246  0.021536086            3 
  674000   0.99355864   -7.8200008     172.5264  0.021331157  0.021519538            3 
  675000   0.96364318   -7.8118311    172.83512  0.021337669  0.021502921            2 
  676000   0.98814549    -7.762733    173.42065  0.021378285  0.021486413            2 
  677000   0.97316363   -7.7972864    173.46428  0.021352078  0.021469915            3 
  678000   0.97896016   -7.8062029    172.96895  0.021259704  0.021453327            2 
  679000   0.98833725   -7.8325424    173.33899  0.021273808  0.021436673            5 
  680000   0.98521427   -7.8376311    173.07567  0.021210254  0.021419988            2 
  681000   0.97264627    -7.790052    173.41204   0.02122027  0.021403255            2 
  682000    0.9947639   -7.7701624    173.60508  0.021212742  0.021386689            4 
  683000   0.98158071   -7.8040487    173.33478  0.021148704  0.021369744            2 
  684000    1.0019711   -7.7924156     173.8432  0.021179727  0.021352828            9 
  685000   0.96490299   -7.8298028    173.89381  0.021154964  0.021335748            6 
  686000   0.97248703   -7.7892755    174.18711  0.021159756  0.021318992            2 
  687000   0.98083118   -7.8206023    174.02588  0.021109398  0.021302215            1 
  688000    0.9684958   -7.7921722    174.60749  0.021149163  0.021285477            3 
  689000   0.97414963   -7.8344417    173.70826  0.021009708  0.021268537            2 
  690000    1.0125478   -7.7577903      174.595  0.021086352  0.021251514            2 
  691000   0.98375978   -7.8082085    174.58546  0.021054687  0.021234543            3 
  692000   0.97293887   -7.8379535    174.44507  0.021007354  0.021217806            2 
  693000   0.98803042   -7.8274101    174.88191  0.021029571  0.021200806            2 
  694000   0.97346727    -7.840747    174.74225  0.020982498   0.02118383            2 
  695000   0.99256235   -7.8082735    175.50187   0.02104339  0.021167138            1 
  696000   0.97294758    -7.786262    175.95731  0.021067685  0.021150577            2 
  697000   0.98191022   -7.8238706    174.71901  0.020889408   0.02113382            4 
  698000   0.98118582   -7.8441182    175.63413  0.020968736  0.021116859            2 
  699000   0.96275509   -7.8078922     175.5069   0.02092357  0.021099814            2 
  700000   0.96645411   -7.8309954    175.40691  0.020881775  0.021082896            1 
  701000    0.9791806   -7.8460281    175.54107  0.020867935  0.021066199            5 
  702000    0.9885732   -7.8316305    176.14731  0.020910175  0.021049716            4 
  703000   0.99342794   -7.8102415    176.62692  0.020937283  0.021033237            3 
  704000   0.97070321   -7.8434879    176.14845  0.020850905  0.021016581            4 
  705000   0.96587479   -7.8279823    176.57506  0.020871757  0.021000044            6 
  706000   0.97287762   -7.8186011    176.53635  0.020837624  0.020983472            1 
  707000   0.96534664   -7.8524858    176.41091  0.020793365  0.020966869            2 
  708000   0.98015392   -7.8137975    176.54921  0.020780275  0.020950139            2 
  709000   0.96827016   -7.8077177    177.12017  0.020818073   0.02093355            3 
  710000   0.97213084   -7.8685415    176.30232  0.020692761   0.02091665            2 
  711000   0.97514083   -7.8661335    176.80097  0.020722101  0.020899831            1 
  712000   0.95965504   -7.8592852      177.125  0.020730923  0.020883085            1 
  713000   0.97161073   -7.8399591    177.07791  0.020696343   0.02086643            2 
  714000   0.95221169   -7.8430064    177.76568  0.020747628  0.020849896            3 
  715000   0.97691845   -7.8521622    177.74627  0.020716349  0.020833638            3 
  716000   0.95361556   -7.8678226    177.69597  0.020681561  0.020817104            2 
  717000   0.96920155   -7.8538323     177.9366  0.020680683  0.020800711            3 
  718000   0.97487394   -7.8399426    178.02064  0.020661634  0.020784394            3 
  719000   0.99321101   -7.8590441    177.75606  0.020602232  0.020768113            1 
  720000   0.94722326   -7.8475453    178.52052  0.020662097  0.020751742            4 
  721000   0.96781997   -7.8833158    177.95179  0.020567706   0.02073552            1 
  722000   0.97546161   -7.8745122    178.12868  0.020559636  0.020719143            2 
  723000   0.97887011   -7.8327545    179.20464  0.020655215  0.020702892            4 
  724000   0.94601953   -7.8619402    179.34369   0.02064269  0.020686416            2 
  725000   0.98000643   -7.8846853    178.78733  0.020550268  0.020669938            2 
  726000   0.96062695   -7.8829802     178.9102  0.020536066  0.020653662            3 
  727000    0.9636414   -7.8990236    178.78778  0.020493785  0.020637264            2 
  728000   0.94357639   -7.8663628     179.2907  0.020523203  0.020620901            3 
  729000   0.98523337   -7.8396336    180.00171  0.020576327  0.020604712            2 
  730000   0.97720587   -7.8690145    179.79391  0.020524419  0.020588758            1 
  731000   0.96426212    -7.834181    180.34193  0.020558816  0.020572816            7 
  732000   0.96518737   -7.8204129    180.70389  0.020571936  0.020557239            3 
  733000   0.94462733   -7.8477616    180.74575  0.020548629  0.020541511            3 
  734000   0.94064968   -7.8821302    180.14996  0.020452993  0.020525656            4 
  735000    0.9745979   -7.8514343    180.92181  0.020512677  0.020509944            5 
  736000   0.96135664   -7.8699654    181.06613  0.020501146  0.020494307            1 
  737000   0.96533224   -7.8661784    180.85431  0.020449379  0.020478563            3 
  738000   0.96065467   -7.8757833    181.13856  0.020453767  0.020462763            1 
  739000   0.95242946   -7.8555098     181.1505  0.020427436  0.020447166            2 
  740000   0.97958082   -7.8733579    181.36311  0.020423774  0.020431475            4 
  741000   0.94003874   -7.9051745    181.28932  0.020387913  0.020415813            3 
  742000   0.94981324   -7.8736106    181.87442  0.020426147  0.020400454            2 
  743000   0.94951236   -7.8778105    181.65515  0.020374063  0.020385135            2 
  744000   0.95349741   -7.8880245    181.95649  0.020380431  0.020369607            2 
  745000   0.96050265   -7.8580145    182.52693  0.020416883  0.020354335            2 
  746000   0.95070239   -7.8642357    182.08581  0.020340238  0.020339041            2 
  747000    0.9513683   -7.8920733    182.62127  0.020372743  0.020323513            3 
  748000   0.93903094   -7.9359889    181.63149  0.020235238  0.020308004            2 
  749000   0.96461451   -7.9069017    181.89625  0.020237679  0.020292434            4 
  750000   0.94942194    -7.934613    182.06872  0.020229858  0.020276772            5 
  751000   0.97053699   -7.8660875    182.69184  0.020272063  0.020261315            4 
  752000   0.94204244   -7.8905578    182.74249  0.020250719   0.02024577            1 
  753000   0.95363616   -7.8854249    182.82767  0.020233252  0.020230044            2 
  754000   0.94698108   -7.8877284    182.37962  0.020156899  0.020214189            2 
  755000   0.95095653   -7.9047498    182.99227  0.020197823  0.020198452            1 
  756000   0.94257502   -7.8843695    182.30563  0.020095418  0.020182723            2 
  757000   0.97272795   -7.9024324    182.81182  0.020124595   0.02016696            2 
  758000   0.96748389   -7.8947895    183.37281  0.020159719  0.020151176            2 
  759000   0.95144443    -7.905809    182.62682  0.020051254  0.020135259            2 
  760000   0.95142136    -7.903748    182.74252  0.020037557  0.020119329            1 
  761000   0.94594828   -7.9205598    183.24303  0.020066035  0.020103366            9 
  762000   0.95219124   -7.9363336    182.34215   0.01994118  0.020087367            6 
  763000   0.96056051   -7.9104985    182.96358  0.019982916   0.02007119            2 
  764000   0.92366385   -7.8979612     183.4532  0.020010166  0.020055097            3 
  765000   0.95949089   -7.8898142    183.16866  0.019953014  0.020039058            2 
  766000   0.93816215   -7.9320367    183.24699  0.019935486  0.020022768            3 
  767000   0.94279241   -7.9141829    182.97712  0.019880174  0.020006569            3 
  768000   0.95764478    -7.885559    183.64188   0.01992642  0.019990435            1 
  769000   0.93650336   -7.9047577    183.59823  0.019895777  0.019974596            5 
  770000   0.93785906   -7.8862651    184.04344  0.019918121  0.019958539            5 
  771000   0.96627854   -7.8874535    183.90922   0.01987778   0.01994259            2 
  772000   0.94978288     -7.89026    184.09781  0.019872389  0.019926587            5 
  773000   0.93528465   -7.8684225    184.49118  0.019889088  0.019910692            3 
  774000   0.95179391   -7.8998711    184.66055  0.019881627  0.019895029            1 
  775000   0.94726991   -7.9042761    184.78961   0.01986985  0.019879368            1 
  776000   0.94562152   -7.9000167    184.72558  0.019837369  0.019863555           10 
  777000   0.94381985   -7.9216124    184.32372  0.019768739  0.019847586           10 
  778000   0.96625681   -7.9285967     184.3578  0.019746979  0.019831509            2 
  779000   0.93260323   -7.9273965    184.77824  0.019766607  0.019815616            2 
  780000   0.92608341   -7.9802593    184.35143  0.019695665  0.019799582            1 
  781000   0.92972089   -7.9437293    184.69693  0.019707312  0.019783586            2 
  782000   0.94272113   -7.8881662    185.15867  0.019731316  0.019767697            5 
  783000   0.93583727   -7.9510487    185.01638  0.019690973   0.01975198            1 
  784000   0.92390506   -7.8981139    185.43762  0.019710632  0.019736279            7 
  785000   0.94766374   -7.9595787    185.19705  0.019659984  0.019720505            8 
  786000   0.94533179   -7.9244794    185.30227  0.019646127  0.019704709            7 
  787000   0.94713661   -7.9264923    186.00475  0.019695547  0.019689055            3 
  788000   0.92346122   -7.9302636    185.81371   0.01965035  0.019673292            1 
  789000   0.96733608   -7.9362349     185.7151  0.019615029  0.019657365            2 
  790000   0.93502464   -7.9723774    185.07744  0.019522937  0.019641583            2 
  791000   0.93734632   -7.9585824     185.7012  0.019563969  0.019625657            1 
  792000   0.94955489    -7.914131    186.62177  0.019636129  0.019609735            2 
  793000   0.92924736   -7.9573318    186.15893  0.019562729  0.019594003            6 
  794000   0.92004753   -7.9382153    186.58708  0.019583026   0.01957827            2 
  795000   0.93514952   -7.9014154    186.85268  0.019586234  0.019562549            1 
  796000   0.92950247   -7.9552687    186.67213  0.019542728  0.019546869            2 
  797000    0.9216952   -7.9460304    186.18761  0.019467546  0.019531125            2 
  798000   0.95008749   -7.9422001    186.83711  0.019510976  0.019515403            2 
  799000   0.94116513   -7.9631068    186.82749  0.019485554  0.019499506            2 
  800000   0.92225701   -7.9639911    186.99991  0.019479158  0.019483651            3 
  801000   0.94924568   -7.9528551    187.13631  0.019469029  0.019467862            4 
  802000   0.93489196   -7.9228946    187.19407  0.019450755   0.01945209            3 
  803000    0.9323405   -7.9103415    187.48572  0.019456799  0.019436516            1 
  804000   0.92246805   -7.9385945     187.6887  0.019453638   0.01942105            3 
  805000   0.90868542   -7.9180426     187.6154  0.019421884  0.019405621            3 
  806000   0.94267454   -7.9644348    187.57639  0.019393754  0.019390137            1 
  807000   0.92492574   -7.9049409    188.71235  0.019487025  0.019374838            4 
  808000   0.92884814   -7.9531381    187.95034  0.019384317  0.019359549            2 
  809000   0.91081388   -7.9312165    188.41388  0.019408105   0.01934433            2 
  810000   0.93783816    -7.965792    188.50071  0.019393077  0.019329076            3 
  811000   0.94384553   -7.9511013    188.49034  0.019368099  0.019313892            3 
  812000   0.90995685   -7.9634454    188.44372  0.019339462  0.019298704            1 
  813000   0.94037081    -7.956712    188.96208  0.019368807  0.019283456            3 
  814000   0.95061985   -7.9351118    189.38169   0.01938797  0.019268313            3 
  815000   0.93443183   -7.9612363     188.7659  0.019301217  0.019253174            1 
  816000   0.93622581   -7.9617298    188.67675  0.019268459  0.019237955            4 
  817000   0.91454589   -7.9844347    189.09392  0.019287425  0.019222634            6 
  818000   0.94232735   -7.9654071    189.45069  0.019300193  0.019207584            2 
  819000   0.90506429   -7.9414831    189.10685  0.019241641  0.019192434            4 
  820000   0.92513303   -7.9630269    189.20947  0.019228605  0.019177356            2 
  821000   0.93137491   -7.9245977    189.92408  0.019277718  0.019162213            4 
  822000    0.9358267    -7.982447    189.42473  0.019203643  0.019147057            2 
  823000   0.93929435   -7.9711835    189.40607   0.01917842  0.019131917            2 
  824000   0.91783799    -7.986718     189.6719  0.019182029  0.019116624            3 
  825000   0.94068711   -7.9543277    189.82608  0.019174352  0.019101331            3 
  826000   0.93896042   -7.9455651    189.73445  0.019141893  0.019086254            3 
  827000   0.91946697    -7.959753    189.97797  0.019143286  0.019071127            3 
  828000   0.92910031   -7.9625347    190.39971  0.019162612  0.019055914            4 
  829000   0.94491903   -7.9497676    190.32263  0.019131748  0.019041006            2 
  830000   0.94340037   -7.9269723    191.20786  0.019197576   0.01902597            2 
  831000   0.92889417   -7.9501615    190.29311  0.019082742  0.019010975            4 
  832000   0.92746987   -7.9983821    190.58553  0.019089096  0.018996039            3 
  833000   0.92297724    -7.963849    190.69577  0.019077208  0.018981037            4 
  834000   0.91338008   -7.9472523    190.94957  0.019079693  0.018966071            1 
  835000   0.91863689   -7.9342788    190.85955  0.019047859  0.018951342            3 
  836000   0.90646787    -8.024099    190.84097  0.019023222  0.018936357            7 
  837000   0.91924398   -8.0322352    190.60341  0.018976842  0.018921232            3 
  838000   0.91639883   -7.9410131    191.93631  0.019086745  0.018906327            2 
  839000   0.91280985    -7.965649    191.44768  0.019015463   0.01889158            6 
  840000    0.9193033   -7.9736427    191.66129  0.019014017  0.018876876            3 
  841000   0.90518519   -7.9799304     191.7643  0.019001615  0.018862326            6 
  842000   0.91687979   -7.9677207     192.1651  0.019018715  0.018847802            2 
  843000   0.90768752   -8.0165632     191.9276  0.018972677  0.018833184            5 
  844000   0.93088771   -8.0196312    191.83467  0.018941022  0.018818382            2 
  845000   0.90538371   -7.9767732    192.35033   0.01896946  0.018803748            2 
  846000    0.9281236   -7.9984241    191.73419  0.018886346  0.018789121            2 
  847000   0.90571909   -8.0016609     192.2062  0.018910488  0.018774467            2 
  848000   0.91450969   -7.9821303    192.45857  0.018912988  0.018759864            5 
  849000   0.91381276   -8.0009412    192.80284  0.018924503  0.018745437            4 
  850000    0.9195264   -7.9746527    192.50976  0.018873506  0.018730895            1 
  851000   0.93367075   -7.9800757    192.93071  0.018892549  0.018716341            1 
  852000   0.91974766   -8.0183419    192.56139  0.018834252  0.018701631            5 
  853000    0.9052005   -8.0073988    192.68795  0.018824536  0.018686945            4 
  854000   0.91978921   -7.9916793    192.71381  0.018805017  0.018672308            2 
  855000   0.92936204   -8.0269299    192.62623  0.018774486  0.018657681            2 
  856000   0.91259024   -7.9982839    192.80647    0.0187701  0.018643147            2 
  857000   0.92116113   -8.0398296    192.96571  0.018763683  0.018628528            6 
  858000   0.91806272    -8.014002    193.15413  0.018760114  0.018613946            2 
  859000   0.90380568   -8.0130188     193.6112  0.018782616   0.01859953            4 
  860000   0.89457579   -8.0206183    193.34877  0.018735346  0.018585092            9 
  861000   0.92357872   -8.0448345    193.21821   0.01870095  0.018570582            2 
  862000   0.90020217   -8.0367988    193.64083  0.018720111  0.018556038            4 
  863000   0.90584068   -7.9845179    193.89592  0.018723051  0.018541603            4 
  864000   0.91175715   -8.0307552    194.02098  0.018713443  0.018527281            5 
  865000    0.9171536   -8.0342087    193.80609  0.018671107  0.018512864           10 
  866000   0.90413466    -8.009122    193.75527  0.018644656   0.01849852            7 
  867000   0.91173973   -8.0241252    193.70631  0.018618446  0.018484044            7 
  868000   0.91790652   -7.9801658    194.56052  0.018679005  0.018469722            4 
  869000    0.8933034   -8.0129075    194.36417  0.018638682  0.018455376            7 
  870000   0.91382491   -8.0027112    194.29569  0.018610698  0.018441046            2 
  871000   0.88437476   -8.0314174    194.55769  0.018614398  0.018426712            5 
  872000   0.89039742   -8.0327664    194.46709  0.018584393  0.018412418            1 
  873000   0.92605191   -8.0332778    194.97673  0.018611753  0.018398211            3 
  874000   0.92254373   -8.0466717    194.81314  0.018574861  0.018383945            2 
  875000   0.89354275   -7.9972981     195.7331  0.018641247  0.018369923            6 
  876000   0.88006414   -8.0329254    195.47106   0.01859504  0.018355813            5 
  877000   0.91449718   -7.9982281    195.62895  0.018588839  0.018341797            2 
  878000   0.89875615   -8.0347674    195.19137  0.018526136  0.018327731            3 
  879000   0.90636073   -7.9802102    196.12652  0.018593716  0.018313776            4 
  880000   0.91276365   -7.9994784    195.85087  0.018546484  0.018299883            3 
  881000   0.90704466   -8.0219358    195.54474  0.018496476  0.018285798            2 
  882000   0.90445555   -7.9758162    196.44448  0.018560514  0.018272006            5 
  883000   0.89276834   -8.0363066    196.14558  0.018511285  0.018258168            1 
  884000   0.89713852   -8.0100976    196.09156  0.018485253  0.018244197            5 
  885000   0.90243418   -7.9908815    196.49944  0.018502772  0.018230451            1 
  886000   0.92952517   -8.0039986    196.53913  0.018485622  0.018216821            4 
  887000   0.90847225   -8.0471373    196.51908  0.018462897  0.018203241            2 
  888000   0.91607387   -8.0804238    196.59752  0.018449467  0.018189496            4 
  889000   0.88705987   -8.0537068    196.61307  0.018430172  0.018175678            2 
  890000   0.90273031   -8.0223047     196.7533  0.018422594  0.018161981            4 
  891000   0.88527663   -8.0357245    197.77394  0.018497375  0.018148298            3 
  892000   0.89372328   -8.0481926    197.05581  0.018409549  0.018134651            3 
  893000   0.90593985   -8.0195631    197.36798  0.018418065  0.018121125            5 
  894000   0.90729989   -8.0230847    197.58152  0.018417367  0.018107578            5 
  895000   0.90367446   -8.0192705    197.39962  0.018379852  0.018094066            6 
  896000   0.90940396   -8.0520806    197.59869  0.018377855  0.018080416            4 
  897000   0.89499471   -8.0370629    197.27524  0.018327317  0.018066829            2 
  898000   0.91291823   -8.0152691    197.63615    0.0183404  0.018053373            4 
  899000   0.90159413    -8.009783    198.16365  0.018368896  0.018039973            3 
  900000   0.89684208   -8.0599544    197.66024  0.018301874  0.018026505            6 
  901000   0.91208794   -8.0623077    197.83369  0.018297603  0.018013103            3 
  902000   0.89827377   -8.0132912    198.20007  0.018311167  0.017999727            1 
  903000   0.87377296   -8.0087079    198.34866  0.018304601  0.017986212            5 
  904000   0.87176608   -8.0634898     198.0324  0.018255199  0.017972854            2 
  905000   0.88263438   -8.0317892    199.14145   0.01833715  0.017959527            1 
  906000   0.88773852   -8.0979997    198.10362  0.018221451  0.017946113            2 
  907000   0.88364785   -8.0602929    198.55535  0.018242865  0.017932567            5 
  908000   0.88394991   -8.0773493    198.20209  0.018190353  0.017918938            3 
  909000    0.9010874   -8.0678229    197.97004  0.018149069  0.017905194            5 
  910000   0.88993401   -8.0925688    198.93113  0.018217136  0.017891548            5 
  911000   0.88908713   -8.0684952    198.77172  0.018182558  0.017877836            2 
  912000   0.89525321   -8.0675202    198.25738  0.018115623  0.017864188            3 
  913000   0.88825449   -8.0348179    199.04387  0.018167567  0.017850703            2 
  914000   0.88588528   -8.0703212    198.84196  0.018129282  0.017837277            3 
  915000   0.88127635    -8.091711    198.78034  0.018103856  0.017823686            2 
  916000   0.88836182   -8.0622015    199.11714  0.018114732  0.017810079            4 
  917000   0.87681095   -8.0833372    198.64356  0.018051941  0.017796434            3 
  918000   0.89561274   -8.1050227    198.67534  0.018035162  0.017782849            2 
  919000   0.90336885   -8.0548685    199.36633  0.018078194  0.017769389            4 
  920000   0.87458151   -8.0843634    198.93987  0.018019915  0.017756004            3 
  921000   0.88732853   -8.0435026    199.66629  0.018066077   0.01774262            3 
  922000   0.86910964   -8.0715893    199.83233  0.018061491  0.017729285            4 
  923000     0.888829   -8.0877536    199.42579  0.018005218  0.017715974            4 
  924000   0.90018528   -8.0833055    199.87174   0.01802595  0.017702575            5 
  925000    0.8821225   -8.1147293    199.46831  0.017970118  0.017689208            6 
  926000   0.88921482    -8.093661    199.97836  0.017996613  0.017675869            2 
  927000   0.87157129   -8.0859548    200.37483   0.01801284  0.017662582            4 
  928000   0.86811793    -8.093746    199.79367  0.017941242  0.017649117            2 
  929000   0.89642393   -8.0964177     199.8979   0.01793128  0.017635672            4 
  930000   0.88856598   -8.0723345     199.9297  0.017914847  0.017622341            2 
  931000   0.87549183   -8.1121035    199.98277  0.017900355  0.017608981            4 
  932000    0.8841447   -8.1269831    199.56232  0.017843555  0.017595618            2 
  933000    0.8817328   -8.1169956    200.07392  0.017870125  0.017582241            2 
  934000   0.87847336   -8.0690747    200.97858  0.017931708  0.017568929            2 
  935000   0.88047474   -8.1181897    199.97559  0.017823137  0.017555594            4 
  936000   0.87835564   -8.1170651    200.47735  0.017848767  0.017542352            3 
  937000   0.86835298   -8.0639245    201.23708  0.017897285  0.017529251            1 
  938000   0.88899162   -8.0409486     201.0029  0.017857401  0.017516246            3 
  939000   0.89145887   -8.0931164    201.39219  0.017872931  0.017503056            3 
  940000   0.86574296   -8.0929467    201.57983  0.017870552  0.017489823            3 
  941000   0.88444555   -8.1100126    201.08199  0.017807473  0.017476566            4 
  942000   0.87353018   -8.1107506     200.7827  0.017762093  0.017463159            2 
  943000    0.9001394   -8.1467345    200.91537  0.017754982  0.017449764            6 
  944000   0.89722799   -8.1390153     201.1844  0.017759923  0.017436436            2 
  945000   0.89003639   -8.1389743      201.481  0.017767284  0.017423137            1 
  946000   0.88324509   -8.0924591    201.55731  0.017755225  0.017409801            1 
  947000   0.84762432   -8.0868908     201.3024  0.017714044  0.017396482            3 
  948000   0.88092336   -8.1275593    201.45213  0.017708521  0.017383156            4 
  949000   0.86501199   -8.0746364    201.71706  0.017713124  0.017369817            1 
  950000   0.85958842    -8.113937    201.73464  0.017696021  0.017356503            2 
  951000   0.87320781   -8.1007411    201.85907  0.017688316  0.017343285            2 
  952000   0.89427752   -8.0915106    201.88312  0.017671842  0.017329984            3 
  953000   0.86600466   -8.0993801    201.64436   0.01763242   0.01731677            4 
  954000   0.85326445    -8.101061    201.31208  0.017584912  0.017303369            6 
  955000   0.86852916   -8.1025429    201.92832  0.017620272  0.017289964            2 
  956000   0.86941324   -8.1192476    201.39318  0.017555193  0.017276536            3 
  957000   0.87607914   -8.1255551    201.63038  0.017557504  0.017263059            3 
  958000   0.86928787    -8.117374    201.15786  0.017498074  0.017249581            5 
  959000   0.85197959    -8.104265    201.94144  0.017547918  0.017236064            3 
  960000   0.87520622   -8.1182019    201.87786   0.01752412  0.017222548            5 
  961000   0.85415455   -8.1118547    201.77643  0.017497089  0.017209086            1 
  962000    0.8717727   -8.0912415    202.09104  0.017506154  0.017195631            2 
  963000   0.85815262   -8.1085797      202.327  0.017508394  0.017182248            3 
  964000   0.85924888   -8.1299385    202.65028  0.017518178  0.017168892            5 
  965000   0.87269981   -8.1249037    202.41434  0.017479649  0.017155606            3 
  966000   0.86906052    -8.123731    202.58094  0.017475926  0.017142367            3 
  967000    0.8629183   -8.1335676    202.34176  0.017437242  0.017129059            7 
  968000   0.87289993   -8.1018349    202.92783  0.017469683  0.017115776           10 
  969000   0.86316388   -8.1551891    201.74666  0.017350074  0.017102447           10 
  970000   0.86899689   -8.1424235     202.4052  0.017388763  0.017089062            4 
  971000   0.86669744   -8.1694615    201.97729  0.017334131  0.017075658            6 
  972000   0.85454764   -8.1405616    202.33752  0.017347181  0.017062246            4 
  973000   0.86740643   -8.1504697    201.80603  0.017283833  0.017048607            4 
  974000   0.87014758   -8.1561461    202.35914   0.01731341  0.017035042            3 
  975000   0.86251879   -8.1444884    202.14458  0.017277315  0.017021547            2 
  976000   0.86091114   -8.1176447    202.71349  0.017308188  0.017007955            2 
  977000   0.86425409   -8.1105132    203.02425  0.017316978  0.016994515            4 
  978000   0.85947426   -8.1215906    202.51327  0.017255732  0.016981016            1 
  979000   0.86361975   -8.1306643    202.25757  0.017216341  0.016967496            6 
  980000   0.86931553   -8.0931053    202.77325  0.017242623  0.016954105            2 
  981000   0.85235067   -8.1080932    202.84239   0.01723092  0.016940688            3 
  982000   0.87986679   -8.1492149    202.55035   0.01718859  0.016927218            7 
  983000   0.86241102    -8.141295    203.01579  0.017210562  0.016913721            5 
  984000   0.86547071   -8.1156924    203.48941  0.017233182  0.016900284            3 
  985000   0.87429744   -8.1339002    202.73086  0.017151511  0.016886855            3 
  986000   0.85230655    -8.079793    204.04999  0.017245604  0.016873431            1 
  987000   0.84244023   -8.1441792    203.11855  0.017149489  0.016859896            3 
  988000   0.87682813   -8.1182287    203.42653  0.017158108   0.01684644            2 
  989000   0.86680323   -8.1529809    203.03098   0.01710743  0.016832932            8 
  990000   0.83859367   -8.1424243    202.88144  0.017077562  0.016819377            4 
  991000   0.85562785   -8.1243853     203.4665  0.017109527  0.016805829            3 
  992000   0.85339074   -8.1786998    203.24803  0.017073928  0.016792369            2 
  993000   0.84422507   -8.1594352    203.71473  0.017095899  0.016778973            2 
  994000   0.86795189   -8.1381497     203.8406  0.017089252  0.016765583            1 
  995000   0.85618908   -8.1888368    203.72467  0.017062367  0.016752228            3 
  996000   0.85714549   -8.1776042    204.18625  0.017083856  0.016738904            2 
  997000   0.85417028   -8.1811866    203.83416  0.017037292  0.016725661            4 
  998000   0.85341265   -8.1146003    204.37747  0.017065587  0.016712432            2 
  999000   0.84458608   -8.1435191     204.1599  0.017030355   0.01669933            3 
 1000000   0.85582091    -8.141853    204.54409  0.017045341  0.016686176            3 
 1001000   0.85552917   -8.1646839    204.19287  0.016999073  0.016672971            4 
 1002000   0.83720694   -8.1518453     204.6387  0.017019186  0.016659855            7 
 1003000   0.84404282   -8.1572762    204.78479  0.017014356  0.016646859            3 
 1004000   0.85877743   -8.1369487    205.15134  0.017027834  0.016633874            1 
 1005000    0.8651936   -8.1816256     204.6185  0.016966708  0.016620897            1 
 1006000   0.85862845   -8.1684903    204.84934  0.016968965  0.016607999            3 
 1007000    0.8859439   -8.1147145    205.37923  0.016995964  0.016595137            2 
 1008000   0.85309928   -8.1551305    205.38584   0.01697965   0.01658234            2 
 1009000   0.86385389   -8.1413348    205.87124  0.017002911  0.016569609            1 
 1010000   0.82442694   -8.1661516    205.31579  0.016940247  0.016556769            5 
 1011000    0.8540298   -8.1672302    205.13593  0.016908665  0.016543778            4 
 1012000   0.86211867   -8.1423627    205.17908   0.01689551  0.016530773            2 
 1013000   0.84955554   -8.2019074    205.28745  0.016887747  0.016517768            5 
 1014000   0.82419169   -8.1850272    205.16501   0.01686103  0.016504776            2 
 1015000   0.86814296   -8.1876029    205.23796  0.016850407  0.016491753            3 
 1016000   0.84591579   -8.1313213    205.62613   0.01686566  0.016478806            2 
 1017000   0.84649832   -8.1783177    204.89442   0.01678912  0.016465849            4 
 1018000   0.82426998   -8.1708527    205.55464  0.016826673   0.01645287            2 
 1019000   0.85239511   -8.1887462    204.85589  0.016753017  0.016439852            3 
 1020000     0.847969    -8.169394    205.49138  0.016788511  0.016426808            2 
 1021000    0.8596958    -8.184444    205.31358  0.016757556   0.01641373            4 
 1022000   0.84865992   -8.1901225    205.50268  0.016756579  0.016400573            6 
 1023000   0.82576813   -8.2028631    205.07788  0.016705595  0.016387455            3 
 1024000   0.82972156   -8.1784082    204.89878  0.016674706  0.016374292            3 
 1025000   0.85248517   -8.2100003    204.99323  0.016666116  0.016361149            3 
 1026000   0.83961896   -8.2149877     205.0967  0.016658277   0.01634797            3 
 1027000   0.82198848   -8.2068483    205.23231   0.01665306  0.016334825            5 
 1028000     0.849614   -8.1967495    205.76225  0.016679819  0.016321824            7 
 1029000   0.84737151   -8.2412874    205.13738  0.016613005  0.016308767            7 
 1030000   0.85025828   -8.2142022    205.80419  0.016650825  0.016295638            3 
 1031000    0.8540993    -8.228266    205.35518  0.016598382  0.016282515            3 
 1032000   0.85081211   -8.2229537     205.7426  0.016613582  0.016269392            2 
 1033000   0.82966131    -8.205739    205.45899   0.01657462  0.016256191            3 
 1034000   0.82526454    -8.200917    205.32689  0.016547944  0.016243024            3 
 1035000   0.83167726   -8.2021008    205.53797  0.016548951  0.016229889            3 
 1036000   0.81795608    -8.171178    206.02306  0.016571996  0.016216789            3 
 1037000   0.84351729   -8.2099231    205.87007  0.016543721  0.016203669            4 
 1038000   0.83336558   -8.2018191    205.81102  0.016523043  0.016190495            5 
 1039000   0.84806098   -8.2055879    205.73423  0.016500981  0.016177346            4 
 1040000   0.83110571   -8.2012643    205.64386  0.016477873  0.016164285            5 
 1041000   0.83807099   -8.2218113    205.70976   0.01646732  0.016151059            3 
 1042000   0.82867647   -8.2260174    205.58139   0.01644125  0.016137923            6 
 1043000   0.82651506   -8.2330956    206.37925  0.016489234  0.016124833            5 
 1044000   0.84411804   -8.2230749    205.99407  0.016442694  0.016111757            3 
 1045000   0.83168669    -8.209325    206.17072  0.016441046  0.016098705            3 
 1046000   0.84071881   -8.1892201    206.14918  0.016423612  0.016085721            8 
 1047000   0.84762273   -8.2084638    206.45809  0.016432513  0.016072684            5 
 1048000   0.83994919   -8.2401275    206.14677  0.016392078  0.016059651            4 
 1049000   0.85724894   -8.2600957    206.13854  0.016375797  0.016046546            2 
 1050000   0.83586546   -8.2561832    205.92641  0.016343366  0.016033464            6 
 1051000   0.84418958   -8.2272655    206.06962  0.016339171  0.016020346            6 
 1052000   0.82678761    -8.245766    206.12604  0.016328109  0.016007258            5 
 1053000   0.83208168   -8.2309709    206.69178  0.016357374  0.015994254            3 
 1054000   0.83151809   -8.2392368    206.32084  0.016312527  0.015981264            2 
 1055000   0.82851772   -8.2084848    207.15488  0.016362944  0.015968252            4 
 1056000   0.81665835   -8.2502944    206.22795  0.016274301  0.015955203            4 
 1057000   0.82776306   -8.2418659    206.58269  0.016286873   0.01594211            7 
 1058000   0.83980457   -8.2150836    206.96641  0.016301702  0.015929107            4 
 1059000   0.81489068   -8.2018692     206.5075  0.016250196  0.015916135            1 
 1060000   0.83099327   -8.2212768    206.69616  0.016249698  0.015903182            3 
 1061000   0.82695763   -8.1895259    206.85574  0.016246916   0.01589023            4 
 1062000   0.83585855   -8.2113133     206.4541  0.016200102  0.015877303            4 
 1063000   0.83003454   -8.2398607    206.92337   0.01622165  0.015864431            2 
 1064000   0.84785533    -8.248408    207.56142  0.016256377  0.015851564            1 
 1065000   0.83633634   -8.2253851    207.06161  0.016202004  0.015838703            4 
 1066000   0.82987629   -8.2293677    207.20672  0.016198149  0.015825794            6 
 1067000   0.83764433    -8.235476    207.40499  0.016198453  0.015812896            4 
 1068000   0.83197276   -8.2063498    207.77819  0.016212405  0.015800095            3 
 1069000   0.83358326   -8.2316476    207.86047  0.016203654   0.01578733            3 
 1070000   0.83213548   -8.2491196    207.38726  0.016151656  0.015774601            1 
 1071000   0.82646183   -8.2451821    207.56869  0.016150691  0.015761855            2 
 1072000   0.82748101   -8.2125126    207.39729  0.016122302  0.015749145            2 
 1073000   0.82179313    -8.214536    207.44007  0.016110599  0.015736442            3 
 1074000   0.81938226   -8.2273301    208.18937  0.016153737  0.015723831            3 
 1075000   0.82596434   -8.2398097    208.09977  0.016131765  0.015711168            4 
 1076000   0.82246052    -8.249364    207.90698  0.016101842  0.015698493            2 
 1077000   0.81714185   -8.2380494     207.6201  0.016064694   0.01568583            4 
 1078000   0.82095618   -8.2574681    207.98869  0.016078285  0.015673171            4 
 1079000   0.82924516   -8.2562546    208.24259  0.016082993  0.015660499            2 
 1080000   0.82034093   -8.2693898    207.60805  0.016019139  0.015647755            3 
 1081000   0.83233975   -8.2567184    207.82734  0.016021226  0.015634984            4 
 1082000   0.81125248   -8.2779293    207.57634  0.015987087  0.015622176            4 
 1083000   0.81487416   -8.2390247    208.69974  0.016058767  0.015609464            5 
 1084000   0.82964558   -8.2863641    207.57093  0.015957174  0.015596818            2 
 1085000   0.83924875   -8.2626904     207.9371  0.015970591  0.015584175            6 
 1086000    0.8150443   -8.2687318    208.51168  0.015999976  0.015571609            5 
 1087000    0.8150905   -8.2889022    207.97052  0.015943769  0.015559002            7 
 1088000   0.80203541   -8.2899951    208.64305  0.015980626   0.01554638            6 
 1089000   0.80896881   -8.2746847    207.97334  0.015914703   0.01553372            9 
 1090000   0.83713618   -8.2788103    208.11699  0.015911085  0.015521001            3 
 1091000   0.81222234   -8.2721094    208.72578  0.015943002  0.015508439            4 
 1092000   0.82110535   -8.2922642    209.02655  0.015951354  0.015495945            4 
 1093000   0.82958037   -8.2621907    208.70276  0.015912074  0.015483406            2 
 1094000   0.82294657   -8.2747725    209.15362  0.015931872  0.015470965            4 
 1095000   0.81943111   -8.2769492     208.8982  0.015897885  0.015458466            7 
 1096000   0.82171897   -8.2901741    208.66263  0.015865468  0.015445981            3 
 1097000    0.8199331   -8.2748183    208.70688  0.015854367  0.015433473            4 
 1098000   0.81680151   -8.2869967    208.49471  0.015823825   0.01542098            6 
 1099000   0.80248783    -8.290499    208.55891  0.015814294  0.015408416            3 
 1100000   0.82138683    -8.285548    208.54538  0.015798892  0.015395764            5 
 1101000   0.81228144   -8.2982034    208.82741  0.015805889  0.015383107            2 
 1102000   0.82656306   -8.2632924     208.8525  0.015793444  0.015370496            4 
 1103000   0.80337337   -8.3389567    208.45555  0.015749135  0.015357942            6 
 1104000   0.82706248   -8.2821866    208.71293  0.015754298  0.015345286            6 
 1105000   0.82072955   -8.2971429    209.28715  0.015783345  0.015332707            4 
 1106000   0.81112839   -8.3296024    208.20474  0.015687518   0.01532007           10 
 1107000    0.8173643    -8.298903    208.66986   0.01570836  0.015307433            3 
 1108000   0.83017642   -8.3125265    209.20041  0.015734086  0.015294846            4 
 1109000   0.80891033   -8.3010821    209.08922  0.015711544  0.015282268           10 
 1110000   0.80868485   -8.3160207    208.58712  0.015659693  0.015269709           11 
 1111000   0.79849038    -8.301562    208.98968  0.015675794  0.015257162            4 
 1112000   0.82427939   -8.2781134    209.65966  0.015711905  0.015244671            4 
 1113000    0.8065541   -8.2898613    208.60766  0.015619022  0.015232163            3 
 1114000   0.80511746   -8.3037869    208.99047  0.015633638  0.015219672            3 
 1115000   0.79479529   -8.3283261    209.18843  0.015634412  0.015207137            3 
 1116000   0.79996679   -8.3244509    208.59928   0.01557641   0.01519464            2 
 1117000   0.81005922   -8.3029968    209.10741  0.015600374  0.015182144            1 
 1118000    0.8039175   -8.3297751    209.45984   0.01561269  0.015169638            5 
 1119000    0.8156157   -8.2908257    209.44818  0.015597868  0.015157122            9 
 1120000   0.80641232   -8.3076762    209.59895   0.01559516  0.015144681            2 
 1121000   0.80120747   -8.3124899    209.45354  0.015570438  0.015132251            4 
 1122000   0.80399205   -8.3145796    209.22333  0.015539463  0.015119864            2 
 1123000   0.82051273   -8.3094927     209.7527  0.015564908  0.015107524            3 
 1124000   0.81121357   -8.3114378    209.74749  0.015550674   0.01509515            4 
 1125000   0.81576517   -8.3211829    210.23493  0.015572958  0.015082785            2 
 1126000    0.7964028   -8.3621709    209.31284  0.015490885  0.015070403            7 
 1127000   0.82071661   -8.3279847    209.50098  0.015491052  0.015057964            4 
 1128000   0.78968055   -8.2838934     209.9672  0.015511762  0.015045587            6 
 1129000   0.80981043   -8.2884009    209.79808  0.015485539  0.015033322            3 
 1130000   0.81653111   -8.3029277    210.08332   0.01549287   0.01502107            4 
 1131000   0.80185997   -8.2969167    210.12613  0.015482326    0.0150089            4 
 1132000   0.81405635   -8.2900268    210.32955  0.015483624  0.014996674            3 
 1133000   0.80690638   -8.2994369     210.1828  0.015459164  0.014984497            3 
 1134000   0.81561805   -8.3388518    210.07613  0.015437693  0.014972337            5 
 1135000   0.80358676   -8.3462196    209.79105   0.01540316  0.014960087            4 
 1136000   0.79844492   -8.3139673     210.2176  0.015420892  0.014947867            9 
 1137000   0.78240281   -8.3000083    210.20145  0.015406145  0.014935539            4 
 1138000   0.79518268   -8.2945058    209.91829  0.015371872  0.014923322            8 
 1139000   0.78494369   -8.3217961     209.5751  0.015333267  0.014910995            4 
 1140000   0.79410278   -8.3035526    210.01729  0.015352141  0.014898643            2 
 1141000   0.78981707   -8.2953416    209.88094  0.015328728  0.014886308            3 
 1142000   0.78502545   -8.3468615    209.71784  0.015303404  0.014873878            5 
 1143000   0.80816497   -8.3117546     210.2242  0.015326932  0.014861448            5 
 1144000    0.7922886   -8.3121328    210.22042  0.015313259  0.014849053            2 
 1145000   0.80346568   -8.3280044    210.18293  0.015297157  0.014836678            2 
 1146000   0.78721964    -8.389359    210.04364   0.01527368  0.014824301            5 
 1147000   0.80993022   -8.3279792    209.95644  0.015254028  0.014811904            6 
 1148000   0.78828467   -8.3075417    210.01585  0.015245053  0.014799534            3 
 1149000   0.78486734   -8.3390961    209.86465  0.015220818  0.014787131            4 
 1150000   0.80335059   -8.3308791    209.52283  0.015182814  0.014774655            2 
 1151000   0.79139631   -8.3712146    209.71786  0.015183743  0.014762239            4 
 1152000   0.78261423   -8.3393625    210.44589  0.015223227  0.014749796            6 
 1153000   0.79455733   -8.3312312    209.89031  0.015169869  0.014737343            3 
 1154000   0.79933045   -8.3525325    210.25242  0.015182872  0.014724923            3 
 1155000   0.78484059   -8.3458298    209.35048  0.015104652  0.014712552            3 
 1156000   0.79390761   -8.3648001    209.94589  0.015134507  0.014700165           10 
 1157000   0.79908327   -8.3188563    210.01806  0.015126625  0.014687739            6 
 1158000    0.7788162   -8.3415375    210.07321  0.015117531  0.014675336            8 
 1159000   0.81321471    -8.330367    209.86875  0.015089787  0.014662931            7 
 1160000   0.77707292    -8.384874    209.54276  0.015053359  0.014650516            5 
 1161000   0.78699688   -8.3436382    210.27136   0.01509269  0.014638115            3 
 1162000   0.76363092   -8.3552498    209.88226  0.015051797  0.014625732            4 
 1163000   0.80316912    -8.341867    210.07438  0.015052621  0.014613348            3 
 1164000   0.77480028   -8.3580405    209.70672  0.015013368  0.014600993            3 
 1165000   0.77017636    -8.373072    209.66803  0.014997713  0.014588623            5 
 1166000   0.79461914   -8.3676102    209.98985  0.015007851    0.0145762            7 
 1167000   0.79209002   -8.3633272    210.18696  0.015009066  0.014563739            2 
 1168000   0.78725825   -8.3485088     210.1639   0.01499457  0.014551337            3 
 1169000   0.79585639   -8.3280566    210.37321  0.014996664  0.014538931            7 
 1170000   0.77954287   -8.3949198    209.76092  0.014940237  0.014526515            3 
 1171000   0.78384451    -8.334906    210.00998  0.014945202   0.01451413            5 
 1172000   0.77730677   -8.3635661    210.25251  0.014949695  0.014501778            2 
 1173000   0.77816104    -8.363224    210.06307  0.014923491  0.014489379            2 
 1174000   0.79265083   -8.3715867    210.08693  0.014912474  0.014477017            4 
 1175000   0.75999045    -8.398141    209.94379  0.014889631   0.01446468            3 
 1176000   0.76169109   -8.3804305     209.9444  0.014877012  0.014452269            2 
 1177000   0.78865708   -8.3811718    210.42957  0.014898724  0.014439918            6 
 1178000   0.79455661   -8.3900099    209.97273  0.014853759  0.014427581            8 
 1179000   0.78452077   -8.3982106    210.11689  0.014851349  0.014415253            2 
 1180000   0.76891241   -8.3998366    210.17587  0.014842929   0.01440288            5 
 1181000    0.7824406   -8.3762624    210.09048  0.014824335  0.014390564            4 
 1182000   0.78602066    -8.395445      210.052  0.014809081   0.01437828            4 
 1183000   0.78539777   -8.3837061    210.10241  0.014800114  0.014366007            8 
 1184000   0.77600825    -8.383681    210.25543  0.014798383  0.014353739            4 
 1185000   0.77429825    -8.425012    210.17527  0.014780258  0.014341471            5 
 1186000   0.77597499   -8.3823765    210.31286  0.014777463  0.014329163            3 
 1187000   0.80309555   -8.3899647    210.24873  0.014760512  0.014316829            4 
 1188000   0.77248378   -8.3860467    210.16782  0.014742412  0.014304558            2 
 1189000   0.77315123   -8.4092509    210.26302  0.014736685  0.014292296            4 
 1190000   0.78400453   -8.3872033    210.32319  0.014728515  0.014280033            5 
 1191000    0.7702618   -8.3836555    210.92285  0.014758106  0.014267803            4 
 1192000   0.76315293   -8.3916227    210.16852  0.014692989   0.01425556            5 
 1193000   0.77216683   -8.3804881    210.26914  0.014687702   0.01424332            3 
 1194000   0.79071335   -8.4011774    210.36892  0.014682365  0.014231108            6 
 1195000   0.77860538   -8.3820082    210.89267  0.014706602  0.014218901            3 
 1196000   0.76145428   -8.4168632    210.39804  0.014659841  0.014206704            3 
 1197000   0.78393001   -8.4150023    210.73488  0.014671044  0.014194499            4 
 1198000   0.79374558   -8.4098718    210.31086  0.014629303  0.014182301            2 
 1199000    0.7650941   -8.3829232    210.79142  0.014650502  0.014170096            3 
 1200000   0.77285129   -8.3831368    210.67044  0.014629892  0.014157937            4 
 1201000   0.77905967   -8.3860068     210.9783  0.014639072  0.014145811            2 
 1202000    0.7843878    -8.392244    210.40313  0.014587017  0.014133617            7 
 1203000   0.77813968   -8.3939997    210.66136  0.014592779   0.01412144            4 
 1204000   0.78115771   -8.3899372    210.65384  0.014580139  0.014109339           14 
 1205000   0.77296011    -8.400417    210.96936  0.014589859  0.014097199            7 
 1206000   0.78445676    -8.403722     210.6137  0.014553185  0.014085056            5 
 1207000   0.77238342   -8.3940359    210.43443  0.014528751  0.014072968            3 
 1208000   0.76883679    -8.400399    211.03313  0.014558025   0.01406088            8 
 1209000   0.78087563   -8.3912732    210.99995  0.014543696  0.014048865           12 
 1210000   0.76782946   -8.3778915    210.93482  0.014527191  0.014036858           15 
 1211000   0.78125621   -8.3605035    210.63281  0.014494413  0.014024882            9 
 1212000   0.75260449   -8.4280103    210.87521  0.014499121  0.014012873            6 
 1213000   0.76239572   -8.4152902    210.59519   0.01446793  0.014000833            8 
 1214000   0.76533433   -8.3871838    211.18415  0.014496441  0.013988813            2 
 1215000   0.76492419   -8.3953499    210.84664  0.014461361  0.013976773            5 
 1216000   0.76806698   -8.4271442    211.13517  0.014469241  0.013964754            7 
 1217000   0.77670936   -8.4105003    211.25688  0.014465686  0.013952766            7 
 1218000   0.76326032   -8.4134791    211.27873  0.014455304  0.013940827            6 
 1219000   0.75957905   -8.4074337    210.90848  0.014418135  0.013928921           18 
 1220000   0.77178386   -8.4029854    211.56709  0.014451304  0.013917063           13 
 1221000   0.76124563   -8.4227851    211.38068  0.014426746   0.01390517           14 
 1222000   0.74877648   -8.4388374    211.54464  0.014426121  0.013893235           10 
 1223000   0.77336277    -8.445833    211.47394  0.014409508  0.013881367            8 
 1224000   0.75081042   -8.4349424    211.43681  0.014395208  0.013869523            9 
 1225000   0.75528273   -8.4034635    211.45779  0.014384884  0.013857684           11 
 1226000   0.76146753   -8.4265669    211.63526  0.014385213  0.013845852           16 
 1227000   0.76644396    -8.415053     211.8069  0.014385147  0.013834013           21 
 1228000   0.75497586   -8.3971227    211.19944  0.014332209  0.013822233           13 
 1229000   0.78863377   -8.4473135    211.67408  0.014352731   0.01381046           16 
 1230000   0.78186735   -8.4283394    211.65115  0.014339509  0.013798716           36 
 1231000   0.76835473   -8.4265171     211.2859  0.014303134  0.013786967           11 
 1232000   0.77551054   -8.4428842    211.43871  0.014301861  0.013775223           24 
 1233000   0.76575865   -8.4476864    211.23262  0.014276333  0.013763432           16 
 1234000   0.74409821   -8.4254264    212.02178  0.014318056  0.013751686           12 
 1235000   0.74710386   -8.4365195    212.47592  0.014337107  0.013739942           32 
 1236000   0.74741218   -8.4398838    211.49603  0.014259441  0.013728172            6 
 1237000   0.76725412   -8.4450054    211.23821  0.014230545  0.013716356           21 
 1238000   0.74153531   -8.4759566    211.07493  0.014208059  0.013704498           24 
 1239000   0.75639734   -8.4840895    211.22358   0.01420659  0.013692687           17 
 1240000   0.76151292   -8.4673522    211.47714  0.014212174  0.013680874            9 
 1241000   0.74958992   -8.4656716     211.6755  0.014214041  0.013669117           11 
 1242000   0.73853335   -8.4873432    211.41994   0.01418545  0.013657362            8 
 1243000   0.74652345   -8.4535213    211.36318  0.014170232  0.013645575            6 
 1244000   0.75838794   -8.4596057    211.71598  0.014182474  0.013633864           13 
 1245000   0.75599068   -8.5040507     211.1245  0.014131492  0.013622118            9 
 1246000   0.75368719   -8.4616809    211.28952  0.014131188  0.013610382           16 
 1247000   0.76164965   -8.4425696    211.72542  0.014148985  0.013598668            4 
 1248000   0.76285087   -8.4679593    211.73502  0.014138289  0.013587042            3 
 1249000   0.75701844   -8.4566461     211.3445  0.014100914   0.01357537           17 
 1250000   0.75003076   -8.4992275    211.17047  0.014078031   0.01356371            3 
 1251000   0.74347477   -8.4436607    212.21856  0.014136595  0.013552044            7 
 1252000   0.73751051   -8.4656607    211.65445  0.014087756  0.013540389            6 
 1253000   0.74472126   -8.4266747    212.08619  0.014105227  0.013528782            6 
 1254000   0.76761759   -8.4714685    211.73162  0.014070416  0.013517203            2 
 1255000   0.74490248   -8.4812981    211.92937  0.014072335  0.013505603           10 
 1256000   0.75480706   -8.4813952    211.74027  0.014048585  0.013494047           12 
 1257000    0.7507636   -8.4695335    211.80252  0.014041535  0.013482506           10 
 1258000   0.77824581   -8.4784435    212.05007  0.014046772  0.013470985            8 
 1259000   0.75201238   -8.4503199    212.36246  0.014056292   0.01345948           12 
 1260000   0.74919898   -8.4544442    211.90143  0.014014645  0.013447986            9 
 1261000   0.75283721   -8.4462697     212.2425  0.014026071  0.013436499           14 
 1262000   0.74748318   -8.4751278    212.00349  0.013999174  0.013425006            6 
 1263000    0.7520577   -8.4690654    211.68457  0.013967047  0.013413553           14 
 1264000    0.7443743   -8.4440003    211.98287  0.013975664   0.01340209           32 
 1265000   0.72075432   -8.4743848    212.51444  0.013999634  0.013390668           21 
 1266000   0.74016657    -8.443985    212.68783  0.013999988   0.01337927           17 
 1267000   0.74705518     -8.41634    212.33368  0.013965646  0.013367868           30 
 1268000   0.74802907   -8.4554151     212.8992  0.013991798  0.013356571           33 
 1269000    0.7591733    -8.466741    212.64241  0.013963909  0.013345252           28 
 1270000    0.7506853   -8.4762564    212.56345  0.013947733  0.013333891           27 
 1271000   0.74782149   -8.4555198    212.32586  0.013921181  0.013322528           40 
 1272000   0.73815637   -8.4551793    212.60167  0.013928306  0.013311168           22 
 1273000   0.74509683   -8.4596021     212.9753  0.013941824  0.013299806           20 
 1274000   0.74025346   -8.4672008    212.52192  0.013901224  0.013288429           31 
 1275000   0.73280232   -8.4685951    212.31983  0.013877113    0.0132771           56 
 1276000   0.73928441   -8.4875126    212.57096  0.013882639  0.013265746           33 
 1277000   0.74252681   -8.4575334    212.21858  0.013848772  0.013254424           28 
 1278000   0.73676996   -8.4858482    212.36358   0.01384739   0.01324316           37 
 1279000   0.74365995   -8.4669096    212.61374  0.013852863  0.013231882           32 
 1280000   0.76101083     -8.46733    212.59109  0.013840566  0.013220623           38 
 1281000   0.75854771   -8.4672848    212.81599  0.013844391  0.013209364           26 
 1282000   0.72830985   -8.4674741    212.75261  0.013829473  0.013198055           29 
 1283000    0.7304047   -8.4633464    212.38318  0.013794699  0.013186769           20 
 1284000   0.75165101   -8.4784132    212.32407  0.013780119  0.013175509           48 
 1285000    0.7410351   -8.4494045    213.38026  0.013837889  0.013164261           43 
 1286000   0.74313633   -8.4815233    212.73227  0.013785139  0.013153019           40 
 1287000    0.7291329   -8.4881768    212.54214  0.013762117   0.01314176           50 
 1288000   0.72218991   -8.4965696    212.57679  0.013753675  0.013130499           53 
 1289000   0.73718456   -8.5029028    212.88096  0.013762669  0.013119234           14 
 1290000   0.73076964   -8.4810079     212.8853   0.01375228  0.013107998           44 
 1291000   0.73912267   -8.5034344    212.53105  0.013718762  0.013096774           65 
 1292000   0.74577165   -8.4975017    212.84101  0.013728135  0.013085543           45 
 1293000   0.73592993   -8.4993596    212.84962  0.013718073  0.013074288           46 
 1294000   0.73078733   -8.5241372    212.62243  0.013692841  0.013063056           37 
 1295000   0.73160605   -8.5211392    212.54752  0.013677447  0.013051793           35 
 1296000   0.73151165   -8.5072422    212.38249  0.013656282  0.013040519           29 
 1297000   0.73252592   -8.5179634     212.3354  0.013642727  0.013029234           31 
 1298000   0.74087436   -8.5180722     212.5872  0.013648382  0.013017969           41 
 1299000   0.73639198   -8.4974865     212.3079  0.013619958  0.013006742           36 
 1300000   0.73287248   -8.4804613    212.81838  0.013642204  0.012995492           48 
 1301000   0.73952731   -8.5255885    212.41595  0.013605941  0.012984281           35 
 1302000   0.74530729   -8.4959747    212.60596  0.013607652  0.012973054           53 
 1303000   0.74999047   -8.5215064    212.77111  0.013607771  0.012961844           56 
 1304000   0.73037495   -8.5499398    212.26098  0.013564735  0.012950625           34 
 1305000   0.73549901   -8.5284749    212.36868  0.013561218  0.012939413           48 
 1306000   0.73693637    -8.533436    212.20277  0.013540248  0.012928208           59 
 1307000   0.74341783   -8.5123558    212.42014  0.013543748  0.012917047           43 
 1308000   0.75822699   -8.5325312    212.39151  0.013531569  0.012905861           49 
 1309000   0.74963531   -8.5297628    211.88285   0.01348885   0.01289465           57 
 1310000   0.74864387    -8.555242    212.16259  0.013496348  0.012883429           47 
 1311000   0.72820511   -8.5267007     212.5794  0.013512548  0.012872212           50 
 1312000   0.74158105   -8.5408892    211.95303  0.013462463  0.012861012           34 
 1313000   0.74342733   -8.5446455    212.22315  0.013469355  0.012849797           45 
 1314000   0.72889992   -8.5152173    212.73143  0.013491339  0.012838606           48 
 1315000   0.72247807   -8.5429975     212.1257  0.013442694  0.012827429           39 
 1316000   0.73698251   -8.5353292    212.43144  0.013451839  0.012816213           37 
 1317000    0.7436547   -8.5428968    212.31554  0.013434291  0.012805012           56 
 1318000   0.72953635   -8.5244935    212.49885  0.013435689  0.012793848           47 
 1319000   0.72119133   -8.5163075    212.36008  0.013416735   0.01278266           35 
 1320000   0.72183477   -8.5519605    212.68581  0.013427134  0.012771493           39 
 1321000   0.72076537   -8.5279977    212.36588  0.013396788  0.012760375           54 
 1322000   0.72259748   -8.5547733    211.88497   0.01335634    0.0127492           47 
 1323000   0.73121652   -8.5583492    211.79765  0.013340744  0.012738044           73 
 1324000   0.72269197    -8.533709    212.41388  0.013369454   0.01272687           68 
 1325000   0.71416548   -8.5263457    212.60612  0.013371454  0.012715715           75 
 1326000   0.73560466   -8.5068958    212.12821  0.013331336  0.012704556           63 
 1327000   0.74389582   -8.5818725    212.13283  0.013321579  0.012693417           61 
 1328000   0.70986458   -8.5473647    212.54464   0.01333739  0.012682264           56 
 1329000   0.72785272   -8.5675614    212.06588  0.013297334  0.012671123           71 
 1330000   0.71686811   -8.5337581    211.95116  0.013280148  0.012659998           45 
 1331000   0.71435584   -8.5730255    212.26894  0.013290066  0.012648895           42 
 1332000   0.72822814     -8.55752    212.27145  0.013280246   0.01263777           53 
 1333000   0.72940208   -8.5463028    212.36514   0.01327614  0.012626686           41 
 1334000   0.72856658   -8.5347715    212.60976  0.013281469   0.01261561           63 
 1335000   0.70892061   -8.5582376    212.22345  0.013247406  0.012604519           58 
 1336000   0.70530915   -8.5626671    212.11456  0.013230699  0.012593467           51 
 1337000   0.72898568   -8.5530251    212.08215  0.013218783  0.012582402           53 
 1338000   0.73988653   -8.5474762    212.11375  0.013210871  0.012571343           51 
 1339000   0.71597678   -8.5583073    212.23504  0.013208554  0.012560294           60 
 1340000   0.72243336   -8.5735283    212.12316  0.013191739  0.012549279           60 
 1341000   0.72605774   -8.5446701    212.19314   0.01318625  0.012538234           81 
 1342000   0.72565469   -8.5401355     212.3875  0.013188494  0.012527209           72 
 1343000   0.72503692   -8.6052655    212.23483    0.0131692  0.012516202           82 
 1344000   0.72630333   -8.5709997    212.21742  0.013158322  0.012505162           76 
 1345000   0.72214114    -8.575358    211.84738  0.013125612  0.012494175           90 
 1346000   0.71673936    -8.567162    212.26686  0.013141831  0.012483159           70 
 1347000   0.72838736   -8.5615287    211.98469  0.013114618  0.012472155           81 
 1348000   0.71609089   -8.5776122    211.88705  0.013098853  0.012461139           72 
 1349000   0.71776666   -8.5791135    211.57366  0.013069784  0.012450111           70 
 1350000   0.71677494   -8.5834922    211.76084  0.013071657  0.012439111           81 
 1351000   0.70224028   -8.5623999    212.37361  0.013099778  0.012428098           73 
 1352000   0.70907778   -8.5652877    212.29017  0.013084946  0.012417135           90 
 1353000   0.71935208   -8.5843406    212.32841   0.01307763  0.012406178           94 
 1354000   0.71017136   -8.5715616    211.74351  0.013031974  0.012395247           80 
 1355000   0.71777234   -8.5983894      211.826  0.013027429  0.012384317           63 
 1356000    0.7146797   -8.5715038    211.75606  0.013013524  0.012373392           87 
 1357000   0.71803633   -8.5651528    212.61413  0.013056628  0.012362454           58 
 1358000   0.71484199    -8.590055    211.92266  0.013004582  0.012351485           82 
 1359000   0.71690854   -8.6074473    212.30378  0.013018382  0.012340539           77 
 1360000    0.7004003   -8.5945791     212.1133  0.012997139  0.012329596           73 
 1361000   0.70013949   -8.6092319    211.76265  0.012966119  0.012318653           89 
 1362000   0.68996218   -8.5941032    211.80581  0.012959239  0.012307727           49 
 1363000   0.72359234   -8.5727671     211.9018  0.012955601  0.012296804           58 
 1364000    0.7088605    -8.584405    212.56878  0.012986851  0.012285905           51 
 1365000   0.71809857   -8.5811297    212.68201   0.01298425  0.012274985           55 
 1366000   0.70653052   -8.5639617    211.97339  0.012931515  0.012264109           54 
 1367000   0.71256053   -8.6065417    212.30375  0.012942194  0.012253237           63 
 1368000   0.70006099   -8.6034961    211.88706   0.01290735  0.012242404           60 
 1369000   0.71087282   -8.5906212    212.47132  0.012933487  0.012231564           62 
 1370000     0.700966   -8.6058954    212.39853  0.012919619  0.012220749           60 
 1371000   0.71975209   -8.6055677    212.33645  0.012906421  0.012209936           50 
 1372000   0.69413193   -8.5893668    212.31277  0.012895577  0.012199103           69 
 1373000    0.7217868   -8.5721689    212.12715  0.012874918  0.012188311           50 
 1374000   0.69951795   -8.5809519    212.46119  0.012885808  0.012177512           52 
 1375000   0.69881619   -8.6057966    211.62068  0.012825496  0.012166699           66 
 1376000   0.69368902   -8.5917664     212.0138  0.012839983  0.012155889           57 
 1377000   0.70609492   -8.5913472    211.95582   0.01282715  0.012145105           54 
 1378000   0.70721022   -8.6038016    212.14872  0.012829506  0.012134363           71 
 1379000   0.72093081   -8.6089181    212.47968  0.012840203  0.012123605           54 
 1380000   0.70951337    -8.581789    211.94012  0.012798317  0.012112863           60 
 1381000   0.71796888   -8.6057279    212.02006  0.012793873  0.012102128           58 
 1382000   0.69879952   -8.6070032    212.06673   0.01278743  0.012091399           53 
 1383000   0.69955978   -8.5807927    212.48518  0.012803397  0.012080682           76 
 1384000   0.71178724   -8.5868814    211.82877  0.012754622  0.012069952           45 
 1385000   0.71057516   -8.5887813    212.29689  0.012773579  0.012059258           57 
 1386000   0.70977166   -8.6049063    212.05115  0.012749588  0.012048543           61 
 1387000   0.70027277   -8.6056026    212.37073  0.012759597  0.012037845           52 
 1388000   0.68646062   -8.6017783    211.65588  0.012707486   0.01202715           55 
 1389000   0.69473239   -8.5986743    211.98396   0.01271802  0.012016479           68 
 1390000   0.69713371    -8.582345    211.75574  0.012695188  0.012005817           51 
 1391000   0.70940806   -8.5965625    211.89641  0.012694489  0.011995164           64 
 1392000   0.71213504   -8.6003653    212.07819  0.012696252  0.011984498           83 
 1393000   0.70454042   -8.6169134    212.45242  0.012709525  0.011973856           72 
 1394000   0.70439243   -8.6330527    212.27167  0.012689602  0.011963211           57 
 1395000   0.68689112   -8.6243873    212.12978   0.01267203  0.011952581           51 
 1396000   0.68651738   -8.6010669    212.54939  0.012688001  0.011941976           44 
 1397000   0.68374212   -8.6035063    212.36994  0.012668214  0.011931365           46 
 1398000   0.69379555   -8.5846681    212.29406  0.012654629   0.01192078           72 
 1399000   0.69042777   -8.6256614    212.34328  0.012648516  0.011910155           64 
 1400000   0.68556427   -8.6288559    212.20764  0.012631407  0.011899554           69 
 1401000   0.70017012   -8.6054552    212.09727  0.012615826   0.01188897           61 
 1402000   0.69196432   -8.6012181     212.3511  0.012621915  0.011878392           43 
 1403000   0.69799912    -8.583079    212.41734  0.012616853  0.011867826           47 
 1404000   0.69953649   -8.6044917     212.3217   0.01260219  0.011857287           68 
 1405000   0.70974024   -8.6395976    211.73576  0.012558467  0.011846757           66 
 1406000   0.70055912   -8.6448503    212.27601  0.012581556  0.011836212           75 
 1407000   0.70031144   -8.6058037    212.35129  0.012577072  0.011825665           56 
 1408000   0.67502653   -8.5914709    212.29685  0.012564917  0.011815163           62 
 1409000   0.69055721   -8.5995216    212.27254  0.012554562  0.011804626           58 
 1410000   0.69054087   -8.6300876    211.98251  0.012528517  0.011794102           59 
 1411000   0.68181356   -8.6264137    211.58791  0.012496333  0.011783601           50 
 1412000   0.69838511   -8.6435773    211.44401   0.01247899  0.011773097           60 
 1413000   0.68633773   -8.6353924     211.7438  0.012487839  0.011762612           65 
 1414000   0.68369287   -8.6506031    212.17379  0.012504349  0.011752132           67 
 1415000   0.69358407    -8.648847    212.12047  0.012492372  0.011741673           51 
 1416000   0.68353273    -8.623402    212.30425  0.012494365  0.011731221           57 
 1417000    0.6828672   -8.6263459    212.40653  0.012491563  0.011720766           68 
 1418000   0.67840365   -8.6363476    212.33226  0.012478389   0.01171033           56 
 1419000   0.68399773   -8.6282706    212.15615  0.012459253  0.011699893           54 
 1420000   0.68096158    -8.654391    212.34611  0.012461626  0.011689486           53 
 1421000   0.67074088    -8.632781    212.37773  0.012454711  0.011679065           65 
 1422000   0.67163821   -8.6523846    211.92069  0.012419169  0.011668648           59 
 1423000     0.678748   -8.6638448    211.77116  0.012401684  0.011658247           67 
 1424000   0.67612739   -8.6632396    212.01964  0.012407516  0.011647841           72 
 1425000   0.67301136   -8.6348472    212.37421  0.012419544  0.011637473           48 
 1426000   0.68256397   -8.6413988    211.97499  0.012387505   0.01162712           73 
 1427000   0.68337756   -8.6168602    212.05108  0.012383268  0.011616758           56 
 1428000   0.67159172   -8.6368497    211.75374  0.012357245  0.011606398           54 
 1429000   0.68703155   -8.6562675    212.58284  0.012396946  0.011596063           76 
 1430000   0.70363374    -8.657949    212.32713  0.012373376  0.011585712           73 
 1431000   0.68253596   -8.6608445    211.86997  0.012338107  0.011575366           50 
 1432000   0.69587412   -8.6499441    212.39092  0.012359807  0.011565036           73 
 1433000   0.68582071   -8.6461283    212.51804  0.012358574  0.011554731           65 
 1434000   0.66997836   -8.6359213    211.70267  0.012302572   0.01154445           52 
 1435000   0.66510162   -8.6353382    211.63763  0.012290222  0.011534143           54 
 1436000   0.68185347   -8.6645402    211.75391  0.012288412  0.011523854           57 
 1437000   0.67911067   -8.6634138    212.31453  0.012312371  0.011513585           61 
 1438000   0.67068772   -8.6539356    211.64061  0.012264755   0.01150331           68 
 1439000   0.68344756   -8.6570586    211.74758  0.012262426  0.011493065           73 
 1440000   0.67195066   -8.6626363    212.12251  0.012275608  0.011482793           83 
 1441000   0.66389914   -8.6409115    211.89952  0.012254194  0.011472549           74 
 1442000   0.67279196   -8.6451988    212.42234   0.01227591  0.011462322           76 
 1443000   0.68885209   -8.6620615    211.73643  0.012227791  0.011452116           80 
 1444000   0.66507245   -8.6517812    212.22432  0.012247479  0.011441923           72 
 1445000    0.6813484   -8.6473652    211.67627  0.012207397  0.011431745           69 
 1446000   0.67191607    -8.677827    211.69766  0.012200188  0.011421538           73 
 1447000   0.67195869   -8.6709876    211.89084  0.012202882  0.011411302           82 
 1448000    0.6804521   -8.6765415    212.14572  0.012209123  0.011401101           93 
 1449000   0.67516396   -8.6803897     212.0153  0.012193196  0.011390929           68 
 1450000   0.68603174   -8.6751084    212.23887  0.012197636  0.011380751           75 
 1451000    0.6549289   -8.6764015    211.89079  0.012169239  0.011370591           56 
 1452000    0.6569284    -8.674328    212.23311  0.012180505  0.011360451           66 
 1453000   0.67240277   -8.6553234    211.80155   0.01214737  0.011350296           92 
 1454000   0.66501243   -8.6572492    211.62136  0.012128689  0.011340155           88 
 1455000   0.67984323   -8.6861782    211.47088  0.012111734  0.011329999           86 
 1456000   0.66561299   -8.6679652    211.72958  0.012118222  0.011319872           81 
 1457000   0.67713682   -8.6885245    212.00067   0.01212541  0.011309723           82 
 1458000   0.67648611   -8.6782393    211.73144  0.012101706  0.011299597           73 
 1459000   0.68354435   -8.6723881    211.86347  0.012100952  0.011289457           76 
 1460000    0.6642751    -8.708493    211.84131  0.012091399  0.011279304           80 
 1461000   0.68118329   -8.6901025    211.59104  0.012068848  0.011269151           88 
 1462000   0.67590079   -8.6675883    211.63804  0.012063272  0.011259015          102 
 1463000   0.64861917   -8.6945001    211.60633   0.01205322  0.011248882           73 
 1464000   0.66653409   -8.6762172    211.90752  0.012062131  0.011238775           96 
 1465000   0.67396722     -8.71673    211.85814  0.012051089  0.011228656           93 
 1466000   0.65872224   -8.6936737    211.65566  0.012031359  0.011218543           94 
 1467000   0.66878521   -8.7033873    212.02567  0.012044176  0.011208449           84 
 1468000   0.67857396   -8.6961183    212.04908    0.0120373  0.011198396          103 
 1469000   0.66036935   -8.6956416    212.10616  0.012032344  0.011188364           89 
 1470000   0.67484142   -8.7004051    211.55123    0.0119927  0.011178329           84 
 1471000   0.66733172   -8.6987636    211.33129  0.011972087  0.011168313           93 
 1472000   0.68757722     -8.71176     211.9645  0.011999802  0.011158296           78 
 1473000   0.66693649   -8.6814951    211.90141  0.011988086  0.011148287           79 
 1474000   0.66009804   -8.6810388    211.61238  0.011963613  0.011138259           76 
 1475000   0.65958872   -8.6999421    211.45876  0.011946823  0.011128233           69 
 1476000   0.65980465   -8.6850406    211.95166  0.011966557  0.011118234           85 
 1477000   0.64753457   -8.7048989    211.67155  0.011942651  0.011108241           77 
 1478000   0.65690434   -8.7098009    211.98875  0.011952456  0.011098245           73 
 1479000   0.65464046   -8.7133657    211.48051  0.011915738  0.011088251           84 
 1480000   0.66539015   -8.7279997    211.65404  0.011917457  0.011078283           72 
 1481000   0.65771145   -8.6851834    211.77959  0.011916475  0.011068301           92 
 1482000   0.65267604   -8.7323119    211.36197  0.011884951  0.011058334           61 
 1483000    0.6703884   -8.7127714    211.54275  0.011887096  0.011048374           88 
 1484000   0.66127257   -8.7109189    211.62335  0.011883611   0.01103843           75 
 1485000   0.64547379   -8.7315002    211.19724  0.011851697  0.011028477           71 
 1486000    0.6646448   -8.6994337    211.72774  0.011873471  0.011018554           59 
 1487000   0.67082617   -8.6999856    211.78754  0.011868838  0.011008653           85 
 1488000    0.6722664   -8.6876506    211.80761  0.011861985  0.010998753           73 
 1489000   0.64547478   -8.6832471    211.46332  0.011834751  0.010988876           82 
 1490000   0.65745926   -8.7225445    211.73868  0.011842208  0.010979005           85 
 1491000   0.64865496   -8.7140708    211.37591   0.01181399  0.010969136           91 
 1492000   0.67373583   -8.7174521    211.54307  0.011815408  0.010959283           87 
 1493000   0.67249404   -8.7193808    211.76147  0.011819684  0.010949435           70 
 1494000   0.65797217   -8.7148027    211.69072  0.011807827  0.010939592           77 
 1495000   0.64112718   -8.7021228    211.70011  0.011800452  0.010929785           76 
 1496000   0.65418045   -8.7187282    211.25833  0.011767955  0.010919985           78 
 1497000   0.66199997   -8.7051507    212.03812  0.011803502    0.0109102           78 
 1498000   0.66684802   -8.7162144    211.57864  0.011770062  0.010900415           78 
 1499000   0.66283657   -8.7129422    211.62711  0.011764905   0.01089062           91 
 1500000   0.65091068   -8.7331586    211.53399  0.011751888  0.010880825           84 
 1501000   0.65497716    -8.726975    211.10882  0.011720454  0.010871051           91 
 1502000   0.65066149   -8.7209471    211.35844    0.0117265  0.010861294           77 
 1503000   0.65718271   -8.7327328    211.71955   0.01173872  0.010851537           64 
 1504000   0.65761367   -8.7252895    211.35523  0.011710729  0.010841769           75 
 1505000   0.65115435   -8.7255116    211.66011  0.011719829  0.010832015           76 
 1506000   0.64596096   -8.7351849    211.16932  0.011684889  0.010822259           77 
 1507000   0.67294493   -8.7250387    211.31254  0.011685056  0.010812528          101 
 1508000   0.65501967   -8.7282497    211.84577  0.011706773  0.010802812           77 
 1509000   0.65605388   -8.7356032    211.25298  0.011666279  0.010793108           84 
 1510000   0.63999689   -8.7365189    211.51792  0.011673175   0.01078339           89 
 1511000   0.65318032   -8.7248286    211.87077  0.011684909  0.010773718           76 
 1512000   0.64647373   -8.7514618    211.71049  0.011668347  0.010764046           82 
 1513000   0.65496649   -8.7317802     211.7554  0.011663109  0.010754386           85 
 1514000   0.64842307   -8.7105838    211.49078   0.01164084  0.010744746           61 
 1515000   0.64648633   -8.7298047    211.71058  0.011645247  0.010735139           80 
 1516000   0.65568697   -8.7262361    211.47824  0.011624793  0.010725534           80 
 1517000   0.64301225   -8.7571991    211.33416  0.011609216   0.01071592           69 
 1518000   0.62890782   -8.7579432    211.27238  0.011598176  0.010706314           76 
 1519000   0.64945599   -8.7629407    211.36341  0.011595535  0.010696727           72 
 1520000   0.64164561   -8.7378364    211.54191  0.011597693  0.010687146           67 
 1521000   0.64878675   -8.7389969    211.27111  0.011575231  0.010677588           82 
 1522000   0.64183333   -8.7355917    212.12875  0.011614584  0.010668035           67 
 1523000   0.63644681    -8.765473    211.55518  0.011575573  0.010658465           82 
 1524000   0.64332578   -8.7233441      211.544  0.011567366  0.010648897           72 
 1525000    0.6463616   -8.7442728    211.37286   0.01155043  0.010639337           68 
 1526000   0.65790813   -8.7495049    211.70694  0.011561104  0.010629796           78 
 1527000   0.63332488   -8.7497895    211.34787  0.011533938  0.010620249           65 
 1528000   0.64846889   -8.7707783    211.43784  0.011531296  0.010610727           76 
 1529000   0.65374513   -8.7675301    211.54223  0.011529444  0.010601216           76 
 1530000    0.6385397   -8.7369909    211.66544  0.011528619  0.010591699           83 
 1531000   0.63625213   -8.7545974    211.23728  0.011497783  0.010582204          101 
 1532000   0.65405199   -8.7489369    211.53949  0.011506717   0.01057271           92 
 1533000   0.63671718   -8.7587322    211.03212  0.011471631  0.010563232          101 
 1534000    0.6329892   -8.7451217    211.47759  0.011488352  0.010553767           83 
 1535000   0.63899995   -8.7621224    211.36272  0.011474632  0.010544298           73 
 1536000   0.63057647   -8.7745217    211.08979  0.011452354  0.010534854           73 
 1537000   0.64478012   -8.7727737     211.0861  0.011444703  0.010525404           79 
 1538000   0.64470726   -8.7511051    211.38317  0.011453358   0.01051597           88 
 1539000   0.64578237   -8.7619421    211.56443   0.01145573  0.010506534           71 
 1540000   0.63619716   -8.7796314    211.32706  0.011435447    0.0104971           79 
 1541000   0.64585163   -8.7835622    211.17978  0.011420062  0.010487678           76 
 1542000   0.63057566   -8.7561755    211.40652  0.011424909  0.010478244           67 
 1543000   0.63310785   -8.7584527    211.17065  0.011404766  0.010468835           73 
 1544000   0.64778708   -8.7547303    211.51781  0.011416116  0.010459423           64 
 1545000   0.64469465    -8.754794    211.59535   0.01141291  0.010450033           82 
 1546000   0.64268674   -8.7583029    211.45211  0.011397806  0.010440662           66 
 1547000   0.64154879    -8.782006    210.98278  0.011365157  0.010431305           70 
 1548000   0.62335017   -8.7766359    211.25684  0.011372569  0.010421942           69 
 1549000    0.6302772   -8.7589003    211.17254  0.011360692  0.010412601           72 
 1550000   0.61966628   -8.7833903    211.37715  0.011364363  0.010403265           55 
 1551000   0.63453199   -8.7644285    211.37924  0.011357148  0.010393948           69 
 1552000   0.62676009   -8.7730789    211.37439   0.01134957  0.010384651           60 
 1553000   0.63907068   -8.7736344    211.58557  0.011353594  0.010375335           57 
 1554000   0.63932309   -8.7604902    211.19146  0.011325153  0.010366048           67 
 1555000    0.6277743   -8.7769854    211.13887  0.011315052  0.010356753           71 
 1556000   0.65297596   -8.7646972    211.46265   0.01132512   0.01034749           67 
 1557000   0.62790482   -8.7756569    211.05088  0.011295808   0.01033822           50 
 1558000   0.63087046   -8.7637055    211.35311  0.011304723  0.010328962           54 
 1559000    0.6296298   -8.7827181    211.39491  0.011299707  0.010319697           57 
 1560000    0.6264337   -8.7620925    211.10389  0.011276917  0.010310445           74 
 1561000   0.63277832   -8.7877134    211.06416  0.011267572  0.010301179           65 
 1562000   0.62395162   -8.8061102    210.77661  0.011245018  0.010291942           52 
 1563000   0.63632892   -8.7584091    211.12881  0.011256601  0.010282713           65 
 1564000   0.63909749   -8.7868328    211.22407   0.01125448  0.010273483           53 
 1565000   0.61864801   -8.7964978    211.24566  0.011248438  0.010264262           45 
 1566000   0.63855322   -8.7488804    211.69708  0.011265277  0.010255072           74 
 1567000   0.62025335   -8.7584804    211.33447  0.011238804  0.010245892           70 
 1568000   0.63336628   -8.7978061    211.32178  0.011230962  0.010236718           68 
 1569000   0.63172675   -8.7863959    211.41114   0.01122855  0.010227544           82 
 1570000   0.62815258   -8.7608617    211.14298  0.011207164  0.010218373           69 
 1571000   0.63186135   -8.8078127    211.02839  0.011193952  0.010209209           56 
 1572000   0.63053976   -8.8059051    211.24684  0.011198412  0.010200039           66 
 1573000    0.6329331   -8.7893944    211.28727  0.011193435  0.010190895           55 
 1574000    0.6230527   -8.7690722    211.04737  0.011173622  0.010181762           69 
 1575000   0.62026088    -8.774094     211.1392  0.011171386  0.010172649           81 
 1576000   0.62591948   -8.8063715    211.05698   0.01115995  0.010163551           70 
 1577000   0.61484042   -8.8022242    211.09947  0.011155119  0.010154453           94 
 1578000   0.60645221   -8.7957849    211.21745   0.01115428  0.010145365           72 
 1579000    0.6239736   -8.7807334    211.17768  0.011145117  0.010136289           73 
 1580000   0.61193364   -8.7951367    210.90979  0.011123934  0.010127223           67 
 1581000   0.63412238   -8.8146786    210.87382  0.011115002  0.010118142           75 
 1582000   0.62872565   -8.7945401    210.68459  0.011098008  0.010109094           86 
 1583000   0.61205068   -8.8064649    211.48552  0.011133161  0.010100039           82 
 1584000   0.63458361    -8.811115    211.06909  0.011104224  0.010090978           90 
 1585000   0.62670638   -8.7796223    211.38969  0.011114074  0.010081933           78 
 1586000   0.62427096   -8.8029245     211.2534  0.011099906  0.010072914           79 
 1587000   0.61758755   -8.8326587    210.67933  0.011062767  0.010063884           97 
 1588000   0.62700265   -8.8024772    211.33145  0.011090022  0.010054862           68 
 1589000   0.62312394   -8.7889275    211.10396  0.011071112  0.010045846           89 
 1590000    0.6157366   -8.7931422    210.86797   0.01105178  0.010036832           80 
 1591000   0.63345896   -8.7986814    211.12047  0.011058059  0.010027833           82 
 1592000   0.61208737   -8.8170511    210.52665   0.01102003   0.01001883           85 
 1593000   0.61305612   -8.8098174    210.93245   0.01103434  0.010009849           78 
 1594000   0.61483413   -8.8265217    210.53086  0.011006423  0.010000885           70 
 1595000   0.60935659   -8.8156672    210.75006  0.011010975 0.0099919166           93 
 1596000   0.61982427    -8.812135    210.72786  0.011002917 0.0099829389           80 
 1597000   0.61495404   -8.8245282    211.01244  0.011010877 0.0099739764           90 
 1598000   0.60110047    -8.828108    210.62289  0.010983672 0.0099650239           63 
 1599000   0.61074277   -8.8201133    210.72495  0.010982122 0.0099560661           68 
 1600000   0.61309908   -8.8167744    210.92743  0.010985803 0.0099471221           81 
 1601000   0.60667362   -8.8052595    210.41479  0.010952258 0.0099381789           72 
 1602000   0.62482415   -8.8095825    210.98444  0.010975054 0.0099292357           64 
 1603000   0.62125155   -8.8163542    210.77893  0.010957524 0.0099203168           80 
 1604000   0.60997961   -8.8289348    210.75196  0.010949292 0.0099114025           84 
 1605000   0.61439334   -8.8292285    210.79794  0.010944857 0.0099025041           71 
 1606000   0.62448176   -8.8229464    210.55174  0.010925267 0.0098936061           62 
 1607000   0.60942108   -8.8242488    210.83316  0.010933061 0.0098847067           75 
 1608000   0.61147635   -8.8296719    211.08037  0.010939074 0.0098758193           69 
 1609000   0.62466495    -8.803735    211.03155  0.010929747 0.0098669518           74 
 1610000   0.60881258   -8.8255197    210.57904  0.010899536  0.009858097           78 
 1611000   0.61868934    -8.805533    211.04202   0.01091672 0.0098492591           96 
 1612000   0.61656522   -8.8210158    210.84851  0.010899944 0.0098404223           77 
 1613000   0.61123328    -8.820849      210.535  0.010876989 0.0098315902           68 
 1614000   0.61651176   -8.8342018    210.67658   0.01087756 0.0098227799           76 
 1615000   0.60452069   -8.8186197    210.88591  0.010881626 0.0098139604           72 
 1616000   0.61362876   -8.8428593    210.92764  0.010877044 0.0098051825           69 
 1617000   0.60786167   -8.8298278    210.79956  0.010863717 0.0097963922           65 
 1618000   0.61196462   -8.8241508    210.56041  0.010844685 0.0097876119           85 
 1619000   0.60827624   -8.8266831    210.75693  0.010848102 0.0097788565           75 
 1620000   0.61467884   -8.8200242    210.79704  0.010843469 0.0097700955           82 
 1621000   0.60356829   -8.8471803    210.45457  0.010819174 0.0097613371           78 
 1622000   0.61588307   -8.8392542    210.50554  0.010815123  0.009752577           81 
 1623000   0.60286267   -8.8322787    210.59694  0.010813151 0.0097438378           79 
 1624000   0.60794145   -8.8442008    210.29996  0.010791254 0.0097351099           73 
 1625000   0.61711372   -8.8235651    210.58202  0.010799078 0.0097263906           77 
 1626000   0.59993779   -8.8320318    210.13112  0.010769328 0.0097176701           84 
 1627000   0.61020368   -8.8512959    211.01617   0.01080804 0.0097089641           78 
 1628000   0.58900024   -8.8328924    210.47668  0.010773786 0.0097002623           79 
 1629000   0.60761899   -8.8439617     210.7147  0.010779348  0.009691581           90 
 1630000   0.60639817   -8.8409763    210.82039  0.010778138 0.0096829069           90 
 1631000   0.59901547   -8.8507535    210.60301  0.010760424 0.0096742451           79 
 1632000   0.62639193   -8.8360804    210.78632   0.01076319 0.0096655883           73 
 1633000   0.61070074   -8.8424762    210.73136  0.010753795 0.0096569443           77 
 1634000   0.60072936   -8.8701843    210.53475  0.010737187 0.0096483104           74 
 1635000   0.60161722   -8.8456457    210.09332   0.01070812 0.0096396613           71 
 1636000   0.58991843   -8.8325377    210.54704  0.010724686 0.0096310392           60 
 1637000   0.60413099   -8.8611381    210.68365  0.010725089 0.0096224217           90 
 1638000    0.6006989   -8.8264272     210.4183  0.010705041  0.009613801           66 
 1639000   0.60379517   -8.8377614    210.42716  0.010698961 0.0096051966           73 
 1640000   0.60519962   -8.8538237    210.64137  0.010703322 0.0095965983           78 
 1641000   0.59375491   -8.8352627    210.69076  0.010699307 0.0095880031           77 
 1642000   0.61615036   -8.8713289    210.45633  0.010680894 0.0095794088           85 
 1643000   0.59329399   -8.8659497     210.3568  0.010669345 0.0095708341           67 
 1644000   0.59370174   -8.8510891    210.34107  0.010662057 0.0095622653           76 
 1645000   0.58535441   -8.8414224     211.0037  0.010689144 0.0095537021           84 
 1646000   0.59229248   -8.8461766    210.51464   0.01065789 0.0095451423           81 
 1647000   0.58899086   -8.8769732    210.12291  0.010631599 0.0095365988           82 
 1648000   0.58899371   -8.8727339    210.51975  0.010645214 0.0095280567           70 
 1649000   0.60386113   -8.8554723    210.42947  0.010634196 0.0095195401           76 
 1650000   0.60394211   -8.8583026    210.43157  0.010627857 0.0095110231           66 
 1651000   0.60678745   -8.8580629    210.15169  0.010607293 0.0095025173           77 
 1652000   0.59272773   -8.8601107    210.47755   0.01061731 0.0094940243           73 
 1653000   0.58783992   -8.8660481    210.27976  0.010600916 0.0094855343           71 
 1654000   0.58230851   -8.8523171    210.51302  0.010606259 0.0094770714           73 
 1655000   0.58381514   -8.8540315    210.72607  0.010610578 0.0094686034           87 
 1656000   0.58724933   -8.8877067    210.38626   0.01058707 0.0094601423           74 
 1657000   0.60078314   -8.8588461    210.25836  0.010574249 0.0094516897           82 
 1658000   0.59649741   -8.8582518    209.93873  0.010551806 0.0094432573           70 
 1659000   0.59569737   -8.8432894    210.24697  0.010560929  0.009434826           72 
 1660000   0.59922283     -8.83859    210.67419  0.010576013  0.009426416           79 
 1661000   0.58985869   -8.8615242    210.41895  0.010556841 0.0094180071           84 
 1662000   0.58766496   -8.8566857    210.36765  0.010547917 0.0094096026           73 
 1663000   0.58231254   -8.8391566    210.04196  0.010525254  0.009401208           84 
 1664000   0.60036164   -8.8716264    210.00724  0.010517189 0.0093928248          107 
 1665000   0.58520078   -8.8666327    210.23246  0.010522145 0.0093844421           78 
 1666000   0.58827615   -8.8709703     210.6685   0.01053764 0.0093760738           86 
 1667000   0.57847464    -8.853805    210.56471   0.01052613 0.0093677102          100 
 1668000    0.5937624   -8.8614223    210.24796  0.010503995 0.0093593519           73 
 1669000    0.5843096   -8.8861289    210.23181  0.010496895 0.0093510038           78 
 1670000   0.58360703     -8.85762    210.47625  0.010502807  0.009342682           88 
 1671000   0.58254994   -8.8897595    210.21201  0.010483344 0.0093343568           73 
 1672000   0.57776294   -8.8698506    210.08626  0.010470807 0.0093260345           70 
 1673000   0.59099738   -8.8552561    210.55933  0.010488112  0.009317735           87 
 1674000   0.57259624   -8.8728885    210.25393  0.010466643 0.0093094393           67 
 1675000   0.59125302   -8.8546237    210.21291  0.010458354 0.0093011642           74 
 1676000   0.58443923    -8.866134    210.10032  0.010446516 0.0092928821           97 
 1677000   0.58068664   -8.8652442    210.26207  0.010448324 0.0092846099           89 
 1678000   0.57977068   -8.8676747    210.23405  0.010440706 0.0092763504           84 
 1679000   0.57651777   -8.8611326     210.3267  0.010439086 0.0092680932           79 
 1680000   0.58467477   -8.8704451    210.41511  0.010437258 0.0092598438           82 
 1681000   0.58827233   -8.8538626    210.01121  0.010411026 0.0092516025           78 
 1682000   0.57392675   -8.8727709    210.12417  0.010410433 0.0092433709           99 
 1683000   0.58270284   -8.8658757      210.331  0.010414488 0.0092351518           77 
 1684000   0.58822408   -8.8472582    210.60128  0.010421678 0.0092269488           74 
 1685000   0.58370132   -8.8491847    210.08785  0.010390102 0.0092187556           78 
 1686000   0.57478195   -8.8926643    210.19272  0.010389122 0.0092105637           82 
 1687000   0.57713308   -8.8751099    210.69745  0.010407896  0.009202377           84 
 1688000   0.58654136   -8.8724005    210.43537  0.010388792  0.009194195           84 
 1689000   0.58200362   -8.8921499    210.43542  0.010382644 0.0091860342           77 
 1690000   0.58711245    -8.876383     210.4475  0.010377096 0.0091778774           74 
 1691000    0.5776801   -8.8615498     210.1065  0.010354154 0.0091697275          101 
 1692000   0.58828912   -8.8711636    210.26238  0.010355712 0.0091615845           85 
 1693000   0.56934027    -8.872349    210.04459  0.010338875 0.0091534478           94 
 1694000   0.56031997   -8.8660407    210.21856   0.01034133  0.009145325           89 
 1695000   0.57915039   -8.8943029    210.44694  0.010346457 0.0091372151           89 
 1696000   0.56804189   -8.8820842    209.90645    0.0103138 0.0091291138           64 
 1697000   0.57821638   -8.8948694    209.98708  0.010311681 0.0091210324           82 
 1698000   0.57812759   -8.8837043    210.11789  0.010312028  0.009112954           92 
 1699000   0.56766331   -8.8795197    210.07464  0.010303838 0.0091048732           96 
 1700000   0.56992592   -8.8842677    210.10185   0.01029911 0.0090968061           63 
 1701000    0.5677887   -8.8957773     210.0289  0.010289482 0.0090887416           79 
 1702000   0.58875298   -8.8722769    210.55369  0.010309131 0.0090806897           88 
 1703000    0.5800456   -8.8754464    210.60523    0.0103056 0.0090726392           71 
 1704000     0.577976   -8.8965055    210.26883    0.0102831 0.0090646023           97 
 1705000   0.56667223   -8.8984456    210.11308  0.010269457 0.0090565692           85 
 1706000   0.58120217   -8.8846226    210.19592  0.010267484 0.0090485411           83 
 1707000   0.56264855   -8.9003943    210.41497  0.010272162 0.0090405157           91 
 1708000   0.57205215   -8.8805248    209.84611  0.010238393 0.0090325062           93 
 1709000   0.56620837   -8.8944027    209.99139  0.010239487 0.0090245066           81 
 1710000   0.57414877   -8.8717923    209.81346  0.010224827 0.0090165121          103 
 1711000   0.57040044   -8.9143482    210.11219  0.010233401 0.0090085265           92 
 1712000   0.56516713   -8.8939179     210.3585  0.010239413 0.0090005427           84 
 1713000   0.56934864   -8.8976992     209.9253  0.010212361 0.0089925599           81 
 1714000   0.57082305   -8.8929039    210.14418  0.010217045 0.0089845892           96 
 1715000   0.57402416   -8.9012062    210.14096  0.010210931 0.0089766306          109 
 1716000   0.56893404   -8.9210426    209.70669  0.010183891 0.0089686684           80 
 1717000    0.5570678   -8.9139325    209.46905  0.010166426 0.0089607166           90 
 1718000   0.55729422   -8.8979438    209.83028  0.010178031 0.0089527737           92 
 1719000   0.56467183   -8.9233544    210.00599  0.010180628 0.0089448428          105 
 1720000    0.5622665   -8.9129425    209.94732  0.010171866  0.008936928           86 
 1721000   0.56705357    -8.916501    210.06498  0.010171653 0.0089290153           83 
 1722000   0.56752093   -8.9189552    210.28213  0.010176255 0.0089211218           82 
 1723000   0.56770401    -8.910591    209.90583  0.010152149 0.0089132295           88 
 1724000   0.55272193   -8.9006126    209.94968   0.01014838 0.0089053429           58 
 1725000   0.56705961   -8.9238156    209.64465  0.010127761 0.0088974674           76 
 1726000   0.57162149   -8.9054419     209.6359   0.01012147 0.0088896025           88 
 1727000   0.56759634   -8.8971469     210.0388  0.010135051  0.008881745           83 
 1728000   0.56103523   -8.9179248    210.20423  0.010137164 0.0088739018           75 
 1729000   0.56723534   -8.9103754    209.97425  0.010120217 0.0088660616           85 
 1730000   0.55803998    -8.905502    210.06365  0.010118673 0.0088582306           92 
 1731000   0.56375525   -8.9272088    210.08307  0.010113762 0.0088504002           83 
 1732000    0.5682095   -8.9161949    209.69988  0.010089486 0.0088425762           86 
 1733000   0.56741617   -8.9221861    210.38609  0.010116661 0.0088347631           84 
 1734000   0.55983832   -8.9395061    209.53641  0.010069993 0.0088269615           92 
 1735000   0.56853193   -8.9322356    209.49151  0.010062032 0.0088191621           83 
 1736000   0.55426085   -8.9212133    209.74694  0.010068497 0.0088113772           83 
 1737000   0.55699815    -8.933113    209.73746  0.010062246 0.0088035902           82 
 1738000   0.55392135   -8.9154852     209.6069  0.010050196 0.0087958166           69 
 1739000   0.55957385   -8.9204997    210.14991  0.010070439 0.0087880595           91 
 1740000   0.56112975   -8.9030331    210.01915  0.010058388 0.0087803054           76 
 1741000   0.56266002   -8.9199524    209.99115  0.010051271 0.0087725568           80 
 1742000    0.5489096   -8.9302885    209.81175  0.010036919 0.0087648128           88 
 1743000   0.55830547    -8.920439    209.80235  0.010030711 0.0087570873           79 
 1744000   0.56015514    -8.920827     209.5621  0.010013479 0.0087493689           84 
 1745000    0.5761786   -8.9057067    210.24902  0.010040545  0.008741667           81 
 1746000    0.5624945    -8.910199    209.61048  0.010004318 0.0087339598          102 
 1747000   0.55626415   -8.9230605    209.37695 0.0099874524 0.0087262485           97 
 1748000   0.55649369   -8.9302925    210.04728  0.010013695 0.0087185442          102 
 1749000   0.56074592   -8.9169837     209.8132  0.009996817 0.0087108544           86 
 1750000   0.54858898   -8.9261728      210.115  0.010005476 0.0087031719           89 
 1751000   0.55000693   -8.9105026    209.68728 0.0099794062  0.008695495          111 
 1752000    0.5489324   -8.9418554    209.82502 0.0099802615 0.0086878352           83 
 1753000   0.55086117   -8.9252337    209.24261  0.009946882 0.0086801702           97 
 1754000   0.55808707   -8.9351192    209.79311 0.0099673656 0.0086725151           90 
 1755000   0.54433724   -8.9143459    209.88802 0.0099661926 0.0086648821           89 
 1756000   0.54716274   -8.9286598    209.73311 0.0099531658 0.0086572439           95 
 1757000   0.55134445   -8.9269211     209.7204  0.009946898 0.0086496134           88 
 1758000   0.53676846    -8.931721    209.48867 0.0099302554 0.0086419953           93 
 1759000   0.54170541   -8.9276065     210.0008 0.0099488723  0.008634391           88 
 1760000   0.54753266   -8.9375816    209.24004 0.0099071988 0.0086267876           94 
 1761000   0.55326087   -8.9339213    209.81101  0.009928592 0.0086191851           93 
 1762000   0.54389359   -8.9398134    209.85681 0.0099251235 0.0086116006           92 
 1763000    0.5508983   -8.9321034    209.68425 0.0099113371 0.0086040177           87 
 1764000   0.54115472   -8.9415181    209.77122 0.0099098272 0.0085964479           90 
 1765000   0.55508677   -8.9300707    209.45969 0.0098895039 0.0085888957           97 
 1766000   0.56049813    -8.954567    209.65008  0.009892888 0.0085813443           85 
 1767000   0.54782107   -8.9264435    210.01775 0.0099046286 0.0085737974           87 
 1768000   0.54446482   -8.9487845    209.50333 0.0098747797 0.0085662705           94 
 1769000   0.55056027    -8.937764    209.55507 0.0098716351 0.0085587428           81 
 1770000   0.54260537   -8.9408231    209.61821 0.0098690308 0.0085512225          101 
 1771000   0.53883347   -8.9308535    209.75397 0.0098698461 0.0085437123           79 
 1772000    0.5346214   -8.9485778    209.62557 0.0098582379 0.0085362161           75 
 1773000   0.54533965   -8.9438065    209.78208 0.0098600338 0.0085287287           91 
 1774000   0.53852096   -8.9512107    209.70302  0.009850762 0.0085212511           77 
 1775000   0.54175475   -8.9432929    209.35675 0.0098289554 0.0085137809           89 
 1776000   0.54049439   -8.9444903    209.49909 0.0098301001 0.0085063156           82 
 1777000   0.54665879   -8.9334144    209.48461 0.0098238893 0.0084988543          100 
 1778000   0.54233133   -8.9687011    209.17984 0.0098040793 0.0084913948           85 
 1779000   0.53875619   -8.9519775    209.49982 0.0098135573 0.0084839522           87 
 1780000   0.55232829   -8.9493867     209.7209 0.0098183941 0.0084765118           88 
 1781000   0.54104308   -8.9472688    209.62497 0.0098083926 0.0084690747           86 
 1782000   0.54598057   -8.9447234    209.08251 0.0097775211 0.0084616446           91 
 1783000   0.55103634   -8.9349692    209.65913 0.0097989872 0.0084542208           91 
 1784000   0.54542396   -8.9460822    209.57295 0.0097894691 0.0084468143           95 
 1785000   0.54028745   -8.9406189      209.589 0.0097847341 0.0084394167           77 
 1786000   0.53745818   -8.9533544    209.68338 0.0097836588 0.0084320236           87 
 1787000   0.54092331   -8.9785086    209.59276 0.0097739582 0.0084246316           85 
 1788000   0.54504115   -8.9535066    209.63252  0.009770345 0.0084172479           86 
 1789000   0.53849425   -8.9526389     209.5299 0.0097601034 0.0084098673           88 
 1790000   0.53531291   -8.9485803    209.27413 0.0097427437 0.0084024983           73 
 1791000   0.53488851   -8.9476459    209.93802 0.0097681936 0.0083951406           99 
 1792000   0.52347215   -8.9546334     209.0084 0.0097195128 0.0083877854           92 
 1793000   0.55270307   -8.9511498    209.41557 0.0097330157  0.008380439           84 
 1794000   0.52844792   -8.9618918    209.45184 0.0097292753 0.0083731055           98 
 1795000   0.53241825    -8.967194    209.34585 0.0097189347 0.0083657756          105 
 1796000   0.53579202   -8.9466613    209.46285  0.009718952 0.0083584556           88 
 1797000   0.54999577   -8.9790406    208.99802 0.0096919875 0.0083511511           85 
 1798000   0.55077533   -8.9470127    209.73693  0.009720844 0.0083438503           88 
 1799000   0.54834976   -8.9801872    209.31749 0.0096960112 0.0083365642           91 
 1800000   0.54631736   -8.9443162    209.52968  0.009700448 0.0083292766           75 
 1801000   0.53887094    -8.978414    209.15905 0.0096779126 0.0083219938           97 
 1802000   0.54263573   -8.9801374    209.52942   0.00968967 0.0083147233           99 
 1803000   0.52897772   -8.9613181    209.11476 0.0096651304 0.0083074539           83 
 1804000     0.536731   -8.9721271    209.24164 0.0096656336 0.0083002003           86 
 1805000    0.5446974   -8.9585201    209.04499 0.0096512001 0.0082929591           95 
 1806000   0.53508949   -8.9724711    209.31605 0.0096583634 0.0082857171           92 
 1807000   0.54123451   -8.9677833    209.49074 0.0096610744 0.0082784841          101 
 1808000   0.52985715    -8.964253    209.48345 0.0096553949 0.0082712587           96 
 1809000   0.53230981   -8.9595927    209.16345 0.0096353164 0.0082640458           90 
 1810000   0.54010747    -8.961986    209.69754  0.009654583 0.0082568305           98 
 1811000   0.54972571   -8.9651401    209.68266 0.0096485672 0.0082496391           88 
 1812000   0.53375071    -8.949072    209.36831 0.0096287854 0.0082424557          101 
 1813000   0.53969113   -8.9625195    209.45505 0.0096274616 0.0082352757           89 
 1814000   0.53172721   -8.9753473    209.34379 0.0096170428 0.0082281057           88 
 1815000   0.52710956   -8.9657951    209.58114 0.0096226418 0.0082209318          101 
 1816000   0.52676557   -8.9836571    209.06359 0.0095935937 0.0082137658           98 
 1817000   0.52878985   -8.9652545    209.04487  0.009587455 0.0082066174          106 
 1818000      0.51757   -8.9692099    209.25089  0.009591625 0.0081994786           88 
 1819000   0.53268921   -8.9586452    209.21566 0.0095847378 0.0081923466           94 
 1820000   0.52747964   -8.9632317    209.34721 0.0095854948 0.0081852143          105 
 1821000   0.51748896   -8.9512912    209.22963 0.0095748502 0.0081780848           87 
 1822000   0.52649127    -8.968891    209.39867 0.0095773268 0.0081709706           94 
 1823000   0.52556665   -8.9805351    209.41907 0.0095730056 0.0081638621           91 
 1824000   0.52834181   -8.9740843    209.17109 0.0095564279 0.0081567609           85 
 1825000   0.51416757   -8.9808921    209.36122 0.0095598733 0.0081496677           93 
 1826000   0.52717186   -8.9811532    208.86443 0.0095319654 0.0081425745           87 
 1827000   0.51939334    -8.997462    209.11906 0.0095383625 0.0081354874           91 
 1828000   0.52207096   -8.9908581    209.19527 0.0095366187 0.0081284136           99 
 1829000   0.53507459   -8.9858907    209.58501 0.0095491623 0.0081213473          111 
 1830000   0.52440825   -8.9818904    209.21255 0.0095269833 0.0081142901           93 
 1831000   0.51596843   -8.9705791    209.40375 0.0095304819 0.0081072376           92 
 1832000   0.51275287   -8.9873991    209.27464 0.0095194066 0.0081001821          105 
 1833000   0.52458255   -8.9771553    209.06786 0.0095048129 0.0080931438           86 
 1834000   0.52657848    -8.987793    209.16785 0.0095041733 0.0080861115           81 
 1835000   0.52058811   -8.9851228    208.83654 0.0094839484 0.0080790891           88 
 1836000    0.5242386   -8.9828801    209.30383 0.0094999925 0.0080720722           87 
 1837000   0.51358707   -8.9831755    209.25684 0.0094926891 0.0080650651           99 
 1838000   0.51332024    -8.999623    208.82222 0.0094678194 0.0080580548          100 
 1839000   0.51537929     -8.97956    208.85356 0.0094640908 0.0080510635           91 
 1840000   0.52216183   -8.9860212    209.24094 0.0094764918 0.0080440793           97 
 1841000   0.51769458   -8.9778149    208.80756 0.0094517272 0.0080370976           87 
 1842000   0.51366053   -8.9990372    209.20546 0.0094645975 0.0080301269           90 
 1843000    0.5108874   -8.9927325    209.28514 0.0094630649 0.0080231657           92 
 1844000   0.50739775   -8.9763772    208.84136  0.009437878 0.0080162141           97 
 1845000   0.51958827   -8.9908079    209.21322 0.0094495582 0.0080092671          100 
 1846000   0.51598246   -8.9808911    209.04864 0.0094370097 0.0080023305           97 
 1847000   0.51502622   -9.0155847    209.38595 0.0094471191 0.0079954003           93 
 1848000   0.52209959   -8.9948026    209.08033 0.0094282255 0.0079884772           88 
 1849000   0.51369572   -8.9904753    209.34643 0.0094351193 0.0079815528           90 
 1850000   0.51818547    -8.989088    208.92242   0.00941092  0.007974646           94 
 1851000   0.52879094   -9.0005012    208.83576  0.009401934 0.0079677453           95 
 1852000   0.51973005    -9.000035    208.87891 0.0093987988 0.0079608497          100 
 1853000   0.51261556   -8.9979292    209.14074 0.0094055018 0.0079539647           93 
 1854000   0.50556689   -8.9972386    209.04025 0.0093959122 0.0079470908           97 
 1855000   0.51136138   -8.9901059    209.21892 0.0093988733 0.0079402235           97 
 1856000   0.51602271   -8.9970091    209.12697 0.0093896809 0.0079333674           85 
 1857000   0.51417039   -8.9917065    208.85636 0.0093724808 0.0079265138           89 
 1858000   0.52244862   -9.0056826    209.02126 0.0093748321 0.0079196672           94 
 1859000   0.50422963   -8.9839579    209.22859 0.0093790834 0.0079128345           86 
 1860000   0.51898312   -8.9877961    209.11425 0.0093689181 0.0079060097           90 
 1861000    0.5049193   -8.9895833    209.17633 0.0093666637 0.0078991875           88 
 1862000   0.50911594    -9.013202     208.6918  0.009339948 0.0078923694           98 
 1863000   0.50888295   -8.9744998    208.97583 0.0093476394 0.0078855603          102 
 1864000   0.50290273   -8.9882052    209.23782 0.0093543375 0.0078787617           78 
 1865000   0.50533612   -8.9919282     209.1951  0.009347413 0.0078719676           95 
 1866000   0.50095734   -9.0085113    209.15598 0.0093406563 0.0078651831           94 
 1867000   0.50719497   -8.9859078    208.94145 0.0093260781 0.0078583993           98 
 1868000   0.51071969   -9.0148817    208.77596 0.0093137027  0.007851622           92 
 1869000   0.50968696   -9.0228824    208.70634 0.0093056154  0.007844848          120 
 1870000   0.50067437   -9.0178269    208.90657 0.0093095618 0.0078380885           94 
 1871000   0.51918546   -9.0081528    209.00335 0.0093088966 0.0078313334          100 
 1872000   0.49688173   -9.0002749    208.79395 0.0092946027 0.0078245931           78 
 1873000   0.50758453   -9.0030649    208.99318  0.009298504 0.0078178521           97 
 1874000   0.50216806   -9.0146397    208.73851 0.0092822176 0.0078111171           94 
 1875000   0.51143103   -9.0156841    208.95791 0.0092870182 0.0078043933          106 
 1876000    0.5078602   -9.0001159    208.61057 0.0092666386 0.0077976747           95 
 1877000   0.50621903   -9.0174428    208.98251 0.0092782149 0.0077909659           99 
 1878000   0.50330774   -9.0171521    208.98035 0.0092731785 0.0077842663           87 
 1879000    0.4994055   -9.0227381      208.747 0.0092578944 0.0077775778           96 
 1880000   0.51322593   -9.0158183    208.98289  0.009263426 0.0077708907           93 
 1881000   0.50269173   -9.0127502    208.66021 0.0092442056 0.0077642249           99 
 1882000   0.50219414   -9.0128409    208.85371 0.0092478618 0.0077575472           95 
 1883000   0.51245282   -8.9986976    208.86475 0.0092434391 0.0077508858           85 
 1884000    0.4966432   -9.0202353    208.98265 0.0092437479 0.0077442333           79 
 1885000   0.49296444   -9.0126641    208.94173 0.0092370347 0.0077375852           86 
 1886000   0.50486154   -9.0178568    208.97257    0.0092335 0.0077309468           98 
 1887000   0.49955074   -9.0063271    208.82171 0.0092219446 0.0077243163           93 
 1888000   0.50003252   -9.0182039    208.79773 0.0092160013 0.0077176842           97 
 1889000    0.5007453   -9.0144839    208.80155 0.0092112912 0.0077110621           88 
 1890000   0.48858484   -9.0259811    208.87235 0.0092095394 0.0077044467           81 
 1891000   0.49061278   -9.0195214    208.73832 0.0091987625 0.0076978393           94 
 1892000   0.50417422   -9.0166437    209.02884 0.0092066968 0.0076912323           89 
 1893000   0.50365531   -9.0222696    208.51917 0.0091793966 0.0076846391           84 
 1894000   0.50410933   -9.0154305    208.89461 0.0091910689 0.0076780506           93 
 1895000   0.50508342   -9.0152001    208.55505 0.0091712864 0.0076714707           84 
 1896000   0.49240003   -9.0152702    208.78957 0.0091767567  0.007664904           84 
 1897000   0.49877422   -9.0326348     208.8491 0.0091745345 0.0076583413           93 
 1898000   0.49588488   -9.0199798    208.95329  0.009174275 0.0076517876           94 
 1899000   0.48607889   -9.0281414    209.11657 0.0091766092 0.0076452383           85 
 1900000   0.49825319   -9.0273904    208.83408 0.0091593893  0.007638701           87 
 1901000   0.48073826   -9.0173891    208.96578 0.0091603447 0.0076321773           93 
 1902000   0.50108668   -9.0146246    208.81412 0.0091488837 0.0076256582           96 
 1903000   0.49025524   -9.0368885    208.77362 0.0091423025 0.0076191447           96 
 1904000   0.49576423   -9.0339067    208.77265 0.0091374586  0.007612636           91 
 1905000   0.49678556    -9.027274    208.60468 0.0091253142 0.0076061371           92 
 1906000   0.48948314   -9.0171865    208.70379 0.0091248596   0.00759965          101 
 1907000   0.48606195   -9.0304863    208.43928 0.0091085161 0.0075931627           98 
 1908000   0.47731848   -9.0146792    208.52525 0.0091074969 0.0075866815           85 
 1909000   0.48270905    -9.032772    208.56235 0.0091043454 0.0075802088           92 
 1910000   0.49558245   -9.0251251    208.71632 0.0091062968 0.0075737443           94 
 1911000   0.49347463   -9.0264942    209.01946 0.0091147508 0.0075672878           86 
 1912000   0.47964809   -9.0239829    208.94545 0.0091067576 0.0075608453           87 
 1913000    0.4933216   -9.0360077    208.63428 0.0090884421 0.0075544074           91 
 1914000   0.48931844   -9.0262822    208.48784 0.0090773182 0.0075479753          100 
 1915000   0.49433463   -9.0295164    208.69339 0.0090815225 0.0075415487           85 
 1916000   0.47787344   -9.0371835    209.01712 0.0090908631 0.0075351191           89 
 1917000   0.49362091   -9.0282267    208.75914 0.0090749061  0.007528708           94 
 1918000   0.49100474   -9.0368819    208.45058 0.0090567681 0.0075223015           79 
 1919000   0.49221475   -9.0354655    208.63495 0.0090600553 0.0075158888           95 
 1920000    0.4905262     -9.03744    208.78998 0.0090620649 0.0075094895           89 
 1921000   0.48311544   -9.0339458    208.43619 0.0090420003 0.0075031047           89 
 1922000   0.48619753   -9.0334309    208.59728 0.0090442804 0.0074967268           88 
 1923000   0.47745478   -9.0538624    208.47573 0.0090343096 0.0074903531           85 
 1924000   0.48943546   -9.0372437    208.67596 0.0090382866 0.0074839872           90 
 1925000   0.47689813   -9.0346902    208.63771 0.0090319355 0.0074776299           89 
 1926000    0.4854389   -9.0392348    208.80062 0.0090342947 0.0074712749           98 
 1927000   0.48696453   -9.0544946    208.57012 0.0090196385 0.0074649256           93 
 1928000   0.48893778   -9.0418378    208.56793 0.0090148655 0.0074585823           88 
 1929000   0.46722589   -9.0503999    208.60578 0.0090118274 0.0074522525           93 
 1930000   0.47463618   -9.0424309    208.46654 0.0090011458 0.0074459212           96 
 1931000   0.47621376   -9.0501178    208.27959 0.0089884165 0.0074395998           81 
 1932000   0.48569606   -9.0429042     208.7911 0.0090058274  0.007433291           88 
 1933000   0.48192307   -9.0390896    208.69306 0.0089969416 0.0074269818           78 
 1934000   0.47460299   -9.0365266    208.50261 0.0089840836 0.0074206743          106 
 1935000   0.48276097   -9.0521661    208.79943 0.0089922233 0.0074143795           91 
 1936000   0.47979783   -9.0604307    208.66409 0.0089817531 0.0074080897           87 
 1937000   0.48773847   -9.0423739     208.4701 0.0089687706 0.0074018063           93 
 1938000   0.48097176   -9.0527605    208.29949 0.0089568065 0.0073955324           94 
 1939000    0.4901628    -9.038767    208.61004 0.0089655339 0.0073892662           94 
 1940000   0.49296104   -9.0533603      208.355 0.0089499572 0.0073830062           85 
 1941000   0.47618947   -9.0573143    209.01727 0.0089737796 0.0073767532           87 
 1942000   0.47668694    -9.054104    208.33127 0.0089397216 0.0073705065           90 
 1943000   0.47930922    -9.057763    208.53907 0.0089440329 0.0073642651           88 
 1944000   0.48327777   -9.0494525    208.36557 0.0089319944 0.0073580323           97 
 1945000   0.48296785   -9.0545957    208.76895 0.0089446853 0.0073518124           88 
 1946000   0.47576507   -9.0669691    208.35343 0.0089222949 0.0073455934           87 
 1947000   0.48299867   -9.0290557    208.62738 0.0089294374 0.0073393815           94 
 1948000   0.48064717   -9.0562215    208.66556  0.008926487   0.00733318           92 
 1949000   0.47881716   -9.0461853    208.22419 0.0089030355 0.0073269828           91 
 1950000    0.4730157   -9.0684055    208.28366  0.008901011 0.0073207901           93 
 1951000    0.4802253   -9.0516343    208.34621 0.0088991206 0.0073146028           80 
 1952000   0.46869707   -9.0515147    208.55952 0.0089036679 0.0073084171          101 
 1953000   0.47131207   -9.0716507    208.53318 0.0088979853 0.0073022374           93 
 1954000   0.46131211   -9.0512949    208.67569 0.0088995091 0.0072960646           90 
 1955000   0.47251885    -9.072344    208.53776 0.0088890777 0.0072898963           87 
 1956000   0.46046958   -9.0552924    208.29945 0.0088743803 0.0072837408           91 
 1957000     0.464058   -9.0535279    208.28145 0.0088690789 0.0072775937           91 
 1958000   0.47269902   -9.0685232    208.39611 0.0088694295 0.0072714502           99 
 1959000   0.47162616      -9.0472    208.59927  0.008873544 0.0072653209           94 
 1960000   0.47857504   -9.0460656    208.39059  0.008860144 0.0072591941           89 
 1961000   0.47016048   -9.0607583    208.50405 0.0088604474 0.0072530745           97 
 1962000   0.47536265   -9.0607599    208.52853 0.0088569714 0.0072469591           91 
 1963000   0.47180132    -9.067959    208.48396 0.0088505671  0.007240848           78 
 1964000   0.46942779     -9.05597    208.49855 0.0088466796   0.00723475           93 
 1965000   0.46722901   -9.0534698    208.54712 0.0088442377 0.0072286575           86 
 1966000   0.47148097   -9.0740326    208.66474 0.0088447243 0.0072225645           85 
 1967000   0.46575064   -9.0796359      208.235 0.0088220218 0.0072164844           82 
 1968000   0.48004326   -9.0702211    208.33557 0.0088217974 0.0072104017           87 
 1969000   0.45978686   -9.0543852    208.24642 0.0088135442 0.0072043298           90 
 1970000   0.46031838   -9.0710742     208.4295 0.0088168147  0.007198262           82 
 1971000   0.46171204   -9.0765113    208.53749 0.0088169074 0.0071922067           91 
 1972000   0.46393566   -9.0545477    208.08885 0.0087934773 0.0071861561          100 
 1973000   0.46340695   -9.0732315    207.92084 0.0087819241 0.0071801141           82 
 1974000    0.4655222   -9.0630291    208.08179 0.0087842701 0.0071740772           84 
 1975000   0.46353916   -9.0530181    208.44661 0.0087952157 0.0071680466           91 
 1976000   0.46678878   -9.0794733    207.89158 0.0087673573 0.0071620228           89 
 1977000   0.46882117   -9.0678047    208.34187 0.0087819032 0.0071560027          103 
 1978000   0.46282666   -9.0781066    208.01142 0.0087635414 0.0071499866           91 
 1979000   0.47435086    -9.077863     208.2751 0.0087702164 0.0071439826          108 
 1980000   0.46188237   -9.0923028    208.34578  0.008768762 0.0071379795           88 
 1981000   0.46863954   -9.0638665    208.13573 0.0087554992 0.0071319874           86 
 1982000   0.46074369   -9.0735398    207.97772 0.0087444384 0.0071260005           93 
 1983000   0.46325865   -9.0664834    208.54121 0.0087637086 0.0071200271           82 
 1984000   0.47314738   -9.0759788    208.35592 0.0087515087 0.0071140569           77 
 1985000   0.45775675   -9.0724851    208.51798 0.0087539035 0.0071080909           82 
 1986000   0.46203417   -9.0622221    208.35506 0.0087426594 0.0071021352           93 
 1987000   0.46506979   -9.0644353    208.21995 0.0087325932 0.0070961801           87 
 1988000   0.47014167    -9.062955    208.35069 0.0087336806 0.0070902332           95 
 1989000   0.44854192   -9.0771117    208.38688  0.008730806 0.0070842937           90 
 1990000   0.46257932   -9.0828467    208.13955 0.0087160615  0.007078355           86 
 1991000   0.47044031   -9.0888046    207.91051 0.0087020973 0.0070724268           85 
 1992000   0.46446193   -9.0763456    208.25447 0.0087121181 0.0070664996           87 
 1993000   0.45532637   -9.0808803    208.08781 0.0087007783 0.0070605853           95 
 1994000   0.45907661   -9.0767854     208.3473 0.0087072594 0.0070546776           90 
 1995000   0.45360198   -9.0697634     208.4003 0.0087051085 0.0070487754           87 
 1996000   0.45403196   -9.0797533    208.27373 0.0086954631 0.0070428736           86 
 1997000   0.45747391   -9.0774343    208.28984  0.008691781 0.0070369817           82 
 1998000   0.44784831   -9.0845012    208.45739 0.0086944189 0.0070310956           91 
 1999000   0.45347199   -9.0809879    208.27914 0.0086826388 0.0070252203           84 
 2000000   0.46404942   -9.0717902    208.10347 0.0086709781 0.0070193481           87 
 2001000   0.46219212   -9.0892014    208.29358 0.0086745617 0.0070134826           95 
 2002000   0.46049379   -9.0735484    208.05254 0.0086601955 0.0070076257           84 
 2003000   0.46009303   -9.0851336    207.98417 0.0086530274 0.0070017726           92 
 2004000   0.45365777   -9.0766904    208.19983 0.0086576778 0.0069959202           86 
 2005000   0.45233962   -9.0876526    208.36564 0.0086602512 0.0069900757           95 
 2006000   0.45766258   -9.0928073     207.9876 0.0086402294 0.0069842388           95 
 2007000   0.45154057   -9.0852192    208.10122 0.0086406418  0.006978412           93 
 2008000    0.4535476   -9.0974728    208.32509 0.0086456295 0.0069725901           97 
 2009000   0.45824872   -9.1129737    207.91278 0.0086242235 0.0069667771           93 
 2010000   0.44761696   -9.0982152    208.29956 0.0086359684 0.0069609633           97 
 2011000   0.45685785   -9.0771607    207.95257 0.0086172954 0.0069551575           90 
 2012000   0.45397167   -9.1003667    208.09983 0.0086191116 0.0069493587           87 
Loop time of 4981.75 on 48 procs for 2000000 steps with 4000 atoms

Performance: 69373.192 tau/day, 401.465 timesteps/s
99.4% CPU use with 48 MPI tasks x no OpenMP threads

MPI task timing breakdown:
Section |  min time  |  avg time  |  max time  |%varavg| %total
---------------------------------------------------------------
Pair    | 334.79     | 357.3      | 377.97     |  60.1 |  7.17
Neigh   | 33.402     | 34.726     | 36.569     |  13.2 |  0.70
Comm    | 320.91     | 342.21     | 367.52     |  65.0 |  6.87
Output  | 4.2822     | 4.2843     | 4.3265     |   0.3 |  0.09
Modify  | 4186.8     | 4196.9     | 4205.2     |   6.4 | 84.24
Other   |            | 46.36      |            |       |  0.93

Nlocal:        83.3333 ave          89 max          77 min
Histogram: 4 4 1 4 4 12 6 7 1 5
Nghost:        2241.12 ave        2265 max        2226 min
Histogram: 3 6 8 10 6 9 1 2 2 1
Neighs:        15038.9 ave       16424 max       13327 min
Histogram: 1 2 5 9 4 3 8 9 3 4
FullNghs:      30077.7 ave       32113 max       27850 min
Histogram: 4 5 1 4 8 6 5 8 2 5

Total # of neighbors = 1443728
Ave neighs/atom = 360.93200
Neighbor list builds = 106654
Dangerous builds = 0

#clear
#
#next RN
#
#jump SELF
Total wall time: 1:23:05
