
units lj                  # Use reduced LJ style units
atom_style atomic         # Uncharged point particles
atom_modify map hash      # Needed for indexing of clusters etc
                          # Used to be able to find where atoms are in relation to each other.

lattice fcc 1.0 spacing 1 1 1
Lattice spacing in x,y,z = 1.5874011 1.5874011 1.5874011
region box block 0 10 0 10 0 10 units lattice
create_box 2 box
Created orthogonal box = (0.0000000 0.0000000 0.0000000) to (15.874011 15.874011 15.874011)
  3 by 4 by 4 MPI processor grid
create_atoms 1 box
Created 4000 atoms
  using lattice units in orthogonal box = (0.0000000 0.0000000 0.0000000) to (15.874011 15.874011 15.874011)
  create_atoms CPU = 0.015 seconds
set type 1 type/fraction 2 0.77 78393
Setting atom values ...
  3073 settings made for type/fraction
mass 1 1.0
mass 2 1.0
pair_style lj/cut  3.5
pair_modify tail  yes
pair_coeff 1  1  1.0  1.0   # Intearaction between 1 and 1 set with epsilon = 1 and sigma = 1
pair_coeff 1  2  1.5  0.8
pair_coeff 2  2  0.5  0.88

write_data data.0
System init for write_data ...
Neighbor list info ...
  update every 1 steps, delay 10 steps, check yes
  max neighbors/atom: 2000, page size: 100000
  master list distance cutoff = 3.8
  ghost atom cutoff = 3.8
  binsize = 1.9, bins = 9 9 9
  1 neighbor lists, perpetual/occasional/extra = 1 0 0
  (1) pair lj/cut, perpetual
      attributes: half, newton on
      pair build: half/bin/atomonly/newton
      stencil: half/bin/3d
      bin: standard
WARNING: Not all mixed pair coeffs generated from mixing. Use write_data with 'pair ij' option to store all pair coeffs. (../write_data.cpp:312)


#############################
#   M E L T   S Y S T E M   #
#############################

velocity all create 2.4 1741580 mom yes dist gaussian # Assign velocities
                                                    # Temperature 2.4, random number seed, zero linear momentum
                                                                                # Gaussian distribution

timestep 0.002   # simulation timestep
thermo 1000       # output thermodynamic data every 1000 steps bf 100

# Define a fix  in this case with index 1 applied to all
# particles in the simulation. This fix is for simulations
# in the anisotropic NPT ensemble. Note that we use the MTK
# correction.
fix 1 all npt temp 2.4 2.4 0.1 iso 5.68 5.68 0.5 mtk yes tchain 5 pchain 5 # Use NPT ensemble
                                                                         # Set temperature and pressure and damping
                                                                         # Numbers of thermostats in chain and in barostat
run 10000          # run for 10000 steps
Per MPI rank memory allocation (min/avg/max) = 3.642 | 3.644 | 3.648 Mbytes
Step Temp E_pair E_mol TotEng Press Volume 
       0          2.4   -3.8453673            0  -0.24626728   -3.4249601         4000 
    1000    2.3381308   -3.2986069            0   0.20771247    5.4824706    3748.1605 
    2000    2.3637153   -3.2844858            0   0.26020078    5.6212989    3763.0036 
    3000    2.4025238   -3.3065909            0   0.29629379    5.5661121    3743.4147 
    4000    2.3974085   -3.2422346            0   0.35297912    5.7860943    3766.4985 
    5000    2.3462234   -3.3080502            0   0.21040497    5.5060289    3747.4431 
    6000    2.4741067   -3.2808128            0   0.42941955    5.5618903     3773.605 
    7000    2.3894531    -3.254488            0   0.32879558    5.7405609    3753.7556 
    8000    2.4303408   -3.2769049            0   0.36769488    6.0958741    3716.1319 
    9000    2.3803705   -3.2773763            0   0.29228686    5.5507894    3757.0949 
   10000    2.3637214   -3.2875899            0   0.25710583    6.1057496    3693.8294 
Loop time of 2.57913 on 48 procs for 10000 steps with 4000 atoms

Performance: 669993.597 tau/day, 3877.278 timesteps/s
99.7% CPU use with 48 MPI tasks x no OpenMP threads

MPI task timing breakdown:
Section |  min time  |  avg time  |  max time  |%varavg| %total
---------------------------------------------------------------
Pair    | 1.167      | 1.229      | 1.3027     |   2.9 | 47.65
Neigh   | 0.21572    | 0.22328    | 0.23662    |   0.9 |  8.66
Comm    | 0.78565    | 0.87126    | 0.93996    |   3.6 | 33.78
Output  | 0.00024519 | 0.0002525  | 0.00031872 |   0.0 |  0.01
Modify  | 0.22489    | 0.24009    | 0.25342    |   1.8 |  9.31
Other   |            | 0.01525    |            |       |  0.59

Nlocal:        83.3333 ave          94 max          74 min
Histogram: 1 4 2 14 6 6 6 4 1 4
Nghost:        1727.02 ave        1758 max        1686 min
Histogram: 1 2 4 4 9 6 5 8 5 4
Neighs:        10325.6 ave       11857 max        8996 min
Histogram: 1 4 7 9 6 7 7 3 1 3

Total # of neighbors = 495630
Ave neighs/atom = 123.90750
Neighbor list builds = 914
Dangerous builds = 222

# Equilibrate just above the melting temperature to avoid step fn in T

fix 1 all npt temp 1.25 1.25 0.1 iso 5.68 5.68 0.5 mtk yes tchain 5 pchain 5
run 2000
Per MPI rank memory allocation (min/avg/max) = 3.644 | 3.646 | 3.649 Mbytes
Step Temp E_pair E_mol TotEng Press Volume 
   10000    2.3637214   -3.2875899            0   0.25710583    6.1057496    3693.8294 
   11000    1.2573271   -4.8521311            0   -2.9666119    5.7580544    2868.7411 
   12000    1.2413849   -4.8904237            0   -3.0288118    5.6231421    2856.5963 
Loop time of 0.647054 on 48 procs for 2000 steps with 4000 atoms

Performance: 534113.049 tau/day, 3090.932 timesteps/s
99.7% CPU use with 48 MPI tasks x no OpenMP threads

MPI task timing breakdown:
Section |  min time  |  avg time  |  max time  |%varavg| %total
---------------------------------------------------------------
Pair    | 0.29497    | 0.31636    | 0.34755    |   1.9 | 48.89
Neigh   | 0.040926   | 0.043194   | 0.047064   |   0.5 |  6.68
Comm    | 0.20441    | 0.23702    | 0.262      |   2.4 | 36.63
Output  | 5.1929e-05 | 5.3319e-05 | 6.7798e-05 |   0.0 |  0.01
Modify  | 0.042461   | 0.045491   | 0.04813    |   0.8 |  7.03
Other   |            | 0.004935   |            |       |  0.76

Nlocal:        83.3333 ave          90 max          77 min
Histogram: 3 3 5 8 5 8 7 5 1 3
Nghost:        2057.10 ave        2082 max        2041 min
Histogram: 5 7 5 7 10 5 7 0 1 1
Neighs:        13361.4 ave       15432 max       11781 min
Histogram: 4 6 4 7 9 6 7 3 1 1

Total # of neighbors = 641347
Ave neighs/atom = 160.33675
Neighbor list builds = 142
Dangerous builds = 7

#############################
# L I N E A R  Q U E N C H  #
#############################

# Define solid atoms. This closely follows ten Wolde  Ruiz-Montero and Frenkel  Faraday Discuss  1996  104  93-110
# Compute components of the per-atom q6 vector
compute q6 all orientorder/atom degrees 1 6 components 6 nnn NULL cutoff 1.3 # compute the Q6 parameter.
                                                                             # Use all neighbours within 1.3 unit cell.

# get number of connections
compute coord_number all coord/atom orientorder q6 0.5

# An atom is solid if it has 8 or more connections (of a possible 14)
variable is_solid atom c_coord_number>=8
group solid dynamic all var is_solid    # Must be dynamic to update
dynamic group solid defined

# do clustering
compute cluster solid cluster/atom 1.3 # Create a cluster where all atoms within are solid and max 1.3 units from another member

# define chunks one chunk per cluster
compute clus_chunks solid chunk/atom c_cluster nchunk every compress yes  # Says which atoms are in which chunk

# count the size of each chunk
compute size_chunks solid property/chunk clus_chunks count


# Find the maximum entry in the vector of chunk sizes
variable max_n equal max(c_size_chunks)


# Thermo style which includes this variable
# thermo_style custom step temp pe vol v_max_n

thermo ${N}  # Print the thermo information every 100 steps
thermo 1000  

# Reset the npt fix at a lower temperature (below freezing)
fix 1  all npt temp  ${temp} ${temp}  0.1  iso  5.68  5.68  0.5  mtk yes tchain  5  pchain  5
fix 1  all npt temp  0.45 ${temp}  0.1  iso  5.68  5.68  0.5  mtk yes tchain  5  pchain  5
fix 1  all npt temp  0.45 0.45  0.1  iso  5.68  5.68  0.5  mtk yes tchain  5  pchain  5

dump dmp2 all dcd ${N} traj.dcd
dump dmp2 all dcd 1000 traj.dcd


compute msd all msd com yes
variable twopoint equal c_msd[4]/6/(step*dt+1.0e-6)
fix 9 all vector 10 c_msd[4]
variable fit equal slope(f_9)/6/(10*dt)
thermo_style custom step temp pe c_msd[4] v_twopoint v_fit v_max_n

fix 1 all npt temp 1.25 ${temp} 0.1 iso 5.68 5.68 0.5 mtk yes tchain 5 pchain 5
fix 1 all npt temp 1.25 0.45 0.1 iso 5.68 5.68 0.5 mtk yes tchain 5 pchain 5
run 500000 # 5000000  # Run for this many steps
Neighbor list info ...
  update every 1 steps, delay 10 steps, check yes
  max neighbors/atom: 2000, page size: 100000
  master list distance cutoff = 3.8
  ghost atom cutoff = 3.8
  binsize = 1.9, bins = 8 8 8
  4 neighbor lists, perpetual/occasional/extra = 1 3 0
  (1) pair lj/cut, perpetual
      attributes: half, newton on
      pair build: half/bin/atomonly/newton
      stencil: half/bin/3d
      bin: standard
  (2) compute orientorder/atom, occasional
      attributes: full, newton on
      pair build: full/bin/atomonly
      stencil: full/bin/3d
      bin: standard
  (3) compute coord/atom, occasional
      attributes: full, newton on
      pair build: full/bin/atomonly
      stencil: full/bin/3d
      bin: standard
  (4) compute cluster/atom, occasional
      attributes: full, newton on
      pair build: full/bin/atomonly
      stencil: full/bin/3d
      bin: standard
Per MPI rank memory allocation (min/avg/max) = 9.838 | 9.844 | 9.850 Mbytes
Step Temp PotEng c_msd[4] v_twopoint v_fit v_max_n 
   12000    1.2413849   -4.8904237 3.157613e-30 2.1927867e-32 8.3333333e+20            1 
   13000    1.2291953    -4.867248   0.71176343 0.0045625859  0.059052152            3 
   14000    1.2518906   -4.8943462    1.4387411 0.0085639349  0.059196098            2 
   15000     1.237758   -4.8831481    2.1881432  0.012156351  0.060590858            2 
   16000    1.2603517   -4.8734987    2.9372856  0.015298362  0.061497061            3 
   17000    1.2312661   -4.8736227    3.6658434   0.01796982  0.061434312            2 
   18000    1.2674112   -4.9189547     4.330778  0.020049898  0.061177061            3 
   19000    1.2323542   -4.9178738    5.1603187  0.022632976  0.061205368            2 
   20000    1.2192933   -4.9268458    5.8644387  0.024435161  0.061132226            1 
   21000    1.2497867   -4.8792364    6.6805045  0.026509938   0.06132981            1 
   22000    1.2585375   -4.8691851    7.5171965  0.028474229  0.061951363            3 
   23000    1.2429379   -4.8842058    8.1901821  0.029674572  0.062300907            2 
   24000    1.2009853   -4.9298888    8.9694397  0.031143887  0.062482533            2 
   25000    1.2187203   -4.8844875    9.7534291   0.03251143  0.062594041            1 
   26000     1.227554   -4.9351065    10.476512  0.033578562    0.0626767            2 
   27000    1.2474409   -4.9267845    11.058471  0.034131084  0.062471435            2 
   28000    1.2381318    -4.934639    11.796241   0.03510786  0.062231209            4 
   29000     1.222935   -4.9518852    12.606061  0.036224313  0.062141269            2 
   30000      1.24126   -4.9167805    13.202541  0.036673726  0.061952197            3 
   31000    1.2379187   -4.9098117    13.955972  0.037516053  0.061768213            1 
   32000    1.2120198   -4.9659751    14.501665  0.037764753  0.061521965            2 
   33000    1.2462287   -4.9208255    15.391327  0.038866988  0.061303339            1 
   34000    1.1851459   -4.9117872    16.097263  0.039454076  0.061197704            1 
   35000    1.2243394   -4.9764044    16.680286  0.039714967  0.061033746            2 
   36000    1.2168576   -4.9547878    17.329805  0.040115289  0.060856558            2 
   37000    1.1870697   -4.9192774    18.044576  0.040640936  0.060650076            2 
   38000    1.1940129   -4.9637454    18.513942  0.040600749  0.060411145            2 
   39000    1.2140564   -4.9455268     19.42385  0.041503953  0.060215547            2 
   40000    1.2043236   -4.9548423      19.9557  0.041574375  0.060045456            3 
   41000    1.1989048   -4.9627329    20.598572  0.041867015  0.059780575            3 
   42000    1.1777298   -4.9659644    21.406102  0.042472424  0.059608958            3 
   43000    1.1936514   -4.9495214    22.169187  0.042963539  0.059449736            3 
   44000    1.2151702   -4.9504528    22.715637   0.04302204  0.059315664            3 
   45000    1.2109476   -5.0038389     23.27379  0.043099611  0.059154913            2 
   46000    1.2308577   -5.0015902    23.935779  0.043361918  0.059018135            2 
   47000    1.1965883   -4.9996655     24.47249  0.043390939  0.058807343            2 
   48000    1.1721854    -4.988708    25.232567  0.043806539  0.058619745            4 
   49000    1.1947415   -4.9791052    25.925397  0.044090812  0.058455589            2 
   50000    1.1912756    -4.976969     26.40049  0.044000816  0.058287676            2 
   51000     1.185251   -4.9748333    27.039435  0.044182082  0.058082049            1 
   52000     1.199744   -4.9851602    27.589914  0.044214605  0.057876295            4 
   53000    1.1534384   -5.0001049    28.325673  0.044537222  0.057682324            2 
   54000    1.1767357   -5.0316785    29.137394  0.044965114  0.057561269            2 
   55000    1.1626975   -5.0351441    29.879473  0.045271928  0.057482744            3 
   56000    1.1836039    -5.023794    30.492911  0.045376355  0.057391314            5 
   57000    1.1910881   -5.0266292    31.269372  0.045715455  0.057331784            5 
   58000    1.1699244   -4.9923779    31.992712  0.045966539  0.057298923            2 
   59000    1.1735423   -5.0332096    32.678593  0.046156204  0.057254448            1 
   60000    1.1751608   -5.0560397    33.333257  0.046296189  0.057215987            3 
   61000    1.1717738   -5.0165593     34.03578  0.046496966  0.057190166            3 
   62000    1.1527243   -5.0207478     34.79536  0.046767957  0.057161757            4 
   63000    1.1700267   -5.0803473    35.302057  0.046695843  0.057135421            1 
   64000    1.1584649   -5.0097661    35.986444  0.046857348  0.057124226            2 
   65000    1.1778978   -5.0146531    36.494541  0.046787873  0.057077789            2 
   66000    1.1628273   -5.0476426    37.062684  0.046796318  0.057003879            3 
   67000    1.1533817   -5.0366309    37.580066  0.046741375  0.056920188            1 
   68000    1.1582535   -5.0756626    37.980903  0.046545224  0.056795794            2 
   69000     1.155916   -5.0821829    38.391128  0.046366097  0.056653215            3 
   70000    1.1752482   -5.0943227    38.961381  0.046382596  0.056504561            4 
   71000    1.1596451   -5.0450972    39.771726   0.04668043  0.056361943            2 
   72000    1.1351717   -5.0613666    40.383044  0.046739634  0.056229778            3 
   73000    1.1277022    -5.030011    41.075917  0.046890315  0.056117652            3 
   74000     1.162176   -5.0474733     41.66145  0.046916047  0.056005708            3 
   75000    1.1443447   -5.1326096    42.086636  0.046762929  0.055901744            2 
   76000    1.1467174   -5.0543816    42.673557  0.046791181  0.055793985            2 
   77000     1.142511   -5.0883544    43.486552  0.047063368  0.055677009            7 
   78000    1.1583608   -5.1020214    44.099263  0.047114597  0.055576126            4 
   79000    1.1547475   -5.1110528    44.756775  0.047211787  0.055475843            3 
   80000    1.1299569   -5.1056626    45.165391  0.047047282  0.055386471            3 
   81000    1.1356732   -5.0927125    45.959455  0.047283389  0.055285049            2 
   82000    1.1133317   -5.1249707    46.213017  0.046964448  0.055181321            2 
   83000    1.1331572   -5.0774491    46.998397  0.047187146  0.055074208            5 
   84000    1.1018331   -5.1046371    47.431848  0.047055405  0.054957987            2 
   85000     1.115445   -5.1197067    47.907727   0.04696836  0.054837565            2 
   86000    1.1162498   -5.1082399     48.58519  0.047078672  0.054725157            4 
   87000    1.1288878    -5.104254    49.031212  0.046964763  0.054599581            4 
   88000    1.1422353   -5.1191301     49.34448  0.046727727  0.054476411            6 
   89000    1.1160792   -5.1054933    50.119134  0.046928028   0.05435318            2 
   90000    1.1207777   -5.1216457    50.677752  0.046923845  0.054236922            2 
   91000    1.1243123   -5.1353198    51.080282  0.046776815  0.054114787            4 
   92000    1.1271615   -5.1164608    51.748638  0.046873766  0.053999956            7 
   93000    1.1261743   -5.1540288    52.425836  0.046976556  0.053883269            5 
   94000    1.1075274   -5.0909168    53.058031  0.047037261  0.053777346            3 
   95000    1.1276509   -5.1185142    53.414758  0.046855051  0.053681975            3 
   96000    1.1200604   -5.1557338    53.833428  0.046730406  0.053571266            3 
   97000    1.1401266   -5.1547046    54.053132  0.046437398  0.053444488            3 
   98000    1.1234336   -5.1209313    54.860469  0.046650058  0.053319121            3 
   99000    1.0782135   -5.1600186     55.38135  0.046617298  0.053207017            2 
  100000    1.1028133   -5.1676271    55.993584   0.04666132  0.053089415            1 
  101000    1.1325112   -5.1424752     56.55543  0.046662896  0.052975028            2 
  102000     1.088688   -5.1660784    57.194103  0.046727208  0.052858404            2 
  103000    1.0825736   -5.1621724    57.545706  0.046558014  0.052742578            2 
  104000    1.0958201   -5.1481168    57.882232  0.046379994  0.052616009            3 
  105000    1.0794628   -5.1567748    58.064976  0.046083314  0.052482845            2 
  106000    1.1002347   -5.1838481    58.615888  0.046081673  0.052353705            4 
  107000    1.0897447   -5.1399913    59.390736  0.046254467  0.052226386            5 
  108000    1.0699825   -5.1638655    59.963731  0.046268311  0.052106874            1 
  109000    1.1203882   -5.1908498    60.664476  0.046379569  0.051995614            5 
  110000    1.0886729   -5.2065577    61.197961  0.046362091  0.051892505            3 
  111000    1.1089851   -5.1944814    62.066256  0.046596288  0.051795687            4 
  112000    1.1101026    -5.197367    62.564455  0.046550933  0.051710704            3 
  113000    1.0871558   -5.2062502    63.327661  0.046701815  0.051632814            7 
  114000    1.0762669   -5.1947785    63.975018  0.046765364  0.051560683            3 
  115000    1.0877022   -5.1657371    64.936484  0.047055423  0.051503784            5 
  116000    1.0816276   -5.2552791    65.114282  0.046777501  0.051446259            6 
  117000    1.0648615   -5.1950943    65.855666  0.046905745  0.051384264            2 
  118000    1.0735355   -5.1701928    66.390119  0.046885677   0.05132634            2 
  119000    1.0843413   -5.1842335    66.983241  0.046907031  0.051271909            2 
  120000    1.0963193   -5.2506612    67.229378  0.046687068  0.051208785            4 
  121000    1.0855259   -5.2296185    67.744772  0.046656179  0.051144094            1 
  122000    1.0576098   -5.2233364     68.43168  0.046742951  0.051082606            4 
  123000    1.0889797   -5.2094869    68.784559  0.046602004  0.051013663            2 
  124000    1.0755683   -5.2109643    69.294234  0.046568705  0.050943289            9 
  125000    1.0823392   -5.2319902    69.372169  0.046248112  0.050865787            2 
  126000    1.0782215   -5.2197477    70.104918  0.046365686  0.050788912            2 
  127000    1.0570939   -5.2232087    70.428255  0.046212766  0.050710791            2 
  128000    1.0818717   -5.2386412    71.022193  0.046238406  0.050628591            4 
  129000    1.0438982   -5.2862019    71.318854  0.046071611  0.050547267            3 
  130000    1.0685493   -5.2445043      71.7026  0.045963205  0.050461593            3 
  131000     1.053723   -5.1970993    72.182343  0.045917521  0.050368613            8 
  132000    1.0438386   -5.2260779     72.18232  0.045569647  0.050269985            4 
  133000    1.0538983   -5.2419508    72.818829  0.045625832  0.050159234            3 
  134000    1.0689317   -5.2502117    72.834526  0.045295103  0.050044132            5 
  135000     1.059694   -5.2730293     72.98923   0.04505508  0.049926566            3 
  136000    1.0364623   -5.3030846    73.272612  0.044897434  0.049802185            2 
  137000    1.0434858   -5.2846262    73.655639    0.0448027  0.049676119            2 
  138000    1.0651778   -5.2440143    74.252815  0.044838656  0.049548166            3 
  139000    1.0427665   -5.3135024    74.046646  0.044392474  0.049415169            4 
  140000     1.073608    -5.265377    75.215429  0.044771088  0.049288287            5 
  141000    1.0447629   -5.2834798    75.549287  0.044650879  0.049168186            2 
  142000     1.049322   -5.2436831    76.006089  0.044604512  0.049048014            2 
  143000    1.0232854   -5.2983793    76.183016  0.044395697   0.04892504            3 
  144000    1.0606713   -5.2988022    76.677865  0.044373764  0.048803864            5 
  145000    1.0406234   -5.2601659    77.277299  0.044412241  0.048683186            2 
  146000    1.0485647    -5.289408    77.681715  0.044338878  0.048563225            3 
  147000     1.011933   -5.2662212    78.280411   0.04437665  0.048445933            3 
  148000    1.0537506   -5.3129118    78.351854  0.044117035  0.048330134            8 
  149000    1.0393006   -5.3235914    78.779559  0.044060156  0.048213002            2 
  150000   0.99862636   -5.2934222    79.416005  0.044120003  0.048098892            2 
  151000    1.0123545   -5.2748743    79.987182  0.044143036  0.047985163            2 
  152000    1.0254055   -5.3232499    80.200674  0.043969668  0.047872783            3 
  153000    1.0169514   -5.3488167    80.345762  0.043761308  0.047758549            6 
  154000     1.026148    -5.273928    80.985228  0.043823175  0.047646627            3 
  155000    1.0178632   -5.3236545    81.036923  0.043568238  0.047529919            5 
  156000    1.0127967   -5.3459988    81.453392  0.043511427  0.047411662           10 
  157000    1.0101021   -5.2867537    82.198069  0.043629548  0.047295362            7 
  158000    1.0016996   -5.3761529    81.965949  0.043230985   0.04717751            2 
  159000    1.0056724   -5.3165646    82.635676  0.043310102   0.04705876            2 
  160000    0.9971125   -5.3773984    82.733462  0.043090345  0.046940195            7 
  161000    1.0099073   -5.3407997    83.024544  0.042973366  0.046820394            4 
  162000    1.0214411   -5.3665319    83.391665  0.042896947  0.046697311            4 
  163000    1.0117066   -5.3604186    83.554276   0.04271691  0.046573297            6 
  164000     1.005161    -5.349441    84.014662  0.042690377   0.04644835            4 
  165000   0.98436267   -5.3884337    84.413867  0.042633266  0.046325279            3 
  166000    1.0104847   -5.3727994    84.602072  0.042470919  0.046205614            4 
  167000      1.01782   -5.3973028    85.272919  0.042551356  0.046088401            6 
  168000   0.98450585   -5.3600501     85.28125  0.042302207  0.045969827            4 
  169000    1.0092993   -5.3292998    85.716776  0.042266655  0.045852813            5 
  170000   0.99869653   -5.3708119    85.970886  0.042142591  0.045734596            3 
  171000    1.0107692    -5.389542     86.54233  0.042174624  0.045619098            4 
  172000    1.0051728   -5.4105971    86.756179  0.042033032  0.045499187            4 
  173000   0.99331314   -5.3796618     86.90778  0.041863093  0.045383929            4 
  174000    1.0044536   -5.4130297    87.377805  0.041847608  0.045265648            3 
  175000   0.98804457     -5.39691    88.112856  0.041958503  0.045150145            3 
  176000     1.000323   -5.4066904    88.216074  0.041768974   0.04503344            4 
  177000   0.98433047   -5.3811105    88.415055  0.041626673  0.044917087            5 
  178000    1.0057911   -5.4120725    88.807524  0.041576556  0.044802574            5 
  179000   0.98209778   -5.3990129    89.274195  0.041561543   0.04468644            4 
  180000   0.97720483   -5.4220653    89.266098  0.041326897  0.044570313            3 
  181000   0.97230615   -5.4109624    90.229496  0.041542125  0.044456921            3 
  182000    1.0000976   -5.4097844    90.703773  0.041531032  0.044346483            6 
  183000   0.97246716    -5.457527    90.930691  0.041407418  0.044238386            3 
  184000   0.97776962   -5.4208385    91.312153  0.041355141  0.044128996            7 
  185000   0.94887249   -5.4063222    91.428596  0.041184052  0.044019484            6 
  186000   0.96702827   -5.4128989    91.449048  0.040971795  0.043911291            3 
  187000   0.97502419   -5.4559929    92.006246  0.041001001  0.043802677            5 
  188000    0.9677191   -5.4261081    92.807656  0.041138145  0.043694698            6 
  189000   0.97402381   -5.4018942    92.601339  0.040829514  0.043585638            5 
  190000   0.96796243   -5.4362952    92.895897  0.040743815  0.043479422            9 
  191000   0.97290101   -5.4287432    93.348403  0.040727924  0.043374176            5 
  192000   0.96000773   -5.4087959    93.813135  0.040717506  0.043268981            2 
  193000   0.93977016   -5.4686655    93.885747  0.040537887  0.043164363            5 
  194000   0.95657805   -5.4688806    94.390642  0.040545809   0.04305835            4 
  195000   0.98631776   -5.4738542    94.340941  0.040316641   0.04295059            7 
  196000   0.96136098   -5.4739863    94.505401  0.040180868   0.04284358            2 
  197000   0.96219944   -5.4894026     94.89704  0.040142572  0.042736138            5 
  198000   0.95140381   -5.4754831    95.300699  0.040109721  0.042630474            3 
  199000   0.93253535   -5.4530129    95.918316  0.040166799  0.042528225            3 
  200000   0.95236329   -5.4783413    96.282182  0.040117576  0.042427656            4 
  201000   0.93047129    -5.506192    96.148253   0.03986246  0.042326501            5 
  202000   0.94284673   -5.4585274    96.919797  0.039983415  0.042223645            3 
  203000   0.93248015   -5.4995271    96.985643  0.039813482   0.04212151            5 
  204000   0.96144069   -5.4883668    97.281132  0.039739024  0.042020023            6 
  205000   0.93314044   -5.5124583     97.62881  0.039686508  0.041917961            7 
  206000   0.94159144   -5.4790794    97.805195  0.039565208    0.0418142            3 
  207000   0.94973893   -5.5248282    98.199911  0.039532975   0.04171361            4 
  208000   0.94303058    -5.533547    98.494475  0.039460927  0.041612727            5 
  209000   0.95721734   -5.4954704    99.029156  0.039485309  0.041514277            3 
  210000    0.9327826   -5.4965926    99.544344  0.039501724  0.041418682            7 
  211000   0.95306499   -5.5309337    99.616959   0.03934319  0.041324098            4 
  212000   0.92046084   -5.5532862    99.594557  0.039148804  0.041229313            9 
  213000   0.91124968   -5.5236613    100.27636  0.039231752  0.041135443           11 
  214000   0.93565675   -5.5306183    100.38465  0.039090597  0.041040087           10 
  215000   0.93215399   -5.5719455    100.63589  0.039006159  0.040943686            4 
  216000    0.9042332   -5.5645939    100.98555  0.038960476  0.040847156            3 
  217000    0.9094526   -5.5661089    100.96743  0.038773973  0.040748802            5 
  218000   0.91249441   -5.5650853    101.53764  0.038814082  0.040651666            4 
  219000   0.91540741   -5.5165673    101.76551   0.03872356   0.04055386            5 
  220000   0.92030695   -5.5539623    102.14383  0.038690843  0.040457842            5 
  221000   0.92181185   -5.5310938    102.25324   0.03855703  0.040363234            9 
  222000   0.92342433   -5.5287603    102.61447  0.038518945  0.040265037            6 
  223000   0.92601119   -5.5617467    102.56337  0.038327121  0.040170831            7 
  224000   0.91569546   -5.5975393    102.77151  0.038233449  0.040075197            8 
  225000    0.9132689   -5.6215589    102.88608  0.038105955  0.039979312            8 
  226000   0.90040164   -5.5674034    103.58412  0.038194734   0.03988303            4 
  227000   0.89941654   -5.5970932     103.3053  0.037924119  0.039786978            3 
  228000   0.91327073   -5.5962265    103.65424  0.037885321  0.039690659           18 
  229000   0.89650538   -5.6002535    104.19136  0.037915342  0.039596213            4 
  230000   0.89410487   -5.5797131    104.16407  0.037740605  0.039500731            5 
  231000   0.90881543   -5.5938951    104.44888  0.037679971   0.03940451            5 
  232000   0.87783725   -5.6104586    104.43572   0.03751283  0.039308429            5 
  233000   0.88024933   -5.6169886    104.74977  0.037464151  0.039212695            6 
  234000   0.88766621    -5.591243    105.37142  0.037525435  0.039115537            5 
  235000   0.89680143   -5.5973272    105.18921  0.037301139  0.039019655            4 
  236000   0.87610567   -5.6260959    105.51938  0.037259669  0.038924196            6 
  237000   0.89700493   -5.5925074    105.80435  0.037202656  0.038830096            2 
  238000   0.87207498   -5.6357677    105.70972  0.037013208  0.038733452           10 
  239000   0.86845118   -5.6137458    106.16172  0.037015942   0.03863654            7 
  240000   0.88663034   -5.6283118    106.78602  0.037078479  0.038542291            7 
  241000   0.89083761   -5.6195845     106.6289  0.036870297   0.03844867            3 
  242000   0.87247258    -5.638163    106.82562  0.036785683  0.038353554            6 
  243000   0.88536182   -5.6369552      107.248  0.036779151  0.038259277            6 
  244000   0.88257139   -5.6384519    107.08263  0.036571938  0.038164192            6 
  245000   0.88116898   -5.6181402     107.3082  0.036499388  0.038067225            7 
  246000   0.86320901     -5.64106    107.76321  0.036505152  0.037971435            3 
  247000   0.87621216   -5.6372464    107.89552  0.036401999  0.037876336            8 
  248000   0.86991023   -5.6374698    108.14401  0.036338712  0.037782944           15 
  249000    0.8758749   -5.6526238    108.72219  0.036386275  0.037689592            5 
  250000   0.85099081   -5.6624577    108.36902  0.036123006  0.037596676            3 
  251000   0.85268668   -5.6701796    108.99971  0.036188484  0.037504952            8 
  252000   0.86742535   -5.6765064    108.96599  0.036033728  0.037413851            6 
  253000   0.87342642    -5.678829    109.26181  0.035988738  0.037321875            6 
  254000   0.86347856   -5.6710543    109.29476  0.035857861  0.037228884            5 
  255000   0.85702231   -5.6496126    109.70055  0.035849854   0.03713542            6 
  256000   0.86321398   -5.7013602    109.58738  0.035672975  0.037042856            3 
  257000   0.85589719   -5.6738301    109.75937  0.035589939    0.0369492           16 
  258000   0.87402265   -5.6768574    110.20278  0.035595212  0.036855707            4 
  259000   0.86935739    -5.671107    110.31508  0.035493911  0.036762783            5 
  260000   0.86934075   -5.6943519     110.5412  0.035429873  0.036670692            3 
  261000   0.84489989   -5.6859793    110.71147  0.035348489  0.036578628            7 
  262000    0.8558651   -5.6924509    110.89975  0.035273457  0.036486879            5 
  263000   0.84542987   -5.6730324    111.30094  0.035266459   0.03639745            8 
  264000   0.83951253   -5.7023733    111.56188  0.035215239  0.036307983            5 
  265000   0.85820524   -5.7228715    111.63617  0.035105714  0.036217644            6 
  266000   0.85571986   -5.7245491    111.28657  0.034864212  0.036126549            4 
  267000   0.84330244   -5.7163613    111.72545  0.034870616  0.036034484            7 
  268000   0.83251735   -5.7366892    111.62702  0.034709896  0.035942152            5 
  269000    0.8616386   -5.6891056    112.56936  0.034872787  0.035850925            5 
  270000   0.85034652   -5.7267914    112.07573  0.034591275  0.035761129            6 
  271000   0.83260775   -5.7507993    112.39787  0.034562691   0.03567016            6 
  272000   0.82761432   -5.7390335    112.47431  0.034459041  0.035578856            5 
  273000   0.85246428   -5.7312145    112.66539  0.034391146  0.035487525            3 
  274000   0.84674618   -5.7380636    112.76041  0.034294527  0.035395057            7 
  275000   0.83208656   -5.7512692    112.72015  0.034157622  0.035302604            8 
  276000   0.85062082    -5.734535    113.09736  0.034147754  0.035209909            7 
  277000   0.82999112    -5.784734    112.81597  0.033939824  0.035116924           11 
  278000   0.82379084   -5.7462677    113.43655  0.034003763  0.035024296            3 
  279000   0.83259875   -5.7865672    113.06863  0.033771992   0.03493293           12 
  280000    0.8121967   -5.7823019    112.98388  0.033626155  0.034838968            4 
  281000   0.80772165   -5.7687994    113.29142  0.033597692  0.034746379           12 
  282000   0.82361084   -5.7770916    113.14674  0.033435798  0.034653095            6 
  283000    0.8229748    -5.782466    113.20063   0.03333352  0.034559993            8 
  284000   0.84201823   -5.7550106    114.13804  0.033491208  0.034467667            5 
  285000   0.82386533    -5.783519    113.78001  0.033269009  0.034376413            5 
  286000    0.8156116   -5.7781142    113.94373  0.033200389  0.034283117            4 
  287000   0.80912227   -5.7714305    114.14366  0.033142758   0.03418971            5 
  288000   0.80640097   -5.7916703    114.15161   0.03302998   0.03409662            6 
  289000   0.79671399   -5.8011241      114.296  0.032957324  0.034004101            6 
  290000    0.8047907   -5.8162342    114.42952  0.032882047  0.033911704            3 
  291000   0.79276556   -5.8385294    114.64266  0.032830086  0.033820284            6 
  292000   0.80504017    -5.786204    114.75996  0.032751131  0.033728397            8 
  293000   0.79230652   -5.8391735    114.40882  0.032539481  0.033636722            5 
  294000   0.80946179   -5.8167934    114.59561  0.032481749  0.033544706            6 
  295000   0.79891093   -5.7853982    115.16332  0.032532011  0.033453764           13 
  296000    0.7757316    -5.837703     115.3049  0.032461964   0.03336312           18 
  297000   0.78748336   -5.8527192    115.39178  0.032377043  0.033273308            4 
  298000   0.80746093    -5.836081    115.38781  0.032267285  0.033183292           15 
  299000   0.81020423   -5.8362815    115.78925  0.032271252  0.033093383           11 
  300000   0.79094567   -5.8296526    116.17046  0.032269571  0.033005071           10 
  301000   0.80000087   -5.8568317    116.25971  0.032187073  0.032917153            7 
  302000   0.76067023   -5.8384447    116.31735  0.032096398  0.032829197            7 
  303000   0.77538119   -5.8479884    116.27691  0.031979349  0.032741152           16 
  304000   0.78925775   -5.8652942    116.42196  0.031913914  0.032652702           11 
  305000   0.78684094   -5.8894106    116.29341  0.031774156  0.032564587            5 
  306000   0.80714201   -5.8980009    116.59067  0.031751271  0.032476784            5 
  307000   0.78498146   -5.8921443     117.0194  0.031764223  0.032389144            4 
  308000   0.77845996     -5.88361    116.76662  0.031592701   0.03230192            8 
  309000   0.78007271   -5.8850394    117.04326  0.031565064  0.032214673            7 
  310000   0.77135486   -5.8663687    117.36323  0.031549256   0.03212816            7 
  311000   0.77755483   -5.8750416    117.14784  0.031390096  0.032041108            4 
  312000   0.77721125   -5.9008298    117.11739  0.031281355  0.031954414            6 
  313000   0.77389172   -5.9022073    117.23874  0.031213722   0.03186752            6 
  314000    0.7671628    -5.910342    117.30018   0.03113062  0.031780646            8 
  315000   0.77731037   -5.8875874    117.26165  0.031021599  0.031693966            9 
  316000   0.75774501   -5.9232222    117.51207  0.030989471  0.031607402           12 
  317000   0.76666554   -5.9063294    117.62672   0.03092185  0.031520918           10 
  318000   0.75631745   -5.9166198    117.49538  0.030790194  0.031435252           11 
  319000   0.75248596   -5.9175198    117.91327  0.030802839  0.031348868            9 
  320000    0.7553945   -5.9185266     118.1823   0.03077664  0.031262817            6 
  321000   0.74136301   -5.9146827    118.22459  0.030691743  0.031176483            8 
  322000   0.75506478   -5.9280462    118.27244   0.03060881  0.031090618            5 
  323000   0.75036777   -5.9120739    118.50128  0.030573086  0.031005462            5 
  324000   0.74391886   -5.9233943    118.27608  0.030420801  0.030920811            6 
  325000    0.7460149   -5.9248293    118.56109   0.03040028  0.030836422           10 
  326000   0.75780039   -5.9661836    118.51797  0.030296003  0.030752291            9 
  327000   0.75301096    -5.938791    119.04505  0.030337677  0.030668986           16 
  328000   0.75826953   -5.9422185    119.08639  0.030255689  0.030586098            8 
  329000   0.74664356   -5.9477271    119.05573  0.030155961  0.030502663           15 
  330000   0.74911787    -5.975107    119.15829  0.030090476  0.030419674           13 
  331000   0.74026988   -5.9827658    118.84648  0.029921067  0.030336223           15 
  332000   0.74346935   -5.9528285    119.14692  0.029906356  0.030253388            9 
  333000   0.73541316   -5.9702609    118.76867  0.029721889  0.030170409           11 
  334000   0.75399747   -5.9560365    119.74792  0.029877225  0.030088116           10 
  335000   0.74010948   -5.9675512    119.76287  0.029791759  0.030006184            6 
  336000   0.73214892   -5.9671173     119.8128  0.029715477  0.029924972            8 
  337000   0.73632021   -5.9776744    119.56137  0.029565126  0.029844027            5 
  338000   0.71024729   -5.9890711    119.81947   0.02954129  0.029763113            5 
  339000   0.72073954   -5.9652761    120.09688   0.02952234  0.029682329           10 
  340000   0.72059339   -5.9715175    119.91491  0.029390909  0.029601672            6 
  341000   0.71621779   -5.9915002    120.02567  0.029331785  0.029520565           16 
  342000   0.71842938   -6.0062377    120.07899  0.029259014  0.029439675            6 
  343000   0.72091358   -6.0136195    119.92429  0.029136124  0.029358458            8 
  344000   0.71161116   -5.9949945    119.89685   0.02904478  0.029276995           14 
  345000   0.70374007   -5.9973147    120.03699  0.028994441   0.02919623           13 
  346000   0.72932089   -6.0112635    120.14888  0.028937592  0.029116316            7 
  347000   0.72168116   -6.0507965     119.9434  0.028804851   0.02903611           13 
  348000    0.6996458   -6.0170961     120.4055  0.028832735  0.028956969           10 
  349000    0.7255226   -6.0213894    120.44827  0.028760333  0.028877846            7 
  350000   0.71934614   -6.0287006    120.50567  0.028691827  0.028798204           11 
  351000   0.70421504   -6.0310336    120.80568  0.028681309   0.02871858           10 
  352000    0.7114245   -6.0453822    120.76682   0.02859063  0.028639195           21 
  353000   0.70842002   -6.0628107    120.66594  0.028485821  0.028560446           15 
  354000   0.69362845   -6.0630706    120.93179  0.028467934  0.028481066            9 
  355000   0.69978287   -6.0387661    120.95548  0.028393306  0.028401823           20 
  356000    0.6974139   -6.0786014    120.44829  0.028194824   0.02832234            5 
  357000   0.68508751   -6.0566328    120.71546  0.028178212  0.028243123           14 
  358000   0.70366445    -6.064347    120.85377  0.028131697  0.028163586           13 
  359000   0.71031109    -6.028168    121.06862  0.028103208  0.028085425           18 
  360000   0.70131334   -6.0475196    120.99336  0.028007723  0.028007483           10 
  361000   0.67891066   -6.0808227    120.86546  0.027900614  0.027929532           12 
  362000   0.69117299    -6.071277    121.08412  0.027873876  0.027851848            7 
  363000   0.67597003    -6.089392     121.1581  0.027814073  0.027774335            8 
  364000   0.69558608   -6.0905955    121.42103  0.027797856  0.027696982           10 
  365000   0.69489712   -6.0825247    121.36384  0.027708639  0.027619283            9 
  366000   0.67692791   -6.0920532    121.29431  0.027617102  0.027541825           19 
  367000   0.69189444   -6.0791844    121.46901  0.027581519  0.027465353           22 
  368000   0.67346475    -6.118352    121.38908   0.02748847  0.027388663            8 
  369000   0.68770873   -6.1073932    121.62575  0.027467422  0.027311821           11 
  370000    0.6869721   -6.0743779    121.62352  0.027392685  0.027235516           13 
  371000   0.67022052    -6.111303    121.59578  0.027312618  0.027159198           17 
  372000   0.66882593   -6.1162327    121.29688  0.027172241  0.027083326            6 
  373000   0.66227555   -6.1138248    121.68464  0.027186024  0.027007132           11 
  374000   0.66358316   -6.0999917    121.61099  0.027096923  0.026931117           10 
  375000   0.67624446   -6.1350651    121.68506  0.027041124   0.02685531           13 
  376000   0.66113651   -6.1335081    121.49753  0.026927645  0.026779114           19 
  377000   0.67326494   -6.1570843    121.43069  0.026841443  0.026703356           11 
  378000   0.67830552   -6.1210949    121.72584  0.026835503  0.026627594           14 
  379000   0.67496938   -6.1600301    121.65636   0.02674942  0.026552371           15 
  380000   0.66134324   -6.1584963    121.82923  0.026716936  0.026476936           16 
  381000   0.66357162   -6.1467603    121.58318  0.026592996  0.026401667           11 
  382000   0.65480718   -6.1819315    121.48133  0.026501164  0.026326346           32 
  383000   0.65772313   -6.1556255    121.95679  0.026535419  0.026250939           16 
  384000   0.65436609    -6.198588    121.57766  0.026384041  0.026175521            9 
  385000   0.64394979   -6.1695589    121.45842  0.026289701  0.026099869           18 
  386000    0.6507397   -6.2106044    121.46824  0.026223714  0.026024513           16 
  387000   0.65254254   -6.1716714    121.54171  0.026171771  0.025949408           13 
  388000   0.66090635   -6.1882328    121.54378  0.026104764  0.025874327           17 
  389000   0.65114774   -6.1844497    121.60246  0.026050228  0.025799715           13 
  390000   0.66022274   -6.1867429     121.6903  0.026002201  0.025725233           17 
  391000   0.64006087   -6.1953545     121.7349  0.025945205  0.025650467           12 
  392000   0.65089731   -6.2017081    121.70484  0.025872628  0.025576184           10 
  393000   0.64265555   -6.2123563     121.5879  0.025781997  0.025501744           14 
  394000    0.6243945   -6.2289404    121.49888  0.025697732  0.025427631           17 
  395000   0.63779655   -6.1926618    121.63521  0.025661436  0.025353949           24 
  396000   0.63181735   -6.2002166    121.80671  0.025632724  0.025280445           24 
  397000   0.64171618   -6.1884988    121.64062  0.025533296  0.025207354           22 
  398000    0.6319893   -6.2335175    121.44044  0.025427229  0.025134299            9 
  399000   0.63788899   -6.2557198    121.49233  0.025374337  0.025060788           15 
  400000    0.6306791   -6.2373075    122.01911  0.025420648  0.024987969           44 
  401000   0.61908942    -6.230221    121.87151  0.025326582  0.024915641           10 
  402000   0.62185236   -6.2435915    121.84561  0.025258211  0.024843408           11 
  403000   0.62531864   -6.2479604    121.98329  0.025224006  0.024771395           37 
  404000   0.63393912    -6.233491     122.0361  0.025172462  0.024699888           19 
  405000   0.61988507    -6.253011    121.86828  0.025075777   0.02462855           14 
  406000   0.62533217   -6.2559569    122.07602  0.025056655  0.024557429           25 
  407000   0.61379115   -6.2446948     121.9629  0.024971929   0.02448628           25 
  408000   0.61547004   -6.2637975    122.10241  0.024939218  0.024414996           15 
  409000    0.6096912   -6.2647221    121.96072  0.024849372  0.024344236           12 
  410000   0.60511068    -6.264082    122.22494  0.024842467  0.024273928           16 
  411000   0.61768971   -6.2640621    121.94316  0.024724891  0.024203519           19 
  412000   0.61613036   -6.2845031    121.90773  0.024657713  0.024133325           21 
  413000   0.61433054   -6.2852726    122.07092  0.024630936  0.024063485           27 
  414000   0.60993831    -6.283542    122.29605  0.024616758  0.023993818           19 
  415000   0.59226365   -6.3073451     122.0942  0.024516908  0.023924246           26 
  416000   0.60759773   -6.2847923    122.26271  0.024491729  0.023854992           12 
  417000   0.61455058   -6.2831627    121.96392  0.024373285   0.02378578           12 
  418000     0.602044   -6.3012637    121.87087  0.024296424  0.023716156           19 
  419000   0.60745157    -6.282026    122.08246  0.024280521  0.023646932           28 
  420000   0.59870391   -6.3034798    122.16385  0.024238859  0.023577734           39 
  421000   0.59022581   -6.3321048    121.71709  0.024092852  0.023508268           18 
  422000   0.59040846   -6.3259173      121.788  0.024049764  0.023438855           17 
  423000   0.60817372    -6.345737    121.83391  0.024001953  0.023369902           14 
  424000   0.59159248   -6.3366412    121.69024  0.023917107  0.023301153           12 
  425000   0.58089069   -6.3229939    121.82767  0.023887778  0.023232543           38 
  426000   0.58721017   -6.3184884     121.9214  0.023850039  0.023163872           25 
  427000   0.58180622   -6.3306795    121.88698  0.023787466  0.023095541           36 
  428000   0.57654037   -6.3389138    121.83372  0.023721519  0.023027261           25 
  429000   0.57977504   -6.3388837    121.97473  0.023693614  0.022959277           25 
  430000   0.57897316    -6.389077    121.59392  0.023564714  0.022891294           35 
  431000   0.58149385   -6.3488915    122.14686  0.023616949  0.022823693           17 
  432000   0.57126175   -6.3753385    122.12389  0.023557849  0.022756202           66 
  433000   0.58008611   -6.3637052    121.87433  0.023455413   0.02268882           34 
  434000    0.5630554   -6.3750056    121.71004  0.023369824  0.022621495           32 
  435000   0.56725569   -6.3837095    121.93658  0.023359497  0.022554168           25 
  436000   0.56205098    -6.392921    121.97609  0.023313473  0.022487188           25 
  437000   0.57894087   -6.3937544    121.83526  0.023233269  0.022420423           14 
  438000   0.57309041   -6.4028724    121.75278  0.023164532  0.022353925           27 
  439000    0.5659169   -6.3956731    121.55993  0.023075158  0.022287404           56 
  440000   0.57180821    -6.394296    121.74284  0.023057355  0.022221007           32 
  441000   0.57024596   -6.3877701    122.01542   0.02305658  0.022154895           39 
  442000   0.56822449   -6.4059066    121.75766  0.022955817  0.022088944           24 
  443000   0.56912372   -6.3923421    121.77192  0.022906682   0.02202324           19 
  444000    0.5704796   -6.3788447    121.87136  0.022873754  0.021957977           21 
  445000    0.5573051   -6.3865743    122.03381  0.022852772  0.021892726           25 
  446000   0.55299159   -6.4214292    121.64501  0.022728889  0.021827469           40 
  447000   0.55665916   -6.4224998    121.66845   0.02268241  0.021762186           62 
  448000   0.55366026   -6.4195364    121.71618  0.022640659  0.021697194           69 
  449000   0.54834891   -6.4119435    121.52137  0.022554078  0.021632261           92 
  450000   0.55175255   -6.4486286    121.39608  0.022480756  0.021567463           69 
  451000   0.56015908   -6.4303974    121.37363  0.022426761  0.021502697           28 
  452000   0.54795551   -6.4595851    121.39875  0.022381775  0.021438033           59 
  453000   0.54452136    -6.452365    121.23335  0.022301942  0.021373515           52 
  454000   0.54836618   -6.4363411    121.23734   0.02225355  0.021309115           45 
  455000   0.53539021   -6.4458773    121.30878  0.022217725  0.021245018           43 
  456000   0.53792754   -6.4528204    121.13324  0.022136922  0.021180944           72 
  457000   0.53060412   -6.4683749    121.55811  0.022165958  0.021117163           22 
  458000    0.5424179   -6.4582468    121.53727  0.022113768  0.021053627           48 
  459000   0.53664596   -6.4764178    120.97464  0.021963443  0.020990316           73 
  460000   0.52843896   -6.4652998    121.47569  0.022006466  0.020927058           60 
  461000   0.52605672   -6.4727979    121.29183  0.021925494  0.020864009          128 
  462000   0.53366141   -6.4704347    121.24041  0.021868761   0.02080098           76 
  463000    0.5288167   -6.4656983    121.45419  0.021860005   0.02073819           68 
  464000   0.52758347   -6.5008716    121.17249  0.021762301  0.020675528           38 
  465000   0.53617503   -6.4806063     121.2486  0.021729139  0.020613169           52 
  466000   0.53034743   -6.4958736    121.09104  0.021654335  0.020550723           99 
  467000   0.51863677   -6.5003424    121.07593   0.02160527  0.020488471           66 
  468000   0.53501797     -6.50449    120.92715  0.021532612  0.020426325           61 
  469000   0.52444642    -6.503025    121.17021  0.021529887  0.020364351           86 
  470000   0.51368962   -6.5093281     120.9451  0.021444167  0.020302573           52 
  471000   0.51361888   -6.5096174    120.94521  0.021398657  0.020240849          106 
  472000   0.51462825   -6.5136492     120.8357  0.021333986  0.020179309           79 
  473000   0.50578652   -6.5257616    120.79752  0.021282156  0.020117792           77 
  474000   0.52100868    -6.531692    120.83301  0.021243497  0.020056575           76 
  475000    0.5052233   -6.5301541    120.79537   0.02119217  0.019995515           86 
  476000   0.50760554   -6.5151947    120.76604  0.021142514  0.019934595          169 
  477000   0.50644191   -6.5314379    120.76348  0.021097743  0.019873717           63 
  478000   0.51160352   -6.5421787    120.68107  0.021039238  0.019813085           43 
  479000   0.49724329   -6.5428436    120.58654  0.020978869  0.019752558           63 
  480000   0.50047041   -6.5420103    120.58429  0.020934772  0.019692182          172 
  481000    0.4871709   -6.5561574    120.45868  0.020869488  0.019632059          115 
  482000   0.50161857   -6.5516427    120.50565  0.020834309  0.019572031           88 
  483000   0.48819219   -6.5615639     120.3725  0.020768202  0.019512107           77 
  484000   0.49805677   -6.5593561    120.47358  0.020742697  0.019452283           51 
  485000   0.48107168   -6.5584322    120.26878  0.020664739  0.019392606           50 
  486000   0.48360285   -6.5758291    120.58822  0.020676993  0.019333258          146 
  487000   0.49422145   -6.5871454     120.4769  0.020615487  0.019273991          237 
  488000   0.48620594   -6.5782033    120.29942  0.020542934  0.019214936           60 
  489000   0.49133958   -6.5683446    120.34213  0.020508203   0.01915606          149 
  490000   0.48438838   -6.5817017    120.35462  0.020468472  0.019097375          107 
  491000   0.48381667   -6.5968205    120.41381  0.020436831  0.019038992           83 
  492000   0.48673188   -6.5942662    120.25259  0.020367985  0.018980719          101 
  493000    0.4848494   -6.5782383    120.27988  0.020331285  0.018922692           94 
  494000   0.47648337   -6.5843884    120.21374  0.020278972  0.018864801          101 
  495000   0.47115659   -6.5967613    120.05784  0.020211758  0.018807054           78 
  496000   0.47106269   -6.5970703    120.34154  0.020218672  0.018749511          139 
  497000   0.47198816    -6.605752    120.05436  0.020129839  0.018692182           69 
  498000    0.4767394   -6.6180587    120.26002  0.020123831  0.018635063          153 
  499000   0.47705279    -6.597264     120.2154  0.020076052  0.018578202          211 
  500000   0.46888363    -6.622833    120.17421  0.020029034  0.018521514           93 
  501000   0.46514569   -6.6132496    120.18937  0.019991579  0.018465037           71 
  502000   0.46419249   -6.6258274    120.06949  0.019931855   0.01840874           56 
  503000   0.45863015   -6.6199336    120.02142  0.019884264   0.01835249          220 
  504000   0.45876105   -6.6299184    120.03836  0.019847612  0.018296479          131 
  505000   0.45644702   -6.6228241    120.24597  0.019842569   0.01824071          112 
  506000   0.46408662   -6.6326403    120.04416  0.019770119  0.018185069          295 
  507000   0.45486574   -6.6168495     119.9723  0.019719312  0.018129629          223 
  508000   0.45114809   -6.6295665    120.06007  0.019694894  0.018074412          208 
  509000   0.45883752   -6.6252306    119.98523  0.019643947  0.018019424          236 
  510000   0.45951356   -6.6278119    119.88382   0.01958886  0.017964507          243 
  511000   0.44765921   -6.6476679    120.07313  0.019581397  0.017909826          251 
  512000   0.45195153   -6.6397112    119.95327  0.019523644   0.01785526          182 
Loop time of 1279.39 on 48 procs for 500000 steps with 4000 atoms

Performance: 67532.083 tau/day, 390.811 timesteps/s
99.4% CPU use with 48 MPI tasks x no OpenMP threads

MPI task timing breakdown:
Section |  min time  |  avg time  |  max time  |%varavg| %total
---------------------------------------------------------------
Pair    | 91.882     | 97.014     | 105.11     |  32.7 |  7.58
Neigh   | 8.8403     | 9.1309     | 9.4872     |   4.8 |  0.71
Comm    | 81.258     | 88.535     | 93.61      |  31.1 |  6.92
Output  | 0.90162    | 0.90247    | 0.92818    |   0.4 |  0.07
Modify  | 1067       | 1072.2     | 1074.8     |   4.8 | 83.81
Other   |            | 11.58      |            |       |  0.90

Nlocal:        83.3333 ave          89 max          77 min
Histogram: 5 1 4 3 6 10 7 4 4 4
Nghost:        2377.50 ave        2406 max        2360 min
Histogram: 2 7 6 13 9 5 2 2 1 1
Neighs:        16372.0 ave       18440 max       14267 min
Histogram: 4 3 5 5 7 5 6 5 5 3
FullNghs:      32743.6 ave       34917 max       30107 min
Histogram: 3 3 4 4 7 2 9 8 4 4

Total # of neighbors = 1571695
Ave neighs/atom = 392.92375
Neighbor list builds = 26831
Dangerous builds = 0

#clear
#
#next RN
#
#jump SELF
Total wall time: 0:21:22
