
units lj                  # Use reduced LJ style units
atom_style atomic         # Uncharged point particles
atom_modify map hash      # Needed for indexing of clusters etc
                          # Used to be able to find where atoms are in relation to each other.

lattice fcc 1.0 spacing 1 1 1
Lattice spacing in x,y,z = 1.5874011 1.5874011 1.5874011
region box block 0 10 0 10 0 10 units lattice
create_box 2 box
Created orthogonal box = (0.0000000 0.0000000 0.0000000) to (15.874011 15.874011 15.874011)
  3 by 4 by 4 MPI processor grid
create_atoms 1 box
Created 4000 atoms
  using lattice units in orthogonal box = (0.0000000 0.0000000 0.0000000) to (15.874011 15.874011 15.874011)
  create_atoms CPU = 0.002 seconds
set type 1 type/fraction 2 0.14 78393
Setting atom values ...
  590 settings made for type/fraction
mass 1 1.0
mass 2 1.0
pair_style lj/cut  3.5
pair_modify tail  yes
pair_coeff 1  1  1.0  1.0   # Intearaction between 1 and 1 set with epsilon = 1 and sigma = 1
pair_coeff 1  2  1.5  0.8
pair_coeff 2  2  0.5  0.88

write_data data.0
System init for write_data ...
Neighbor list info ...
  update every 1 steps, delay 10 steps, check yes
  max neighbors/atom: 2000, page size: 100000
  master list distance cutoff = 3.8
  ghost atom cutoff = 3.8
  binsize = 1.9, bins = 9 9 9
  1 neighbor lists, perpetual/occasional/extra = 1 0 0
  (1) pair lj/cut, perpetual
      attributes: half, newton on
      pair build: half/bin/atomonly/newton
      stencil: half/bin/3d
      bin: standard
WARNING: Not all mixed pair coeffs generated from mixing. Use write_data with 'pair ij' option to store all pair coeffs. (../write_data.cpp:312)


#############################
#   M E L T   S Y S T E M   #
#############################

velocity all create 2.4 8172548 mom yes dist gaussian # Assign velocities
                                                    # Temperature 2.4, random number seed, zero linear momentum
                                                                                # Gaussian distribution

timestep 0.002   # simulation timestep
thermo 1000       # output thermodynamic data every 1000 steps bf 100

# Define a fix  in this case with index 1 applied to all
# particles in the simulation. This fix is for simulations
# in the anisotropic NPT ensemble. Note that we use the MTK
# correction.
fix 1 all npt temp 2.4 2.4 0.1 iso 5.68 5.68 0.5 mtk yes tchain 5 pchain 5 # Use NPT ensemble
                                                                         # Set temperature and pressure and damping
                                                                         # Numbers of thermostats in chain and in barostat
run 10000          # run for 10000 steps
Per MPI rank memory allocation (min/avg/max) = 3.642 | 3.644 | 3.648 Mbytes
Step Temp E_pair E_mol TotEng Press Volume 
       0          2.4   -7.4253508            0   -3.8262508   -3.2887046         4000 
    1000    2.3879114   -4.7618514            0   -1.1808797    5.4545129    4684.0114 
    2000    2.4510577   -4.7218961            0   -1.0462287    5.5989378    4697.1212 
    3000     2.373715   -4.7072122            0   -1.1475298    5.6190467    4692.0152 
    4000    2.4366741   -4.6305924            0  -0.97649505    5.7091985    4731.3415 
    5000    2.3415106   -4.7316924            0   -1.2203046    5.5250764    4685.4567 
    6000    2.4169452    -4.642296            0   -1.0177846    5.4586055    4752.4513 
    7000    2.4156734    -4.705611            0   -1.0830068    5.7451964    4676.9897 
    8000    2.3685027   -4.7623164            0   -1.2104505    5.3033798     4694.496 
    9000    2.3514873   -4.6951568            0   -1.1688077    5.6731165    4695.5503 
   10000    2.4040749    -4.667867            0   -1.0626562    5.6573048    4699.8686 
Loop time of 2.21501 on 48 procs for 10000 steps with 4000 atoms

Performance: 780132.928 tau/day, 4514.658 timesteps/s
99.6% CPU use with 48 MPI tasks x no OpenMP threads

MPI task timing breakdown:
Section |  min time  |  avg time  |  max time  |%varavg| %total
---------------------------------------------------------------
Pair    | 0.9373     | 0.99292    | 1.0518     |   2.9 | 44.83
Neigh   | 0.19217    | 0.20005    | 0.21021    |   0.9 |  9.03
Comm    | 0.69663    | 0.77053    | 0.86376    |   3.9 | 34.79
Output  | 0.0002406  | 0.00024478 | 0.00031177 |   0.0 |  0.01
Modify  | 0.20329    | 0.23675    | 0.26283    |   3.7 | 10.69
Other   |            | 0.01451    |            |       |  0.65

Nlocal:        83.3333 ave          93 max          70 min
Histogram: 1 0 1 8 7 6 13 6 3 3
Nghost:        1483.71 ave        1511 max        1458 min
Histogram: 5 3 6 8 6 3 4 3 4 6
Neighs:        8110.02 ave        9411 max        6593 min
Histogram: 1 1 3 9 7 7 9 9 0 2

Total # of neighbors = 389281
Ave neighs/atom = 97.320250
Neighbor list builds = 906
Dangerous builds = 208

# Equilibrate just above the melting temperature to avoid step fn in T

fix 1 all npt temp 1.25 1.25 0.1 iso 5.68 5.68 0.5 mtk yes tchain 5 pchain 5
run 2000
Per MPI rank memory allocation (min/avg/max) = 3.642 | 3.644 | 3.648 Mbytes
Step Temp E_pair E_mol TotEng Press Volume 
   10000    2.4040749    -4.667867            0   -1.0626562    5.6573048    4699.8686 
   11000    1.2793631   -6.3337183            0   -4.4151533     5.611817    3855.8397 
   12000    1.2479397   -6.4197155            0    -4.548274    5.4724632    3833.6929 
Loop time of 0.500223 on 48 procs for 2000 steps with 4000 atoms

Performance: 690891.773 tau/day, 3998.216 timesteps/s
99.6% CPU use with 48 MPI tasks x no OpenMP threads

MPI task timing breakdown:
Section |  min time  |  avg time  |  max time  |%varavg| %total
---------------------------------------------------------------
Pair    | 0.20638    | 0.23296    | 0.26566    |   2.3 | 46.57
Neigh   | 0.031589   | 0.033949   | 0.038432   |   0.7 |  6.79
Comm    | 0.14458    | 0.17457    | 0.19839    |   3.0 | 34.90
Output  | 5.0746e-05 | 5.2207e-05 | 6.7799e-05 |   0.0 |  0.01
Modify  | 0.041129   | 0.054208   | 0.070926   |   3.9 | 10.84
Other   |            | 0.00448    |            |       |  0.90

Nlocal:        83.3333 ave          91 max          74 min
Histogram: 1 1 6 2 9 13 4 4 5 3
Nghost:        1687.31 ave        1713 max        1666 min
Histogram: 3 5 8 6 6 7 5 5 2 1
Neighs:        9970.21 ave       11003 max        8590 min
Histogram: 1 0 3 6 9 9 8 4 3 5

Total # of neighbors = 478570
Ave neighs/atom = 119.64250
Neighbor list builds = 144
Dangerous builds = 10

#############################
# L I N E A R  Q U E N C H  #
#############################

# Define solid atoms. This closely follows ten Wolde  Ruiz-Montero and Frenkel  Faraday Discuss  1996  104  93-110
# Compute components of the per-atom q6 vector
compute q6 all orientorder/atom degrees 1 6 components 6 nnn NULL cutoff 1.3 # compute the Q6 parameter.
                                                                             # Use all neighbours within 1.3 unit cell.

# get number of connections
compute coord_number all coord/atom orientorder q6 0.5

# An atom is solid if it has 8 or more connections (of a possible 14)
variable is_solid atom c_coord_number>=8
group solid dynamic all var is_solid    # Must be dynamic to update
dynamic group solid defined

# do clustering
compute cluster solid cluster/atom 1.3 # Create a cluster where all atoms within are solid and max 1.3 units from another member

# define chunks one chunk per cluster
compute clus_chunks solid chunk/atom c_cluster nchunk every compress yes  # Says which atoms are in which chunk

# count the size of each chunk
compute size_chunks solid property/chunk clus_chunks count


# Find the maximum entry in the vector of chunk sizes
variable max_n equal max(c_size_chunks)


# Thermo style which includes this variable
# thermo_style custom step temp pe vol v_max_n

thermo ${N}  # Print the thermo information every 100 steps
thermo 1000  

# Reset the npt fix at a lower temperature (below freezing)
fix 1  all npt temp  ${temp} ${temp}  0.1  iso  5.68  5.68  0.5  mtk yes tchain  5  pchain  5
fix 1  all npt temp  0.45 ${temp}  0.1  iso  5.68  5.68  0.5  mtk yes tchain  5  pchain  5
fix 1  all npt temp  0.45 0.45  0.1  iso  5.68  5.68  0.5  mtk yes tchain  5  pchain  5

dump dmp2 all dcd ${N} traj.dcd
dump dmp2 all dcd 1000 traj.dcd


compute msd all msd com yes
variable twopoint equal c_msd[4]/6/(step*dt+1.0e-6)
fix 9 all vector 10 c_msd[4]
variable fit equal slope(f_9)/6/(10*dt)
thermo_style custom step temp pe c_msd[4] v_twopoint v_fit v_max_n

fix 1 all npt temp 1.25 ${temp} 0.1 iso 5.68 5.68 0.5 mtk yes tchain 5 pchain 5
fix 1 all npt temp 1.25 0.45 0.1 iso 5.68 5.68 0.5 mtk yes tchain 5 pchain 5
run 5000000 # 5000000  # Run for this many steps
Neighbor list info ...
  update every 1 steps, delay 10 steps, check yes
  max neighbors/atom: 2000, page size: 100000
  master list distance cutoff = 3.8
  ghost atom cutoff = 3.8
  binsize = 1.9, bins = 9 9 9
  4 neighbor lists, perpetual/occasional/extra = 1 3 0
  (1) pair lj/cut, perpetual
      attributes: half, newton on
      pair build: half/bin/atomonly/newton
      stencil: half/bin/3d
      bin: standard
  (2) compute orientorder/atom, occasional
      attributes: full, newton on
      pair build: full/bin/atomonly
      stencil: full/bin/3d
      bin: standard
  (3) compute coord/atom, occasional
      attributes: full, newton on
      pair build: full/bin/atomonly
      stencil: full/bin/3d
      bin: standard
  (4) compute cluster/atom, occasional
      attributes: full, newton on
      pair build: full/bin/atomonly
      stencil: full/bin/3d
      bin: standard
Per MPI rank memory allocation (min/avg/max) = 9.759 | 9.765 | 9.773 Mbytes
Step Temp PotEng c_msd[4] v_twopoint v_fit v_max_n 
   12000    1.2479397   -6.4197155 1.714392e-30 1.1905499e-32 8.3333333e+20            2 
   13000    1.2390941   -6.3233905   0.56040919 0.0035923665  0.046486574            1 
   14000    1.2699454   -6.3354997    1.1129733 0.0066248408  0.046525041            1 
   15000    1.2388962    -6.320353    1.6840993  0.009356107  0.046392753            2 
   16000    1.2575561   -6.3049623    2.1749747  0.011327993   0.04555927            3 
   17000    1.2560321   -6.3850472    2.6680773   0.01307881  0.044651162            2 
   18000     1.236281   -6.3509047    3.1737761  0.014693407  0.043857796            4 
   19000     1.247999   -6.3490671    3.6808855  0.016144234  0.043414135            2 
   20000    1.2436005   -6.3406207    4.2265038  0.017610432  0.043378534            2 
   21000    1.2706521   -6.3519514     4.657909  0.018483765  0.043125605            2 
   22000    1.2491607   -6.3358888    5.1921424  0.019667206  0.042852793            1 
   23000    1.2480155   -6.3604762    5.7242762  0.020740131  0.042693504            4 
   24000    1.2341827   -6.3574552    6.2642142  0.021750743  0.042759002            3 
   25000    1.2311955    -6.352557    6.8623923   0.02287464  0.042885192            2 
   26000    1.2297596   -6.3377758    7.3902186  0.023686598  0.043169362            2 
   27000    1.2515914    -6.356862    7.9074272  0.024405639  0.043377166            8 
   28000    1.2461264   -6.3702639    8.4797044  0.025237215  0.043474428            5 
   29000    1.2593646   -6.3524985    9.0169449  0.025910761  0.043649581            1 
   30000    1.2503243   -6.3625967    9.5849027  0.026624729  0.043746436            3 
   31000    1.2457308   -6.3574865    10.174848  0.027351742  0.043927318            2 
   32000    1.2317627   -6.3491537    10.710774  0.027892639  0.044126446            2 
   33000    1.2448409   -6.4063309    11.233598  0.028367671  0.044267645            4 
   34000    1.2432394   -6.4026898     11.75462  0.028810343  0.044358551            3 
   35000    1.2534302   -6.3762173     12.35457  0.029415642  0.044427882            1 
   36000    1.2442044   -6.3636666    12.862372  0.029774008  0.044478788            2 
   37000    1.2584974   -6.3888304    13.439059  0.030268149  0.044525444            2 
   38000    1.2776986   -6.3763165    14.020893  0.030747572  0.044658552            3 
   39000    1.2433121    -6.388078    14.516054  0.031017208  0.044769501            2 
   40000    1.2654289    -6.380718    14.920214  0.031083778  0.044782941            2 
   41000    1.2300903   -6.3793248    15.446845  0.031396026  0.044735137            3 
   42000    1.2565233   -6.4000684    15.932821   0.03161274  0.044683403            1 
   43000    1.2717094   -6.4150764    16.400552  0.031784015  0.044614011            1 
   44000     1.279873   -6.3990188    16.929238  0.032062951  0.044543767            2 
   45000    1.2432692   -6.3449665    17.515459  0.032436035  0.044499777            1 
   46000    1.2639669   -6.3457241    18.231999  0.033028984  0.044496628            2 
   47000     1.256184   -6.3725684    18.673252  0.033108602  0.044538234            4 
   48000    1.2214709   -6.3683944    19.150611  0.033247589  0.044530372            2 
   49000    1.2492221   -6.3788897    19.739578   0.03357071  0.044527943            2 
   50000    1.2465966   -6.3601541    20.291189  0.033818648  0.044540147            2 
   51000    1.2411362   -6.3671115    20.809623  0.034002652  0.044542834            3 
   52000    1.2151396    -6.361377      21.1949  0.033966186  0.044504556            3 
   53000    1.2307788   -6.3896578    21.609624  0.033977395   0.04443956            5 
   54000    1.2187431   -6.3511115    22.007184  0.033961703  0.044358721            2 
   55000    1.2375382   -6.3835915     22.61597  0.034266621  0.044287118            2 
   56000    1.2506631   -6.3828127    23.079631  0.034344688  0.044216653            2 
   57000    1.2485657   -6.3736768    23.603747  0.034508401  0.044150775            2 
   58000    1.2370941   -6.3727246    24.305824  0.034922161  0.044102578            3 
   59000    1.2486049   -6.3803329    25.063134  0.035399907  0.044106177            2 
   60000    1.2416002   -6.3912298    25.922335  0.036003243  0.044162856            2 
   61000      1.26549   -6.3514325    26.494315  0.036194419  0.044260616            1 
   62000    1.2459997   -6.3666136    27.101801  0.036427152  0.044356828            2 
   63000    1.2217901   -6.3258106    27.777339  0.036742512  0.044456157            2 
   64000    1.2608062   -6.3548141    28.166254  0.036674809  0.044552484            1 
   65000    1.2342898   -6.3667262    28.704436  0.036800559  0.044635677            1 
   66000    1.2393224   -6.3574513    29.077013    0.0367134  0.044684208            2 
   67000    1.2410514   -6.3239755    29.500885  0.036692642  0.044703969            1 
   68000    1.2153175   -6.3959937    30.201337  0.037011443  0.044724157            3 
   69000    1.2631416   -6.3424965    30.705582  0.037084036  0.044756682            2 
   70000    1.2476809   -6.3507553    31.191297  0.037132496  0.044777122            2 
   71000    1.2576741   -6.3746034    31.837651  0.037368135  0.044801311            2 
   72000    1.2333339   -6.3838717      32.2618  0.037340046  0.044817968            3 
   73000    1.2467098   -6.3845878    32.625477  0.037243695  0.044817104            1 
   74000    1.2090305   -6.3933311     33.14857   0.03732947  0.044809544            1 
   75000    1.2384074   -6.3961166    33.530943  0.037256603  0.044787238            3 
   76000    1.2578836   -6.3803681    34.029944  0.037313535  0.044758498            2 
   77000    1.2115086   -6.3740927    34.576951  0.037420943  0.044739215            7 
   78000    1.2383173   -6.3539076    35.543358  0.037973673  0.044743022            3 
   79000    1.2327251   -6.4101996    36.028578  0.038004828  0.044763353            1 
   80000     1.227112   -6.3307929    36.779162  0.038311627  0.044787444            2 
   81000    1.2459446   -6.3660947    37.047092  0.038114292   0.04480258            1 
   82000    1.2194624   -6.3908915    37.399275  0.038007393  0.044802045            2 
   83000    1.2136492   -6.3763177    37.849632  0.038001639  0.044785806            2 
   84000    1.2399805   -6.3302425    38.308871  0.038004832  0.044754003            3 
   85000     1.215494   -6.3414272    38.789732  0.038029149  0.044725708            2 
   86000     1.214935   -6.3484768    39.344512  0.038124526  0.044688917            3 
   87000    1.2532947   -6.3702881    40.049897   0.03836197  0.044666772            2 
   88000     1.247799   -6.3423079    40.764799  0.038603029  0.044659011            3 
   89000    1.2430565   -6.3717575    41.120833  0.038502653  0.044656901            2 
   90000    1.2315775    -6.421036    41.587857  0.038507275  0.044648543            4 
   91000    1.2303093   -6.3560244    41.997191  0.038458966  0.044635209            1 
   92000    1.2376368   -6.3361733    42.600277  0.038587207  0.044620437            3 
   93000    1.2274549   -6.3686523    42.899898  0.038440768  0.044594844            3 
   94000    1.2463173   -6.3723877    43.654171  0.038700506  0.044576533            5 
   95000     1.247154   -6.3846535     44.21677   0.03878664  0.044567486            3 
   96000    1.2157028   -6.3828819    44.579546  0.038697522  0.044548018            2 
   97000    1.2643801   -6.3796234     45.02968  0.038685292  0.044523165            3 
   98000    1.2249077   -6.4064284    45.384567  0.038592318  0.044497268            3 
   99000    1.1985376    -6.354772    46.015414  0.038733514  0.044466525            2 
  100000    1.2350936   -6.3822116     46.54549  0.038787909  0.044439394            2 
  101000     1.232491   -6.3929364       47.224  0.038963696  0.044425229            1 
  102000    1.2533623   -6.3745129    47.805713  0.039056955  0.044413426            3 
  103000    1.2002049   -6.4013915    48.118123   0.03893052  0.044399666            2 
  104000    1.2179522   -6.3564768    48.795797  0.039099196  0.044382229            1 
  105000    1.2052942   -6.4154812    49.245271  0.039083548  0.044367596            2 
  106000     1.247127    -6.389669    50.031961  0.039333302  0.044353441            2 
  107000     1.249884   -6.3719121    50.507908  0.039336377  0.044339391            2 
  108000    1.2195422    -6.368461     50.82773  0.039218927  0.044330205            4 
  109000    1.2307706   -6.3985997    51.596421  0.039446805  0.044319926            4 
  110000    1.2518373   -6.3939485    52.333802  0.039646819  0.044315452            2 
  111000    1.2383783   -6.3781139    52.769846  0.039617002  0.044323308            2 
  112000    1.2300284   -6.3677124    53.586904  0.039871208  0.044331797            4 
  113000    1.2404127   -6.3993966    53.805633   0.03967967  0.044338497            3 
  114000    1.2264703    -6.366258    54.636183   0.03993873  0.044345609            2 
  115000    1.2289592   -6.3732846    55.258665  0.040042511  0.044359268            2 
  116000    1.2567122   -6.3831567    55.503648   0.03987331  0.044365892            1 
  117000    1.2435493   -6.3691282    55.976445  0.039869262  0.044361855            3 
  118000    1.2366803   -6.3826241    56.110714   0.03962621  0.044351635            3 
  119000    1.2162692   -6.4034857    56.645302  0.039667578  0.044334993            2 
  120000    1.2518855   -6.3655411    57.205712  0.039726189  0.044320679            3 
  121000    1.2365264   -6.3715048     57.72087  0.039752665  0.044306549            2 
  122000    1.2484306   -6.4236607    58.065308  0.039662095   0.04428748            2 
  123000    1.2348438   -6.3912869    58.382644  0.039554637   0.04426349            1 
  124000    1.2417509   -6.3640493    58.919291  0.039596297   0.04423918            2 
  125000     1.252094   -6.3802342    59.757821  0.039838547  0.044224253            2 
  126000    1.2389208   -6.3699423    60.216826  0.039825943  0.044210205            2 
  127000    1.2420593   -6.3877333    60.690269  0.039823011  0.044195794            2 
  128000    1.2360336   -6.3809065    61.572214  0.040086077  0.044185843            3 
  129000    1.2520304   -6.4200555    61.686041  0.039848863  0.044178856            2 
  130000    1.2154711   -6.4088928    62.415353  0.040009842  0.044168228            2 
  131000    1.2441339    -6.360871    62.827576  0.039966651  0.044155767            1 
  132000    1.2489205   -6.4033548    63.064881  0.039813688   0.04413868            2 
  133000    1.2358484   -6.3877414     63.58156   0.03983807  0.044119133            5 
  134000    1.2399314   -6.3898345    64.126508  0.039879669  0.044100029            1 
  135000    1.2480304   -6.3571791    64.743062  0.039964853  0.044080279            3 
  136000    1.2453831   -6.3903107    64.939648  0.039791451  0.044057872            3 
  137000    1.2537374   -6.4146013    65.119777   0.03961057  0.044031813            2 
  138000    1.2122678    -6.375146     66.06512  0.039894396  0.044005683            2 
  139000     1.262865   -6.4020341     66.01852  0.039579448  0.043977034            3 
  140000    1.2515544   -6.4117465    66.591113  0.039637567  0.043946177            3 
  141000    1.2585571    -6.394743    67.375161  0.039819835  0.043920087            4 
  142000    1.2207374   -6.4088853    67.977038  0.039892628  0.043901647            3 
  143000    1.2303587    -6.381087    68.678114  0.040022211  0.043880468            3 
  144000    1.2149649   -6.3754267    68.968661  0.039912419  0.043862703            2 
  145000     1.220916    -6.370821    69.650394  0.040028962  0.043840192            2 
  146000    1.2259026   -6.3854935    70.065549  0.039991752  0.043818306            2 
  147000    1.2287835   -6.3606687    70.489939  0.039960283  0.043795643            1 
  148000     1.260874   -6.3678964    71.066081  0.040014685  0.043773266            2 
  149000    1.2042411   -6.3951588    71.584284  0.040035953  0.043754949            2 
  150000    1.2425308   -6.4119389    72.237932  0.040132184   0.04373923            3 
  151000    1.2122119      -6.3928    72.603547  0.040068183  0.043723418            2 
  152000    1.2250427   -6.4097036    73.292803  0.040182457  0.043708487            1 
  153000    1.2189473   -6.3949502    73.883658  0.040241643  0.043695059            2 
  154000     1.228296   -6.3780305    74.480033  0.040303048  0.043680404            2 
  155000    1.2198477   -6.3684807    74.918659  0.040278849  0.043666022            1 
  156000    1.2373395   -6.3857543    75.411655  0.040284004  0.043659188            2 
  157000    1.2217468   -6.3774595    76.075491  0.040379772  0.043649562            4 
  158000    1.2242254   -6.3871293    76.798323  0.040505444  0.043644851            2 
  159000    1.2560345    -6.381884    77.602912  0.040672386  0.043646196            3 
  160000    1.2312912   -6.4146672    78.093191  0.040673537  0.043649539            1 
  161000    1.2319204   -6.3745288    78.907933  0.040842615  0.043657007            3 
  162000    1.2232151   -6.3993286    79.243945  0.040763346  0.043663607            2 
  163000    1.2171842   -6.3821137    79.958986  0.040878827  0.043671563            1 
  164000    1.2410121   -6.3824043    80.107116  0.040704835  0.043676384            4 
  165000    1.2526302   -6.4049286    81.004917  0.040911574  0.043680879            1 
  166000    1.2264045   -6.3715025    81.355377  0.040841052  0.043687925            2 
  167000    1.2235193   -6.4015203    82.000513  0.040918419  0.043696782            3 
  168000    1.2167394   -6.4122823    83.006761  0.041173989  0.043707036            1 
  169000    1.2259662   -6.3697474    83.192319  0.041021853  0.043718167            2 
  170000    1.2069908   -6.3764262    84.245642  0.041296883  0.043732343            2 
  171000    1.2188851   -6.3931938      84.6681  0.041261257  0.043746875            4 
  172000    1.2311105   -6.4295184     84.76673  0.041069152  0.043761663            1 
  173000     1.210657   -6.4145125    86.157673  0.041501769  0.043779959            1 
  174000    1.2130935    -6.389939     86.55703  0.041454516  0.043797588            1 
  175000     1.222274   -6.3796586    86.786548  0.041326928  0.043810943            1 
  176000    1.2177451   -6.3954163    87.228391  0.041301321  0.043824715            4 
  177000    1.2248412   -6.3742284    87.944445  0.041405106  0.043836997            4 
  178000    1.2110736   -6.3638624    88.187246  0.041286164  0.043847782            1 
  179000    1.2134631   -6.4147769     88.28951  0.041103124  0.043855912            2 
  180000    1.1859782   -6.4085181    88.853351   0.04113581  0.043861764            2 
  181000    1.2126205   -6.4237244    89.341173  0.041133137  0.043865558            3 
  182000     1.210787   -6.4300845    89.894262  0.041160376  0.043868424            1 
  183000    1.2096731   -6.4029034    90.282473  0.041112237  0.043871648            4 
  184000    1.2234679   -6.4320104    90.436951  0.040958764  0.043874801            1 
  185000    1.2187484   -6.3792862    91.448416   0.04119298  0.043875854            5 
  186000    1.2118945   -6.3817701    91.783177  0.041121495  0.043877005            2 
  187000    1.2284721   -6.3842591    92.465266  0.041205555   0.04387492            1 
  188000    1.2186723   -6.3938056    93.110967  0.041272591  0.043878722            3 
  189000    1.2219233   -6.3815846     94.07166  0.041477804  0.043884839            3 
  190000    1.2195922    -6.409946     94.34215  0.041378136  0.043893099            1 
  191000     1.226165   -6.4032554    94.690796  0.041313611   0.04389673            2 
  192000    1.2321425   -6.4340052    95.076479  0.041265833  0.043897051            2 
  193000    1.2430191   -6.4552789    95.409972  0.041196016  0.043896059            1 
  194000    1.2322987   -6.4147416     95.87342  0.041182741  0.043891318            3 
  195000    1.1954322   -6.4178587    95.986553  0.041019895  0.043886011            3 
  196000    1.2120699   -6.3556807    96.704498  0.041115858  0.043879173            2 
  197000    1.2124179   -6.3992194    97.130606  0.041087397  0.043873217            2 
  198000    1.2179713   -6.4219413    97.789173  0.041157059  0.043866659            2 
  199000    1.1911591   -6.4254804    97.870466  0.040984282  0.043858469            2 
  200000    1.2011239   -6.4152641     98.46857  0.041028571  0.043847121            4 
  201000    1.2258081   -6.4355829    98.490289  0.040833453  0.043835206            4 
  202000    1.2245474   -6.3807127    99.536258  0.041062812  0.043821749            1 
  203000    1.2322347   -6.4102414    99.678555  0.040918947  0.043808874            3 
  204000    1.2122473   -6.4092274    100.22526   0.04094169  0.043793389            1 
  205000    1.1981893   -6.4226292    100.68988  0.040930846  0.043777368            2 
  206000    1.2172676   -6.3992941    100.92288  0.040826406  0.043761436            2 
  207000    1.1768111    -6.375664    101.57386  0.040891247  0.043743077            2 
  208000    1.2359498   -6.4002454    101.87621  0.040815791  0.043724544            2 
  209000    1.2301449   -6.4168724    102.19603   0.04074802  0.043704808            3 
  210000    1.2023038   -6.4064626    102.41343  0.040640249   0.04368486            2 
  211000    1.2326877   -6.4389334    102.72399  0.040570297  0.043660721            2 
  212000    1.1904398    -6.427428    103.18807  0.040561349  0.043636878            3 
  213000    1.2274687   -6.4096345    103.58467  0.040526085   0.04361185            2 
  214000     1.232632   -6.3935672    104.51748  0.040699953  0.043588243            1 
  215000    1.2524297   -6.4245579    104.82231  0.040628803  0.043563682            2 
  216000    1.2295258    -6.455211    105.13962  0.040563124  0.043539867            3 
  217000    1.2243778   -6.3802675    105.46066  0.040499484  0.043514865            2 
  218000    1.2194021   -6.3960748    105.99496  0.040517952  0.043489109            1 
  219000    1.2081226   -6.3769585    106.52113  0.040533153  0.043465883            2 
  220000    1.1997648    -6.386981    106.78054  0.040447174  0.043440534            3 
  221000    1.2204778    -6.416202     107.3224  0.040468476  0.043416194            1 
  222000    1.2259496   -6.4088175    107.91332  0.040508002  0.043391299            2 
  223000    1.2285336   -6.4466057     108.2376  0.040447532  0.043368033            2 
  224000    1.2507129   -6.4195686      108.836  0.040489582  0.043343971            4 
  225000    1.1988938   -6.4389122    109.04084  0.040385497  0.043319554            3 
  226000    1.2258279   -6.4164988    109.72141  0.040457745   0.04329416            5 
  227000    1.2051214   -6.3544888     110.3983  0.040528009  0.043270883            2 
  228000    1.2288089   -6.4360999    110.78034  0.040489891  0.043248463            3 
  229000    1.2344302    -6.367598     110.7729  0.040310371   0.04322218            2 
  230000    1.2082978   -6.3825179    111.44842  0.040379861  0.043196737            1 
  231000    1.2161881   -6.4108759    112.32951   0.04052291  0.043172143            3 
  232000    1.1939584   -6.4009952    113.11941  0.040631972  0.043150531            3 
  233000     1.211167   -6.4255106    112.57654  0.040263427  0.043127397            3 
  234000    1.2269834   -6.4030957    113.44624  0.040401081  0.043103103            1 
  235000    1.2016183   -6.4047129     113.8584   0.04037532  0.043079997            1 
  236000    1.2100386   -6.4291987     114.2278  0.040334674  0.043057733            4 
  237000    1.1782426    -6.405201     114.8152  0.040371027  0.043035215            1 
  238000    1.1971194   -6.4158365    115.06698   0.04028956  0.043011193            1 
  239000    1.2066738   -6.4371269    115.58508   0.04030163  0.042986263            2 
  240000    1.2083096   -6.4156016    115.73974  0.040187409  0.042962882            2 
  241000    1.2289192   -6.4354026    116.52628  0.040292629   0.04294073            1 
  242000    1.1716756   -6.4128122     116.8891  0.040251068  0.042917921            3 
  243000    1.2001172   -6.4235004    117.78843  0.040393837  0.042896358            4 
  244000     1.205917   -6.4066533    118.56356   0.04049302  0.042877584            2 
  245000    1.2189893   -6.3806181    118.90485  0.040443827  0.042859181            3 
  246000    1.2239407   -6.4362182    119.33676  0.040425732  0.042840447            3 
  247000    1.2269075   -6.4202239    119.98432   0.04048054  0.042821985            2 
  248000    1.2095736   -6.4237919    120.39258  0.040454497  0.042805213            3 
  249000    1.1751037   -6.4088724    121.77618  0.040755082  0.042790399            4 
  250000    1.2041038   -6.4260236    121.72271  0.040574237  0.042776642            3 
  251000    1.2183734   -6.4188555    122.73523  0.040748747  0.042764357            2 
  252000    1.2185623   -6.4376353    122.80604  0.040610463  0.042753038            3 
  253000    1.2114053   -6.4223723    123.60214  0.040712167  0.042743058            5 
  254000    1.2095346   -6.4011325    124.71754  0.040917829  0.042734884            2 
  255000    1.1737684    -6.402056    125.31355  0.040952142   0.04272854            4 
  256000    1.2153564   -6.4329323    126.10199  0.041048826  0.042722619            3 
  257000     1.215308    -6.412257    125.99186  0.040853391  0.042716646            2 
  258000    1.2264022   -6.4396786    126.63658  0.040903288  0.042710159            1 
  259000    1.2126002   -6.4058912     127.1326  0.040904956  0.042705183            4 
  260000    1.2004384   -6.4115474    127.84327  0.040975409  0.042701557            1 
  261000    1.2047228    -6.367237    128.48945  0.041024727  0.042696525            2 
  262000    1.2074158   -6.4218843    128.64186  0.040916622  0.042691088            3 
  263000     1.212867   -6.3911783    129.71847  0.041102178  0.042687883            3 
  264000    1.2247323   -6.4341708    129.73034  0.040950234  0.042683345            2 
  265000     1.218334   -6.3915055    130.26463  0.040963721  0.042677931            2 
  266000    1.2198568   -6.4193349    130.77125  0.040968438  0.042671246            1 
  267000    1.2057966   -6.4297833    131.21255  0.040952732  0.042663342            3 
  268000    1.2075306   -6.4535007    131.09565  0.040763572  0.042654386            3 
  269000    1.2213023   -6.4227094     132.3161  0.040990119  0.042645701            1 
  270000    1.2073102   -6.4085517    132.39233   0.04086183  0.042638932            6 
  271000    1.1869023    -6.441236    132.44877  0.040728404  0.042631793            7 
  272000    1.2280343   -6.4249663    133.53665  0.040911965  0.042625108            2 
  273000    1.2266034   -6.4319848    133.82457  0.040849991  0.042618452            2 
  274000    1.2399317   -6.4238744    134.30145  0.040845938  0.042610999            2 
  275000    1.2126475   -6.4045566    134.92722  0.040887037  0.042603144            2 
  276000    1.2017901   -6.4581192    135.60481  0.040943481  0.042598271            1 
  277000    1.2133521   -6.4463448    136.08338  0.040939646  0.042593916            2 
  278000    1.1798031   -6.4497101    136.78738  0.041003411  0.042590301            3 
  279000    1.2030157   -6.4173971    137.95562  0.041205381  0.042586564            2 
  280000    1.2112448   -6.4347398    137.89883  0.041041318  0.042584603            4 
  281000    1.2017991   -6.4075786    138.00318  0.040926209  0.042582691            2 
  282000    1.1983577   -6.4495116    138.86944  0.041037069  0.042579128            2 
  283000    1.2152064   -6.4321351    139.22965  0.040998131  0.042574187            3 
  284000     1.209332   -6.4553865    139.36037  0.040892129   0.04256761            3 
  285000    1.2068536   -6.4180375    140.20399  0.040995318  0.042562939            7 
  286000    1.2062486   -6.4536147    140.11706   0.04082665  0.042557673            2 
  287000    1.1992981   -6.4292468    140.56218  0.040813641   0.04255171            2 
  288000    1.1975238   -6.4676472    141.26039  0.040873954   0.04254647            5 
  289000    1.1865573    -6.460794    142.66064  0.041136286  0.042542422            2 
  290000    1.2091616   -6.4166644    142.65222  0.040992017  0.042538612            2 
  291000    1.1964045   -6.4550419     142.6552  0.040852006  0.042533834            3 
  292000    1.2259102   -6.4228191    143.24823  0.040881343  0.042528931            5 
  293000    1.2183946   -6.4823253    143.75826  0.040886877  0.042521828            2 
  294000    1.2072847   -6.4290517    143.85662  0.040775686  0.042513258            2 
  295000    1.2276775   -6.4114962    144.68684  0.040871987  0.042504646            4 
  296000    1.2072827   -6.4236128    145.31938  0.040911989  0.042496982            4 
  297000    1.1979471   -6.4642085    145.53898  0.040835854  0.042488855            4 
  298000    1.2038697   -6.4930968    145.67789  0.040737666  0.042480098            2 
  299000    1.1885085   -6.4356778    146.28054  0.040769381   0.04247272            3 
  300000    1.1969601   -6.4415311    147.00674  0.040835206  0.042466516            2 
  301000    1.2070223   -6.4183987    147.14202  0.040736994  0.042459912            4 
  302000     1.195592   -6.4185427     148.2057  0.040895612  0.042452911            4 
  303000     1.205241   -6.4300351    148.39073  0.040811532  0.042445904            1 
  304000    1.1897782   -6.4089205    148.96607  0.040834997  0.042439295            2 
  305000    1.1954322   -6.4260481     149.6032   0.04087519  0.042432602            2 
  306000    1.2011388   -6.4271508    150.34278  0.040943023   0.04242531            1 
  307000    1.2131539   -6.4365127    150.22343  0.040777261  0.042418319            3 
  308000    1.2081464   -6.4802013    151.08183  0.040877117  0.042409663            3 
  309000    1.1813343   -6.3745723    151.54797  0.040870541  0.042402071            2 
  310000    1.1772506   -6.4074569    151.94327  0.040844964  0.042394385            2 
  311000    1.2138869   -6.4456763     152.6092   0.04089207  0.042387065            4 
  312000    1.2020409   -6.4056742    153.46351  0.040989185   0.04238052            2 
  313000    1.1858888   -6.4309085    154.04758  0.041013733  0.042375459            2 
  314000    1.2062489   -6.4368395    154.17634  0.040917288  0.042371293            2 
  315000    1.1922842   -6.4449615    154.70444  0.040927101  0.042366216            3 
  316000    1.2194636   -6.4497578    155.73357   0.04106898  0.042362325            2 
  317000    1.2075985   -6.4185195    155.53693  0.040887732  0.042358027            2 
  318000    1.1923501   -6.4115782    156.26441  0.040949793  0.042353107            5 
  319000    1.2188786   -6.4874759    156.35598  0.040845344  0.042347041            3 
  320000    1.2042456   -6.4473378     156.9723  0.040878204  0.042341321            2 
  321000    1.1825084   -6.4635329    157.85067  0.040978887   0.04233676            4 
  322000    1.1809095   -6.4424401    157.89518  0.040863142  0.042330877            1 
  323000    1.1736954   -6.4679881    158.00012  0.040763705  0.042323943            3 
  324000    1.2426422   -6.4239656    158.83605  0.040852893  0.042317424            2 
  325000    1.1926251   -6.4274871     159.9331  0.041008488  0.042311418            1 
  326000    1.1867074   -6.4711667    159.93767  0.040883863  0.042306175            4 
  327000    1.2017863   -6.4196263    160.74731  0.040965165  0.042301391            1 
  328000    1.1944425   -6.4319545    161.45964  0.041021251  0.042297287            2 
  329000    1.2010186   -6.4449156     161.2899  0.040853572  0.042293861            2 
  330000    1.1633088   -6.4127906     161.3203  0.040737449  0.042288307            2 
  331000    1.1870461   -6.4285998    162.84927  0.040999313  0.042282126            5 
  332000    1.1974658   -6.4228279    162.68037  0.040833427  0.042276642            2 
  333000    1.1775347   -6.4354331     162.6582  0.040705254  0.042270502            2 
  334000    1.1936997   -6.4506259    163.60327  0.040819178  0.042263468            2 
  335000    1.2101756   -6.4430936    164.12141   0.04082622  0.042257255            2 
  336000    1.2021439   -6.4405082    164.64825  0.040835379  0.042251806            2 
  337000    1.1886401   -6.4035585    165.64402  0.040960441  0.042248045            5 
  338000    1.2194481   -6.4681678    165.93165  0.040910171  0.042243017            2 
  339000    1.1972782   -6.4271353    166.38924  0.040901977  0.042236808            3 
  340000    1.1736485   -6.4412124    167.13485  0.040964423  0.042230629            3 
  341000     1.207118    -6.409199    167.57841   0.04095269    0.0422263            2 
  342000    1.1949932   -6.4375081     168.5256  0.041063742  0.042222437            3 
  343000    1.2113443    -6.437821    168.99389  0.041057797  0.042218105            2 
  344000    1.1893866   -6.4190777    169.49069  0.041058792  0.042215023            2 
  345000    1.2101802    -6.464323     170.0084  0.041064832  0.042210474            3 
  346000    1.2065931   -6.4662444     169.8832  0.040915993  0.042206608            6 
  347000    1.2062055   -6.4394504    170.74161   0.04100423  0.042203699            7 
  348000    1.1972308   -6.4431252    171.30205  0.041020606  0.042201628            3 
  349000    1.1802884   -6.4771268    171.79146  0.041019927  0.042198678            1 
  350000    1.2022378   -6.4629432    172.63967  0.041104684  0.042196491            2 
  351000     1.180981    -6.444865     173.5813  0.041211135  0.042195839            1 
  352000    1.2175002   -6.5091756    173.40891  0.041053246  0.042194166            3 
  353000    1.1945919   -6.4615713    173.77389  0.041023109  0.042191571            3 
  354000    1.1697182   -6.4946702    173.57432  0.040860245  0.042189044            4 
  355000    1.2014989   -6.4412077    175.08872  0.041100638  0.042186153            6 
  356000    1.1898472   -6.4716803    175.84233  0.041161593  0.042184182            2 
  357000    1.1948925   -6.4630028    176.87191  0.041286626  0.042183659            3 
  358000    1.2090006   -6.4761283    176.92176  0.041182904  0.042182298            2 
  359000    1.2024278   -6.4379228    177.36156  0.041170278  0.042181028            1 
  360000    1.2017222   -6.4602632    177.43458  0.041072819   0.04217951            3 
  361000    1.2073877   -6.4912165    177.88805  0.041063723  0.042178019            1 
  362000     1.191218   -6.4323099    178.69553  0.041136172  0.042177353            1 
  363000    1.1848838   -6.4710037    179.66645  0.041245741  0.042177009            2 
  364000    1.1813963   -6.4463941    179.39127  0.041069431  0.042176388            1 
  365000    1.1894945   -6.4892582    179.40811  0.040960755  0.042174786            1 
  366000    1.2024211   -6.4801071    180.95905  0.041201969  0.042173792            2 
  367000    1.2144016   -6.4936567    181.28005  0.041162592  0.042173256            1 
  368000    1.1759586   -6.4861614     181.2952  0.041054166  0.042171448            2 
  369000    1.2039562   -6.4924687    181.33308  0.040951464   0.04216924            2 
  370000    1.2027245    -6.457299    182.50224  0.041104109    0.0421679            3 
  371000    1.1881009   -6.4983617    183.57101   0.04123338  0.042166859            2 
  372000    1.2183035   -6.4656544    183.98101  0.041214385  0.042165016            2 
  373000     1.150436   -6.4493434    184.69722    0.0412639  0.042163912            3 
  374000    1.1897414    -6.429746    184.65433  0.041144013  0.042162794            5 
  375000     1.201333   -6.4661466    185.35374   0.04118972  0.042161933            2 
  376000    1.1882041   -6.4814528    185.65396  0.041146711   0.04216119            2 
  377000    1.1710282   -6.4470834    186.37012   0.04119587  0.042160941            2 
  378000    1.1818482   -6.4732307    186.91087    0.0412061  0.042161817            3 
  379000    1.2184158   -6.4356889    188.19042   0.04137872  0.042162373            3 
  380000    1.1859608   -6.4365618    188.85392  0.041415333   0.04216347            2 
  381000    1.1901904   -6.4681007    188.41923  0.041211555  0.042162884            3 
  382000    1.1650113   -6.5002223     188.6772  0.041159948  0.042162139            3 
  383000    1.1731212   -6.4458229    189.14712  0.041154726  0.042160932            2 
  384000    1.1916379   -6.4821261    189.40115   0.04110268  0.042158349            3 
  385000    1.2209746   -6.4722127    189.43188  0.041002572  0.042154787            3 
  386000    1.1638773   -6.4843425    189.82371  0.040980938  0.042150886            3 
  387000    1.1891238   -6.4618165    190.32938  0.040983931  0.042146314            2 
  388000    1.1903611    -6.451739    191.10433  0.041044745  0.042142536            3 
  389000    1.2013051   -6.4669458    190.70628  0.040853959   0.04213707            2 
  390000    1.2132132   -6.4134962    192.75522  0.041187013  0.042132406            4 
  391000    1.1897058   -6.4809364    192.73906  0.041078231   0.04212811            2 
  392000    1.1674312   -6.4844509    192.72463  0.040970373  0.042123948            1 
  393000    1.1859227    -6.481875    193.91637  0.041118824  0.042120508            2 
  394000    1.1722667    -6.427114    194.46856  0.041131252   0.04211815            4 
  395000    1.2038033   -6.4719741    194.50419  0.041034639  0.042116615            2 
  396000    1.1893804   -6.4085358    195.73494  0.041190012  0.042115564            2 
  397000    1.2026452   -6.4321447    196.05313   0.04115305  0.042112851            4 
  398000    1.1791407   -6.4708642    197.08774  0.041266277   0.04211141            2 
  399000    1.1917443   -6.4391417    197.00375  0.041145312  0.042109575            3 
  400000    1.2033074   -6.4700517    197.15682  0.041074338  0.042107177            3 
  401000    1.1667588   -6.5101882    197.08356  0.040956683  0.042104844            3 
  402000      1.18585   -6.4827858    197.50665  0.040942506  0.042101323            6 
  403000    1.1908007    -6.485559    199.30579  0.041212942  0.042097968            2 
  404000    1.1717295   -6.4997877    199.50373   0.04115176  0.042095691            3 
  405000    1.1948043   -6.5140509    199.37183   0.04102301  0.042092986            3 
  406000    1.1926429   -6.4516667    200.57732  0.041169401  0.042090512            4 
  407000     1.183174    -6.451367     201.5489  0.041267178  0.042089316            4 
  408000    1.1887079   -6.4636434     201.5824  0.041172876  0.042089063            5 
  409000    1.1980365   -6.3957177    202.57581  0.041274614  0.042087936            2 
  410000    1.1749067   -6.4948352    202.08292  0.041073765  0.042086413            3 
  411000    1.1997178   -6.4856201    202.81525  0.041122312   0.04208472            1 
  412000     1.158218   -6.5318825    202.80143  0.041019706  0.042083273            1 
  413000    1.1793013    -6.472596     203.9466  0.041151453  0.042080361            3 
  414000    1.2028367   -6.4577743    203.56581  0.040975405  0.042077841            3 
  415000    1.1888722   -6.4531869     204.9907  0.041162791  0.042076884            3 
  416000    1.1796861   -6.4588642    205.68113  0.041202149  0.042075565            1 
  417000    1.1815411   -6.4698957    206.25623  0.041218271  0.042074501            1 
  418000    1.1927371   -6.4404229     207.1722  0.041302272  0.042073841            1 
  419000    1.1625948   -6.4811179    207.33621  0.041236319  0.042073198            2 
  420000     1.185948   -6.4548768    207.58514  0.041187527  0.042071906            3 
  421000    1.1787888   -6.4839509    208.32306  0.041235759  0.042070871            4 
  422000    1.1835026   -6.4693455    208.49877  0.041172743  0.042068789            2 
  423000    1.1696222   -6.4914062    209.27597  0.041228521  0.042066913            1 
  424000    1.1900025   -6.4649122    209.85262  0.041244619  0.042065549            7 
  425000    1.1771013   -6.4420405    210.47808  0.041270213   0.04206372            3 
  426000     1.178217   -6.4756271    209.64986  0.041011319  0.042061798            2 
  427000    1.1649923   -6.4587625    211.07411   0.04119323  0.042059296            1 
  428000    1.1634386   -6.5012655    211.40182   0.04116079  0.042057261            3 
  429000     1.173089   -6.4620029    212.52101  0.041282248  0.042056131            2 
  430000    1.1821408   -6.4447375     212.1958  0.041123217  0.042055168            6 
  431000    1.1833198    -6.463933    213.36477  0.041253823  0.042053507            1 
  432000    1.1687271   -6.4732732    212.49782  0.040991092  0.042050737            3 
  433000    1.1768238   -6.4801118    213.85755  0.041158113  0.042047872            2 
  434000    1.1816837   -6.4702226    214.16886  0.041123052    0.0420454            3 
  435000    1.1847753   -6.4584055    214.88131  0.041165002  0.042042978            4 
  436000    1.2199714   -6.4607644    214.85309  0.041065193  0.042040734            2 
  437000    1.1714627   -6.4497002    215.72941  0.041138331  0.042038494            2 
  438000    1.1908951   -6.4620851    216.50792  0.041192527  0.042035802            1 
  439000    1.1543915   -6.5009172    215.97293   0.04099714  0.042031909            2 
  440000    1.1995637   -6.5113249     215.7623  0.040864073  0.042027643            3 
  441000    1.1834387   -6.4878987    216.44101  0.040899662  0.042023736            4 
  442000    1.1906257   -6.4069557    217.42948  0.040993491  0.042019401            1 
  443000    1.1853628   -6.4680192     217.0396  0.040827615  0.042015384            3 
  444000    1.1916511   -6.5194804    218.42836  0.040996313  0.042009778            2 
  445000    1.1699527   -6.4757703    217.86073  0.040797889   0.04200402            2 
  446000    1.1676253   -6.4670715    218.79132  0.040880292   0.04199818            5 
  447000    1.1725654   -6.4798681    218.57929  0.040749308  0.041992172            3 
  448000    1.2095537   -6.5329954    219.08231  0.040751918  0.041985581            3 
  449000    1.1823394   -6.4896901    219.75923   0.04078679  0.041978038            3 
  450000    1.1852461   -6.4612737    220.74435  0.040878583  0.041971079            4 
  451000    1.1817379    -6.440256    221.03298  0.040841275  0.041965278            2 
  452000    1.1978403   -6.4849773    221.41217  0.040820828  0.041959017            1 
  453000    1.1921787   -6.4875737    220.37384  0.040539706  0.041952356            2 
  454000    1.1570057   -6.4484358    222.44276  0.040830169  0.041945642            1 
  455000    1.1868389   -6.4741831    223.30781  0.040898865  0.041938916            2 
  456000     1.193346   -6.4546479    223.75826  0.040891495  0.041932882            1 
  457000    1.1841743   -6.4799811    223.80604  0.040810729  0.041926919            2 
  458000    1.2030326   -6.5000003     224.3052  0.040812445  0.041920718            3 
  459000    1.1821103   -6.5125481    224.26646  0.040716496  0.041914598            2 
  460000    1.1722198   -6.4944782    224.69505  0.040705625  0.041907876            3 
  461000    1.1756588   -6.4711887    225.34631  0.040735052  0.041900654            5 
  462000    1.1371144   -6.4882272    225.11046  0.040604341  0.041893175            5 
  463000    1.1890739   -6.4948332     225.8722  0.040653744  0.041886044            5 
  464000    1.1671106   -6.4776648    226.48717  0.040676574  0.041878809            2 
  465000    1.1739405   -6.5018912    227.04513  0.040689091  0.041871881            3 
  466000    1.1804312   -6.4861947    227.91754  0.040757786  0.041864667            3 
  467000    1.1892171   -6.5232464    227.72478  0.040636113   0.04185845            6 
  468000    1.1944031   -6.4746316    230.09957  0.040972146  0.041852055            2 
  469000    1.1601023   -6.4871885    229.68186  0.040810565  0.041846432            1 
  470000    1.1850225   -6.5117884    229.85537  0.040754499  0.041840652            2 
  471000    1.1420834   -6.4776501    230.65113  0.040808763   0.04183542            2 
  472000    1.1658977   -6.4848243    231.52596  0.040876758  0.041830032            5 
  473000    1.1838305   -6.4430025    231.89473  0.040855308  0.041824549            3 
  474000    1.1922456   -6.4953392    232.27432  0.040835851  0.041819154            2 
  475000    1.1768403   -6.4610947    232.01195   0.04070385  0.041814166            2 
  476000    1.1770164   -6.5245455    232.72263  0.040742758  0.041808847            2 
  477000    1.1856029    -6.502132    234.17019  0.040910236  0.041804488            3 
  478000    1.1862475   -6.4878831    234.30914  0.040848874  0.041799744            5 
  479000    1.1437606   -6.4761271    235.01137  0.040885764  0.041795709            1 
  480000    1.1897866   -6.4967641    235.04287  0.040806054  0.041792185            3 
  481000    1.1809038   -6.5264142    236.47563  0.040969444  0.041789214            5 
  482000     1.180016   -6.5214176    235.87966  0.040781407  0.041785564            6 
  483000    1.1828758   -6.5254305    236.39573  0.040786012  0.041781484            6 
  484000     1.175531   -6.5229197    236.69174  0.040752711   0.04177691            2 
  485000    1.1711078   -6.5092294    237.70063  0.040842033  0.041772799            2 
  486000    1.1845454   -6.4669663    238.61212  0.040914286  0.041768656            2 
  487000    1.1834432   -6.5066577    239.39969   0.04096504  0.041765288            3 
  488000    1.1741609   -6.4945018    239.13999  0.040836746   0.04176088            2 
  489000    1.1571595   -6.4814469    239.99548  0.040899025  0.041756838            1 
  490000    1.1720035    -6.493599    239.45734  0.040724037  0.041752447            2 
  491000    1.1858158    -6.493026    240.62026  0.040838469  0.041747478            2 
  492000    1.1974934   -6.5384956    240.61616   0.04075477  0.041742218            4 
  493000     1.168109    -6.483513     240.5233  0.040656406  0.041736548            4 
  494000    1.1711233   -6.4711697    240.50512   0.04057104  0.041730121            3 
  495000    1.1738591    -6.499695    241.45071  0.040648268  0.041724004            3 
  496000    1.1882042   -6.4842041    242.41108  0.040727669  0.041717794            2 
  497000    1.1728281   -6.5095364    241.97041  0.040571832  0.041711775            1 
  498000     1.181081   -6.5009379    243.16058  0.040689522  0.041706104            1 
  499000    1.1618716   -6.4783096     244.9465  0.040906229  0.041701635            3 
  500000    1.1599329   -6.4822252    244.51744  0.040752907  0.041696438            1 
  501000    1.1606585   -6.5011862    244.65116  0.040693805  0.041690388            3 
  502000    1.1931625   -6.4666108    245.31567  0.040723052  0.041684368            3 
  503000    1.1461818   -6.4738284    245.29663  0.040638937  0.041678067            2 
  504000    1.1583528   -6.4749509    245.83799  0.040647816  0.041671482            2 
  505000    1.1668269   -6.4433641    246.60846  0.040694465  0.041664933            1 
  506000    1.1569074   -6.5053081    245.55518  0.040440577  0.041658015            2 
  507000    1.1673179   -6.4801045    247.24216  0.040638093  0.041650812            2 
  508000    1.1618603   -6.4709155    247.10578  0.040535726  0.041643384            4 
  509000    1.1721666   -6.5320095    247.46964  0.040515658  0.041636149            2 
  510000    1.1797408    -6.483487    248.41546  0.040590761  0.041629286            1 
  511000    1.1768371   -6.4596975    248.63041  0.040546381  0.041622307            3 
  512000    1.1672654   -6.5136306    249.17765  0.040556259  0.041615171            2 
  513000    1.1850801   -6.5034061    249.03234  0.040453596  0.041608277            2 
  514000    1.1595089   -6.4899766    249.00747  0.040370862  0.041601519            3 
  515000    1.1677152   -6.4655713    250.68211  0.040563448  0.041594644            3 
  516000    1.1840748   -6.4932048    250.70724  0.040488896  0.041586579            2 
  517000    1.1648319   -6.4800092    250.63849  0.040399499  0.041579516            2 
  518000    1.1817377   -6.4856043    251.77473    0.0405043  0.041572161            4 
  519000    1.1522901   -6.5200554    252.28704  0.040508516  0.041564435            3 
  520000    1.1880234   -6.5198067    252.44073  0.040455245  0.041557365            3 
  521000    1.1589347   -6.4838382    252.98656    0.0404649  0.041548662            2 
  522000    1.1477365   -6.5074652     252.5885  0.040323834  0.041540372            2 
  523000    1.1603539   -6.5081914    254.16882  0.040498538  0.041532057            4 
  524000    1.1763617   -6.5013438    253.30873  0.040284468  0.041524634            5 
  525000    1.1607129   -6.4927802     254.2786  0.040361682  0.041516032            2 
  526000    1.1669537    -6.513995    255.40117  0.040462796  0.041507416            2 
  527000    1.1606383   -6.5115605    255.16668  0.040348938    0.0414993            2 
  528000     1.187836   -6.5266843    254.70959  0.040200377  0.041490967            2 
  529000     1.173612   -6.5659184    255.41202  0.040235038  0.041481888            2 
  530000     1.177534    -6.524882    255.46022  0.040166701  0.041472118            3 
  531000    1.1748968   -6.5147152    256.83709   0.04030714  0.041462913            2 
  532000    1.1309448    -6.481014    257.44796  0.040327062  0.041454656            3 
  533000    1.1544573   -6.5091667     258.3185  0.040387507  0.041446223            1 
  534000    1.1546184   -6.5117497    258.41532  0.040326986  0.041438686            2 
  535000    1.1472622   -6.5230135    258.54031  0.040271076   0.04143136            2 
  536000    1.1665472   -6.5416627    258.63363  0.040210453  0.041423098            3 
  537000    1.1769678   -6.5440964    259.37439  0.040250526  0.041414189            4 
  538000    1.1452813   -6.5029999    260.05251  0.040280749  0.041405961            5 
  539000    1.1822152   -6.4915938    260.92828  0.040341416  0.041398193            2 
  540000    1.1672053   -6.5253112    260.79439  0.040246048  0.041390564            3 
  541000    1.1697146   -6.5046262    261.98143  0.040354503  0.041382725            4 
  542000    1.1931395   -6.5133362    261.93064  0.040272239  0.041375137            3 
  543000     1.147813   -6.5440343    262.07433  0.040220124   0.04136745            2 
  544000    1.1440285   -6.5070671    263.38924  0.040347616  0.041359078            4 
  545000    1.1456001    -6.509498    263.99121  0.040365629  0.041351155            2 
  546000     1.146018   -6.4892272    264.48975  0.040367788  0.041343171            3 
  547000    1.1758809   -6.5077818    264.02354  0.040222965  0.041334628            1 
  548000    1.1643469   -6.4967282    264.55898  0.040230989   0.04132643            1 
  549000    1.1716221   -6.5107681    265.08031  0.040236841  0.041318589            2 
  550000    1.1931515   -6.5096221    265.49068   0.04022586  0.041310644            2 
  551000     1.171324   -6.5144044    265.05022  0.040086239  0.041302511            2 
  552000    1.1337836    -6.517291    265.93617  0.040147369   0.04129417            3 
  553000     1.173928   -6.4784625     266.6307   0.04017943  0.041286316            1 
  554000    1.1638343   -6.5199642    267.37686  0.040219142  0.041279233            2 
  555000    1.1494662   -6.5018014    268.31043  0.040286851  0.041271133            2 
  556000    1.1790911   -6.5313204     268.8533  0.040295759  0.041262687            4 
  557000    1.1473024   -6.5542282    268.84654  0.040222402  0.041255259            2 
  558000    1.1472835   -6.5279806    269.80248  0.040293082  0.041248215            2 
  559000    1.1678273   -6.5100872    271.07278  0.040410372   0.04124193            4 
  560000     1.168584   -6.5133565    271.32384  0.040375571  0.041235294            1 
  561000    1.1749556   -6.5164775    270.87612  0.040237095  0.041228202            3 
  562000    1.1525017   -6.5069468    271.29598  0.040227756  0.041221162            2 
  563000    1.1803557   -6.5021712    271.86518  0.040240554   0.04121402            1 
  564000    1.1521929   -6.5139164    272.74309   0.04029892  0.041207169            3 
  565000    1.1539644   -6.4990221    273.41522  0.040326729  0.041200821            2 
  566000    1.1760484   -6.5156786    274.23208  0.040375748  0.041194514            2 
  567000    1.1530956   -6.4561592    273.98288  0.040267914  0.041187933            2 
  568000    1.1678108   -6.5394289    273.86658  0.040179956  0.041180789            6 
  569000    1.1445028   -6.5361328     274.4961  0.040201538   0.04117362            4 
  570000    1.1422718   -6.5048681    275.53339  0.040282659  0.041166109            1 
  571000    1.1567741   -6.5208519    274.67281  0.040086516  0.041158332            6 
  572000    1.1593918   -6.5711095    275.17973  0.040090287  0.041149889            3 
  573000     1.143622   -6.5234316    275.85833  0.040119012  0.041141313            2 
  574000    1.1682115   -6.5266715    276.02889   0.04007388  0.041132233            4 
  575000    1.1648359   -6.4901385    275.69433    0.0399557  0.041123073            1 
  576000    1.1189184   -6.5145872    276.75411  0.040039657  0.041113739            3 
  577000     1.155111   -6.4878417    277.22406  0.040038137  0.041104563            5 
  578000    1.1302509   -6.5469316    277.56206  0.040017598  0.041095608            2 
  579000    1.1623083   -6.5139403    278.41469  0.040071199  0.041086881            3 
  580000    1.1730027   -6.5057407    278.95865  0.040080266  0.041078438            1 
  581000    1.1599129   -6.4784484    279.53909  0.040094534  0.041070063            1 
  582000    1.1630159   -6.5545161    279.44472   0.04001213   0.04106161            2 
  583000    1.1740664    -6.512132    280.06223  0.040031765  0.041053572            4 
  584000    1.1453296   -6.5672948    279.43645  0.039873923  0.041044649            2 
  585000    1.1734409   -6.5497871    279.86511  0.039866824  0.041035105            4 
  586000    1.1708235   -6.4988948    280.85675  0.039939811  0.041025585            2 
  587000     1.168268   -6.5261995    280.89417  0.039877082  0.041015649            2 
  588000     1.140063   -6.4968006    280.67792  0.039778616  0.041005749            4 
  589000    1.1708195   -6.5132396    280.77259  0.039724476  0.040995275            8 
  590000    1.1584057   -6.5275649    281.44888  0.039752667  0.040984805            3 
  591000    1.1570681   -6.4912055       282.98  0.039901297  0.040974564            1 
  592000    1.1501086   -6.5646265    281.70928  0.039655022  0.040964286            5 
  593000    1.1624088   -6.5227926    282.46942  0.039694972  0.040953615            5 
  594000    1.1760441   -6.5195558    282.60015  0.039646486   0.04094266            2 
  595000    1.1239225   -6.5111604    283.64958  0.039726832  0.040931347            3 
  596000    1.1435588   -6.5372504     283.7879  0.039679516  0.040920213            2 
  597000    1.1666046   -6.5134779    284.83135  0.039758704  0.040909442            3 
  598000    1.1408817   -6.5260326    284.72514  0.039677416  0.040898849            3 
  599000     1.150721   -6.5118532    285.00766  0.039650481  0.040888088            3 
  600000    1.1316505   -6.5166256    285.82849  0.039698402   0.04087709            2 
  601000    1.1576946   -6.5173339    285.88896  0.039640732  0.040865925            1 
  602000    1.1830326   -6.5151854    287.45048  0.039791041  0.040855924            2 
  603000    1.1720149   -6.4978543    287.33694  0.039709362  0.040845947            1 
  604000    1.1430395   -6.4964947    288.10572  0.039749685  0.040836049            2 
  605000    1.1511422     -6.53846    286.94718  0.039524405  0.040825498            3 
  606000    1.1386387   -6.5151361     287.8101  0.039577846  0.040815532            3 
  607000    1.1430848   -6.5256917    288.90092  0.039662399  0.040805371            2 
  608000     1.165134   -6.5315311    289.13169  0.039628795   0.04079499            2 
  609000    1.1594143   -6.5319699    288.94382  0.039538016  0.040784288            3 
  610000    1.1572808   -6.5472973    288.96698  0.039476363  0.040773133            5 
  611000    1.1661491   -6.5178878    288.96257  0.039411153  0.040762667            2 
  612000     1.150261   -6.4694815    290.79924  0.039596846  0.040751748            3 
  613000    1.1587896   -6.5489721    291.11098   0.03957463  0.040741029            3 
  614000    1.1432811   -6.5206887    292.14738  0.039650838  0.040730623            2 
  615000    1.1784833   -6.5410977    291.75655  0.039533408  0.040719921            1 
  616000    1.1627043   -6.4964833    293.29292  0.039677073  0.040709826            2 
  617000     1.146752   -6.5303453    292.87035  0.039555692  0.040699342            2 
  618000    1.1570717    -6.503182    294.59587  0.039724362  0.040689425            1 
  619000    1.1619768    -6.526927    293.34825  0.039492225  0.040679912            3 
  620000    1.1576946   -6.5309794    294.81391  0.039625526  0.040669938            4 
  621000     1.144292    -6.574051    294.92836  0.039577075   0.04066024            2 
  622000    1.1503229   -6.5537939    294.72501  0.039486202  0.040649959            2 
  623000    1.1396606   -6.4771753    295.32857  0.039503554  0.040640275            2 
  624000    1.1291199   -6.5236541    296.27237  0.039566289   0.04063037            4 
  625000    1.1308725   -6.5606043    295.34836  0.039379781  0.040619835            3 
  626000    1.1667506   -6.5909298    296.52042  0.039472899  0.040608755            2 
  627000    1.1189471   -6.5282361    297.01318  0.039475436  0.040598009            4 
  628000    1.1714048   -6.5826734      296.518  0.039346869   0.04058705            2 
  629000     1.143228    -6.537401    297.25048  0.039381356  0.040576417            3 
  630000    1.1473434   -6.5381984    298.57265  0.039493736  0.040566005            2 
  631000     1.179375   -6.5524697    297.27336  0.039259556  0.040555283            2 
  632000    1.1521239   -6.5844804    298.10751  0.039307425  0.040544167            2 
  633000    1.1278295   -6.5221815     298.4978  0.039296709  0.040533222            2 
  634000    1.1659042   -6.5480366    298.39156  0.039220762  0.040522263            2 
  635000    1.1541893   -6.5146481    299.66826  0.039326543  0.040511064            2 
  636000    1.1619794    -6.543578    300.09311  0.039320376  0.040500051            3 
  637000    1.1659601   -6.5349086    301.31868  0.039418979   0.04048892            2 
  638000    1.1548402   -6.5090276    301.03455  0.039320082  0.040477579            1 
  639000    1.1433683   -6.4917103    301.60094  0.039332413  0.040466589            4 
  640000    1.1590539   -6.5062089    301.97357  0.039319476  0.040455982            3 
  641000     1.142517   -6.5321317    301.95764  0.039256064  0.040445451            1 
  642000     1.129743   -6.5408495    302.88658  0.039315495  0.040434574            3 
  643000    1.1602268   -6.5565966    303.09069  0.039280804  0.040423799            2 
  644000    1.1498157   -6.5390388    303.12523  0.039224279  0.040412911            2 
  645000     1.123895   -6.5503143    303.71854  0.039240121  0.040401824            3 
  646000    1.1406929   -6.5228954     304.7017  0.039306204  0.040390965            2 
  647000    1.1632807   -6.5440429    304.52443  0.039222622  0.040380169            3 
  648000    1.1260652   -6.5688891    304.75919  0.039192282   0.04036962            4 
  649000    1.1197854   -6.5561178    305.66826   0.03924862  0.040359279            4 
  650000    1.1706266   -6.5310877    306.01484  0.039232672  0.040348718            3 
  651000    1.1527926   -6.5154071    306.82969  0.039276714  0.040338742            2 
  652000    1.1694152   -6.5428221    307.24145  0.039269102  0.040328798            2 
  653000    1.1612512   -6.5027122    307.35574   0.03922355  0.040318693            2 
  654000    1.1551457   -6.5799093    306.88336  0.039103384  0.040308166            7 
  655000     1.164099   -6.5660656    307.90208  0.039173292  0.040297096            2 
  656000    1.1586284   -6.5837124    308.30536  0.039164807  0.040286225            3 
  657000    1.1397936   -6.5816161    308.98857  0.039191854  0.040275336            4 
  658000    1.1755974   -6.5490453     309.0189  0.039136132  0.040264736            2 
  659000    1.1431195   -6.5273284    310.71519  0.039291248  0.040254309            2 
  660000     1.155933   -6.5786015    310.25892  0.039174106  0.040244242            2 
  661000    1.1645609   -6.5465168     311.0822  0.039218633  0.040234059            3 
  662000    1.1382775   -6.5669206    312.52541  0.039341063  0.040223698            5 
  663000    1.1795148   -6.5530303    310.83649  0.039069443  0.040213484            4 
  664000    1.1387578   -6.5339007     311.8121  0.039133044  0.040203478            2 
  665000    1.1270173     -6.56015    311.88201  0.039082958  0.040193676            2 
  666000     1.167374   -6.5593955    312.35695  0.039083702  0.040183287            2 
  667000    1.1565227   -6.5446628     312.9762  0.039102474   0.04017353            5 
  668000    1.1598516   -6.5315613    313.69808  0.039133992  0.040163857            3 
  669000    1.1566756   -6.5381169    315.04498  0.039243271  0.040154436            1 
  670000    1.1527536   -6.5191649    315.40581  0.039229578  0.040144575            2 
  671000    1.1525673   -6.5484679    315.46103  0.039177972  0.040134719            4 
  672000     1.122862    -6.528915    315.54138  0.039129635   0.04012467            3 
  673000    1.1814291    -6.551171    315.76991  0.039099791  0.040115388            3 
  674000    1.1096676   -6.5043856    316.58448  0.039142492  0.040105673            2 
  675000    1.1432077   -6.5892854    316.59845  0.039086229  0.040095985            2 
  676000    1.1476807   -6.5648892    317.74539  0.039169797  0.040086278            2 
  677000    1.1623873   -6.5655233    318.00918  0.039144409   0.04007636            2 
  678000    1.1273456   -6.5489473    317.77695  0.039058131  0.040066361            2 
  679000     1.146281   -6.5534316    317.85793  0.039010546  0.040056545            5 
  680000    1.1450453   -6.5254578    318.88951  0.039079596  0.040046851            2 
  681000     1.124154   -6.5500565    320.11046  0.039171618  0.040037327            4 
  682000    1.1451557   -6.5541379    319.31296  0.039016735  0.040028061            2 
  683000    1.1621993   -6.5272789     320.5119  0.039105893  0.040019196            5 
  684000     1.119235   -6.5336858    321.03156  0.039112032  0.040010269            3 
  685000    1.1272434   -6.5520784    320.15257  0.038948001  0.040001103            3 
  686000    1.1469535   -6.5109768     322.1191  0.039130114  0.039992138            2 
  687000    1.1424361   -6.5674678    322.79012  0.039154552  0.039982887            3 
  688000    1.1230033   -6.5587871    322.59036  0.039073445  0.039974004            1 
  689000    1.1572683   -6.5356269     322.6004  0.039017949  0.039964722            2 
  690000    1.1676798    -6.571944    323.33445  0.039050055  0.039955453            2 
  691000    1.1545346   -6.5230129    324.35945  0.039117155  0.039946699            2 
  692000    1.1229197    -6.546175    325.16454   0.03915758  0.039937863            2 
  693000    1.1563673   -6.5575783    325.23852  0.039109971  0.039929095            3 
  694000    1.1513305    -6.549299    326.05448  0.039151594  0.039920931            2 
  695000    1.1265997   -6.5574091    326.39004  0.039135496  0.039912653            2 
  696000     1.154257    -6.545675    326.61482   0.03910618  0.039904102            2 
  697000    1.1362704   -6.5393634    326.32705  0.039015669  0.039895582            6 
  698000    1.1325281   -6.5281515    327.75266  0.039129974  0.039887141            1 
  699000    1.1593445   -6.5754555    328.29074  0.039138143  0.039878821            5 
  700000    1.1282932   -6.5307054    328.90012  0.039154776  0.039870769            9 
  701000    1.1269326   -6.5326828     328.9306  0.039102544  0.039862971            2 
  702000    1.1326379    -6.558971    329.16569   0.03907475   0.03985524            4 
  703000    1.1450635   -6.5150241    330.58187   0.03918704  0.039847182            2 
  704000    1.1354894   -6.5415554    329.98401  0.039060607  0.039839069            2 
  705000    1.1331855    -6.553382    329.94967  0.039001142  0.039830831            4 
  706000    1.1228738   -6.5334756    331.44475  0.039122373  0.039822495            5 
  707000    1.1341926   -6.5270525    333.52437   0.03931216  0.039815002            2 
  708000    1.1417471   -6.5491801    331.05058  0.038965463  0.039807243            2 
  709000    1.1287346   -6.5469063    332.91808  0.039130004  0.039799707            4 
  710000    1.1517592   -6.5374343    332.93928   0.03907738  0.039792001            3 
  711000    1.1365565   -6.5591743    333.95816  0.039141838  0.039784442            1 
  712000     1.131937   -6.5728628    334.89835  0.039196904  0.039777108            2 
  713000    1.1201522   -6.5483909    334.65298  0.039113252  0.039769614            4 
  714000    1.1242413   -6.5662346    334.19526  0.039005049  0.039761918            2 
  715000    1.1216089   -6.5842636    335.24074  0.039072348  0.039754012            1 
  716000     1.160853   -6.5395708      335.968  0.039102421  0.039746026            4 
  717000     1.134804   -6.5958556     335.2412  0.038963413  0.039737978            4 
  718000    1.1245685   -6.5210681    337.57181  0.039179644  0.039729894            2 
  719000    1.1309762   -6.5744846    336.22835  0.038969443  0.039721833            4 
  720000    1.1364872    -6.589935    336.08329  0.038898529  0.039713696            2 
  721000    1.1101594   -6.5761878    336.62118  0.038906748  0.039705401            4 
  722000    1.1086012   -6.5497015    337.72795  0.038980604  0.039697001            3 
  723000    1.1223824   -6.5845856    337.28951  0.038876154  0.039688828            3 
  724000    1.1466847   -6.5979164    337.74316  0.038874674  0.039680561            2 
  725000      1.12853   -6.5903296    338.07069    0.0388587   0.03967238            2 
  726000    1.1423781   -6.5548824     338.2729  0.038828386  0.039664531            2 
  727000     1.134367   -6.5683893    339.16819  0.038877601  0.039656407            2 
  728000    1.1471765   -6.5332994    340.40697  0.038965999  0.039648195            1 
  729000     1.128054   -6.5590987    339.69892   0.03883161  0.039640238            5 
  730000    1.1411979   -6.5316796    341.22016  0.038952073  0.039632112            3 
  731000    1.1195798   -6.5828456    341.39432  0.038918641  0.039623992            3 
  732000    1.1274887   -6.5702259    341.98115  0.038932281  0.039615736            2 
  733000    1.1476634   -6.5565423    341.89324  0.038869172  0.039607505            2 
  734000    1.1549261    -6.563987    342.02837  0.038831558  0.039599357            4 
  735000    1.1379482   -6.5529988    341.87342  0.038761159  0.039591039            2 
  736000    1.1379864   -6.5875166    341.26956  0.038640122  0.039582443            8 
  737000    1.1340174   -6.5820828    342.76072  0.038756301  0.039573736            3 
  738000    1.1669925   -6.5754789    343.91531  0.038834158   0.03956504            3 
  739000    1.1554973   -6.5946937    344.04978  0.038796772    0.0395569            2 
  740000    1.1515972   -6.5975211    345.17171  0.038870688  0.039548729            6 
  741000    1.1010416   -6.6052227    344.19382  0.038708257  0.039540668            3 
  742000    1.1589593   -6.5528988     346.3037  0.038893048  0.039532606            1 
  743000    1.1306009    -6.587901      346.977  0.038916218   0.03952456            3 
  744000    1.1778452   -6.5621696    346.48436  0.038808733  0.039516634            4 
  745000    1.1427817   -6.5959268     347.4923  0.038869385  0.039508976            3 
  746000    1.1238012   -6.5780809    347.81394   0.03885321  0.039501726            2 
  747000    1.1354175    -6.575591    349.09591  0.038944212  0.039494657            4 
  748000    1.1439299   -6.5697625    350.15061  0.039009649  0.039487426            3 
  749000    1.1280321   -6.5876348    349.73778  0.038911635  0.039480771            3 
  750000    1.1170975   -6.5823766    349.82996  0.038869996  0.039473615            3 
  751000    1.1627747   -6.5674828    350.68314  0.038912909  0.039466888            3 
  752000    1.1578863   -6.5461237    351.46865   0.03894821  0.039460068            3 
  753000    1.1419881   -6.5697731    352.11271  0.038967763  0.039453282            6 
  754000    1.1512323   -6.5558286    352.68108    0.0389789   0.03944642            3 
  755000    1.1063031   -6.5426024     351.8938  0.038840375  0.039439293            3 
  756000    1.1437559   -6.5803771    352.50914  0.038856827   0.03943258            5 
  757000    1.1161316   -6.5755769    353.51432  0.038916151  0.039425926            2 
  758000     1.127302   -6.5790037    352.78603  0.038784744  0.039419197            2 
  759000    1.1260954   -6.5714203    354.70897   0.03894477  0.039412242            3 
  760000    1.1445081   -6.5862779    354.63889  0.038885843  0.039405682            2 
  761000     1.146747   -6.5793782    355.48624  0.038927534  0.039399266            5 
  762000    1.1280011   -6.5707624    356.10171  0.038943757  0.039393185            4 
  763000    1.1385292   -6.5804168    355.12578  0.038786128  0.039386998            3 
  764000    1.1489885   -6.6350887    356.07424  0.038838814  0.039380674            3 
  765000    1.1402176   -6.6137824    355.70253  0.038747553  0.039374055            1 
  766000    1.1361129   -6.5800904    357.32195  0.038873145  0.039367479            2 
  767000    1.1274799   -6.5669616     358.1233  0.038909528  0.039361221            4 
  768000    1.1125198   -6.5712231    358.79854  0.038932134  0.039354892            1 
  769000    1.1388677   -6.5933961    357.25632  0.038714383  0.039348238            1 
  770000    1.1506172   -6.5641467    358.91583  0.038843705  0.039341401            4 
  771000    1.1302622   -6.5841346     357.5908  0.038650108  0.039334643            3 
  772000    1.1302633   -6.5925838    359.09731  0.038762663  0.039327928            3 
  773000    1.1379085   -6.6097005    358.54898  0.038653404  0.039320583            3 
  774000    1.1282362   -6.5831418    360.14621  0.038775432  0.039313046            3 
  775000    1.1394168    -6.578856    360.16514  0.038727435  0.039305893            4 
  776000    1.1259171   -6.5767429    359.98012  0.038657659  0.039298972            3 
  777000     1.132633   -6.5765827    360.53279   0.03866718  0.039291487            3 
  778000    1.1301317   -6.5642348    361.93275  0.038767432  0.039284236            5 
  779000    1.1517997   -6.5833353    362.06334  0.038731637   0.03927687            4 
  780000    1.1245449   -6.6149274    361.98392  0.038673495  0.039269274            1 
  781000    1.1198638   -6.5648375    362.48419  0.038677357  0.039261875            4 
  782000    1.1345352   -6.6170628    363.16407  0.038700348  0.039254138            8 
  783000    1.1290361   -6.5992233    362.45372  0.038575321  0.039246533            4 
  784000    1.1242374   -6.5515886    362.77733  0.038560515   0.03923867            3 
  785000     1.104594    -6.575878    363.78711  0.038618589  0.039230682            4 
  786000    1.1229784   -6.5584314    363.46736  0.038535555  0.039222609            2 
  787000     1.132662   -6.5938356    362.98051  0.038435039  0.039214068            2 
  788000    1.1297473   -6.6186776    364.17623  0.038512715  0.039205737            3 
  789000    1.1062403   -6.5818032    365.00638  0.038551582  0.039197293            3 
  790000    1.1488386   -6.5635661    365.37841  0.038542026   0.03918937            2 
  791000    1.1132005   -6.5796352    365.86728  0.038544804  0.039181594            2 
  792000     1.127125   -6.5496152    366.44454  0.038556875  0.039173827            2 
  793000    1.1241464   -6.5927995    367.14812   0.03858219  0.039166236            1 
  794000    1.1192466   -6.6061027    366.81073  0.038498188  0.039158614            3 
  795000    1.1046597   -6.5793281    367.10038  0.038480124  0.039151137            4 
  796000    1.0967383   -6.5883632    368.64008  0.038592973  0.039143359            4 
  797000      1.13141   -6.5827464    370.00918  0.038687702  0.039136001            3 
  798000    1.0920149    -6.588863    369.05244  0.038539311  0.039128607            4 
  799000    1.1163734   -6.6131806    369.32175  0.038519165  0.039121095            1 
  800000    1.1051636   -6.5716574    370.15373   0.03855768  0.039113869            3 
  801000    1.1353543   -6.6013218    369.93323  0.038486604  0.039106538            2 
  802000    1.1521273   -6.6294169    369.98431  0.038443923  0.039099175            1 
  803000    1.1381446     -6.59005     371.0541  0.038507068  0.039091819            4 
  804000    1.1321656   -6.5886065     370.8869  0.038441843  0.039084183            2 
  805000    1.1380094   -6.6366628    370.98464  0.038404207  0.039076225            3 
  806000    1.1430857   -6.5644294    372.42985  0.038505981  0.039068552            2 
  807000    1.1013945   -6.5829386     371.6049  0.038373079   0.03906078            4 
  808000    1.1444801   -6.5824252    373.23554  0.038493764  0.039052942            1 
  809000    1.1197339   -6.5992548    372.60964   0.03838171  0.039044831            3 
  810000    1.1050352   -6.5975526    372.95637  0.038369997  0.039036732            2 
  811000     1.079199   -6.5618552    373.89701  0.038419339  0.039028772            1 
  812000    1.1413668   -6.5668354    376.01975  0.038589875  0.039021246            4 
  813000    1.1166489   -6.5728207    375.54993  0.038494252  0.039013684            3 
  814000    1.1458447   -6.5887259    374.73502  0.038363536   0.03900592            3 
  815000     1.136241   -6.5814847    375.89933  0.038435515  0.038998168            2 
  816000    1.1314423    -6.617252    375.47581   0.03834516  0.038990085            4 
  817000    1.1116291   -6.6133182    375.78723  0.038329991   0.03898219            5 
  818000    1.1091265   -6.5907466     376.6588  0.038371923  0.038974638            2 
  819000    1.1294118   -6.6047606     376.1806  0.038276414   0.03896699            4 
  820000    1.1309109   -6.6325065    376.50223  0.038262422  0.038959006            7 
  821000    1.1234161   -6.6068648    377.46926  0.038313972  0.038951153            3 
  822000    1.1254991   -6.5938855     378.5864  0.038380616  0.038942834            2 
  823000    1.1035291   -6.5679448    378.59517   0.03833487  0.038934842            2 
  824000     1.123291     -6.56455    378.99726  0.038329011  0.038926882            3 
  825000    1.1070894    -6.594458    377.81594  0.038163227  0.038918895            5 
  826000    1.1337454   -6.5724372     379.4875  0.038285664  0.038910944            2 
  827000    1.1312109   -6.5946266    378.87057  0.038177203  0.038902289            2 
  828000     1.127592   -6.6170863    378.76399   0.03812037  0.038893775            2 
  829000    1.1202788   -6.5647914    380.08917  0.038207596  0.038885175            1 
  830000    1.1033414   -6.6012632    379.56312  0.038108747  0.038876547            2 
  831000    1.1110488   -6.6258951    379.49129  0.038055685   0.03886757            2 
  832000    1.1051409   -6.5697771    381.59394  0.038220547  0.038858704            3 
  833000    1.1177366   -6.6152786    379.07311   0.03792248  0.038850195            5 
  834000    1.1138788   -6.5908631     382.7779  0.038247192  0.038841512            4 
  835000     1.099488    -6.590868    382.22635  0.038146343  0.038833055            2 
  836000    1.1027975   -6.6139443    382.14291  0.038092395  0.038824585            3 
  837000    1.1360985   -6.5814043    383.71274   0.03820318  0.038816195            2 
  838000    1.1001018   -6.6333657    384.28675  0.038214673  0.038808121            3 
  839000    1.1213498    -6.610398     382.2202  0.037963866  0.038799714            6 
  840000    1.1142062   -6.6034385    385.38367  0.038232507  0.038791336            1 
  841000    1.1319647   -6.5775312    383.93166  0.038043169  0.038783072            3 
  842000    1.1256344   -6.5974157    385.52048  0.038155233  0.038774985            3 
  843000    1.1256983   -6.5858425     384.7837  0.038037139  0.038766465            3 
  844000    1.1015445   -6.6133256    386.08565  0.038120621  0.038758491            3 
  845000    1.1078824   -6.6003541    386.61615  0.038127826  0.038750424            3 
  846000    1.1178484   -6.5641672    386.28101  0.038049744  0.038742278            4 
  847000    1.1327428   -6.6216149    388.65485  0.038238376  0.038734244            2 
  848000    1.1262937   -6.6116742    387.68551  0.038098026  0.038726047            2 
  849000    1.1151509   -6.5920785    388.21788  0.038105407  0.038717867            4 
  850000     1.107186   -6.5794234    389.06946  0.038144065  0.038709674            4 
  851000    1.1244843    -6.629258    388.45338  0.038038913  0.038701063            5 
  852000    1.1312605   -6.6050596    389.04839  0.038052464  0.038692922            6 
  853000    1.0950292   -6.5739894    389.69531  0.038071054  0.038684559            2 
  854000    1.1192547   -6.5718817    390.70261  0.038124767  0.038676468            3 
  855000    1.1160736   -6.6002443    390.41249    0.0380519  0.038668547            1 
  856000    1.1208333     -6.64795    389.62317  0.037930604  0.038660467            2 
  857000    1.1314295   -6.6090539    391.58276  0.038076892  0.038652378            3 
  858000    1.1074601   -6.5910074    392.42675  0.038114486  0.038644413            2 
  859000    1.1364943   -6.6208425    392.61565  0.038088441  0.038636408            3 
  860000    1.1245502   -6.5953817    392.72562  0.038054808  0.038628141            2 
  861000    1.1254589   -6.6124894    393.37025  0.038073001  0.038620345            2 
  862000    1.1154279   -6.6057809    393.50564  0.038041922  0.038612589            5 
  863000    1.0955322   -6.6353871    392.96979  0.037946098  0.038604568            3 
  864000     1.111665   -6.5990879    394.00484   0.03800201  0.038596645            2 
  865000    1.0846988   -6.6251931    393.91189  0.037949122  0.038588626            3 
  866000    1.1310916   -6.5787673    395.39857  0.038048361  0.038580365            5 
  867000    1.1310143   -6.6096598    395.41718  0.038006265  0.038572966            4 
  868000     1.114439   -6.6413178    395.85292  0.038004312  0.038564943            2 
  869000    1.0938644   -6.6442323    395.68521  0.037944497  0.038557411            2 
  870000    1.1264275   -6.5917515    398.16026  0.038137956  0.038549967            2 
  871000    1.1453678   -6.6272331    396.44179  0.037929754  0.038542475            3 
  872000    1.1020008   -6.6237918    396.57491  0.037898979  0.038534302            3 
  873000    1.1022157   -6.6471999    396.77471  0.037874638  0.038526342            3 
  874000    1.1379974   -6.6317791    397.75572  0.037924839  0.038518136            2 
  875000    1.1243255   -6.6429055    398.16473   0.03792045  0.038510019            2 
  876000    1.1192498   -6.6143887    397.76615  0.037839246   0.03850177            3 
  877000    1.1115347   -6.5887859    399.03726  0.037916881  0.038493602            2 
  878000    1.1146814   -6.6259462     399.2027  0.037889398  0.038485673            2 
  879000    1.1217686   -6.6177377    399.69427  0.037892896  0.038477733            3 
  880000     1.118931   -6.6087992    400.80512   0.03795503  0.038469934            6 
  881000    1.0695314    -6.566285    401.25095  0.037954119   0.03846199            2 
  882000    1.1255213   -6.6091082    401.27066   0.03791295  0.038454167            5 
  883000    1.1158167   -6.6487124    401.82664  0.037922484  0.038446361            5 
  884000    1.1082785   -6.6074163    403.05195  0.037995094  0.038438701            4 
  885000    1.1323864   -6.6044344    403.08183  0.037954975  0.038431524            3 
  886000    1.1120841   -6.5737951    403.57872  0.037958872  0.038424696            2 
  887000    1.1033639   -6.5916098    406.08183  0.038151243  0.038417678            5 
  888000     1.118539   -6.6152999    404.72615  0.037981058  0.038410818            3 
  889000    1.1154351   -6.6398632    404.74759  0.037940344  0.038403703            3 
  890000    1.1084316   -6.6265901    405.47177  0.037965521  0.038396644            4 
  891000    1.1155337   -6.6313018    404.59133  0.037840566  0.038389394            2 
  892000    1.1152315   -6.6190904    406.91935  0.038015634  0.038382094            3 
  893000    1.1146046   -6.6250448    406.15142  0.037901401  0.038374822            2 
  894000    1.1006184   -6.6505238    407.02666  0.037940591  0.038367703            4 
  895000    1.0978835   -6.6001284    406.87488  0.037884067  0.038360431            5 
  896000    1.0806883   -6.6471131    407.23407  0.037875192  0.038353398            3 
  897000    1.1144961   -6.6281541    407.62464  0.037869253  0.038346101            2 
  898000    1.1064892   -6.6390635    408.47323  0.037905831  0.038338871            5 
  899000    1.0892424   -6.6182909    408.70255  0.037884923  0.038331907            3 
  900000    1.1036183   -6.6055757    408.77636  0.037849663  0.038324433            3 
  901000    1.1024932   -6.6173239    409.64039  0.037887569  0.038317428            2 
  902000    1.1077667   -6.6019126    410.47554  0.037922721  0.038310314            3 
  903000    1.0948141   -6.6426353    410.78102  0.037908916  0.038303706            2 
  904000    1.1387009    -6.621663    411.13786  0.037899877  0.038296934            2 
  905000    1.1003487   -6.6383867    410.85211  0.037831686  0.038289677            3 
  906000    1.0842521   -6.6259731    411.11964  0.037814536    0.0382824            3 
  907000    1.0877316   -6.6534497    410.60774  0.037725812  0.038275029            3 
  908000    1.0961433   -6.6429359    411.10279  0.037729698  0.038267229            1 
  909000    1.1091208   -6.6371331    411.08218  0.037686302  0.038259508            1 
  910000    1.1088634   -6.5973717    412.67623  0.037790863   0.03825217            5 
  911000    1.0849147   -6.5997297    414.42868  0.037909686  0.038244974            4 
  912000    1.1213634   -6.6186744    414.12291  0.037840178  0.038237588            5 
  913000    1.1023587   -6.6536609    414.53712  0.037836539  0.038230475            4 
  914000     1.076273   -6.6183994    413.75911  0.037724208  0.038223176            2 
  915000    1.1090801   -6.6040732    415.74889  0.037864198   0.03821598            4 
  916000    1.1041101   -6.6355734    413.54438  0.037622305  0.038208468            1 
  917000    1.0894441   -6.6228405    414.88839  0.037703416  0.038200516            2 
  918000    1.1054622   -6.6067789    414.34476  0.037612996  0.038192651            5 
  919000    1.1001906   -6.6699303    413.95677  0.037536885  0.038184463            4 
  920000    1.0913758    -6.617068    413.67694  0.037470737  0.038176194            3 
  921000    1.1114901   -6.6406789    414.07821   0.03746636  0.038167606            3 
  922000    1.0843281   -6.6054531    416.76846  0.037668877  0.038159241            2 
  923000    1.0923035   -6.6408721    414.78612   0.03744909  0.038150894            2 
  924000    1.0919268   -6.5812878    418.53736  0.037746876  0.038142612            4 
  925000    1.0883496   -6.6063972    415.23628  0.037408674  0.038134236            2 
  926000    1.1302298   -6.6234326    416.07438  0.037443699  0.038125602            3 
  927000     1.106399   -6.6229499    416.85173  0.037473187  0.038116733            3 
  928000    1.1268073   -6.5889517    418.14637  0.037549063  0.038108029            1 
  929000    1.0898192   -6.6388556    415.99621   0.03731577  0.038099318            3 
  930000    1.1218162   -6.5974078    418.51677  0.037501503  0.038090605            3 
  931000    1.1256658   -6.6067157    418.87178  0.037492999  0.038082278            3 
  932000    1.0907736   -6.6297268    418.99549  0.037463832  0.038074011            2 
  933000    1.1140729    -6.587684    419.90419   0.03750484  0.038065797            6 
  934000    1.0819535   -6.5549373    420.38241  0.037507352  0.038057424            4 
  935000    1.0954304   -6.6170382    418.91778    0.0373367  0.038048809            4 
  936000     1.081991   -6.6379605    420.78255  0.037462833   0.03804005            3 
  937000    1.1072602   -6.5618185    420.82103  0.037426275  0.038031419            2 
  938000    1.1074098   -6.6289006    420.24512  0.037335209  0.038022544            2 
  939000    1.0959363   -6.6490063    420.42631  0.037311529  0.038013948            2 
  940000    1.0968615    -6.642627    420.70766  0.037296779  0.038005264           10 
  941000    1.1131556   -6.6062727    421.01562  0.037284415  0.037996525            2 
  942000    1.1191697   -6.6305425    422.44718  0.037371478  0.037988044            2 
  943000    1.1130797   -6.6367905    423.29366  0.037406651  0.037979841            2 
  944000     1.090242    -6.615812    422.57627  0.037303696  0.037971397            3 
  945000    1.1157581   -6.6244803    423.39923  0.037336793   0.03796287            3 
  946000    1.1036306   -6.6734053    422.35798  0.037205601  0.037954388            5 
  947000    1.1177688   -6.6309615    424.81306  0.037382353  0.037945604            4 
  948000    1.1013294   -6.6330495    424.08979  0.037279342  0.037937119            2 
  949000    1.0915106   -6.6410708    424.86291  0.037307948  0.037928571            2 
  950000    1.1078812   -6.6239296    425.42059  0.037317596  0.037919697            3 
  951000    1.1083877   -6.6162613    425.93245  0.037323208  0.037911104            6 
  952000    1.1173937   -6.6381873    424.72036  0.037177902  0.037902583            2 
  953000    1.1205213   -6.6169187    426.57053  0.037300676  0.037894161            2 
  954000    1.0821943   -6.6366161    426.08404  0.037219081   0.03788574            3 
  955000    1.1374955   -6.6666472     426.3003  0.037198979  0.037877074            3 
  956000    1.0971337   -6.6777175     426.8234  0.037205666  0.037868181            3 
  957000    1.0883466    -6.696606    426.62951  0.037149905  0.037859282            3 
  958000    1.0957699   -6.6307907    426.74038   0.03712077  0.037850284            2 
  959000    1.0908011   -6.6453354    428.41929  0.037227954  0.037841242            3 
  960000    1.1222807   -6.6202502    428.25123  0.037174586   0.03783258            3 
  961000    1.1043715   -6.6287311    428.29175  0.037139416  0.037823897            2 
  962000    1.0962306   -6.6124245    430.06749  0.037254634  0.037815044            2 
  963000    1.1153118   -6.6000894    431.01861  0.037298253  0.037806441            1 
  964000     1.105126   -6.6418612    430.57173  0.037220931  0.037797721            5 
  965000    1.0778389   -6.6175499     430.9449  0.037214586  0.037789385            2 
  966000    1.1074979   -6.6424558    433.05531  0.037358119  0.037781231            1 
  967000    1.0823184   -6.6392832    431.46893  0.037182776  0.037772905            3 
  968000    1.0945802   -6.6455958    433.15387  0.037289417   0.03776451            2 
  969000     1.094336   -6.6818539    431.23081  0.037085553  0.037755889            2 
  970000    1.0998365   -6.6064393    432.64846  0.037169112  0.037747226            5 
  971000    1.0926461   -6.6313481    432.09987  0.037083751  0.037738488            3 
  972000    1.0801793   -6.6181176    433.21803  0.037141463  0.037729827            2 
  973000    1.0865413   -6.6234938    432.89566  0.037075682  0.037721319            2 
  974000    1.0860222   -6.6608029    431.58136  0.036925167  0.037712689            2 
  975000    1.1125883    -6.643533    431.94608  0.036918468  0.037703798            4 
  976000    1.1045222   -6.6334931    434.11438  0.037065777  0.037694975            4 
  977000    1.0746126   -6.6735606    434.66175  0.037074527  0.037686149            6 
  978000    1.1101824   -6.6703426    433.88272  0.036970239  0.037677263            2 
  979000    1.1021032   -6.6632704    433.80623  0.036925965  0.037668602            2 
  980000     1.089748    -6.638573    436.97964  0.037158133  0.037660055            4 
  981000    1.1027233   -6.6384395    436.62513   0.03709014  0.037651446            2 
  982000    1.0893611    -6.640388    436.35445    0.0370294  0.037642757            4 
  983000    1.1194668   -6.6230808    436.70165  0.037021164  0.037633996            3 
  984000    1.0796768    -6.623715    438.49727  0.037135609  0.037625596            4 
  985000    1.0837398   -6.6123254    440.26297   0.03724729  0.037617413            4 
  986000    1.0902883    -6.648079    437.42115  0.036969333  0.037609083            4 
  987000    1.1018476   -6.7140368    436.23526  0.036831751  0.037600642            5 
  988000    1.1233805   -6.6666463    438.38008  0.036975378  0.037591927            3 
  989000     1.107324   -6.6731611    437.76145  0.036885865  0.037583235            2 
  990000    1.0816821   -6.6365222    439.91913   0.03703023  0.037574546            3 
  991000    1.0979897   -6.6605181    439.98857  0.036998703   0.03756631            4 
  992000     1.073278   -6.6558927    439.97762  0.036960486  0.037557918            2 
  993000    1.0728306   -6.6476741    440.13156  0.036936183  0.037549447            3 
  994000    1.1020274   -6.6212116    441.17953  0.036986882  0.037541113            4 
  995000    1.0977245   -6.6226106    442.13302  0.037029566  0.037532669            2 
  996000    1.0888372    -6.647208    441.66371  0.036953122  0.037524255            4 
  997000    1.1013085   -6.6798489    440.47159  0.036816415  0.037515827            3 
  998000    1.1065377   -6.6727394    441.99956  0.036907111  0.037507241            7 
  999000    1.0974605   -6.6752537    441.24135   0.03680692  0.037498653            2 
 1000000     1.091794   -6.6638965    442.37032  0.036864193  0.037489774            2 
 1001000    1.1131387    -6.669064     443.0416   0.03688325  0.037481064            4 
 1002000    1.1047116   -6.6597045    443.82833   0.03691187  0.037472464            2 
 1003000     1.109395   -6.6092504    445.17711  0.036987131  0.037463849            1 
 1004000    1.0865104   -6.6625746     443.5581  0.036815912   0.03745503            3 
 1005000    1.0965332   -6.6390645    443.47821  0.036772654  0.037446289            4 
 1006000    1.0805553   -6.6471267    445.51111  0.036904499  0.037437902            7 
 1007000     1.069943   -6.6442246    446.04994  0.036912441  0.037429443            2 
 1008000    1.0737018   -6.6171595    446.73652  0.036932583  0.037421119            3 
 1009000    1.0753329   -6.6543757    444.42882  0.036705386  0.037412639            2 
 1010000    1.0743041    -6.632244    447.30789  0.036906592  0.037404025            3 
 1011000    1.1069707   -6.6551649    446.11647  0.036771882  0.037395632            2 
 1012000    1.0744186   -6.6542606       446.95  0.036804183  0.037386833            3 
 1013000    1.1104527   -6.6406457    446.85017  0.036759639  0.037378118            4 
 1014000    1.0689731   -6.6638398    446.98064  0.036734109  0.037369357            2 
 1015000    1.0974602   -6.6509581    447.75825  0.036761761  0.037360417            3 
 1016000    1.0912876    -6.649738    447.99748    0.0367452  0.037351733            2 
 1017000     1.107731   -6.6251988    449.33561  0.036818716  0.037343066            3 
 1018000    1.0791356   -6.6736633    448.50135  0.036714255  0.037334358            9 
 1019000    1.0817755   -6.6293267    447.71119  0.036613608   0.03732546            2 
 1020000    1.0764281   -6.6422928    449.90749  0.036757148  0.037316707            3 
 1021000    1.1047221   -6.6522411    448.60054  0.036614475  0.037307749            4 
 1022000     1.099601   -6.6618243    449.48087   0.03665043  0.037298728            3 
 1023000    1.0956695   -6.7065977    450.19306  0.036672618  0.037289667            2 
 1024000    1.0955726   -6.6304184    450.20273  0.036637592  0.037280549            4 
 1025000    1.0696086   -6.6409592    450.69728  0.036642055  0.037271565            2 
 1026000    1.0893569   -6.6549512    449.16381  0.036481791  0.037262446            2 
 1027000    1.0780443   -6.6430255    451.39735  0.036627503  0.037253448            7 
 1028000    1.1165655   -6.6462658    451.71611  0.036617713   0.03724421            2 
 1029000    1.0623654   -6.6459898    450.59394  0.036491249  0.037234823            2 
 1030000    1.0814628   -6.6393605    451.38539  0.036519854  0.037225721            3 
 1031000    1.0852805   -6.6828482    450.99607  0.036452964  0.037216089            3 
 1032000    1.1053601    -6.678656    451.34645  0.036445934  0.037206338            3 
 1033000    1.0670714    -6.712321    451.73568  0.036442052  0.037196516            4 
 1034000    1.0960476   -6.6195342    452.43906  0.036463496  0.037186345            2 
 1035000    1.0643445   -6.6508163    452.15376  0.036405295  0.037176425            5 
 1036000    1.0844548   -6.6613296    451.02866  0.036279654  0.037166226            6 
 1037000    1.0940817   -6.6596058    452.36631  0.036352163  0.037156012            5 
 1038000    1.0970648   -6.6397886     452.2206  0.036305443  0.037146013            4 
 1039000     1.092096   -6.6515488    453.65834  0.036385815  0.037136279            3 
 1040000    1.0589879   -6.6439728    453.55285  0.036342376  0.037126593            5 
 1041000    1.1204787   -6.6717974    453.76632  0.036324553  0.037116818            3 
 1042000    1.0892657   -6.6481735    454.55222  0.036352545  0.037107081            3 
 1043000    1.0866323   -6.7004627    454.37926  0.036303872   0.03709713            3 
 1044000    1.0715413   -6.6931992    454.18875  0.036253891  0.037087143            3 
 1045000    1.0780054   -6.6613007    453.56728  0.036169639  0.037076946            4 
 1046000     1.069465   -6.6623454    456.27238  0.036350572  0.037066832            2 
 1047000    1.0833797   -6.6758895    455.50697  0.036254932  0.037057015            2 
 1048000     1.087443   -6.6509257    457.06519  0.036344242  0.037047503            4 
 1049000    1.1010025   -6.5919361    458.48738  0.036422576   0.03703806            2 
 1050000    1.0749534   -6.6344118    457.81783  0.036334749   0.03702852            4 
 1051000      1.08659   -6.6603894    457.87661  0.036304837   0.03701907            3 
 1052000     1.065226   -6.6443591    458.66346  0.036332657  0.037009528            2 
 1053000    1.0789124   -6.6751331    458.70647  0.036301556  0.037000011            7 
 1054000    1.0875965     -6.66552     458.5863  0.036257614  0.036990485            3 
 1055000    1.0726898   -6.7019635    458.27729  0.036198838   0.03698084            3 
 1056000    1.0778757   -6.6363253    459.42909  0.036255452   0.03697131            4 
 1057000    1.0868987   -6.6234009    459.57744  0.036232848  0.036961812            2 
 1058000    1.1029617   -6.6418867    460.29201  0.036254884  0.036952535            2 
 1059000    1.0685458   -6.6463671    461.23338  0.036294726  0.036943293            2 
 1060000    1.0853205   -6.6525721    460.05892  0.036168154  0.036933895            6 
 1061000    1.0980452   -6.6454428    462.11164  0.036295291  0.036924564            2 
 1062000    1.0773629   -6.6497495    461.74625  0.036232443  0.036914957            4 
 1063000    1.0875448   -6.6720026    459.27267  0.036004442  0.036905325            3 
 1064000    1.0747815   -6.6459356    463.19482  0.036277789  0.036895831            3 
 1065000    1.0861925   -6.6856716    461.22443  0.036089548   0.03688624            3 
 1066000    1.1043259   -6.6478594    463.61953  0.036242927  0.036876746            4 
 1067000    1.0554494   -6.6602893    464.46619  0.036275085  0.036867411            3 
 1068000    1.0713754   -6.6738183    464.78073  0.036265662  0.036858018            5 
 1069000    1.1100799   -6.6479889    464.99141  0.036248161  0.036848836            3 
 1070000    1.0969264    -6.644248    464.57435  0.036181803  0.036839818            2 
 1071000    1.0840004   -6.7056438    466.36087  0.036287027  0.036830744            3 
 1072000    1.0985231   -6.6265519    467.70829  0.036357921  0.036821579            2 
 1073000    1.0650609    -6.657537    466.08587  0.036198033  0.036812371            5 
 1074000    1.0865824   -6.6768447    464.25623  0.036022364  0.036803106            5 
 1075000    1.0838819   -6.6885341    465.80443   0.03610887  0.036793835            4 
 1076000    1.0875914   -6.6639707    467.00975  0.036168661  0.036784739            3 
 1077000     1.092435   -6.6450711    467.12667  0.036144125   0.03677567            4 
 1078000    1.0740034    -6.663761    468.45908  0.036213596  0.036766587            2 
 1079000    1.0730721   -6.6781566    467.74883   0.03612518  0.036757682            3 
 1080000    1.0954525   -6.6571923    468.68264  0.036163784  0.036748908            2 
 1081000    1.0913778   -6.6749771     469.8019  0.036216613  0.036740263            2 
 1082000    1.0768587   -6.6686431    469.93518  0.036193406  0.036731479            4 
 1083000    1.0970551   -6.6755027    469.24944  0.036107221  0.036722554            2 
 1084000    1.0955306   -6.6757826    470.26712  0.036152146  0.036713723            4 
 1085000    1.0784091   -6.6569534    470.77446  0.036157793   0.03670483            2 
 1086000    1.0947317   -6.6800177     470.3351  0.036090784  0.036695948            4 
 1087000    1.0719942    -6.632577    472.70985  0.036239639  0.036687243            1 
 1088000     1.078653   -6.6482103    473.28145  0.036250111   0.03667872            3 
 1089000     1.071182   -6.6703225    472.52055  0.036158597  0.036670203            3 
 1090000    1.0717188   -6.6533789     474.1668  0.036251285  0.036661736            4 
 1091000    1.0800883   -6.6788262    471.85077  0.036041152  0.036653336            3 
 1092000    1.0996965    -6.672136    473.40534  0.036126781  0.036644882            4 
 1093000    1.0819977   -6.6821924    474.72116   0.03619405  0.036636379            1 
 1094000     1.065092   -6.7091004    474.23978  0.036124298  0.036627894            2 
 1095000    1.0765938   -6.6685723    474.38655  0.036102477  0.036619526            3 
 1096000    1.0708987   -6.6719573    475.87262  0.036182529  0.036611055            2 
 1097000    1.0837571   -6.6511847    475.33477  0.036108688  0.036602662            5 
 1098000    1.0666159   -6.6631805     477.0444  0.036205556  0.036594225            1 
 1099000    1.0685477   -6.6862862    476.57825  0.036137265  0.036585745            3 
 1100000    1.0907764   -6.6360817    477.50892  0.036174919  0.036577444            2 
 1101000    1.0633577    -6.663795    476.79701  0.036088178  0.036568865            3 
 1102000     1.054465   -6.6784979    477.17082  0.036083698  0.036560619            2 
 1103000    1.0848537   -6.6895204     476.8219  0.036024622  0.036552177            4 
 1104000    1.0869002   -6.6776145    478.01002  0.036081674  0.036543668            5 
 1105000       1.0631   -6.6731233    478.89348  0.036115647  0.036535221            3 
 1106000    1.0670165   -6.6824824    479.33443  0.036116217  0.036526661            3 
 1107000    1.0803586   -6.6698363    478.91297  0.036051865  0.036518314            6 
 1108000    1.0626157   -6.6417677    479.44954  0.036059683  0.036509764            3 
 1109000    1.0808887   -6.6961506    478.81734  0.035979662  0.036501261            4 
 1110000    1.0739937   -6.6758454    480.31309  0.036059541  0.036492568            3 
 1111000    1.0629443   -6.6324392    480.03473  0.036006205  0.036484026            2 
 1112000    1.0840567   -6.7009209    479.52132  0.035935351  0.036475404            5 
 1113000     1.073504    -6.684903    480.28759  0.035960437  0.036466598            4 
 1114000    1.0841392   -6.6952755    479.09665  0.035839067  0.036457766            5 
 1115000    1.0594859    -6.679485    480.66757  0.035924333  0.036448971            2 
 1116000    1.0891915   -6.6747383    480.15622  0.035853959  0.036439888            3 
 1117000      1.08926   -6.6409794    482.18645  0.035973325  0.036431057            3 
 1118000    1.0855953   -6.6769497    481.75957   0.03590933  0.036422165            2 
 1119000    1.0950285   -6.6942787    481.02225   0.03582233  0.036413094            3 
 1120000    1.0620742   -6.7020795    481.94938  0.035859329  0.036404108            3 
 1121000    1.0777795   -6.6955636    480.64723  0.035730541  0.036394931            5 
 1122000    1.0677228   -6.7033032     481.6164  0.035770678  0.036385804            2 
 1123000    1.0719249   -6.6861961    481.67263  0.035742997  0.036376779            6 
 1124000    1.0499694   -6.7066239    480.66839  0.035636743  0.036367471            1 
 1125000    1.0781918   -6.6820879      483.962  0.035849037  0.036358306            2 
 1126000    1.0729482    -6.719689    482.58902  0.035715588  0.036349159            3 
 1127000    1.0698529   -6.6746949    483.93996  0.035783789  0.036339946            2 
 1128000    1.1020984   -6.6485403    482.98433  0.035681467    0.0363308            5 
 1129000    1.0615051   -6.6624082     483.4934  0.035687437  0.036321719            2 
 1130000    1.0582652   -6.6607759    483.89725  0.035685638  0.036312938            2 
 1131000    1.0743077   -6.7003688    486.27849  0.035829538  0.036304062            2 
 1132000    1.0810038    -6.690405    486.86862  0.035841329  0.036295267            1 
 1133000    1.0821185   -6.6994665    486.61306  0.035790899   0.03628658            5 
 1134000    1.0773986   -6.6773788    485.78367  0.035698389  0.036277901            4 
 1135000    1.0584368   -6.7144636     486.2701  0.035702651  0.036269134            4 
 1136000    1.0620075   -6.6887467    487.86921  0.035788528  0.036260451            2 
 1137000    1.0668114   -6.6659667    487.65172  0.035741111  0.036251622            3 
 1138000    1.0541625   -6.6796461     488.3136  0.035758172  0.036243055            4 
 1139000    1.0505358   -6.7089808    487.73417  0.035684385  0.036234521            3 
 1140000    1.0478628   -6.6851807      489.853  0.035807967   0.03622587            2 
 1141000    1.0560038   -6.7024723     489.3446  0.035739454  0.036217245            4 
 1142000    1.0641777   -6.7029055    489.49652  0.035719244  0.036208782            3 
 1143000    1.0566107   -6.6783705     489.4394  0.035683829  0.036200246            3 
 1144000    1.0523241   -6.6867351     490.5926  0.035736641  0.036191818            3 
 1145000    1.0969848   -6.6617036    492.21314  0.035823372  0.036183456            4 
 1146000    1.0875781   -6.6635769     492.0534  0.035780497  0.036175127            6 
 1147000    1.0750933   -6.6855255    492.23431  0.035762446  0.036166793            1 
 1148000    1.0810569    -6.666395      493.086  0.035793119  0.036158538            4 
 1149000    1.0921539    -6.694363    493.30989  0.035778205  0.036150364            4 
 1150000     1.033571   -6.7252581     493.2737  0.035744471   0.03614209            2 
 1151000    1.0585361   -6.7123707    492.60892  0.035665285  0.036133839            3 
 1152000    1.0614791   -6.7054811    493.30374  0.035684587  0.036125607            5 
 1153000    1.0625198   -6.6852304    494.07512   0.03570939  0.036117315            6 
 1154000    1.0379992   -6.6807345     494.1917  0.035686865  0.036108968            2 
 1155000    1.0732094   -6.6730846      495.033  0.035716667  0.036100756            3 
 1156000    1.0553001    -6.695278    494.09081  0.035617849  0.036092273            3 
 1157000    1.0809819   -6.7008222    494.91298  0.035646282  0.036083882            2 
 1158000    1.0932478   -6.6913146    494.66298  0.035597509  0.036075644            4 
 1159000    1.0814732    -6.714262    494.83554  0.035579202   0.03606733            4 
 1160000    1.0602034   -6.7176044    496.49389  0.035667665  0.036059007            4 
 1161000    1.0889804   -6.7147598    497.36099  0.035699181  0.036050669            3 
 1162000     1.052318   -6.6931408    497.63251  0.035687931  0.036042472            4 
 1163000    1.0625114    -6.703352    498.49438  0.035719001  0.036034378            3 
 1164000    1.0753597   -6.7368893    497.23014  0.035597805   0.03602617            2 
 1165000    1.0677863   -6.6658844    499.94588  0.035761508  0.036018283            3 
 1166000    1.0677149    -6.702996    499.62507   0.03570791  0.036010325            4 
 1167000    1.0666712   -6.7167625    499.50583  0.035668797  0.036002415            4 
 1168000    1.0636822   -6.6765438    500.23374  0.035690192  0.035994358            2 
 1169000    1.0428578   -6.7166985    500.23419  0.035659694  0.035986452            2 
 1170000    1.0552507   -6.7126223    499.26349  0.035560077   0.03597858            2 
 1171000    1.0703854   -6.7101419    501.77358  0.035708339  0.035970702            2 
 1172000    1.0738188   -6.6703123    500.84098   0.03561156  0.035962868            2 
 1173000     1.057777   -6.7070427    501.24074  0.035609601  0.035955289            4 
 1174000    1.0578808   -6.6814095    501.98291   0.03563195  0.035947604            4 
 1175000    1.0735248   -6.6871033    501.70317  0.035581785  0.035939591            2 
 1176000    1.0727489   -6.7346156    504.20002   0.03572846  0.035931606            2 
 1177000    1.0524221   -6.7056382    501.32834  0.035494785  0.035923752            2 
 1178000    1.0748443    -6.678619    503.56416  0.035622818  0.035915978            8 
 1179000    1.0406753   -6.6668828    504.89622  0.035686756  0.035908349            3 
 1180000    1.0666058   -6.7240081    503.22194  0.035538273  0.035900601            3 
 1181000    1.0689156    -6.696487     505.5089  0.035669552  0.035892704            4 
 1182000    1.0422036   -6.6963369    504.30787    0.0355547  0.035884958            2 
 1183000    1.0338903   -6.7150048    504.08522  0.035508962  0.035877435            4 
 1184000    1.0778573   -6.7042888    505.15486  0.035554255  0.035870005            3 
 1185000    1.0577466   -6.6972625    506.91166  0.035647796  0.035862384            2 
 1186000    1.0664458   -6.7204564    506.24472  0.035570877  0.035854911            3 
 1187000    1.0677609   -6.7112857    507.04449  0.035597058  0.035847095            3 
 1188000    1.0600442   -6.7119465    507.64536  0.035609242  0.035839412            2 
 1189000    1.0495928   -6.6275458    507.32964  0.035557165  0.035831891            2 
 1190000    1.0435604    -6.704931    508.55324  0.035612972  0.035824316            5 
 1191000    1.0610898   -6.6850969    508.98074  0.035612982  0.035816721            4 
 1192000    1.0713393   -6.7123256    509.60229  0.035626558  0.035809408            8 
 1193000    1.0615651   -6.6987705    509.61877  0.035597846  0.035802033            2 
 1194000    1.0494624   -6.6918552    509.24528  0.035541965  0.035794717            4 
 1195000    1.0563155   -6.7148285    510.28697  0.035584865   0.03578772            1 
 1196000    1.0505503   -6.6882596    511.68054  0.035652211  0.035780712            2 
 1197000    1.0829941   -6.7049999    510.48289  0.035539048  0.035773625            3 
 1198000    1.0443472    -6.723174    511.14932   0.03555574  0.035766608            3 
 1199000    1.0778509   -6.6787388    513.31583  0.035676663  0.035759533            5 
 1200000    1.0657841   -6.6561117    512.54252  0.035593231  0.035752453            4 
 1201000    1.0796268   -6.7051107    512.06308  0.035530328  0.035745336            5 
 1202000    1.0548203   -6.6956864    513.60645  0.035607768  0.035738148            6 
 1203000    1.0818156   -6.7321201    512.99821  0.035536036  0.035730971            3 
 1204000    1.0678816   -6.6866008    515.17433  0.035657138   0.03572398            7 
 1205000    1.0431198   -6.7054071    514.56075  0.035585114  0.035716989            1 
 1206000    1.0798192   -6.7455516    512.78233  0.035432721  0.035709876            3 
 1207000     1.046373   -6.7115505    516.42984  0.035655195  0.035702722            3 
 1208000    1.0432745   -6.7182314    515.53986  0.035564284  0.035695454            2 
 1209000    1.0649845   -6.7432801    515.39043  0.035524568  0.035688216            2 
 1210000    1.0506111   -6.7313665    516.40607  0.035565156  0.035681076            2 
 1211000    1.0509376   -6.7352554    514.56014  0.035408762  0.035673936            2 
 1212000     1.072751    -6.739788    514.91204  0.035403743  0.035666689            2 
 1213000    1.0568326   -6.7243576    516.01248  0.035450156  0.035659284            2 
 1214000    1.0626522    -6.703928    516.46303  0.035451883  0.035651962            4 
 1215000    1.0665883   -6.7345101    516.47825  0.035423748  0.035644612            4 
 1216000    1.0569486   -6.7433646    516.60555  0.035403341   0.03563724            3 
 1217000     1.040337   -6.7538353    516.84226  0.035390459  0.035629905            2 
 1218000     1.058721   -6.7374769    518.08446  0.035446392  0.035622607            2 
 1219000    1.0544168   -6.7001694    517.57196  0.035382278  0.035615438            5 
 1220000    1.0718651   -6.6942387    518.88475  0.035442947  0.035608166            4 
 1221000    1.0455929   -6.7211109     518.6877  0.035400471  0.035600949            4 
 1222000     1.049585   -6.7224193     519.4217  0.035421556  0.035593622            2 
 1223000    1.0577784    -6.744319    517.41709  0.035256002  0.035586028            1 
 1224000    1.0728354   -6.7179839    517.97518  0.035265194  0.035578428            4 
 1225000     1.046863   -6.6904903    520.86049  0.035432686  0.035570967            5 
 1226000    1.0781672   -6.7217224    518.66119  0.035254295  0.035563618            5 
 1227000    1.0550471   -6.7188624     520.5037  0.035350699  0.035556304            3 
 1228000     1.071023   -6.7180575     520.8603  0.035346112  0.035549048            4 
 1229000    1.0563246   -6.7150107    520.04913   0.03526235  0.035541822            4 
 1230000    1.0617073    -6.694464    520.94907  0.035294652  0.035534329            2 
 1231000     1.042356   -6.7528021    522.81083  0.035392014  0.035526928            4 
 1232000     1.048536   -6.6918663    523.03191  0.035378241  0.035519341            4 
 1233000     1.051851   -6.6790598    522.03414  0.035282112  0.035512033            3 
 1234000    1.0425538   -6.7381238    521.91411  0.035245415  0.035504469            2 
 1235000    1.0517028   -6.6984659    521.67162  0.035200514  0.035496894            3 
 1236000    1.0551948   -6.7133803    523.77741  0.035314011  0.035489524            3 
 1237000    1.0530635   -6.7141356     523.2407  0.035249306  0.035481881            7 
 1238000    1.0375246   -6.7238513    522.86877  0.035195797  0.035474199            5 
 1239000     1.069212   -6.7122895    521.97547  0.035107309  0.035466425            5 
 1240000    1.0477204   -6.7385973    522.40997  0.035108197  0.035458563            5 
 1241000    1.0566526   -6.6964335     523.5137  0.035154022  0.035450746            4 
 1242000    1.0505608   -6.7104522    523.25578  0.035108412  0.035443037            3 
 1243000    1.0618901   -6.7388526     523.0389  0.035065627   0.03543537            2 
 1244000    1.0543476   -6.7097338    525.91542  0.035230133  0.035427654            5 
 1245000    1.0725335    -6.737815    524.10758  0.035080829  0.035419883            4 
 1246000    1.0793726   -6.7216591    524.81424  0.035099936  0.035412247            3 
 1247000    1.0462092   -6.7148293    527.61851  0.035259189  0.035404697            3 
 1248000    1.0608262   -6.7344288    525.79435  0.035109132  0.035397179            2 
 1249000    1.0353864   -6.7157582    528.79046  0.035280922  0.035389617            1 
 1250000    1.0505357   -6.7215479    527.41997  0.035161332  0.035382133            4 
 1251000    1.0557193   -6.7267981    529.69441  0.035284733    0.0353746            4 
 1252000    1.0482891   -6.7165469    526.85404  0.035067495   0.03536698            3 
 1253000    1.0493249   -6.7258369    526.11404  0.034990292  0.035359235            4 
 1254000    1.0524475   -6.7417798    527.22089  0.035035944  0.035351646            4 
 1255000    1.0459329   -6.7594449     527.0188  0.034994608  0.035343947            4 
 1256000     1.018692   -6.6949811    529.20723  0.035111945   0.03533652            4 
 1257000    1.0464825    -6.732359    529.66789  0.035114551  0.035328961            3 
 1258000    1.0462389   -6.7451494    527.68737  0.034955443  0.035321364            2 
 1259000    1.0456646   -6.7130504     528.0574  0.034952171  0.035313753            5 
 1260000    1.0699633   -6.7425475     530.6618   0.03509668  0.035306369            3 
 1261000    1.0521688   -6.7301177    531.02341  0.035092745  0.035299029            4 
 1262000    1.0599988   -6.7033123    530.06326  0.035001536  0.035291687            2 
 1263000    1.0497822   -6.6979094    531.80455  0.035088714  0.035284281            5 
 1264000    1.0522903   -6.7681066    529.74581  0.034925224  0.035276775            2 
 1265000      1.04654   -6.7341208    531.69658  0.035026125  0.035269476            2 
 1266000     1.078733   -6.7342336    533.05442  0.035087837   0.03526203            3 
 1267000    1.0484021   -6.7224408    533.07566   0.03506154  0.035254707            3 
 1268000    1.0607139   -6.7082368    533.91367  0.035088963  0.035247213            2 
 1269000    1.0641059   -6.7472503    534.14415  0.035076448  0.035239744            2 
 1270000    1.0601849   -6.7399687    533.00266  0.034973928  0.035232335            2 
 1271000    1.0657922   -6.7068706    534.82256  0.035065733  0.035224914            4 
 1272000    1.0562833   -6.7475069    534.55821  0.035020847  0.035217511            1 
 1273000    1.0540028   -6.7221051    534.56059  0.034993492  0.035209946            8 
 1274000     1.052194   -6.7644995     532.9607  0.034861375  0.035202527            4 
 1275000    1.0376595   -6.7267755    535.47262   0.03499821  0.035195148            4 
 1276000    1.0594555   -6.7389425    535.09748  0.034946283  0.035187833            2 
 1277000    1.0261075   -6.7661226    535.44671  0.034941706  0.035180664            2 
 1278000    1.0529793   -6.7382585    536.53976  0.034985639  0.035173331            4 
 1279000    1.0482865   -6.7231418    538.65474  0.035096086  0.035166319            2 
 1280000    1.0553153   -6.7290721    538.02439  0.035027629  0.035159239            3 
 1281000    1.0343375   -6.7535005    537.55091  0.034969484  0.035152057            5 
 1282000    1.0405059    -6.716261    538.14118  0.034980576  0.035144978            6 
 1283000    1.0777026    -6.732008    538.84763  0.034999197  0.035137818            1 
 1284000    1.0324299   -6.7289273    539.47495  0.035012652  0.035130754            2 
 1285000    1.0348494   -6.7083846    538.31688  0.034910304  0.035123624            2 
 1286000    1.0570408   -6.7035791    540.55466  0.035028166  0.035116674            2 
 1287000    1.0403907   -6.7511615    540.89571  0.035023032  0.035109527            6 
 1288000    1.0547668   -6.7321595    541.40518  0.035028803  0.035102299            2 
 1289000    1.0347751   -6.7628543    538.42564  0.034809002  0.035094957            4 
 1290000    1.0559203   -6.7487384    539.59023   0.03485725  0.035087707            3 
 1291000    1.0367608   -6.7198392    540.65288  0.034898843  0.035080362            4 
 1292000    1.0327936   -6.7087691    542.35449  0.034981585  0.035073036            2 
 1293000    1.0221988   -6.7444762    541.23223  0.034882201  0.035065702            6 
 1294000    1.0319215   -6.7398272    540.19053  0.034788159  0.035058285            3 
 1295000    1.0320343   -6.7278561    541.76825  0.034862822  0.035051062            3 
 1296000    1.0246543   -6.7291678    543.03078  0.034917103  0.035043736            3 
 1297000    1.0481607   -6.7477818     541.6974   0.03480451  0.035036311            2 
 1298000    1.0342582   -6.7328578    542.75097  0.034845337  0.035029133            2 
 1299000    1.0593617   -6.7456012    543.53977  0.034869115  0.035021945            4 
 1300000    1.0424645   -6.7302851    544.12946  0.034880093  0.035014806            3 
 1301000    1.0620688   -6.7698693    543.75553  0.034829332  0.035007622            3 
 1302000    1.0655125   -6.7405773    544.87091   0.03487397  0.035000512            5 
 1303000    1.0203762   -6.7424799     545.0062  0.034855859   0.03499349            2 
 1304000    1.0640547   -6.7866398    544.20978  0.034778232  0.034986168            3 
 1305000    1.0478146   -6.7436563    546.64441   0.03490705  0.034978956            3 
 1306000    1.0396537   -6.7404281     545.1877  0.034787373  0.034971874            6 
 1307000    1.0439364   -6.7420156    546.60335  0.034851017  0.034964903            2 
 1308000    1.0275076   -6.7414846    545.43421  0.034749886  0.034957895            2 
 1309000    1.0418384    -6.741388    547.29614  0.034841873  0.034950732            2 
 1310000    1.0425549   -6.7353244    546.69177   0.03477683  0.034943558            4 
 1311000    1.0458565   -6.7754307    544.90231  0.034636557  0.034936276            2 
 1312000    1.0379556   -6.7407943    545.56807  0.034652444  0.034928958            2 
 1313000    1.0331674   -6.7066263    548.26958  0.034797511  0.034921671            4 
 1314000    1.0203867   -6.7139615    548.42859  0.034781113  0.034914491            2 
 1315000    1.0496753   -6.7189766    548.36727  0.034750777  0.034907463            4 
 1316000    1.0261782   -6.7579602    547.92502  0.034696366  0.034900254            4 
 1317000    1.0227405   -6.7463491    549.79426  0.034788298  0.034892949            9 
 1318000    1.0464558   -6.7188127    548.53729  0.034682428  0.034885604            4 
 1319000    1.0438761   -6.7546737    548.58573  0.034659195  0.034878303            3 
 1320000    1.0439855   -6.7683065    549.69718  0.034703105  0.034870964            6 
 1321000    1.0275018   -6.7357334    548.85431  0.034623663  0.034863469            2 
 1322000    1.0263633   -6.7385876    549.76382  0.034654804  0.034855959            2 
 1323000    1.0356581    -6.733301    550.68497  0.034686632   0.03484855            5 
 1324000    1.0443794   -6.7354192    548.41574  0.034517607   0.03484109            1 
 1325000    1.0400077   -6.7168603    549.81873  0.034579794  0.034833614            1 
 1326000    1.0512994   -6.7017204    553.23073  0.034768146  0.034826327            2 
 1327000    1.0130921   -6.7314594    551.11003  0.034608768  0.034819041            4 
 1328000    1.0340449   -6.7084396    550.02541  0.034514647  0.034811673            2 
 1329000    1.0382189    -6.755054    550.04581  0.034489955  0.034804134            3 
 1330000    1.0377759   -6.7425451    551.72164  0.034569025  0.034796745            2 
 1331000    1.0428894   -6.7375186    551.78071  0.034546751  0.034789261            3 
 1332000     1.037229   -6.7748996    553.16702  0.034607546  0.034781702            4 
 1333000    1.0488555   -6.7677185    553.88485   0.03462646  0.034774008            3 
 1334000     1.051763   -6.7540289    553.02218  0.034546613  0.034766431            3 
 1335000    1.0470779   -6.7864694    551.87564  0.034449166  0.034758788            2 
 1336000     1.023738   -6.7702198    552.43795  0.034458455  0.034751031            5 
 1337000    1.0212926   -6.7475509    551.51822  0.034375356  0.034743185            2 
 1338000    1.0587814   -6.7847059    553.38286  0.034465798   0.03473534            3 
 1339000    1.0276776     -6.74735    552.46431  0.034382892  0.034727447            4 
 1340000    1.0337557   -6.7588156    553.59486  0.034427541  0.034719564            4 
 1341000    1.0594446   -6.7615969    553.80808  0.034415118   0.03471177            5 
 1342000    1.0320298   -6.7165717    554.23037  0.034415696  0.034703902            2 
 1343000    1.0363185   -6.7785107    555.31248  0.034457215  0.034696213            2 
 1344000    1.0250331   -6.7360578    555.58839  0.034448685  0.034688808            3 
 1345000    1.0376217    -6.760669    554.48541  0.034354734  0.034681225            3 
 1346000    1.0406253   -6.7375344    556.34407  0.034444283  0.034673752            5 
 1347000    1.0455609   -6.7953316    556.21765  0.034410891  0.034666257            2 
 1348000    1.0491738   -6.7318052    556.19608  0.034384031  0.034658711            2 
 1349000     1.041005   -6.7691503    557.83205  0.034459603  0.034651258            2 
 1350000    1.0450843   -6.7349605    558.41298  0.034469937  0.034643789            3 
 1351000    1.0195551   -6.7506158    559.52111  0.034512775  0.034636515            3 
 1352000    1.0222783   -6.7197395    558.99666  0.034454922  0.034629259            2 
 1353000    1.0239294   -6.7068815    558.88664   0.03442268  0.034622036            6 
 1354000    1.0412116   -6.7526502    558.74616  0.034388611  0.034614785            3 
 1355000    1.0380304   -6.7625239    559.17361  0.034389521  0.034607399            4 
 1356000    1.0372748   -6.7695578    558.27253  0.034308784  0.034599963            2 
 1357000    1.0459259   -6.7568353    559.55406    0.0343622  0.034592366            4 
 1358000    1.0153925   -6.7499029    559.89378  0.034357743  0.034584816            3 
 1359000    1.0412671    -6.760387    560.22952  0.034353049   0.03457718            3 
 1360000    1.0304321   -6.7614981    560.49622  0.034344131  0.034569361            2 
 1361000    1.0433487   -6.7413552    561.08093  0.034354698  0.034561665            2 
 1362000    1.0381215   -6.7834963     559.6732  0.034243343  0.034554171            1 
 1363000    1.0384942   -6.7664111    562.59259   0.03439671  0.034546662            4 
 1364000    1.0073457   -6.8029618     561.2034   0.03428662  0.034539087            2 
 1365000    1.0440332   -6.7516407    563.07093  0.034375515   0.03453184            6 
 1366000    1.0374212   -6.7319361    563.63407  0.034384704  0.034524762            1 
 1367000    1.0488745   -6.7272554    564.03232  0.034383828  0.034517547            3 
 1368000    1.0222925   -6.7381607    565.36589   0.03443993   0.03451055            4 
 1369000    1.0441841   -6.7714743    565.02365   0.03439394  0.034503528            2 
 1370000    1.0393556   -6.7671705    564.82546   0.03435678  0.034496569            3 
 1371000    1.0280012   -6.7250998    567.07147  0.034468239  0.034489594            2 
 1372000    1.0538546   -6.7406518    564.69715  0.034298904  0.034482678            3 
 1373000    1.0311906   -6.7917128    565.98841  0.034352295  0.034475849            3 
 1374000    1.0454328    -6.755012    567.94945   0.03444623  0.034468942            6 
 1375000    1.0090881   -6.7941937    566.12357  0.034310519  0.034462055            3 
 1376000    1.0396139   -6.7782453    566.02293  0.034279489  0.034454949            1 
 1377000    1.0438016   -6.7426368    568.16139   0.03438401  0.034447942            3 
 1378000    1.0307646   -6.7938112    565.86536  0.034220208  0.034440891            2 
 1379000    1.0348947   -6.7726372    568.02185   0.03432571  0.034433751            5 
 1380000    1.0301853   -6.7765739    566.98826  0.034238422  0.034426632            3 
 1381000    1.0026788    -6.758601    567.55367  0.034247747   0.03441956            3 
 1382000    1.0583097    -6.741454    570.34045  0.034391006  0.034412518            4 
 1383000    1.0307302   -6.7742221    569.76185  0.034331276  0.034405535            8 
 1384000    1.0545879   -6.7907315    569.85276  0.034311944  0.034398226            3 
 1385000    1.0372954   -6.7504414    568.10079  0.034181756   0.03439085            4 
 1386000    1.0231986   -6.7774376    568.26855  0.034167181  0.034383439            3 
 1387000    1.0035718   -6.7787935    569.89291  0.034240141  0.034376122            4 
 1388000    1.0350806   -6.7739395    570.57709   0.03425655  0.034368796            2 
 1389000    1.0204898   -6.7230648    571.17006  0.034267462  0.034361425            4 
 1390000    1.0285496   -6.7480244    571.63337  0.034270585   0.03435402            3 
 1391000      1.03223   -6.7568684    570.29605  0.034165831  0.034346835            2 
 1392000    1.0261889   -6.7728622     570.9903  0.034182848  0.034339671            2 
 1393000    1.0289127   -6.7594869    572.38872  0.034241967  0.034332486            2 
 1394000    1.0259665   -6.7668058    571.96107  0.034191838  0.034325303            4 
 1395000    1.0269787   -6.7702682    571.70685  0.034152142  0.034318106            3 
 1396000    1.0325088   -6.7807023    569.98075  0.034024639  0.034310755            2 
 1397000    1.0486666   -6.7582962    571.67037  0.034101072  0.034303318            2 
 1398000    1.0091725    -6.771878     573.7894  0.034202993  0.034295947            4 
 1399000    1.0048546   -6.7793948    571.32727  0.034031884  0.034288611            5 
 1400000    1.0475485   -6.7857197    573.16773  0.034117127  0.034281108            2 
 1401000    1.0159976    -6.740384    572.91642  0.034077827  0.034273882            2 
 1402000    1.0183278   -6.7822841    572.89842   0.03405245  0.034266572            4 
 1403000    1.0127438   -6.7721021    572.63463  0.034012511  0.034259115            5 
 1404000     1.025144   -6.7422799    575.31412  0.034147324  0.034251657            2 
 1405000    1.0388848   -6.7917293    574.26427  0.034060751  0.034244205            3 
 1406000    1.0240762   -6.7932906     571.9884  0.033901636  0.034236673            4 
 1407000    1.0250338    -6.806326    575.03661   0.03405808  0.034229382            2 
 1408000    1.0222528   -6.7816523    575.37215  0.034053749  0.034221964            2 
 1409000    1.0442959   -6.7866197     576.7576  0.034111521  0.034214573            2 
 1410000    1.0167836   -6.7436558    575.04204  0.033985936  0.034207151            4 
 1411000      1.03084   -6.7798501     577.3642  0.034098996  0.034199812            2 
 1412000    1.0223303   -6.7479937    575.95027  0.033991399  0.034192586            2 
 1413000    1.0352657    -6.773083    578.15831  0.034097565  0.034185398            2 
 1414000    1.0302783   -6.7622606    578.40077   0.03408774  0.034178203            2 
 1415000    1.0426963   -6.7980747    577.06353  0.033984896  0.034170874            4 
 1416000    1.0251531   -6.7600128    576.98831  0.033956468  0.034163437            3 
 1417000    1.0296074   -6.7907805    577.40696  0.033957125  0.034156293            2 
 1418000    1.0247525   -6.7593628    578.83079  0.034016854  0.034149179            3 
 1419000    1.0120741   -6.8035589    577.81339  0.033933133  0.034141845            4 
 1420000    1.0250566   -6.7301137    579.79192  0.034025347  0.034134632            3 
 1421000    1.0187592   -6.7969269    579.00809  0.033955436  0.034127257            3 
 1422000    1.0310186   -6.7918764    580.32157  0.034008531  0.034119816            2 
 1423000    1.0169377   -6.7876547      580.641  0.034003338  0.034112418            3 
 1424000     1.015905   -6.7671805    578.14712  0.033833516  0.034104909            3 
 1425000     1.045186   -6.7940236    577.97971  0.033799983  0.034097242            4 
 1426000     1.030523   -6.7876445    579.32339  0.033854803  0.034089579            6 
 1427000    1.0330591   -6.8110597    579.64567  0.033849899  0.034081929            2 
 1428000    1.0217276   -6.7977454    579.57931  0.033822322   0.03407427            3 
 1429000    1.0171067   -6.7603369    580.42896  0.033848201   0.03406664            3 
 1430000    1.0405536    -6.757994    580.37125  0.033821168  0.034059089            4 
 1431000    1.0287322   -6.7965916    580.19145  0.033787063  0.034051502            7 
 1432000    1.0144842   -6.7925966    582.52522  0.033899279   0.03404411            4 
 1433000    1.0075837   -6.7928404    581.44046  0.033812542  0.034036819            3 
 1434000    1.0310458   -6.7540519    584.64464  0.033975165  0.034029532            4 
 1435000    1.0104242   -6.8153465    582.45112  0.033824107  0.034022247            3 
 1436000    1.0240627   -6.7613843    583.25687  0.033847311   0.03401493            2 
 1437000    1.0345262   -6.7793318    585.00411  0.033925082  0.034007782            2 
 1438000   0.99809895   -6.8067591     584.2408  0.033857255  0.034000724            3 
 1439000    1.0287714   -6.7910407    584.30026  0.033837171  0.033993413            2 
 1440000    1.0206586      -6.7639    586.35839  0.033932777  0.033986138            3 
 1441000    1.0343685   -6.7905511    586.89715  0.033940386  0.033978973            2 
 1442000   0.99572338   -6.7876132    584.17301  0.033759421  0.033971586            4 
 1443000    1.0125567   -6.7518367    585.11108  0.033790199  0.033964243            2 
 1444000    1.0286379   -6.8045407     585.2233  0.033773275   0.03395679            2 
 1445000    1.0342237   -6.7687199    585.40811   0.03376056  0.033949331            3 
 1446000    1.0271205    -6.780862    585.96205  0.033769136     0.033942            4 
 1447000    1.0241396   -6.7565994     585.6262  0.033726457  0.033934629            2 
 1448000    1.0309161    -6.782339    586.97398  0.033780731  0.033927363            2 
 1449000    1.0308939   -6.7881929    588.47704   0.03384386  0.033920043            9 
 1450000    1.0426227   -6.7657423     587.3326  0.033754747  0.033912817            3 
 1451000    1.0088916   -6.7737044    586.58259   0.03368841  0.033905374            3 
 1452000    1.0254678   -6.7642489    586.78887  0.033677047  0.033898048            3 
 1453000    1.0206132   -6.7842204    588.29859  0.033740456  0.033890681            2 
 1454000     1.001428   -6.7902298    588.08819  0.033705192  0.033883301            4 
 1455000    1.0129594   -6.7873075    587.00843  0.033620185  0.033875887            5 
 1456000    1.0101885    -6.799217    590.57038   0.03380096  0.033868508            2 
 1457000   0.99699979   -6.7793022    589.64166  0.033724643  0.033861362            4 
 1458000    1.0291329   -6.8118447    587.69062  0.033589999  0.033854112            4 
 1459000    1.0229466   -6.7510365    590.87201  0.033748687  0.033846836            2 
 1460000    1.0041644   -6.8200367    589.26483  0.033633837  0.033839684            4 
 1461000    1.0076708   -6.8351692    589.52246  0.033625511  0.033832309            3 
 1462000    1.0284051   -6.7810818    591.79536  0.033732066   0.03382507            3 
 1463000    1.0110007    -6.791567    591.19604  0.033674872  0.033817955            3 
 1464000    1.0312869    -6.766239    593.10852  0.033760731  0.033810682            3 
 1465000    1.0259648   -6.7372837    593.45126  0.033757182  0.033803577            4 
 1466000    1.0425993   -6.8060777     590.0045  0.033538228  0.033796547            3 
 1467000    1.0329386   -6.7971709    592.48843  0.033656466  0.033789532            2 
 1468000    1.0196745       -6.806    591.90947  0.033600674  0.033782319            5 
 1469000    1.0197642   -6.8024922    593.62607   0.03367518  0.033775163            5 
 1470000    1.0408319   -6.8106221    594.55241  0.033704785  0.033768141            1 
 1471000   0.99043461   -6.7807328    592.91066  0.033588866  0.033761081            5 
 1472000    1.0142041   -6.7674175    597.12366  0.033804555  0.033754093            2 
 1473000    1.0035351   -6.8034897    594.61275  0.033639554  0.033747044            2 
 1474000    1.0075154   -6.7898258    594.67419  0.033620205  0.033740135            2 
 1475000    1.0297136   -6.7941557    593.47703  0.033529776  0.033733053            4 
 1476000     1.025986   -6.8025098    596.33111  0.033668197  0.033725984            8 
 1477000    1.0089612   -6.8093265    594.95744  0.033567899  0.033718944            3 
 1478000     1.007368   -6.8023378    595.96011   0.03360172  0.033711945            3 
 1479000    1.0076579   -6.7689617    597.13072  0.033644958  0.033704996            3 
 1480000    1.0262791   -6.7752657     598.8132   0.03371696  0.033698085            3 
 1481000    1.0083713   -6.7704984    597.81702   0.03363814  0.033691182            5 
 1482000    1.0078494   -6.8089913     598.7811  0.033669652  0.033684279            2 
 1483000   0.99738743   -6.7870565    596.83452  0.033537566  0.033677329            2 
 1484000    1.0187302   -6.8023994    598.09806   0.03358592  0.033670239            4 
 1485000    1.0101593    -6.794648    597.88651  0.033551431  0.033663247            3 
 1486000    1.0044679   -6.7813976    598.94986  0.033588485  0.033656083            3 
 1487000    1.0178917   -6.7896159      598.882  0.033562094  0.033648964            5 
 1488000   0.98991124   -6.8258449    598.60491   0.03352402  0.033641874            3 
 1489000    1.0010744   -6.8059562    599.24386  0.033537266  0.033634839            9 
 1490000    1.0200194   -6.8307757    598.73439  0.033486263  0.033627758            3 
 1491000    1.0097457   -6.8073009    599.02603  0.033480104  0.033620666            6 
 1492000    1.0317229   -6.7989377    600.07323  0.033516154  0.033613379            4 
 1493000   0.98996012   -6.7933961    599.01891  0.033434858  0.033606096            3 
 1494000    1.0044138   -6.8280228     599.6124  0.033445582  0.033598866            6 
 1495000   0.99360145   -6.7799717    600.19718  0.033455807  0.033591543            3 
 1496000    1.0058387   -6.8045369    600.31986  0.033440277  0.033584212            4 
 1497000   0.98883539   -6.8059239    601.73325  0.033496618    0.0335769            3 
 1498000     1.029692   -6.8441819    600.74111  0.033419065  0.033569626            3 
 1499000    1.0043209   -6.8136289    602.14191  0.033474645  0.033562334            3 
 1500000   0.99846008   -6.8153599    602.04487  0.033446937  0.033555131            4 
 1501000   0.99555648   -6.7862925    604.71147    0.0335727  0.033547839            6 
 1502000    1.0508949   -6.8314972    601.19022  0.033354983  0.033540491            3 
 1503000    1.0134386   -6.7982291    600.78659  0.033310412  0.033533048            2 
 1504000    1.0016334    -6.771688    602.09984  0.033361028  0.033525582            3 
 1505000    1.0286295   -6.8057867    601.74681  0.033319314  0.033518138            5 
 1506000    1.0046334   -6.8295409    602.51515  0.033339705  0.033510861            2 
 1507000    1.0162727    -6.827789    600.42987  0.033202271  0.033503552            3 
 1508000    1.0117672   -6.7974645    603.46804  0.033348146  0.033496281            3 
 1509000    1.0067583    -6.775204    605.09549  0.033415921  0.033489105            4 
 1510000   0.98619321   -6.8315724    603.06191  0.033281563  0.033482015            3 
 1511000    1.0129227   -6.8186934    604.66931  0.033348186  0.033474817            2 
 1512000    1.0048256   -6.8277181    605.17439  0.033353968  0.033467624            3 
 1513000    1.0312164   -6.8217213    604.77633  0.033309998  0.033460361            1 
 1514000    0.9855414   -6.8221036    606.24356  0.033368756  0.033453201            4 
 1515000   0.99778774    -6.794136    606.17939  0.033343201  0.033445962            2 
 1516000    1.0105338   -6.8087039    607.94672  0.033418355  0.033438903            4 
 1517000    1.0275828   -6.8033397    607.90247  0.033393895  0.033431936            2 
 1518000     1.020635   -6.7883929    605.08248  0.033217088  0.033424805            2 
 1519000    1.0080219   -6.8145522    606.56731  0.033276679   0.03341763            5 
 1520000    1.0128293   -6.8401768    605.39752  0.033190653  0.033410399            4 
 1521000    1.0203309   -6.8102798     606.4684  0.033227504  0.033403106            4 
 1522000    1.0188107   -6.8030836    608.20835  0.033300939  0.033395823            3 
 1523000   0.99616471   -6.7837174    606.24786  0.033171802  0.033388541            3 
 1524000    1.0258689   -6.7887229     607.2498  0.033204823  0.033381265            2 
 1525000   0.99373423   -6.8147647    607.14222   0.03317717  0.033374029            3 
 1526000    1.0188999   -6.8219684    608.31001  0.033219201  0.033366669           10 
 1527000    1.0278416   -6.8000265    607.49057  0.033152727  0.033359358            3 
 1528000     1.004798   -6.7914689    606.91675  0.033099735  0.033351905            2 
 1529000   0.99811218   -6.8166609    608.57751  0.033168602  0.033344582            2 
 1530000   0.99808725   -6.8474827    607.50796  0.033088669  0.033337019            3 
 1531000    1.0043642   -6.8069155     607.6559  0.033075109  0.033329367            2 
 1532000   0.97415138    -6.828977    608.01512  0.033073059  0.033321797            3 
 1533000   0.98436607   -6.7838578    608.88269  0.033098646  0.033314232            2 
 1534000    1.0061547   -6.7835688    609.52257   0.03311183   0.03330673            1 
 1535000    1.0143448   -6.7804174    609.79788  0.033105205  0.033299318            4 
 1536000    1.0013121   -6.8045896    611.45858  0.033173751  0.033291798            4 
 1537000   0.99525566   -6.7876402    609.14955  0.033026976  0.033284219            2 
 1538000   0.99713147   -6.7898413    610.20091  0.033062468  0.033276741            4 
 1539000    1.0186041    -6.796335    609.89767  0.033024565  0.033269101            5 
 1540000    1.0173328   -6.8141073    610.37658  0.033029036  0.033261413            3 
 1541000    1.0145329   -6.8414696     609.1992  0.032943932   0.03325368            4 
 1542000    1.0137869   -6.8601834    611.76475  0.033061216  0.033245911            4 
 1543000   0.99860882   -6.8196806    609.95102  0.032941835  0.033238043            2 
 1544000    1.0264754   -6.8436411    609.39471  0.032890474  0.033230218            3 
 1545000    1.0141001   -6.8173674    612.68495  0.033046653  0.033222451            5 
 1546000     1.012225   -6.8295298    609.31247  0.032843492  0.033214578            6 
 1547000    1.0178666   -6.8138845    609.86026   0.03285177  0.033206716            1 
 1548000   0.99367398   -6.8149545    610.72125  0.032876898  0.033198883            2 
 1549000    1.0060619   -6.8092153    610.69024  0.032854004  0.033191073            4 
 1550000   0.99081274   -6.8355971    613.82392  0.033001286  0.033183238            3 
 1551000    1.0094059   -6.8438693    610.91411  0.032823668  0.033175338            4 
 1552000    1.0021436   -6.8459638    613.43132  0.032937678  0.033167372            3 
 1553000   0.98958168   -6.8500634    612.81534  0.032883416  0.033159578            7 
 1554000    1.0079392   -6.8314381    612.69365   0.03285573  0.033151771           10 
 1555000    1.0037683   -6.8382784    612.37546  0.032817549  0.033144035            8 
 1556000   0.98830126   -6.8419776     613.8607  0.032876002  0.033136282            5 
 1557000     1.001643   -6.8276247    614.18471  0.032872228  0.033128286            5 
 1558000    1.0122511   -6.8238882    614.76333  0.032882078  0.033120466            3 
 1559000    1.0037552   -6.8324464    614.28868  0.032835615    0.0331127            4 
 1560000    1.0150679   -6.8675922    616.04799  0.032908546  0.033105024            3 
 1561000    1.0319559   -6.8228385    616.45499  0.032909192  0.033097346            4 
 1562000   0.98689454   -6.8279589    615.67873   0.03284671  0.033089693            4 
 1563000    0.9999022   -6.7872451    617.03214  0.032897853   0.03308205            4 
 1564000   0.99529845   -6.8159035    618.28486  0.032943567  0.033074554            3 
 1565000    1.0023229   -6.8217729    615.57203  0.032778063  0.033067065            4 
 1566000    1.0040553   -6.8205431     618.5366  0.032914889  0.033059411            3 
 1567000   0.98837313   -6.8470218    618.24847  0.032878562  0.033051812            4 
 1568000    1.0384468   -6.8157091    617.68546  0.032827671   0.03304423            2 
 1569000   0.98648202   -6.8098561    618.55648  0.032853011  0.033036717            4 
 1570000   0.98317018   -6.8241515    617.03443  0.032751297  0.033029111            1 
 1571000    1.0168719   -6.8520706    617.44324  0.032752134  0.033021386            5 
 1572000    1.0073375   -6.8442658    617.73225  0.032746621  0.033013584            1 
 1573000   0.99524185   -6.7999658    618.71752     0.032778  0.033005845            3 
 1574000   0.99202554   -6.8635007    617.94863  0.032716467  0.032998156            4 
 1575000    1.0078546   -6.8132123    622.24576  0.032923056  0.032990623            5 
 1576000   0.98963255   -6.8023895    618.46171  0.032702079  0.032982971            4 
 1577000    1.0122868   -6.8397587     618.4821  0.032682419  0.032975238            3 
 1578000    1.0128762   -6.8306649    620.03102  0.032743506  0.032967533            2 
 1579000    1.0145075   -6.7994786    621.08627  0.032778461  0.032959808            2 
 1580000   0.98822656   -6.8409068     619.0258   0.03264904  0.032951933            2 
 1581000   0.99630619   -6.8346421    619.24946  0.032640178  0.032944127            2 
 1582000    1.0002579   -6.8584688    620.70259  0.032696091   0.03293639            1 
 1583000    1.0164413   -6.8031525    621.39864  0.032712078  0.032928699            3 
 1584000   0.99243012   -6.8518764    621.42864  0.032693005  0.032921128            2 
 1585000    0.9903318   -6.8033135     622.5098  0.032729222  0.032913544            4 
 1586000    1.0089054    -6.819482    622.24361  0.032694599  0.032905973            2 
 1587000   0.96975975   -6.8467219     620.5376  0.032584415  0.032898411            3 
 1588000    1.0099345   -6.8315836    622.73383  0.032679147  0.032890697            2 
 1589000    1.0102529   -6.8366684    624.03117  0.032726619  0.032882992            7 
 1590000   0.98487446   -6.8466762    622.37033   0.03261899  0.032875252            2 
 1591000   0.98798101   -6.8026027    623.08055  0.032635688  0.032867645            2 
 1592000    0.9861217   -6.8105541    623.39053  0.032631414  0.032860045            2 
 1593000   0.98403373   -6.8432568    622.75435   0.03257765  0.032852289            4 
 1594000   0.99062813   -6.8306241    622.36419  0.032536815  0.032844388            6 
 1595000   0.98381124   -6.8475959    621.54204  0.032473461  0.032836517            4 
 1596000    1.0054466   -6.8355135    621.70681  0.032461717  0.032828594            4 
 1597000    0.9775849   -6.8441967    624.34923  0.032579275  0.032820769            4 
 1598000    1.0068657   -6.8394574    625.30421  0.032608689  0.032812913            5 
 1599000    1.0024464   -6.8351636    626.08636  0.032629058  0.032805055            4 
 1600000   0.98153516   -6.8301596    624.41759  0.032521749  0.032797437            3 
 1601000    1.0021287   -6.8182788    625.17541  0.032540881  0.032789709            3 
 1602000   0.99236013   -6.8392854     623.7807  0.032448018  0.032781791            4 
 1603000   0.98554053   -6.8370249    623.48622  0.032412467  0.032773841            4 
 1604000   0.98300774   -6.8460034     625.4064   0.03249202  0.032765975            3 
 1605000    0.9994496   -6.8408751    625.53685  0.032478549  0.032757932            8 
 1606000    1.0120933   -6.8338558    626.09048  0.032487053  0.032750166            2 
 1607000   0.97807371   -6.8637627    624.86533  0.032403305  0.032742218            3 
 1608000    1.0154302   -6.8492715    625.56784  0.032419561  0.032734233            4 
 1609000   0.98769052   -6.8359829    627.11893  0.032479746  0.032726424            7 
 1610000   0.98096393   -6.8089729    627.04233  0.032455607  0.032718498            6 
 1611000    0.9848881   -6.8651597    626.62467  0.032413856  0.032710525            4 
 1612000   0.99459279   -6.8361813    626.82859   0.03240429  0.032702619            3 
 1613000    0.9982276   -6.8470762    627.59463  0.032423777  0.032694709            2 
 1614000   0.99561912    -6.815217    630.18937  0.032537659  0.032686927            4 
 1615000   0.98259684   -6.8466394    628.27826  0.032418899  0.032679185            2 
 1616000   0.99658782   -6.8527384    627.95014  0.032381917  0.032671383            4 
 1617000   0.99932042   -6.8400126    629.24051  0.032428392  0.032663578            3 
 1618000    1.0053983   -6.8560755    628.09669  0.032349438  0.032655734           11 
 1619000   0.98350325   -6.8676709    627.34291  0.032290658  0.032647825            5 
 1620000    1.0087454    -6.878088    630.90254  0.032453834  0.032639972            5 
 1621000    1.0009219   -6.8036199    630.49103  0.032412658  0.032632195            3 
 1622000     0.995136   -6.8266975    631.72086   0.03245586  0.032624343            1 
 1623000   0.99233643   -6.8576283    628.53164  0.032272111  0.032616489            5 
 1624000    1.0012629   -6.8117501     631.0668  0.032382327  0.032608569            2 
 1625000   0.98938696   -6.8153034    631.82624  0.032401346  0.032600713            2 
 1626000    1.0053308   -6.8459444    632.31192   0.03240631  0.032592915            2 
 1627000    0.9803015   -6.8295614    631.92672  0.032366662  0.032584995            4 
 1628000    1.0150198   -6.8196543    631.68109  0.032334208  0.032577133            2 
 1629000   0.99282795   -6.8593691    631.03924  0.032281525  0.032569333            6 
 1630000    1.0018077     -6.83589     631.4462  0.032282525  0.032561503           12 
 1631000   0.97298588   -6.8361574    632.96405  0.032340284  0.032553762            9 
 1632000   0.96965423     -6.85754    634.07163  0.032377023  0.032546044            3 
 1633000   0.99807032   -6.8330704     634.6712  0.032387793  0.032538335           13 
 1634000   0.98972441   -6.8746446    631.31747  0.032196934  0.032530642            5 
 1635000    0.9736268   -6.8784209    632.63555  0.032244421  0.032522873            2 
 1636000   0.98390878    -6.863162    634.07017  0.032297788  0.032515201            3 
 1637000   0.99457907   -6.8672786    633.76436   0.03226249  0.032507608            3 
 1638000   0.99349634   -6.8477926    633.91532  0.032250474  0.032500013            5 
 1639000   0.96115053   -6.8251054    637.81448  0.032429046  0.032492454            2 
 1640000   0.97303071   -6.8293286    635.12014  0.032272365  0.032484981            2 
 1641000   0.98202466   -6.9011977    634.37554  0.032214886  0.032477464            3 
 1642000    1.0004853   -6.8633471    634.54673  0.032203955  0.032469795            4 
 1643000   0.96934604   -6.8077592    637.28478  0.032323229  0.032462294            3 
 1644000   0.99750043   -6.8433137     637.0875  0.032293568  0.032454881            4 
 1645000   0.98591015   -6.8332618     637.9874  0.032319524  0.032447411            4 
 1646000   0.99378153   -6.8611924    637.74989  0.032287864   0.03243981            4 
 1647000   0.99283371   -6.8695134     637.3764  0.032249362  0.032432134            3 
 1648000   0.99176131   -6.8188828    636.42266  0.032181567  0.032424582            4 
 1649000   0.99602968   -6.8517112    637.93307  0.032238381  0.032416924            4 
 1650000   0.99051548   -6.8628001    636.92908  0.032168136  0.032409245            3 
 1651000   0.99929124   -6.8812156    637.81215  0.032193224  0.032401661            2 
 1652000    1.0012064   -6.8416428     638.2143  0.032194022  0.032394044            3 
 1653000   0.99478515   -6.8583202    638.71138  0.032199606  0.032386436            4 
 1654000   0.99444836    -6.875023    636.33094  0.032060204  0.032378736           10 
 1655000     0.987146   -6.8779125    635.95592   0.03202195  0.032370889            2 
 1656000   0.98535469   -6.8316047    638.72875  0.032142147  0.032363173            5 
 1657000    0.9627501   -6.8785902     638.4981   0.03211115  0.032355292            6 
 1658000   0.98716698   -6.8144102      639.291  0.032131634  0.032347564           11 
 1659000   0.98977418   -6.8512239    638.42677  0.032068855  0.032339848            4 
 1660000   0.98267106   -6.8508826    639.34032  0.032095398  0.032332149            6 
 1661000   0.98399855   -6.8394041    639.04329  0.032061172  0.032324621            3 
 1662000   0.99903442   -6.8449021    641.82699  0.032181457  0.032317101            3 
 1663000   0.97869146   -6.8324115    641.02647  0.032121992  0.032309611            3 
 1664000   0.98683325   -6.8624115    640.68416  0.032085545  0.032301992            7 
 1665000   0.97507856   -6.8479379     642.6161  0.032162968  0.032294548            4 
 1666000   0.96992673   -6.8710488    642.45311   0.03213551  0.032286999            8 
 1667000    0.9812113   -6.8689235    643.83432  0.032185279   0.03227956            6 
 1668000    1.0057874   -6.8783494    642.04535  0.032076606   0.03227215            4 
 1669000   0.98080304   -6.8757778    642.06766  0.032058501  0.032264671            4 
 1670000   0.98666824   -6.8633521    643.78093  0.032124797  0.032257414            5 
 1671000   0.97502984   -6.8813876    643.79627  0.032106337  0.032249997            4 
 1672000   0.95866752   -6.8716654    644.95418  0.032144846  0.032242507            4 
 1673000   0.97777916   -6.8545773    645.03404  0.032129609  0.032235126            5 
 1674000   0.97262525   -6.8735626    644.72925  0.032095244  0.032227722            3 
 1675000   0.98821746    -6.877677    644.28568  0.032054014  0.032220355            3 
 1676000    0.9936741   -6.8579288    646.26618  0.032133362  0.032212896            3 
 1677000     0.978598   -6.8493325    645.36542  0.032069441  0.032205598            5 
 1678000   0.95885539   -6.8614073    645.35907  0.032050014  0.032198282            7 
 1679000   0.98458131   -6.8342305    649.91478  0.032257037  0.032191034            3 
 1680000   0.98228348   -6.8352629    645.65985  0.032026778  0.032183872            9 
 1681000   0.97701534     -6.87805    646.96605  0.032072479  0.032176623            2 
 1682000    0.9898278   -6.8832738    647.30471   0.03207019  0.032169277            3 
 1683000   0.99762316   -6.8594129    647.31898  0.032051841  0.032161924            8 
 1684000   0.98035853   -6.8766805    648.06846  0.032069896  0.032154572            5 
 1685000    0.9651615   -6.8811293    647.32909  0.032014297  0.032147265            3 
 1686000   0.98523579   -6.8552217    648.34513  0.032045529  0.032139969            2 
 1687000   0.96546913   -6.8550066    649.62473  0.032089742  0.032132665            5 
 1688000   0.97245745   -6.8400771    648.89857  0.032034882  0.032125466            5 
 1689000   0.96565086   -6.8601957    648.61174  0.032001763  0.032118224            5 
 1690000   0.98265633   -6.8519702    647.69127   0.03193744   0.03211078            3 
 1691000   0.97220836   -6.8301827    649.43812  0.032004638  0.032103501            5 
 1692000   0.99113764   -6.8891951    647.83545   0.03190679  0.032096101            3 
 1693000   0.99669664   -6.8860999    646.87599  0.031840716  0.032088572            4 
 1694000   0.97730989   -6.8924768    650.75382  0.032012683  0.032080979            3 
 1695000   0.96649106   -6.8845524    649.52456  0.031933361  0.032073499            4 
 1696000   0.98872761   -6.8803046    650.46989  0.031960981  0.032066079            2 
 1697000   0.98453845   -6.8708949    649.49538  0.031894293  0.032058558            6 
 1698000   0.97032054    -6.878426    650.00476  0.031900509  0.032051057            4 
 1699000   0.98402025   -6.8909245    650.77051  0.031919291  0.032043629            4 
 1700000     0.989738   -6.9096806     649.8758  0.031856657  0.032036237            3 
 1701000   0.97543395   -6.8715297    653.18903  0.032000246  0.032028917            5 
 1702000    1.0009972   -6.8911668    651.01406  0.031874954  0.032021595            3 
 1703000   0.95474126   -6.8230987    652.54325  0.031931065   0.03201429            5 
 1704000   0.97992121   -6.8929277     651.5044  0.031861522  0.032006968            3 
 1705000   0.98436516   -6.8816731    654.22736  0.031975922   0.03199962            5 
 1706000   0.97206322   -6.8579807    653.37254  0.031915423  0.031992238            3 
 1707000    0.9588408   -6.8683354    652.06749  0.031833015  0.031984949            3 
 1708000   0.97608563    -6.849149    653.62948  0.031890587  0.031977502            3 
 1709000   0.97162044   -6.8773306    652.56906  0.031820219  0.031970139            2 
 1710000   0.97468776   -6.8510568    653.58753  0.031851244  0.031962812            3 
 1711000   0.95108724   -6.8733851    653.00003  0.031804015  0.031955422            3 
 1712000   0.97915548   -6.8544753    653.58721  0.031814019  0.031947983            2 
 1713000   0.96613676   -6.8913724    653.89031  0.031810192  0.031940606            4 
 1714000   0.98432702    -6.833994    656.41897  0.031914575  0.031933266            4 
 1715000   0.98037223   -6.8423835    653.48636  0.031753467  0.031925974            3 
 1716000   0.97804656   -6.8518702    653.11234    0.0317168  0.031918578            6 
 1717000   0.96864372   -6.8694884    654.59813  0.031770439   0.03191109            2 
 1718000   0.97398436   -6.8892491     653.1276  0.031680617  0.031903688            3 
 1719000   0.99955669   -6.8899847    654.61177  0.031734137  0.031896278            7 
 1720000    0.9816422   -6.8946351    653.89271  0.031680848   0.03188879            4 
 1721000   0.96435891   -6.8829216     653.7401   0.03165505  0.031881277            3 
 1722000   0.96344744   -6.8980385    654.86428  0.031691071  0.031873872            3 
 1723000   0.97117442   -6.8748007    655.10281  0.031684214  0.031866503            6 
 1724000   0.93499494   -6.8945944    656.44903  0.031730908  0.031859139            4 
 1725000   0.95729918   -6.8628325    656.11013  0.031696141  0.031851798            3 
 1726000   0.97322847   -6.8678813    656.63918  0.031703321  0.031844436            5 
 1727000   0.98313153   -6.8626726     657.0472  0.031704652  0.031836955            3 
 1728000   0.97988958    -6.918189    654.97084  0.031586171  0.031829415            2 
 1729000   0.99399499   -6.9048854    657.01736  0.031666539  0.031821801            5 
 1730000   0.98419886   -6.8841774    657.16531  0.031655362   0.03181425            6 
 1731000   0.96724418   -6.8746296    656.08761  0.031585192  0.031806702            3 
 1732000   0.97892964   -6.8858879    656.66006  0.031594499  0.031799133            4 
 1733000   0.97326015    -6.873856    658.15289  0.031648052  0.031791528            4 
 1734000   0.97858737   -6.8747589    658.60217  0.031651392  0.031783984            7 
 1735000    1.0015813   -6.8728244    658.14861  0.031611365  0.031776493            4 
 1736000   0.97347669   -6.8942883    658.94409  0.031631341  0.031769033            7 
 1737000    0.9734304   -6.8784163    657.58732  0.031548039  0.031761479            6 
 1738000   0.96461603   -6.8739174    658.07343  0.031553195  0.031753973            3 
 1739000   0.97314868   -6.8808805    658.57411  0.031559043    0.0317464            5 
 1740000   0.96847564   -6.8735149     658.7132  0.031547567  0.031738974            2 
 1741000   0.97702148   -6.8808719    658.65471  0.031526647  0.031731472            4 
 1742000   0.97961253   -6.8908172    657.79802  0.031467567  0.031723746            4 
 1743000    0.9749534   -6.8849797    657.39373  0.031430184  0.031715983            5 
 1744000   0.98170074   -6.8877421    660.26657  0.031549435  0.031708285            3 
 1745000   0.98396689   -6.8938116    659.51404  0.031495417  0.031700622            6 
 1746000     0.990742   -6.8812499    660.06249  0.031503555    0.0316929            4 
 1747000   0.95401213   -6.8734113    663.40347   0.03164489  0.031685326            3 
 1748000    0.9603694   -6.8938923    658.36274  0.031386477  0.031677676            3 
 1749000   0.96841529   -6.8798123    661.34025  0.031510399  0.031670133            2 
 1750000    0.9686721   -6.8647776    661.67201  0.031508191  0.031662623           15 
 1751000   0.96450387   -6.8893495    662.09141  0.031510156  0.031655052            5 
 1752000   0.96232245   -6.8595054    662.71563  0.031521862  0.031647447            9 
 1753000   0.99180916   -6.8964514    659.26181  0.031339694   0.03163976            3 
 1754000   0.95792351   -6.8725375    662.24555  0.031463585  0.031632164            2 
 1755000   0.98472735   -6.8981491    660.02628  0.031340279   0.03162452            2 
 1756000   0.95665337   -6.8817251    660.51431  0.031345592   0.03161671            3 
 1757000   0.98627686   -6.8848901    662.61702  0.031427481   0.03160912            5 
 1758000   0.97339763   -6.8484194     662.9354  0.031424697  0.031601546            6 
 1759000   0.97197561   -6.8946036    663.25267  0.031421862   0.03159403            3 
 1760000   0.96227615   -6.8735109    662.66191  0.031376037  0.031586478            3 
 1761000   0.96130862   -6.8940415    663.39268  0.031392801  0.031578909            3 
 1762000    0.9701007   -6.8977263    666.15765  0.031505754   0.03157132            2 
 1763000   0.97317306   -6.8525957    663.84825  0.031378722   0.03156372            2 
 1764000    0.9518094   -6.8584192    663.90803  0.031363758  0.031556041            6 
 1765000   0.93582209   -6.9095676    664.37361   0.03136797  0.031548393            5 
 1766000   0.98319184   -6.8810313    663.22046  0.031295793  0.031540802            2 
 1767000   0.97494925   -6.9048831    664.58483  0.031342427  0.031533191            2 
 1768000   0.96103189   -6.8660524    667.17197  0.031446643  0.031525592            3 
 1769000   0.95376623   -6.8939011    665.36267  0.031343634  0.031517901            3 
 1770000   0.98953691   -6.8802267    665.11792  0.031314403  0.031510247            3 
 1771000   0.98193152    -6.894038    665.13126  0.031297349  0.031502637            6 
 1772000   0.97312839   -6.8753604    667.09114  0.031371856  0.031495074            9 
 1773000   0.98479814   -6.8690312    665.79193  0.031293097  0.031487543            3 
 1774000   0.97464007   -6.8951233    665.98316   0.03128444    0.0314801            3 
 1775000   0.97366379    -6.908313    666.75774  0.031303181  0.031472526            2 
 1776000   0.95471545   -6.9278048    666.83969    0.0312894  0.031464976            3 
 1777000   0.94537392   -6.9004634    668.67633  0.031357922  0.031457269            8 
 1778000   0.95015897   -6.8985121    667.01263  0.031262309  0.031449633            5 
 1779000   0.96746912   -6.8513017    669.42537  0.031357756   0.03144214            2 
 1780000   0.96655245    -6.882635    668.81181  0.031311414  0.031434694            4 
 1781000   0.95938187   -6.9044215    667.60062  0.031237162  0.031427237            7 
 1782000   0.96918986   -6.8991636     667.7358  0.031225954  0.031419681            4 
 1783000   0.97717225   -6.8874543    668.74661  0.031255684   0.03141215            5 
 1784000   0.97658954   -6.8896118    668.08686  0.031207346  0.031404656            2 
 1785000   0.96078548   -6.8980137    668.50813   0.03120953  0.031397055            4 
 1786000   0.96055207   -6.9175449    668.61361  0.031196977  0.031389517            7 
 1787000   0.97267155   -6.9165374    669.82441  0.031235982  0.031381987            5 
 1788000   0.95688848   -6.8780371    670.61283  0.031255259  0.031374441            2 
 1789000   0.97893757   -6.9120472    668.71205  0.031149248  0.031366887            6 
 1790000   0.98734918   -6.9122622    670.74375  0.031226431  0.031359337           10 
 1791000   0.96402796   -6.9037681    671.80917  0.031258569  0.031351731           18 
 1792000   0.96011689   -6.8961648    668.69604  0.031096356  0.031344114            6 
 1793000   0.96907573   -6.8437443    670.56263  0.031165767  0.031336495            4 
 1794000   0.95289866   -6.8963053    671.71548  0.031201946  0.031328985           10 
 1795000   0.96764859   -6.8812572    672.55672  0.031223617  0.031321531            3 
 1796000   0.96856329   -6.9246253    671.38002  0.031151634  0.031313984            7 
 1797000   0.98538719   -6.9524057    671.95394  0.031160914  0.031306363            5 
 1798000   0.97251025   -6.9092454    671.37938  0.031116953   0.03129868            3 
 1799000   0.97895139   -6.9093309    670.28831  0.031049116  0.031291057            4 
 1800000   0.97391231   -6.8995376    671.77681  0.031100778  0.031283435            4 
 1801000   0.95406035   -6.9028289     672.5736  0.031120378  0.031275842            6 
 1802000   0.95103035   -6.8761444    674.00977  0.031169523  0.031268327            2 
 1803000   0.97074204   -6.9315651    672.42049   0.03107878   0.03126079            3 
 1804000   0.97008904   -6.8860599    674.66106  0.031165053  0.031253259            5 
 1805000   0.96907459   -6.9240375     672.2204  0.031035106  0.031245701            6 
 1806000   0.97960497   -6.9301184     673.0771  0.031057452  0.031238094            4 
 1807000   0.95643176   -6.9157108    672.63974  0.031020095  0.031230463            2 
 1808000   0.95581282   -6.8848821    674.71872  0.031098761  0.031222872            6 
 1809000   0.98500951    -6.900488    672.09802  0.030960845   0.03121519            3 
 1810000   0.96297603   -6.8985235    673.09563   0.03098967  0.031207601            2 
 1811000   0.96055364   -6.8948884    674.17076   0.03102203  0.031200059            4 
 1812000   0.96426083   -6.9024444    675.88732  0.031083854  0.031192444            5 
 1813000    0.9634624   -6.9201637    674.18484  0.030988456  0.031184835            4 
 1814000    0.9604097   -6.9012576    673.00696  0.030917262  0.031177191            4 
 1815000   0.96218161   -6.9488242    672.32815  0.030869061  0.031169522            3 
 1816000   0.96618023   -6.8944469     674.4591  0.030949849  0.031161801            5 
 1817000   0.97192788   -6.9158938    673.24276   0.03087703  0.031154106            4 
 1818000   0.95930316   -6.8907603    672.00003  0.030803081  0.031146216            7 
 1819000   0.96116205    -6.873745    675.53716  0.030948193  0.031138582            3 
 1820000    0.9766723   -6.8942279    674.50468  0.030883914  0.031130861            2 
 1821000   0.96877639   -6.8897459    674.74496   0.03087795  0.031123017            3 
 1822000   0.98559335   -6.8991735    677.40804  0.030982804  0.031115301            6 
 1823000   0.95803618    -6.898404    674.50804  0.030833244  0.031107572            7 
 1824000   0.96342243   -6.8826184    674.72479  0.030826242  0.031099768            3 
 1825000    0.9672384   -6.9167671    676.24058  0.030878565  0.031091882            3 
 1826000   0.95430485   -6.8863867    676.53831  0.030875242  0.031083965            3 
 1827000   0.95795678   -6.9213165    675.08811  0.030792196  0.031076167            3 
 1828000   0.98325376   -6.9334939    675.70399  0.030803428   0.03106814            4 
 1829000   0.96156265   -6.9221097     674.3188  0.030723474  0.031060066            3 
 1830000   0.94655445   -6.9200039    677.25646  0.030840458  0.031052152            5 
 1831000   0.95304663   -6.9093656    675.37149  0.030737825   0.03104433            3 
 1832000   0.95628249   -6.8738865    678.51389  0.030863987    0.0310365            4 
 1833000    0.9459935   -6.8957912     679.0469  0.030871381  0.031028662            3 
 1834000   0.95550999     -6.88276    677.20502  0.030770857  0.031020778            4 
 1835000   0.94399925   -6.9278042     674.6399  0.030637597   0.03101292            6 
 1836000   0.97159052     -6.93417    677.65811  0.030757902   0.03100502            4 
 1837000    0.9525911   -6.9036729    678.11692  0.030761972  0.030997192            5 
 1838000   0.95312884   -6.9339892    677.28391  0.030707468  0.030989329            5 
 1839000   0.94964407   -6.9228104    678.19527  0.030732068  0.030981413            3 
 1840000   0.95984758    -6.941924    678.16757  0.030714111  0.030973562            4 
 1841000   0.96501295   -6.9033597    677.73167  0.030677696   0.03096578            2 
 1842000   0.95612998   -6.8965204    681.96978  0.030852777  0.030957918            3 
 1843000    0.9685466   -6.9339246    679.30197  0.030715408  0.030950043            6 
 1844000   0.96758545   -6.8957791    680.04519  0.030732339  0.030942179            2 
 1845000   0.93510424   -6.9333919    679.57061  0.030694246  0.030934446            4 
 1846000   0.96559714   -6.9321445    679.10882  0.030656773  0.030926562            3 
 1847000   0.95770662   -6.9152296     681.1613  0.030732778  0.030918671            5 
 1848000   0.95717213   -6.8861026     679.6564  0.030648286  0.030910842            4 
 1849000   0.96459235   -6.9133743    681.07772  0.030695769  0.030903134            1 
 1850000   0.93618786   -6.8931027    682.41334   0.03073934  0.030895345            3 
 1851000   0.96464227   -6.8817479    683.45813   0.03076977   0.03088759            3 
 1852000   0.95310384   -6.9306228    681.84031   0.03068036  0.030879818            5 
 1853000   0.93294453   -6.9190675    679.82048  0.030572966  0.030871936            2 
 1854000   0.95114001   -6.9197195     682.9984  0.030699317  0.030864089            4 
 1855000   0.94567673   -6.9485412    680.64566  0.030577074  0.030856253            4 
 1856000   0.95444493   -6.9049634     682.7258  0.030653996  0.030848393            3 
 1857000   0.97256292   -6.8844373    682.89846  0.030645237  0.030840617            8 
 1858000   0.95463378    -6.895594    682.76589  0.030622797  0.030832791            3 
 1859000   0.95242885   -6.9373785    683.56432  0.030642116  0.030824968            2 
 1860000   0.96422739   -6.9309773    682.60731  0.030582765  0.030817029            5 
 1861000   0.96946595   -6.9237605    682.79918  0.030574923  0.030809172            4 
 1862000   0.94866571   -6.9305264    682.83374  0.030560049  0.030801387            5 
 1863000   0.95977374   -6.9380596    683.48279  0.030572678  0.030793658            3 
 1864000   0.96786669   -6.8853386    683.35321  0.030550483  0.030785799            2 
 1865000   0.92302817   -6.9202325    684.68875  0.030593778   0.03077806            3 
 1866000   0.96710056   -6.9316881    683.28244  0.030514578  0.030770251           10 
 1867000   0.95762559   -6.9219414    685.07272  0.030578143  0.030762498            1 
 1868000   0.93894789   -6.9492442    684.60216  0.030540782  0.030754758            3 
 1869000   0.94590445   -6.9109329    686.17968  0.030594778  0.030747009            4 
 1870000   0.93199178   -6.9152907     684.8206  0.030517852  0.030739224            2 
 1871000   0.96031189   -6.9418767    684.67963  0.030495262  0.030731351            9 
 1872000   0.94343076   -6.9096602    686.15655  0.030544718  0.030723539            4 
 1873000   0.94759883   -6.9037727    684.30979  0.030446244  0.030715831            5 
 1874000   0.96037854    -6.926507     685.9719  0.030503909  0.030708009            3 
 1875000   0.94367946   -6.8953919    686.05915  0.030491518  0.030700147            6 
 1876000    0.9525472   -6.9360352    685.96343  0.030471012  0.030692313            9 
 1877000   0.95635311   -6.9063817    686.95724  0.030498901  0.030684593            3 
 1878000   0.94478346   -6.9458729    685.46672  0.030416521  0.030676716            5 
 1879000   0.93725158   -6.9328583    687.98199  0.030511885  0.030668909            3 
 1880000   0.94214257   -6.9404157    686.19587  0.030416484  0.030661097            3 
 1881000    0.9499738   -6.9409679    685.35761  0.030363176  0.030653231            3 
 1882000   0.94634895   -6.9341783    687.28227  0.030432265  0.030645398            4 
 1883000   0.95427036   -6.9184976    688.28032  0.030460273   0.03063773            3 
 1884000   0.93796049   -6.9252735    687.38844  0.030404655  0.030630021            3 
 1885000   0.97578599    -6.949848    686.18563   0.03033535  0.030622307            6 
 1886000   0.95118789   -6.9228549     688.9509   0.03044145  0.030614587            3 
 1887000   0.95172863   -6.9400299    686.18362   0.03030311  0.030606682            5 
 1888000   0.94128674   -6.9561535    687.22716   0.03033312  0.030598844            5 
 1889000   0.96827623   -6.9550754     685.7332  0.030251156  0.030590913            6 
 1890000   0.92430915   -6.9490735    687.37352  0.030307474   0.03058299            8 
 1891000   0.93990266   -6.9341465    686.81462  0.030266818  0.030574978            3 
 1892000   0.93759302   -6.9174493    687.89075  0.030298218  0.030567092            2 
 1893000   0.95416795   -6.9022721    689.58161  0.030356648  0.030559223            4 
 1894000   0.94579564   -6.9667097    687.30361  0.030240391   0.03055125            3 
 1895000    0.9642353   -6.9427152    687.56758  0.030236041  0.030543295            6 
 1896000   0.96619766   -6.9697336     687.2411  0.030205744  0.030535333            3 
 1897000    0.9494522   -6.9151724    689.01024  0.030267538  0.030527312            6 
 1898000   0.94857475   -6.9169658    689.72307  0.030282889  0.030519333            3 
 1899000   0.95815733   -6.9240512    691.65001  0.030351501  0.030511397            3 
 1900000   0.93553873   -6.9104069    688.28437  0.030187911  0.030503452            5 
 1901000   0.94654079   -6.9149328    690.90189  0.030286774  0.030495515            3 
 1902000   0.96102799   -6.9483352    691.23764  0.030285561  0.030487567            3 
 1903000   0.92988254   -6.9409713    689.59355  0.030197651  0.030479543            3 
 1904000   0.94925605   -6.9346113    691.19035  0.030251678  0.030471531            5 
 1905000   0.95864045   -6.9168156    690.16076  0.030190759  0.030463486            2 
 1906000    0.9433349   -6.9189136    691.02776  0.030212826  0.030455599            6 
 1907000   0.96369926   -6.9584475    690.16647  0.030159346   0.03044763            2 
 1908000   0.95113815   -6.9688354    692.27011  0.030235417  0.030439669            5 
 1909000   0.94654101   -6.9305459    689.51189  0.030099175  0.030431638            4 
 1910000   0.94155617   -6.9678961    692.37614  0.030208383  0.030423677            3 
 1911000   0.95088494   -6.9127434    692.72457   0.03020777  0.030415764            3 
 1912000   0.94135447   -6.9476173    692.80517  0.030195483  0.030407868           12 
 1913000   0.94265187   -6.9694435    690.12869  0.030063107   0.03039984            3 
 1914000   0.92956209    -6.879492    693.68978  0.030202446  0.030391851            4 
 1915000   0.94372385    -6.962167    690.64823  0.030054318  0.030383835            4 
 1916000   0.94550616   -6.9284601    693.51453  0.030163297  0.030375723           10 
 1917000   0.94002426   -6.9428511    693.02329  0.030126208  0.030367709            3 
 1918000   0.91859665   -6.9386401    691.00519  0.030022819  0.030359662            2 
 1919000   0.95210655   -6.9276293     689.4749   0.02994072  0.030351598            3 
 1920000   0.93730659   -6.9303172    692.10544  0.030039298  0.030343534            4 
 1921000   0.93596616   -6.9269281    692.82851  0.030055028  0.030335555            3 
 1922000   0.95560875   -6.9448875    693.25182  0.030057744  0.030327584            1 
 1923000   0.95827303   -6.9576187    694.05045  0.030076723  0.030319622            2 
 1924000   0.92278212    -6.958123    692.09733  0.029976496   0.03031158            4 
 1925000   0.93833201   -6.9500933      693.506  0.030021905  0.030303651            5 
 1926000   0.95130262   -6.9423636    695.74604  0.030103238   0.03029579            9 
 1927000   0.92781896   -6.9055509     696.1512  0.030105137  0.030287948            4 
 1928000   0.94134669    -6.944804    696.27226  0.030094755  0.030280208            2 
 1929000   0.95008789   -6.9703643    694.13277  0.029986727  0.030272289            2 
 1930000   0.94497548   -6.9364298    695.89494  0.030047277  0.030264464            3 
 1931000   0.94261604   -6.9628719    695.85232  0.030029878  0.030256712            7 
 1932000   0.94182021   -6.9520592     694.9972   0.02997745  0.030248785            3 
 1933000   0.94803962   -6.9463032    694.29254  0.029931563  0.030240793            3 
 1934000   0.94831204   -6.9181728    696.09684  0.029993831  0.030232796            4 
 1935000   0.94540725   -6.9487976    695.32916  0.029945269   0.03022483            4 
 1936000    0.9619131   -6.9505193    696.99967  0.030001708  0.030216909            2 
 1937000   0.95263603   -6.9557974    694.65038  0.029885148  0.030208996            5 
 1938000   0.95921095   -6.9260278    696.03133  0.029929108   0.03020101            6 
 1939000   0.93595503   -6.9335637    696.48797  0.029933298  0.030193073            4 
 1940000   0.94246279   -6.9620906    696.77132  0.029930039  0.030185187            3 
 1941000   0.94261504   -6.9763752    694.83332  0.029831415  0.030177197            4 
 1942000   0.92488744   -6.9551256    696.71069  0.029896614  0.030169162            4 
 1943000   0.95184847   -6.9905471    695.62873  0.029834823  0.030161143           10 
 1944000   0.96397944   -6.9143621    699.11441  0.029968896  0.030153146            6 
 1945000   0.91252671   -6.9667173    696.28774   0.02983238  0.030145242            4 
 1946000   0.94439269    -6.930106    700.00217  0.029976112  0.030137332            6 
 1947000   0.96054215   -6.9769185    698.07583  0.029878267  0.030129407            3 
 1948000   0.95665905    -6.973727    697.02473  0.029817964  0.030121474            6 
 1949000    0.9486031   -6.9658459    696.91576  0.029798006  0.030113502            4 
 1950000   0.94011839   -6.9544982    698.26088  0.029840209  0.030105492            2 
 1951000   0.93511244   -6.9552076    697.51384  0.029793005  0.030097491            2 
 1952000    0.9222455   -6.9264377    697.56375  0.029779873  0.030089502            2 
 1953000   0.97331379       -6.909    701.46365  0.029931031  0.030081514            5 
 1954000   0.95005226   -6.9566299    698.12605  0.029773373  0.030073573            6 
 1955000   0.95888228   -6.9440485    698.63207  0.029779713  0.030065571            4 
 1956000   0.94639938   -6.9500053    698.43948  0.029756283  0.030057492            3 
 1957000    0.9269722   -6.9687869    698.59551  0.029747722  0.030049337            5 
 1958000   0.94630955   -6.9641967     697.2134  0.029673706  0.030041192            6 
 1959000   0.92656123   -6.9563859    699.35147   0.02974951  0.030033114            3 
 1960000   0.95231117   -6.9617851    699.15834   0.02972612  0.030024966            5 
 1961000   0.94603101   -6.9552094    698.80081  0.029695768  0.030016914            4 
 1962000   0.92007578    -6.939865    699.63684  0.029716141  0.030008879            2 
 1963000   0.95621066   -6.9609255    698.12649  0.029636886  0.030000841            5 
 1964000   0.92320808   -6.9572428    698.98414  0.029658186  0.029992711            4 
 1965000   0.93209189   -6.9548625    699.17494  0.029651185  0.029984488            6 
 1966000   0.93050415   -6.9297897    697.48126  0.029564312  0.029976341           10 
 1967000   0.93578591   -6.9515796    700.59189  0.029681066   0.02996812            4 
 1968000   0.92621467   -6.9370716    699.61019  0.029624415  0.029959955            5 
 1969000    0.9302736   -6.9390522    699.78042  0.029616575  0.029951866            6 
 1970000   0.92316073   -6.9599977    700.58915  0.029635751  0.029943791            5 
 1971000   0.95400821   -6.9426325    701.17972  0.029645684  0.029935749           10 
 1972000   0.94373698   -6.9389097    702.27208  0.029676812  0.029927679            5 
 1973000   0.94322135   -6.9559417    702.21329  0.029659288  0.029919705            3 
 1974000   0.93888284   -6.9330349    702.76448  0.029667531   0.02991168            3 
 1975000   0.93894955   -6.9227823    700.19635   0.02954415  0.029903738            3 
 1976000   0.94709191   -6.9419152    701.27548  0.029574708  0.029895654            4 
 1977000   0.93828616   -6.9590095     702.3585    0.0296054  0.029887545            1 
 1978000   0.91990178    -6.945909    704.10753  0.029664119  0.029879501            8 
 1979000   0.92593575   -6.9334528    703.06358   0.02960517  0.029871509            4 
 1980000   0.91462295   -6.9840097    703.70921  0.029617391  0.029863415            3 
 1981000   0.95821541   -6.9556092    701.60906  0.029514095  0.029855341            7 
 1982000   0.93379034   -6.9426225    701.90304  0.029511564  0.029847295            2 
 1983000   0.94782305   -6.9629831    704.26943  0.029596127  0.029839148            4 
 1984000   0.93170383    -6.955988    702.41333  0.029503248  0.029830987            2 
 1985000   0.92984171   -6.9741173    702.84848  0.029506653  0.029822833            3 
 1986000   0.93632833   -6.9583769    701.51888  0.029436005  0.029814674            7 
 1987000   0.93228585   -6.9613234     704.4656  0.029544774  0.029806481            5 
 1988000   0.95851079   -6.9858394    702.73312   0.02945729   0.02979829            4 
 1989000   0.92028244   -6.9459093    704.63945   0.02952235  0.029790107            3 
 1990000   0.91992115   -6.9612914    702.46232  0.029416345  0.029781835            5 
 1991000   0.91363379   -6.9774882    701.24453    0.0293506  0.029773505            4 
 1992000   0.93240904   -6.9538128    704.14565  0.029457231  0.029765153            6 
 1993000   0.93493087   -6.9813979    701.84799  0.029346379  0.029756848            5 
 1994000    0.9400242   -6.9710342     700.9171  0.029292757  0.029748518            3 
 1995000   0.93793271   -6.9457841    704.96357    0.0294471  0.029740295            3 
 1996000   0.92325161    -6.956483    703.83965  0.029385423  0.029732124            4 
 1997000   0.93047433   -6.9772762    702.84394  0.029329158  0.029723836            9 
 1998000   0.91048742    -6.960379     703.9896  0.029362262  0.029715624            7 
 1999000   0.96402675   -7.0068189    703.17576  0.029313647  0.029707445            6 
 2000000   0.92172236   -6.9504917    705.46519  0.029394383  0.029699266            5 
 2001000   0.92665674   -6.9840847    705.64505  0.029387183  0.029691116            7 
 2002000   0.93632821   -6.9453491    705.67442  0.029373727  0.029683052            9 
 2003000   0.91345559   -6.9859581    704.85806  0.029325098  0.029675009            5 
 2004000   0.92522776    -6.939677    705.49118  0.029336792  0.029666871            2 
 2005000    0.9457679   -6.9624604    707.35574  0.029399657  0.029658748            3 
 2006000   0.92879093   -6.9678221    705.37454  0.029302698  0.029650683            4 
 2007000   0.92602651   -7.0029284    705.23856  0.029282452  0.029642529            3 
 2008000   0.93705582   -7.0080657    705.20456  0.029266458   0.02963433            5 
 2009000   0.94782025   -7.0038507    707.53355  0.029348496  0.029626213            4 
 2010000   0.93034522   -6.9763898    706.66674  0.029297958  0.029618062            3 
 2011000   0.94667775   -6.9572922    706.92902  0.029294258  0.029610056            4 
 2012000   0.91681774   -6.9868428    707.47389  0.029302265  0.029602043            3 
 2013000   0.91930615   -6.9629568    707.25572  0.029278677  0.029593974            3 
 2014000   0.93101768   -6.9866912    706.76996   0.02924404  0.029585849            5 
 2015000   0.95259964    -7.011014    708.44826  0.029298935   0.02957773            8 
 2016000   0.92914047    -6.948417    708.43938  0.029284035   0.02956965            5 
 2017000   0.93997246   -6.9925472    708.86049  0.029286915  0.029561563            2 
 2018000   0.92937933   -6.9701973    710.61999  0.029345061  0.029553518            4 
 2019000    0.9416145   -6.9845596    710.13142  0.029310361   0.02954552            3 
 2020000   0.91618545   -6.9586307    711.35639  0.029346386  0.029537477            3 
 2021000    0.9328996   -6.9871248    709.38195  0.029250452  0.029529459            3 
 2022000   0.92664705   -7.0212385     708.6508  0.029205852  0.029521425            2 
 2023000   0.92022418   -6.9569064    710.71056  0.029276263  0.029513426            2 
 2024000   0.94294835   -6.9921585    710.77968  0.029264644   0.02950537            3 
 2025000   0.93886537   -6.9800616    709.51223  0.029198034  0.029497239            5 
 2026000   0.92852801    -7.010321    709.16662  0.029169407  0.029489113            2 
 2027000   0.92283053    -6.984456    710.65548  0.029216226  0.029481073            3 
 2028000   0.93218794   -6.9919565    709.59122  0.029158087  0.029473064            3 
 2029000   0.92724929    -6.988593    709.41594  0.029136518  0.029464955           16 
 2030000   0.94017552   -6.9566881    712.07211  0.029231203  0.029456906            6 
 2031000   0.91880078   -6.9915494    710.87098  0.029167527  0.029448853            3 
 2032000   0.93603782    -6.982004    712.26464  0.029210328  0.029440853            3 
 2033000   0.90926788   -6.9955644    712.74062  0.029215471  0.029432878            3 
 2034000   0.93205836   -6.9693937     712.2934  0.029182784  0.029424867            8 
 2035000    0.9312543   -6.9793718    710.64687  0.029101018  0.029416862            7 
 2036000   0.92382176   -6.9815404     714.5611  0.029246934  0.029408843           15 
 2037000   0.92480785   -6.9571287    713.48996  0.029188756   0.02940083            2 
 2038000   0.91447716    -7.002641    711.22745  0.029081921  0.029392772            5 
 2039000   0.89249213   -7.0152048     711.5164  0.029079467  0.029384684            8 
 2040000   0.93682114   -6.9918844    710.65378  0.029029975  0.029376642            6 
 2041000   0.93613855   -6.9755453    713.92918  0.029149485  0.029368612            3 
 2042000   0.91262731   -6.9828674    712.27165  0.029067566  0.029360516            5 
 2043000   0.90706271   -6.9733673    717.01831  0.029246954  0.029352624            6 
 2044000   0.91685832   -6.9253366    714.03658   0.02911108  0.029344754            3 
 2045000   0.93127461   -6.9874414    712.68505  0.029041771  0.029336843            3 
 2046000    0.9301374   -7.0008957    714.86415  0.029116331  0.029328904            4 
 2047000   0.94894835   -6.9730614    714.67491  0.029094403   0.02932097            4 
 2048000   0.94593982   -6.9872296    713.20651  0.029020447  0.029313023            2 
 2049000   0.93033331    -7.013331    714.99182  0.029078893  0.029305066            1 
 2050000   0.91044334   -7.0107446    715.54836  0.029087332  0.029297125            9 
 2051000   0.93710359   -6.9446269    716.98719   0.02913161  0.029289217            5 
 2052000   0.93555893   -6.9640727    715.25024  0.029046875  0.029281322            3 
 2053000   0.92114111   -6.9698929    716.93052   0.02910093  0.029273436            4 
 2054000   0.92441318   -6.9809736    715.38371  0.029024006  0.029265616            3 
 2055000   0.92344061   -6.9805702     717.6138  0.029100316  0.029257685            4 
 2056000   0.92836493   -7.0024352    715.35983  0.028994805   0.02924976            4 
 2057000    0.9174677   -6.9863311    719.00158  0.029128244  0.029241907            5 
 2058000   0.91861016   -6.9892013    718.61777  0.029098549  0.029234109            5 
 2059000   0.93160316   -6.9749556    715.56302  0.028960783  0.029226317            3 
 2060000   0.91845348   -7.0095577    717.45607  0.029023304  0.029218511            2 
 2061000    0.9393595   -6.9705411    716.16089  0.028956853  0.029210664            4 
 2062000   0.92940664   -7.0131154    717.54074  0.028998575  0.029202802            3 
 2063000   0.91776075    -6.996288    717.69444  0.028990727  0.029194946            3 
 2064000   0.92937907   -6.9658577    719.83252  0.029063005  0.029187119            3 
 2065000    0.9262381   -7.0131288    717.40076  0.028950797  0.029179255            6 
 2066000   0.90684969   -6.9725952    718.60543  0.028985375  0.029171367            7 
 2067000   0.92472015   -6.9631893    718.89419  0.028982994  0.029163528            2 
 2068000   0.92030014   -6.9918283    721.23701  0.029063387  0.029155793            3 
 2069000   0.94618813   -7.0146723    717.71693  0.028907561  0.029147911            2 
 2070000   0.90752234   -6.9766589    720.22733  0.028994659  0.029140082            4 
 2071000   0.90987668    -6.990893    720.03528  0.028972931  0.029132326            6 
 2072000   0.93505647   -6.9929182     718.8055  0.028909488   0.02912452           10 
 2073000   0.90789164   -6.9988312    719.99082  0.028943191  0.029116791            6 
 2074000   0.90996639   -7.0096473    722.08047  0.029013198  0.029109017            6 
 2075000   0.92009672   -6.9895049    722.17323  0.029002941  0.029101246            6 
 2076000   0.93177847   -7.0008074    720.46544  0.028920418  0.029093472            3 
 2077000   0.91509947   -6.9778243    720.73234  0.028917202  0.029085741            7 
 2078000   0.90645285   -6.9947689    720.29115  0.028885593  0.029077911            8 
 2079000   0.92171573   -6.9661582    722.32041  0.028953039  0.029070201            3 
 2080000   0.90878207   -6.9726212    720.16225  0.028852654  0.029062403            5 
 2081000   0.92620941   -7.0298271    721.76564  0.028902997  0.029054609            9 
 2082000   0.90150182   -6.9990591    721.36679  0.028873151   0.02904678            7 
 2083000   0.93877327   -7.0084457       721.88  0.028879821   0.02903903            4 
 2084000    0.9001976   -6.9729667    721.74568  0.028860592  0.029031314            2 
 2085000   0.93249069    -7.031447    721.17572   0.02882397  0.029023595            3 
 2086000   0.92139077   -7.0062523    721.65576  0.028829329  0.029015883            4 
 2087000   0.92398112    -7.015445    723.84225  0.028902821  0.029008209            4 
 2088000   0.92033024   -6.9913958    722.90159  0.028851436   0.02900049            6 
 2089000   0.88596712   -6.9601062    723.49914  0.028861462  0.028992784            4 
 2090000   0.93816725   -6.9707054     722.7234  0.028816723  0.028985071            3 
 2091000    0.9072499   -6.9953294    723.68866   0.02884141  0.028977363            5 
 2092000   0.92931523   -7.0243144    722.60032   0.02878427  0.028969591            4 
 2093000   0.92339329     -7.00837    722.91958  0.028783229  0.028961901            3 
 2094000   0.91923809   -7.0142835    725.07717  0.028855347  0.028954181            3 
 2095000   0.92142045    -6.992817    726.04584  0.028880105  0.028946398            3 
 2096000   0.91344016   -6.9801372    724.48127  0.028804122   0.02893869            3 
 2097000   0.92053645   -6.9948508    723.74669  0.028761194  0.028930918            6 
 2098000   0.91619166   -7.0010756    723.39561   0.02873354  0.028923213            2 
 2099000    0.9065445   -7.0180453    724.41562  0.028760347  0.028915527            4 
 2100000   0.90194498   -7.0285943    724.45221  0.028748104  0.028907784            4 
 2101000    0.8748767   -7.0090839     723.8241  0.028709507  0.028900053            3 
 2102000   0.89911006   -7.0123045    725.28166  0.028753634  0.028892317            4 
 2103000   0.88796034   -7.0415701    723.25432  0.028659626  0.028884546            4 
 2104000   0.92119367   -7.0048045    724.37556  0.028690413  0.028876741            6 
 2105000   0.90219243    -7.017043    724.73516   0.02869102  0.028868939            2 
 2106000   0.89745532   -6.9990691    723.28202  0.028619896  0.028861194            4 
 2107000   0.91104734   -6.9918412    723.17887  0.028602233  0.028853378            8 
 2108000   0.91795797   -6.9717344    726.09636  0.028703999  0.028845567            3 
 2109000   0.92081575   -6.9864621    725.65936  0.028673122  0.028837815            9 
 2110000   0.92490847   -6.9903164    727.68844   0.02873967  0.028830047            6 
 2111000   0.90411408   -7.0124175    726.59133  0.028682746  0.028822349            7 
 2112000   0.89031265   -7.0130497    726.26072  0.028656121  0.028814651            3 
 2113000   0.91687629   -7.0153546    723.99514  0.028553208  0.028806899            3 
 2114000   0.92403968   -6.9753558    726.14786  0.028624561  0.028799187            4 
 2115000   0.90328506   -6.9958132    725.72749  0.028594464  0.028791457            5 
 2116000     0.912557   -7.0156072     727.6802  0.028657853  0.028783741            3 
 2117000    0.9150998   -7.0060596    727.55682  0.028639459  0.028776027            7 
 2118000   0.90367713   -7.0305526    726.30394  0.028576642  0.028768278            4 
 2119000   0.90379053   -7.0252655    726.64517  0.028576576   0.02876056            3 
 2120000   0.92979899   -7.0241388    729.15974   0.02866194  0.028752869            5 
 2121000   0.91188129   -7.0372617    727.32294  0.028576259  0.028745216            4 
 2122000   0.93251815   -6.9807317    729.73465  0.028657503  0.028737481            3 
 2123000   0.91602698   -7.0232746    728.05624  0.028578122  0.028729796            6 
 2124000   0.92058772   -7.0220367    729.53126  0.028622538  0.028722108            3 
 2125000   0.89965135   -7.0038466    729.29144  0.028599664  0.028714381            3 
 2126000   0.91145238   -6.9812492    729.36088  0.028588934  0.028706728            3 
 2127000   0.91253652   -6.9982278    727.87271  0.028517188  0.028699121            4 
 2128000   0.89991176   -7.0080368    731.77844  0.028656737  0.028691463            4 
 2129000   0.87706199   -7.0197566    729.47666  0.028553181  0.028683843            3 
 2130000    0.9063146   -7.0380853    728.03546   0.02848339  0.028676126            4 
 2131000   0.91122365   -6.9867858    730.19377  0.028554425  0.028668509            2 
 2132000   0.91901945   -7.0053829    729.03052  0.028495564    0.0286609            3 
 2133000   0.91429015   -7.0339319    732.13488  0.028603488  0.028653295            5 
 2134000   0.90798869   -6.9672603    731.95261  0.028582967  0.028645686            5 
 2135000   0.89153381    -7.036822    729.42422  0.028470891  0.028638068            8 
 2136000   0.91764201   -7.0404686    732.12659  0.028562991  0.028630462            5 
 2137000   0.91659333   -6.9879787    732.32933  0.028557531    0.0286229            4 
 2138000   0.91981848   -7.0122783    729.29715  0.028425988  0.028615225            5 
 2139000   0.90755559   -7.0167773    730.91216  0.028475618  0.028607531            3 
 2140000   0.89996114   -7.0394028    730.47182  0.028445164  0.028599901            5 
 2141000   0.91399417   -7.0287914    732.66348  0.028517183  0.028592288            3 
 2142000   0.87757446   -7.0006055    732.71107  0.028505722  0.028584597            5 
 2143000   0.90527662   -7.0032783    732.97278  0.028502597  0.028577003            4 
 2144000   0.90276276   -7.0094268    731.08825  0.028416054  0.028569363            3 
 2145000   0.88793841   -7.0175193    731.71741   0.02842725  0.028561738            6 
 2146000   0.91662362   -7.0099987     731.4076  0.028401973  0.028554006            4 
 2147000   0.90026769   -6.9847063    734.22386  0.028498054  0.028546382            3 
 2148000   0.92978264   -7.0081975    731.59659   0.02838286  0.028538743            4 
 2149000   0.91371683   -7.0353158    733.50566  0.028443681   0.02853104            5 
 2150000   0.90441181   -6.9935549     733.1521  0.028416748  0.028523368            4 
 2151000   0.89997818   -7.0361956    731.88682  0.028354518  0.028515643            7 
 2152000   0.90154342   -6.9913626    732.05022   0.02834767  0.028508025            4 
 2153000   0.90871072   -7.0269887    733.26135  0.028381381   0.02850044            2 
 2154000   0.91183566   -7.0123528    734.74111  0.028425453  0.028492771            2 
 2155000   0.91443213   -7.0197081    732.94724  0.028342894  0.028485116            6 
 2156000   0.89580958   -7.0735253    733.07678  0.028334755  0.028477398            4 
 2157000   0.91668814   -7.0356881    734.00625  0.028357528  0.028469752            4 
 2158000   0.90624116   -7.0061067     736.3968  0.028436701  0.028462078            6 
 2159000   0.91327098   -7.0093012    735.07952  0.028372685  0.028454433            4 
 2160000   0.90316715   -7.0121927    734.36495  0.028331981  0.028446785            3 
 2161000   0.89437631   -6.9951436    734.54178  0.028325689  0.028439152            4 
 2162000   0.90164542   -7.0000328     735.9957  0.028368628  0.028431619            4 
 2163000   0.90498612   -7.0187699    735.81147  0.028348416  0.028424029            9 
 2164000   0.91744017   -7.0059631    734.64962  0.028290574  0.028416392            5 
 2165000    0.9051001   -6.9979187    733.89445  0.028248439   0.02840874            3 
 2166000   0.90729796   -7.0390366    735.30686  0.028289737  0.028401098            3 
 2167000   0.93378867     -7.01287     735.2837  0.028275792  0.028393475            7 
 2168000   0.87620715   -7.0177957    736.87459    0.0283239  0.028385881            3 
 2169000   0.90395226   -7.0225742    737.18041  0.028322592  0.028378268            3 
 2170000   0.90165349   -7.0084441    736.57316   0.02828622  0.028370626            7 
 2171000    0.9076771   -7.0288202    734.08762  0.028177784  0.028362931            4 
 2172000   0.89115093   -7.0342949    732.75543  0.028113698  0.028355165            4 
 2173000   0.89375941   -7.0465625    734.38025  0.028163071  0.028347457            5 
 2174000   0.87716883   -7.0345489    736.84603  0.028244635  0.028339802            7 
 2175000   0.88823737   -7.0112689    736.37171  0.028213476  0.028332061            4 
 2176000   0.88738772   -7.0325803    734.86344  0.028142748  0.028324322            6 
 2177000   0.89935846    -7.049488     735.8756  0.028168565  0.028316636            3 
 2178000   0.90951094   -7.0347798    737.63342  0.028222889  0.028308966            5 
 2179000   0.89116357   -7.0350988    737.27231  0.028196126  0.028301338            6 
 2180000   0.89139171   -7.0397262    736.00269  0.028134659  0.028293622           12 
 2181000   0.89204546   -7.0481928    738.28468  0.028208952  0.028285975            5 
 2182000   0.92145751   -7.0306962    737.47764  0.028165202  0.028278335            3 
 2183000   0.88657263   -7.0359091    735.86329  0.028090674  0.028270634            8 
 2184000   0.90258265   -6.9975641    739.38605  0.028212227  0.028262984            3 
 2185000   0.93973721   -7.0365744    737.82297  0.028139701  0.028255419            7 
 2186000   0.88603371   -7.0592417      739.048  0.028173529  0.028247833            9 
 2187000   0.88489358   -7.0319851    739.16651  0.028165162  0.028240217            3 
 2188000   0.90061813   -7.0488092     738.2013  0.028115528  0.028232649            4 
 2189000   0.89130805   -7.0041955    738.51885  0.028114773  0.028225036            7 
 2190000   0.90450742   -7.0301981    740.02762  0.028159346  0.028217413            3 
 2191000   0.90950418   -7.0194093    737.69869  0.028057915  0.028209765            7 
 2192000   0.90622287    -7.009207    739.10667  0.028098642  0.028202125            7 
 2193000   0.91333993   -7.0382183    739.25699  0.028091541  0.028194497            7 
 2194000   0.91473795     -7.00999    740.72245  0.028134399  0.028186891            4 
 2195000   0.90074221   -7.0382982    738.42759  0.028034457  0.028179287            4 
 2196000   0.90927507   -7.0375678     740.7203  0.028108694  0.028171734            4 
 2197000   0.89081735   -7.0185128    740.03943  0.028070074   0.02816415            2 
 2198000   0.87227825    -7.041731    738.99515  0.028017711  0.028156532            7 
 2199000   0.90177719   -7.0043237    741.90283  0.028115159  0.028148873            2 
 2200000   0.91474502   -7.0563864     739.1947  0.027999799  0.028141287            3 
 2201000    0.8863178   -7.0267895    740.55018  0.028038398  0.028133642            5 
 2202000   0.89006158   -7.0504017    740.42947  0.028021097  0.028126085            4 
 2203000   0.89501231    -6.997435    738.63108   0.02794035  0.028118538            9 
 2204000   0.89004767   -7.0251402    742.05246  0.028057035  0.028110998           11 
 2205000   0.89050969    -7.014596    743.51207  0.028099473  0.028103555            3 
 2206000   0.92118356   -7.0556466    740.39778  0.027969091  0.028095957            3 
 2207000   0.89705468   -7.0484323    743.24716  0.028064007  0.028088399            3 
 2208000   0.92275714   -7.0579595    743.03556  0.028043311  0.028080799            4 
 2209000   0.89234813   -7.0320036    740.31237  0.027927885  0.028073214            4 
 2210000   0.88873997   -7.0533145    741.70549  0.027967779  0.028065681            4 
 2211000   0.90435427    -7.018636    741.24348  0.027937716  0.028058119            7 
 2212000   0.89499024   -7.0208591    742.84903  0.027985572  0.028050624            4 
 2213000   0.90626411   -7.0077446    742.26729   0.02795102   0.02804314            4 
 2214000   0.90400703   -7.0237031    743.25284  0.027975491  0.028035675            7 
 2215000   0.90878773   -6.9768268     745.4705  0.028046294   0.02802816            3 
 2216000   0.89827948   -7.0319484    743.38858  0.027955347  0.028020726            3 
 2217000   0.90874572    -7.038083     744.2991  0.027976962  0.028013221            3 
 2218000   0.90375772   -7.0177047    743.58872  0.027937658   0.02800568            4 
 2219000   0.89771098   -7.0474748    742.26041  0.027875184  0.027998104            9 
 2220000   0.87437437   -7.0146879    744.75992  0.027956454  0.027990547            9 
 2221000   0.89303475    -7.045816    744.13488  0.027920414  0.027982982            4 
 2222000   0.91202003   -7.0294215    744.50103  0.027921581  0.027975356            2 
 2223000   0.92196945   -7.0212086    744.04504  0.027891927  0.027967811            6 
 2224000   0.89068012   -7.0488815    743.92497  0.027874887  0.027960316            3 
 2225000   0.89302947   -7.0357114    744.09663  0.027868788  0.027952818            7 
 2226000   0.89697484   -7.0331698    745.90393  0.027923927  0.027945254            3 
 2227000   0.89284898   -7.0445687    744.13635  0.027845246  0.027937697            9 
 2228000   0.87961783   -7.0308773    743.65153  0.027814614  0.027930132            6 
 2229000   0.90188972   -7.0842385    744.14248   0.02782049  0.027922599            5 
 2230000   0.88075401   -7.0568454    745.58399  0.027861883  0.027915064            4 
 2231000   0.92038366   -7.0344859     744.2498  0.027799559  0.027907554            6 
 2232000   0.91438293   -7.0309847    745.05865  0.027817303  0.027899995            6 
 2233000   0.89492665   -7.0322997    745.46224  0.027819908  0.027892497            3 
 2234000   0.87634339   -7.0225304    746.74144  0.027855171  0.027885005            3 
 2235000   0.89999752   -7.0403773     744.5784  0.027762058  0.027877466            5 
 2236000   0.89177227    -7.052537    745.20194  0.027772881  0.027869901           11 
 2237000   0.88732407   -7.0566059    744.43206  0.027731786  0.027862405            4 
 2238000   0.90510454   -7.0138523    747.30355  0.027826316  0.027854905           12 
 2239000   0.89447913   -7.0245173    745.60667  0.027750732  0.027847433            5 
 2240000   0.90577743   -7.0405043    747.54496  0.027810452  0.027839944            3 
 2241000   0.89858076   -7.0260373    750.05602  0.027891418    0.0278325            4 
 2242000    0.9019586   -7.0669158    748.20489  0.027810173  0.027825072            1 
 2243000   0.91363216   -7.0199176    749.60999  0.027849977  0.027817706            5 
 2244000   0.88289447   -7.0610466    746.41468  0.027718905  0.027810228            5 
 2245000   0.89667951   -7.0187619    751.64633  0.027900755  0.027802804            4 
 2246000   0.89569009   -7.0935071    746.54341  0.027698999  0.027795338            5 
 2247000   0.89290138   -7.0545534    745.30217  0.027640638  0.027787737            2 
 2248000   0.89708785   -7.0591688    747.70805  0.027717529  0.027780177            5 
 2249000   0.87810236   -7.0369698    748.92176  0.027750176  0.027772647            2 
 2250000   0.87873652   -7.0300029      747.562  0.027687481  0.027765136            9 
 2251000   0.88956361   -7.0483375    747.86823  0.027686518  0.027757625            3 
 2252000   0.90681076   -7.0357543    747.76064  0.027670243  0.027750118           10 
 2253000    0.8925613   -7.0564892    748.66389   0.02769137   0.02774258            3 
 2254000   0.86240733   -7.0684312    748.14424  0.027659873  0.027735027            3 
 2255000   0.89176998   -7.0234137    747.69804  0.027631117  0.027727444            9 
 2256000   0.88795316   -7.0465278    749.82529  0.027697447  0.027719918            4 
 2257000   0.87633375   -7.0653385    747.31607   0.02759253  0.027712395            5 
 2258000   0.88414677   -7.0574894    748.79683  0.027634958  0.027704869            6 
 2259000   0.89123519   -7.0310909    749.65537  0.027654396  0.027697404            4 
 2260000   0.89439334    -7.074254    749.59473  0.027639924  0.027689912            4 
 2261000    0.8827926    -7.061734     749.1895  0.027612763  0.027682378            9 
 2262000   0.88906819   -7.0274786    750.37968  0.027644403  0.027674937            4 
 2263000   0.89132134   -7.0538691    748.87364  0.027576729  0.027667389            2 
 2264000    0.8984474   -7.0699095    749.22719  0.027577562  0.027659826            9 
 2265000   0.88535717   -7.0399934    749.58591  0.027578584  0.027652283            6 
 2266000   0.89549116   -7.0676028    748.75692  0.027535927  0.027644706            4 
 2267000   0.89142483   -7.0674777    748.10501  0.027499817  0.027637098            4 
 2268000   0.86638048   -7.0698723    749.76024   0.02754851  0.027629522            8 
 2269000   0.88572129   -7.0615174    748.04129  0.027473237  0.027621925            3 
 2270000   0.87993646    -7.049849    750.47334  0.027550416  0.027614296            8 
 2271000   0.87652472   -7.0797819    750.27508   0.02753101  0.027606658            3 
 2272000   0.89964967   -7.0367038    750.17879  0.027515361  0.027599125            5 
 2273000   0.89597126   -7.0400552    750.72604  0.027523319  0.027591571           15 
 2274000   0.86800661    -7.046123    750.55222  0.027504845  0.027584021            3 
 2275000   0.88891434   -7.0569439    751.74508   0.02753645  0.027576431           14 
 2276000   0.90497988   -7.0600062    750.64353  0.027484019  0.027568842            4 
 2277000   0.87920752   -7.0605769    751.34745  0.027497711  0.027561276            5 
 2278000   0.89301577   -7.0298792    752.33822  0.027521884  0.027553716            3 
 2279000   0.88308316   -7.0499002    752.39836  0.027512007  0.027546158            7 
 2280000   0.88061761     -7.05083    751.51036  0.027467484    0.0275386            3 
 2281000   0.88223444   -7.0404161    751.85023  0.027467859   0.02753108            4 
 2282000   0.88488202   -7.0514755    752.63982  0.027484656  0.027523589            8 
 2283000   0.88658259   -7.0399991    751.37457  0.027426433  0.027516015           10 
 2284000   0.88579365   -7.0731487    753.09977  0.027477371  0.027508498            5 
 2285000   0.89234607   -7.0336079    752.00885   0.02742556  0.027501013            8 
 2286000   0.87627478   -7.0523691    751.89076  0.027409258  0.027493517            5 
 2287000   0.89345996   -7.0432715     752.8751   0.02743314   0.02748601            5 
 2288000    0.8852587     -7.04916    752.11588  0.027393498  0.027478571            2 
 2289000   0.89488182   -7.0480941    752.85155  0.027408313  0.027471089            5 
 2290000   0.89662357   -7.0410924    754.87992  0.027470157  0.027463577            3 
 2291000   0.88493588   -7.0192556    754.95728  0.027460981  0.027456211            2 
 2292000   0.88347764   -7.0530041    754.65052  0.027437846  0.027448762           13 
 2293000   0.88443845   -7.0666791    753.29176  0.027376499  0.027441289           12 
 2294000   0.87918774    -7.036475     753.9767  0.027389447  0.027433779            4 
 2295000   0.87750174   -7.0472092    754.28167  0.027388586   0.02742626            5 
 2296000   0.86990363   -7.0450071    753.52557  0.027349215   0.02741877            3 
 2297000   0.89149956   -7.0812779    751.70034  0.027271091  0.027411235           10 
 2298000   0.87705947   -7.0931128    750.90445  0.027230362  0.027403674            2 
 2299000   0.88992644   -7.0813796    754.22469  0.027338868  0.027396115            6 
 2300000    0.8911468   -7.0676291    753.39547  0.027296937  0.027388649            4 
 2301000   0.89684806   -7.0825537    754.28584   0.02731732  0.027381186           13 
 2302000   0.88531569    -7.060404    752.70307  0.027248156  0.027373754            8 
 2303000   0.86862784   -7.0892674    753.25753  0.027256388  0.027366282            5 
 2304000    0.8865909   -7.0745968    754.66533  0.027295476  0.027358848            7 
 2305000   0.90337353   -7.1106465    754.10734  0.027263461   0.02735129            4 
 2306000   0.89424215   -7.0601473      755.051   0.02728574  0.027343751            2 
 2307000   0.88403272     -7.07929    754.50376  0.027254145  0.027336215            4 
 2308000   0.91686774   -7.0544595    753.23442  0.027196506  0.027328705            5 
 2309000    0.8952965   -7.0918726    754.88277  0.027244217  0.027321187            6 
 2310000   0.87543844   -7.0555456     755.7264  0.027262857  0.027313647            7 
 2311000   0.88093513   -7.0294534    756.23745  0.027269488  0.027306099            8 
 2312000   0.86427281   -7.0770218    755.61178  0.027235142  0.027298542            3 
 2313000   0.88989416   -7.1015367    757.24712  0.027282286   0.02729101            4 
 2314000   0.88398053   -7.0703973    756.08044   0.02722848  0.027283493            3 
 2315000   0.86644618   -7.0550898    757.13126  0.027254545  0.027276015            5 
 2316000   0.89192799   -7.0529893    756.63664   0.02722498  0.027268562            4 
 2317000   0.89379264     -7.07609    755.32239  0.027165961  0.027261039            3 
 2318000   0.87998225   -7.0832799    756.52181  0.027197362  0.027253479            4 
 2319000   0.86708841   -7.0793196    757.51052  0.027221163  0.027245986            3 
 2320000   0.87047114   -7.0676951    757.52157  0.027209827   0.02723846            3 
 2321000   0.87202345     -7.06945    757.54011  0.027198769   0.02723093            4 
 2322000   0.88534818   -7.0846101     758.1236  0.027207996  0.027223341            5 
 2323000   0.86098551   -7.0690737    758.20101  0.027199061   0.02721581            3 
 2324000   0.89793385    -7.075439    757.50783  0.027162501  0.027208301            5 
 2325000   0.88646731   -7.0825001    757.48434  0.027149976  0.027200846            5 
 2326000   0.87571901   -7.0513088    758.87187  0.027188015  0.027193395           17 
 2327000   0.88042414   -7.0787564    758.75088  0.027171998  0.027185973            5 
 2328000   0.87500882   -7.0721048    757.53498  0.027116802  0.027178501            3 
 2329000   0.87723277   -7.0666236     757.8704   0.02711716  0.027171031            3 
 2330000   0.87881812   -7.1070599    759.87152  0.027177093  0.027163557            4 
 2331000   0.87287495   -7.0481088    758.92171  0.027131478  0.027156121            3 
 2332000   0.88370128   -7.0772053    759.02571   0.02712356  0.027148622            2 
 2333000   0.86160066   -7.0931948    758.90993  0.027107798  0.027141152            6 
 2334000   0.88672645   -7.0843184    758.32775  0.027075398  0.027133715            7 
 2335000   0.88880375   -7.0644683    759.95335  0.027121818   0.02712632            3 
 2336000     0.873142   -7.0807706    756.71297  0.026994612  0.027118836            4 
 2337000   0.87460486   -7.0841479    757.27485  0.027003097   0.02711138            3 
 2338000   0.88205471   -7.0932159    758.67076  0.027041302  0.027103868            3 
 2339000   0.88456794   -7.0773519    758.31891  0.027017205  0.027096352           12 
 2340000    0.8962687   -7.0338082    760.71659  0.027091047  0.027088876            6 
 2341000   0.87366313   -7.0759766    757.80063  0.026975674  0.027081354            7 
 2342000   0.89696385   -7.0757828    759.97411  0.027041493  0.027073838           12 
 2343000    0.8720724   -7.0732404    760.05456  0.027032813  0.027066376            4 
 2344000   0.88451967   -7.0507266    760.15683  0.027024916  0.027058909            7 
 2345000   0.87447337   -7.0767084    759.70808  0.026997444  0.027051446            4 
 2346000   0.90656249   -7.0832582    758.94229  0.026958734  0.027043919            4 
 2347000   0.89572482   -7.0723284    759.56983   0.02696953  0.027036378            4 
 2348000   0.87554748   -7.0821251    757.69297  0.026891431  0.027028858            3 
 2349000   0.90572194   -7.1337279    758.62439  0.026913026  0.027021353            3 
 2350000   0.90205458   -7.0973086    760.09901  0.026953866  0.027013789            2 
 2351000   0.86489121   -7.1208452    759.96963  0.026937815  0.027006219            5 
 2352000   0.87894183   -7.0820005    760.31372  0.026938553  0.026998738            4 
 2353000   0.87202282   -7.0655742    760.64932   0.02693899  0.026991306            4 
 2354000   0.86382558   -7.0636447    762.36415  0.026988252  0.026983847            7 
 2355000   0.86996321   -7.1012234    761.14825  0.026933767  0.026976371            3 
 2356000   0.86951028   -7.0918446     759.5261  0.026864958  0.026968817            4 
 2357000   0.85922814   -7.1028531    760.59316  0.026891287  0.026961318            2 
 2358000   0.86802792   -7.0951731    760.85332  0.026889077  0.026953819            6 
 2359000    0.8796663   -7.0927825    763.47279  0.026970213  0.026946312           10 
 2360000   0.89304165   -7.0935389    761.81137  0.026900119  0.026938823            6 
 2361000   0.87218426   -7.0829089    761.69814  0.026884729  0.026931324            6 
 2362000    0.8604599    -7.089156    762.92689  0.026916698  0.026923811            6 
 2363000   0.89254515   -7.0893567    761.45717  0.026853476  0.026916297            5 
 2364000   0.87083272   -7.0536444    762.55701  0.026880887  0.026908822            4 
 2365000   0.86533838   -7.0945797    761.27756  0.026824438  0.026901346            2 
 2366000   0.87098256   -7.0811186    762.41661   0.02685322    0.0268939            5 
 2367000   0.87928549   -7.0723931    762.71895  0.026852519  0.026886397            4 
 2368000   0.89251974    -7.047968    763.00592  0.026851278  0.026878955            2 
 2369000   0.87714513   -7.1327455    761.75688  0.026796007  0.026871483            3 
 2370000   0.87585562   -7.0948037    763.08896  0.026831539     0.026864            6 
 2371000   0.85647419    -7.077034    763.94031  0.026850145  0.026856544            6 
 2372000   0.87156679   -7.0795362    763.57581  0.026826019  0.026849084            5 
 2373000   0.85570822   -7.0643968    764.85825   0.02685975  0.026841625            4 
 2374000   0.86806697   -7.0874236    763.91019  0.026815157  0.026834181            6 
 2375000   0.87917172   -7.1082605    766.11167  0.026881111  0.026826741            4 
 2376000   0.87064791   -7.1048339    763.97385  0.026794818  0.026819295            3 
 2377000   0.84921414   -7.1030698    763.24946   0.02675815   0.02681188            4 
 2378000   0.87471412   -7.0829361    764.85639   0.02680321  0.026804474            5 
 2379000   0.86238353   -7.0818211    763.37412  0.026740021  0.026797064            5 
 2380000   0.85684151   -7.0861374    763.27296  0.026725244  0.026789668           12 
 2381000   0.88085341   -7.0884209    765.63189   0.02679658  0.026782261            4 
 2382000   0.86828144   -7.0857665    763.48728  0.026710302    0.0267748            8 
 2383000   0.86885591   -7.0882438    765.10039  0.026755504  0.026767247            5 
 2384000   0.86295165   -7.1071546    765.56766  0.026760614  0.026759806            7 
 2385000   0.89039383   -7.0770637    764.84145   0.02672402  0.026752336            6 
 2386000   0.85933799   -7.0717963    764.56093  0.026703022   0.02674487            5 
 2387000   0.88682305   -7.1095475    764.69485  0.026696511  0.026737389            7 
 2388000   0.85638129   -7.0795667     763.8508  0.026655877  0.026729837            6 
 2389000    0.8732664    -7.091615    764.49436  0.026667168  0.026722355            5 
 2390000   0.84483778   -7.0780021    762.99175  0.026603618  0.026714848            7 
 2391000   0.86780963   -7.0767405    764.32665  0.026639016   0.02670734            4 
 2392000   0.87153421   -7.0822846    764.83378  0.026645547  0.026699847            5 
 2393000   0.86221216    -7.053731    768.38689  0.026758145  0.026692404            5 
 2394000   0.86996331   -7.0961891    766.37598  0.026676969  0.026685003            7 
 2395000   0.86534351   -7.1157547    765.55097  0.026637125  0.026677621            6 
 2396000   0.87659496   -7.1152838    765.56552  0.026626514  0.026670209            3 
 2397000   0.85702339   -7.1037498    766.35025  0.026642687  0.026662786            6 
 2398000   0.86304062   -7.1157464    768.84131  0.026718144   0.02665539            4 
 2399000   0.85682125   -7.1014228    765.51373  0.026591418  0.026647966            5 
 2400000   0.84912139   -7.1201431    766.91038  0.026628833  0.026640521            3 
 2401000   0.86616258   -7.1133002    766.11011  0.026589966  0.026633035            6 
 2402000   0.86538524   -7.0857118    766.94678  0.026607923  0.026625577            4 
 2403000   0.87406384    -7.121091    767.03905   0.02660005  0.026618187            5 
 2404000     0.883002   -7.0990793    768.55558  0.026641555  0.026610786            8 
 2405000   0.86052385   -7.0786064    768.91857  0.026643055  0.026603396            3 
 2406000   0.87597066    -7.062375    767.56438  0.026585078  0.026596009            5 
 2407000   0.86498174   -7.0866978    768.13525  0.026593797  0.026588585            4 
 2408000   0.86301753   -7.1473569    766.74551  0.026534659  0.026581161           12 
 2409000   0.85751157   -7.0878318    767.95581  0.026565511  0.026573774            4 
 2410000   0.87063721   -7.1315965    767.34667  0.026533426  0.026566377            6 
 2411000   0.87048598   -7.1239256    765.24742  0.026449863  0.026558944            7 
 2412000   0.86428783   -7.1186171    769.51119  0.026586208  0.026551558            3 
 2413000   0.87419478   -7.0880671     768.3436  0.026534867  0.026544208            3 
 2414000   0.85160942   -7.1100809    768.19013  0.026518577  0.026536838            4 
 2415000   0.88307568    -7.093103    767.26866  0.026475799  0.026529466            4 
 2416000   0.87285574   -7.0733569    768.55208  0.026509109  0.026522106            4 
 2417000   0.86856481   -7.0849478    769.62267  0.026535053   0.02651465            5 
 2418000   0.85125689   -7.0902199    770.34388  0.026548934  0.026507301            2 
 2419000   0.85845719   -7.1064607    767.58548  0.026442934  0.026499917            6 
 2420000   0.86422785   -7.0736562    771.41955  0.026564034  0.026492551            5 
 2421000    0.8722551   -7.1110859    769.14214  0.026474671  0.026485166            3 
 2422000   0.85680081   -7.1085445    768.19594  0.026431184  0.026477767            6 
 2423000   0.87244816   -7.1022408    769.97578  0.026481489    0.0264703            4 
 2424000   0.86436748   -7.0973866    768.17499  0.026408656  0.026462881            5 
 2425000   0.88605701   -7.0895516    769.83906   0.02645495  0.026455484            4 
 2426000   0.87469534   -7.1014489    768.86747  0.026410672  0.026448089            9 
 2427000   0.86240757   -7.1244864    768.40016  0.026383744  0.026440685            5 
 2428000   0.86131224   -7.1120636    768.58808  0.026379327  0.026433282            5 
 2429000   0.85769949   -7.1001246    770.22453   0.02642461  0.026425866           14 
 2430000   0.87879136   -7.1017437     772.1474  0.026479677  0.026418468            6 
 2431000   0.86142457   -7.1124758    770.92287  0.026426809  0.026411106            5 
 2432000   0.84697262   -7.1210421    768.91928  0.026347289  0.026403694            6 
 2433000   0.87687193   -7.1023513    769.52156  0.026357089   0.02639628            6 
 2434000   0.86791006   -7.1000999    769.60442  0.026349097  0.026388827            5 
 2435000    0.8570139   -7.1300018    770.22148  0.026359393  0.026381435            4 
 2436000   0.84271324   -7.1202633    773.14087  0.026448443  0.026374023            5 
 2437000   0.84814957   -7.0935027     771.7431  0.026389793  0.026366611            4 
 2438000   0.87918039   -7.1345669    771.86237  0.026383045  0.026359208            5 
 2439000   0.86248197   -7.1474943    769.72282  0.026299126  0.026351791           10 
 2440000   0.87641596   -7.0951938    772.37964  0.026379086  0.026344389            7 
 2441000   0.88429001   -7.1314901    771.12641  0.026325495  0.026337005            4 
 2442000   0.85927917   -7.1330948    769.36918   0.02625475  0.026329558           10 
 2443000   0.85375064   -7.0986503    773.29906  0.026378055  0.026322165            7 
 2444000    0.8810247   -7.0829757    773.43293  0.026371826  0.026314779            6 
 2445000    0.8429252   -7.1188497     769.9751  0.026243187  0.026307367            9 
 2446000   0.84316269   -7.1040469    771.40333  0.026281116   0.02629992            2 
 2447000   0.84894639   -7.1097525    771.67681   0.02627969  0.026292579            2 
 2448000   0.89619202    -7.117607    770.23134  0.026219749  0.026285239            5 
 2449000   0.84512453   -7.1267539    770.66046  0.026223644  0.026277888            7 
 2450000   0.85621289   -7.1011736    773.61982  0.026313599  0.026270529            6 
 2451000   0.86488124   -7.1384561     773.1857  0.026288103  0.026263187            8 
 2452000   0.85465535   -7.1003246    773.59622  0.026291334  0.026255877            6 
 2453000   0.85052991   -7.0929305    773.38264  0.026273361  0.026248562            3 
 2454000   0.86788048   -7.1128156    773.61246  0.026270459  0.026241264            5 
 2455000   0.84712829   -7.1038378    772.74227  0.026230219   0.02623389           11 
 2456000   0.84333645   -7.1024031    774.13333  0.026266739  0.026226542            3 
 2457000   0.88463916   -7.1495037    772.22606   0.02619136  0.026219206           10 
 2458000    0.8477499   -7.1419621    773.44926  0.026222175  0.026211795            3 
 2459000   0.85823072    -7.132375    773.97153   0.02622921  0.026204406            7 
 2460000   0.85425262   -7.1259793    772.96385  0.026184412  0.026197017            3 
 2461000   0.85631052   -7.1186189    772.98774  0.026174581  0.026189644            3 
 2462000   0.86829448   -7.1047498    774.71926  0.026222558  0.026182328            5 
 2463000   0.88260368   -7.1208124    774.73507  0.026212446  0.026174934           11 
 2464000   0.86506852   -7.1609878    771.57645  0.026094983  0.026167521            5 
 2465000   0.86769887   -7.1393192    774.21673  0.026173655  0.026160079            4 
 2466000   0.84411482   -7.1007169    775.55241  0.026208178   0.02615267            7 
 2467000   0.85400459   -7.1549566     772.6921  0.026100936  0.026145245            3 
 2468000   0.87134772   -7.1266039    773.82673  0.026128671  0.026137805            6 
 2469000   0.85940685   -7.1353597    772.90866  0.026087102  0.026130395            3 
 2470000    0.8576529   -7.1366789    773.66452  0.026102042  0.026122917            3 
 2471000   0.86860083   -7.1449368    773.51479  0.026086429  0.026115429            8 
 2472000   0.85083892   -7.1250412    776.93338   0.02619112  0.026108027           11 
 2473000   0.85031397   -7.0894061    775.39475  0.026128682  0.026100679            4 
 2474000   0.85771792   -7.1192045    774.31087  0.026081611  0.026093364            6 
 2475000   0.86731506   -7.0933627    776.96808  0.026160541  0.026086097            3 
 2476000    0.8336097   -7.0965181    775.83111   0.02611171  0.026078778            4 
 2477000   0.85107571   -7.1220322    775.54203  0.026091442  0.026071467            4 
 2478000    0.8486097    -7.097401    776.11281  0.026100108  0.026064151            3 
 2479000   0.85069344   -7.1398821    775.98841  0.026085398  0.026056799            2 
 2480000   0.85249249   -7.1436659    775.87148   0.02607095  0.026049422            5 
 2481000   0.84915694   -7.1619981    776.84409  0.026093111  0.026042053            5 
 2482000   0.84623395    -7.159422    774.90808  0.026017596  0.026034696            2 
 2483000   0.84330973   -7.1107765    775.86729   0.02603931  0.026027383            4 
 2484000   0.84981614   -7.1278899     775.9832  0.026032716  0.026020057            8 
 2485000   0.85560767   -7.1012426    777.53913  0.026074417  0.026012732            5 
 2486000   0.85249367   -7.1193603    776.70568  0.026035991  0.026005425            6 
 2487000   0.85099626   -7.1034815    777.12185  0.026039467  0.025998149            7 
 2488000   0.85357371   -7.1321285    777.47512  0.026040833  0.025990826            9 
 2489000   0.84380958   -7.0939821    778.19121  0.026054346  0.025983532            4 
 2490000   0.85495689   -7.1344367    777.28812  0.026013659  0.025976239            4 
 2491000   0.87666753   -7.1352945    776.66118  0.025982242  0.025968917           10 
 2492000   0.84597345   -7.1245338    776.25997  0.025958399  0.025961597            4 
 2493000   0.86889426   -7.0871566    778.37981  0.026018847  0.025954276            7 
 2494000   0.86093672   -7.0903564    779.21543  0.026036335  0.025946998            6 
 2495000    0.8593009   -7.1180439    778.97495  0.026017867  0.025939783            7 
 2496000   0.84444078   -7.1234651    778.20634  0.025981782  0.025932478            4 
 2497000   0.86459718   -7.1255602    777.31761  0.025941717  0.025925141            6 
 2498000   0.86336499   -7.1204558    779.71754  0.026011394   0.02591786            7 
 2499000   0.86689896   -7.1283234    780.78427  0.026036557  0.025910592            6 
 2500000   0.84067801   -7.1363887    777.48342  0.025916114  0.025903358            7 
 2501000   0.84632783    -7.154116    777.36335  0.025901751  0.025896037            5 
 2502000   0.83531746   -7.1216661    779.45755  0.025961149  0.025888671            4 
 2503000   0.85497696   -7.1389729    776.94731  0.025867203  0.025881283            9 
 2504000   0.84789775   -7.1317681    778.84226  0.025919937  0.025873942            2 
 2505000    0.8605467    -7.143468    777.76056  0.025873605  0.025866624            3 
 2506000   0.85007652   -7.1474949    777.96273  0.025870003  0.025859273            4 
 2507000   0.86243592   -7.1366314    777.05738   0.02582959  0.025851964            5 
 2508000   0.83696311   -7.1328092    778.74351  0.025875316  0.025844709           10 
 2509000   0.84611166   -7.1285524    778.86457  0.025869024  0.025837386            8 
 2510000   0.85547145   -7.1187043    778.91096  0.025860258  0.025830127            6 
 2511000   0.86196984   -7.1488272    779.13581  0.025857421  0.025822883            6 
 2512000   0.84862553   -7.1169895    779.45392   0.02585768  0.025815621           10 
 2513000   0.85553449   -7.1252866    781.41543  0.025912436  0.025808417            6 
 2514000   0.84905378    -7.148077    779.15465  0.025827189  0.025801129            5 
 2515000    0.8457562   -7.1305309    779.50229  0.025828439  0.025793904            4 
 2516000   0.85233314   -7.1737903    779.03765  0.025802784  0.025786685            4 
 2517000   0.84042052   -7.1292163    781.52414  0.025874856   0.02577947            4 
 2518000   0.84355612   -7.1555032    781.46324  0.025862564  0.025772243            8 
 2519000   0.86507871   -7.1569609    780.74125  0.025828412  0.025765008            5 
 2520000   0.86315757   -7.1621094     780.0627  0.025795724  0.025757739            9 
 2521000   0.84269081   -7.1297509    781.24282  0.025824502  0.025750487            7 
 2522000   0.84014973    -7.165624     780.4059  0.025786608  0.025743293            4 
 2523000   0.84778631   -7.1521073    780.48629  0.025779042  0.025736087            8 
 2524000   0.86632492   -7.1446071    781.44718  0.025800554   0.02572888            6 
 2525000   0.83297841   -7.1425257    780.33533  0.025753641  0.025721651            6 
 2526000   0.84070025   -7.1551847    780.88955   0.02576173  0.025714439            4 
 2527000   0.85866726    -7.138363     779.9944  0.025722015  0.025707199            7 
 2528000   0.85517821   -7.1290627     782.2678  0.025786781   0.02570001            9 
 2529000   0.85503547   -7.1687607    780.43252   0.02571611  0.025692773            4 
 2530000   0.83877611   -7.0945749    783.54947  0.025808612  0.025685578            6 
 2531000   0.84000944   -7.1259938    783.75709  0.025805251  0.025678405            3 
 2532000   0.85066614   -7.1379557    782.70648  0.025760482   0.02567125            7 
 2533000   0.82970962    -7.148178    783.60783  0.025779966  0.025664093            3 
 2534000   0.83996808   -7.1412306    783.01927  0.025750436  0.025656876            3 
 2535000   0.84454341   -7.1480786    782.88737  0.025735943  0.025649675            6 
 2536000   0.83055151   -7.1400983    784.02899  0.025763308  0.025642471            4 
 2537000   0.83236122   -7.0999095    783.89544  0.025748766  0.025635258            4 
 2538000   0.85468021   -7.1953466    780.45707  0.025625725  0.025628034            6 
 2539000   0.84095636   -7.1139028    784.01463  0.025732396  0.025620819            8 
 2540000   0.84855656   -7.1028424    783.59895  0.025708627  0.025613627            6 
 2541000   0.84522034   -7.1406653     781.8652   0.02564165  0.025606452            3 
 2542000   0.83886153   -7.1337695    783.36082  0.025680593  0.025599236            5 
 2543000   0.86162254   -7.1333449    783.49106  0.025674763  0.025592003            4 
 2544000   0.84431622   -7.1299005    783.45473   0.02566348  0.025584806            4 
 2545000   0.83980599   -7.1467284    783.35072  0.025649991  0.025577575            5 
 2546000   0.85290042   -7.1321105    784.03836  0.025662423  0.025570375            6 
 2547000   0.86222817   -7.1721014    784.23655  0.025658832  0.025563146           12 
 2548000   0.83485369   -7.1309929    784.63517  0.025661799  0.025555903            8 
 2549000   0.84462629   -7.1424339     783.2231  0.025605568  0.025548697            7 
 2550000   0.83509717   -7.1331383    783.75536   0.02561292   0.02554148            6 
 2551000   0.84436732   -7.1792457    783.77936  0.025603664  0.025534232            4 
 2552000   0.84616278   -7.1767929    784.66911  0.025622685  0.025526988            6 
 2553000   0.82609224   -7.1251792     784.1903   0.02559702  0.025519764            5 
 2554000   0.85156781   -7.1437855    784.39212  0.025593583  0.025512499            6 
 2555000    0.8208446   -7.1505909    783.41059  0.025551552  0.025505223            3 
 2556000   0.84573999   -7.1631899    783.71539  0.025551493   0.02549793            6 
 2557000   0.83374195   -7.1321833    783.48737  0.025534069  0.025490667            5 
 2558000   0.85688639   -7.1402669    783.88204  0.025536944  0.025483421            5 
 2559000   0.85993753   -7.1387432    785.89505  0.025592518  0.025476233            5 
 2560000   0.84880578   -7.1239219    785.76878  0.025578411  0.025469036            6 
 2561000   0.83704698   -7.1519858    785.83282  0.025570507   0.02546182            6 
 2562000   0.84077565   -7.1465469    784.95829  0.025532081  0.025454698            3 
 2563000    0.8440172   -7.1658854    785.20364  0.025530096  0.025447517            9 
 2564000   0.84416871   -7.1727288    785.77618  0.025538747   0.02544036           10 
 2565000   0.86127591   -7.1669896    787.22031  0.025575709  0.025433168            1 
 2566000    0.8479646   -7.1392366    786.20968   0.02553292  0.025426028            4 
 2567000   0.84790445   -7.1572812    786.19237  0.025522412  0.025418914            5 
 2568000   0.83090414   -7.1552697    784.79274  0.025467054  0.025411757            5 
 2569000   0.82875226    -7.168601     786.7745  0.025521425  0.025404609            4 
 2570000   0.87159628   -7.1780768    784.50553  0.025437923  0.025397433            6 
 2571000   0.84431112   -7.1433579    786.35692  0.025488037  0.025390232            5 
 2572000   0.83754309   -7.1639042    786.25646  0.025474872  0.025383027            3 
 2573000    0.8486899   -7.1539533    785.36135  0.025435981  0.025375838            5 
 2574000   0.83218356   -7.1868915    784.67589  0.025403907  0.025368626            3 
 2575000   0.84651655   -7.1389224    786.62504  0.025457121  0.025361452            5 
 2576000    0.8667033   -7.1630911    787.49202  0.025475285  0.025354278           10 
 2577000   0.84344984   -7.1404281    784.84979  0.025379957   0.02534709            3 
 2578000   0.83057093   -7.1380629    787.21495  0.025446566  0.025339905            5 
 2579000   0.86008921   -7.1877174    784.58809  0.025351819  0.025332676            5 
 2580000   0.83044526   -7.1985447    786.79914  0.025413409  0.025325452            8 
 2581000   0.83703612   -7.1766486    786.91585  0.025407331  0.025318217            4 
 2582000   0.83507475   -7.1485577     789.3671  0.025476604  0.025311058            3 
 2583000   0.82487216   -7.1520532    787.47295  0.025405631  0.025303897            6 
 2584000   0.85171104   -7.1402682    788.19878  0.025419207  0.025296744            3 
 2585000   0.80873849   -7.1410732    788.91385  0.025432426  0.025289617            5 
 2586000   0.84331684   -7.1704532    787.02349  0.025361675  0.025282456            9 
 2587000   0.83214368   -7.1668388     788.1444  0.025387978  0.025275318            5 
 2588000   0.84935587   -7.1610557    787.76264  0.025365876  0.025268234            7 
 2589000   0.83741013   -7.1425829    787.64459  0.025352279  0.025261096            7 
 2590000    0.8454725   -7.1751442    786.42547  0.025303265  0.025253967            7 
 2591000   0.82458423   -7.1312407      789.528  0.025393284  0.025246822            6 
 2592000   0.83826495   -7.1468741    786.99236  0.025301966  0.025239727            9 
 2593000    0.8575694   -7.1589293    788.08659  0.025327375  0.025232626            4 
 2594000   0.83334335   -7.1621174     789.0222  0.025347668  0.025225498            6 
 2595000   0.82342692   -7.1600449    788.45699  0.025319749   0.02521844            7 
 2596000   0.85410484   -7.1689662    790.30674  0.025369374  0.025211356            2 
 2597000   0.83898363   -7.1656951    788.19516  0.025291848  0.025204304            3 
 2598000   0.82875603   -7.1486903    789.86271  0.025335601  0.025197284            2 
 2599000   0.83308186   -7.1589033    791.23994  0.025370012  0.025190212            4 
 2600000   0.83505846   -7.1753229    790.45837  0.025335204  0.025183142            5 
 2601000   0.81857648   -7.1485451    792.72752  0.025398165  0.025176081            6 
 2602000   0.83162982   -7.1569158    791.24365   0.02534088  0.025169027            6 
 2603000   0.82831876   -7.1923804    789.43957  0.025273389  0.025161946            6 
 2604000   0.84152638   -7.1436203    790.46299  0.025296434  0.025154897            3 
 2605000   0.82885333   -7.1617114    790.67457  0.025293492  0.025147886            6 
 2606000   0.85200592   -7.1919702    790.11234  0.025265808  0.025140791            4 
 2607000    0.8203575   -7.1495623    790.34995  0.025263711  0.025133733            6 
 2608000   0.82618556   -7.1511405    790.76834  0.025267393  0.025126678            4 
 2609000   0.83208607    -7.146961    791.47133  0.025280162  0.025119621            4 
 2610000   0.84481192   -7.1434343    792.72587  0.025310532  0.025112626            4 
 2611000   0.82342966   -7.1825309    790.71094  0.025236529  0.025105609            5 
 2612000   0.84024747   -7.1903321    790.29775  0.025213685  0.025098598            4 
 2613000   0.83207808   -7.1633224    791.13153  0.025230627  0.025091567            4 
 2614000   0.82805279   -7.1551404    791.55042  0.025234329  0.025084569            4 
 2615000   0.85895747   -7.1476392    793.21333  0.025277671  0.025077635            8 
 2616000   0.84236529   -7.1638486    793.54192  0.025278476  0.025070693            7 
 2617000   0.82179411   -7.1806128    790.69225  0.025178074  0.025063715           10 
 2618000   0.81962237   -7.1514404    792.38793  0.025222432  0.025056759            5 
 2619000   0.84435029    -7.171251    791.46668  0.025183489  0.025049771            3 
 2620000   0.82671469   -7.1677533    792.77848    0.0252156  0.025042774            7 
 2621000   0.83679489   -7.1641051    792.30766  0.025191011   0.02503574            5 
 2622000   0.85661295   -7.1778455    793.20862  0.025210038  0.025028749            5 
 2623000   0.84594061   -7.1768888    791.01367  0.025130692  0.025021754            7 
 2624000   0.81742058   -7.1600737    792.61304  0.025171908  0.025014724            5 
 2625000   0.86005151   -7.1739808    791.23673  0.025118626  0.025007676            6 
 2626000    0.8175234   -7.1493528    792.64154  0.025153641  0.025000601            3 
 2627000   0.83581043   -7.1767724    792.51705  0.025140117  0.024993565            8 
 2628000   0.81608632   -7.2072154    792.55391   0.02513172  0.024986536            8 
 2629000   0.83272634   -7.1866409    792.26312  0.025112943  0.024979498            7 
 2630000   0.82066171    -7.166273    793.69215  0.025148674  0.024972455            5 
 2631000   0.82526907   -7.1646795    793.97186  0.025147975  0.024965456           10 
 2632000   0.82780879   -7.1730729    791.74552  0.025067931  0.024958452            4 
 2633000   0.81935295   -7.1848025    794.87171  0.025157353  0.024951443            3 
 2634000   0.83968338   -7.1854016    793.30532  0.025098245  0.024944407            6 
 2635000   0.81642768   -7.1700658    794.68404  0.025132323   0.02493743            8 
 2636000   0.83691778   -7.1699904    795.26115  0.025141033  0.024930498            5 
 2637000   0.82418725    -7.173312    795.00508  0.025123407  0.024923511            6 
 2638000    0.8266197   -7.1659295    793.74806  0.025074174  0.024916515            4 
 2639000   0.82377933   -7.1688176    794.81454   0.02509835  0.024909507            5 
 2640000   0.83020011    -7.231042    794.33181  0.025073605  0.024902477            6 
 2641000   0.82361526   -7.1796186    795.22884  0.025092416  0.024895484            5 
 2642000   0.81367989   -7.1999121    792.50924  0.024997137  0.024888496            7 
 2643000   0.83661214   -7.1804056    794.46843  0.025049452   0.02488151            6 
 2644000   0.81381301   -7.2155693    794.37206  0.025036941  0.024874518           10 
 2645000   0.82223479   -7.2086879    794.98367  0.025046745  0.024867509            3 
 2646000   0.82870856   -7.1710233    795.06241  0.025039758  0.024860544            4 
 2647000   0.84656788   -7.2010829    793.69394  0.024987216  0.024853553            4 
 2648000   0.83338062   -7.1631761    794.69761  0.025009366  0.024846564            6 
 2649000   0.81523914   -7.1781429    794.95335   0.02500797  0.024839597            9 
 2650000   0.83397255   -7.1586795     796.1046  0.025034736  0.024832657            4 
 2651000   0.81871965   -7.1556635    795.34171  0.025001311  0.024825707            9 
 2652000   0.82010319   -7.1640209    794.68815  0.024971347  0.024818729            6 
 2653000    0.8260567   -7.2136671    793.78953  0.024933708  0.024811737            5 
 2654000   0.82149618   -7.1831643    794.65313  0.024951429  0.024804718            7 
 2655000   0.81551932   -7.1900953    795.35434  0.024964041  0.024797696            7 
 2656000   0.82207154   -7.1827768    794.35322  0.024923231  0.024790703            6 
 2657000   0.81261297   -7.1548463    794.28449  0.024911695  0.024783686            6 
 2658000   0.82151297   -7.2050864    793.49669  0.024877624  0.024776599            7 
 2659000   0.83525738   -7.2009781    792.37809  0.024833211  0.024769528            5 
 2660000   0.85244798   -7.1763241    795.97372   0.02493652  0.024762455            8 
 2661000   0.82152545    -7.183527    795.72607  0.024919393  0.024755429            5 
 2662000   0.82395181   -7.1872496    796.17624  0.024924125  0.024748418            7 
 2663000   0.82084777   -7.1398629    796.36221  0.024920585  0.024741434            7 
 2664000   0.84406732   -7.1795923    795.04735    0.0248701  0.024734464            8 
 2665000    0.8205087   -7.2175483     795.3352  0.024869769  0.024727439            9 
 2666000   0.84363565   -7.1758424    798.48163  0.024958791  0.024720453            9 
 2667000   0.81417857   -7.1819504    794.53438  0.024826096  0.024713431            4 
 2668000   0.82122096   -7.1899549    796.97192  0.024892926  0.024706413            5 
 2669000   0.83828522   -7.1997503    796.15221  0.024858006  0.024699419            3 
 2670000   0.84543363   -7.1614126    797.18127  0.024880814  0.024692416            4 
 2671000   0.81609959   -7.1649705     798.2858  0.024905959  0.024685423            5 
 2672000   0.81607327   -7.1839016    795.55675  0.024811525  0.024678392            4 
 2673000   0.80304479   -7.1714059    795.57396   0.02480278  0.024671343            9 
 2674000   0.83601964   -7.1880907    797.80903  0.024863158  0.024664338            9 
 2675000   0.83452722   -7.1639932    796.77597  0.024821681  0.024657304            4 
 2676000   0.81209151   -7.1902064    796.41248  0.024801086  0.024650236            6 
 2677000   0.81316503   -7.2075252    795.65757  0.024768322  0.024643166           12 
 2678000   0.83029254   -7.1781275    795.92147  0.024767285  0.024636088            4 
 2679000   0.81385491   -7.1839752     797.2696  0.024799975  0.024629051            6 
 2680000   0.83115415   -7.1903668    797.06512  0.024784363  0.024622058            9 
 2681000   0.81219874   -7.1968915    796.04726  0.024743481  0.024614988            8 
 2682000   0.80540246   -7.2021803    794.62899  0.024690187  0.024607916            7 
 2683000   0.83078448   -7.1866486    796.45261  0.024737626  0.024600835            6 
 2684000   0.82170746   -7.1717258    798.67704  0.024797474  0.024593814            3 
 2685000   0.84030221   -7.1906067     799.3765  0.024809947  0.024586844            8 
 2686000   0.82218997    -7.189963    797.56024  0.024744361  0.024579858            5 
 2687000   0.83172206   -7.1881211    798.39324  0.024760986  0.024572893            3 
 2688000   0.82132208   -7.1521446     800.0467  0.024803035  0.024565968            3 
 2689000   0.81413287   -7.1957452    797.91767  0.024727831  0.024558999            4 
 2690000   0.81492916   -7.2122243    797.69995  0.024711894  0.024552025            8 
 2691000    0.8281495   -7.2089225    799.88745  0.024770452  0.024545051           14 
 2692000   0.80205165   -7.1884911    797.97629  0.024702089  0.024538075            5 
 2693000    0.8099641   -7.1750267     798.1918  0.024699585  0.024531123            5 
 2694000   0.81760868   -7.2053725    799.67671   0.02473635  0.024524171            6 
 2695000   0.81983493   -7.2229197     796.4696  0.024628002  0.024517213            4 
 2696000   0.81627456   -7.2192368    797.84204   0.02466129  0.024510221            7 
 2697000   0.80347754   -7.2000297    798.63527  0.024676655  0.024503279            6 
 2698000   0.82966496   -7.2125725    798.73027  0.024670443  0.024496365            5 
 2699000    0.8150349   -7.2102106    798.40413  0.024651233  0.024489437            6 
 2700000    0.8048187   -7.2037374    799.07583  0.024662834  0.024482501            8 
 2701000   0.82536465   -7.1971342    798.21673  0.024627198   0.02447558            6 
 2702000   0.81648989   -7.1941961    799.95197    0.0246716  0.024468634            6 
 2703000   0.81566869   -7.1993901    800.65327  0.024684094  0.024461755            5 
 2704000   0.81931277   -7.2125567    800.93587  0.024683675  0.024454894            9 
 2705000   0.81561404   -7.2178306    800.18292  0.024651353  0.024448016            4 
 2706000   0.82487125   -7.2048314    798.38644  0.024586919  0.024441124            4 
 2707000   0.81447977   -7.2282227    800.04555  0.024628911  0.024434216            7 
 2708000    0.8271781   -7.2228358     800.5719  0.024636014  0.024427387            9 
 2709000   0.80990339   -7.2221454    801.37499  0.024651624  0.024420539            8 
 2710000   0.82370621   -7.2295824    798.58816  0.024556832  0.024413693            2 
 2711000   0.81310582   -7.2101268    800.61547  0.024610091  0.024406898            6 
 2712000   0.81338966   -7.1796004    804.43484  0.024718376  0.024400162            5 
 2713000   0.81223167   -7.1828469    801.51766   0.02461966  0.024393391           10 
 2714000    0.8456479   -7.1880629    803.94198  0.024685027  0.024386593            8 
 2715000   0.80020716   -7.2088895    804.44206  0.024691285  0.024379839            9 
 2716000   0.82951908   -7.1931293    802.90114  0.024634915  0.024373051            7 
 2717000   0.81742181   -7.2124738    802.72518  0.024620451   0.02436622            4 
 2718000   0.81724764   -7.2225969    801.74043    0.0245812  0.024359453            3 
 2719000   0.84199642   -7.2086738    802.90848  0.024607959  0.024352672            7 
 2720000   0.81089216   -7.2084586    803.09404  0.024604597  0.024345906            7 
 2721000   0.82434165   -7.2178491     803.1391  0.024596934  0.024339116            4 
 2722000     0.819327   -7.2060699    802.34902   0.02456371  0.024332329           10 
 2723000   0.80946789   -7.2176652    803.04173  0.024575888  0.024325535            4 
 2724000   0.83531892   -7.2203478    802.10844  0.024538315  0.024318686           16 
 2725000   0.82685287    -7.210185    804.41344  0.024599799  0.024311868            6 
 2726000   0.81319188   -7.2091295    802.25917   0.02452492  0.024305047            4 
 2727000   0.79886052   -7.2039516    802.51843  0.024523849  0.024298219            7 
 2728000   0.81189077   -7.2057211    802.11572  0.024502557  0.024291387            8 
 2729000   0.81694511   -7.2214673    804.09613  0.024554053  0.024284543           13 
 2730000   0.81978289   -7.1919372     802.5673  0.024498391   0.02427772            8 
 2731000   0.83458717   -7.2280071    802.81642  0.024497022  0.024270904            6 
 2732000   0.80975646   -7.1771875    802.66523  0.024483444  0.024264069            2 
 2733000   0.82544072   -7.2203209    802.15018  0.024458781  0.024257222            9 
 2734000   0.81735532   -7.2268881    803.73036  0.024497999  0.024250366            8 
 2735000   0.83581956   -7.2163826    803.91823  0.024494766  0.024243545            7 
 2736000   0.80667641   -7.2177072    803.97212  0.024487455  0.024236721            4 
 2737000   0.80850682   -7.2178139     802.6739  0.024438981  0.024229873            3 
 2738000   0.82201154   -7.2036875    804.10035  0.024473471  0.024223004            6 
 2739000     0.843327     -7.21401     802.3715  0.024411936  0.024216128            6 
 2740000   0.81852814   -7.2046554    802.94945  0.024420604  0.024209289           10 
 2741000    0.8125791    -7.227341    801.98012  0.024382224  0.024202454            7 
 2742000   0.81809652   -7.2204744    802.76598  0.024397215  0.024195606            5 
 2743000   0.81887139   -7.2279295    803.10017  0.024398474  0.024188714            6 
 2744000   0.81396637   -7.2255655    804.73927  0.024439361  0.024181893           13 
 2745000   0.80038142   -7.2190483     803.9928  0.024407796  0.024175055            7 
 2746000   0.82143993   -7.2286124    806.67105  0.024480185  0.024168246            3 
 2747000   0.81011277    -7.216684    805.89536  0.024447742  0.024161502            3 
 2748000   0.79596155   -7.2276721    804.99973  0.024411685   0.02415473           11 
 2749000   0.83202119   -7.2202346     806.4551  0.024446923  0.024147994            7 
 2750000    0.8117288   -7.2107838    806.82361    0.0244492  0.024141225            5 
 2751000   0.81888059   -7.2008722    809.59489   0.02452426  0.024134543            4 
 2752000   0.80990283    -7.165135    808.60587  0.024485401  0.024127873            3 
 2753000   0.82726111    -7.199293    804.90256  0.024364407  0.024121207            3 
 2754000   0.80249457   -7.2241085    806.57035  0.024406026  0.024114507            6 
 2755000   0.82772457   -7.2345347    805.93313  0.024377892  0.024107799            6 
 2756000   0.81577491   -7.2171434    805.97799  0.024370404  0.024101096            8 
 2757000   0.82307106   -7.1931098     808.4781  0.024437133  0.024094387            3 
 2758000   0.82116862   -7.2183528    805.93512  0.024351436  0.024087668            4 
 2759000   0.81678539    -7.238977    807.32392  0.024384557  0.024080964            7 
 2760000   0.78948089   -7.2499581    806.12931  0.024339653  0.024074216            8 
 2761000   0.80770359   -7.2266211    806.67158  0.024347204  0.024067478            7 
 2762000   0.80479358   -7.2423806    806.15422   0.02432278   0.02406076            5 
 2763000   0.79612745   -7.2366646    806.19395  0.024315175  0.024054029            6 
 2764000   0.80700783   -7.2277751    807.20166   0.02433676  0.024047332            3 
 2765000   0.80695724   -7.1887875    809.21295  0.024388576  0.024040626            3 
 2766000   0.81000185   -7.2181659    807.00647  0.024313282  0.024033924            4 
 2767000   0.81228512   -7.2189457    807.81044  0.024328708  0.024027182            3 
 2768000   0.81451068    -7.232781    806.83591   0.02429058  0.024020462           10 
 2769000   0.81843038   -7.2297317    808.83619  0.024342006  0.024013735            3 
 2770000   0.79923504   -7.2290682    807.53811  0.024294167   0.02400706            4 
 2771000    0.7822103   -7.2361455      806.238  0.024246301  0.024000361            2 
 2772000   0.80369888   -7.2363913     806.8588  0.024256217  0.023993628            3 
 2773000    0.8225406   -7.1948745    810.51358  0.024357302  0.023986946            5 
 2774000   0.78338519   -7.2061192    808.31889  0.024282591  0.023980304            6 
 2775000   0.79863753   -7.2022021      809.827  0.024319129  0.023973632            4 
 2776000    0.7989805   -7.2221018    808.82091  0.024280167  0.023966946           11 
 2777000    0.7951754   -7.2303238    806.56454  0.024203713  0.023960289            5 
 2778000   0.80553653   -7.2155871    805.86499  0.024174016  0.023953572           15 
 2779000   0.80681587   -7.1965233    810.55259  0.024305883  0.023946887            8 
 2780000    0.7919076   -7.2741788    807.78085  0.024214054  0.023940183            4 
 2781000   0.80125183   -7.2316737    809.71899  0.024263424  0.023933491            5 
 2782000   0.80479759   -7.2117173    811.09048  0.024295785  0.023926809            5 
 2783000   0.79461126   -7.2378117    808.11615  0.024197992  0.023920085            6 
 2784000   0.79663711   -7.2272663    807.94492  0.024184175  0.023913396            4 
 2785000    0.7993422    -7.218779    809.25193    0.0242146   0.02390669            5 
 2786000   0.79709371   -7.2278777    810.32799  0.024238095  0.023900025            7 
 2787000   0.79804432   -7.2289786    808.93959  0.024187884  0.023893351            8 
 2788000   0.81058355   -7.2019509    810.04303   0.02421219   0.02388667            5 
 2789000   0.81635704   -7.2209582    809.69705  0.024193171  0.023880042            6 
 2790000   0.82365055   -7.2028656    809.02417  0.024164402  0.023873432            3 
 2791000    0.8204283   -7.2372926    809.84844  0.024180355  0.023866825            4 
 2792000   0.82280594   -7.2176114    809.02146  0.024147011  0.023860207            6 
 2793000   0.79855499   -7.2348481    810.47517  0.024181739  0.023853588            4 
 2794000   0.79962982   -7.2545984    809.50697  0.024144207  0.023846905            7 
 2795000   0.80327314   -7.2295835    808.39487  0.024102411  0.023840203            6 
 2796000   0.78851916   -7.2233706    809.41954  0.024124331  0.023833509            4 
 2797000   0.80643884   -7.2359476    808.25279  0.024080944  0.023826835            6 
 2798000   0.78955325   -7.2654314    810.22011   0.02413093  0.023820159            3 
 2799000   0.79552556    -7.228412    810.22473  0.024122446  0.023813497            9 
 2800000   0.79709073    -7.217332    810.86732  0.024132956  0.023806873            7 
 2801000   0.78992232   -7.2141967    810.46188  0.024112278   0.02380024           10 
 2802000   0.79405739   -7.2327847     810.9866  0.024119278  0.023793562           10 
 2803000   0.79110721   -7.2376359    810.48276  0.024095694  0.023786908            7 
 2804000   0.80005428   -7.2462301    810.40274  0.024084722   0.02378021           11 
 2805000   0.81040829   -7.2318564    810.88679  0.024090517   0.02377354            7 
 2806000   0.80358032   -7.2486045    809.60626  0.024043902  0.023766876            5 
 2807000   0.80200276   -7.2101172    812.78295  0.024129645  0.023760246            8 
 2808000    0.7899762   -7.2638683    813.07245  0.024129643  0.023753607            7 
 2809000   0.79397125   -7.2504245    812.04744  0.024090644  0.023746944            4 
 2810000   0.80109361   -7.2065199    812.34201  0.024090807  0.023740297            6 
 2811000   0.79338426   -7.2602821    810.00909  0.024013076  0.023733663            7 
 2812000   0.81613013   -7.2440545    812.07476  0.024065753  0.023727006            7 
 2813000   0.79935093   -7.2187053    812.32985  0.024064755  0.023720355            7 
 2814000   0.79814763   -7.2224327    811.59105  0.024034324   0.02371372            4 
 2815000   0.80660394   -7.2466393    810.79207  0.024002133  0.023707072            4 
 2816000   0.80527675   -7.2419524    810.66069  0.023989722  0.023700393            3 
 2817000   0.80849447   -7.2472504    812.88296  0.024046946   0.02369374            3 
 2818000   0.81330938    -7.235271    810.41425  0.023965408  0.023687081            4 
 2819000   0.77536956   -7.2458325    810.93557  0.023972318  0.023680426            5 
 2820000   0.78870123   -7.2528148    811.36743  0.023976579  0.023673759            6 
 2821000   0.80512978   -7.2492792    809.96456  0.023926638  0.023667101            5 
 2822000   0.79951688   -7.2095894    810.72093  0.023940495  0.023660451            4 
 2823000   0.81280951   -7.2448703    811.22804  0.023946984  0.023653811            4 
 2824000   0.79392462   -7.2145792    813.33405  0.024000651   0.02364719            9 
 2825000   0.80503926    -7.225136    811.44552  0.023936446  0.023640545            3 
 2826000   0.81340914   -7.2809666    810.96187  0.023913714  0.023633873            7 
 2827000   0.79487034   -7.2344258    809.72293  0.023868734  0.023627241            9 
 2828000    0.7941699   -7.2536966    810.31893  0.023877856  0.023620561           13 
 2829000    0.8205492   -7.2444043    811.29395  0.023898137  0.023613889            5 
 2830000   0.79666911   -7.2344208    814.06812  0.023971382   0.02360722            7 
 2831000   0.79556383   -7.2533264    811.35303  0.023882993  0.023600535           11 
 2832000   0.79368858   -7.2749612     814.1264  0.023956167  0.023593855            6 
 2833000   0.81406515   -7.2356834    813.39933  0.023926325  0.023587212            3 
 2834000   0.80338053   -7.2295259    813.02936  0.023907003  0.023580567            3 
 2835000   0.80035816   -7.2542542    813.45523  0.023911088  0.023573934            6 
 2836000   0.79350727    -7.255867    812.11659  0.023863322  0.023567279            8 
 2837000   0.79813831    -7.242879    812.22199  0.023858007  0.023560619            5 
 2838000   0.79960941   -7.2629296    812.39872   0.02385479  0.023553967            8 
 2839000   0.79221276   -7.2268388    815.94481  0.023950476  0.023547308            4 
 2840000   0.80473093   -7.2319164    813.35523  0.023866057  0.023540672            8 
 2841000   0.79216698   -7.2231982    813.09424  0.023850001   0.02353404           10 
 2842000   0.78900828   -7.2632342    813.37583  0.023849866  0.023527387            4 
 2843000   0.79152314   -7.2726113    811.31467  0.023781061  0.023520684           10 
 2844000    0.7942752   -7.2470124    812.57748  0.023809701  0.023513965            7 
 2845000    0.8073394   -7.2343532    813.74525  0.023835538  0.023507277            4 
 2846000   0.79445763   -7.2474178    811.50502  0.023761566  0.023500586            6 
 2847000   0.80409042   -7.2596008    811.90487  0.023764924  0.023493897            6 
 2848000   0.78619764   -7.2664624    811.91895  0.023756992  0.023487234           14 
 2849000   0.79841932   -7.2382864     813.7412  0.023801954  0.023480541           15 
 2850000   0.80050598   -7.2716834     813.1458  0.023776193  0.023473862            4 
 2851000   0.79586957   -7.2437123    814.47005   0.02380656  0.023467157            8 
 2852000    0.7979417   -7.2644501    812.78878  0.023749088  0.023460519           11 
 2853000   0.79468648   -7.2690836    812.24214  0.023724797  0.023453849            6 
 2854000   0.77948698   -7.2540893    813.43697  0.023751371  0.023447176           11 
 2855000   0.80676886   -7.2727852    811.96683  0.023700141  0.023440515           20 
 2856000   0.78301514     -7.25312    812.61977  0.023710894  0.023433797           11 
 2857000    0.8033449   -7.2501173    813.79198  0.023736786  0.023427105            8 
 2858000   0.78028657   -7.2658959    813.21229  0.023711578  0.023420412            4 
 2859000   0.78917523   -7.2865025    812.70523  0.023688505  0.023413733            4 
 2860000    0.8002904   -7.2909733    813.26564  0.023696551   0.02340703            8 
 2861000   0.78708255   -7.2818982    814.38498  0.023720872  0.023400337            3 
 2862000   0.80812025   -7.2589397     812.3337  0.023652856  0.023393647            3 
 2863000   0.80090096   -7.2818808    813.84726   0.02368865   0.02338696            4 
 2864000   0.78222951    -7.248967    814.78168  0.023707567  0.023380297            7 
 2865000    0.7907055   -7.2708317    813.51729  0.023662516  0.023373636           11 
 2866000   0.80190962   -7.2536153    812.21628   0.02361643  0.023366977            4 
 2867000    0.7888573   -7.2413125    813.14804  0.023635276  0.023360319           11 
 2868000   0.80002166   -7.2535255    814.14858  0.023656107  0.023353635            7 
 2869000   0.79305567   -7.2856413    813.99068  0.023643275  0.023346983            5 
 2870000   0.78588798   -7.2726104    813.37222   0.02361708  0.023340308            4 
 2871000   0.80442721   -7.2633919    815.68956  0.023676116  0.023333656            4 
 2872000   0.80552856   -7.2846134    813.90239  0.023616016  0.023327002            7 
 2873000   0.81306487   -7.3025092    814.70968  0.023631213  0.023320354            6 
 2874000   0.80198832   -7.2656455    814.49044  0.023616633  0.023313685            5 
 2875000   0.79265956   -7.2482747    815.12121  0.023626702  0.023307026            3 
 2876000   0.79562277    -7.229312    816.29061  0.023652371  0.023300433           14 
 2877000    0.7749357   -7.2188666    817.22078  0.023671092  0.023293856            2 
 2878000   0.78874346   -7.2530659    816.93604  0.023654622  0.023287271            6 
 2879000   0.80015426    -7.258118    818.89364  0.023703069  0.023280732            6 
 2880000   0.78353473   -7.2361965    816.79984  0.023634254  0.023274189            5 
 2881000   0.78031063   -7.2705647    814.26904  0.023552847   0.02326762           11 
 2882000   0.79550706   -7.3060491     815.2427  0.023572829  0.023261036           12 
 2883000   0.78916281   -7.2672912    818.33937  0.023654161  0.023254458            4 
 2884000   0.78498278   -7.2596821    816.99016  0.023606974  0.023247903            8 
 2885000   0.80587089   -7.2651769     817.3687  0.023609726  0.023241348            9 
 2886000   0.78554314   -7.2567389    816.71198  0.023582582  0.023234776            5 
 2887000   0.79221884   -7.2778134    815.78302  0.023547599  0.023228169            3 
 2888000   0.78433738   -7.2783399    816.59629  0.023562912  0.023221596            4 
 2889000   0.78791907   -7.2579287    818.84832  0.023619716   0.02321506            5 
 2890000   0.78949294   -7.2597213    817.10708  0.023561334  0.023208519            6 
 2891000   0.79734954   -7.2509913    818.73706  0.023600169   0.02320195            6 
 2892000     0.797069    -7.293099    815.84365  0.023508634  0.023195405            9 
 2893000   0.78649792   -7.2665588    818.22817  0.023569195  0.023188852            6 
 2894000   0.77320264   -7.2492351    817.82028  0.023549305  0.023182312            4 
 2895000   0.77932628    -7.267763    816.79371  0.023511621  0.023175764            7 
 2896000   0.79400101   -7.2723425    817.03429  0.023510425  0.023169218            5 
 2897000    0.7912896   -7.2478973    818.16691   0.02353489  0.023162659            3 
 2898000   0.78712861   -7.2870752    815.32054   0.02344492  0.023156068            8 
 2899000   0.78874826   -7.2763854    815.79217   0.02345039  0.023149484            5 
 2900000   0.79198364   -7.2604972    817.88722  0.023502506  0.023142906            9 
 2901000   0.78465314   -7.2845941    816.51157  0.023454888  0.023136306            7 
 2902000   0.81784437   -7.2865549    816.34358  0.023441982  0.023129708            7 
 2903000   0.79236206   -7.2682561    816.83511  0.023448017  0.023123153            6 
 2904000   0.79312777   -7.2906155    817.45435  0.023457712   0.02311657            4 
 2905000     0.779551   -7.2383593     818.8263  0.023488993  0.023110034            6 
 2906000   0.78106677   -7.2515677    816.02813  0.023400669  0.023103507            6 
 2907000   0.79007135   -7.2713332    816.80891  0.023415001  0.023096955            5 
 2908000   0.76788817   -7.2672146    817.11391   0.02341569  0.023090406            2 
 2909000   0.77890152   -7.2757122    816.82393  0.023399333  0.023083846            9 
 2910000   0.79293198   -7.2960296    816.30339  0.023376386  0.023077225           12 
 2911000   0.78256791   -7.2833801    817.77192  0.023410395  0.023070605           11 
 2912000   0.77880507   -7.2955892    818.37342  0.023419569  0.023064011            7 
 2913000   0.78405449   -7.2528499    818.85121  0.023425198  0.023057472            5 
 2914000   0.79133159   -7.2622147    818.06856  0.023394777  0.023050953            7 
 2915000   0.78397912   -7.2780387    819.31415   0.02342236  0.023044443           14 
 2916000   0.77869442    -7.285425    819.15899  0.023409893  0.023037902            9 
 2917000   0.76650665   -7.2719263     820.2143  0.023432016  0.023031365            4 
 2918000   0.78461889   -7.2798525    820.96381  0.023445391  0.023024867            6 
 2919000     0.789795   -7.2729581    820.54623  0.023425438   0.02301842           12 
 2920000   0.76884711   -7.2669636    821.54428  0.023445898   0.02301195           10 
 2921000   0.80199153   -7.2771947    819.84186  0.023389303  0.023005504           10 
 2922000   0.79628595   -7.2568219    820.38604  0.023396818   0.02299903            7 
 2923000   0.77216144   -7.2691536    819.89759  0.023374889  0.022992584            6 
 2924000    0.7659305   -7.2623178    821.12184  0.023401785  0.022986116           20 
 2925000   0.77295231    -7.285384    818.63117  0.023322825  0.022979632           18 
 2926000   0.77978813   -7.2697189    819.57806  0.023341822   0.02297313            7 
 2927000   0.78461665   -7.2504652    822.14419  0.023406907  0.022966653           20 
 2928000   0.78875863   -7.2789263    819.00922  0.023309689  0.022960144            8 
 2929000   0.79858545   -7.2630179    819.22461  0.023307858  0.022953612            4 
 2930000   0.78054637   -7.3128893    816.52918  0.023223242  0.022947077            7 
 2931000   0.78300305   -7.3099412    821.04858  0.023343813  0.022940517            9 
 2932000    0.7829937   -7.2724478    820.78829  0.023328453  0.022933965            6 
 2933000   0.78410908   -7.3203419    818.68217  0.023260659  0.022927417            5 
 2934000   0.78537936    -7.278671    817.64572  0.023223294   0.02292088            9 
 2935000   0.77845631   -7.2761729    819.70905  0.023273965  0.022914324            4 
 2936000   0.78893196   -7.2868989    819.07302  0.023247985  0.022907772           10 
 2937000   0.78573951   -7.2795652    820.93477  0.023292894  0.022901221           11 
 2938000   0.77598517   -7.3157443    819.08639  0.023232539  0.022894685            6 
 2939000   0.76993926   -7.2781642    819.71294  0.023242399  0.022888142            2 
 2940000   0.78674787   -7.2834505    820.09023  0.023245188  0.022881628            7 
 2941000   0.78976486   -7.2797088    817.82985  0.023173236  0.022875086            5 
 2942000   0.77229525   -7.2783172    818.86746   0.02319475  0.022868571            9 
 2943000   0.77489647   -7.2491759    821.26965  0.023254889  0.022862074           14 
 2944000   0.76509073   -7.2365692    822.26202   0.02327508  0.022855595            5 
 2945000    0.7816029   -7.2903874    821.10602  0.023234466  0.022849107            7 
 2946000   0.78014917   -7.2887471    820.75618  0.023216683  0.022842603           12 
 2947000   0.80226981   -7.2950636    820.33544  0.023196908  0.022836107            9 
 2948000   0.78177841   -7.2944121    820.02104  0.023180151  0.022829595           19 
 2949000   0.76615433   -7.2759693    820.69525  0.023191343  0.022823077            3 
 2950000    0.7744131   -7.2917583    819.05259  0.023137079  0.022816595            4 
 2951000   0.76683735   -7.2919725    821.89145  0.023209405  0.022810115            5 
 2952000   0.75770408   -7.2783769    822.89128  0.023229767  0.022803621            9 
 2953000    0.7938059   -7.2842307    819.72765  0.023132623  0.022797127            8 
 2954000   0.79198817    -7.299222    822.14757   0.02319306  0.022790618            4 
 2955000   0.78084183   -7.3105356    820.59405    0.0231414  0.022784112           10 
 2956000   0.76639001   -7.2599394    820.17239  0.023121685  0.022777597           13 
 2957000   0.77416969   -7.2901927    821.29321  0.023145452    0.0227711            9 
 2958000   0.77195372   -7.2944609    820.99337   0.02312918  0.022764595            7 
 2959000   0.79007994   -7.3009036    819.40499   0.02307663   0.02275806           14 
 2960000   0.76286103   -7.2791882    820.13978  0.023089521  0.022751522            9 
 2961000   0.78637768   -7.3114678    821.27975  0.023113806  0.022744996            7 
 2962000    0.7652668   -7.2722571    820.95612  0.023096897   0.02273848            7 
 2963000   0.77802732   -7.2804003    822.53595  0.023133535  0.022731957            8 
 2964000    0.7811012   -7.2962567    821.98168  0.023110146  0.022725431           11 
 2965000   0.77911951   -7.2963118    821.55587  0.023090384  0.022718876           12 
 2966000   0.78970623   -7.3099614    819.17049  0.023015579  0.022712327            9 
 2967000   0.78139673    -7.289733    821.77572  0.023080994  0.022705769            8 
 2968000   0.79502807   -7.2893703    821.10366  0.023054348  0.022699229            5 
 2969000   0.78390512   -7.2982275    821.79173  0.023065896  0.022692678            8 
 2970000   0.78654396    -7.316763     820.9376  0.023034164  0.022686083            9 
 2971000   0.77156105   -7.2895175    822.88372  0.023080997  0.022679513            6 
 2972000   0.76146346   -7.3069122    821.78671  0.023042472  0.022672935            9 
 2973000    0.7760799   -7.3267269    820.39899  0.022995823  0.022666392           14 
 2974000   0.78817656   -7.3034033     822.3197   0.02304191  0.022659846            5 
 2975000   0.77576951   -7.3136182    820.18821   0.02297446  0.022653317            7 
 2976000   0.78667046   -7.2824352    821.08699  0.022991907  0.022646814            9 
 2977000    0.7748635   -7.2993623    822.53372  0.023024682    0.0226403            3 
 2978000   0.76917571   -7.3068638    822.12737  0.023005579  0.022633784            7 
 2979000   0.77504928   -7.2827929    822.50228  0.023008344  0.022627284            3 
 2980000   0.78231028   -7.2834389    822.54757  0.023001889  0.022620792            5 
 2981000   0.78834092   -7.3100998    820.82312  0.022945967   0.02261426            6 
 2982000   0.78254094     -7.31065     821.1936  0.022948625  0.022607747            6 
 2983000   0.76577006   -7.3022379    820.78575  0.022929538   0.02260124            8 
 2984000   0.77987339    -7.275725    823.79008  0.023005755  0.022594761            7 
 2985000   0.77083427   -7.2844453    822.94704  0.022974512  0.022588279            7 
 2986000   0.78136535   -7.3014279    821.35581   0.02292241  0.022581814            9 
 2987000   0.76015542   -7.3198318    823.31046  0.022969268  0.022575357            5 
 2988000   0.77040866   -7.2968903    823.14518  0.022956972  0.022568859            4 
 2989000   0.77265545    -7.319431    821.81211  0.022912125  0.022562365            6 
 2990000   0.76730636   -7.3131415    822.98265  0.022937086  0.022555866            8 
 2991000   0.77783917   -7.3249214    822.87826  0.022926509   0.02254935            3 
 2992000   0.77339064   -7.3055276    820.15756  0.022843069  0.022542814            4 
 2993000   0.76025544   -7.2949728    824.10617  0.022945377  0.022536313           12 
 2994000   0.75827791   -7.3053616    822.64233   0.02289697  0.022529832            7 
 2995000   0.77703513   -7.3264375    820.46424  0.022828721  0.022523309            7 
 2996000   0.75719501    -7.341917    821.61591  0.022853135  0.022516771            8 
 2997000   0.77359597   -7.3341513    818.57275  0.022760893  0.022510198            6 
 2998000   0.76563346   -7.2895608    823.00494  0.022876499  0.022503637            8 
 2999000   0.78672025   -7.3146339    823.48023  0.022882078  0.022497111            4 
 3000000   0.78007699   -7.2848749    821.77663  0.022827129  0.022490611            8 
 3001000   0.78438357   -7.3048797    821.56544  0.022813658  0.022484099            8 
 3002000   0.77369518   -7.3098793    822.38905  0.022828921  0.022477591            5 
 3003000   0.76749345   -7.2951422    821.58339  0.022798962  0.022471058            9 
 3004000   0.78633894   -7.3245155    823.15021  0.022834837  0.022464511            6 
 3005000   0.78557111   -7.3389079    820.84129  0.022763208  0.022457997            4 
 3006000   0.77580802   -7.3071787    823.33779  0.022824844  0.022451457           11 
 3007000   0.76422522   -7.2970211    823.81065  0.022830358   0.02244493           20 
 3008000   0.76798338   -7.2804179    823.80462  0.022822601  0.022438426            8 
 3009000   0.76903107   -7.3255745    824.10037  0.022823207  0.022431953            8 
 3010000   0.76598155   -7.3260522    821.55611  0.022745186  0.022425431            6 
 3011000   0.76768923   -7.2903187    825.06158   0.02283465  0.022418954            6 
 3012000   0.77592816   -7.3401703    822.31594  0.022751105  0.022412464            5 
 3013000    0.7649665   -7.3035233    824.74515  0.022810741  0.022405945            8 
 3014000   0.76299882   -7.3033254    823.20034  0.022760461  0.022399443            8 
 3015000   0.77241066   -7.3095001    822.53587  0.022734546  0.022392963            5 
 3016000   0.77535221   -7.3026443    825.56561  0.022810721  0.022386473            8 
 3017000   0.77132413   -7.3020202    823.29004  0.022740306  0.022379987            4 
 3018000   0.77246247   -7.2945509    822.68104  0.022715955  0.022373507           12 
 3019000   0.75352594   -7.3038091    823.34909  0.022726871  0.022367023            6 
 3020000   0.76544784   -7.3345123     824.5292  0.022751909  0.022360536            4 
 3021000    0.7705448   -7.3141293    825.58266  0.022773437  0.022354066            8 
 3022000   0.76161589   -7.2924652    823.18374   0.02269975  0.022347628            7 
 3023000   0.77415835   -7.2875388      825.867  0.022766209  0.022341188            4 
 3024000   0.75527004   -7.3127755    824.10571  0.022710144  0.022334755            7 
 3025000   0.76942411    -7.292796    824.89729  0.022724443  0.022328305            5 
 3026000   0.78176973   -7.3352756    821.62138  0.022626718   0.02232186           11 
 3027000   0.77482596   -7.2881353    823.80152  0.022679262  0.022315422            7 
 3028000   0.78393579   -7.2976516    823.93773  0.022675521  0.022308983            7 
 3029000   0.75916092   -7.3199003     823.3158  0.022650924  0.022302535           11 
 3030000   0.77112729   -7.2927265     824.9513   0.02268843  0.022296075            6 
 3031000   0.78833281   -7.3109352    825.78858  0.022703964  0.022289633           11 
 3032000   0.77046944   -7.3073505    822.68193  0.022611091  0.022283166            6 
 3033000   0.76538525   -7.3174685    824.76355  0.022660829  0.022276685            6 
 3034000   0.76811293   -7.3079028    822.79259  0.022599225  0.022270194           10 
 3035000   0.75008965   -7.3452991     823.5564  0.022612751  0.022263694            9 
 3036000   0.75669099   -7.3467909    823.74063   0.02261036  0.022257176           12 
 3037000   0.76145124   -7.3294763    823.84669  0.022605825  0.022250665            3 
 3038000   0.76709344   -7.3313209    823.27537  0.022582713  0.022244176            6 
 3039000    0.7753977   -7.3200121    826.51648  0.022664157  0.022237708            7 
 3040000   0.76770047   -7.3185548    823.97872  0.022587136  0.022231253            7 
 3041000   0.77544541   -7.3099392    825.32507  0.022616603  0.022224805           14 
 3042000   0.75748074   -7.3305962    824.52246  0.022587181   0.02221836            4 
 3043000   0.76531901   -7.3293006    825.71496  0.022612415  0.022211915            9 
 3044000   0.75715786   -7.3306374     824.9572  0.022584242   0.02220546            5 
 3045000   0.75704121   -7.3345936    826.39163  0.022616082  0.022199024            6 
 3046000   0.77347724   -7.3149957    826.67648   0.02261645  0.022192614            6 
 3047000   0.78670762   -7.3008843    825.41013  0.022574394  0.022186197            5 
 3048000    0.7551202   -7.3438535    825.83761  0.022578675  0.022179805           12 
 3049000    0.7690059   -7.3064417    825.33539  0.022557543   0.02217338           12 
 3050000   0.77775354   -7.3057179    826.87859  0.022592311  0.022167012            9 
 3051000   0.77406619   -7.3190001    825.73356  0.022553632   0.02216064            7 
 3052000   0.76561974   -7.3234862    825.31545  0.022534826   0.02215426            7 
 3053000   0.77082682   -7.3118031    825.46673  0.022531574  0.022147842            6 
 3054000   0.76130798   -7.3276337    827.88259  0.022590116  0.022141429            6 
 3055000   0.77069187    -7.375427    825.47682  0.022517098  0.022135018            6 
 3056000   0.76818818   -7.3502984    825.90896  0.022521514    0.0221286            5 
 3057000   0.75429041   -7.3421897    826.92746  0.022541911  0.022122196           12 
 3058000   0.77673284   -7.3302146    827.31261  0.022545035  0.022115789            4 
 3059000    0.7508662   -7.3281758       826.49  0.022515255  0.022109384            3 
 3060000   0.75635553   -7.3282271    827.57282  0.022537386  0.022102975            4 
 3061000   0.76102855   -7.3335278    828.18745  0.022546756  0.022096568            9 
 3062000    0.7731049   -7.3485075    826.68398  0.022498475  0.022090176            8 
 3063000   0.75260785   -7.3275321     826.3765  0.022482765  0.022083778            7 
 3064000    0.7692823   -7.3169343    827.47249  0.022505235  0.022077408            6 
 3065000   0.77685236   -7.3314296    827.45659   0.02249746  0.022071026            4 
 3066000   0.77478095   -7.3143891    828.16884  0.022509481  0.022064645            8 
 3067000   0.76090658   -7.3077033    826.93885  0.022468722  0.022058256            6 
 3068000   0.76736547   -7.3093696    826.11373  0.022438987  0.022051879           15 
 3069000   0.75726272   -7.3202514    825.99528  0.022428459  0.022045479            5 
 3070000   0.76369133   -7.3390545    826.46653  0.022433945  0.022039059            5 
 3071000   0.76315765   -7.3186292    825.12525  0.022390243  0.022032649            6 
 3072000   0.76921315   -7.3023963    826.36114  0.022416481  0.022026247            9 
 3073000   0.74931734   -7.3015515    827.42587  0.022438059  0.022019826            4 
 3074000   0.74166572   -7.3044525    827.85659  0.022442436  0.022013423            9 
 3075000   0.77622369   -7.3284976     824.5925   0.02234668  0.022006984            7 
 3076000   0.76178439   -7.3397333    826.51963  0.022391624  0.022000572            7 
 3077000    0.7502034   -7.3092294    826.74952  0.022390573  0.021994147           11 
 3078000   0.78009345   -7.3242136    826.38592  0.022373455   0.02198772           13 
 3079000    0.7443107   -7.3015153     827.2688  0.022390083  0.021981291           14 
 3080000    0.7658965   -7.3158663    825.82012  0.022343618  0.021974854           10 
 3081000   0.77509592   -7.3289715    826.79197  0.022362652  0.021968395            3 
 3082000    0.7661725     -7.31454    827.47424  0.022373844  0.021961985            7 
 3083000   0.76250463   -7.3305319    826.08533  0.022329044  0.021955588            6 
 3084000   0.75983202   -7.3166146     827.3696  0.022356507  0.021949187            6 
 3085000   0.74571348   -7.3417237    827.76527  0.022359948  0.021942783            9 
 3086000   0.75560225   -7.3020058     827.8424  0.022354785  0.021936388            6 
 3087000   0.76101446   -7.3433815    827.77849  0.022345818  0.021929978            4 
 3088000   0.77190004   -7.3234161    825.20054  0.022269013  0.021923548            9 
 3089000   0.76272176   -7.3442266    827.91737  0.022335097  0.021917136            5 
 3090000    0.7561059   -7.3356655    827.06024  0.022304753  0.021910727            8 
 3091000   0.75366121   -7.3110908    827.25083  0.022302675  0.021904324            4 
 3092000   0.76423826   -7.3334646    825.84935   0.02225769  0.021897932            5 
 3093000   0.76597035   -7.3330081    827.27375  0.022288871   0.02189153            4 
 3094000   0.75623525   -7.3330166     827.4317  0.022285922  0.021885138            6 
 3095000   0.75325667   -7.3389282    827.06028   0.02226872  0.021878732            8 
 3096000   0.75184579    -7.316357    827.15448  0.022264063  0.021872353            5 
 3097000   0.74386449   -7.3518546    827.32758  0.022261532  0.021865981           13 
 3098000   0.76457911   -7.3557138    827.47747  0.022258378   0.02185957           13 
 3099000   0.75308829   -7.3331467    830.34975  0.022328433  0.021853171            6 
 3100000   0.76492865   -7.3361609    829.28326  0.022292561  0.021846797           14 
 3101000    0.7611606   -7.3337238    828.31589  0.022259376  0.021840407            9 
 3102000   0.75721701   -7.3463807    827.00299   0.02221693  0.021834002           13 
 3103000   0.76054733   -7.3559917    825.70796  0.022174991  0.021827582            6 
 3104000   0.77149258     -7.35024    827.93237  0.022227566  0.021821215            8 
 3105000   0.76614741   -7.3330128    828.83564  0.022244649  0.021814864            5 
 3106000   0.75817883   -7.3515975    828.49535  0.022228358  0.021808504            7 
 3107000     0.758961   -7.3547487    830.75451  0.022281797  0.021802124            7 
 3108000   0.75684969   -7.3214392    829.03205  0.022228444  0.021795769            6 
 3109000   0.74253958   -7.3298466    826.63231  0.022156972  0.021789425            3 
 3110000   0.76252955   -7.3143525    829.37452  0.022223326    0.0217831            7 
 3111000   0.73075225   -7.3380351    828.67349  0.022197404  0.021776771            7 
 3112000   0.75032538   -7.3565765    830.64922  0.022243177  0.021770427            8 
 3113000   0.75521646   -7.3715012      827.783  0.022159305  0.021764074           11 
 3114000   0.76213912   -7.3346007    829.31464  0.022193177    0.0217577            5 
 3115000   0.76004557   -7.3474579    828.60047  0.022166947  0.021751345            9 
 3116000   0.75705843   -7.3316255    830.06401  0.022198973   0.02174499           12 
 3117000   0.73964331   -7.3614898    828.50371  0.022150137  0.021738631            7 
 3118000   0.75220528   -7.3303054    829.58275  0.022171872  0.021732284            5 
 3119000   0.75264645   -7.3394582     829.0036  0.022149289  0.021725959            6 
 3120000    0.7399985   -7.3416204     828.7111  0.022134378  0.021719633           11 
 3121000   0.73786816    -7.340594    829.31228  0.022143338  0.021713293           10 
 3122000   0.75364955   -7.3716601    829.43854  0.022139615  0.021706953            4 
 3123000   0.76477244   -7.3560771    830.04224  0.022148635  0.021700597           10 
 3124000   0.74869258   -7.3513593    831.04226  0.022168221  0.021694255           11 
 3125000   0.73968197   -7.3261351    830.58543  0.022148945  0.021687928           10 
 3126000   0.74897822   -7.3444055    830.66583  0.022144003   0.02168162            7 
 3127000   0.75282948   -7.3313401    831.96807  0.022171625  0.021675275           13 
 3128000   0.74930532   -7.3571898    830.79793  0.022133363  0.021668949            6 
 3129000   0.74630089   -7.3445948    829.79307  0.022099528   0.02166262           11 
 3130000    0.7606752   -7.3516479     831.2453  0.022131131  0.021656291           10 
 3131000   0.74478463   -7.3290615    829.35126  0.022073652  0.021649966           15 
 3132000   0.76050595   -7.3408124    830.65064  0.022101177  0.021643658            7 
 3133000   0.74728309   -7.3520697    831.09941  0.022106059  0.021637346           13 
 3134000   0.73878611   -7.3509192    828.57428  0.022031862  0.021631026           22 
 3135000   0.75542874   -7.3687652     830.7197  0.022081863  0.021624676           10 
 3136000   0.75724556   -7.3681248    828.88896  0.022026173  0.021618346           21 
 3137000    0.7408665   -7.3790445    829.63483  0.022038966  0.021612024           12 
 3138000    0.7584205   -7.3363956    832.40606  0.022105536  0.021605734            8 
 3139000   0.73794791   -7.3574204    831.09162  0.022063598  0.021599419            8 
 3140000   0.73986534   -7.3423754    830.82024   0.02204937  0.021593104            5 
 3141000   0.74663567    -7.347836     830.5052  0.022033991  0.021586779            4 
 3142000   0.75531898   -7.2994636    831.56831  0.022055175  0.021580492            7 
 3143000   0.73578935   -7.3439808    832.70639  0.022078333  0.021574236            7 
 3144000   0.73896424   -7.3624301    831.01202    0.0220264  0.021567943            6 
 3145000   0.75509187   -7.3727018    832.06986  0.022047426  0.021561635           10 
 3146000   0.75764519   -7.3604929    831.05086  0.022013426   0.02155532            7 
 3147000   0.74537086   -7.3645309    829.76256  0.021972317  0.021549023           11 
 3148000   0.74980275   -7.3749423    830.96785  0.021997243  0.021542734            9 
 3149000   0.75519228    -7.361158    831.97569  0.022016928  0.021536448            8 
 3150000   0.74832514   -7.3602207    832.06595  0.022012327  0.021530164           12 
 3151000   0.74573731   -7.3478475     831.9893  0.022003314  0.021523905           10 
 3152000   0.74672281    -7.330599     830.8572  0.021966402  0.021517635           11 
 3153000   0.72191993   -7.3637352    831.21626  0.021968925   0.02151135            6 
 3154000   0.73806249   -7.3443278    830.07618  0.021931837  0.021505069            3 
 3155000   0.75289517   -7.3786344    831.64732  0.021966384  0.021498771            8 
 3156000   0.74663464   -7.3610736    831.85924   0.02196502  0.021492469            5 
 3157000   0.74395988   -7.3457458    831.83354  0.021957384   0.02148616            9 
 3158000   0.75199078   -7.3670969    831.77171    0.0219488  0.021479871            9 
 3159000   0.74083771   -7.3590854    829.90859  0.021892703  0.021473561            6 
 3160000   0.74688276   -7.3943412    831.74202  0.021934125  0.021467278            7 
 3161000   0.73552687   -7.3899406    832.16409  0.021938313  0.021460996            8 
 3162000    0.7391057   -7.3471711    831.67596  0.021918511  0.021454726            4 
 3163000    0.7470495   -7.3537241    831.33979  0.021902724  0.021448474           11 
 3164000   0.75428219   -7.3625793     832.4062  0.021923888   0.02144221            4 
 3165000   0.74236403   -7.3433047     833.4901    0.0219455  0.021435966            8 
 3166000   0.73286337   -7.3409867     832.8917  0.021922818  0.021429769            3 
 3167000   0.73917602   -7.3553683    833.93004  0.021943217  0.021423544           14 
 3168000   0.75326127   -7.3657928    833.62049  0.021928148  0.021417345            7 
 3169000   0.75676038   -7.3043621    833.72418  0.021923956  0.021411133           10 
 3170000   0.74057654   -7.3510082    833.60942  0.021914023  0.021404922            3 
 3171000   0.72611716   -7.3883017    829.78882  0.021806707  0.021398659            6 
 3172000   0.73501162   -7.3455466    832.62364  0.021874307  0.021392411            7 
 3173000   0.74835407   -7.3552848    832.80653  0.021872217  0.021386155            5 
 3174000   0.74060616   -7.3473195    830.75255  0.021811399  0.021379916           14 
 3175000   0.72498289   -7.3567282    834.44352  0.021901405  0.021373673            4 
 3176000   0.74736533   -7.3656993    831.79939  0.021825131  0.021367413            3 
 3177000   0.74856362   -7.3622511    833.72232    0.0218687  0.021361172            6 
 3178000   0.73766851   -7.3532035    831.97194   0.02181592  0.021354956            7 
 3179000   0.74690376    -7.355376    833.86476  0.021858676  0.021348727            9 
 3180000    0.7569394   -7.3433177    833.47458  0.021841577   0.02134253           19 
 3181000   0.74095782   -7.3946958    834.94109  0.021873129  0.021336331            5 
 3182000   0.73922033   -7.3455609    835.41797  0.021878744  0.021330114            4 
 3183000   0.73262992   -7.3846469    832.67212  0.021799982  0.021323903           11 
 3184000    0.7507364   -7.3796981    833.46893   0.02181399  0.021317703            4 
 3185000   0.74898465   -7.3785463    833.76442  0.021814872  0.021311506            9 
 3186000   0.74479394   -7.3615911    832.11776  0.021764955  0.021305311           11 
 3187000   0.74455806    -7.351955    832.81787  0.021776432  0.021299103            6 
 3188000   0.73842421   -7.3709195    833.23597   0.02178053  0.021292897            5 
 3189000   0.75005412   -7.3809587    834.82534  0.021815233  0.021286714            9 
 3190000     0.739193   -7.3901724    834.64759  0.021803751  0.021280506            6 
 3191000   0.74133191   -7.3556599    833.34192   0.02176282  0.021274311            7 
 3192000   0.72371105   -7.3773255    834.07791  0.021775217  0.021268116           10 
 3193000    0.7315544   -7.3893247    833.17206  0.021744756  0.021261918            8 
 3194000   0.73730129   -7.3707922    834.32205  0.021767952   0.02125573            9 
 3195000   0.73738099   -7.4102667    834.10781  0.021755551  0.021249533            6 
 3196000   0.75214259   -7.3756227    830.93153  0.021665924   0.02124335           16 
 3197000   0.75480575   -7.4003431    834.19508  0.021744215  0.021237134            8 
 3198000   0.73847259   -7.3757284    833.87224  0.021729003  0.021230935            8 
 3199000   0.74608905   -7.3746918    834.79264  0.021746187  0.021224757           11 
 3200000    0.7540558   -7.3990873      835.851  0.021766953  0.021218578            6 
 3201000   0.72207606   -7.3825723    835.44689  0.021749633  0.021212408            8 
 3202000   0.75323692   -7.3813228    834.16211  0.021709403  0.021206224            5 
 3203000   0.74003618   -7.3771854    833.46724  0.021684547  0.021200074            4 
 3204000   0.73310275   -7.3931253    834.76212  0.021711458  0.021193902           14 
 3205000   0.75883329   -7.3814412    833.97301  0.021684166  0.021187737           12 
 3206000   0.73766462   -7.3842197    836.61575  0.021746094   0.02118157           13 
 3207000    0.7541642   -7.3896326    833.81843  0.021666626  0.021175395            7 
 3208000   0.74061109   -7.3837576    836.65282    0.0217335  0.021169227           10 
 3209000   0.73930879   -7.3894731     835.6338  0.021700265  0.021163058            7 
 3210000   0.74932642   -7.3728828    836.42234  0.021713976  0.021156884            9 
 3211000   0.74556978   -7.3739771    834.95983  0.021669258   0.02115074            7 
 3212000   0.74141171   -7.3761479    834.25823  0.021644309  0.021144595            5 
 3213000    0.7269283   -7.4044537    834.18781  0.021635746  0.021138452            5 
 3214000   0.74414861   -7.4025298    835.82481  0.021671458  0.021132306            5 
 3215000   0.74288523   -7.3650286    835.81798  0.021664541   0.02112615            5 
 3216000   0.75242081   -7.3731491    836.27125  0.021669549  0.021120014           10 
 3217000   0.74619789   -7.3674839    836.06263  0.021657409  0.021113891           10 
 3218000   0.74396825   -7.3897775    835.66166  0.021640296  0.021107731           11 
 3219000   0.73526829   -7.3818773    834.45714   0.02160239   0.02110156            5 
 3220000   0.72605888   -7.3931986    834.87095  0.021606391  0.021095395            6 
 3221000   0.72720443   -7.3566967    834.19487  0.021582192   0.02108923            8 
 3222000    0.7641522   -7.3674237    834.40844  0.021581017   0.02108307            6 
 3223000   0.74812347   -7.3816976    834.86001  0.021585997  0.021076901            6 
 3224000   0.74272497   -7.3731608    834.24161  0.021563317  0.021070727           13 
 3225000   0.74565202   -7.3862292    833.69601  0.021542532  0.021064542            7 
 3226000   0.74810611   -7.4163661    835.79878  0.021590173  0.021058349            9 
 3227000   0.72061759   -7.4122625     834.6051  0.021552657  0.021052158           11 
 3228000   0.73724095   -7.3633379    835.49732  0.021569014   0.02104597            5 
 3229000   0.73254549   -7.3675345    834.73316  0.021542613   0.02103979            4 
 3230000   0.74503483    -7.381829    834.76073  0.021536655  0.021033622           10 
 3231000    0.7491121   -7.3943348    834.74474  0.021529577  0.021027468           14 
 3232000   0.71837923   -7.3832934    835.20787  0.021534856  0.021021288           17 
 3233000   0.73858895   -7.3760622    835.10939  0.021525657  0.021015119           19 
 3234000   0.72773644   -7.3572819    835.79243  0.021536601  0.021008941           13 
 3235000   0.72855962   -7.3732417    835.77108  0.021529394  0.021002774           11 
 3236000    0.7472828   -7.4026977    835.40516  0.021513318  0.020996633            9 
 3237000   0.72239802   -7.3828708    834.20209    0.0214757  0.020990475           13 
 3238000   0.73141086   -7.3747373    836.67047  0.021532594  0.020984312            8 
 3239000   0.74123621   -7.3856975    834.76762  0.021476989  0.020978158           24 
 3240000   0.75493787    -7.368215    836.47706  0.021514328  0.020971993           12 
 3241000   0.72840979   -7.3862587    834.59686  0.021459345  0.020965821           12 
 3242000   0.73684245   -7.3908598    834.52774   0.02145095  0.020959638           15 
 3243000   0.73130554    -7.406255    836.01101   0.02148245  0.020953428           15 
 3244000   0.73245755   -7.4291928    833.53717  0.021412278  0.020947219           15 
 3245000   0.72604266   -7.4171285    835.58443  0.021458255  0.020941014           10 
 3246000   0.73378487   -7.4097194    833.51794  0.021398592  0.020934821           16 
 3247000   0.73854828   -7.4053342    835.60553  0.021445579  0.020928651           10 
 3248000     0.723201   -7.3742464    834.68538  0.021415368   0.02092248            7 
 3249000   0.72898562   -7.4076863     835.9187   0.02144041  0.020916338            8 
 3250000   0.72932558   -7.4048486    838.16572  0.021491429  0.020910168            7 
 3251000   0.73800094   -7.3993759    835.69167    0.0214214  0.020904025            7 
 3252000   0.72910877   -7.3938167     837.0913  0.021450679  0.020897881           14 
 3253000   0.72224358   -7.3961724    837.65373  0.021458493  0.020891754           10 
 3254000   0.73690472   -7.3919342    837.26547  0.021441955  0.020885635            3 
 3255000   0.72893404   -7.3701866    835.95934  0.021401929   0.02087953            8 
 3256000   0.73213331     -7.36393     837.0092  0.021422226  0.020873432            7 
 3257000   0.73947228   -7.3747692    837.67894  0.021432784  0.020867377            7 
 3258000   0.73444551   -7.3759122    837.82897  0.021430043  0.020861298            6 
 3259000   0.72020406   -7.3804203    837.08723  0.021404501   0.02085521            7 
 3260000   0.72655655   -7.3672611    836.88724  0.021392823  0.020849125            9 
 3261000   0.73448955   -7.3936981    837.53396   0.02140279  0.020843033            7 
 3262000   0.72327749   -7.3852775    836.76096  0.021376481  0.020836922            5 
 3263000   0.73325727    -7.381015    835.93545  0.021348847  0.020830815            5 
 3264000   0.74034828   -7.3968856    834.20295  0.021298074  0.020824702            3 
 3265000   0.73822537   -7.3974079    835.77524  0.021331681  0.020818578            6 
 3266000   0.72427435   -7.4001593     838.7721  0.021401615  0.020812486            7 
 3267000     0.725935   -7.3840445    837.16291  0.021354018  0.020806369            6 
 3268000   0.71934323    -7.393366    836.51453   0.02133095  0.020800267           12 
 3269000   0.73047713   -7.3881174    836.17789  0.021315843   0.02079415            5 
 3270000   0.71067744   -7.3857628    836.79428  0.021325033   0.02078805            6 
 3271000   0.71978951   -7.4021059    836.41871  0.021308945  0.020781934           11 
 3272000   0.72748606   -7.4022257    836.56081  0.021306052  0.020775809           17 
 3273000   0.72338537   -7.3877178    834.20744  0.021239623  0.020769691            9 
 3274000   0.72476849    -7.415681    836.04342  0.021279867  0.020763566            6 
 3275000   0.74077668   -7.3781088    837.61729  0.021313417  0.020757461           10 
 3276000   0.73554907   -7.3875819     834.5204  0.021228134   0.02075135           21 
 3277000   0.72848713    -7.374177    835.65679  0.021250554  0.020745231           15 
 3278000   0.73922261   -7.3999608    837.06771   0.02127994  0.020739119           21 
 3279000   0.74199869   -7.3831945    837.82755  0.021292761  0.020733018            7 
 3280000   0.72909288   -7.4198185    837.50827  0.021278157  0.020726925           11 
 3281000   0.71873996   -7.4029936    834.76498  0.021201996  0.020720803            9 
 3282000   0.72242022   -7.3876064    837.79055  0.021272358    0.0207147            8 
 3283000   0.71363162   -7.3852294    835.99324  0.021220257   0.02070863            4 
 3284000   0.72783352   -7.4156021    837.84149  0.021260696  0.020702563            6 
 3285000    0.7234339   -7.3900254    838.16772  0.021262499  0.020696464            7 
 3286000    0.7381681   -7.3782901     838.5495  0.021265711  0.020690393            7 
 3287000   0.71862689   -7.3859421    839.36833      0.02128  0.020684327            4 
 3288000   0.73698252    -7.379546    839.48385  0.021276456   0.02067825           10 
 3289000    0.7333101   -7.4015588    837.42266  0.021217763   0.02067216            7 
 3290000   0.73990664   -7.3678481    838.15406  0.021229839  0.020666081            6 
 3291000    0.7312816    -7.431851    837.35585  0.021203177   0.02065999           11 
 3292000   0.71464503   -7.4109705    837.30379  0.021195418  0.020653897            7 
 3293000   0.72671878    -7.435005    839.11431  0.021234799    0.0206478            7 
 3294000      0.73417   -7.4414662    837.48181  0.021187053  0.020641702           19 
 3295000   0.72298477   -7.4153124    838.20346  0.021198874    0.0206356            6 
 3296000   0.73150104   -7.4121582    837.72257  0.021180283  0.020629513           14 
 3297000   0.70969654   -7.4118384     836.1388  0.021133829    0.0206234           19 
 3298000   0.73596303   -7.4471403    835.89942  0.021121372  0.020617287           17 
 3299000   0.71607342   -7.4386527    836.82023   0.02113823  0.020611159            5 
 3300000   0.70853465   -7.4191793    837.26732  0.021143114  0.020605031            6 
 3301000   0.72579921   -7.3986229    836.23396  0.021110622  0.020598911            9 
 3302000   0.71755356   -7.3872218    836.19362  0.021103211  0.020592818            9 
 3303000   0.73786653   -7.4268896    837.22908  0.021122946  0.020586732            5 
 3304000    0.7487588    -7.410865    839.21437  0.021166626  0.020580631           18 
 3305000   0.72040182    -7.430702    836.28721  0.021086415  0.020574542            6 
 3306000   0.72710553   -7.3939356    837.70611  0.021115802   0.02056846            4 
 3307000   0.72991399   -7.4090862    837.85838  0.021113254  0.020562357           14 
 3308000   0.73891559   -7.4319555    838.07315  0.021112282  0.020556258            7 
 3309000   0.71935381   -7.4289731    836.21228  0.021059038  0.020550152            5 
 3310000   0.73194626   -7.4351244    835.06161  0.021023706  0.020544058           12 
 3311000    0.7222243   -7.3986953    836.25304  0.021047343  0.020537957            9 
 3312000   0.71797813   -7.4141393     838.9296  0.021108333  0.020531858            7 
 3313000   0.72089502    -7.425867    839.58745  0.021118509  0.020525782            8 
 3314000   0.71291778   -7.4320299    836.98064  0.021046586  0.020519717            5 
 3315000   0.72960214   -7.4124606    837.41823  0.021051237  0.020513631           10 
 3316000   0.70388213   -7.4023586    837.66048  0.021050977  0.020507542           12 
 3317000   0.72102781   -7.4245963    837.18702  0.021032736  0.020501486           17 
 3318000   0.71234285   -7.4246382    837.37608  0.021031145  0.020495403           11 
 3319000   0.71704658   -7.4231334    836.94916  0.021014089  0.020489315           11 
 3320000   0.72327422   -7.4091757    837.09901  0.021011521  0.020483254            7 
 3321000   0.72399157   -7.4144688    836.49876  0.020990132  0.020477194            6 
 3322000   0.71568756   -7.3986227    838.11464  0.021024349  0.020471113            7 
 3323000    0.7245672   -7.4164141    838.98827  0.021039931  0.020465041            6 
 3324000   0.72244028   -7.4073347     835.2806  0.020940649  0.020458976            7 
 3325000   0.73723466   -7.4237264    836.41483  0.020962778  0.020452914            8 
 3326000   0.72241543   -7.4361568    837.46888  0.020982884  0.020446808           16 
 3327000   0.71770559    -7.429369     838.5298  0.021003151  0.020440691            7 
 3328000   0.71706164   -7.4398885    837.06032  0.020960044  0.020434565            9 
 3329000    0.7229976   -7.4401926    837.45752  0.020963691  0.020428475           14 
 3330000   0.72281962   -7.4304342    836.73728  0.020939371  0.020422391            6 
 3331000   0.72938107   -7.4255875    838.35828  0.020973638  0.020416306            5 
 3332000   0.72158464   -7.4229965    837.71455  0.020951244  0.020410244            4 
 3333000   0.72621326   -7.4599336    835.87719   0.02089902  0.020404144            5 
 3334000   0.71630502   -7.4217378    837.14272  0.020924383  0.020398062           11 
 3335000   0.71986758   -7.4232936    837.08044  0.020916553  0.020391993            8 
 3336000   0.71779663   -7.4478893      838.313  0.020941072  0.020385916            6 
 3337000   0.72799579   -7.4086729    838.62865  0.020942679  0.020379854            7 
 3338000     0.723043     -7.40497    839.54539  0.020959292  0.020373819            6 
 3339000   0.70735141   -7.3994966    838.55299  0.020928247  0.020367776            9 
 3340000   0.72484369   -7.4197957    838.36446  0.020917277  0.020361744            6 
 3341000   0.71807077   -7.4160799    838.20149  0.020906951  0.020355715            6 
 3342000   0.72756631   -7.4372465    837.63875  0.020886663  0.020349661           14 
 3343000   0.71141142   -7.4112145    837.37452  0.020873829  0.020343623            6 
 3344000   0.71915949   -7.4093801    839.70401  0.020925638  0.020337591            5 
 3345000    0.7207069   -7.4253879    838.47213  0.020888693  0.020331532           11 
 3346000   0.73439189   -7.4447979    839.12154  0.020898624  0.020325492            6 
 3347000   0.71479107   -7.4277941    839.44221  0.020900364  0.020319463            8 
 3348000    0.7189492   -7.4373154    837.58646  0.020847931  0.020313437            8 
 3349000    0.7295817   -7.4290791    839.49958   0.02088931  0.020307409            7 
 3350000   0.69701705   -7.4476567    839.00952  0.020870884  0.020301402            8 
 3351000   0.71063409   -7.4521751    840.88179  0.020911215  0.020295385           11 
 3352000   0.72903806   -7.4228027    837.53415  0.020821752  0.020289373           14 
 3353000   0.71094415   -7.4273745    840.08447  0.020878926  0.020283353            4 
 3354000   0.71160663   -7.4192214     840.1333  0.020873914  0.020277362            7 
 3355000   0.70512502   -7.4303716    839.15484  0.020843389  0.020271367           11 
 3356000   0.71007157   -7.4412541    838.75066  0.020827142  0.020265356            7 
 3357000   0.73279938   -7.4374241    839.87976  0.020848966  0.020259354            7 
 3358000   0.71837689   -7.4496878    839.93251  0.020844067  0.020253364            5 
 3359000   0.71579209   -7.4222597    839.09986  0.020817204  0.020247351            9 
 3360000   0.70344931   -7.4188608    839.63478  0.020824275   0.02024135           10 
 3361000   0.69848706   -7.4186915    839.57404  0.020816573  0.020235347            7 
 3362000   0.71680224   -7.4172241    838.94475  0.020794784   0.02022933           11 
 3363000   0.71334423   -7.4663102    838.68645    0.0207822  0.020223297           13 
 3364000   0.70717458   -7.4384258    838.35272  0.020767755  0.020217253            5 
 3365000   0.72737529    -7.430626    837.72375  0.020746007  0.020211224            8 
 3366000   0.72463476   -7.4382221    839.73189   0.02078956  0.020205209            6 
 3367000   0.72829224   -7.4186676    839.07117  0.020767032  0.020199198            8 
 3368000   0.72395558   -7.4686757    839.04083  0.020760115  0.020193193            7 
 3369000    0.7154784   -7.4392823     840.4028  0.020787642  0.020187186           10 
 3370000   0.70750973   -7.4519243    837.89559  0.020719476  0.020181162            6 
 3371000   0.71077737   -7.4418829    839.50729  0.020753171  0.020175133           12 
 3372000   0.70230188   -7.4220816     839.3202  0.020742393  0.020169088           15 
 3373000   0.70887817   -7.4373094    838.63636  0.020719349  0.020163053            7 
 3374000   0.70603776   -7.4420911    840.44534  0.020757887  0.020157019           13 
 3375000   0.70768889   -7.4469301    837.89758  0.020688829  0.020150973            6 
 3376000   0.72959693   -7.4386456    839.69424   0.02072705  0.020144949           12 
 3377000   0.71849297    -7.456417    840.44424   0.02073942  0.020138925           13 
 3378000   0.70981021    -7.440554    839.17044  0.020701856  0.020132902           16 
 3379000   0.71027064   -7.4711449     839.7498  0.020710018  0.020126887            6 
 3380000   0.71695772   -7.4631857    839.54368  0.020698809  0.020120859            6 
 3381000   0.71817811   -7.4473965    838.77722  0.020673795  0.020114832            8 
 3382000   0.71790023   -7.4530413     840.3058  0.020705347  0.020108797            6 
 3383000    0.6885387   -7.4335547    839.18135  0.020671528   0.02010277           12 
 3384000   0.70129913   -7.4558563    839.64905  0.020676937  0.020096754            6 
 3385000   0.71666746   -7.4539619    838.75516  0.020648822  0.020090748            7 
 3386000   0.71044451   -7.4442488    839.29667  0.020656051  0.020084733            6 
 3387000   0.70443935    -7.440299    838.54923  0.020631562  0.020078707            5 
 3388000   0.70024085   -7.4303752    841.13457  0.020689064  0.020072685            8 
 3389000   0.70007227   -7.4651898    839.42712  0.020640974  0.020066665            6 
 3390000   0.71929294   -7.4465199    838.44916  0.020610845   0.02006064            8 
 3391000   0.72109192   -7.4536628    838.60333  0.020608555   0.02005462           13 
 3392000   0.71006934   -7.4289078    839.92101  0.020634852  0.020048619            5 
 3393000   0.70546847   -7.4574032    839.92369  0.020628836  0.020042607            9 
 3394000   0.71024657   -7.4588774    840.55323  0.020638215  0.020036604           11 
 3395000   0.70869455    -7.442304    841.18836  0.020647726  0.020030602           15 
 3396000   0.70927147   -7.4297641    839.72412  0.020605716  0.020024607           14 
 3397000   0.71115938   -7.4571682    840.90576  0.020628637  0.020018617            9 
 3398000   0.71200028   -7.4412075     841.6669  0.020641232  0.020012628            4 
 3399000    0.7107685   -7.4621534    842.56368  0.020657146  0.020006655            6 
 3400000   0.70098489   -7.4458729    839.96958   0.02058749   0.02000068            4 
 3401000   0.71051736   -7.4469249    841.53134  0.020619704  0.019994718            7 
 3402000   0.71170654   -7.4674065     840.1785  0.020580504  0.019988746            4 
 3403000   0.70842854   -7.4617024    841.39624  0.020604277  0.019982802           22 
 3404000   0.69870077   -7.4441529    839.79354  0.020558988  0.019976851            5 
 3405000   0.68927533   -7.4429551    841.28884  0.020589546  0.019970874            8 
 3406000   0.70614692   -7.4635245    840.01836  0.020552416  0.019964902            3 
 3407000   0.70750353   -7.4376916    839.54541  0.020534816  0.019958925            6 
 3408000   0.70585548   -7.4329092    841.52378  0.020577166  0.019952946            9 
 3409000   0.69211254   -7.4488631    840.46074  0.020545144  0.019946951            7 
 3410000    0.7068303   -7.4409041    841.09943  0.020554727  0.019940944           12 
 3411000   0.69769834    -7.423172    840.17077  0.020526013  0.019934954           13 
 3412000   0.71533483   -7.4126617    841.63742  0.020555818  0.019929003           14 
 3413000   0.69356963   -7.4573388      840.905  0.020531912  0.019923057            4 
 3414000   0.70952153   -7.4469648    841.89559  0.020550078  0.019917104            9 
 3415000   0.70977681   -7.4498466    839.98065  0.020497332  0.019911143            8 
 3416000   0.71395147   -7.4711024    840.21441  0.020497034  0.019905167            5 
 3417000   0.70164392   -7.4488821    838.86514  0.020458129  0.019899182            8 
 3418000   0.71068955   -7.4540003    840.28382  0.020486733   0.01989321           11 
 3419000   0.69234739   -7.4684625    838.69102  0.020441918  0.019887237           18 
 3420000   0.70526346   -7.4411663    839.82619  0.020463601  0.019881263           14 
 3421000   0.70975334   -7.4601154    840.85479  0.020482675  0.019875316            9 
 3422000   0.72163909   -7.4605879    841.37665  0.020489398  0.019869383           15 
 3423000     0.720782   -7.4251295    840.30927  0.020457427  0.019863441            8 
 3424000   0.71165772   -7.4613289    839.29486  0.020426764  0.019857495           19 
 3425000   0.70543376   -7.4623333    839.35797  0.020422335   0.01985155           14 
 3426000   0.70035051    -7.477464    838.96419  0.020406796  0.019845573            5 
 3427000   0.71418642   -7.4737161    840.26772  0.020432539  0.019839587           12 
 3428000    0.7215157   -7.4854452    838.61046  0.020386291  0.019833608           18 
 3429000   0.70324236   -7.4932306    838.40037   0.02037524  0.019827611            9 
 3430000   0.69643177   -7.4813821    840.81584  0.020427984  0.019821608           10 
 3431000   0.70847683   -7.4690491    840.47541  0.020413762  0.019815638           10 
 3432000   0.69665418   -7.4481054    839.56134  0.020385619  0.019809655            7 
 3433000   0.70786449   -7.4601761     839.0352  0.020366909  0.019803696           15 
 3434000   0.70101355   -7.4399835    839.64775  0.020375843  0.019797728           19 
 3435000   0.69384947   -7.4573841    839.52479  0.020366928  0.019791777            6 
 3436000   0.69997496   -7.4532917     840.3123    0.0203801  0.019785817            8 
 3437000   0.70591566   -7.4406346    839.10354  0.020344863  0.019779864            8 
 3438000     0.701008   -7.4562431    839.67412  0.020352776  0.019773914            6 
 3439000   0.70299449   -7.4539939    841.45491   0.02039001  0.019767964            6 
 3440000   0.70464384   -7.4548474    840.23949  0.020354639  0.019762036            4 
 3441000   0.71017626   -7.4584065    841.27982  0.020373918  0.019756093            9 
 3442000   0.70857147   -7.4534081     840.9607  0.020360273  0.019750153            8 
 3443000   0.71346279   -7.4539306    840.98952  0.020355057  0.019744215            3 
 3444000   0.70505565   -7.4822212      840.154   0.02032893  0.019738279            5 
 3445000   0.69372682   -7.4569735    842.34145  0.020375942  0.019732334           11 
 3446000   0.68555987   -7.4189947    840.38777  0.020322784  0.019726393            8 
 3447000   0.70020888   -7.4568233    842.54982  0.020369157  0.019720456           11 
 3448000   0.69936332     -7.48785     839.9424  0.020300232  0.019714527            6 
 3449000   0.70530997   -7.4708917    839.98869  0.020295465  0.019708594            9 
 3450000   0.71573134   -7.4738242    840.36014  0.020298554  0.019702687           12 
 3451000   0.68514507   -7.4462363     838.5047  0.020247868  0.019696767            7 
 3452000   0.69666397   -7.4684103    842.21249  0.020331511  0.019690856           13 
 3453000   0.68525828   -7.4630088    839.91997  0.020270296  0.019684945           10 
 3454000   0.70762964   -7.4711996    839.78058  0.020261064  0.019679023            5 
 3455000   0.70689867   -7.4583595     840.7586  0.020278789  0.019673106            6 
 3456000   0.70046639   -7.4583068    841.51574  0.020291178  0.019667209            7 
 3457000   0.69937076   -7.4617196    842.86661  0.020317872  0.019661326            5 
 3458000   0.70239686   -7.4735727    841.52506  0.020279667  0.019655453            5 
 3459000   0.69326314   -7.4632341    841.39165   0.02027059  0.019649568            7 
 3460000   0.69017224   -7.4717494    842.56672  0.020293033  0.019643697            4 
 3461000   0.71295812   -7.4823094    843.04359  0.020298651  0.019637814            6 
 3462000    0.6863638    -7.483954    841.28094   0.02025036  0.019631934           14 
 3463000   0.69752748   -7.4355006    841.76463  0.020256151  0.019626066           10 
 3464000   0.70557141   -7.4761618    841.14855  0.020235483  0.019620199           15 
 3465000   0.70800965   -7.4557322    840.71592  0.020219238  0.019614324            5 
 3466000   0.70927618   -7.4729277    840.99065   0.02022001  0.019608465            7 
 3467000   0.69616401   -7.4474109    843.29845  0.020269648   0.01960261           23 
 3468000   0.72022767   -7.4755629    843.78051  0.020275387  0.019596781           11 
 3469000   0.70601503   -7.4502471    843.19579  0.020255496   0.01959095            6 
 3470000   0.69749635   -7.4757959    842.69493   0.02023763  0.019585112           20 
 3471000   0.69218529   -7.4701688     842.5636  0.020228647  0.019579271            9 
 3472000   0.68128256   -7.4703328    843.70358  0.020250182  0.019573436            9 
 3473000   0.68955511    -7.483055    843.09616  0.020229776  0.019567618            6 
 3474000   0.69106862    -7.505564    842.39652   0.02020717  0.019561786            7 
 3475000   0.69869187   -7.4888936    842.35166   0.02020028  0.019555933            7 
 3476000   0.69030745    -7.483709    841.90895  0.020183855   0.01955008            8 
 3477000   0.71061744   -7.4669005    843.43755  0.020214686  0.019544244           10 
 3478000   0.68969294   -7.4679519    841.95608  0.020173377  0.019538405            8 
 3479000    0.6985058   -7.4741994     843.2173  0.020197789  0.019532562            7 
 3480000   0.68913481   -7.4856796    843.64424  0.020202209   0.01952672            6 
 3481000   0.69710053   -7.4863705    843.01722  0.020181395  0.019520869            6 
 3482000   0.70507107   -7.4733708    842.63103  0.020166356  0.019515037           17 
 3483000   0.70918702   -7.4481462    844.12898  0.020196406  0.019509234            8 
 3484000   0.69108313   -7.4502199    842.82125   0.02015933  0.019503423            5 
 3485000   0.70273673   -7.4809267    842.28562  0.020140737  0.019497587           17 
 3486000   0.68600611   -7.4815696    843.54181  0.020164989  0.019491733            9 
 3487000   0.69962348   -7.4686579     842.2137  0.020127466   0.01948588           11 
 3488000   0.69985391   -7.4902048    843.24183  0.020146259  0.019480009           16 
 3489000   0.69822936   -7.4753932    842.22355  0.020116164  0.019474146           10 
 3490000   0.69772768   -7.4826908    843.61765  0.020143688  0.019468306           11 
 3491000   0.68846458   -7.4747695    843.23388  0.020128757  0.019462475            5 
 3492000    0.6944125   -7.5047978    842.68443   0.02010988  0.019456646           10 
 3493000   0.69445326   -7.4823063     845.5379  0.020172199  0.019450833            5 
 3494000   0.68593686   -7.4572992    846.06838  0.020179078  0.019445027           10 
 3495000   0.70857222    -7.464248     842.6813  0.020092544  0.019439239           10 
 3496000   0.69338851   -7.4685519    844.16361   0.02012213  0.019433439           11 
 3497000   0.70063301    -7.463042    843.75115  0.020106547   0.01942763            6 
 3498000   0.69862938   -7.4878918    844.58976  0.020120778  0.019421823            7 
 3499000   0.68756163   -7.4983582     844.0342  0.020101796  0.019416023            7 
 3500000   0.69051858    -7.466523    843.71505  0.020088453  0.019410205            9 
 3501000   0.69721376   -7.4841855    843.32711  0.020073482  0.019404383            9 
 3502000   0.70168677   -7.4621076    843.24837  0.020065876  0.019398564            8 
 3503000   0.69224247   -7.4903886     841.5549  0.020019861  0.019392761            9 
 3504000   0.70431839   -7.4838212    842.29361  0.020031716  0.019386951           17 
 3505000    0.6944585   -7.4858588    842.33475  0.020026979  0.019381139           14 
 3506000   0.67364946   -7.4713161    841.27224  0.019996012  0.019375315           15 
 3507000   0.67812717   -7.4638963    842.30174  0.020014774  0.019369507           13 
 3508000   0.70416547   -7.4653187    844.23559  0.020055007  0.019363718           10 
 3509000   0.70555286   -7.4962298    844.30384  0.020050913  0.019357947            9 
 3510000    0.6707098   -7.4781261    843.65441  0.020029782  0.019352162           20 
 3511000   0.68561357   -7.4785628    842.67616  0.020000858  0.019346392            9 
 3512000   0.68054354   -7.4596413    844.12493   0.02002954  0.019340637           14 
 3513000   0.71343181   -7.4836235    843.71286  0.020014064  0.019334885           13 
 3514000   0.69323199   -7.5011679    844.49907  0.020027013  0.019329129           16 
 3515000   0.69805828   -7.4728714    844.99381  0.020033044   0.01932337            5 
 3516000   0.68317464   -7.4969149    845.12836  0.020030536  0.019317616            7 
 3517000   0.68930809   -7.4533112     843.8529  0.019994619  0.019311859            8 
 3518000   0.69505298   -7.4636913    844.73089  0.020009733  0.019306111            8 
 3519000    0.6856203   -7.4985809     844.8953   0.02000794  0.019300342            8 
 3520000   0.68542239   -7.4812104    844.43712  0.019991409  0.019294575           13 
 3521000   0.70024102   -7.4849589    843.27804  0.019958299  0.019288806           10 
 3522000   0.68312455   -7.4938877    844.24665   0.01997555  0.019283061           31 
 3523000   0.70966244    -7.497284    844.97295   0.01998706  0.019277306            7 
 3524000   0.70747818   -7.4988946    843.22364  0.019940022  0.019271538            7 
 3525000   0.67943788   -7.4963194    841.18758  0.019886231  0.019265771           11 
 3526000   0.68650308    -7.494888    842.89994  0.019921061  0.019260002           11 
 3527000   0.68700063   -7.4694984    846.34978  0.019996923  0.019254235            5 
 3528000    0.6896816    -7.485028    843.52177  0.019924456  0.019248479           19 
 3529000   0.69651956   -7.4821708    846.88359  0.019998196  0.019242722           16 
 3530000   0.68961501   -7.4868602    844.26149   0.01993063  0.019236975            9 
 3531000   0.68337548   -7.4967845    843.57272   0.01990873  0.019231224           18 
 3532000   0.67232746   -7.5046533    843.75673  0.019907435  0.019225472           10 
 3533000   0.69228253   -7.4679506    845.70398  0.019947731  0.019219722           13 
 3534000    0.6814927   -7.5020458    845.12746  0.019928491  0.019213982           14 
 3535000   0.67502576   -7.4801616    845.49935  0.019931621  0.019208227           10 
 3536000   0.68702572   -7.5066204     844.6081   0.01990498  0.019202475           21 
 3537000   0.67609612   -7.5055152    842.44457  0.019848378  0.019196721           10 
 3538000   0.68471617   -7.5001608    842.45088  0.019842917  0.019190966            8 
 3539000   0.69565774   -7.5176558    844.04983  0.019874961  0.019185201            5 
 3540000   0.69236805   -7.4755489    845.36883  0.019900396  0.019179449            7 
 3541000   0.69430622   -7.5145461    844.03908  0.019863482  0.019173699           18 
 3542000   0.68849293   -7.5119579    845.48873   0.01989198  0.019167946            8 
 3543000   0.69281334   -7.5241338    843.61179  0.019842219  0.019162183           13 
 3544000   0.68095498   -7.5049143    843.36534  0.019830825  0.019156426           11 
 3545000   0.68530793   -7.4982239    844.42619  0.019850169  0.019150676            7 
 3546000   0.70050739   -7.5023564    845.57248   0.01987151  0.019144939            8 
 3547000   0.67181885   -7.4891492    844.98338  0.019852067  0.019139198            8 
 3548000   0.68031589   -7.5007619    846.16137   0.01987414  0.019133473            7 
 3549000   0.67565305   -7.4940581     844.3992  0.019827163   0.01912773            9 
 3550000   0.66382054   -7.4994028    844.32146  0.019819753  0.019122002            5 
 3551000   0.69294345   -7.4957566    845.06947  0.019831725  0.019116279            6 
 3552000   0.66668776   -7.5019102    845.68709  0.019840632  0.019110551            6 
 3553000   0.68344125   -7.5121741     845.4051  0.019828434  0.019104847            8 
 3554000   0.67494375   -7.5198199    845.06545  0.019814891  0.019099135            5 
 3555000   0.68483834   -7.4832099    845.14963   0.01981129  0.019093429           15 
 3556000    0.6835168   -7.5028901     844.9381  0.019800762  0.019087726            8 
 3557000   0.68395757   -7.5361722    843.10286  0.019752199  0.019081993           15 
 3558000   0.68196925   -7.5199548    843.80486  0.019763089  0.019076265            6 
 3559000   0.68396418   -7.5075246    844.49509  0.019773698  0.019070565           11 
 3560000   0.67579928   -7.5067882    846.14501  0.019806765  0.019064878            8 
 3561000   0.67903694   -7.4700171    845.30846  0.019781627  0.019059186           10 
 3562000   0.67223169   -7.4878205    847.21507  0.019820678  0.019053521            7 
 3563000   0.69059431   -7.4807027     846.2435  0.019792392  0.019047858           12 
 3564000   0.68679244   -7.4908946    845.61257  0.019772086  0.019042194            6 
 3565000   0.68546233   -7.4882507    844.82663  0.019748168   0.01903653            8 
 3566000   0.67662604   -7.4823915    846.42742  0.019780039  0.019030858           12 
 3567000   0.68639719   -7.5165488    846.03436  0.019765311  0.019025187            8 
 3568000   0.70108674   -7.5065189    846.83857  0.019778554  0.019019504           27 
 3569000   0.68753874   -7.5312552    845.75005  0.019747596  0.019013818           10 
 3570000   0.68766563   -7.5237918    845.44593  0.019734966  0.019008117           11 
 3571000   0.69860262   -7.5276072    844.10652  0.019698183  0.019002417            9 
 3572000   0.68793118   -7.5453008    843.93598  0.019688689  0.018996694           12 
 3573000   0.68636483     -7.53166    843.25863  0.019667381  0.018990974           14 
 3574000   0.68537001   -7.5321437    845.83481  0.019721946  0.018985247           12 
 3575000   0.67402492      -7.5144    844.01028  0.019673899  0.018979533           34 
 3576000   0.68413131   -7.5030744    843.60596  0.019658976  0.018973826           12 
 3577000   0.68130957   -7.5292867    844.97794  0.019685443  0.018968127            9 
 3578000   0.67902272   -7.5126186    844.82599  0.019676402  0.018962413            6 
 3579000   0.65531996   -7.5359073    844.55069  0.019664494  0.018956697           15 
 3580000   0.66959228   -7.5141323    844.87873  0.019666637  0.018950996           14 
 3581000   0.69128054   -7.5287441    846.26239  0.019693344  0.018945304           12 
 3582000   0.68909842   -7.4886348    846.61703  0.019696097  0.018939624           10 
 3583000   0.67419518   -7.4908052    845.24723  0.019658741  0.018933953           10 
 3584000   0.67544821   -7.5159556     845.7283  0.019664441  0.018928291           16 
 3585000   0.66135143   -7.4999874    847.32927  0.019696171   0.01892261           11 
 3586000   0.68576662   -7.5150021    843.42761  0.019600009   0.01891694           13 
 3587000   0.68262794   -7.5169512    844.10567  0.019610298  0.018911258           14 
 3588000     0.691429    -7.508536    845.36812  0.019634154  0.018905587            8 
 3589000   0.69317922   -7.5165115    844.65132   0.01961204  0.018899926            7 
 3590000   0.69176951    -7.525178    844.30597   0.01959856  0.018894246           21 
 3591000   0.67692554   -7.5220675    844.14953  0.019589472  0.018888583           13 
 3592000   0.67006901   -7.5169732    845.55582  0.019616644  0.018882923           24 
 3593000   0.67367269   -7.5088555    845.64569  0.019613269  0.018877264           10 
 3594000   0.68098122   -7.4911607    846.07537  0.019617774  0.018871623           32 
 3595000   0.68936076   -7.5211129    845.99137   0.01961037  0.018865963           10 
 3596000   0.66531826    -7.498896    846.17948  0.019609276  0.018860305           27 
 3597000   0.66500568   -7.5429511    846.23742  0.019605167   0.01885465           27 
 3598000   0.65672882   -7.5154994    844.50077  0.019559495  0.018848985           22 
 3599000   0.67555595   -7.5054818     845.7164  0.019582208  0.018843332           27 
 3600000   0.66940916   -7.5096853    845.92318  0.019581555  0.018837671           30 
 3601000   0.66394409   -7.5311296    846.21612  0.019582896  0.018832009           20 
 3602000   0.68046205   -7.5379632    844.14071  0.019529444  0.018826328           24 
 3603000   0.66674575   -7.5194711    844.48327  0.019531947  0.018820646            6 
 3604000   0.69304147   -7.5511903    843.60454  0.019506209   0.01881496           10 
 3605000   0.68686858   -7.5440618    846.53574  0.019568556  0.018809274            5 
 3606000    0.6630332   -7.5330504    845.01251  0.019527928  0.018803588            9 
 3607000   0.67156951   -7.5514376     845.0886  0.019524272  0.018797895            8 
 3608000   0.66459265   -7.5470258    846.44974  0.019550299  0.018792217            8 
 3609000   0.67828875   -7.5190571    845.07329  0.019513099  0.018786544            5 
 3610000   0.66843749   -7.5409746    846.03409  0.019529873  0.018780887           10 
 3611000   0.67855809   -7.5375408    845.02991   0.01950129  0.018775211           18 
 3612000    0.6568295     -7.54578    846.99748  0.019541286  0.018769557            7 
 3613000   0.68605016   -7.5286247    846.39262  0.019521926  0.018763898            7 
 3614000   0.66912038   -7.5208991    843.73625  0.019455272  0.018758255           20 
 3615000    0.6754801   -7.5186508    845.37423  0.019487649  0.018752617           17 
 3616000   0.65771104   -7.5322259    845.73307   0.01949053  0.018746973            7 
 3617000   0.67522994   -7.5157951    846.14234  0.019494571  0.018741329           17 
 3618000   0.68183821   -7.5297363    845.19721  0.019467413  0.018735679            9 
 3619000   0.66539152   -7.4937184    846.73716  0.019497494   0.01873005            9 
 3620000   0.66635207   -7.5356495    845.64038   0.01946686  0.018724412            9 
 3621000   0.66865172   -7.5371943    846.33683  0.019477512  0.018718765            6 
 3622000     0.662062   -7.5588251    844.73591  0.019435301  0.018713096            6 
 3623000   0.66191227   -7.5467961    845.21119  0.019440868  0.018707414            7 
 3624000    0.6742709   -7.5247981    845.51113  0.019442401  0.018701755            9 
 3625000   0.68336102   -7.5294723    847.71972   0.01948781   0.01869611           13 
 3626000   0.67558343   -7.5223961     846.1809   0.01944707  0.018690466            9 
 3627000   0.67584455   -7.5392042     844.9962  0.019414489  0.018684799           12 
 3628000   0.69214691   -7.5452129    845.97115  0.019431531  0.018679136           23 
 3629000   0.68135561   -7.5342747    845.45372  0.019414295  0.018673467           10 
 3630000   0.67175273   -7.5522796    843.00471  0.019352725  0.018667806            8 
 3631000   0.67226569   -7.5357221    846.09462   0.01941831   0.01866215           12 
 3632000    0.6746119   -7.5648551    845.89474  0.019408378  0.018656494            9 
 3633000   0.67074073   -7.5276368     844.4735  0.019370435   0.01865086           14 
 3634000   0.66178768   -7.5409156    846.22901  0.019405362   0.01864522           13 
 3635000   0.67718397   -7.5243494    846.03606    0.0193956  0.018639594           10 
 3636000   0.66747209   -7.5148303    847.15121  0.019415823  0.018633987           11 
 3637000   0.67262485   -7.5173678    847.13828  0.019410189  0.018628392           15 
 3638000   0.67389695   -7.5198468    845.18289  0.019360063  0.018622783            8 
 3639000   0.66579308   -7.5123102    846.98636  0.019396042   0.01861719           12 
 3640000   0.68068459     -7.54559    845.98943   0.01936789  0.018611584           32 
 3641000   0.67286583    -7.541368    846.62941  0.019377218  0.018605975           22 
 3642000   0.68905132   -7.5556129    845.91682  0.019355593  0.018600368           13 
 3643000   0.67308498   -7.5278691    847.71521  0.019391418  0.018594778           20 
 3644000   0.67235757   -7.5517916    846.72198  0.019363382  0.018589193            8 
 3645000   0.65657023   -7.5494189    845.63566  0.019333234  0.018583599            6 
 3646000   0.66327969   -7.5248585    847.81008   0.01937763  0.018578007           10 
 3647000   0.65960318   -7.5463746    848.24572  0.019382271   0.01857243           10 
 3648000   0.67609079   -7.5239608    846.58199  0.019338953  0.018566845           13 
 3649000   0.66767116   -7.5409096    847.20691  0.019347924  0.018561265            8 
 3650000   0.66864975   -7.5345215    847.31733  0.019345144  0.018555683            7 
 3651000   0.67431412   -7.5460988    847.42762  0.019342363  0.018550111           11 
 3652000   0.66040925    -7.518038    847.16968  0.019331181  0.018544537           10 
 3653000   0.66954333   -7.5174898     846.8699  0.019319051  0.018538969            5 
 3654000   0.66809781   -7.5291608    847.32283  0.019324093  0.018533414           20 
 3655000   0.66277634   -7.5379964    847.71767  0.019327808  0.018527843            9 
 3656000    0.6681975   -7.5392105    846.42465  0.019293049  0.018522256            8 
 3657000   0.65699182   -7.5152132    848.15531  0.019327211  0.018516684            7 
 3658000   0.65702564    -7.537414    847.05023  0.019296752  0.018511114           10 
 3659000   0.67162798   -7.5552644    845.92726  0.019265903  0.018505524           14 
 3660000   0.66842848   -7.5464356    844.45139  0.019227035  0.018499934            9 
 3661000   0.66470498   -7.5471197    845.91927  0.019255196  0.018494346           20 
 3662000   0.65929693    -7.566452    844.66166  0.019221319  0.018488757           18 
 3663000   0.67777124   -7.5361804    847.07075  0.019270879  0.018483188            7 
 3664000   0.66557509     -7.51411    846.77555  0.019258905  0.018477614           10 
 3665000   0.67753045   -7.5346646    846.93745  0.019257332  0.018472053           15 
 3666000   0.67349598   -7.5404597    847.48997  0.019264638  0.018466491           15 
 3667000    0.6678824   -7.5363363    846.20497  0.019230183  0.018460916           20 
 3668000   0.66876752   -7.5488814    846.84815  0.019239553  0.018455345           26 
 3669000      0.67176   -7.5443863    846.53251   0.01922714  0.018449779           15 
 3670000   0.66379127   -7.5488261    847.61574  0.019246497  0.018444218           20 
 3671000   0.65163656   -7.5292084    848.44109   0.01925999  0.018438667           11 
 3672000   0.65990527   -7.5417754    848.68023  0.019260172  0.018433115           21 
 3673000    0.6688457   -7.5162958     847.2459  0.019222386  0.018427579           13 
 3674000   0.66224298   -7.5268801    850.20802  0.019284341  0.018422072           17 
 3675000   0.66461689   -7.5460063    848.02221  0.019229529  0.018416545           13 
 3676000   0.65371859   -7.5459879    846.90948  0.019199072  0.018410993           18 
 3677000    0.6744364   -7.5175128    846.87296  0.019193023  0.018405459           14 
 3678000   0.66596935   -7.5362472    847.81702  0.019209195  0.018399931           20 
 3679000   0.65228802   -7.5639195    846.72955  0.019179341  0.018394371           12 
 3680000   0.65987554   -7.5449704    846.16295  0.019161299  0.018388817           15 
 3681000   0.64967993   -7.5328258      845.861  0.019149258  0.018383262           18 
 3682000   0.66147589   -7.5332042    847.14055  0.019173016  0.018377714           11 
 3683000   0.66616172   -7.5511014     847.0763  0.019166357  0.018372141            8 
 3684000   0.66909461   -7.5374672    845.49217   0.01912532  0.018366568           29 
 3685000    0.6608859   -7.5590723    846.30049   0.01913841  0.018360996           17 
 3686000   0.65787823   -7.5482554    845.44975  0.019113984  0.018355426           26 
 3687000   0.67299638   -7.5472168    846.25385  0.019126974  0.018349865           18 
 3688000   0.66194806   -7.5435858    846.00662  0.019116202  0.018344304           27 
 3689000   0.64753553   -7.5569092    845.93028  0.019109295   0.01833875           23 
 3690000   0.66592146   -7.5461173    845.66102  0.019098036  0.018333199           20 
 3691000    0.6731856   -7.5658178    846.30719   0.01910745  0.018327639           39 
 3692000   0.65752363   -7.5324047     846.8193  0.019113834  0.018322063           14 
 3693000   0.67527039   -7.5742812    845.38911  0.019076386  0.018316483           17 
 3694000    0.6573386   -7.5683866    845.39634  0.019071385  0.018310897           12 
 3695000   0.67053893   -7.5657634    846.07866  0.019081612  0.018305302           11 
 3696000   0.64732044   -7.5573029    845.26624  0.019058131  0.018299719           15 
 3697000   0.68183892   -7.5609133    845.13844  0.019050096  0.018294131           11 
 3698000   0.65879234   -7.5580129    845.29948  0.019048573  0.018288547           14 
 3699000   0.66908094   -7.5584587    845.99526  0.019059098   0.01828297            5 
 3700000   0.66522509   -7.5620913    846.30788  0.019060988  0.018277404            6 
 3701000   0.65784457   -7.5615224    845.91576  0.019047009  0.018271847            6 
 3702000   0.67301653   -7.5595955     846.7107  0.019059758  0.018266295            8 
 3703000   0.65637831   -7.5425312    846.06381  0.019040053  0.018260743            5 
 3704000   0.66365491   -7.5713157    845.67843  0.019026243  0.018255195            7 
 3705000   0.64642804   -7.5304466    846.81594  0.019046692  0.018249651            7 
 3706000   0.65919941   -7.5431183    846.43774  0.019033049  0.018244119           12 
 3707000   0.65284238   -7.5285949    847.08442  0.019042452  0.018238592           11 
 3708000   0.64976882   -7.5558482    847.44478  0.019045415   0.01823307           12 
 3709000   0.65592769   -7.5344793    847.61614   0.01904413   0.01822754            5 
 3710000   0.66518155    -7.564145    846.05251  0.019003875  0.018222001            7 
 3711000   0.67321947   -7.5434483    845.78527  0.018992753  0.018216461           11 
 3712000   0.65540266   -7.5618881    846.00458   0.01899256  0.018210925            5 
 3713000   0.65606256   -7.5632238    847.28264  0.019016129  0.018205408           10 
 3714000   0.66195689   -7.5495189     847.2285  0.019009794  0.018199886           14 
 3715000   0.67338794   -7.5412177    847.40279  0.019008586  0.018194356            9 
 3716000   0.66516634    -7.543319    847.08185  0.018996274  0.018188827            8 
 3717000   0.66522937   -7.5719778    846.22379  0.018971926  0.018183289           17 
 3718000   0.64789525   -7.5643665    846.32011  0.018968982  0.018177764           25 
 3719000   0.66810706   -7.5399809    847.20357  0.018983678  0.018172247           24 
 3720000   0.66642233   -7.5445646    846.94994  0.018972893  0.018166746           10 
 3721000   0.65130779   -7.5493799     847.7241  0.018985132  0.018161234           25 
 3722000   0.66188368   -7.5652976    845.85705  0.018938229  0.018155714            9 
 3723000   0.66506642   -7.5576842    845.87165  0.018933469  0.018150181           13 
 3724000   0.64338387   -7.5337197     846.8567  0.018950428  0.018144677           14 
 3725000   0.65288149   -7.5587554    848.08036  0.018972715  0.018139183           14 
 3726000   0.65249127   -7.5247345    849.33409  0.018995663  0.018133689           34 
 3727000    0.6634865   -7.5487993    846.68937  0.018931432  0.018128211           10 
 3728000     0.654729   -7.5435139    847.03807  0.018934149  0.018122724            8 
 3729000    0.6506736   -7.5688728     845.9991  0.018905853  0.018117231            7 
 3730000   0.66454198   -7.5538575     845.9542  0.018899781  0.018111739           10 
 3731000   0.65216015   -7.5391949    847.86226  0.018937333  0.018106266           14 
 3732000   0.65776009   -7.5567014    846.56588  0.018903311  0.018100805            9 
 3733000   0.65351724   -7.5605801    847.79706  0.018925731  0.018095346           12 
 3734000   0.65478192    -7.558732    848.70975  0.018941032  0.018089871            8 
 3735000   0.66301487   -7.5631955    847.43999   0.01890763  0.018084397            7 
 3736000   0.66760544   -7.5578281    846.62019  0.018884283  0.018078931            8 
 3737000   0.65783063   -7.5578928    848.31152  0.018916946  0.018073473           21 
 3738000   0.64727803    -7.552653     846.2308  0.018865499   0.01806801           28 
 3739000   0.65368894   -7.5835849    847.68081   0.01889277  0.018062547           12 
 3740000   0.63978465   -7.5476986    848.67869  0.018909953  0.018057084           11 
 3741000   0.65308258   -7.5675522    846.86665  0.018864534  0.018051622           11 
 3742000   0.65564907   -7.5749117    847.67686  0.018877536  0.018046158           11 
 3743000   0.64386236    -7.562874    846.85986  0.018854303  0.018040697            8 
 3744000   0.66218258   -7.5565208    848.79866   0.01889242  0.018035246           21 
 3745000   0.65495613   -7.5585943    847.12354  0.018850101  0.018029791           14 
 3746000   0.65578616    -7.569411    849.24133  0.018892181  0.018024348           14 
 3747000   0.64035404   -7.5571038    846.89895  0.018835045   0.01801889           11 
 3748000   0.63425021   -7.5621235    848.74509  0.018871067  0.018013439           10 
 3749000   0.65095604   -7.5806785    846.15577  0.018808477  0.018007986           20 
 3750000   0.65840678   -7.5718123    848.05752  0.018845723  0.018002522           24 
 3751000   0.66004807   -7.5839811    846.61481  0.018808647  0.017997042            9 
 3752000   0.63491298   -7.5760438    846.67115  0.018804885  0.017991567           14 
 3753000   0.64847631   -7.5673491    847.92686  0.018827757  0.017986102           19 
 3754000   0.64794889   -7.5752813    847.21162  0.018806864  0.017980633           21 
 3755000   0.66220256    -7.588172    849.23635   0.01884679  0.017975173            9 
 3756000   0.67272758   -7.5808758    847.85264  0.018811072  0.017969712           37 
 3757000   0.66158442   -7.5852198    846.34246  0.018772568  0.017964253           15 
 3758000   0.64531896   -7.5967501     845.8379  0.018756384  0.017958797           25 
 3759000   0.64780635   -7.5468246     847.0028  0.018777219  0.017953334           14 
 3760000   0.64842631   -7.5903535    846.08316  0.018751843  0.017947886           22 
 3761000    0.6576112   -7.5737142    847.71493  0.018783013  0.017942416           16 
 3762000   0.66149615   -7.5752159    847.07461  0.018763836  0.017936966           17 
 3763000   0.65019112   -7.5811385    847.17822  0.018761144  0.017931505           28 
 3764000   0.64395475   -7.5645112    848.72852  0.018790483  0.017926058           13 
 3765000   0.64842596   -7.5642718    847.47411  0.018757727  0.017920616            9 
 3766000   0.65877672   -7.5791028    847.65132  0.018756668   0.01791518           14 
 3767000   0.64816847   -7.5585559    845.98677  0.018714865  0.017909753           11 
 3768000   0.65021307   -7.5649926    846.41298  0.018719324  0.017904319           10 
 3769000   0.65014271   -7.5524961    847.34527  0.018734971   0.01789888            7 
 3770000   0.64512311   -7.5532601    846.84148  0.018718866  0.017893452           11 
 3771000   0.65297744    -7.559592    848.75501  0.018756188  0.017888036           12 
 3772000   0.63119555   -7.5630962    847.80631  0.018730256  0.017882632           10 
 3773000   0.64790248   -7.5673516    846.10517  0.018687719  0.017877229           19 
 3774000   0.64094512   -7.5505601    848.33593  0.018732025  0.017871814           15 
 3775000   0.66060738    -7.558626     847.8914  0.018717249  0.017866407           14 
 3776000   0.65348373   -7.5573069    849.63622  0.018750799     0.017861           16 
 3777000   0.65666926   -7.5799297    848.74157  0.018726096  0.017855597            9 
 3778000   0.63083724   -7.5662777    848.59396  0.018717883  0.017850174            7 
 3779000   0.65042141   -7.5534978    847.53682  0.018689618  0.017844769           17 
 3780000   0.66208693    -7.560157    849.60198  0.018730202  0.017839372            8 
 3781000   0.65197105   -7.5696616    848.06494  0.018691372  0.017833983            7 
 3782000   0.64330883   -7.5566507     848.3427   0.01869255  0.017828585           17 
 3783000   0.65009685   -7.5304041    847.54826  0.018670109  0.017823181            9 
 3784000   0.64923505   -7.5740448    847.11705  0.018655679  0.017817779            8 
 3785000    0.6676622   -7.5639972    847.69388   0.01866345  0.017812373           10 
 3786000   0.65994039    -7.544441    848.73239  0.018681378  0.017806973           17 
 3787000   0.64565423   -7.5774161    848.65837  0.018674817   0.01780157           18 
 3788000   0.64144703   -7.5602501    847.98797  0.018655138  0.017796172            8 
 3789000   0.64872147   -7.5786279     847.4699  0.018638821  0.017790784           10 
 3790000    0.6404665   -7.5807261    846.43054   0.01861105  0.017785399           11 
 3791000   0.64889435   -7.5656699    848.97382  0.018662046  0.017780005           28 
 3792000   0.64984235   -7.5507207    847.59809  0.018626892  0.017774615           15 
 3793000   0.64709769   -7.5721567    847.49913  0.018619807  0.017769232           16 
 3794000   0.63401224   -7.5721179    848.08676  0.018627806  0.017763841           10 
 3795000   0.63888996   -7.5715223     847.9132  0.018619087  0.017758456           14 
 3796000   0.64431614   -7.6011939    848.43905  0.018625726  0.017753053           18 
 3797000   0.64592581   -7.5760904    847.87237  0.018608383  0.017747662           10 
 3798000    0.6421598   -7.5789141     848.6796  0.018621195  0.017742265           18 
 3799000   0.65432936   -7.5818397    849.34869  0.018630971  0.017736868           20 
 3800000   0.63356552   -7.5966141    847.31749  0.018581524  0.017731468           16 
 3801000   0.63705017   -7.5814226    847.86562  0.018588652  0.017726071           15 
 3802000   0.64638445   -7.6058359    847.64921   0.01857902  0.017720673           28 
 3803000   0.64969565   -7.5668209    846.49425  0.018548827  0.017715288           32 
 3804000   0.63961233   -7.5931485    848.12438  0.018579661  0.017709904           37 
 3805000   0.64712761   -7.5866171    848.20769  0.018576603  0.017704508           51 
 3806000   0.63125553    -7.592065    847.77025  0.018562144  0.017699105           32 
 3807000   0.64060055   -7.5928383    846.36915  0.018526599  0.017693708           27 
 3808000   0.63422346   -7.5953799    847.23777  0.018540742  0.017688329           37 
 3809000   0.63865272   -7.5859742    846.64354  0.018522874  0.017682939           43 
 3810000   0.64210586   -7.5933941    846.34326  0.018511445  0.017677548           37 
 3811000   0.63771877   -7.5988882    846.77787  0.018516091  0.017672146           31 
 3812000   0.64110304   -7.6072405    846.96694  0.018515367  0.017666751           48 
 3813000   0.62559036   -7.6237641    846.23061  0.018494418  0.017661357           50 
 3814000   0.64178244   -7.5930188      847.415  0.018515448  0.017655954           56 
 3815000   0.63619868   -7.6201031    847.18532  0.018505577  0.017650563           40 
 3816000   0.63708956   -7.5615194     846.8604  0.018493632  0.017645158           44 
 3817000   0.64808167   -7.5852433    847.53087  0.018503425  0.017639752           55 
 3818000   0.64454901   -7.5992009    848.02035  0.018509262  0.017634362           11 
 3819000   0.64306828   -7.6132955    847.00574  0.018482276  0.017628966           18 
 3820000   0.63619718   -7.6240773    846.69898  0.018470746  0.017623571           18 
 3821000   0.64579709   -7.6000272     846.5316  0.018462261  0.017618186           12 
 3822000    0.6498834   -7.6080044    847.02088  0.018468099  0.017612811           20 
 3823000   0.63402127   -7.6137308    847.58482  0.018475561  0.017607435           21 
 3824000   0.64141317    -7.616845    847.84644   0.01847643   0.01760205           25 
 3825000   0.62701822   -7.6156417    846.78505  0.018448476  0.017596681           14 
 3826000   0.64099691   -7.5984835    847.11546  0.018450851  0.017591311           17 
 3827000   0.62389131   -7.5984778    846.60171  0.018434843  0.017585925           22 
 3828000   0.63223757   -7.6011086    846.26584  0.018422715  0.017580545           39 
 3829000   0.63259665   -7.6011671    846.92918   0.01843234  0.017575172           27 
 3830000   0.63377491   -7.6229629    847.39809   0.01843773  0.017569795           65 
 3831000   0.65055576   -7.6086106    847.14713  0.018427459  0.017564419           38 
 3832000   0.64702339   -7.6132738    848.46748  0.018451363  0.017559044           19 
 3833000   0.63607235   -7.5965207    847.21297  0.018419275  0.017553684           20 
 3834000   0.62975497    -7.603578    847.52038  0.018421152  0.017548315           33 
 3835000   0.63553534   -7.6226563     847.1597  0.018408511  0.017542945           32 
 3836000   0.64063876   -7.6093779    848.73313  0.018437894  0.017537582           43 
 3837000   0.64139231   -7.5773434    848.20933  0.018421712  0.017532224           40 
 3838000   0.63565834   -7.6281401    847.42972  0.018399985  0.017526858           43 
 3839000   0.63365459   -7.5991591    848.19857  0.018411882  0.017521491           40 
 3840000   0.63035249   -7.6181561    844.69333  0.018331018  0.017516144           29 
 3841000   0.63871063   -7.5873915     848.9677  0.018418982  0.017510805           19 
 3842000   0.64327461   -7.6068293    848.95922  0.018414003  0.017505463           26 
 3843000   0.63801193   -7.5879315     848.7344  0.018404337  0.017500112           13 
 3844000   0.64490388    -7.596903    847.29521  0.018368349  0.017494774           26 
 3845000   0.64993975   -7.6168237    847.92041  0.018377122  0.017489426           34 
 3846000   0.63371958   -7.5756552    846.71785  0.018346287   0.01748408           34 
 3847000   0.63400369   -7.5999977    848.54823  0.018381168  0.017478751           45 
 3848000   0.63309492   -7.6071322     848.3903  0.018372971  0.017473407           40 
 3849000   0.63763816   -7.6148448    847.44184  0.018347663  0.017468067           34 
 3850000   0.63898311   -7.6015038    848.08174  0.018356748  0.017462726           27 
 3851000   0.64366077   -7.6166384    848.69685  0.018365291  0.017457392           27 
 3852000   0.62014402   -7.5950431    848.36534  0.018353352  0.017452064           40 
 3853000   0.63477214   -7.6021479    849.55105  0.018374233  0.017446737           27 
 3854000   0.62507677   -7.6102418    848.90201  0.018355432  0.017441417           30 
 3855000   0.63412272   -7.6297447    848.77075  0.018347833  0.017436092           21 
 3856000   0.63095077   -7.6263797    849.22517  0.018352895  0.017430763           39 
 3857000   0.62251765   -7.6196332    846.99673   0.01829999  0.017425428           21 
 3858000   0.63492902   -7.6251221    846.65088  0.018287776  0.017420088           26 
 3859000   0.63643143    -7.611054    847.85993  0.018309146  0.017414762           19 
 3860000    0.6521933   -7.6188576    850.01295  0.018350884  0.017409438           13 
 3861000   0.64392945   -7.5920125    848.29555  0.018309064  0.017404111           16 
 3862000   0.63314719   -7.6075339    849.26226  0.018325183   0.01739879           11 
 3863000   0.63456775   -7.6185999    849.16236  0.018318284  0.017393479           27 
 3864000    0.6492469   -7.6138285    847.53687  0.018278487  0.017388167           29 
 3865000   0.63928807   -7.6345372    849.53916  0.018316929  0.017382847           33 
 3866000    0.6623684   -7.6274552    847.61214  0.018270653  0.017377541           14 
 3867000   0.62796507    -7.612518    848.05773  0.018275531   0.01737223           21 
 3868000    0.6311869   -7.6237019    849.07967  0.018292823  0.017366922           15 
 3869000   0.64261433   -7.6422588    846.66963  0.018236186  0.017361616           12 
 3870000   0.62709239   -7.6415535    847.66879  0.018252989  0.017356294           32 
 3871000   0.62775939   -7.6256692    847.00366  0.018233955  0.017350982           38 
 3872000     0.631427   -7.6334758    846.36411  0.018215481   0.01734566           24 
 3873000   0.64873923   -7.6446874    847.83053   0.01824233  0.017340344           17 
 3874000   0.63810821   -7.6273168    847.97248  0.018240675  0.017335036            9 
 3875000   0.64344744   -7.6135666    847.52509  0.018226346  0.017329714           11 
 3876000   0.62779601   -7.6232988      846.658  0.018203001  0.017324395           18 
 3877000   0.63890126   -7.6305791    847.42411  0.018214773  0.017319078           11 
 3878000   0.63406205   -7.6367737    847.93284  0.018221008  0.017313774           20 
 3879000   0.63241997   -7.6348766    845.78758  0.018170224  0.017308469           18 
 3880000   0.62854375   -7.6140538    848.16837  0.018216675  0.017303175           20 
 3881000   0.63055615   -7.5976496    848.44988  0.018218025   0.01729787           11 
 3882000   0.63703223   -7.6258165    847.30642  0.018188786  0.017292574            5 
 3883000   0.63150241   -7.6087016     847.2496  0.018182883  0.017287275            8 
 3884000   0.64314123   -7.6134637    847.81876  0.018190413  0.017281983            9 
 3885000   0.63064505   -7.6167377    849.49105  0.018221601    0.0172767           10 
 3886000   0.63006823   -7.6212212    848.00738  0.018185096  0.017271423            9 
 3887000   0.63288958   -7.6288382     847.5714   0.01817107  0.017266132           21 
 3888000   0.63966868   -7.6229704    848.30946  0.018182216  0.017260853           10 
 3889000   0.63094264   -7.6119855    848.85873   0.01818931  0.017255588            6 
 3890000   0.62632984   -7.6201291    848.66976  0.018180586  0.017250312           10 
 3891000    0.6389117   -7.6112148    848.83925  0.018179544  0.017245041            9 
 3892000    0.6309113   -7.6198369    846.69076   0.01812887  0.017239767           10 
 3893000   0.61320053   -7.6150394    848.83856  0.018170189  0.017234498           10 
 3894000   0.62901118   -7.6252247    849.49985  0.018179675  0.017229226            8 
 3895000   0.61898294   -7.6340235    848.61165  0.018156005  0.017223944           15 
 3896000   0.62791815   -7.6124512    848.37014  0.018146179  0.017218674           16 
 3897000   0.62909913   -7.6279554     848.9325  0.018153548  0.017213396           31 
 3898000   0.62738523   -7.6232583     847.4218  0.018116594  0.017208124           14 
 3899000   0.62843823   -7.6107398    846.67467  0.018095979  0.017202839           13 
 3900000   0.62473417   -7.6191886    847.86482   0.01811677  0.017197572           11 
 3901000   0.61145265   -7.6296009    848.89391  0.018134109    0.0171923           15 
 3902000   0.62201152   -7.6220527    847.90067  0.018108249  0.017187031           16 
 3903000   0.62630812   -7.6357628     848.8476  0.018123828  0.017181759           14 
 3904000   0.63925824   -7.6379138    848.04023  0.018101952  0.017176492           29 
 3905000    0.6432307   -7.6197908    848.76244  0.018112728  0.017171222           11 
 3906000   0.63449343   -7.6262214     848.5762  0.018104118  0.017165957            8 
 3907000   0.63720053   -7.6147223    848.81724  0.018104625  0.017160693           20 
 3908000   0.61821748   -7.6309548    847.86444  0.018079675  0.017155424            9 
 3909000   0.62620449   -7.6427378      846.838  0.018053168  0.017150158            8 
 3910000   0.62403458    -7.638101    848.84436  0.018091312  0.017144885           15 
 3911000   0.60818766   -7.6355194    846.98167  0.018046997  0.017139615            8 
 3912000   0.62013251   -7.6422585    848.09546   0.01806611  0.017134359           14 
 3913000   0.62209205   -7.6298684    847.75938  0.018054335  0.017129101            9 
 3914000   0.62774614   -7.6404005     848.3536  0.018062374  0.017123845            8 
 3915000   0.62995238   -7.6293381     847.4404  0.018038323   0.01711858           12 
 3916000   0.63593246   -7.6400711    847.66144   0.01803842  0.017113311           12 
 3917000   0.62193673   -7.6493914    846.85545  0.018016668  0.017108042           14 
 3918000   0.62436545   -7.6435562    847.91589  0.018034624  0.017102779           21 
 3919000   0.63083349   -7.6540452    847.08045  0.018012258  0.017097507            9 
 3920000   0.63681955   -7.6367332     844.9936  0.017963299  0.017092231            8 
 3921000    0.6327584   -7.6433336    848.04936  0.018023662  0.017086958            9 
 3922000   0.62405021   -7.6226864    845.69545  0.017969052  0.017081691           13 
 3923000   0.62864612   -7.6662484    848.02555  0.018013968  0.017076435           11 
 3924000   0.61727496   -7.6266534    847.06014  0.017988875  0.017071167           15 
 3925000   0.63797321   -7.6493119    847.05675   0.01798422  0.017065905           10 
 3926000   0.62051078   -7.6231531    846.88952  0.017976089  0.017060638            9 
 3927000   0.62058794    -7.649419    847.40338  0.017982416  0.017055378            8 
 3928000   0.62345938   -7.6498584    846.91332  0.017967441  0.017050117           12 
 3929000   0.62138959   -7.6166548    848.13923   0.01798887   0.01704486           16 
 3930000   0.62953449   -7.6384045    847.19868  0.017964349  0.017039602            8 
 3931000   0.62451175    -7.651174    847.34727  0.017962929  0.017034346           10 
 3932000   0.61895691   -7.6464591    849.21584  0.017997962  0.017029095            7 
 3933000   0.61708496   -7.6429316    848.67094   0.01798184  0.017023848            6 
 3934000   0.61633737   -7.6526402    847.91395  0.017961234  0.017018605            7 
 3935000   0.63033507   -7.6577637    847.90972   0.01795658  0.017013373            5 
 3936000   0.61206568   -7.6322373    846.61207  0.017924544  0.017008129            9 
 3937000    0.6228104   -7.6439671    845.60613  0.017898699  0.017002893            5 
 3938000   0.63070887   -7.6541363    848.68585  0.017959325  0.016997658            7 
 3939000    0.6239413   -7.6476568    848.57222  0.017952362  0.016992421            9 
 3940000   0.63451782   -7.6442674    846.89103  0.017912247  0.016987184            6 
 3941000   0.63226802   -7.6557105    846.98574  0.017909704   0.01698195           11 
 3942000   0.62082965    -7.643738    846.98556  0.017905157  0.016976717           10 
 3943000   0.62340336   -7.6478242     847.1792  0.017904709  0.016971493           11 
 3944000   0.63330679   -7.6159177    846.42678  0.017884271   0.01696628           13 
 3945000     0.620519   -7.6511261    846.17178  0.017874351  0.016961054           17 
 3946000   0.60809411   -7.6461273    847.33809  0.017894452   0.01695583           15 
 3947000   0.62530349   -7.6475706     848.2913  0.017910044  0.016950609           29 
 3948000   0.62115616   -7.6517745    847.61241  0.017891177  0.016945386           23 
 3949000   0.61637167   -7.6462808    848.33292  0.017901851  0.016940166           19 
 3950000   0.61118298   -7.6609069    848.56281  0.017902169  0.016934947           18 
 3951000   0.62739849   -7.6542285     847.1121   0.01786704  0.016929722           13 
 3952000   0.60854316    -7.650451    845.33386  0.017825022  0.016924485           17 
 3953000   0.63435096   -7.6431604    847.81096  0.017872733  0.016919258           29 
 3954000   0.63559632   -7.6455864    845.06469  0.017810333  0.016914044           16 
 3955000   0.61275272   -7.6415109    847.67316  0.017860791  0.016908828           21 
 3956000   0.62653522   -7.6298148    848.30555  0.017869598  0.016903612           19 
 3957000   0.62396729   -7.6465699     846.0612  0.017817817  0.016898398           26 
 3958000   0.61867018   -7.6575354    846.25763   0.01781745  0.016893192           11 
 3959000   0.62495871   -7.6601539    847.77461  0.017844881  0.016887974            9 
 3960000   0.60527809   -7.6647546    845.26664  0.017787598  0.016882755           15 
 3961000   0.61392741   -7.6615914    847.04472  0.017820515  0.016877533           22 
 3962000   0.61037511   -7.6519276    847.26401  0.017820629  0.016872318           16 
 3963000   0.60192037   -7.6686107    847.03322   0.01781128  0.016867105           11 
 3964000   0.61792946   -7.6676135    846.11381  0.017787458  0.016861884           32 
 3965000   0.61353483   -7.6458352     846.6202  0.017793615  0.016856673            8 
 3966000    0.6199842    -7.645681    846.68784   0.01779055  0.016851465           19 
 3967000   0.60778933   -7.6518126    845.99888  0.017771592  0.016846268           22 
 3968000    0.6302748   -7.6708558    848.15614  0.017812419  0.016841068           16 
 3969000   0.62441945   -7.6526168    847.83579  0.017801205  0.016835886           22 
 3970000    0.6004616   -7.6609337    846.31959  0.017764895  0.016830697           14 
 3971000   0.61384812   -7.6456619    848.88106  0.017814175  0.016825514            8 
 3972000   0.61703081   -7.6539432     847.1335  0.017773026  0.016820334            9 
 3973000   0.61285189   -7.6598841    848.98862  0.017807463  0.016815155           13 
 3974000   0.61728674   -7.6487498    848.16074  0.017785622  0.016809982           11 
 3975000   0.61337571   -7.6671165    847.62252  0.017769864  0.016804803           19 
 3976000   0.62141138   -7.6409257    848.21541  0.017777821   0.01679963           13 
 3977000    0.6246555   -7.6667812    847.79654  0.017764574   0.01679446           12 
 3978000   0.61588967   -7.6498896    847.36709  0.017751112  0.016789285           19 
 3979000   0.61209539   -7.6562504    845.95974  0.017717176  0.016784111           13 
 3980000   0.60495359   -7.6454836    846.96702  0.017733815  0.016778942           12 
 3981000   0.61060506   -7.6585921    848.99261  0.017771762  0.016773778           18 
 3982000   0.61060239   -7.6646665     848.7728  0.017762699  0.016768614           15 
 3983000   0.60371364    -7.660763    848.19475  0.017746145  0.016763449           12 
 3984000   0.60914525   -7.6670234    846.32821  0.017702648  0.016758256           10 
 3985000   0.61882624    -7.688143    845.95117  0.017690321  0.016753071           23 
 3986000   0.62065302   -7.6672198    846.88312  0.017705367  0.016747888           14 
 3987000   0.61320121   -7.6701109    845.81873  0.017678679  0.016742717           16 
 3988000   0.61269801   -7.6710584    847.62658  0.017712023  0.016737549           13 
 3989000   0.60830089   -7.6601288    845.41823  0.017661449  0.016732383           11 
 3990000   0.61659341   -7.6515089    847.21017  0.017694448  0.016727226           19 
 3991000   0.61309534   -7.6551406    848.62298  0.017719514  0.016722067           13 
 3992000   0.60859428   -7.6604405    846.10862  0.017662588  0.016716915           15 
 3993000   0.61622945   -7.6553089     848.4526  0.017707083   0.01671177           15 
 3994000   0.63074293   -7.6664391    846.50169  0.017661945  0.016706616           13 
 3995000   0.61333217   -7.6680881    847.57043  0.017679817  0.016701458            6 
 3996000   0.60584488   -7.6705922    848.12822  0.017687025  0.016696301           17 
 3997000   0.61430292   -7.6598685    847.11721  0.017661521  0.016691145           12 
 3998000   0.61156738   -7.6597039    847.73069  0.017669891  0.016685986           20 
 3999000   0.60785491   -7.6894653    848.00821  0.017671255  0.016680842           30 
 4000000   0.60362549    -7.659633    847.21914  0.017650399   0.01667569           13 
 4001000   0.61731093   -7.6879006    846.24143  0.017625623  0.016670539           10 
 4002000   0.61424787   -7.6737076    847.36918  0.017644702  0.016665389           18 
 4003000   0.59756951   -7.6740202    846.31111  0.017618268  0.016660234           15 
 4004000   0.61011584   -7.6602608    847.83837  0.017645654   0.01665508           15 
 4005000   0.60338435   -7.6898471    847.39389  0.017631999  0.016649939           22 
 4006000   0.59987194   -7.6967134     848.8128  0.017657114  0.016644789           18 
 4007000     0.611025   -7.6643262     846.2867  0.017600173  0.016639647           12 
 4008000   0.60040483   -7.6874736    846.71166  0.017604617    0.0166345           12 
 4009000   0.62298499   -7.6892118     846.3775   0.01759328  0.016629362           15 
 4010000   0.61597202   -7.6962585    846.81857  0.017598058  0.016624213           25 
 4011000   0.61246116    -7.704221    846.57319  0.017588573  0.016619063           12 
 4012000     0.606683   -7.6452351    846.35838  0.017579727  0.016613916           19 
 4013000   0.60399727   -7.6739636    848.40729  0.017617894  0.016608774           15 
 4014000   0.61259429   -7.6643438    845.86642  0.017560755  0.016603644           18 
 4015000   0.61336348   -7.6664729    846.59221  0.017571445  0.016598522           27 
 4016000   0.61908781   -7.6595667     848.8943  0.017614839  0.016593406           19 
 4017000   0.61836575   -7.6644319     847.6894  0.017585458  0.016588286           22 
 4018000   0.61084766    -7.663283    848.02924  0.017588129  0.016583164           14 
 4019000   0.61217161   -7.6929019     848.0979  0.017585177  0.016578038           28 
 4020000   0.59975086   -7.6745177    845.95012  0.017536279  0.016572914           12 
 4021000   0.61409896   -7.6991423    847.17585  0.017557321  0.016567782           16 
 4022000   0.61940783   -7.6668308    846.16859  0.017532086  0.016562657           16 
 4023000   0.60638011   -7.6968318    846.01149  0.017524474  0.016557533           18 
 4024000   0.60865957   -7.6662051    846.88204  0.017538147  0.016552413           21 
 4025000   0.61571736   -7.6907101     847.3879  0.017544263  0.016547291           18 
 4026000    0.6144549   -7.6711715    848.27496  0.017558266  0.016542178           25 
 4027000   0.60989791   -7.6975862    846.98731   0.01752726   0.01653706           22 
 4028000   0.59444214   -7.6823976    847.47336  0.017532964  0.016531937           18 
 4029000   0.59962033   -7.6865131    846.33261  0.017505018  0.016526819           17 
 4030000   0.60036308   -7.6766568    847.29097  0.017520492  0.016521699            9 
 4031000   0.61063185   -7.6820963    847.02925  0.017510735  0.016516588           23 
 4032000   0.61199847   -7.6803849    847.43037  0.017514682  0.016511474           14 
 4033000   0.61549353   -7.6892945    846.52222  0.017491574  0.016506361           18 
 4034000   0.61274214   -7.6876925    848.39155  0.017525854  0.016501257           18 
 4035000   0.60083111   -7.6697565    847.75606  0.017508386  0.016496158           22 
 4036000   0.61142134   -7.6710102    846.56547  0.017479465  0.016491052           15 
 4037000   0.61561149   -7.6694693    847.21716  0.017488588   0.01648595           14 
 4038000   0.60947485   -7.6774243    845.90625  0.017457203   0.01648086           10 
 4039000    0.6185543   -7.6769422    846.62746  0.017467761  0.016475769           29 
 4040000   0.60787378   -7.6741619    849.39319  0.017520487  0.016470679           12 
 4041000   0.61259246   -7.6598691    847.70388  0.017481314  0.016465586           15 
 4042000   0.61655101   -7.6702485    846.73797  0.017457075  0.016460496            7 
 4043000   0.60493036   -7.6773802    847.78077  0.017474251  0.016455413            8 
 4044000   0.62922457   -7.6771009    847.41111  0.017462313   0.01645034           19 
 4045000   0.61802851   -7.6743849    847.80716  0.017466155  0.016445262           15 
 4046000   0.60145798   -7.6766826    848.63827  0.017478956  0.016440197           17 
 4047000    0.6128503   -7.6632878    848.26549  0.017466961  0.016435122           10 
 4048000   0.60310881    -7.676032    846.04753  0.017416986  0.016430047           15 
 4049000   0.59874511   -7.6762314    846.27661    0.0174174  0.016424967           14 
 4050000    0.5958989   -7.6679425    846.81294  0.017424134  0.016419891           11 
 4051000    0.6060371   -7.6776873    847.50191  0.017434006  0.016414825            9 
 4052000   0.59395038   -7.6683834    848.15605  0.017443157  0.016409754           12 
 4053000   0.62030899   -7.6907738    847.45897   0.01742452  0.016404685            9 
 4054000   0.61076498    -7.675478    846.63923  0.017403372  0.016399615           11 
 4055000   0.59285432   -7.6975049    847.26921  0.017412026  0.016394547           21 
 4056000   0.59668852   -7.6867402    847.78642   0.01741836  0.016389474           21 
 4057000   0.60473065   -7.6794776    846.16024  0.017380664  0.016384407           10 
 4058000   0.58281619   -7.6860256    846.04812  0.017374078  0.016379339           14 
 4059000   0.60844777   -7.6799691    846.68788  0.017382933  0.016374273           19 
 4060000   0.59798168    -7.682388    847.08373  0.017386776  0.016369208           19 
 4061000   0.61537113    -7.666519    847.07099  0.017382233  0.016364147           10 
 4062000   0.60454576    -7.685661     846.6765  0.017369861  0.016359092           16 
 4063000   0.60286747   -7.6802106    846.78772  0.017367867  0.016354035           29 
 4064000    0.5966449   -7.6782178     846.2853  0.017353291  0.016348979           18 
 4065000    0.5917896   -7.6879472    847.18744  0.017367516  0.016343934           17 
 4066000   0.60955216   -7.6558153    847.09695   0.01736139  0.016338881           12 
 4067000   0.60368717   -7.6674918    847.41931  0.017363727  0.016333832           15 
 4068000   0.59783021   -7.6770874    846.10697  0.017332575  0.016328779           11 
 4069000   0.60363995   -7.6648658    846.69585  0.017340375   0.01632373           12 
 4070000   0.60571756   -7.6845082    846.47591  0.017331612  0.016318679           17 
 4071000   0.59152816   -7.6892797    847.73607   0.01735315  0.016313619           10 
 4072000   0.58796039   -7.7011057    845.49293  0.017302982  0.016308573            8 
 4073000   0.59356267   -7.6985144    846.46115  0.017318544  0.016303523           13 
 4074000    0.6031336   -7.6997532    847.09149  0.017327186  0.016298478           33 
 4075000   0.59563348    -7.678806    848.47049  0.017351135  0.016293457           13 
 4076000   0.59964115   -7.6953178    848.63435  0.017350228  0.016288425            9 
 4077000   0.60887384   -7.6887323    848.04852  0.017333998  0.016283389           22 
 4078000   0.60619846   -7.6948645    848.88113  0.017346762  0.016278356            9 
 4079000   0.59206302   -7.6975558    847.48143  0.017313913  0.016273318           12 
 4080000    0.5910654   -7.6813611    846.92454  0.017298295  0.016268284           11 
 4081000   0.58583666   -7.6748072    847.17599  0.017299191  0.016263248           14 
 4082000   0.60087802   -7.7019135    847.54258  0.017302437  0.016258212            9 
 4083000   0.59951178   -7.7063738    847.95383  0.017306593  0.016253179           11 
 4084000   0.59900149   -7.6902414    848.19877  0.017307353  0.016248149           23 
 4085000   0.60062256   -7.7097152     847.0891  0.017280479  0.016243121            7 
 4086000   0.61236879    -7.692607     846.6963  0.017268239  0.016238086           13 
 4087000   0.58443692   -7.6968417    847.17124  0.017273698  0.016233057            7 
 4088000   0.60267381   -7.6983287    847.80708  0.017282434  0.016228022           10 
 4089000   0.59806985   -7.7167098    845.87921  0.017238918  0.016222993            8 
 4090000   0.59153945   -7.7010412    849.38026  0.017306036  0.016217958           14 
 4091000   0.59793231   -7.6980066    846.23759   0.01723779  0.016212917           14 
 4092000   0.59836737   -7.6878764     846.2017  0.017232847  0.016207886           11 
 4093000   0.60119297   -7.7095732    843.72251   0.01717816   0.01620285           22 
 4094000   0.59946953   -7.6897283     847.2262  0.017245282  0.016197817           17 
 4095000   0.59586721   -7.6997364    847.00865  0.017236643   0.01619279           13 
 4096000   0.60855339   -7.7156295    847.87767  0.017250115  0.016187768            9 
 4097000   0.58812887   -7.7092249    847.65291  0.017241333  0.016182747           15 
 4098000   0.59028465   -7.6843179    846.88136  0.017221436  0.016177731           13 
 4099000   0.58179006   -7.6974602    849.66702  0.017273868  0.016172725           10 
 4100000   0.59425705   -7.7248962    845.88974  0.017192881  0.016167716           24 
 4101000   0.59097954   -7.7166255    846.15226  0.017194023  0.016162704           18 
 4102000   0.58680555   -7.7304476    846.43178   0.01719551  0.016157691           10 
 4103000   0.59748778   -7.6828091    846.99882  0.017202836  0.016152677            9 
 4104000   0.59490772   -7.6826117    845.80163  0.017174335  0.016147668            6 
 4105000   0.60090469   -7.7155321    847.25214  0.017199597  0.016142658           15 
 4106000   0.59389737   -7.6919254    847.21001  0.017194553  0.016137656            7 
 4107000   0.61520073   -7.7159581    847.88098  0.017203981   0.01613266           13 
 4108000    0.5920318   -7.7117518    848.33738  0.017209051  0.016127659           17 
 4109000   0.59943577   -7.7219735    847.28966  0.017183614  0.016122667           15 
 4110000    0.6021809   -7.7059282    846.53623  0.017164157  0.016117672            9 
 4111000   0.58835052   -7.7134468    848.09805  0.017191641  0.016112672            9 
 4112000   0.59527951   -7.6870583    846.95889  0.017164374  0.016107681           21 
 4113000   0.58920161   -7.6932827    848.14449  0.017184223   0.01610269           14 
 4114000   0.58618433   -7.7021902    847.43438  0.017165662  0.016097711            7 
 4115000   0.59826963   -7.7211281    846.56881  0.017143961  0.016092722           17 
 4116000   0.58460899   -7.7333378    847.06246  0.017149791  0.016087739            9 
 4117000   0.58593843   -7.6885466    846.79405  0.017140192  0.016082746           10 
 4118000   0.59911206   -7.7298056    845.27199  0.017105229  0.016077749            7 
 4119000   0.59946256   -7.7092288    847.43393  0.017144815  0.016072752            8 
 4120000   0.58168649   -7.7116826    846.48842   0.01712153  0.016067766           12 
 4121000   0.60171654   -7.7022928     845.8801  0.017105074  0.016062782           10 
 4122000   0.58455524   -7.7094132    848.65541  0.017157032  0.016057801            8 
 4123000    0.5889634    -7.683683    847.92728  0.017138153  0.016052815            8 
 4124000   0.60129924   -7.7181613    847.27495  0.017120816  0.016047829            6 
 4125000   0.58779745   -7.7022439    845.48099  0.017080424  0.016042851            7 
 4126000   0.57589802   -7.7094753    845.83018  0.017083337  0.016037872            6 
 4127000   0.59817367   -7.7014152    846.99655  0.017102749  0.016032896           10 
 4128000   0.58800036   -7.7266488    845.43069  0.017066995   0.01602792            5 
 4129000   0.59711035    -7.722662    847.04517  0.017095446   0.01602294           11 
 4130000   0.59359405   -7.6986822    847.40437  0.017098555  0.016017974           11 
 4131000   0.59051083   -7.7013446     847.3906  0.017094138  0.016013003            8 
 4132000   0.59484788   -7.6968626    847.41789  0.017090551  0.016008045           12 
 4133000   0.59650991   -7.7004878    846.45485  0.017066998  0.016003093           10 
 4134000   0.57790739   -7.7119396     846.7238  0.017068291  0.015998132            9 
 4135000   0.58073271   -7.7031467     845.8442  0.017046437  0.015993173           10 
 4136000   0.58225756   -7.7277252     846.5461  0.017056458  0.015988214           10 
 4137000   0.58442267   -7.7178837    847.20641  0.017065636  0.015983266           24 
 4138000   0.58691198   -7.7141639     847.4576   0.01706657   0.01597832           15 
 4139000   0.58296273   -7.7129382    846.98762  0.017052984   0.01597337            9 
 4140000    0.5985474   -7.6954562    847.48163  0.017058809  0.015968428           15 
 4141000   0.59785427   -7.7142239    847.21447  0.017049313  0.015963489           14 
 4142000   0.58855116   -7.7100943    847.78733  0.017056722  0.015958551           11 
 4143000   0.58462569   -7.6992712    847.53185  0.017047467  0.015953614           16 
 4144000    0.5935871   -7.7016626    846.49801  0.017022563  0.015948664           22 
 4145000   0.57955285   -7.7158836    847.02354  0.017029022   0.01594372           18 
 4146000   0.59321353   -7.6964938    845.95292  0.017003395  0.015938772           19 
 4147000   0.58388756     -7.71489    846.53045    0.0170109  0.015933825            9 
 4148000   0.59084738   -7.7210715    845.88401  0.016993812  0.015928878           15 
 4149000   0.57941097   -7.7067481    845.34072  0.016978805  0.015923934            8 
 4150000     0.579888    -7.706992    847.00418  0.017008116  0.015918985           15 
 4151000   0.58594193   -7.7239234    847.07736  0.017005488  0.015914047           26 
 4152000   0.58904671    -7.709833    845.64469  0.016972638  0.015909103            9 
 4153000   0.57601319   -7.7067282    844.83387  0.016952281   0.01590416           22 
 4154000   0.58165424   -7.7055257    846.25263  0.016976662  0.015899223           16 
 4155000   0.57773768   -7.7237785    847.88142  0.017005243   0.01589429           16 
 4156000   0.57658715   -7.7172667    846.15041  0.016966442  0.015889361           14 
 4157000   0.59888066   -7.7084269    847.49485  0.016989312  0.015884432           31 
 4158000   0.58130215   -7.7264041     847.2906  0.016981133  0.015879511           11 
 4159000   0.58271775   -7.7083122    846.24444  0.016956088  0.015874591           11 
 4160000   0.58547789   -7.7113101    846.64161  0.016959968  0.015869666           21 
 4161000   0.58620505   -7.7019135    845.06059  0.016924229  0.015864738            9 
 4162000   0.59049924   -7.6921247    846.64063  0.016951799  0.015859822           18 
 4163000   0.57649134   -7.7237619    845.96894  0.016934281  0.015854898           12 
 4164000    0.5943355   -7.7004654     846.0087   0.01693101   0.01584998           16 
 4165000   0.58458228   -7.7367077    846.75205  0.016941818  0.015845065           18 
 4166000    0.5801947    -7.700503    845.76605  0.016918028  0.015840159           22 
 4167000     0.590598   -7.7131975    846.87487  0.016936142  0.015835246            9 
 4168000   0.58049098    -7.694325    846.44878   0.01692356  0.015830332           10 
 4169000   0.58539499   -7.7141148    845.85548  0.016907641  0.015825422           18 
 4170000   0.59692559   -7.7250947    845.02821  0.016887054  0.015820516           15 
 4171000   0.56977286   -7.7243009    846.20282  0.016906474  0.015815603           20 
 4172000   0.59135111   -7.7416395    847.64388  0.016931206  0.015810692           25 
 4173000   0.59061721    -7.732465    846.50361  0.016904377  0.015805782           15 
 4174000   0.58407908   -7.7316316    846.29278  0.016896118  0.015800876            8 
 4175000   0.58524837   -7.7358887     847.6441  0.016919044  0.015795965           18 
 4176000   0.58284062   -7.7264919    846.19602  0.016886096  0.015791062           13 
 4177000   0.58323918   -7.7051542    846.47276  0.016887574   0.01578616           18 
 4178000   0.57833709   -7.7198144    845.99064  0.016873916   0.01578126           17 
 4179000   0.57240573   -7.7147363    847.62457   0.01690246  0.015776367           18 
 4180000    0.5854975   -7.7306037    846.21113  0.016870238  0.015771472           21 
 4181000   0.58192658   -7.7147452    846.00316  0.016862058  0.015766576           19 
 4182000   0.58278466   -7.6995185     848.2558  0.016902913  0.015761684           14 
 4183000   0.57933004   -7.7368827    845.77021  0.016849355  0.015756791           15 
 4184000   0.58340131   -7.7250458    845.90194  0.016847951  0.015751889           35 
 4185000   0.58866593   -7.7291253     845.4199  0.016834327  0.015746997           23 
 4186000   0.58052326   -7.7306685    847.04614   0.01686268  0.015742108           30 
 4187000    0.5863022   -7.7040972    845.55856  0.016829046  0.015737215           20 
 4188000   0.58585021   -7.7259195    847.59901  0.016865628  0.015732323           13 
 4189000    0.5781825   -7.7409462    846.44668  0.016838678   0.01572744           11 
 4190000   0.57030508   -7.7198058    845.66549  0.016819123  0.015722555           12 
 4191000   0.57503983   -7.7334375    845.52791  0.016812374  0.015717667           15 
 4192000   0.56939486   -7.7261718    846.47607  0.016827212  0.015712771           16 
 4193000   0.57471935   -7.7258968    846.50942  0.016823862  0.015707876           15 
 4194000   0.58081047   -7.7199911    846.70063  0.016823649  0.015702994           19 
 4195000   0.58235121   -7.7287178     845.0921  0.016787686  0.015698105           14 
 4196000   0.58683776   -7.6989386    846.06572  0.016803021  0.015693221           10 
 4197000   0.57995045     -7.74483    845.87904  0.016795311  0.015688342           18 
 4198000   0.60039054   -7.7357208    845.88431  0.016791415   0.01568346           12 
 4199000   0.57551038    -7.718371    847.51197  0.016819718  0.015678582           11 
 4200000   0.57765421   -7.7413997     846.1365  0.016788423  0.015673709           21 
 4201000   0.57742392   -7.7335652     846.2921  0.016787513  0.015668825           12 
 4202000   0.58844381   -7.7352503    846.52045  0.016788046  0.015663949           15 
 4203000   0.57521093   -7.7146985    845.67986  0.016767386  0.015659083           17 
 4204000   0.58057858    -7.734122    845.76863  0.016765157  0.015654221            9 
 4205000   0.57027958   -7.7188195     845.3232  0.016752342  0.015649365           14 
 4206000   0.58880445   -7.7374367    846.42931  0.016770275  0.015644502           10 
 4207000   0.57438114   -7.7270795    846.70506  0.016771751  0.015639639           12 
 4208000   0.58860239   -7.7068593    847.96048  0.016792627  0.015634788           22 
 4209000   0.57592681   -7.7220236    846.09361  0.016751675   0.01562994           13 
 4210000   0.58086934   -7.7280444    845.67243  0.016739359  0.015625094            5 
 4211000   0.58233831   -7.7457575    846.97744   0.01676121  0.015620251           15 
 4212000   0.58442406   -7.7284928     846.9178   0.01675605  0.015615409           13 
 4213000    0.5771309   -7.7169563    845.29443  0.016719963  0.015610559           17 
 4214000    0.5745753   -7.7235537    846.83045   0.01674637  0.015605705           12 
 4215000   0.58216269   -7.7284718    847.14114   0.01674854  0.015600853            5 
 4216000   0.58659576   -7.7367968    846.59486  0.016733769  0.015596016            8 
 4217000    0.5792091   -7.7169417    845.49051  0.016707978  0.015591173           17 
 4218000   0.57543281   -7.7475139    846.76616  0.016729219  0.015586331           16 
 4219000    0.5639046   -7.7465051    846.08736  0.016711846   0.01558149            8 
 4220000   0.57839614   -7.7357628    846.35174  0.016713107  0.015576655           12 
 4221000   0.57777075   -7.7223948    846.77081  0.016717421  0.015571821           19 
 4222000   0.57379921   -7.7145307    846.37218  0.016705593   0.01556699           14 
 4223000   0.57149371   -7.7311656    847.32397  0.016720419  0.015562159           10 
 4224000    0.5751239   -7.7208738    846.91396  0.016708372  0.015557324           13 
 4225000   0.58658262   -7.7270102    847.00145  0.016706143  0.015552495           18 
 4226000    0.5748565    -7.737698    845.88074   0.01668009  0.015547668           12 
 4227000   0.57439915    -7.725142    844.74813  0.016653815  0.015542833           11 
 4228000   0.57984559   -7.7326349    845.27422  0.016660246  0.015538002           15 
 4229000   0.58478985   -7.7542975    845.70826  0.016664859  0.015533175           10 
 4230000   0.56552774   -7.7320225    847.53675  0.016696941  0.015528352           10 
 4231000   0.57603917   -7.7516626    846.46534  0.016671893   0.01552354           14 
 4232000   0.57327253   -7.7248675    846.13481  0.016661445  0.015518722            7 
 4233000   0.58111141   -7.7479342    845.29068  0.016640891  0.015513907           11 
 4234000   0.57540905   -7.7340508    846.93669  0.016669357   0.01550909            8 
 4235000   0.56736936   -7.7296672    846.40961  0.016655049  0.015504279           16 
 4236000   0.57198695   -7.7419712    845.78774  0.016638884  0.015499466           13 
 4237000   0.57083213   -7.7597461    847.52967  0.016669217  0.015494655           10 
 4238000   0.56953227   -7.7364319     846.8128  0.016651188  0.015489841            9 
 4239000   0.56486174   -7.7356533    847.03809  0.016651689  0.015485029           14 
 4240000   0.56155374   -7.7473594    845.32291  0.016614051  0.015480221           18 
 4241000   0.58073279   -7.7280404    845.61452  0.016615863   0.01547541           15 
 4242000   0.58115456    -7.750962     845.5419   0.01661052  0.015470611           22 
 4243000    0.5813594   -7.7503738    846.85984   0.01663249  0.015465806           20 
 4244000   0.57326969   -7.7476748    845.79165  0.016607596  0.015461001           10 
 4245000    0.5761646   -7.7686433    846.18259  0.016611358  0.015456198           19 
 4246000   0.57712287   -7.7428105     845.7149  0.016598267  0.015451393           11 
 4247000   0.57396392    -7.743073      846.376  0.016607331   0.01544659            7 
 4248000   0.58202509   -7.7471815    846.47545  0.016605372  0.015441786           15 
 4249000   0.57227088   -7.7473639    847.21036  0.016615877  0.015436986           15 
 4250000   0.58035473   -7.7456436     846.3155  0.016594422  0.015432189            9 
 4251000   0.56911897   -7.7689793    846.24115  0.016589061  0.015427388           10 
 4252000   0.58396757   -7.7529674    844.80347  0.016556982  0.015422589            8 
 4253000   0.57892952   -7.7393699    846.96331  0.016595409  0.015417787            5 
 4254000   0.57624906    -7.750092    847.17823  0.016595718   0.01541299           10 
 4255000    0.5796855   -7.7654845    845.89769  0.016566739  0.015408191            9 
 4256000   0.56421358   -7.7665628    845.55932  0.016556221  0.015403397           10 
 4257000   0.56891202   -7.7589379    846.79918  0.016576603  0.015398597            9 
 4258000   0.56385095   -7.7643468    846.61791  0.016569162  0.015393808           12 
 4259000   0.57326779   -7.7364911    846.80305  0.016568894  0.015389019           17 
 4260000   0.57733553   -7.7332957    844.63329   0.01652256  0.015384234           21 
 4261000   0.56924881    -7.737433    847.20812  0.016569039  0.015379449           20 
 4262000   0.57069533   -7.7436245    845.80434  0.016537704  0.015374672           17 
 4263000   0.56425505    -7.718659    846.43522  0.016546157  0.015369894           12 
 4264000   0.56537437   -7.7414211    846.33473  0.016540313  0.015365116           15 
 4265000   0.57687878   -7.7325402    845.25953  0.016515426  0.015360339           13 
 4266000    0.5613962   -7.7657515    843.87874  0.016484582  0.015355564           10 
 4267000   0.57544336    -7.750265    845.01205  0.016502852  0.015350782           10 
 4268000   0.55871651   -7.7567507    845.74015  0.016513202  0.015346005            9 
 4269000   0.55860365   -7.7477319    846.87913  0.016531567  0.015341226           11 
 4270000   0.57656178    -7.740569    845.61587  0.016503042  0.015336453           12 
 4271000   0.57031711   -7.7455548    846.30367  0.016512598  0.015331676            8 
 4272000    0.5732477   -7.7476345     845.8216  0.016499329  0.015326902           14 
 4273000   0.57166357   -7.7688552    845.36881  0.016486637  0.015322137           13 
 4274000   0.56835947   -7.7557533    846.40494  0.016502982  0.015317371           12 
 4275000   0.56809691   -7.7318185    843.89868  0.016450267  0.015312602           11 
 4276000   0.55235345   -7.7552749     843.8099  0.016444689   0.01530784           13 
 4277000   0.56350227   -7.7590469     845.4227  0.016472268  0.015303072           10 
 4278000   0.57256082   -7.7556953    846.91434  0.016497474  0.015298307            8 
 4279000   0.57636412   -7.7474028    846.25434  0.016480765  0.015293544           22 
 4280000    0.5753669   -7.7574491    845.13326  0.016455087  0.015288787           10 
 4281000   0.57022453   -7.7547712    845.96889  0.016467509  0.015284019            8 
 4282000   0.55904216   -7.7650326    846.43724  0.016472778  0.015279252           30 
 4283000   0.56970831   -7.7531485    843.80879  0.016417791  0.015274489           26 
 4284000   0.56399875   -7.7669647    844.93858  0.016435936  0.015269725           28 
 4285000    0.5788147   -7.7827245    845.44843  0.016442015  0.015264964           16 
 4286000   0.57620251   -7.7737111    844.78506  0.016425281    0.0152602           19 
 4287000   0.55940561   -7.7592135    844.63447  0.016418523  0.015255434           11 
 4288000     0.568345   -7.7551854    844.04957  0.016403327  0.015250666           10 
 4289000   0.56572819   -7.7653742    844.71464  0.016412424    0.0152459           28 
 4290000   0.56694857   -7.7681271    844.34104  0.016401341  0.015241137           21 
 4291000   0.55346943   -7.7664247     845.7023  0.016423955   0.01523637           26 
 4292000   0.55749048   -7.7326763    846.12431  0.016428322  0.015231615           22 
 4293000   0.56903544   -7.7666139    844.42957  0.016391598  0.015226864           18 
 4294000   0.55850351   -7.7516954    845.72199  0.016412863  0.015222113           15 
 4295000   0.56902633   -7.7642673    845.66344  0.016407905  0.015217351           20 
 4296000   0.56333785   -7.7635907     844.2322  0.016376323  0.015212593           24 
 4297000   0.56478235   -7.7687121    844.16045   0.01637112  0.015207835           19 
 4298000   0.56669149   -7.7777469    844.99359  0.016383465  0.015203089           27 
 4299000   0.56463937   -7.7544104    845.48091    0.0163891  0.015198342           16 
 4300000   0.55501496   -7.7685655    844.87177  0.016373484  0.015193594           19 
 4301000   0.55658212   -7.7831066    845.28397  0.016377664  0.015188847           21 
 4302000   0.56036987   -7.7646842    843.58256  0.016340899    0.0151841           20 
 4303000   0.57108067   -7.7713487    844.31933   0.01635137  0.015179353           17 
 4304000   0.56389185   -7.7781819    844.91152  0.016359037  0.015174612           12 
 4305000   0.56274334   -7.7740007    845.51236  0.016366867  0.015169879           13 
 4306000   0.55551413   -7.7626546    845.14373  0.016355932  0.015165137           14 
 4307000   0.57489933   -7.7815439    844.79634  0.016345413  0.015160396           13 
 4308000   0.55552101   -7.7618213    844.91796  0.016343972  0.015155662           15 
 4309000   0.55684282   -7.7684266    845.55991  0.016352594  0.015150925           12 
 4310000   0.57784918   -7.7612926    845.07508  0.016339425  0.015146199           15 
 4311000   0.56067189   -7.7689528      844.616  0.016326761  0.015141463           24 
 4312000   0.55922734   -7.7594247    844.98951  0.016330193  0.015136735           22 
 4313000    0.5767736   -7.7684168    845.38218  0.016333994  0.015132008           17 
 4314000    0.5582863    -7.761216    845.33981  0.016329389  0.015127284           21 
 4315000    0.5581146   -7.7683433    842.22923  0.016265532   0.01512256           12 
 4316000   0.56082109   -7.7619815    844.84769   0.01631232  0.015117835           11 
 4317000   0.56531039   -7.7655473    845.90917  0.016329032  0.015113111           18 
 4318000   0.55038911    -7.755947    843.22462  0.016273441   0.01510839           19 
 4319000   0.56113172   -7.7449827    844.63022  0.016296794  0.015103669           16 
 4320000   0.56291798    -7.773306    845.06366  0.016301382   0.01509895           10 
 4321000   0.55365827   -7.7719062    843.88408  0.016274861  0.015094236           22 
 4322000   0.56506166   -7.7670435    843.64176  0.016266423   0.01508952           11 
 4323000   0.56076212   -7.7776031    845.65617  0.016301491  0.015084812           20 
 4324000   0.55916917   -7.7573599    844.88647  0.016282888  0.015080095           16 
 4325000   0.57146177   -7.7745252    844.57465  0.016273115  0.015075388           30 
 4326000   0.56649311   -7.7822203    845.34517  0.016284196  0.015070688           14 
 4327000   0.57099003    -7.760273    845.63261  0.016285968  0.015065984           16 
 4328000   0.56843839   -7.7744116    843.22075  0.016235766  0.015061284            8 
 4329000   0.57037209   -7.7742444    844.92928  0.016264905   0.01505658           13 
 4330000   0.56284079   -7.7663498    845.66293  0.016275268   0.01505188           16 
 4331000   0.56427942   -7.7696384    845.22554  0.016263094  0.015047177           12 
 4332000   0.55711158   -7.7641027    844.35787  0.016242649  0.015042477           18 
 4333000   0.56369345   -7.7684603    845.00697  0.016251384  0.015037773           12 
 4334000    0.5664559   -7.7650426    844.30567   0.01623415  0.015033072           11 
 4335000    0.5680868   -7.7839659     843.8954  0.016222518  0.015028377           12 
 4336000   0.55680673   -7.7668793    843.17777  0.016204985  0.015023684           13 
 4337000   0.55797932   -7.7815838    846.32887  0.016261795  0.015018987           10 
 4338000   0.56360341    -7.787774     845.1741  0.016235863  0.015014295           11 
 4339000   0.56997616   -7.7861277     845.4799  0.016237994  0.015009605           17 
 4340000   0.56326502    -7.779269    844.12911  0.016208316  0.015004914            9 
 4341000   0.55871134    -7.771025     843.7504  0.016197312  0.015000225           11 
 4342000   0.55931131   -7.7924313     844.2723  0.016203599  0.014995538           18 
 4343000   0.55114433   -7.7659375    846.35115  0.016239757  0.014990859           12 
 4344000   0.55269802   -7.7786006    845.27889  0.016215448  0.014986176           18 
 4345000   0.56211536   -7.7634415     842.6168   0.01616066  0.014981487           12 
 4346000   0.56240058   -7.7665961    845.25133  0.016207458  0.014976809            9 
 4347000   0.55478693   -7.7767919    843.41161  0.016168461  0.014972129           24 
 4348000   0.56043249   -7.7758688    844.01258  0.016176261  0.014967446           24 
 4349000   0.56330757   -7.7813416    845.11818  0.016193726  0.014962769           11 
 4350000   0.54019581   -7.7739641    845.71847  0.016201503  0.014958095           11 
 4351000   0.55089186   -7.7761711    842.86888  0.016143202  0.014953419           12 
 4352000   0.55934542   -7.7765233    845.06429  0.016181531   0.01494875           17 
 4353000   0.58373741   -7.8025416    844.64988  0.016169881  0.014944085           19 
 4354000     0.545424   -7.7800237    844.19402  0.016157442  0.014939426           27 
 4355000   0.56844497   -7.7754202     845.7381  0.016183278  0.014934766           18 
 4356000   0.56547107   -7.7947163    845.09323  0.016167226  0.014930103           20 
 4357000   0.54902593   -7.7752619    844.59138  0.016153917  0.014925439           20 
 4358000   0.56579989   -7.7966359    844.84739  0.016155105  0.014920786           10 
 4359000   0.54185916   -7.7675471    844.39033  0.016142661  0.014916129           16 
 4360000   0.54504736   -7.7791234    844.42447  0.016139611  0.014911477           16 
 4361000   0.54616688   -7.7872478    846.36145  0.016172924  0.014906818           12 
 4362000   0.54651107    -7.782151    843.67371  0.016117869  0.014902167           16 
 4363000   0.55684057   -7.7826186     844.6955   0.01613369  0.014897507           20 
 4364000    0.5521198   -7.7821484    844.04937  0.016117655  0.014892856           19 
 4365000   0.56370481   -7.7765217    843.89758  0.016111065  0.014888207           25 
 4366000   0.55278185   -7.8024596    844.81373  0.016124861  0.014883559           17 
 4367000   0.55201419   -7.7822987    845.08238  0.016126295  0.014878909           32 
 4368000   0.54931116   -7.7751585    845.45874  0.016129784  0.014874265           20 
 4369000   0.54271298   -7.7943044    844.59278  0.016109575  0.014869618           15 
 4370000   0.54615668   -7.7942122     843.3628  0.016082433   0.01486497           38 
 4371000   0.56151396   -7.7939125    844.06108  0.016092067  0.014860326           13 
 4372000   0.55664951   -7.7769457    843.68866  0.016081287  0.014855683            8 
 4373000   0.54902604   -7.7797466    844.05063  0.016084508  0.014851046           23 
 4374000   0.55012135   -7.7915522    843.88616  0.016077697  0.014846414           20 
 4375000   0.55970564   -7.7889894    843.47355  0.016066163   0.01484178           27 
 4376000   0.54406503    -7.781007    843.53845  0.016063727  0.014837145           37 
 4377000   0.55172556   -7.7839134    844.78319  0.016083756  0.014832512           16 
 4378000   0.55243015   -7.7969817    844.27836  0.016070473  0.014827879           19 
 4379000   0.54949552   -7.8032373     843.9216  0.016060014  0.014823245           14 
 4380000   0.54459052    -7.789762    845.13084  0.016079354  0.014818613           22 
 4381000   0.53877816    -7.805414    843.82921  0.016050925  0.014813976           32 
 4382000   0.56267997   -7.7659959    844.95921  0.016068751  0.014809343           20 
 4383000   0.55459048   -7.7822666    843.89586  0.016044868  0.014804715           21 
 4384000    0.5491994    -7.797929    844.79923   0.01605838  0.014800087           22 
 4385000   0.56301074   -7.7927393    844.53104  0.016049621  0.014795459           28 
 4386000   0.54161156   -7.7915405      843.633  0.016028899  0.014790832           25 
 4387000   0.55874081   -7.7945724    842.67924  0.016007128  0.014786206           20 
 4388000   0.56880384   -7.8082911    843.84288  0.016025579  0.014781582           20 
 4389000   0.55149358   -7.8010965    843.69208  0.016019064  0.014776965           16 
 4390000   0.55198309   -7.7976027    842.86056  0.015999631  0.014772347           32 
 4391000    0.5550917    -7.801851    843.78789  0.016013586  0.014767733           23 
 4392000   0.54002619   -7.7870152    844.54655  0.016024335  0.014763121           24 
 4393000   0.54200424   -7.7953389    845.05033  0.016030244  0.014758508           17 
 4394000   0.55540493   -7.8047856    843.04832  0.015988627  0.014753894           20 
 4395000   0.55793303   -7.7978638    843.89129  0.016000973  0.014749284           19 
 4396000   0.53817901   -7.7854699      843.779  0.015995204  0.014744673           19 
 4397000   0.54829508   -7.8149922    842.62218  0.015969642  0.014740057           14 
 4398000   0.55060897   -7.7858351    845.11016  0.016013153  0.014735443           19 
 4399000   0.55483439   -7.7899199    843.94745  0.015987487   0.01473083           20 
 4400000   0.54670816   -7.7828032    842.66642  0.015959591  0.014726218           17 
 4401000   0.54597636   -7.7901605    844.19728  0.015984952  0.014721612           21 
 4402000   0.56094503   -7.7664824    844.34882  0.015984189  0.014717006           15 
 4403000   0.54685878   -7.7856257    843.20942  0.015958994  0.014712406           30 
 4404000   0.53679609   -7.8042682    844.75132  0.015984547  0.014707809           17 
 4405000   0.55765944    -7.804651    843.74688  0.015961916  0.014703204           18 
 4406000   0.54422517   -7.7836885    842.73479  0.015939151  0.014698603           17 
 4407000   0.54378733   -7.7964267    843.85004  0.015956623  0.014694002           13 
 4408000   0.53571855   -7.7908594    843.65545  0.015949324  0.014689404           17 
 4409000   0.55599861   -7.7968958     842.5375  0.015924577  0.014684812           22 
 4410000   0.54223853   -7.7965954    843.30702  0.015935507  0.014680213           27 
 4411000   0.54466514   -7.7950885    843.82982  0.015941771  0.014675621           31 
 4412000   0.54646602   -7.8169435    843.07922   0.01592398  0.014671027           21 
 4413000   0.54630284   -7.8084701     843.2788  0.015924141  0.014666435           15 
 4414000   0.54630236   -7.8093502    842.64698  0.015908605  0.014661846           20 
 4415000   0.54451331    -7.799251    842.61603  0.015904417  0.014657257           28 
 4416000   0.55284531   -7.7915351    844.73407  0.015940785  0.014652676           29 
 4417000   0.55337028    -7.806006    843.20241  0.015908279  0.014648093           22 
 4418000   0.53968966   -7.7978246    844.63755  0.015931748  0.014643512           28 
 4419000   0.55459795    -7.804204    843.07996   0.01589877  0.014638923           23 
 4420000   0.54746734   -7.8094101    844.04045  0.015913281  0.014634337           19 
 4421000   0.54886661   -7.8053816    842.22541   0.01587547  0.014629756           20 
 4422000   0.55294126    -7.807294    842.97905  0.015886082  0.014625178           14 
 4423000    0.5377795   -7.8149979    843.38495  0.015890138  0.014620598           19 
 4424000   0.54517989   -7.8017723    843.89383  0.015896132  0.014616016           24 
 4425000   0.53881427   -7.8165421     844.8169  0.015909923  0.014611438           14 
 4426000   0.54266762   -7.7839167    844.71863  0.015904478  0.014606862           13 
 4427000   0.54033491   -7.8111974    843.77752   0.01588317  0.014602296           17 
 4428000   0.53907606   -7.8089872    844.23216  0.015888139  0.014597725           16 
 4429000   0.54705692   -7.7884045    843.57443  0.015872176  0.014593152           15 
 4430000   0.54662462   -7.7986352    843.25351  0.015862557  0.014588585           18 
 4431000   0.55036326   -7.8252366    843.45575   0.01586278  0.014584019           26 
 4432000   0.54046402    -7.793162    843.60284  0.015861967  0.014579452           15 
 4433000   0.53640722   -7.8221143    843.90023  0.015863979  0.014574884           19 
 4434000   0.54527646   -7.7853225    843.85354  0.015859524  0.014570321           20 
 4435000   0.53506619   -7.8058881    843.61782  0.015851519  0.014565762           33 
 4436000   0.54014824   -7.8067983    843.84961    0.0158523  0.014561206           17 
 4437000   0.54799487   -7.8187977    843.36542  0.015839633   0.01455665           25 
 4438000   0.54324432   -7.8081814    842.18576  0.015813913  0.014552097           22 
 4439000   0.54258066   -7.7890749    842.44547  0.015815226  0.014547545           13 
 4440000   0.54372596   -7.7946342    843.35174  0.015828674  0.014542996           31 
 4441000   0.53818215    -7.783406    842.10765  0.015801765  0.014538447           19 
 4442000   0.54347224   -7.8096243    843.23042  0.015819271  0.014533903           13 
 4443000   0.53771746   -7.8001904    842.93166  0.015810107  0.014529361           21 
 4444000   0.53392054   -7.8092449    841.53084  0.015780281  0.014524817           26 
 4445000   0.55218147   -7.8008071    842.92212  0.015802814  0.014520274           15 
 4446000   0.54135076   -7.8231437    842.45032  0.015790417  0.014515731           40 
 4447000   0.54032232   -7.8055687    843.35698  0.015803856  0.014511192           22 
 4448000    0.5426165   -7.8069462    843.67467  0.015806255  0.014506652           25 
 4449000   0.54332343    -7.794102    842.54362  0.015781517  0.014502118           27 
 4450000   0.53464287   -7.8029599    843.52004  0.015796255  0.014497583           12 
 4451000   0.53192308   -7.7961878    842.99487  0.015782874  0.014493051           18 
 4452000   0.54286487   -7.8047139     842.4446  0.015769029  0.014488514           15 
 4453000   0.54468615   -7.8219391    842.29402   0.01576267  0.014483986           14 
 4454000   0.55259944   -7.8263805    843.85295  0.015788298  0.014479458           25 
 4455000   0.53899841   -7.8010161    843.87186  0.015785108  0.014474934           48 
 4456000   0.53744823   -7.8139743    843.39333  0.015772616  0.014470413           18 
 4457000   0.53843437   -7.8006754    843.49411  0.015770962  0.014465889           27 
 4458000   0.53390908   -7.8026046    844.49999  0.015786227  0.014461372           40 
 4459000   0.53855196   -7.8138678    844.06765  0.015774607  0.014456848           32 
 4460000   0.53496713   -7.8178734    843.05324  0.015752116  0.014452326           23 
 4461000   0.53795856   -7.8148635    843.57677  0.015758365   0.01444781           23 
 4462000   0.52769542   -7.8248662     843.2995  0.015749655  0.014443297           25 
 4463000   0.54338009   -7.8247383    842.91254    0.0157389  0.014438781           20 
 4464000   0.52616918   -7.8024005    842.04821  0.015719239  0.014434264           26 
 4465000   0.53712342   -7.8063042    842.43738  0.015722982  0.014429748           23 
 4466000   0.54289936   -7.8179977    843.50146  0.015739317  0.014425232           32 
 4467000   0.54209453    -7.806418    842.45512  0.015716273  0.014420717           25 
 4468000   0.54570373   -7.8314591    844.17689  0.015744869  0.014416206           37 
 4469000   0.52876602   -7.8148177    841.64714  0.015694174  0.014411699           24 
 4470000   0.53860274   -7.8206805    842.51517  0.015706845  0.014407194           21 
 4471000   0.54249571   -7.8090164    843.79303   0.01572715  0.014402692           22 
 4472000   0.53392835   -7.8041947    844.51232  0.015737036  0.014398192           34 
 4473000   0.55053245   -7.8130284    843.08016  0.015706837  0.014393703           24 
 4474000   0.53286099    -7.824385       844.16  0.015723439  0.014389211           27 
 4475000   0.54523379   -7.8118632    843.48023  0.015707267  0.014384725           20 
 4476000   0.52927251    -7.802063    843.47585  0.015703676  0.014380236           12 
 4477000    0.5300073   -7.8105154     843.0878  0.015692945  0.014375742           18 
 4478000   0.53245254   -7.8090304    843.22283  0.015691954  0.014371244           29 
 4479000   0.53105637   -7.8105628    842.75542  0.015679754  0.014366754           19 
 4480000   0.53150221   -7.8129305    843.53005  0.015690663  0.014362269           14 
 4481000   0.52203763   -7.8284555    844.52518  0.015705668  0.014357781           14 
 4482000   0.53765837   -7.8097087    844.03696  0.015693086  0.014353294           17 
 4483000   0.53814278   -7.8193856    842.32776  0.015657814  0.014348808           15 
 4484000   0.53829651   -7.8272536    843.53663  0.015676788  0.014344328           21 
 4485000   0.53366392   -7.8175966    842.79458  0.015659505  0.014339845           14 
 4486000   0.53503329   -7.8340005    843.59286  0.015670844  0.014335368           30 
 4487000   0.54487302   -7.8158833    842.69341  0.015650646  0.014330886           20 
 4488000   0.53314844   -7.8193977    844.36628  0.015678221  0.014326412           31 
 4489000    0.5290907   -7.8138678    842.81288  0.015645891  0.014321939           27 
 4490000   0.53217369   -7.8149218    843.06223  0.015647035  0.014317468           23 
 4491000   0.54099804   -7.8269694    843.17982  0.015645733  0.014312996           26 
 4492000   0.52948698   -7.8259395    843.68208  0.015651567  0.014308527           18 
 4493000   0.54036496   -7.8244558    841.82055  0.015613557  0.014304057           19 
 4494000   0.53614878   -7.8242949    842.71727  0.015626711  0.014299592           15 
 4495000   0.52970039   -7.8230666    843.58529  0.015639327  0.014295128           15 
 4496000   0.53289594   -7.8222615    843.06342  0.015626175  0.014290658           22 
 4497000   0.53767756   -7.8285468    842.85114  0.015618767  0.014286194           14 
 4498000   0.54147427   -7.8284888    842.62854   0.01561117  0.014281729           26 
 4499000   0.52796703   -7.8206272    841.84516   0.01559319  0.014277264           10 
 4500000    0.5349318   -7.8374898    844.20079  0.015633348    0.0142728           23 
 4501000   0.53644005   -7.8004385    843.66396  0.015619936  0.014268342           15 
 4502000   0.52770326   -7.8195382    841.56203  0.015577559  0.014263878           15 
 4503000   0.54029526   -7.8307907    841.20914  0.015567569  0.014259419           12 
 4504000   0.52268364   -7.8210222    842.43575  0.015586807  0.014254963           20 
 4505000   0.52515266   -7.8084598    842.09621  0.015577066  0.014250503           22 
 4506000   0.53879678   -7.8335834    842.92576  0.015588951  0.014246049           21 
 4507000   0.53201145   -7.8390772    843.51687  0.015596422  0.014241594           23 
 4508000   0.54538939   -7.8389939    841.73513  0.015560025  0.014237144           37 
 4509000   0.53147588   -7.8085412    841.70976  0.015556106  0.014232691           25 
 4510000    0.5350084   -7.8398465    842.59668  0.015569044  0.014228241           45 
 4511000   0.52717484   -7.8331602    841.05431    0.0155371  0.014223795           20 
 4512000   0.53001026   -7.8397336     842.6469  0.015563071  0.014219345           40 
 4513000   0.53776032   -7.8505315    841.19052   0.01553273  0.014214897           27 
 4514000    0.5324584   -7.8514326    842.48061  0.015553105  0.014210451           31 
 4515000   0.54135488   -7.8385353    842.80402   0.01555563  0.014206008           40 
 4516000   0.52793412   -7.8198364    842.01839  0.015537688  0.014201566           31 
 4517000   0.52716623   -7.8443113    844.02682  0.015571301  0.014197129           28 
 4518000   0.52618658   -7.8343165    842.42226  0.015538259  0.014192693           39 
 4519000    0.5259238   -7.8485147    842.39349   0.01553429  0.014188253           21 
 4520000   0.53069841   -7.8323384    842.47843   0.01553242  0.014183822           32 
 4521000   0.53607836   -7.8378419    841.46757  0.015510351   0.01417939           30 
 4522000   0.53087727   -7.8367632    844.70263  0.015566538  0.014174963           45 
 4523000   0.52292897   -7.8490813     842.8815  0.015529544   0.01417054           59 
 4524000   0.53309835   -7.8257527    843.00058  0.015528304  0.014166117           16 
 4525000   0.52445275   -7.8236705    844.02987  0.015543828  0.014161693           20 
 4526000   0.53250666   -7.8125615    840.76245  0.015480234  0.014157267           28 
 4527000   0.53060665   -7.8187621    842.30658  0.015505239   0.01415285           31 
 4528000   0.52211392    -7.831712    842.97828  0.015514176  0.014148431           21 
 4529000   0.52068561   -7.8366653    843.16998  0.015514278  0.014144013           32 
 4530000   0.52712801    -7.834154    842.27423  0.015494375  0.014139602           21 
 4531000     0.538282   -7.8349906    843.48596  0.015513241   0.01413519           23 
 4532000   0.52179916   -7.8397909    842.61846  0.015493867  0.014130782           32 
 4533000   0.53197752   -7.8288919    843.45988  0.015505917  0.014126371           23 
 4534000   0.52937304   -7.8296891    841.76465   0.01547134  0.014121964           25 
 4535000   0.53264682   -7.8217342     842.1113  0.015474298  0.014117558           30 
 4536000   0.53072042   -7.8390524    842.28692  0.015474113  0.014113154           23 
 4537000   0.52938704   -7.8400539    842.21695  0.015469417  0.014108749           45 
 4538000   0.53053854   -7.8279319    842.31366  0.015467784  0.014104348           34 
 4539000   0.52867567   -7.8478084    843.17983  0.015480279  0.014099946           49 
 4540000   0.52589844   -7.8472892    842.29982  0.015460716  0.014095548           47 
 4541000   0.53685911   -7.8307242    842.32142  0.015457708   0.01409115           46 
 4542000   0.53047923   -7.8489614    842.44153  0.015456508  0.014086754           26 
 4543000   0.52479198   -7.8521802    842.21794  0.015449005  0.014082359           44 
 4544000   0.52775075   -7.8094475    843.22818  0.015464132  0.014077968           31 
 4545000   0.52858738   -7.8353409    842.56344  0.015448541  0.014073575           37 
 4546000   0.52459173     -7.84534    842.20918  0.015438649  0.014069183           33 
 4547000   0.51373563   -7.8465099    843.22563  0.015453882  0.014064794           32 
 4548000   0.52284631   -7.8535706    841.15118  0.015412474  0.014060405           32 
 4549000   0.51682717   -7.8362158    843.19374  0.015446504  0.014056019           46 
 4550000   0.52289381   -7.8506389     842.6897  0.015433877  0.014051636           28 
 4551000   0.52087017   -7.8555019    842.08029  0.015419327  0.014047256           40 
 4552000   0.52410599   -7.8263204    843.36307  0.015439423  0.014042876           38 
 4553000    0.5173558   -7.8305445    843.90776  0.015446002  0.014038498           34 
 4554000   0.51775549   -7.8674351    843.42719  0.015433816   0.01403412           32 
 4555000   0.52649993   -7.8234722    842.26988  0.015409255  0.014029741           21 
 4556000    0.5211012   -7.8485005     843.4294  0.015427081  0.014025369           54 
 4557000    0.5150056   -7.8469743    842.56413  0.015407873  0.014020995           29 
 4558000     0.516625   -7.8372642    842.93551  0.015411283  0.014016621           36 
 4559000   0.52780699   -7.8576015    841.83918  0.015387862  0.014012249           29 
 4560000   0.50605635   -7.8265149    842.92217  0.015404279  0.014007881           38 
 4561000   0.52254655   -7.8556034    842.44885  0.015392254  0.014003513           29 
 4562000   0.51171215   -7.8520776    842.61807  0.015391971   0.01399915           26 
 4563000   0.51093809   -7.8249078     843.6503  0.015407449  0.013994788           30 
 4564000    0.5194548   -7.8310008    842.15426  0.015376758  0.013990426           21 
 4565000   0.52312507   -7.8477313    841.92751   0.01536925  0.013986069           31 
 4566000   0.51862426   -7.8480343     843.2595  0.015390194  0.013981709           23 
 4567000   0.51916785   -7.8530167    841.58246  0.015356223  0.013977354           43 
 4568000   0.51900922   -7.8543538    842.69081  0.015373081  0.013973004           63 
 4569000   0.50919337   -7.8319294    842.13001  0.015359488  0.013968647           23 
 4570000   0.50735811   -7.8434025    844.48738  0.015399113  0.013964294           20 
 4571000   0.52815836   -7.8361082     841.9905  0.015350224  0.013959941           12 
 4572000   0.51908174   -7.8636656    842.34004  0.015353238  0.013955592           27 
 4573000   0.52176836   -7.8465993    842.24305  0.015348113  0.013951242           17 
 4574000   0.51967712   -7.8332301    842.32044  0.015346167  0.013946894           28 
 4575000   0.52258775   -7.8543937    842.35881  0.015343512   0.01394255           24 
 4576000    0.5253478   -7.8623074    842.03846  0.015334325  0.013938207           22 
 4577000   0.51876411    -7.850041    841.96998  0.015329728  0.013933861           26 
 4578000   0.52290884   -7.8449732    842.49039  0.015335852  0.013929513           17 
 4579000   0.51945103   -7.8440936    841.52107  0.015314863  0.013925171           22 
 4580000   0.51332267   -7.8600707    842.60013  0.015331152  0.013920835           25 
 4581000   0.51664162   -7.8519808    842.29111  0.015322184    0.0139165           32 
 4582000   0.52501085   -7.8485679    842.18609   0.01531693  0.013912169           32 
 4583000   0.53011561   -7.8658199    843.26978  0.015333293  0.013907836           28 
 4584000   0.52806465   -7.8547867    841.80804  0.015303375  0.013903504           33 
 4585000   0.51840496    -7.848046     842.5931  0.015314306  0.013899169           39 
 4586000   0.51530547   -7.8416476     842.1236  0.015302435   0.01389484           28 
 4587000   0.51191651   -7.8633886    843.66061  0.015327022  0.013890512           45 
 4588000   0.51311666   -7.8326775    842.25638  0.015298176  0.013886186           54 
 4589000   0.51935437   -7.8649865    842.42309   0.01529787  0.013881864           34 
 4590000   0.50704559   -7.8468787    841.53153   0.01527835  0.013877538           55 
 4591000   0.50727029    -7.855165    842.15663  0.015286369  0.013873214           31 
 4592000   0.51408586   -7.8556079    840.80891  0.015258582  0.013868893           20 
 4593000   0.51231066   -7.8565451     841.1212  0.015260926  0.013864574           16 
 4594000   0.51419997   -7.8330464    841.55369  0.015265449  0.013860255           20 
 4595000   0.51950527   -7.8431342    842.54981  0.015280192  0.013855938           22 
 4596000   0.50958827   -7.8357502    841.51356  0.015258079  0.013851623           36 
 4597000    0.5233507   -7.8458582    841.49052  0.015254342  0.013847313           57 
 4598000   0.52474822    -7.863007    841.00102  0.015242153     0.013843           48 
 4599000   0.51131687   -7.8522402    843.19058  0.015278513  0.013838689           28 
 4600000   0.52025158      -7.8683    840.97126  0.015234987  0.013834381           65 
 4601000   0.52041644   -7.8471078    841.83175  0.015247261  0.013830069           52 
 4602000   0.51657939   -7.8542279    842.42159  0.015254628  0.013825758           48 
 4603000   0.51721003   -7.8474324     841.6713  0.015237731  0.013821444           29 
 4604000   0.51308666   -7.8442511    842.51561  0.015249703  0.013817139           31 
 4605000    0.5175421   -7.8442057    840.52407  0.015210352  0.013812833           59 
 4606000   0.50450723   -7.8445883    841.57533   0.01522607  0.013808529           58 
 4607000   0.50496716   -7.8525701     842.6289  0.015241822  0.013804228           22 
 4608000    0.5169864   -7.8508788    841.63438  0.015220529  0.013799929           58 
 4609000   0.50594948    -7.870592    843.61073   0.01525296  0.013795631           42 
 4610000   0.51644484   -7.8557546    842.43989  0.015228487  0.013791336           30 
 4611000   0.51178919   -7.8696465    841.38799  0.015206173  0.013787041           54 
 4612000   0.51480598   -7.8702039    841.12755   0.01519817  0.013782741           36 
 4613000   0.51463439   -7.8585436    842.47217  0.015219166   0.01377845           47 
 4614000   0.51296597   -7.8476717    842.87848  0.015223206  0.013774157           28 
 4615000    0.5133566   -7.8582735    842.26283  0.015208791  0.013769866           55 
 4616000   0.51867316   -7.8553791    841.91978  0.015199303  0.013765579           54 
 4617000    0.5154506   -7.8531175    841.77842  0.015193459  0.013761288           30 
 4618000   0.51728348   -7.8518891    841.36893   0.01518278  0.013757004           25 
 4619000   0.50945989   -7.8623881    841.94005  0.015189797  0.013752717           39 
 4620000   0.50341778   -7.8366487    842.74532  0.015201034   0.01374843           32 
 4621000    0.5212136   -7.8595986     841.4782  0.015174894  0.013744147           29 
 4622000   0.52255365    -7.853914    839.50115  0.015135965  0.013739867           38 
 4623000   0.51758473   -7.8558477    840.47526   0.01515025  0.013735592           18 
 4624000   0.51097204   -7.8641384     841.9259  0.015173117  0.013731321           50 
 4625000   0.49703315   -7.8693838    841.07994  0.015154594  0.013727044           42 
 4626000   0.52704917    -7.854205    840.76749  0.015145689  0.013722772           46 
 4627000   0.50477274   -7.8599833    841.58153  0.015157077  0.013718504           25 
 4628000   0.51416925   -7.8558067    841.84646  0.015158572  0.013714241           66 
 4629000   0.51039121   -7.8588649    841.91068  0.015156453  0.013709973           20 
 4630000    0.5115856   -7.8670496    840.53668   0.01512845  0.013705714           35 
 4631000   0.51072921   -7.8395159    840.44176  0.015123475  0.013701449           80 
 4632000   0.50684349   -7.8637992    842.02149  0.015148631  0.013697188           68 
 4633000   0.51792472   -7.8565412    841.27744  0.015131978  0.013692927           69 
 4634000   0.51584659   -7.8615594    840.66386  0.015117678  0.013688666           40 
 4635000   0.50805553   -7.8544255    841.01358  0.015120704  0.013684408           52 
 4636000   0.52185794   -7.8832221    842.69913  0.015147741  0.013680151           72 
 4637000   0.51688247   -7.8582039    841.83051  0.015128864  0.013675895           50 
 4638000   0.51215116   -7.8716024    842.54347  0.015138412  0.013671642           61 
 4639000   0.50632281   -7.8645771    841.93569  0.015124231  0.013667388           40 
 4640000   0.50569729   -7.8690161    841.71215  0.015116957  0.013663138           23 
 4641000   0.51850602   -7.8513249    840.50608  0.015092043  0.013658887           61 
 4642000   0.51161456    -7.870694     843.3144  0.015139207  0.013654641           66 
 4643000   0.50910712   -7.8706813    841.26107  0.015099093  0.013650394           15 
 4644000   0.50287995   -7.8609222    841.99637  0.015109036  0.013646147           29 
 4645000   0.51467644   -7.8435755    841.40123  0.015095106    0.0136419           24 
 4646000   0.51266994   -7.8727743    840.88962  0.015082681  0.013637656           12 
 4647000   0.51862099   -7.8483976    841.72438  0.015094405  0.013633413           44 
 4648000   0.51226672   -7.8628058     841.1783  0.015081367  0.013629173           44 
 4649000   0.50698635   -7.8689337    841.87526  0.015090616  0.013624933           12 
 4650000   0.50746831   -7.8493117     841.4245  0.015079292   0.01362069           17 
 4651000    0.5138383   -7.8690349    841.41062  0.015075801  0.013616456           22 
 4652000   0.51056791   -7.8607802    842.35681   0.01508951  0.013612218           36 
 4653000   0.49721406   -7.8667532      841.848  0.015077154  0.013607981           26 
 4654000   0.50447777   -7.8604246    840.70742  0.015053492  0.013603747           36 
 4655000   0.51078783   -7.8593429    841.14373  0.015058069  0.013599513           52 
 4656000   0.49923385   -7.8585468    841.95209  0.015069303   0.01359528           42 
 4657000   0.50596756   -7.8641604    839.95089  0.015030257  0.013591049           20 
 4658000   0.51355874   -7.8810979    840.26627  0.015032673  0.013586817           29 
 4659000   0.49971962   -7.8805108    840.93896  0.015041478  0.013582587           15 
 4660000   0.50258859   -7.8759827    841.78518  0.015053383  0.013578358           43 
 4661000   0.50164235     -7.85567    841.64344  0.015047619  0.013574134           38 
 4662000   0.51103725   -7.8613111    841.23625  0.015037113  0.013569914           25 
 4663000   0.50099849   -7.8672079    840.05303  0.015012743   0.01356569           37 
 4664000    0.4998111   -7.8715496    841.68719  0.015038722  0.013561466           31 
 4665000   0.50465809   -7.8860864    841.08554  0.015024751  0.013557242           52 
 4666000   0.50571843   -7.8822285     840.6332  0.015013452  0.013553021           19 
 4667000   0.50802805   -7.8515542    842.75074  0.015048045  0.013548805           23 
 4668000    0.4967394   -7.8862729    840.75331  0.015009164  0.013544594           37 
 4669000   0.50562677   -7.8667105    840.97995  0.015009994  0.013540381           46 
 4670000   0.50848876   -7.8700023    840.84712   0.01500441  0.013536175           53 
 4671000   0.51044367     -7.87081    840.72702  0.014999055  0.013531969           31 
 4672000   0.49978608   -7.8754291    841.27293  0.015005582   0.01352776           41 
 4673000    0.5089164   -7.8601506    840.77919  0.014993566  0.013523552           24 
 4674000   0.50967596   -7.8739233    840.76262  0.014990062  0.013519347           17 
 4675000   0.50019312   -7.8572718    842.02884  0.015009427  0.013515146           48 
 4676000   0.49630907   -7.8553865    839.39561  0.014959289  0.013510944           31 
 4677000   0.50651454   -7.8719715    840.90238  0.014982937  0.013506742           36 
 4678000   0.51253988   -7.8758314    842.45971  0.015007477  0.013502541           43 
 4679000   0.49479189   -7.8840131     840.8273  0.014975196   0.01349834           25 
 4680000   0.50492262   -7.8535453    840.05174  0.014958186  0.013494137           24 
 4681000   0.49823839   -7.8650679    840.97022  0.014971342  0.013489937           47 
 4682000   0.49690458   -7.8779389    840.20251   0.01495448   0.01348574           16 
 4683000   0.50329665   -7.8739576     841.5585  0.014975416  0.013481545           46 
 4684000   0.49747576   -7.8793423    839.89575  0.014942637  0.013477354           17 
 4685000   0.50353178   -7.8715161      840.586  0.014951725  0.013473162           15 
 4686000   0.50644513   -7.8673855    840.93426  0.014954728  0.013468976           17 
 4687000   0.49364042    -7.883958    841.21593  0.014956545  0.013464789           22 
 4688000   0.50816277   -7.8713769     840.0829  0.014933214  0.013460603           15 
 4689000   0.50215067   -7.8680422    840.33691  0.014934544  0.013456415           32 
 4690000   0.49751296   -7.8831386    841.78372  0.014957067  0.013452233           22 
 4691000   0.51155989   -7.8819899    840.68425  0.014934347  0.013448048           12 
 4692000   0.51161218    -7.881857    840.54454  0.014928683  0.013443867           34 
 4693000   0.50636257   -7.8747694    839.52724  0.014907437  0.013439685           31 
 4694000   0.50847257   -7.8801933    840.66949   0.01492454  0.013435507           20 
 4695000   0.49722544   -7.8818524    840.27661  0.014914388  0.013431329           37 
 4696000   0.50761965   -7.8745871    840.26472  0.014911001  0.013427149           28 
 4697000   0.50390129   -7.8931407    841.83961  0.014935768  0.013422971           25 
 4698000    0.5013631   -7.8844754    840.13314  0.014902319  0.013418796           29 
 4699000   0.49891476   -7.8715199    840.39308  0.014903758  0.013414618           35 
 4700000   0.50045531   -7.8647467     840.1807  0.014896821  0.013410445            9 
 4701000   0.49519133   -7.8976564    841.35728  0.014914509  0.013406272           17 
 4702000   0.50400789   -7.8810665    840.29747  0.014892554  0.013402099           12 
 4703000   0.49413935    -7.882849    839.27789  0.014871321  0.013397931           29 
 4704000   0.50554686   -7.8966223    839.82205    0.0148778  0.013393764           14 
 4705000   0.50183474   -7.8626674    840.74483  0.014890982  0.013389599           24 
 4706000   0.49368421   -7.8767522    841.14087  0.014894831  0.013385439           65 
 4707000   0.50333896   -7.8913612    839.76131  0.014867242  0.013381278           46 
 4708000   0.49816399   -7.8760297    840.43854  0.014876072  0.013377119           14 
 4709000   0.50212612   -7.8729554    840.16421  0.014868058  0.013372961           36 
 4710000    0.5113904   -7.8863093    841.01042  0.014879873  0.013368805           25 
 4711000   0.50388688   -7.8796667    840.42989  0.014866445  0.013364648           29 
 4712000   0.49756394   -7.8925225    839.59121  0.014848458  0.013360493           36 
 4713000   0.48844543   -7.8771734    841.93118  0.014886682  0.013356341           31 
 4714000   0.50142192   -7.8895162    840.86378  0.014864655   0.01335219           27 
 4715000   0.48558264   -7.8881986    842.29525  0.014886802  0.013348042           16 
 4716000    0.4973665   -7.8801222    840.70096  0.014855474  0.013343891           42 
 4717000    0.5066181   -7.8770482    839.97562   0.01483951  0.013339743           39 
 4718000   0.49821027   -7.8641065    838.65894  0.014813108  0.013335596           15 
 4719000   0.49590258   -7.8905295    840.61635  0.014844535   0.01333145           35 
 4720000    0.4989071   -7.8720497    840.17539  0.014833605  0.013327311           14 
 4721000   0.49181561   -7.8984371    840.84783  0.014842333  0.013323167           20 
 4722000   0.50104832   -7.8763265    839.56375  0.014816528  0.013319026           19 
 4723000   0.49994222   -7.8816221    839.20656  0.014807089  0.013314885           14 
 4724000   0.48189347   -7.8753398    840.00615  0.014818059  0.013310747           13 
 4725000   0.48249501   -7.8805102    840.46467   0.01482301   0.01330661           34 
 4726000   0.49970668   -7.8856296    841.36051   0.01483567  0.013302477           36 
 4727000   0.50051891   -7.8622314    839.99179  0.014808402  0.013298345           18 
 4728000   0.49206921   -7.8830312    838.28791  0.014775238  0.013294214           19 
 4729000   0.49365472   -7.8926625    840.92442  0.014818574  0.013290085           27 
 4730000   0.50780122   -7.8957464     841.0704  0.014818013  0.013285957           15 
 4731000   0.49308165   -7.8909522    840.37733  0.014802673  0.013281833           20 
 4732000   0.49733505     -7.89928    840.24452  0.014797205  0.013277708           20 
 4733000   0.50662988   -7.8739678    841.05061  0.014808272  0.013273583           34 
 4734000   0.50168822   -7.8942986    839.01049  0.014769231  0.013269463           16 
 4735000   0.49946776   -7.9004472    840.19816  0.014787014   0.01326534           28 
 4736000   0.48657358    -7.877289    841.02236  0.014798395  0.013261218           21 
 4737000   0.51159394   -7.8912639    841.71247  0.014807411  0.013257101           42 
 4738000    0.4898218   -7.8965079     840.7218  0.014786861  0.013252988           19 
 4739000   0.50227396   -7.8842427    840.69528  0.014783275  0.013248877           31 
 4740000   0.48413458   -7.8829789    840.84724  0.014782828  0.013244766            9 
 4741000   0.48649535   -7.9052195    840.85412   0.01477983  0.013240654           22 
 4742000   0.48951492    -7.902422    839.67276  0.014755953  0.013236544           48 
 4743000   0.49190414   -7.8970577     839.9561   0.01475782  0.013232439           18 
 4744000   0.49625531    -7.864577    841.29256  0.014778186  0.013228334           26 
 4745000   0.49423163   -7.8871748    841.17321  0.014772975  0.013224228           39 
 4746000   0.49723681   -7.8748741    840.55559  0.014759018  0.013220126           31 
 4747000   0.49243981   -7.9015313    839.81701  0.014742943  0.013216022           16 
 4748000   0.48712112   -7.8877913     839.4453  0.014733314  0.013211917           43 
 4749000     0.505304   -7.8784529    838.66379  0.014716498  0.013207814           15 
 4750000   0.49524967   -7.9098385    840.76285  0.014750225  0.013203715           33 
 4751000   0.49381917   -7.8941718    841.71514  0.014763824  0.013199615           22 
 4752000   0.48459246     -7.90819     841.1669  0.014751103  0.013195518           28 
 4753000   0.49612775   -7.8788242    840.69401  0.014739708  0.013191424           20 
 4754000   0.48941575   -7.8807864     839.1383  0.014709338  0.013187332           36 
 4755000   0.48826393   -7.8781581    839.58063  0.014713996  0.013183244           17 
 4756000   0.49873722   -7.8905158    839.75722  0.014713997  0.013179152           19 
 4757000   0.48049453   -7.8937923    839.53198  0.014706958  0.013175061           60 
 4758000   0.48902063   -7.8979737    839.57437  0.014704609  0.013170969           20 
 4759000   0.48562679   -7.8894536    839.68475  0.014703452  0.013166879           28 
 4760000   0.48150956   -7.8984736    840.19344  0.014709269  0.013162793           29 
 4761000    0.4903806   -7.8989423    839.15487  0.014688001   0.01315871           51 
 4762000   0.49324652   -7.8988148    840.27916  0.014704591  0.013154624           29 
 4763000   0.48060825   -7.8996172    840.41543  0.014703888  0.013150539           20 
 4764000   0.48947214   -7.9047408    839.73293  0.014688863  0.013146457           32 
 4765000   0.49687413   -7.9130388     840.0252  0.014690892  0.013142376           30 
 4766000   0.49470875   -7.8858431    840.27778  0.014692226  0.013138298           17 
 4767000   0.49995629   -7.9005146    839.94525  0.014683331  0.013134221           42 
 4768000   0.48396783   -7.8989149    839.30038   0.01466898  0.013130148           43 
 4769000   0.49002281   -7.9028522    839.44927  0.014668506  0.013126071           26 
 4770000    0.4804946   -7.8975393    840.51165  0.014683991     0.013122           35 
 4771000   0.48495859     -7.91019    840.97949  0.014689085  0.013117928           28 
 4772000   0.48758233   -7.9105041    839.40941  0.014658588  0.013113858           32 
 4773000   0.47460182   -7.9076205    840.61944  0.014676644  0.013109789           21 
 4774000   0.48665194   -7.9045448    840.82884  0.014677225  0.013105721           13 
 4775000   0.48795295   -7.9041049    839.54768  0.014651792  0.013101655           17 
 4776000   0.48707696   -7.8928754    839.32699  0.014644874  0.013097592           31 
 4777000   0.48974929    -7.901751    840.10741  0.014655422  0.013093528           53 
 4778000   0.49752239   -7.8963469    839.48288  0.014641462  0.013089468           24 
 4779000    0.4842774   -7.9153006    838.45086  0.014620403  0.013085409           39 
 4780000   0.47805923   -7.8928363    840.24886   0.01464869  0.013081348           26 
 4781000   0.49295501   -7.8894256    839.22687  0.014627813   0.01307729           20 
 4782000   0.49140333    -7.897562     839.5164  0.014629799  0.013073234           35 
 4783000   0.49063786   -7.8995302    840.84093  0.014649818  0.013069181           41 
 4784000   0.47393449   -7.9106644    839.51881  0.014623725  0.013065133           35 
 4785000   0.48606054   -7.8937042    839.87372   0.01462685   0.01306108           46 
 4786000   0.48920603   -7.9137299    839.70879  0.014620922   0.01305703           29 
 4787000   0.48824047   -7.9087904    839.76916  0.014618919   0.01305298           31 
 4788000   0.48501239   -7.9225171    838.78913  0.014598808  0.013048933           34 
 4789000   0.48500291   -7.9053009    838.00372  0.014582093  0.013044884           24 
 4790000   0.48189276   -7.9115979    840.53742  0.014623128  0.013040837           31 
 4791000   0.48011275   -7.9048856    839.58216  0.014603461  0.013036792           26 
 4792000   0.48819171   -7.9060001    839.11358  0.014592265  0.013032749           29 
 4793000    0.4810767   -7.9137005    841.35529  0.014628196  0.013028707           37 
 4794000   0.47656221   -7.9095786    839.92941  0.014600358  0.013024669           18 
 4795000   0.48824412   -7.8922354    839.10994  0.014583072   0.01302063           23 
 4796000   0.49703211   -7.9056523    839.63061  0.014589078  0.013016598           29 
 4797000   0.48973247   -7.9026428     840.0432  0.014593204  0.013012567           19 
 4798000   0.47731636   -7.8980769    839.48487  0.014580465  0.013008534           16 
 4799000   0.47669758    -7.911852    838.73398  0.014564388  0.013004499           16 
 4800000   0.48840218    -7.910058    838.23744  0.014552733  0.013000464           28 
 4801000   0.47798226   -7.9162043    840.97447   0.01459721  0.012996431           26 
 4802000   0.47764899   -7.9093392    840.04134  0.014577977  0.012992403           38 
 4803000   0.48950061   -7.9167902    839.23736  0.014560992  0.012988374           18 
 4804000    0.4801056   -7.9043353      838.773  0.014549906  0.012984345           21 
 4805000   0.48690498   -7.9245828    840.62332  0.014578968  0.012980322           24 
 4806000   0.48831318   -7.8996995    839.14283  0.014550264  0.012976294           32 
 4807000   0.49148676   -7.9240832    840.01505  0.014562358  0.012972266           14 
 4808000   0.48298759   -7.9166471    839.15463  0.014544416   0.01296824           16 
 4809000   0.48725079   -7.9174074    839.27427  0.014543465  0.012964218           41 
 4810000   0.48789754   -7.8997813    838.74727  0.014531311  0.012960194           38 
 4811000   0.47872653   -7.9064402    838.65342  0.014526665   0.01295617           16 
 4812000    0.4936643   -7.9151004     838.5447  0.014521763  0.012952151           13 
 4813000   0.48029979   -7.9202634    838.37799   0.01451586  0.012948136           15 
 4814000   0.48547583   -7.9038264    838.61551  0.014516956  0.012944122           28 
 4815000   0.47332722   -7.9111191    839.11924  0.014522659  0.012940108           23 
 4816000   0.47707178   -7.9241305    840.43733  0.014542451  0.012936094           16 
 4817000   0.48008088   -7.9170917     838.8483  0.014511942  0.012932082           38 
 4818000   0.48013539   -7.9174941    839.25251  0.014515921  0.012928073           36 
 4819000   0.48888838   -7.9114263    840.35393  0.014531956  0.012924068           32 
 4820000   0.47931693   -7.9090486    838.77902  0.014501712  0.012920062           23 
 4821000    0.4824996   -7.9166908    838.11267  0.014487186  0.012916056           23 
 4822000   0.48598637   -7.9242094    840.09403  0.014518423  0.012912055           31 
 4823000   0.48198067   -7.9138129    839.07244  0.014497761  0.012908053           29 
 4824000   0.48202474   -7.9074515    839.01167  0.014493706  0.012904053           20 
 4825000   0.47479229    -7.911799    838.77443  0.014486605  0.012900058           18 
 4826000   0.48558805   -7.9187484    840.01765  0.014505071  0.012896064           32 
 4827000    0.4684489   -7.9106511     839.7423  0.014497312  0.012892069           30 
 4828000   0.47415139    -7.913418    839.05379  0.014482425  0.012888077           36 
 4829000   0.48369601   -7.9207759     839.6154  0.014489118  0.012884086           31 
 4830000     0.480485   -7.9159362    839.64209  0.014486579  0.012880097           31 
 4831000     0.480028   -7.9311251    838.77355  0.014468598   0.01287611           28 
 4832000    0.4807957   -7.9154478    838.97211  0.014469028   0.01287212           17 
 4833000   0.48376855   -7.9127309    837.68472  0.014443836  0.012868133           31 
 4834000   0.47841901   -7.9138104    839.30752  0.014468824  0.012864149           20 
 4835000   0.47923564   -7.9136815    840.34867  0.014483776  0.012860165           22 
 4836000   0.47847816   -7.9249704     840.3477  0.014480764  0.012856181           38 
 4837000   0.47793318   -7.9089188    840.09283  0.014473379  0.012852202           32 
 4838000   0.47105987   -7.9080982    838.12801  0.014436544  0.012848218           11 
 4839000   0.48210501   -7.9009097    839.40293  0.014455517   0.01284424           36 
 4840000    0.4754034   -7.9051577    837.78017   0.01442459  0.012840264           26 
 4841000   0.46603008   -7.9165348    839.67112  0.014454161   0.01283629           18 
 4842000   0.47492272   -7.9153066    840.20069   0.01446029  0.012832318           32 
 4843000   0.47668617   -7.9104241    839.16922  0.014439556  0.012828345           18 
 4844000   0.47210938   -7.9302883    838.73822   0.01442916  0.012824372           28 
 4845000   0.46832521   -7.9231123    839.80873  0.014444595  0.012820401           21 
 4846000   0.48374357   -7.9189596    838.64821  0.014421657  0.012816431           33 
 4847000   0.47530766   -7.9160469    838.84417  0.014422051  0.012812459           20 
 4848000   0.47942255   -7.9053317    838.75539   0.01441755  0.012808493           32 
 4849000    0.4765202   -7.9201851    839.89799  0.014434213  0.012804529           38 
 4850000   0.46402158   -7.9187377    839.32262  0.014421351  0.012800565           16 
 4851000   0.47749009   -7.9257242    837.37261   0.01438488  0.012796604           30 
 4852000   0.47782083   -7.9155003    838.93395  0.014408731  0.012792643            8 
 4853000   0.46728565   -7.9162104    839.17212  0.014409852  0.012788688           37 
 4854000    0.4773517   -7.9281252    839.98992  0.014420923  0.012784735           15 
 4855000   0.47892085   -7.9262968    838.48179  0.014392066  0.012780782           30 
 4856000   0.47240826    -7.914928    838.54717  0.014390225  0.012776831           22 
 4857000   0.47127313    -7.910796    838.42951  0.014385243  0.012772879           41 
 4858000   0.47983966   -7.9321009    838.07562  0.014376211  0.012768927           25 
 4859000   0.47653307   -7.9331422    839.97079  0.014405756  0.012764981           26 
 4860000   0.47851634   -7.9244286    838.91173  0.014384632  0.012761034           13 
 4861000   0.47050412   -7.9305202    839.18322  0.014386327  0.012757087           23 
 4862000   0.47629133    -7.921392    840.07296  0.014398618  0.012753143           15 
 4863000   0.47901089   -7.9272122    839.34154  0.014383123  0.012749205           18 
 4864000   0.47922112   -7.9292251    839.45943  0.014382186  0.012745266           28 
 4865000   0.46848143   -7.9205691    839.00499  0.014371446  0.012741328           23 
 4866000   0.47504971   -7.9128148    837.61221   0.01434464  0.012737391           29 
 4867000   0.47078404   -7.9236646    839.11444  0.014367414  0.012733458           18 
 4868000   0.47231601   -7.9333807    837.14423  0.014330735  0.012729523           26 
 4869000    0.4668809   -7.9177925    839.85916  0.014374258  0.012725589           19 
 4870000   0.47142269   -7.9343733    838.50213  0.014348086  0.012721658           34 
 4871000    0.4824817   -7.9191057    837.09379  0.014321046  0.012717726           36 
 4872000   0.47252217   -7.9266276    838.06933  0.014334793  0.012713794           18 
 4873000   0.46961949   -7.9205678    838.39711  0.014337457  0.012709869           22 
 4874000   0.46610019   -7.9237454    836.38415  0.014300098   0.01270594           37 
 4875000   0.47032862   -7.9346109    838.49915  0.014333319  0.012702013           16 
 4876000   0.47329299   -7.9215491    838.16068  0.014324595  0.012698086           40 
 4877000   0.47553515    -7.936104    837.84331  0.014316235  0.012694161           38 
 4878000   0.46891054   -7.9325042    840.12097   0.01435221  0.012690238           21 
 4879000   0.46776452   -7.9195933    838.93707  0.014329048  0.012686313           18 
 4880000    0.4745029   -7.9236809    836.87175  0.014290843  0.012682387           17 
 4881000   0.45484758   -7.9219634    839.13506  0.014326556  0.012678468           30 
 4882000   0.46232682   -7.9305221     839.3177  0.014326739  0.012674552           29 
 4883000   0.46998025   -7.9385288    839.39169  0.014325068  0.012670635           35 
 4884000    0.4647024   -7.9310962    837.66975  0.014292754  0.012666719           19 
 4885000    0.4750375    -7.920599    837.11808  0.014280418  0.012662806           47 
 4886000   0.45960358   -7.9228417    839.41549  0.014316678  0.012658892           33 
 4887000     0.469868   -7.9322133    838.60969  0.014300008  0.012654982           24 
 4888000   0.47601267   -7.9400439    840.81913  0.014334751  0.012651075           12 
 4889000   0.46096618   -7.9317669    838.32896  0.014289373  0.012647167           19 
 4890000   0.47097459   -7.9408309    839.24845  0.014302121   0.01264326           29 
 4891000   0.47525812   -7.9236935    838.59749  0.014288106  0.012639353           31 
 4892000   0.46956172    -7.928607    838.20571  0.014278511  0.012635449           43 
 4893000      0.47941   -7.9186984     837.0482  0.014255879  0.012631549           29 
 4894000   0.46421492   -7.9287271    838.04946  0.014270015  0.012627648           17 
 4895000   0.47161136   -7.9339867    839.31259  0.014288604  0.012623752           18 
 4896000   0.47669134   -7.9233214    838.63004  0.014274068  0.012619853           28 
 4897000    0.4762155   -7.9393583    838.22076  0.014264188  0.012615955           15 
 4898000   0.48062784   -7.9305033    838.14037  0.014259908  0.012612057           18 
 4899000   0.46571251   -7.9498419    837.23641  0.014241621  0.012608162           30 
 4900000   0.46578572   -7.9269281    838.90678  0.014267122  0.012604267           33 
 4901000   0.46020717   -7.9235217    839.28359  0.014270618   0.01260038           29 
 4902000   0.46514975   -7.9342689    838.79853  0.014259461  0.012596493           31 
 4903000   0.47243049   -7.9349744    837.63596  0.014236793  0.012592604           17 
 4904000   0.46605621   -7.9217669    839.95382  0.014273277  0.012588719           29 
 4905000   0.46527761   -7.9376537    839.38998  0.014260788  0.012584835           31 
 4906000   0.46914167   -7.9261092    840.23412   0.01427222  0.012580952           23 
 4907000   0.46856192   -7.9354472    838.63082  0.014242083  0.012577071           24 
 4908000   0.46717198   -7.9202789    837.89331  0.014226659  0.012573195           17 
 4909000   0.47471749    -7.948798    838.55519  0.014234997  0.012569316           22 
 4910000   0.46991345   -7.9270227    836.85514  0.014203244  0.012565434           14 
 4911000     0.463011    -7.936467    838.96817  0.014236207  0.012561556           20 
 4912000    0.4678963   -7.9363267    838.94591  0.014232931  0.012557675           38 
 4913000   0.46362333   -7.9391759    837.34807  0.014202932  0.012553797           29 
 4914000   0.45870394   -7.9453616    837.31251  0.014199439  0.012549921           16 
 4915000   0.46066311   -7.9518661    838.39989  0.014214986  0.012546049           17 
 4916000    0.4730596   -7.9357714     839.0663  0.014223391  0.012542178           17 
 4917000   0.46495858   -7.9546695    838.85162   0.01421686  0.012538309           18 
 4918000    0.4657317   -7.9418556    837.89997  0.014197844  0.012534441           17 
 4919000   0.46347248   -7.9371287    837.81136  0.014193457  0.012530576           39 
 4920000   0.46261099   -7.9283476    837.78394  0.014190107  0.012526712           25 
 4921000   0.46616497   -7.9428791    837.67119  0.014185315  0.012522848           17 
 4922000   0.46513754   -7.9299444    838.84366  0.014202283  0.012518987           30 
 4923000   0.46302876   -7.9308482    838.04604  0.014185897  0.012515125           25 
 4924000   0.45897157   -7.9406707    838.16616  0.014185049  0.012511264           36 
 4925000   0.46276081    -7.947954    838.21582  0.014183009  0.012507407           13 
 4926000   0.46592549   -7.9405998    837.85297  0.014173991  0.012503551           15 
 4927000   0.45936975   -7.9217277    838.69461   0.01418535  0.012499698           29 
 4928000   0.46356135    -7.948886    839.49345   0.01419598  0.012495845           43 
 4929000   0.45515376   -7.9327726    838.68868  0.014179493  0.012491994           26 
 4930000   0.46479985   -7.9382293    838.88749  0.014179978  0.012488146           28 
 4931000   0.46265901   -7.9464424    838.32628  0.014167618  0.012484297           30 
 4932000   0.46510165   -7.9426793    838.15474  0.014161847  0.012480452           37 
 4933000   0.46052835   -7.9352648    837.37293  0.014145769  0.012476607           17 
 4934000   0.46403628    -7.930063    838.24821  0.014157685  0.012472765           16 
 4935000    0.4713142   -7.9345366    838.79949  0.014164125  0.012468923           32 
 4936000   0.46522755   -7.9337402    839.01617  0.014164914  0.012465087           25 
 4937000   0.46426133   -7.9490996    837.14583  0.014130474  0.012461248           49 
 4938000   0.46239499   -7.9507934    837.78933  0.014138472  0.012457408           15 
 4939000    0.4578342    -7.937605    837.54108  0.014131421   0.01245357           26 
 4940000   0.46401722   -7.9436839    838.45123  0.014143914  0.012449732           47 
 4941000   0.47148605    -7.945716    839.31348  0.014155594  0.012445894           24 
 4942000   0.46283069   -7.9484539    837.35721  0.014119742  0.012442061           31 
 4943000   0.45786312   -7.9405752    837.77315  0.014123898  0.012438228           37 
 4944000   0.45387259    -7.943028    837.87282  0.014122721  0.012434402           21 
 4945000   0.45727659   -7.9346885    839.56997  0.014148466  0.012430576           32 
 4946000   0.45533701   -7.9501971    838.96823  0.014135467   0.01242675           28 
 4947000   0.45600968   -7.9484805    838.00567  0.014116395  0.012422927           27 
 4948000   0.46266767    -7.944384    838.37586  0.014119777  0.012419101           21 
 4949000   0.45362796   -7.9162065    837.23337  0.014097686  0.012415281           37 
 4950000   0.45635729   -7.9490816    838.57913  0.014117494  0.012411461           29 
 4951000   0.45215061     -7.93681    837.79755  0.014101487  0.012407641           38 
 4952000    0.4617974   -7.9440229    836.80882  0.014082001  0.012403824           28 
 4953000   0.47007751   -7.9442757    837.56204   0.01409183  0.012400006           18 
 4954000   0.46866734   -7.9448949    838.02481   0.01409677   0.01239619           22 
 4955000    0.4527782   -7.9478331       838.42  0.014100572  0.012392379           34 
 4956000   0.46208624   -7.9413983    837.81166  0.014087498  0.012388566           20 
 4957000   0.45882619   -7.9489584    837.40813  0.014077872  0.012384754           25 
 4958000   0.45933118   -7.9417511    839.26461  0.014106236  0.012380948           28 
 4959000   0.46181742   -7.9392673    837.88506  0.014080209   0.01237714           17 
 4960000   0.45440044   -7.9384335    837.81182  0.014076139  0.012373335           32 
 4961000   0.46410371   -7.9490721    837.05075  0.014060518  0.012369528           13 
 4962000   0.46187154   -7.9253975    838.61487  0.014083953  0.012365728           24 
 4963000   0.45737001   -7.9570299    837.98022  0.014070458  0.012361929           17 
 4964000   0.44662059   -7.9272043    836.96946  0.014050656  0.012358129           21 
 4965000   0.44891057    -7.953512    838.16411  0.014067877  0.012354333           42 
 4966000    0.4535501   -7.9329292    837.77251  0.014058473  0.012350534           30 
 4967000   0.44743665   -7.9340455    837.55235  0.014051949  0.012346736           19 
 4968000    0.4560726   -7.9397943    837.50728  0.014048364  0.012342939           27 
 4969000   0.45826807    -7.929256       837.19  0.014040216  0.012339144           17 
 4970000    0.4566352   -7.9450467    837.81814  0.014047923  0.012335349           23 
 4971000   0.45689942   -7.9463713    839.20317  0.014068316  0.012331557           19 
 4972000    0.4676622   -7.9555033    838.97478  0.014061658  0.012327766           33 
 4973000   0.46040887   -7.9475276    837.61651   0.01403607  0.012323978           20 
 4974000   0.44373664   -7.9452443     838.0851  0.014041099  0.012320191           28 
 4975000   0.45447094   -7.9563475    838.24539  0.014040961  0.012316404           36 
 4976000   0.45541328   -7.9499348    837.93214  0.014032894  0.012312621           20 
 4977000   0.45989443   -7.9553032    839.08195  0.014049326  0.012308836           18 
 4978000   0.45751953   -7.9599459    839.92154  0.014060559  0.012305055           34 
 4979000   0.44030386   -7.9516426    836.77563  0.014005082  0.012301274           26 
 4980000   0.44659489   -7.9526475    838.81052  0.014036321  0.012297496           56 
 4981000   0.44867699   -7.9472482    836.90088  0.014001554  0.012293714           23 
 4982000   0.45081182   -7.9454654    838.25086  0.014021324  0.012289937           43 
 4983000   0.45156103   -7.9534845     837.6371  0.014008246  0.012286163           34 
 4984000   0.45692606   -7.9467886    837.85503   0.01400908  0.012282387           29 
 4985000   0.45511905    -7.963932    836.69326  0.013986848  0.012278615           22 
 4986000   0.45141313   -7.9510456    836.75203  0.013985025  0.012274843           16 
 4987000   0.46754493   -7.9600879    838.43454  0.014010336  0.012271073           33 
 4988000    0.4498313   -7.9407344    839.16368  0.014019709  0.012267304           39 
 4989000   0.45780267   -7.9503069    838.11239  0.013999338  0.012263537           28 
 4990000   0.46097338   -7.9546583    836.71568  0.013973208  0.012259769           15 
 4991000    0.4611071   -7.9588047    838.44438  0.013999272  0.012256004           22 
 4992000   0.46381419   -7.9706139      838.245  0.013993139  0.012252241           23 
 4993000   0.45724771   -7.9481012    837.11898  0.013971543  0.012248478           22 
 4994000    0.4423695   -7.9503814    837.33941  0.013972424  0.012244719           19 
 4995000   0.44587355   -7.9596168    838.79433  0.013993899  0.012240962           27 
 4996000   0.45726338   -7.9664252    837.29881  0.013966153  0.012237206           22 
 4997000   0.45650515   -7.9547792    836.51894  0.013950353  0.012233448           35 
 4998000   0.45379612   -7.9563006    837.72866  0.013967731  0.012229693           14 
 4999000   0.44492017   -7.9676221    837.81137  0.013966316  0.012225935           30 
 5000000    0.4513816   -7.9638363    837.52657  0.013958776  0.012222182           27 
 5001000   0.44645815   -7.9500062    837.83277  0.013961087  0.012218433           21 
 5002000   0.45369805   -7.9560415    838.51906   0.01396973  0.012214685           29 
 5003000   0.46453484   -7.9602255    837.45013  0.013949133  0.012210939           38 
 5004000   0.44120432   -7.9683508    836.26369  0.013926587  0.012207195           34 
 5005000   0.44841482   -7.9580801    837.16485  0.013938809  0.012203449           45 
 5006000   0.45877561   -7.9444285    837.80323  0.013946651  0.012199707           19 
 5007000    0.4490878    -7.955172    837.34807   0.01393629  0.012195964           16 
 5008000   0.45318869   -7.9613655    837.55966  0.013937028  0.012192224           22 
 5009000   0.44550021   -7.9487348    837.02627  0.013925372  0.012188487           35 
 5010000   0.44814458   -7.9656084    836.81379  0.013919058  0.012184747           34 
 5011000   0.44685867   -7.9553042    838.06007  0.013937006   0.01218101           27 
 5012000   0.44792769   -7.9671785    837.82878   0.01393038  0.012177273           31 
Loop time of 11172.7 on 48 procs for 5000000 steps with 4000 atoms

Performance: 77331.552 tau/day, 447.521 timesteps/s
99.4% CPU use with 48 MPI tasks x no OpenMP threads

MPI task timing breakdown:
Section |  min time  |  avg time  |  max time  |%varavg| %total
---------------------------------------------------------------
Pair    | 692.62     | 736.94     | 772.56     |  75.0 |  6.60
Neigh   | 69.33      | 71.79      | 75.083     |  14.2 |  0.64
Comm    | 636.23     | 683.31     | 726.89     |  78.0 |  6.12
Output  | 13.535     | 13.539     | 13.634     |   0.4 |  0.12
Modify  | 9515.1     | 9551.4     | 9576.2     |  13.9 | 85.49
Other   |            | 115.6      |            |       |  1.04

Nlocal:        83.3333 ave          90 max          79 min
Histogram: 13 2 3 5 9 4 2 8 1 1
Nghost:        1863.08 ave        1888 max        1835 min
Histogram: 2 3 7 3 5 6 6 8 6 2
Neighs:        11575.5 ave       12826 max       10498 min
Histogram: 2 8 4 6 7 10 3 2 2 4
FullNghs:      23150.3 ave       25514 max       21688 min
Histogram: 7 8 3 7 6 6 7 3 0 1

Total # of neighbors = 1111216
Ave neighs/atom = 277.80400
Neighbor list builds = 269139
Dangerous builds = 1

#clear
#
#next RN
#
#jump SELF
Total wall time: 3:06:15
